LAMMPS (10 Feb 2015)
# ---- initialize simulations
clear
units metal
dimension 3
boundary p p p
atom_style charge
atom_modify map array
# ---- create atoms
read_data /Users/eugeneragasa/pyflamestk_git/pypospack/tests/tests_integration/workflow/WorkflowLammpsThermalExpansion/param_4537/MgO_NaCl_unit.npt.T1900/lammps.structure
  triclinic box = (0 0 0) to (4.2565 4.2565 4.2565) with tilt (0 0 0)
  1 by 1 by 1 MPI processor grid
  reading atoms ...
  8 atoms
# ---- define interatomic potential
include potential.mod
mass 1 24.305
mass 2 15.999

group Mg type 1
4 atoms in group Mg
group O type 2
4 atoms in group O

set group Mg charge 1.68595133453
  4 settings made for charge
set group O charge -1.68595133453
  4 settings made for charge

variable R_cut equal 10.0

pair_style buck/coul/long ${R_cut}
pair_style buck/coul/long 10
pair_coeff 1 1 0.0 0.5 0.0 ${R_cut}
pair_coeff 1 1 0.0 0.5 0.0 10
pair_coeff 1 2 1257.74769115 0.28905643469 0.0 ${R_cut}
pair_coeff 1 2 1257.74769115 0.28905643469 0.0 10
pair_coeff 2 2 3064.42109336 0.236064465148 18.7313535189 ${R_cut}
pair_coeff 2 2 3064.42109336 0.236064465148 18.7313535189 10

kspace_style pppm 1.0e-5

neighbor 1.0 bin
neigh_modify every 1 delay 0 check yes
# ---- define settings
compute eng all pe/atom
compute eatoms all reduce sum c_eng
# ---- run minimization
reset_timestep 0
fix 1 all box/relax iso 0.0 vmax 0.001
thermo 10
thermo_style custom step pe lx ly lz xy xz yz press pxx pyy pzz pxy pxz pyz c_eatoms
min_style cg
minimize 1e-25 1e-25 5000 10000
PPPM initialization ...
  G vector (1/distance) = 0.353047
  grid = 8 8 8
  stencil order = 5
  estimated absolute RMS force accuracy = 4.05219e-05
  estimated relative force accuracy = 2.81409e-06
  using double precision FFTs
  3d grid and FFT values/proc = 3375 512
Neighbor list info ...
  1 neighbor list requests
  update every 1 steps, delay 0 steps, check yes
  master list distance cutoff = 11
Memory usage per processor = 4.06549 Mbytes
Step PotEng Lx Ly Lz Xy Xz Yz Press Pxx Pyy Pzz Pxy Pxz Pyz eatoms 
       0   -115.66496       4.2565       4.2565       4.2565            0            0            0    45758.215    45758.215    45758.215    45758.215 1.7170796e-11 2.2312869e-10 1.3064853e-10   -115.66496 
      10   -115.69248    4.2933032    4.2933032    4.2933032            0            0            0   -6.7922673   -6.7922673   -6.7922673   -6.7922673 -6.3857142e-11 -7.0573166e-11 -5.8083176e-11   -115.69248 
      13    -115.6925     4.293297     4.293297     4.293297            0            0            0   0.20218487   0.20218487   0.20218487   0.20218487 1.6450748e-10 -9.163684e-11 -3.6202501e-11    -115.6925 
Loop time of 0.00651312 on 1 procs for 13 steps with 8 atoms

Minimization stats:
  Stopping criterion = linesearch alpha is zero
  Energy initial, next-to-last, final = 
        -115.664963059     -115.692495365     -115.692495365
  Force two-norm initial, final = 6.60751 4.45929e-05
  Force max component initial, final = 6.60751 2.97026e-05
  Final line search alpha, max atom move = 0.5 1.48513e-05
  Iterations, force evaluations = 13 19

Pair  time (%) = 0.00175571 (26.9566)
Kspce time (%) = 0.00107551 (16.5129)
Neigh time (%) = 0 (0)
Comm  time (%) = 0.000203609 (3.12614)
Outpt time (%) = 1.21593e-05 (0.18669)
Other time (%) = 0.00346613 (53.2177)

Nlocal:    8 ave 8 max 8 min
Histogram: 1 0 0 0 0 0 0 0 0 0
Nghost:    2189 ave 2189 max 2189 min
Histogram: 1 0 0 0 0 0 0 0 0 0
Neighs:    2344 ave 2344 max 2344 min
Histogram: 1 0 0 0 0 0 0 0 0 0

Total # of neighbors = 2344
Ave neighs/atom = 293
Neighbor list builds = 0
Dangerous builds = 0
unfix 1
# ---- define output variables ----
variable natoms equal "count(all)"
variable tot_energy equal "c_eatoms"
variable length_x equal "lx"
variable length_y equal "ly"
variable length_z equal "lz"
variable tilt_xy equal "xy"
variable tilt_xz equal "xz"
variable tilt_yz equal "yz"
variable tot_press equal "press"
variable press_xx equal "pxx"
variable press_yy equal "pyy"
variable press_zz equal "pzz"
variable press_xy equal "pxy"
variable press_xz equal "pxz"
variable press_yz equal "pyz"

# ---- output ----
print "pypospack:output_section:begin"
pypospack:output_section:begin
print "tot_energy = ${tot_energy}"
tot_energy = -115.692495364628
print "num_atoms = ${natoms}"
num_atoms = 8
print "xx = ${length_x}"
xx = 4.29329700926666
print "yy = ${length_y}"
yy = 4.29329700926666
print "zz = ${length_z}"
zz = 4.29329700926666
print "xy = ${tilt_xy}"
xy = 0
print "xz = ${tilt_xz}"
xz = 0
print "yz = ${tilt_yz}"
yz = 0
print "tot_press = ${tot_press}"
tot_press = 0.202184869803092
print "pxx = ${press_xx}"
pxx = 0.202184869911938
print "pyy = ${press_yy}"
pyy = 0.202184869729888
print "pzz = ${press_zz}"
pzz = 0.20218486976745
print "pxy = ${press_xy}"
pxy = 1.64507477572858e-10
print "pxz = ${press_xz}"
pxz = -9.16368397176372e-11
print "pyz = ${press_yz}"
pyz = -3.62025011042311e-11
print "pypospack:output_section:done"
pypospack:output_section:done
print "pypospack:lammps_sim:done"
pypospack:lammps_sim:done
#------------------------------------------------------------------------------
# RUN THERMOSTAT
# running using an NPT Nose-Hoover style thermostat
#------------------------------------------------------------------------------
variable tempdamp equal 0.1
variable pressdamp equal 1.0
# set initial velocities
velocity all create 1900 3188954 mom yes dist gaussian loop all
# fix for Nose-Hoover style thermostat
fix 20 all npt temp 1900 1900 0.1 aniso 0.0 0.0 1.0 drag 1.0 couple xyz
variable boxx equal lx
variable boxy equal ly
variable boxz equal lz
variable boxp equal press
variable boxt equal temp
# calculate averages every 10000 steps
reset_timestep 0
fix 21 all ave/time 10 10 100 v_boxx v_boxy v_boxz v_boxp v_boxt file lattice.out
thermo_style custom step temp pe ke etotal press lx ly lz press pxx pyy pzz pxy pxz pyz vol
thermo_modify flush yes
thermo 100
run 100000
PPPM initialization ...
  G vector (1/distance) = 0.352672
  grid = 8 8 8
  stencil order = 5
  estimated absolute RMS force accuracy = 4.1232e-05
  estimated relative force accuracy = 2.8634e-06
  using double precision FFTs
  3d grid and FFT values/proc = 3375 512
Memory usage per processor = 3.06549 Mbytes
Step Temp PotEng KinEng TotEng Press Lx Ly Lz Press Pxx Pyy Pzz Pxy Pxz Pyz Volume 
       0         1900    -115.6925    1.7191599   -113.97334     23202.96     4.293297     4.293297     4.293297     23202.96    24188.324    18861.787    26558.769    7627.3798    1250.6844    11967.838    79.135764 
     100    1024.8885   -114.69054   0.92734061   -113.76319    29947.714    4.3239801    4.3239801    4.3239801    29947.714    16402.337    44447.492    28993.314   -14056.342    251.36747   -10344.365    80.844606 
     200    1584.0543   -114.73085    1.4332856   -113.29756   -33255.809      4.37477      4.37477      4.37477   -33255.809   -39424.383   -37513.288   -22829.755    -14314.22    10993.368    2927.0285     83.72703 
     300    1613.1422   -114.32729    1.4596049   -112.86768   -372.67639    4.3873791    4.3873791    4.3873791   -372.67639   -36991.936   -60890.414    96764.321    8339.9748   -3293.7014    2937.4018    84.453081 
     400    2248.6261   -114.57341    2.0346042    -112.5388   -5244.1825    4.3583451    4.3583451    4.3583451   -5244.1825   -25880.964    -23359.49    33507.907    655.33748   -5057.8075   -6957.3894    82.787517 
     500    1190.7127    -113.3992    1.0773819   -112.32182     81912.78    4.3438285    4.3438285    4.3438285     81912.78    63955.876    49460.813    132321.65   -11615.138     7277.174    22932.792    81.963032 
     600    1914.6153   -113.99196    1.7323841   -112.25958   -45830.217    4.3872297    4.3872297    4.3872297   -45830.217   -30157.058    -48469.76   -58863.833    13887.689    18398.482    11177.611    84.444452 
     700    1695.4731   -113.70739    1.5340997   -112.17329   -35687.235    4.4053239    4.4053239    4.4053239   -35687.235   -32079.422   -71230.576   -3751.7054    747.75692    2616.3366   -15310.284    85.493584 
     800    2082.5351   -114.00704    1.8843215   -112.12272   -10877.897    4.3922723    4.3922723    4.3922723   -10877.897   -24922.116   -41350.192    33638.616   -12271.974    22169.448    16398.901    84.735964 
     900    2086.3084   -114.03282    1.8877357   -112.14509   -26185.681    4.3971501    4.3971501    4.3971501   -26185.681   -4858.1024   -7946.2043   -65752.737    8632.4001   -2999.3521    6170.7548    85.018585 
    1000    2170.0072   -114.10831    1.9634682   -112.14484   -34246.672    4.4065268    4.4065268    4.4065268   -34246.672   -55567.389   -22156.592   -25016.035   -28928.218   -15400.417   -13799.147    85.563638 
    1100    2133.3876    -114.0659    1.9303339   -112.13557   -19877.362    4.4091125    4.4091125    4.4091125   -19877.362    9570.0613   -24258.554   -44943.592   -11327.097    20352.799    4739.3484     85.71435 
    1200    2179.8055   -114.10262    1.9723338   -112.13028   -13215.988    4.3998093    4.3998093    4.3998093   -13215.988    16020.441    -5616.242   -50052.164    1170.9674   -6057.8062    1581.0105    85.172922 
    1300    1784.9586   -113.76162     1.615068   -112.14655    27017.943    4.3824429    4.3824429    4.3824429    27017.943   -12807.875     65421.71    28439.994    2895.8914   -11109.758    3679.2214    84.168348 
    1400     1627.801   -113.65377    1.4728685    -112.1809    37856.315    4.3765071    4.3765071    4.3765071    37856.315    111931.48    52831.179   -51193.715    24034.735   -327.64092   -428.55831    83.826803 
    1500    1645.6891    -113.7036     1.489054   -112.21455    10119.458    4.3807231    4.3807231    4.3807231    10119.458    12988.756    26057.458   -8687.8405    17334.771    18804.263    3435.8858    84.069297 
    1600     1707.181     -113.771    1.5446933    -112.2263    36922.459     4.381365     4.381365     4.381365    36922.459    42039.642    70463.458   -1735.7226   -1881.8957    -13640.17    15994.547    84.106259 
    1700    1983.9681   -114.03407     1.795136   -112.23894   -33119.349    4.3980062    4.3980062    4.3980062   -33119.349   -35380.763   -16979.422   -46997.862   -9625.3249   -1899.5562    9790.5676    85.068251 
    1800    1832.2213    -113.8556    1.6578323   -112.19776   -8942.5971    4.4030037    4.4030037    4.4030037   -8942.5971   -47583.603    25807.044   -5051.2324   -846.48449   -198.26312   -11445.276    85.358572 
    1900    1998.5831   -113.96695      1.80836   -112.15859    1066.6277    4.3894042    4.3894042    4.3894042    1066.6277   -25512.154    54546.806   -25834.769    6144.6447   -8828.8472    16235.044    84.570076 
    2000    1117.4228   -113.18359    1.0110676   -112.17252    63528.444     4.386564     4.386564     4.386564    63528.444    88827.399   -4345.6796    106103.61   -5048.0224    2456.8465    25964.983    84.406017 
    2100    2800.1162   -114.72753     2.533604   -112.19393   -36965.257    4.4051611    4.4051611    4.4051611   -36965.257   -50064.701   -3524.9942   -57306.076    5343.1545   -2327.6652   -5551.4989     85.48411 
    2200    2290.2721   -114.24616    2.0722863   -112.17388   -36722.294    4.4154622    4.4154622    4.4154622   -36722.294   -17510.831   -17326.489   -75329.562   -13978.222    3267.2841   -11840.104    86.085203 
    2300    1657.1132   -113.64966    1.4993908   -112.15027    9223.2748    4.4071391    4.4071391    4.4071391    9223.2748    24344.387   -49324.802    52650.239   -7218.5106      1307.33   -165.79011    85.599315 
    2400    2112.8971    -114.0699    1.9117937   -112.15811   -3823.2402     4.399256     4.399256     4.399256   -3823.2402    20209.239   -884.72933    -30794.23   -7535.7344   -88.003228    1768.6879    85.140793 
    2500    1281.9666   -113.36021    1.1599503   -112.20026    37892.532    4.3973347    4.3973347    4.3973347    37892.532   -6141.9206   -25826.049    145645.57   -2164.3302    26920.088    3058.8481    85.029293 
    2600     2292.347   -114.30091    2.0741637   -112.22674   -27468.062     4.406221     4.406221     4.406221   -27468.062   -5481.8473   -67369.029   -9553.3098    11097.371    1210.0431    14081.167    85.545825 
    2700    1275.9169   -113.37653    1.1544765   -112.22206    12053.619    4.4231767    4.4231767    4.4231767    12053.619    -77354.38    7379.7833    106135.45   -2032.4648   -10745.314   -11557.766    86.537206 
    2800    2430.5999    -114.3821    2.1992578   -112.18285   -25060.995    4.4092491    4.4092491    4.4092491   -25060.995   -56161.475   -24957.557    5936.0478   -6237.1854    7538.2945   -6810.1009    85.722319 
    2900    1796.9281   -113.81363    1.6258983   -112.18773     49361.45    4.3898722    4.3898722    4.3898722     49361.45   -3609.2118    60887.477    90806.083    28520.626   -12001.094   -6446.9365    84.597131 
    3000    2348.1926   -114.32404     2.124694   -112.19935     9857.123     4.393993     4.393993     4.393993     9857.123   -42089.993    344.77749    71316.584   -8546.2708   -29977.179    12261.745    84.835588 
    3100    1553.0932   -113.62233    1.4052713   -112.21706    4106.8567     4.403956     4.403956     4.403956    4106.8567   -78642.437     51983.88    38979.126    14778.662    18057.038   -11490.417    85.413972 
    3200    1797.4828   -113.86217    1.6264002   -112.23577   -31276.619    4.4071723    4.4071723    4.4071723   -31276.619   -100128.34   -25201.882    31500.367   -5410.5987    15631.987    16358.549    85.601244 
    3300    1846.5531   -113.90959       1.6708   -112.23879    26877.792    4.3948682    4.3948682    4.3948682    26877.792   -58907.898    33296.965    106244.31   -12221.219   -18396.102     14424.57     84.88629 
    3400    2196.1223   -114.22342    1.9870976   -112.23632   -15208.521    4.3887995    4.3887995    4.3887995   -15208.521    -48525.32   -43465.679    46365.435    22997.029    8187.4626   -8124.9086    84.535129 
    3500    1022.0564   -113.16173   0.92477807   -112.23695    26531.439    4.3914146    4.3914146    4.3914146    26531.439   -61461.867    34365.194    106690.99   -9633.2983    13103.895   -1020.7709    84.686335 
    3600    2409.8618   -114.39552    2.1804936   -112.21502   -37960.469     4.394271     4.394271     4.394271   -37960.469   -86194.613   -23072.724   -4614.0693    5748.7192   -1890.5857   -15611.803    84.851691 
    3700    2077.3229   -114.09728    1.8796055   -112.21767   -11235.129    4.3878502    4.3878502    4.3878502   -11235.129   -97036.965     14404.47    48927.107    19731.916    9713.4044     8610.883    84.480286 
    3800    2414.1544   -114.39155    2.1843776   -112.20717    17252.774    4.3664086    4.3664086    4.3664086    17252.774   -40005.971   -13691.847    105456.14   -2373.6868   -8322.4893   -2622.8483    83.247869 
    3900    1585.6647   -113.68324    1.4347427    -112.2485    26510.865    4.3765752    4.3765752    4.3765752    26510.865   -36713.986    24490.747    91755.832    30281.745    5484.2153    -10441.26    83.830715 
    4000    2228.2104   -114.24967    2.0161316   -112.23354   -7535.4324    4.3985631    4.3985631    4.3985631   -7535.4324   -66218.527   -59778.847    103391.08      6101.26   -6218.7089    15446.571     85.10057 
    4100    1992.9418    -114.0253    1.8032556   -112.22204   -20674.318    4.4006814    4.4006814    4.4006814   -20674.318   -58517.675   -49991.958     46486.68   -3845.3655   -7189.9437    7012.2966    85.223579 
    4200    1065.6737   -113.17069   0.96424393   -112.20645    11218.692    4.3923782    4.3923782    4.3923782    11218.692   -16982.706   -31332.415    81971.197    2078.0698    8979.5302   -656.13335    84.742091 
    4300    1524.8356   -113.58236    1.3797033   -112.20266    45046.428    4.3924723    4.3924723    4.3924723    45046.428    750.99504   -22787.687    157175.98   -1451.4988    18801.002    11880.674    84.747541 
    4400    2357.1327   -114.33273    2.1327832   -112.19995   -63350.467    4.3986563    4.3986563    4.3986563   -63350.467   -87246.086   -85608.727   -17196.587    17209.651   -1072.2646    8671.2975    85.105981 
    4500    2405.8041   -114.36371    2.1768222   -112.18689   -23253.192    4.3777195    4.3777195    4.3777195   -23253.192   -17682.651   -40166.853   -11910.072    13.623076   -5568.9162   -25977.965     83.89649 
    4600    1899.1577   -113.91714    1.7183978   -112.19874    -3817.038    4.3733243    4.3733243    4.3733243    -3817.038   -49861.485   -9817.5386    48227.909    9025.9759     14400.95   -14420.687    83.644048 
    4700    993.06578    -113.1066   0.89854678   -112.20806    9310.3632      4.37109      4.37109      4.37109    9310.3632   -37629.316   -16110.676    81671.082    28701.658    10884.995   -11125.672    83.515917 
    4800    1807.6276   -113.83131    1.6355795   -112.19573    19373.339    4.3745928    4.3745928    4.3745928    19373.339   -15411.317     92787.31   -19255.977     9854.753    8486.5946   -35155.542    83.716855 
    4900    2048.7533   -114.04657     1.853755   -112.19281   -8634.2139    4.3918498    4.3918498    4.3918498   -8634.2139   -9616.4539   -45193.394    28907.206    2850.4024    4917.4283     19226.65    84.711516 
    5000    1988.2846   -113.98084    1.7990417    -112.1818   -25338.405    4.3927283    4.3927283    4.3927283   -25338.405   -69953.473   -32308.058    26246.316   -14940.778   -7212.0065    3069.2662    84.762358 
    5100    1952.5379   -113.92852    1.7666973   -112.16182    29594.709    4.3792479    4.3792479    4.3792479    29594.709   -25737.682    73947.165    40574.645    1486.1716   -25955.207   -13591.911    83.984396 
    5200    2165.1531   -114.12815     1.959076   -112.16907    3498.0683    4.3840198    4.3840198    4.3840198    3498.0683     -1383.28    11558.821    318.66403    18501.641    701.38348   -4381.2151    84.259235 
    5300    1846.0285   -113.84913    1.6703254    -112.1788   -32475.611    4.3952862    4.3952862    4.3952862   -32475.611    -47921.14   -22566.926   -26938.765    12971.489    5914.2903   -2258.4855    84.910513 
    5400    1699.9903   -113.69971     1.538187   -112.16152    7666.3556    4.3861534    4.3861534    4.3861534    7666.3556    11003.603    43915.113    -31919.65    -7688.822   -12357.572    7864.5556    84.382317 
    5500    2057.1616   -114.03102     1.861363   -112.16965    10039.248    4.3696805    4.3696805    4.3696805    10039.248   -32851.412    56738.411    6230.7448    16489.633    5527.2062    6566.1789    83.435149 
    5600    1405.1534   -113.49151    1.2714124   -112.22009     16325.72    4.3814422    4.3814422    4.3814422     16325.72   -33500.559    105802.35   -23324.636   -8150.2777     4551.084   -14934.502    84.110705 
    5700    1681.2424   -113.73728    1.5212234   -112.21606   -37550.273    4.4088568    4.4088568    4.4088568   -37550.273   -65183.078   -2676.4949   -44791.248   -11964.228    6988.7595   -27.212393    85.699441 
    5800    2099.5795   -114.07261    1.8997437   -112.17287   -19041.209    4.4049622    4.4049622    4.4049622   -19041.209   -81351.282   -41620.058    65847.714    4181.8978    10067.366    5808.7091    85.472528 
    5900    2260.2863   -114.21096    2.0451545   -112.16581   -28049.885    4.3857222    4.3857222    4.3857222   -28049.885   -85509.903    3422.2538   -2062.0043    3259.6418    4146.8026    4605.3862    84.357431 
    6000    1800.2473   -113.81686    1.6289016   -112.18796   -3866.6735    4.3584067    4.3584067    4.3584067   -3866.6735   -25935.625   -21628.935     35964.54    -14697.67    5986.4837    -25911.43    82.791028 
    6100    1919.5817   -113.97101    1.7368779   -112.23413   -1399.1049    4.3548899    4.3548899    4.3548899   -1399.1049   -34230.007   -20827.605    50860.297    1319.8949    32127.904    29716.533    82.590777 
    6200    1743.7713   -113.83005    1.5778009   -112.25225    14974.625    4.3710669    4.3710669    4.3710669    14974.625   -31809.741    26963.775     49769.84   -12463.699   -20754.185   -12970.846    83.514589 
    6300    1272.0922   -113.38075    1.1510158   -112.22974    167.41115    4.3934874    4.3934874    4.3934874    167.41115   -9691.4946    12615.339   -2421.6111   -3366.5652   -11718.087   -2436.1859    84.806305 
    6400    1599.9368   -113.62382    1.4476565   -112.17616   -14693.971     4.384119     4.384119     4.384119   -14693.971   -18030.951    8354.0111   -34404.972    7381.9809    10276.515    55294.137    84.264955 
    6500    1929.4695   -113.88326    1.7458246   -112.13743    12460.224     4.355785     4.355785     4.355785    12460.224   -4220.3024    70081.054    -28480.08   -4286.7201   -8917.4656    -6031.653    82.641714 
    6600    1796.5958   -113.81193    1.6255976   -112.18633   -13988.561    4.3646024    4.3646024    4.3646024   -13988.561   -20004.009   -37011.781    15050.106   -12562.977    10404.431    -25726.69    83.144601 
    6700    1469.1493   -113.53811    1.3293172    -112.2088   -36208.126    4.3911075    4.3911075    4.3911075   -36208.126   -20312.429   -24957.777   -63354.173    22637.462    340.38714    43250.978    84.668568 
    6800    1860.0277   -113.86723    1.6829921   -112.18424    26622.527    4.3807062    4.3807062    4.3807062    26622.527   -45503.476    116428.75      8942.31   -14335.945   -6940.6097    6725.3838    84.068322 
    6900    2318.6488   -114.27944    2.0979622   -112.18148   -23286.385    4.3656856    4.3656856    4.3656856   -23286.385   -43375.004    1251.1964   -27735.348   -416.84464    10608.611   -40353.289     83.20652 
    7000    1821.1761   -113.85257    1.6478384   -112.20473   -17170.431    4.3700593    4.3700593    4.3700593   -17170.431   -5396.7749    3418.8332   -49533.352    15425.848   -16066.737    10672.297     83.45685 
    7100    2290.0025   -114.27006    2.0720424   -112.19801   -19519.588    4.3855115    4.3855115    4.3855115   -19519.588   -25227.092     31641.27   -64972.943   -14646.267   -12028.601    27364.692    84.345277 
    7200    1697.3368   -113.72429     1.535786   -112.18851   -29361.246    4.3933194    4.3933194    4.3933194   -29361.246    -20172.46   -11415.952   -56495.326   -11215.693    12810.206   -7759.4415    84.796579 
    7300    1126.2653   -113.18358    1.0190685   -112.16451    35331.022    4.3814507    4.3814507    4.3814507    35331.022    81403.724    28839.223   -4249.8799     24755.06    8106.5074    13973.351    84.111192 
    7400    2271.3638   -114.21667    2.0551777    -112.1615   -4322.2994    4.3762665    4.3762665    4.3762665   -4322.2994    21836.749   -9805.2302   -24998.417    -20928.21    7819.2572    16093.511    83.812978 
    7500    1920.5921   -113.91217    1.7377921   -112.17438   -2670.0361    4.3835688    4.3835688    4.3835688   -2670.0361    2452.6687    56140.539   -66603.316    7081.0852    10899.766   -9033.3293    84.233238 
    7600    2383.1275   -114.34158    2.1563039   -112.18528   -19911.305    4.3967163    4.3967163    4.3967163   -19911.305    -586.2508   -21947.021   -37200.644   -7969.0007    1021.5151    341.23518    84.993423 
    7700    1962.7605   -113.95475    1.7759469    -112.1788    1230.5643    4.4000704    4.4000704    4.4000704    1230.5643    40741.557   -51566.098    14516.234    20523.528     4289.455   -8456.3238     85.18809 
    7800    2267.6345    -114.2223    2.0518033   -112.17049   -4816.6622    4.3864496    4.3864496    4.3864496   -4816.6622    1343.9779    6149.2601   -21943.225    13438.998   -341.90649    9070.6347    84.399416 
    7900    2307.2518   -114.25037    2.0876499   -112.16272    14326.329    4.3806566    4.3806566    4.3806566    14326.329    15811.821    25075.945    2091.2196   -7887.4567   -2395.6764    18484.377    84.065466 
    8000    1181.5595   -113.26857    1.0690999   -112.19947    34748.268    4.4005064    4.4005064    4.4005064    34748.268    88257.475    27309.991   -11322.663   -13727.956     14815.92    10749.484    85.213413 
    8100    2109.5317   -114.08182    1.9087486   -112.17307   -48755.621    4.4222308    4.4222308    4.4222308   -48755.621   -56051.504   -2437.0027   -87778.355    -6436.631   -9601.8845   -10121.424    86.481701 
    8200    1814.9121   -113.79021    1.6421706   -112.14804   -29099.209    4.4070524    4.4070524    4.4070524   -29099.209   -28857.631    8038.4897   -66478.485   -1060.0677   -15119.257   -13670.743    85.594263 
    8300    2481.4826   -114.38825    2.2452976   -112.14296    6270.9741      4.37003      4.37003      4.37003    6270.9741    2705.6327   -11158.475    27265.764    557.77814    8063.3665   -11854.417    83.455172 
    8400    1813.8312   -113.85216    1.6411926   -112.21097    46655.957    4.3717129    4.3717129    4.3717129    46655.957   -24819.037    60479.988    104306.92    -7332.931   -6438.0159   -20179.032    83.551624 
    8500    2126.7068   -114.15863     1.924289   -112.23434    2105.4116     4.413423     4.413423     4.413423    2105.4116   -20870.114    24115.898    3070.4509   -9909.6348     -16415.5    16660.797    85.965987 
    8600    2010.5447   -113.96738    1.8191831    -112.1482   -22765.553    4.4223797    4.4223797    4.4223797   -22765.553   -14096.633   -64621.611    10421.584    14708.384    613.76773     9524.407    86.490434 
    8700    1388.2315   -113.37998     1.256101   -112.12387   -13887.086    4.3842661    4.3842661    4.3842661   -13887.086    2996.7363    9344.8457   -54002.841    14595.891   -15734.352   -51510.057     84.27344 
    8800    2060.1125   -113.97092    1.8640331   -112.10689    19062.156    4.3473762    4.3473762    4.3473762    19062.156    18325.463    34849.103    4011.9037    3278.6274    -6334.138    19833.419     82.16402 
    8900    2029.3702    -114.0264    1.8362168   -112.19019    24640.184    4.3534116    4.3534116    4.3534116    24640.184   -2968.9467   -3153.2673    80042.766   -4484.8384    23988.526   -21105.956    82.506697 
    9000    1165.3801   -113.29691    1.0544604   -112.24245   -10884.417    4.3927922    4.3927922    4.3927922   -10884.417     49086.44   -417.55765   -81322.132    20389.041   -8595.3086   -25055.093    84.766055 
    9100    1803.9082   -113.82039    1.6322141   -112.18818   -39893.778     4.411008     4.411008     4.411008   -39893.778   -31416.436   -24485.919    -63778.98    12394.776    3269.2992    9261.9317    85.824944 
    9200    1706.0239   -113.68303    1.5436463   -112.13938   -24789.575    4.3905355    4.3905355    4.3905355   -24789.575    18544.964   -25491.239   -67422.449   -12009.457   -7337.3248   -19134.494    84.635481 
    9300    1884.8753   -113.83281    1.7054748   -112.12734    17461.331    4.3597698    4.3597698    4.3597698    17461.331   -7506.0358    47860.033    12029.997   -3006.3166   -23375.603   -38497.188    82.868726 
    9400    2780.6238   -114.69225    2.5159669   -112.17629    13290.665    4.3665294    4.3665294    4.3665294    13290.665    53163.199   -8747.0376   -4544.1672   -19131.885   -9936.6856    5119.9648    83.254777 
    9500    2123.0643   -114.13513    1.9209932   -112.21414    3794.3552    4.3884238    4.3884238    4.3884238    3794.3552   -9913.4035    1473.0925    19823.377   -3159.4369   -18049.248    5363.2371    84.513423 
    9600    1799.7837   -113.82136    1.6284821   -112.19287    12837.979    4.4019109    4.4019109    4.4019109    12837.979     51398.29    14825.107   -27709.461    9777.7128    -28109.21   -26082.353    85.295031 
    9700    2414.7995   -114.33504    2.1849614   -112.15007    -17277.52    4.4033378    4.4033378    4.4033378    -17277.52   -23985.522    19408.584   -47255.624   -13538.936    1290.5607    15751.778    85.378008 
    9800    2128.2278   -114.05593    1.9256653   -112.13027   -11991.739    4.3780684    4.3780684    4.3780684   -11991.739   -7417.3594    9431.8644   -37989.723    3368.4973    4313.9952   -19722.845    83.916552 
    9900    1458.4106   -113.47947    1.3196005   -112.15987    32029.673    4.3589482    4.3589482    4.3589482    32029.673    34588.335    61199.029    301.65594    18564.962   -32120.685   -10567.854    82.821888 
   10000    2121.1799   -114.12991    1.9192882   -112.21063     3595.852    4.3687828    4.3687828    4.3687828     3595.852   -10974.974    29913.216   -8150.6851   -16027.242   -493.51961    737.41361    83.383739 
   10100     1856.069   -113.93628    1.6794102   -112.25687   -45368.899    4.4025601    4.4025601    4.4025601   -45368.899   -37609.109   -45046.151   -53451.437   -8485.8304   -907.35087   -15094.706    85.332779 
   10200    1869.9874   -113.89507    1.6920039   -112.20307   -62755.859    4.4239145    4.4239145    4.4239145   -62755.859   -55047.424   -47515.173   -85704.979    9570.8334   -6951.1575    -16986.32     86.58052 
   10300    1864.5153   -113.83017    1.6870526   -112.14312    7545.2585    4.3995007    4.3995007    4.3995007    7545.2585   -42203.475      79381.2    -14541.95   -35367.433   -8191.1059    -2237.501    85.155004 
   10400     1755.513   -113.72012     1.588425    -112.1317    18173.704    4.3801917    4.3801917    4.3801917    18173.704   -18513.363    73072.453   -37.977751   -6160.8553      -2129.9   -29428.614    84.038707 
   10500    1847.9183   -113.86715    1.6720353   -112.19511    6303.2864    4.3965738    4.3965738    4.3965738    6303.2864   -6290.3752    89161.533   -63961.298    5960.6409     2989.125   -3001.5839    84.985161 
   10600    2040.7893   -114.03106     1.846549   -112.18451   -15879.803    4.4211849    4.4211849    4.4211849   -15879.803   -24213.623    29690.972   -53116.757   -4340.9848   -380.45147     18945.21    86.420351 
   10700     1686.166   -113.65783    1.5256784   -112.13216   -14415.225    4.4209015    4.4209015    4.4209015   -14415.225   -3667.5846   -60857.504    21279.413    3228.7722    3162.6323   -5177.6853    86.403737 
   10800    2429.0259   -114.29947    2.1978337   -112.10164   -33774.051    4.4000316    4.4000316    4.4000316   -33774.051   -63990.603   -22004.531   -15327.018    30552.268   -6739.7733    2273.5118    85.185837 
   10900    2120.2738   -114.03502    1.9184683   -112.11656      1737.67    4.3741437    4.3741437    4.3741437      1737.67    5449.9161   -23028.598    22791.692    3412.4852    9928.8363   -4215.7239    83.691072 
   11000    2404.9308   -114.36264     2.176032   -112.18661   -5783.8257    4.3790276    4.3790276    4.3790276   -5783.8257     25401.54    1415.2656   -44168.282   -17305.874   -21845.645   -8478.6847    83.971722 
   11100    2409.1156   -114.40169    2.1798185   -112.22187   -30597.073    4.4187792    4.4187792    4.4187792   -30597.073   -6898.4612   -33113.748    -51779.01     180.2055    903.95893    25346.845    86.279358 
   11200    1970.7421   -113.94739    1.7831689   -112.16422    -60033.73    4.4279226    4.4279226    4.4279226    -60033.73   -19153.711   -43573.545   -117373.93   -10720.723    -12403.43   -20276.655    86.816059 
   11300    1791.0695   -113.74398    1.6205973   -112.12338    7420.5631    4.3888363    4.3888363    4.3888363    7420.5631    16337.647     39508.34   -33584.298   -4487.2165    4062.6665   -17266.697    84.537253 
   11400    1961.5601   -113.93496    1.7748608    -112.1601    54783.852    4.3674306    4.3674306    4.3674306    54783.852    137302.39    37453.378    -10404.21   -6025.1912    10857.486    9157.1888    83.306338 
   11500     1681.966   -113.78342    1.5218782   -112.26154   -1529.8179    4.4018045    4.4018045    4.4018045   -1529.8179    53779.344    18858.607   -77227.405      3569.71    4289.1915   -15108.306    85.288851 
   11600    1826.0399   -113.86042    1.6522393   -112.20818   -47452.734    4.4433381    4.4433381    4.4433381   -47452.734    17147.802    -70273.14   -89232.865    -10820.72   -4288.4598   -6894.1195    87.725952 
   11700    1428.0556   -113.41594    1.2921347    -112.1238    1584.3024    4.4365787    4.4365787    4.4365787    1584.3024    61448.415     5888.814   -62584.322    -44475.46    22381.691    -4748.151    87.326202 
   11800    2707.5908   -114.52843     2.449885   -112.07855   -24013.695    4.4044518    4.4044518    4.4044518   -24013.695    7673.8558   -43512.877   -36202.065     26189.79   -21950.586   -2071.2798    85.442819 
   11900    796.49114   -112.85291   0.72068192   -112.13223    55873.378    4.3847656    4.3847656    4.3847656    55873.378    130052.98    58459.922   -20892.765   -11658.202    1029.6186   -5879.4914    84.302246 
   12000    2034.9083   -114.04752    1.8412278   -112.20629   -20734.875    4.3853234    4.3853234    4.3853234   -20734.875   -16149.885    3760.7046   -49815.445    17190.977    36662.865     -5314.48    84.334421 
   12100    2146.8456    -114.1732     1.942511   -112.23069     7119.782    4.4008969    4.4008969    4.4008969     7119.782      53795.1    16440.921   -48876.675    -32238.07   -19776.122    10720.008    85.236101 
   12200    1564.1915   -113.62401    1.4153134    -112.2087    14591.856    4.4124211    4.4124211    4.4124211    14591.856    97616.115    18985.625   -72826.172   -1925.3695    20949.036    7955.6925    85.907458 
   12300    2008.9687   -113.98006    1.8177571    -112.1623   -5238.3932    4.4112871    4.4112871    4.4112871   -5238.3932    -16547.12    20591.374   -19759.433    11294.461    11630.862   -7791.8626    85.841237 
   12400    2027.5592   -113.96925    1.8345781   -112.13467    40163.802    4.3950296    4.3950296    4.3950296    40163.802     86465.92     10533.65    23491.836   -19342.788   -20805.076     2322.688    84.895644 
   12500    2242.3897   -114.21511    2.0289613   -112.18615   -29319.332    4.4039681    4.4039681    4.4039681   -29319.332    18983.104   -18828.185   -88112.915   -4885.1065    28950.437    366.17858    85.414677 
   12600    2749.8427   -114.66355    2.4881154   -112.17543   -54574.928    4.4217691    4.4217691    4.4217691   -54574.928   -34710.634   -48183.687   -80830.463   -29061.568    11179.497   -3412.6963    86.454617 
   12700    2447.7526   -114.34052     2.214778   -112.12574   -39940.093    4.4172266    4.4172266    4.4172266   -39940.093    15466.224   -61201.658   -74084.843   -4748.5858    18196.876   -3392.2815    86.188441 
   12800    1734.8278   -113.68348    1.5697086   -112.11378   -13679.314    4.4026216    4.4026216    4.4026216   -13679.314   -13068.012    20963.951   -48933.879    14943.932    45192.605   -8241.0042    85.336354 
   12900     2267.125   -114.17936    2.0513423   -112.12801    8860.1288     4.400691     4.400691     4.400691    8860.1288    4496.7362    7925.7978    14157.852    14005.761   -38282.379   -7534.9527    85.224137 
   13000    1183.5386   -113.23005    1.0708906   -112.15916    32160.174    4.4033688    4.4033688    4.4033688    32160.174    50325.462    25754.575    20400.485   -28373.329    34190.464    11856.713    85.379808 
   13100    2577.9971    -114.5014    2.3326259   -112.16877    -62842.32    4.4047602    4.4047602    4.4047602    -62842.32   -58257.424   -49954.827   -80314.709    21602.797    16193.868   -6721.9174    85.460774 
   13200    2268.6669   -114.20381    2.0527375   -112.15107   -12019.012     4.399946     4.399946     4.399946   -12019.012    11782.076   -40975.973    -6863.139    20364.928   -8241.3093    6272.2248    85.180861 
   13300    1188.5342   -113.21316    1.0754107   -112.13775    35784.254    4.3923892    4.3923892    4.3923892    35784.254    55327.053    6565.8952    45459.813   -21251.588    5866.6321    6546.8983     84.74273 
   13400    2686.1858   -114.58767    2.4305173   -112.15715   -14213.983    4.3922443    4.3922443    4.3922443   -14213.983   -16218.271    20689.745   -47113.424    10687.294   -2567.9046    3146.9358    84.734344 
   13500    1655.0905   -113.69682    1.4975607   -112.19926   -7640.4317    4.4129552    4.4129552    4.4129552   -7640.4317    45975.412    -19160.65   -49736.057    10752.686   -23090.547    20145.582    85.938657 
   13600    1713.2738   -113.71434    1.5502062   -112.16413    2612.5726    4.3964497    4.3964497    4.3964497    2612.5726   -37949.837    5353.4923    40434.062    -20512.89   -5305.0912     6312.184    84.977965 
   13700    2211.0251   -114.14348     2.000582    -112.1429    15846.618    4.3693946    4.3693946    4.3693946    15846.618    79717.046    -8006.936   -24170.256    15450.394   -2264.8884   -14365.139    83.418771 
   13800    1250.6365    -113.3233    1.1316022   -112.19169    47257.638    4.3856171    4.3856171    4.3856171    47257.638    2872.4083    67613.066     71287.44    14354.944   -25419.577    4240.6887    84.351367 
   13900    1990.6837   -113.98134    1.8012124   -112.18013   -29340.956    4.4011891    4.4011891    4.4011891   -29340.956   -42498.702   -6824.7637   -38699.402   -6836.9532   -1963.5256   -12135.169    85.253081 
   14000    1827.7759   -113.81507      1.65381   -112.16126   -7999.1526    4.3881711    4.3881711    4.3881711   -7999.1526   -17348.476    14591.774   -21240.755    20757.931    7613.5075   -39540.287    84.498821 
   14100    2399.5886   -114.35252    2.1711982   -112.18133   -9175.9139    4.3797748    4.3797748    4.3797748   -9175.9139    20270.394   -40493.934   -7304.2019   -3133.8104    14543.371    11664.973    84.014712 
   14200     2002.093   -114.01882    1.8115358   -112.20728    9022.0758    4.3907927    4.3907927    4.3907927    9022.0758    76934.903   -40685.594   -9183.0813   -4804.5065   -21657.274    -7117.428     84.65036 
   14300    1768.4748   -113.82092    1.6001532   -112.22076   -4547.1197    4.3940241    4.3940241    4.3940241   -4547.1197   -22457.195   -37902.101    46717.937    20352.314   -16238.332    -5564.323    84.837391 
   14400    2599.8966   -114.56569    2.3524411   -112.21325   -27311.886     4.397694     4.397694     4.397694   -27311.886   -14610.684   -41305.445   -26019.528   -14999.715    5204.8875    12857.111    85.050136 
   14500    1805.8506   -113.84787    1.6339716    -112.2139   -26008.279    4.4246924    4.4246924    4.4246924   -26008.279    24810.642   -52943.322   -49892.158   -449.60124   -6901.2275   -8038.8827      86.6262 
   14600     1997.754   -113.98539    1.8076098   -112.17778   -20144.624    4.4051447    4.4051447    4.4051447   -20144.624    25226.212    -31381.53   -54278.554    402.60119   -4333.7611    22977.001    85.483155 
   14700    1928.3883   -113.88481    1.7448463   -112.13997    26374.668    4.3700736    4.3700736    4.3700736    26374.668    3354.3014   -16638.772    92408.474   -13985.392    24213.826    12992.978    83.457671 
   14800    2332.9944   -114.31357    2.1109424   -112.20262    5148.5098    4.3802603    4.3802603    4.3802603    5148.5098    32662.469   -29276.847    12059.907   -1603.7625   -17214.559   -3376.7017    84.042656 
   14900    1222.4734   -113.34228    1.1061196   -112.23616   -28587.987    4.4077154    4.4077154    4.4077154   -28587.987    61151.576   -77170.265   -69745.272   -4147.5977    10536.114    33949.722    85.632899 
   15000    2450.8772   -114.40612    2.2176052   -112.18851   -45115.164    4.4017512    4.4017512    4.4017512   -45115.164    -40140.09   -67769.592   -27435.809   -5867.8788   -20890.166    2390.6063    85.285751 
   15100    2059.7883   -114.02622    1.8637398   -112.16248    16594.605    4.3836099    4.3836099    4.3836099    16594.605    71460.453    18379.388   -40056.027   -4980.0822     1511.075    10027.018    84.235607 
   15200    2146.6836   -114.09839    1.9423644   -112.15603   -13572.574    4.3805141    4.3805141    4.3805141   -13572.574    19983.535   -41661.105   -19040.153   -6394.3908     4768.423    28846.181    84.057265 
   15300    1692.0688     -113.707    1.5310194   -112.17598    16343.044    4.4001816    4.4001816    4.4001816    16343.044    50112.735    60888.036    -61971.64   -17782.496    9581.6596   -10637.567    85.194546 
   15400    2182.3784   -114.11447    1.9746618   -112.13981    -39342.59    4.4179106    4.4179106    4.4179106    -39342.59    15797.752   -72434.313    -61391.21   -2277.1166   -3968.1981    15125.872    86.228486 
   15500    1927.9273   -113.87612    1.7444291    -112.1317   -29718.627    4.4036935    4.4036935    4.4036935   -29718.627   -45522.794    7089.9228    -50723.01   -15367.826    1203.8244    28488.283    85.398697 
   15600    1721.9555   -113.69339    1.5580615   -112.13533    29763.552     4.376121     4.376121     4.376121    29763.552    80957.927   -14739.678    23072.405   -2032.0627    11589.668   -23891.981    83.804618 
   15700    2287.8123   -114.22937    2.0700607   -112.15931   -2191.8435    4.3708098    4.3708098    4.3708098   -2191.8435    6202.5945   -13782.535    1004.4105    8272.8197    20088.361   -8063.5448    83.499854 
   15800     1875.384   -113.90629    1.6968868    -112.2094   -12614.515    4.3997376    4.3997376    4.3997376   -12614.515    12925.308   -50520.944    -247.9096     13807.47   -16423.806    34058.001    85.168762 
   15900    1984.6821   -113.96888     1.795782    -112.1731   -45209.408    4.4214514    4.4214514    4.4214514   -45209.408   -30107.987    5158.1324   -110678.37   -8553.5679    6642.9026   -28711.117    86.435982 
   16000    1324.7219   -113.34284    1.1986362   -112.14421    11691.417    4.3986292    4.3986292    4.3986292    11691.417    75308.812   -11209.258   -29025.304   -16241.734    19188.476     -3858.55    85.104408 
   16100    1650.6383   -113.62909    1.4935322   -112.13556    13043.169    4.3687741    4.3687741    4.3687741    13043.169    18011.281   -9932.4904    31050.717   -27077.241   -14310.463    52679.669     83.38324 
   16200    2058.5196   -114.06336    1.8625918   -112.20077    24309.516    4.3814229    4.3814229    4.3814229    24309.516    39694.172    26088.816    7145.5605   -53.495424    9048.0367   -627.71609     84.10959 
   16300    1673.4696   -113.71978    1.5141904   -112.20559    9399.0155     4.408457     4.408457     4.408457    9399.0155   -43810.574   -13749.953    85757.574   -15550.418    10955.657   -13908.531    85.676128 
   16400    1326.3293   -113.35073    1.2000907   -112.15064    22293.157    4.4103367    4.4103367    4.4103367    22293.157    49588.244    55295.731   -38004.504   -9896.1023    9959.3902    3961.5689    85.785769 
   16500    1757.2121   -113.70802    1.5899624   -112.11806    25615.575    4.3932886    4.3932886    4.3932886    25615.575    14218.528    86699.756   -24071.558   -20051.324    15124.673   -13270.445    84.794797 
   16600    2728.6408   -114.59098    2.4689316   -112.12205   -16761.406    4.3930415    4.3930415    4.3930415   -16761.406   -28002.657    -8754.669    -13526.89    -33042.47   -20695.225   -2237.0149    84.780492 
   16700    1419.7755   -113.43368    1.2846427   -112.14904   -7915.5981    4.4156095    4.4156095    4.4156095   -7915.5981    13293.338     11657.45   -48697.582   -7803.1516     5336.511   -20650.469    86.093822 
   16800    1445.0658   -113.42482    1.3075259   -112.11729   -42382.251    4.4136248    4.4136248    4.4136248   -42382.251   -26261.894   -46906.334   -53978.526   -31061.755    37009.602   -16819.265     85.97778 
   16900    1378.8723    -113.3774    1.2476326   -112.12977    28370.422    4.3806669    4.3806669    4.3806669    28370.422    62482.639   -6589.4587    29218.087   -20796.442    9750.5203   -15139.639     84.06606 
   17000    2507.3576   -114.42202    2.2687098   -112.15331    25148.505    4.3607726    4.3607726    4.3607726    25148.505    58607.801    42796.146   -25958.433   -1633.2984   -4504.2941    7757.7016    82.925925 
   17100     1870.713    -113.9138    1.6926604   -112.22114     1919.407    4.3798276    4.3798276    4.3798276     1919.407   -279.40538   -10892.673    16930.299   -23226.663    20925.896   -3916.0916    84.017753 
   17200    1732.1535   -113.77234    1.5672888   -112.20505    -49077.47    4.4110243    4.4110243    4.4110243    -49077.47   -76193.793   -28838.079   -42200.539   -23529.538    13558.749    -12735.03    85.825899 
   17300    1821.5081   -113.80011    1.6481388   -112.15197    24166.359    4.3898351    4.3898351    4.3898351    24166.359    -20947.69     1573.465    91873.303    22022.223    12741.053    17795.763    84.594984 
   17400    1782.3166   -113.76711    1.6126775   -112.15444    7696.2387    4.3790976    4.3790976    4.3790976    7696.2387     56961.24    5221.5811   -39094.105   -28077.529    6626.4771   -10962.738     83.97575 
   17500    2186.2977   -114.15281    1.9782081    -112.1746    -41437.58    4.3871323    4.3871323    4.3871323    -41437.58   -60615.387   -53421.026   -10276.328   -17328.294   -3780.0633    1348.8879    84.438825 
   17600    2041.8111   -114.05145    1.8474736   -112.20397    11321.057    4.3986295    4.3986295    4.3986295    11321.057    -15166.76    12431.778    36698.152    8256.3155    15578.583   -12439.599    85.104426 
   17700    1795.1442   -113.80402    1.6242842   -112.17973   -46730.288    4.4253868    4.4253868    4.4253868   -46730.288   -47461.423   -83170.875   -9558.5649   -24900.446    18737.313    1089.9742    86.666986 
   17800    1826.1241   -113.77755    1.6523155   -112.12523    -50358.37    4.4010746    4.4010746    4.4010746    -50358.37   -29122.637   -80972.881   -40979.591    22633.593   -2856.2223   -36099.197    85.246427 
   17900    1756.9866   -113.69586    1.5897584    -112.1061    23393.873    4.3601093    4.3601093    4.3601093    23393.873    29028.391   -8279.8028    49433.031    29592.428    11928.577   -9614.3901    82.888091 
   18000      1882.84   -113.88575    1.7036332   -112.18212    42565.798    4.3733898    4.3733898    4.3733898    42565.798   -13394.069    52015.674     89075.79    1311.5667    -1818.797    10821.903    83.647807 
   18100    1853.2997   -113.88763    1.6769045   -112.21072   -53300.333    4.4087803    4.4087803    4.4087803   -53300.333   -19540.241   -85182.558   -55178.201     18874.05     14040.59   -40233.739    85.694976 
   18200    1725.1039   -113.71952    1.5609103   -112.15861   -45041.694    4.4099575    4.4099575    4.4099575   -45041.694   -55756.871   -74910.407   -4457.8034    7955.1492   -30460.684    8466.4271    85.763641 
   18300    2548.2636   -114.40012    2.3057225    -112.0944   -2245.5356    4.3863631    4.3863631    4.3863631   -2245.5356    -32513.55   -28743.421    54520.364   -2031.6031    9616.9761   -7321.3495    84.394422 
   18400    1558.7028   -113.54161     1.410347   -112.13127   -14344.944    4.3747886    4.3747886    4.3747886   -14344.944   -16322.054   -44934.171    18221.395    4017.7478    18002.013   -41074.977    83.728095 
   18500    2401.0218   -114.34237     2.172495   -112.16988      1040.83    4.3678667    4.3678667    4.3678667      1040.83   -21559.961   -33147.305    57829.756     18112.29   -35387.076    7329.4786    83.331297 
   18600    1950.2897   -113.97326    1.7646631   -112.20859   -9303.0952     4.383747     4.383747     4.383747   -9303.0952    37002.942   -39221.318    -25690.91   -7138.3694   -15754.823   -1631.7649     84.24351 
   18700    1521.4846   -113.57577    1.3766712    -112.1991   -3860.6274    4.3881359    4.3881359    4.3881359   -3860.6274    18581.028   -50033.954    19871.044    12781.667    15625.541   -33174.445    84.496792 
   18800    1965.1048   -113.95377    1.7780681    -112.1757    4407.1158    4.3836839    4.3836839    4.3836839    4407.1158    16124.568    2450.9237   -5354.1445    7167.8523   -5254.5848    14261.878    84.239869 
   18900    1148.9836   -113.21634    1.0396245   -112.17671    28445.667    4.3773721    4.3773721    4.3773721    28445.667    69383.445    37071.571   -21118.014   -1878.7165   -7338.1636   -24075.533    83.876519 
   19000    1828.0403   -113.83831    1.6540492   -112.18426   -11145.026    4.3760244    4.3760244    4.3760244   -11145.026   -19941.927    -59664.65    46171.499    16989.486    16527.685   -7450.0579    83.799073 
   19100    2155.2999   -114.14018    1.9501606   -112.19002    13581.369    4.3713011    4.3713011    4.3713011    13581.369    1722.5271    41227.542   -2205.9627    19838.437    12834.683    13773.957    83.528016 
   19200    2194.1825   -114.19508    1.9853425   -112.20974   -6315.6619    4.3766235    4.3766235    4.3766235   -6315.6619    37551.814   -24267.108   -32231.691   -4834.2493   -28535.732   -33443.039    83.833492 
   19300    2033.6848   -114.03722    1.8401207    -112.1971   -12334.973     4.400881     4.400881     4.400881   -12334.973   -30087.828   -25214.581    18297.489   -16182.838      12999.6     -4839.88     85.23518 
   19400    1560.8292   -113.55362    1.4122711   -112.14135   -3528.0702    4.4134783    4.4134783    4.4134783   -3528.0702    2450.8513   -33164.975    20129.913   -3109.6453   -2952.3815   -6886.7419    85.969223 
   19500    2779.1508   -114.59376    2.5146341   -112.07912   -35912.761    4.4038534    4.4038534    4.4038534   -35912.761   -14102.813   -55090.047   -38545.425   -19255.049   -16745.269   -18130.798    85.407999 
   19600    1774.7098   -113.69942    1.6057947   -112.09363   -121.28991    4.3850044    4.3850044    4.3850044   -121.28991    16749.278      23589.7   -40702.848   -8760.3377    9642.4092    1502.9788     84.31602 
   19700    1387.7403   -113.40099    1.2556565   -112.14534    2557.8737    4.3839011    4.3839011    4.3839011    2557.8737     66423.22    -54350.64    -4398.959    3869.1547    16170.652   -37580.212    84.252396 
   19800    2798.1043   -114.66369    2.5317836    -112.1319   -8754.2213    4.3752764    4.3752764    4.3752764   -8754.2213    13828.085   -489.77546   -39600.973   -17407.335   -5200.3711   -11367.096    83.756108 
   19900     1169.464   -113.22284    1.0581556   -112.16469    53687.987    4.3643735    4.3643735    4.3643735    53687.987    68285.803    60803.376    31974.782   -20406.623      12127.5    30119.791    83.131525 
   20000     2331.687   -114.29763    2.1097594   -112.18787   -9359.2984    4.3831902    4.3831902    4.3831902   -9359.2984   -33260.489    8424.3523   -3241.7586   -2404.7381   -4924.3647    3087.9098    84.211413 
   20100    2094.1673    -114.0443    1.8948466   -112.14946    24095.477    4.3846657    4.3846657    4.3846657    24095.477    53403.866    1884.9374    16997.629   -20605.967    9635.6131    16943.505    84.296484 
   20200    1651.7295   -113.63115    1.4945196   -112.13663    23113.658    4.3798806    4.3798806    4.3798806    23113.658    32965.788    41855.747    -5480.562   -29347.579    -11072.09    10029.334    84.020803 
   20300    1762.9695   -113.74663    1.5951719   -112.15146   -18668.402    4.4003081    4.4003081    4.4003081   -18668.402   -48425.561   -22060.363    14480.718    8696.2447    9824.3633    9209.3188    85.201893 
   20400    2216.7249   -114.14379    2.0057393   -112.13805   -18551.661    4.3796132    4.3796132    4.3796132   -18551.661    6064.6734   -59988.276   -1731.3815   -39987.209    18823.491   -2447.2891    84.005414 
   20500    1393.2324   -113.39295    1.2606259   -112.13233    86979.589    4.3556827    4.3556827    4.3556827    86979.589    101763.14    19876.404    139299.23   -919.56897   -5105.2134    17025.443     82.63589 
   20600     2575.286   -114.51611    2.3301729   -112.18593   -24774.891    4.3921568    4.3921568    4.3921568   -24774.891   -20686.898   -27568.282   -26069.493   -216.16574    9426.4875   -9683.5486    84.729276 
   20700    1425.5451   -113.43793    1.2898632   -112.14806   -15518.244      4.41088      4.41088      4.41088   -15518.244    2406.0088   -29652.225   -19308.517   -26056.842    2636.3723    18353.443    85.817475 
   20800    1649.7275   -113.59996    1.4927081   -112.10726    18230.765    4.3918789    4.3918789    4.3918789    18230.765     78100.94   -33272.089    9863.4443    5239.6204    -23059.63    17633.276    84.713196 
   20900    2020.9375    -113.9472    1.8285867   -112.11861    7821.2503    4.3700602    4.3700602    4.3700602    7821.2503   -1351.9827   -28371.688    53187.421   -5314.4639   -34993.779   -3452.6682    83.456904 
   21000     1096.898   -113.14857   0.99249634   -112.15608    51230.183    4.3659079    4.3659079    4.3659079    51230.183    91742.655   -10953.307    72901.201   -11447.025   -8821.3288    17783.624    83.219235 
   21100    2036.4581   -114.03242    1.8426301   -112.18979   -3415.9878    4.3973537    4.3973537    4.3973537   -3415.9878     39050.92   -44486.971   -4811.9117    21147.739   -13256.943    2038.4616    85.030394 
   21200    1185.7209   -113.23022    1.0728652   -112.15735   -3012.0527    4.4180319    4.4180319    4.4180319   -3012.0527    52969.303   -78138.885    16133.424   -9892.8552   -33282.779     5929.538    86.235592 
   21300    2419.6395   -114.29853    2.1893406   -112.10919    -27415.69    4.3960412    4.3960412    4.3960412    -27415.69   -11325.046   -62071.171   -8850.8534   -7188.0867   -2.2421448   -1541.8817    84.954279 
   21400    1806.0116   -113.74104    1.6341173   -112.10692    49389.337    4.3623167    4.3623167    4.3623167    49389.337   -2575.9478    30412.753     120331.2    34295.483   -13093.717    4421.2712    83.014048 
   21500    1495.2024   -113.50937    1.3528906   -112.15648    49120.519    4.3602041    4.3602041    4.3602041    49120.519    97726.382    19891.571    29743.604   -31297.362   -16291.566    13937.085    82.893493 
   21600    2429.1441   -114.37096    2.1979406   -112.17302   -33551.482    4.3917918    4.3917918    4.3917918   -33551.482    35888.602   -52289.995   -84253.052    6485.9501   -1204.2049   -11713.999    84.708159 
   21700    2127.7451   -114.07058    1.9252285   -112.14535   -24384.187    4.3980844    4.3980844    4.3980844   -24384.187    -25132.69    13214.688   -61234.559   -11153.531   -10534.876   -842.01071    85.072793 
   21800     1581.455   -113.57906    1.4309337   -112.14813     1819.294    4.3724076    4.3724076    4.3724076     1819.294    11836.609   -7844.5785    1465.8513   -41628.721   -25874.875   -2722.7809    83.591463 
   21900    2302.3549   -114.25124    2.0832191   -112.16803    9909.2857    4.3484155    4.3484155    4.3484155    9909.2857    15376.771   -18769.422    33120.508    6890.6624   -12446.955    -16760.52    82.222957 
   22000     1981.036   -114.00085     1.792483   -112.20837     61965.18    4.3442844    4.3442844    4.3442844     61965.18    79287.264      72884.6    33723.676    -15747.45     1961.237     25565.34    81.988841 
   22100    1430.5727   -113.54999    1.2944123   -112.25558   -6125.0746    4.3926898    4.3926898    4.3926898   -6125.0746   -54020.551     26764.28    8881.0476   -31138.246   -9873.5793   -6434.7618    84.760131 
   22200    2436.7669   -114.35667    2.2048379   -112.15184   -35337.537    4.4048875    4.4048875    4.4048875   -35337.537   -5716.8669   -31189.104    -69106.64    22944.102    1126.6412   -7268.3881     85.46818 
   22300    1765.2347   -113.72714    1.5972215   -112.12991    29772.211    4.3453777    4.3453777    4.3453777    29772.211   -23235.611    76905.188    35647.058   -30732.326    9477.8207    14263.287    82.050756 
   22400    1496.4719   -113.50846    1.3540392   -112.15442    25775.152    4.3215927    4.3215927    4.3215927    25775.152   -4977.3262    39228.225    43074.557   -27836.888    -17212.68    -932.0847    80.710772 
   22500     2901.081   -114.85944     2.624959   -112.23448   -23221.567    4.3642622    4.3642622    4.3642622   -23221.567   -34692.223   -16127.871   -18844.608    12958.348    332.40434   -1616.7932     83.12516 
   22600    1150.6612   -113.24287    1.0411424   -112.20173   -43686.189    4.4160947    4.4160947    4.4160947   -43686.189    -109843.4   -51259.323     30044.16   -54652.131    10344.448    4628.0357    86.122203 
   22700    1991.7513   -113.90478    1.8021784    -112.1026    -22358.91    4.4031307    4.4031307    4.4031307    -22358.91   -33070.364   -30017.179   -3989.1879    31900.383   -21311.031    5436.7962    85.365962 
   22800    1607.9166   -113.53014    1.4548768   -112.07526    19793.061     4.358117     4.358117     4.358117    19793.061   -27899.155    24400.776    62877.563   -33534.671   -5668.4574   -14660.481    82.774519 
   22900    2325.8392   -114.22541    2.1044682   -112.12094    11043.053    4.3541247    4.3541247    4.3541247    11043.053   -39621.923    47939.959    24811.122   -30661.383    2851.8238    6323.6689    82.547248 
   23000     2185.953   -114.14484    1.9778963   -112.16694   -4607.4158    4.3855283    4.3855283    4.3855283   -4607.4158   -35050.766    23268.105   -2039.5859       6820.9   -27622.486    22099.602    84.346246 
   23100    1622.2633   -113.60476    1.4678579    -112.1369   -29417.195    4.4083936    4.4083936    4.4083936   -29417.195   -56287.455   -84808.311    52844.182   -42301.382   -7169.6202    27016.442    85.672432 
   23200    1947.8718   -113.84456    1.7624754   -112.08208    2744.2716    4.3940723    4.3940723    4.3940723    2744.2716   -1270.3991   -67206.056    76709.269   -13406.459    25961.398   -14008.883    84.840185 
   23300    2024.6531   -113.92008    1.8319487   -112.08813    33467.856    4.3709768    4.3709768    4.3709768    33467.856   -9561.8629    15331.146    94634.284    9658.4621    1480.2773   -11298.842    83.509425 
   23400    1448.2283    -113.4532    1.3103874   -112.14281    5508.0771    4.3711687    4.3711687    4.3711687    5508.0771   -14680.967   -47890.325    79095.523   -40004.409    -7801.683    2794.5381    83.520427 
   23500    1494.7633   -113.51314    1.3524932   -112.16064    5243.9904    4.3661168    4.3661168    4.3661168    5243.9904    112387.45   -62272.052   -34383.422    9651.6092    39063.478   -41840.353     83.23118 
   23600    1929.4459   -113.92158    1.7458032   -112.17578    13081.345    4.3759145    4.3759145    4.3759145    13081.345    61214.787   -26097.561    4126.8094    12820.067    12184.491     2440.212    83.792758 
   23700    1407.8517   -113.44556    1.2738538   -112.17171     -8038.64    4.3949117    4.3949117    4.3949117     -8038.64    84119.751   -55188.476   -53047.195   -8370.8652   -10358.579   -16778.963    84.888815 
   23800    1542.5482   -113.53678      1.39573   -112.14105   -900.62205    4.3949995    4.3949995    4.3949995   -900.62205    95462.848   -61787.885   -36376.829   -4611.8472   -8043.2799   -17188.384    84.893902 
   23900    2292.8228   -114.19534    2.0745943   -112.12074    17511.471    4.3744235    4.3744235    4.3744235    17511.471    74464.447   -12787.188   -9142.8452   -1117.9915    10082.558   -13694.387    83.707137 
   24000    1221.7842   -113.24074    1.1054961   -112.13524     39327.74    4.3670745    4.3670745    4.3670745     39327.74    110870.89    8970.1275   -1857.7931   -33565.346   -23114.869    -59968.12    83.285959 
   24100    2236.3353   -114.15276    2.0234831   -112.12928    10878.774    4.3780842    4.3780842    4.3780842    10878.774    1360.9567    48886.791   -17611.426   -860.21505   -1813.3012    24899.136    83.917461 
   24200    1610.5818   -113.60171    1.4572882   -112.14442   -2463.0867    4.3708016    4.3708016    4.3708016   -2463.0867    21751.491   -14974.018   -14166.733    19769.554   -2079.5019    -56305.83    83.499388 
   24300    1863.2414   -113.84495       1.6859   -112.15905    13398.676    4.3648852    4.3648852    4.3648852    13398.676    6211.9856    26127.517    7856.5248   -1622.2747    3236.5216   -28855.286    83.160765 
   24400    2698.5955   -114.59314     2.441746   -112.15139    1538.5257    4.3664167    4.3664167    4.3664167    1538.5257   -7092.6748    49945.836   -38237.584   -12517.243    22591.719    17912.641    83.248334 
   24500    1494.9634   -113.52134    1.3526743   -112.16867    35553.747    4.3550138    4.3550138    4.3550138    35553.747    48892.047    88486.326   -30717.131    8512.4669   -1464.6205   -85460.644    82.597826 
   24600    2413.7586   -114.37662    2.1840195    -112.1926    9047.3628    4.3706546    4.3706546    4.3706546    9047.3628   -17248.397    33915.345     10475.14   -10493.324    8171.7102    16043.727    83.490963 
   24700    1238.6484   -113.30303    1.1207551   -112.18228   -21055.513    4.3951943    4.3951943    4.3951943   -21055.513    14318.755   -8828.9728   -68656.321   -742.80163    834.86058   -36106.695    84.905189 
   24800    2073.6019   -114.01841    1.8762386   -112.14217   -18315.278    4.3760686    4.3760686    4.3760686   -18315.278    40066.401    -24954.62   -70057.614    11503.334   -6635.5375   -44948.543    83.801612 
   24900    2430.8175    -114.3323    2.1994548   -112.13284   -15564.468    4.3701386    4.3701386    4.3701386   -15564.468   -58550.045    26589.579   -14732.939   -8621.2794    1076.2257    6736.2308    83.461391 
   25000    1093.2454   -113.15742   0.98919144   -112.16822   -11997.145    4.3618492    4.3618492    4.3618492   -11997.145   -1741.6127   -9012.0653   -25237.756   -4788.1521    14921.187   -66710.279    82.987357 
   25100    2537.5642   -114.45794    2.2960414    -112.1619   -2391.9452    4.3511751    4.3511751    4.3511751   -2391.9452   -951.97904   -11231.279    5007.4218    3107.2953     8188.172     -25190.5    82.379598 
   25200    1859.3122   -113.88445    1.6823447    -112.2021    14573.401    4.3647363    4.3647363    4.3647363    14573.401   -7980.4288     27656.45    24044.182    7343.3661    7207.7001   -7391.6121    83.152254 
   25300    941.28607   -113.05478   0.85169541   -112.20309   -25927.084    4.3839746    4.3839746    4.3839746   -25927.084    -16355.69   -84836.392     23410.83   -15209.921    21784.041   -64251.114     84.25663 
   25400    2171.6411   -114.13344    1.9649465    -112.1685   -4.6669742    4.3689962    4.3689962    4.3689962   -4.6669742   -39264.372    29381.275     9869.096    12052.393    15371.691   -8037.3595    83.395959 
   25500    2362.1396   -114.29163    2.1373135   -112.15431     38851.72    4.3395503    4.3395503    4.3395503     38851.72    14227.275    67579.335    34748.551   -13607.509   -16139.589   -15181.106    81.721093 
   25600    1164.5461   -113.28553    1.0537058   -112.23183    42261.062    4.3621143    4.3621143    4.3621143    42261.062    38519.688    117646.83   -29383.334   -18555.677    42.477496   -60088.632    83.002492 
   25700    2528.1089   -114.46074    2.2874861   -112.17325   -25173.812    4.4085632    4.4085632    4.4085632   -25173.812   -60806.622     45957.85   -60672.662   -9824.7234   -472.06786    10327.944    85.682317 
   25800      1327.47   -113.34364    1.2011228   -112.14252   -57900.526    4.4013858    4.4013858    4.4013858   -57900.526    -519.8377   -106240.59   -66941.154   -8713.5923    560.85509   -96507.892    85.264515 
   25900    1854.2638   -113.77251    1.6777769   -112.09473     41213.31    4.3460101    4.3460101    4.3460101     41213.31    10225.824    69505.516    43908.591    2214.2459     23705.31   -3908.5586    82.086587 
   26000    2090.1942   -113.99061    1.8912517   -112.09936    22745.522    4.3242802    4.3242802    4.3242802    22745.522    46183.944    22051.897   0.72701215    16187.922    2116.6462   -40184.081    80.861442 
   26100    1087.4347   -113.16628   0.98393379   -112.18235   -609.82017    4.3496835    4.3496835    4.3496835   -609.82017    35924.629   -29328.096   -8425.9934   -18138.874   -7829.0565   -67653.288    82.294907 
   26200    2361.4664   -114.31832    2.1367044   -112.18161    -26183.51    4.3935707    4.3935707    4.3935707    -26183.51   -71040.058    28710.017   -36220.489    11423.968    13461.226    22437.848    84.811134 
   26300    1094.5942   -113.14711   0.99041182    -112.1567   -42192.704     4.393792     4.393792     4.393792   -42192.704    10066.534   -43285.992   -93358.653    15789.845   -1092.7352   -91626.366    84.823949 
   26400     2312.204    -114.2035    2.0921308   -112.11136    21572.088    4.3350131    4.3350131    4.3350131    21572.088     59751.98   -1459.5703    6423.8539   -6745.9884   -2194.8351   -28717.861    81.465033 
   26500    2073.1777   -114.01461    1.8758547   -112.13876    14071.838     4.329418     4.329418     4.329418    14071.838    47419.035    19045.147   -24248.669    172.58216     4000.847   -33896.896    81.150005 
   26600    1534.2628   -113.56387    1.3882332   -112.17564   -67476.479    4.3769869    4.3769869    4.3769869   -67476.479    8107.4455   -98384.698   -112152.19    -9367.146    7820.2315   -74806.652    83.854377 
   26700    2766.0562     -114.628    2.5027858   -112.12521   -2842.8878    4.3904392    4.3904392    4.3904392   -2842.8878    7286.2917   -3002.8123   -12812.143   -9882.6384    2093.2437    19948.532    84.629914 
   26800    1121.6141    -113.1437      1.01486   -112.12884   -38463.862    4.3952239    4.3952239    4.3952239   -38463.862    103956.71   -102662.15   -116686.15   -4620.7208   -6690.6574   -98258.077    84.906904 
   26900    2175.8875   -114.06912    1.9687887   -112.10033    15145.566    4.3578773    4.3578773    4.3578773    15145.566    35789.443    25734.342   -16087.087    5625.7926    25941.474    17516.731    82.760861 
   27000    1281.4039   -113.24262    1.1594411   -112.08318    79781.414    4.3177295    4.3177295    4.3177295    79781.414    114960.67    98145.633    26237.938   -98.078246   -13498.504   -68690.223    80.494516 
   27100    2054.5879   -114.04928    1.8590343   -112.19024   -14860.669    4.3618409    4.3618409    4.3618409   -14860.669    53461.066   -55704.462    -42338.61    1977.3123    4545.7269   -27704.078    82.986884 
   27200    2086.0322   -114.02643    1.8874858   -112.13894   -41076.178    4.3921532    4.3921532    4.3921532   -41076.178    -49229.46   -12320.074       -61679   -21310.652    39861.565    4984.6818     84.72907 
   27300    1613.1594    -113.5888    1.4596205   -112.12918    48505.169    4.3540484    4.3540484    4.3540484    48505.169    48489.411    52358.254    44667.843    5241.1435     3567.609   -69359.766    82.542905 
   27400    2524.3372   -114.41991    2.2840734   -112.13583    39152.897    4.3503227    4.3503227    4.3503227    39152.897    79951.887    7169.8862    30336.918    2693.1813     682.3822    17755.274    82.331196 
   27500    1611.7506   -113.62538    1.4583458   -112.16704    8868.4558    4.3571592    4.3571592    4.3571592    8868.4558    60354.277   -44216.637    10467.728   -22564.397    14593.857   -28779.388    82.719955 
   27600    1938.9271   -113.92335    1.7543819   -112.16897    17890.389     4.359468     4.359468     4.359468    17890.389    71978.753   -22495.675    4188.0883   -727.60041   -5746.4447   -44911.959    82.851521 
   27700    2675.6259   -114.56956    2.4209625    -112.1486    -25059.76     4.384347     4.384347     4.384347    -25059.76    40510.956   -39766.439   -75923.798   -14603.493   -14623.158    20278.298    84.278104 
   27800     873.2785   -112.93784   0.79016074   -112.14768    -30487.71     4.379584     4.379584     4.379584    -30487.71    92163.405   -78241.727   -105384.81    3798.1616    11997.308   -71590.834     84.00373 
   27900    2546.6712   -114.42291    2.3042816   -112.11862    924.09163    4.3531133    4.3531133    4.3531133    924.09163   -11763.322    2240.1071     12295.49    -13828.06   -13813.971     17410.71    82.489738 
   28000    1567.7165   -113.56742    1.4185028   -112.14892    4504.7799    4.3417383    4.3417383    4.3417383    4504.7799     40872.04   -44827.374    17469.674    25950.179   -16235.677   -61906.508    81.844769 
   28100    1775.7756   -113.80364    1.6067591   -112.19689    14237.646    4.3420741    4.3420741    4.3420741    14237.646    26208.981   -39070.568    55574.525   -9438.2184   -4597.0588   -40499.936    81.863762 
   28200    2514.7121   -114.48798    2.2753643   -112.21262   -15079.491    4.3744644    4.3744644    4.3744644   -15079.491   -31479.217   -2837.6236   -10921.632   -2990.8406    18312.568    11699.523    83.709482 
   28300     1097.467   -113.16605   0.99301121   -112.17304   -11461.919    4.3972569    4.3972569    4.3972569   -11461.919    11695.818   -57688.498    11606.923     12497.19   -17281.055   -70381.081     85.02478 
   28400    2812.6813   -114.68229    2.5449731   -112.13732   -36567.975    4.3732804    4.3732804    4.3732804   -36567.975   -38456.054   -28635.706   -42612.166   -6562.7911    15539.849    5661.0878    83.641533 
   28500    1912.3475   -113.85993    1.7303322    -112.1296    44243.083    4.3294964    4.3294964    4.3294964    44243.083    30204.076    45372.982     57152.19   -12763.091    39285.083   -42223.915    81.154415 
   28600    1443.7867   -113.50512    1.3063685   -112.19875    9658.4601    4.3466706    4.3466706    4.3466706    9658.4601    27663.707    17715.294   -16403.621    1402.1276   -3273.6739   -52547.243    82.124019 
   28700    2728.5195   -114.63679    2.4688218   -112.16797     -29393.4    4.3813325    4.3813325    4.3813325     -29393.4   -58747.749   -16072.658   -13359.793   -2145.7508    -17068.89    17234.996    84.104384 
   28800    1469.7923   -113.48748    1.3298989   -112.15758   -33538.524    4.3847617    4.3847617    4.3847617   -33538.524    -5578.146   -33530.892   -61506.535    180.32456    12890.878   -64003.938    84.302023 
   28900    2085.7255   -114.01267    1.8872083   -112.12546    22993.596    4.3667303    4.3667303    4.3667303    22993.596    -12846.57     82316.52   -489.16235    4961.1653    21049.978    2087.2589    83.266271 
   29000     1825.583   -113.79503    1.6518259   -112.14321   -11211.125    4.3584002    4.3584002    4.3584002   -11211.125    2801.7374   -11294.262    -25140.85   -26530.851   -24035.739   -34569.408    82.790654 
   29100    1505.7335   -113.54067    1.3624193   -112.17825   -4155.3422    4.3735956    4.3735956    4.3735956   -4155.3422    288.18832    50738.434   -63492.649    704.71657    11943.323   -49371.583    83.659615 
   29200    2940.5028   -114.82173    2.6606287    -112.1611   -8761.0233    4.3717927    4.3717927    4.3717927   -8761.0233   -13612.257    7398.4222   -20069.235   -7490.2957    -2858.845      10403.2    83.556203 
   29300    1089.4402    -113.1822   0.98574836   -112.19646    18090.326    4.3557726    4.3557726    4.3557726    18090.326    28660.755    121809.29   -96199.071   -7741.6843   -8632.8444   -77954.283    82.641004 
   29400    2561.8388   -114.51012    2.3180055   -112.19212   -1730.2102    4.3581353    4.3581353    4.3581353   -1730.2102    20636.317    28793.811   -54620.759   -4880.8816   -13907.791    9072.9186     82.77556 
   29500    2558.8886   -114.50611    2.3153362   -112.19077    2164.6693     4.348435     4.348435     4.348435    2164.6693    -8624.624    67688.893   -52570.261   -10396.116    6303.4382   -34542.849    82.224066 
   29600    930.23998   -113.07471   0.84170069   -112.23301    -2988.092    4.3634999    4.3634999    4.3634999    -2988.092     33625.71    16789.595   -59379.581    5961.2678    10200.898   -54088.776    83.081609 
   29700    2523.0519   -114.46267    2.2829104   -112.17976   -1712.8821    4.3719834    4.3719834    4.3719834   -1712.8821    35618.351   -17718.811   -23038.186   -2627.6389   -12983.217     34505.06    83.567137 
   29800    991.75461   -113.07893   0.89736041   -112.18157    33982.712    4.3748345    4.3748345    4.3748345    33982.712    26753.933    87351.481   -12157.279   -638.38282    7057.1207   -49992.412    83.730733 
   29900      1903.63   -113.88501    1.7224444   -112.16256   -25104.502    4.3743365    4.3743365    4.3743365   -25104.502   -58741.734     -8320.27   -8251.5014   -9963.8524   -20538.274    -734.1936    83.702142 
   30000     2458.129   -114.37084    2.2241668   -112.14668    1362.1182    4.3578235    4.3578235    4.3578235    1362.1182   -29580.307    44853.891    -11187.23   -10118.733   -18313.628   -1451.9166    82.757797 
   30100    1368.9061   -113.41468     1.238615   -112.17606    25568.267    4.3477564    4.3477564    4.3477564    25568.267    34207.608    76248.977   -33751.785      2547.12    9620.1965   -73214.548    82.185577 
   30200    1779.0741   -113.80757    1.6097437   -112.19782   -24212.667    4.3556268    4.3556268    4.3556268   -24212.667   -54248.786    20591.513   -38980.728   -5869.6026   -50141.846   -3572.7451    82.632706 
   30300    2556.6617   -114.50459    2.3133212   -112.19127   -20138.365    4.3628081    4.3628081    4.3628081   -20138.365   -48612.149     7341.498   -19144.445   -21647.282    3041.6225    2371.4531    83.042104 
   30400    1578.8752   -113.64061    1.4285994   -112.21201   -19015.413     4.369482     4.369482     4.369482   -19015.413   -46616.992    63053.718   -73482.966   -9105.1718   -12250.762   -38978.874     83.42378 
   30500    1978.4713   -114.00211    1.7901624   -112.21195   -34584.304    4.3705699    4.3705699    4.3705699   -34584.304   -78052.723    10307.874   -36008.063    3035.7729   -38117.478   -10357.941    83.486106 
   30600    2291.4115   -114.25945    2.0733173   -112.18613    33862.397    4.3614849    4.3614849    4.3614849    33862.397    264.91099    74340.188    26982.093   -5762.0037    22515.611    4280.8759    82.966568 
   30700    1335.6089    -113.4085     1.208487   -112.20001    10110.137    4.3554799    4.3554799    4.3554799    10110.137    28782.067    36262.951   -34714.609   -11172.773   -26014.362   -42482.301    82.624349 
   30800    1922.2362   -113.92387    1.7392797   -112.18459    10607.471    4.3674331    4.3674331    4.3674331    10607.471    13461.265    23074.891   -4713.7436    12000.556    -18706.92   -6315.6796    83.306481 
   30900    2103.6945   -114.06495     1.903467   -112.16148   -6145.7798    4.3852411    4.3852411    4.3852411   -6145.7798   -37767.544    15056.089    4274.1163   -12758.409    15701.063    445.12701    84.329673 
   31000    1316.5595   -113.34208    1.1912507   -112.15083    -29979.63    4.3803253    4.3803253    4.3803253    -29979.63   -36307.316   -40521.289   -13110.287   -17489.318   -33155.556   -12022.476    84.046397 
   31100    2422.3318   -114.32474    2.1917767   -112.13296    5376.7802    4.3679859    4.3679859    4.3679859    5376.7802   -52125.922   -13459.231    81715.493    20657.658   -6459.0768   -11879.023    83.338117 
   31200    2299.0925   -114.22628    2.0802672   -112.14602   -19995.945    4.3631915    4.3631915    4.3631915   -19995.945   -42219.615    10548.304   -28316.526    484.50639    3560.3403    22091.422    83.063997 
   31300     1286.551   -113.33733    1.1640983   -112.17323    32445.181    4.3423344    4.3423344    4.3423344    32445.181    57870.763    20806.333    18658.449   -12481.438   -8459.8761     6297.313    81.878482 
   31400    1699.1283   -113.75938     1.537407   -112.22197   -18495.279    4.3503709    4.3503709    4.3503709   -18495.279   -62932.449   -3391.8054    10838.419    50399.683    3484.0438   -7741.5383    82.333933 
   31500    2168.2517    -114.1743    1.9618797   -112.21243    2609.7091    4.3688549    4.3688549    4.3688549    2609.7091   -61534.015     17523.37    51839.773    21036.771   -9242.9099      14103.1    83.387867 
   31600    1610.8531   -113.66266    1.4575337   -112.20512    7266.1433    4.3783594    4.3783594    4.3783594    7266.1433    37544.459    1660.1224   -17406.151    16401.697    7532.3241   -4063.6551    83.933288 
   31700     1221.685    -113.2879    1.1054062   -112.18249   -27465.212     4.381984     4.381984     4.381984   -27465.212   -89952.833   -22427.436    29984.633    47924.097    10404.702      5207.07    84.141911 
   31800    2340.4076   -114.27068      2.11765   -112.15303    12308.389    4.3627439    4.3627439    4.3627439    12308.389   -3498.6433    9183.1914    31240.618   -37488.776   -998.48867    20930.671    83.038437 
   31900    2163.9265   -114.11416    1.9579662   -112.15619    40378.529    4.3446379    4.3446379    4.3446379    40378.529    32865.148    41244.952    47025.487    26683.277   -6886.4451   -2982.0703    82.008856 
   32000    1494.6103   -113.55552    1.3523548   -112.20317   -7420.0705    4.3617872    4.3617872    4.3617872   -7420.0705   -3027.3929   -40399.638     21166.82    52635.023   -8413.6854   -731.11673    82.983818 
   32100     1870.967   -113.88247    1.6928902   -112.18958   -21248.187    4.3733985    4.3733985    4.3733985   -21248.187    22202.081   -54123.143   -31823.499   -42710.656   -8346.4885    21794.443    83.648308 
   32200    2423.5053   -114.36907    2.1928385   -112.17623   -6748.5347    4.3655531    4.3655531    4.3655531   -6748.5347    15719.157    3277.6797    -39242.44    13593.372    3928.8631    3862.2947    83.198945 
   32300    2205.4724   -114.18038    1.9955577   -112.18483    36211.833    4.3466139    4.3466139    4.3466139    36211.833    76900.551    39547.279   -7812.3316    13769.087   -16584.842   -21405.791    82.120806 
   32400     1249.997    -113.3646    1.1310235   -112.23358   -30137.748     4.347351     4.347351     4.347351   -30137.748    -23650.38   -14028.473   -52734.391   -43462.523   -17250.452    11351.308    82.162591 
   32500    1674.4682   -113.76001     1.515094   -112.24491   -11055.116    4.3522371    4.3522371    4.3522371   -11055.116    41741.805   -13654.005   -61253.149   -9095.6421    315.88496    33499.123    82.439935 
   32600    2316.2472   -114.32115    2.0957891   -112.22536    29066.254     4.360721     4.360721     4.360721    29066.254    45575.465    21492.064    20131.233    17767.948    658.52911   -13918.913    82.922983 
   32700     1584.274   -113.64247    1.4334844   -112.20898   -26383.486    4.3747977    4.3747977    4.3747977   -26383.486   -15025.038   -36519.054   -27606.366   -17435.424   -14863.857    5070.2494    83.728616 
   32800    1804.8567   -113.80784    1.6330722   -112.17477   -8396.7685    4.3700478    4.3700478    4.3700478   -8396.7685    53665.655   -40288.662   -38567.298   -13011.528    1805.2542    28337.375    83.456191 
   32900    2107.6114    -114.0683    1.9070111   -112.16129    11373.423    4.3598658    4.3598658    4.3598658    11373.423    21373.792    -7333.408    20079.887    40873.896    5700.5967    -6771.514    82.874205 
   33000    1642.3239   -113.65096    1.4860092   -112.16495    26597.352    4.3515814    4.3515814    4.3515814    26597.352    42271.299   -17185.239    54705.997   -20409.492    19635.981    19044.567    82.402678 
   33100    1443.3347   -113.49409    1.3059596   -112.18813    32309.628    4.3578133    4.3578133    4.3578133    32309.628    47755.189     30030.93    19142.766   -7593.7198    15128.092    32812.691    82.757213 
   33200    2080.7352   -114.06067    1.8826929   -112.17798    15851.783    4.3727291    4.3727291    4.3727291    15851.783    13938.485    15444.884     18171.98    40717.956   -3214.4636   -18230.662    83.609903 
   33300     2025.152   -113.99167    1.8324001   -112.15927    -2503.033    4.3696181    4.3696181    4.3696181    -2503.033    34602.734   -47383.369     5271.536   -15144.206   -5712.2263   -16380.466    83.431574 
   33400    1560.5325   -113.57315    1.4120026   -112.16115     27254.41     4.359668     4.359668     4.359668     27254.41    1048.9927    57182.901    23531.337   -30366.639    -27406.58    39024.541    82.862923 
   33500    2566.5273   -114.48617    2.3222478   -112.16392    2875.8797    4.3659805    4.3659805    4.3659805    2875.8797   -6045.3947    11005.859    3667.1746    5168.0403    4658.5501    -24136.33    83.223387 
   33600    2020.6757   -113.99733    1.8283499   -112.16898    11276.862    4.3578189    4.3578189    4.3578189    11276.862    58928.259   -17954.022   -7143.6507    7000.5925    96.141535   -19521.696    82.757532 
   33700    1777.8621   -113.77816     1.608647   -112.16951    46046.323    4.3563558    4.3563558    4.3563558    46046.323   -7840.5564    76320.165     69659.36   -16022.476   -19453.506     31999.35    82.674208 
   33800    2097.3275   -114.08259     1.897706   -112.18488   -29812.582    4.3698869    4.3698869    4.3698869   -29812.582   -58920.273   -21526.429   -8991.0455   -16817.949    39419.138    1145.0551    83.446972 
   33900     1536.043   -113.58349     1.389844   -112.19364    3853.3291    4.3427823    4.3427823    4.3427823    3853.3291    26684.964   -22059.155    6934.1784    9084.4869     19945.28   -45769.861    81.903826 
   34000    1535.0488   -113.58278    1.3889444   -112.19383    27418.194    4.3310964    4.3310964    4.3310964    27418.194    30819.483   -13307.504    64742.603   -26239.059   -16517.976   -4261.3994     81.24442 
   34100    1700.9944   -113.75389    1.5390955   -112.21479    -32531.68    4.3683647    4.3683647    4.3683647    -32531.68    -33076.52   -42848.198   -21670.322   -28521.254    16947.397    16559.218    83.359802 
   34200    2524.4313   -114.44884    2.2841585   -112.16468    -16827.44    4.3696616    4.3696616    4.3696616    -16827.44    21902.222   -44181.259   -28203.285    13320.572     37593.99   -15627.345    83.434066 
   34300    1176.0725   -113.24819    1.0641351   -112.18405    -1375.777    4.3555767    4.3555767    4.3555767    -1375.777    -23277.69   -39352.654    58503.013   -48673.851   -30621.455   -1819.7517    82.629857 
   34400    1770.8548   -113.79575    1.6023066   -112.19344   -24852.562    4.3476213    4.3476213    4.3476213   -24852.562   -33317.475   -18330.826   -22909.383    15738.483    10968.014    47551.186    82.177917 
   34500    2210.8871   -114.20277    2.0004571   -112.20232    15613.488    4.3440892    4.3440892    4.3440892    15613.488   -13763.523   -36887.607    97491.594   -16413.018   -6326.4804   -7058.3377    81.977789 
   34600    1608.6993   -113.67858    1.4555849   -112.22299   -7452.9757    4.3612946    4.3612946    4.3612946   -7452.9757   -54310.338   -27303.087    59254.498   -48771.425    1209.8022   -7150.3457    82.955705 
   34700    2132.5387   -114.11954    1.9295658   -112.18997     12743.93    4.3556907    4.3556907    4.3556907     12743.93   -16669.408   -17065.956    71967.153    39595.516   -12102.317    28383.579    82.636344 
   34800    2060.8525   -114.03757    1.8647026   -112.17286    18691.686    4.3573829    4.3573829    4.3573829    18691.686   -1078.0683   -30179.562    87332.688   -26223.771   -16110.628   -16573.832    82.732696 
   34900    1548.1421   -113.57796    1.4007915   -112.17717   -56810.438    4.3733195    4.3733195    4.3733195   -56810.438   -75542.814   -88710.322   -6178.1774    4221.4507    1385.9092   -25266.661    83.643775 
   35000    2056.8395   -114.02514    1.8610716   -112.16407   -7545.8206    4.3481764    4.3481764    4.3481764   -7545.8206   -17908.696   -53988.715    49259.949    54761.319   -711.75532    20700.951    82.209399 
   35100    2196.0843   -114.15744    1.9870632   -112.17037    8548.6795    4.3413046    4.3413046    4.3413046    8548.6795    79218.297   -23494.342   -30077.917   -25905.115    -26983.15   -19884.213    81.820245 
   35200    1360.9959   -113.42269    1.2314577   -112.19123   -48787.877    4.3686794    4.3686794    4.3686794   -48787.877   -50913.706   -98994.128     3544.203    52319.961    16984.963   -33411.702    83.377815 
   35300    2263.0385   -114.20244    2.0476448   -112.15479   -31039.256    4.3608238    4.3608238    4.3608238   -31039.256    -38861.89    -43391.99   -10863.888    44099.048   -18568.828    9510.7204    82.928845 
   35400    1911.6247   -113.88931    1.7296782   -112.15963    19618.973    4.3473284    4.3473284    4.3473284    19618.973    35774.576      24122.2   -1039.8586    -20014.33   -27135.823    19423.125    82.161311 
   35500     1280.663   -113.34744    1.1587708   -112.18867   -17276.658    4.3626431    4.3626431    4.3626431   -17276.658   -27642.929   -57624.817    33437.772    26140.838   -200.07714   -14747.654     83.03268 
   35600    2031.7961   -113.99713    1.8384118   -112.15872    -16526.01    4.3725388    4.3725388    4.3725388    -16526.01   -12346.737   -3784.0534    -33447.24    9719.6845    16588.369     2573.584    83.598988 
   35700    2226.8767   -114.16714    2.0149248   -112.15221   -2436.7562    4.3696383    4.3696383    4.3696383   -2436.7562    12735.104   -39415.887    19370.514   -17670.462   -4103.7241    36288.017    83.432734 
   35800    1382.9413   -113.40964    1.2513143   -112.15832    4453.1267    4.3798139    4.3798139    4.3798139    4453.1267   -63574.846   -53278.657    130212.88    33423.742    7563.9758   -22036.414    84.016964 
   35900    2389.4166   -114.28338    2.1619943   -112.12139    5589.8901    4.3763939    4.3763939    4.3763939    5589.8901    -15502.96    -10757.86     43030.49   -2992.6838    28259.293   -8290.8098      83.8203 
   36000    1995.5399   -113.93345    1.8056064   -112.12785     11499.02    4.3665496    4.3665496    4.3665496     11499.02    54989.007   -36970.724    16478.776    40038.812    -373.2682    9139.7093    83.255936 
   36100    2066.5244   -114.01345    1.8698347   -112.14361   -29385.031    4.3762207    4.3762207    4.3762207   -29385.031   -41064.612   -32469.382   -14621.098    50578.423    40249.889    2320.1243    83.810347 
   36200    2416.2471   -114.31241    2.1862711   -112.12614    7046.9589    4.3768911    4.3768911    4.3768911    7046.9589    68349.695    16037.497   -63246.316   -13411.704    21297.602   -2119.1829    83.848869 
   36300    1763.6495   -113.74278    1.5957872   -112.14699   -33446.218    4.3809667    4.3809667    4.3809667   -33446.218   -17606.674   -64215.621    -18516.36     53462.48   -5706.2336    18037.153    84.083321 
   36400    1373.4857   -113.39673    1.2427587   -112.15397   -21898.481    4.3575453    4.3575453    4.3575453   -21898.481   -34215.095     2088.128   -33568.477    46829.169    41141.944     4895.616    82.741945 
   36500    2548.2037   -114.44779    2.3056683   -112.14213    23429.159    4.3418347    4.3418347    4.3418347    23429.159    39049.726    23159.663    8078.0875   -20429.651     12593.55   -10427.525    81.850223 
   36600    1711.6694   -113.73635    1.5487544    -112.1876   -3823.7492    4.3732877    4.3732877    4.3732877   -3823.7492   -72311.714   -37499.896    98340.362    28905.974   -13902.321    12525.177    83.641947 
   36700    1836.9121   -113.81922    1.6620766   -112.15714   -28964.925    4.3915392    4.3915392    4.3915392   -28964.925   -63613.192     -25701.2    2419.6173   -7483.5252    39081.657     20073.02    84.693538 
   36800    2408.5787   -114.29545    2.1793326   -112.11612   -9252.0479    4.3894062    4.3894062    4.3894062   -9252.0479   -2345.5209   -44322.677    18912.054    13133.932    -26431.19    14691.187    84.570195 
   36900    1509.7353   -113.47846    1.3660402   -112.11242   -1528.4384    4.3852878    4.3852878    4.3852878   -1528.4384     1968.758   -12581.612    6027.5385    47393.305    247.98814    11126.727     84.33237 
   37000    2467.5791   -114.34728    2.2327175   -112.11456   -40871.248    4.3702693    4.3702693    4.3702693   -40871.248   -34337.716   -25618.899   -62657.129   -10006.675    36753.201    18301.083    83.468885 
   37100    1950.6931   -113.89701    1.7650282   -112.13198   -12621.278     4.347051     4.347051     4.347051   -12621.278   -25670.179   -60056.224    47862.569    65666.395     12156.33   -17467.528    82.145581 
   37200    2053.5282   -114.01726    1.8580754   -112.15919    14931.856    4.3496731    4.3496731    4.3496731    14931.856    24861.114   -31156.476    51090.931    20887.745    2594.7698   -4294.9586    82.294319 
   37300     1959.546   -113.94477    1.7730384   -112.17173   -43367.228    4.3848941    4.3848941    4.3848941   -43367.228   -50684.808   -36565.231   -42851.646     9735.413    36037.763    418.25377    84.309657 
   37400    2017.4278   -113.96618    1.8254111   -112.14077   -58065.595    4.3895515    4.3895515    4.3895515   -58065.595   -77725.699   -93288.296   -3182.7903    60592.056   -4935.8095   -6740.0031    84.578589 
   37500    2631.7677    -114.4854    2.3812788   -112.10412    5862.2147    4.3672402    4.3672402    4.3672402    5862.2147    57907.221   -30159.914   -10160.663   -18306.033   -19581.261    24782.915     83.29544 
   37600    1204.5132    -113.2283    1.0898689   -112.13843    10017.955    4.3613709    4.3613709    4.3613709    10017.955   -37611.305    -17944.44    85609.611    58528.019    23019.768    1087.0494    82.960062 
   37700     2164.543   -114.12142     1.958524    -112.1629    13900.618    4.3820964    4.3820964    4.3820964    13900.618   -37828.989    5330.7616    74200.082   -9827.7672    11524.333    2503.1807    84.148383 
   37800    1437.6711   -113.44711     1.300835   -112.14627   -61217.688    4.4087975    4.4087975    4.4087975   -61217.688   -113708.06   -133629.03    63684.024    63700.303   -3734.1443    12065.882    85.695984 
   37900    1791.4897   -113.75719    1.6209775   -112.13621   -38731.196    4.3688799    4.3688799    4.3688799   -38731.196    -65105.74   -56575.515    5487.6668    41932.054      1906.43   -2234.5024    83.389299 
   38000    2222.2408   -114.10397    2.0107302   -112.09324    38536.859    4.3092685    4.3092685    4.3092685    38536.859    21643.014    46478.664    47488.899   -5216.6307    21031.838   -15428.663    80.022232 
   38100    1184.7769    -113.2693     1.072011   -112.19729    3420.1366    4.3228786    4.3228786    4.3228786    3420.1366     881.8991   -63982.263    73360.774    101342.35    9486.6477   -789.63442     80.78284 
   38200     2264.201   -114.26139    2.0486966   -112.21269   -20460.666    4.3677765    4.3677765    4.3677765   -20460.666    -7968.827   -36871.485   -16541.685    2085.3102    -162.3254    24267.259     83.32613 
   38300    1670.2771   -113.69137    1.5113018   -112.18007   -24558.295    4.3971804    4.3971804    4.3971804   -24558.295   -50401.476   -16243.958   -7029.4496    18515.624    8405.7129   -3795.1784     85.02034 
   38400    1623.0515   -113.59941    1.4685711   -112.13084   -21270.891    4.3935451    4.3935451    4.3935451   -21270.891   -10670.342   -78707.374    25565.043    54324.682   -5733.0349    -6944.287    84.809648 
   38500     2591.988   -114.46392    2.3452852   -112.11864   -10926.873    4.3486446    4.3486446    4.3486446   -10926.873    33654.659   -47012.748    -19422.53   -37475.415   -5275.1194    31876.187    82.235955 
   38600    1391.7774   -113.39552    1.2593095   -112.13621    31956.566    4.3070998    4.3070998    4.3070998    31956.566    54712.747    14178.478    26978.471     34133.41    11557.249    15746.121    79.901476 
   38700    1917.2121   -113.95658    1.7347338   -112.22184    19440.794    4.3305176    4.3305176    4.3305176    19440.794    49639.128    -21220.81    29904.064    50799.859    7831.2687   -36312.086    81.211852 
   38800    2099.1183    -114.0942    1.8993263   -112.19487   -54505.888    4.3815905    4.3815905    4.3815905   -54505.888   -10003.244   -105372.46   -48141.965   -26908.692   -6182.4129   -3797.8389    84.119246 
   38900     1403.104   -113.42953    1.2695579   -112.15997   -69555.635     4.373872     4.373872     4.373872   -69555.635    -112009.8    -92666.96   -3990.1433    21179.873   -2722.8584    29204.451     83.67548 
   39000    2269.3586   -114.16874    2.0533634   -112.11538    -10946.91    4.3342389    4.3342389    4.3342389    -10946.91    22975.677   -47181.565   -8634.8418    34946.328    12483.589   -47096.984    81.421394 
   39100    2333.9797   -114.25952    2.1118339   -112.14769   -22045.232    4.3375396    4.3375396    4.3375396   -22045.232     19904.01   -51566.164   -34473.541   -31728.473   -28115.106   -18006.332    81.607554 
   39200    1643.5725   -113.65343    1.4871389    -112.1663   -498.69503    4.3531795    4.3531795    4.3531795   -498.69503   -24077.448   -17605.434    40186.797    21361.067    22330.533    19363.089    82.493499 
   39300      1588.91   -113.61826    1.4376791   -112.18058   -9084.8371    4.3591094    4.3591094    4.3591094   -9084.8371     7877.924   -42402.673    7270.2383    33350.834   -6920.5109   -67628.004    82.831077 
   39400    2636.1222   -114.55369    2.3852188   -112.16847   -5526.4416    4.3684384    4.3684384    4.3684384   -5526.4416   -5739.3175   -18434.467    7594.4595   -14095.558   -11488.875    2676.4572    83.364019 
   39500    1949.8184   -113.93751    1.7642367   -112.17327    7360.5743    4.3571233    4.3571233    4.3571233    7360.5743    -17797.53   -23773.644    63652.897    5404.2071    7040.3103   -35522.831    82.717911 
   39600    1381.6723   -113.43808    1.2501661   -112.18791   -34553.039    4.3447378    4.3447378    4.3447378   -34553.039    29666.482   -67404.478   -65921.122    19463.207   -7040.0416   -90598.914    82.014517 
   39700    2066.0963     -114.051    1.8694473   -112.18156    24140.925    4.3320468    4.3320468    4.3320468    24140.925    13380.013    26269.739    32773.024    15978.919     3583.112    63750.196     81.29792 
   39800    1648.0001   -113.69862    1.4911451   -112.20747    4110.1117     4.339216     4.339216     4.339216    4110.1117    73359.994   -21554.355   -39475.304   -5276.7359   -12958.004   -52447.433     81.70221 
   39900     1670.692   -113.71611    1.5116772   -112.20443   -10119.677     4.372945     4.372945     4.372945   -10119.677    33032.463   -47672.331   -15719.162    33217.231    6106.4577   -34122.383    83.622286 
   40000    2205.4303   -114.13328    1.9955197   -112.13776   -60421.704    4.3946059    4.3946059    4.3946059   -60421.704   -44160.537   -59881.524   -77223.052    10043.081    10007.386      16524.5    84.871096 
   40100    1494.3324   -113.45409    1.3521034   -112.10199   -66805.271    4.3800994    4.3800994    4.3800994   -66805.271    19885.926   -98557.227   -121744.51   -12052.031   -4854.0702   -82262.246    84.033395 
   40200    2604.1995   -114.43729    2.3563344   -112.08095    16872.096    4.3320478    4.3320478    4.3320478    16872.096   -10833.668    5601.9077    55848.048    43531.644    1460.4434    21278.114    81.297975 
   40300    1293.0693   -113.29892    1.1699963   -112.12893    8670.5924     4.317385     4.317385     4.317385    8670.5924    51951.705   -24652.644   -1287.2835    31712.887   -417.62156   -70017.404    80.475249 
   40400     2418.091   -114.35623    2.1879396   -112.16829   -9863.4957    4.3516116    4.3516116    4.3516116   -9863.4957    12459.206   -13260.846   -28788.848   -10588.838   -7953.3172   -7041.9373    82.404398 
   40500    1726.4106   -113.72279    1.5620926    -112.1607    -27983.18    4.3819439    4.3819439    4.3819439    -27983.18    -21320.59   -26985.319   -35643.632    44976.593     15277.27   -11496.682    84.139597 
   40600    1656.6594   -113.62394    1.4989802   -112.12496   -14784.825    4.3791477    4.3791477    4.3791477   -14784.825    16755.467   -53028.954   -8080.9872     944.0949   -7527.8624   -40717.897    83.978627 
   40700    2036.1532   -113.91662    1.8423542   -112.07427    43436.994    4.3651706    4.3651706    4.3651706    43436.994    55657.386   -16983.306    91636.902    9388.9755   -20621.427      20429.5    83.177077 
   40800    1176.2067   -113.17585    1.0642565    -112.1116   -1705.1467    4.3807273    4.3807273    4.3807273   -1705.1467    47027.844   -47446.516   -4696.7684    24915.582     5154.565   -51807.352    84.069537 
   40900    2456.1378   -114.29654    2.2223651   -112.07417   -34062.421    4.3849984    4.3849984    4.3849984   -34062.421   -48339.157   -18093.185    -35754.92    -11178.93    -24384.21    2529.1033    84.315676 
   41000    1399.0604   -113.36095    1.2658992   -112.09505    4981.9464    4.3451692    4.3451692    4.3451692    4981.9464   -33415.814    31947.304     16414.35    54478.148   -378.53479   -15866.347    82.038944 
   41100    1958.6311   -113.88683    1.7722106   -112.11461    26442.757    4.3259543    4.3259543    4.3259543    26442.757    75802.453    35079.996   -31554.179   -11263.412    9892.8934   -40140.764     80.95539 
   41200    2164.0303   -114.11003    1.9580601   -112.15197   -2076.9814    4.3395428    4.3395428    4.3395428   -2076.9814   -33799.911    7637.8636    19931.103    10353.088   -27346.081    3615.0287    81.720673 
   41300    1259.3711   -113.33268    1.1395054   -112.19318    2124.1686    4.3507934    4.3507934    4.3507934    2124.1686    2607.9141   -2254.9525    6019.5442    57207.649   -18885.277   -14292.751    82.357924 
   41400    2334.2351   -114.30593    2.1120649   -112.19386   -6790.0218    4.3675585    4.3675585    4.3675585   -6790.0218    20043.841    9606.0441    -50019.95   -29802.413    111.96862   -31342.318    83.313654 
   41500    2180.7679   -114.13866    1.9732046   -112.16546   -21250.436    4.3663959    4.3663959    4.3663959   -21250.436   -82642.493   -17207.353    36098.538    42704.603    -4676.322    16107.769    83.247144 
   41600    1694.6326   -113.68293    1.5333392    -112.1496    4082.8378    4.3369667    4.3369667    4.3369667    4082.8378   -42595.636    27380.206    27463.943    43962.673   -17918.909   -23178.764    81.575224 
   41700    2101.9101   -114.05906    1.9018525   -112.15721    26230.418    4.3316377    4.3316377    4.3316377    26230.418     14324.39    34179.707    30187.157   -32693.503     5982.627   -12388.036    81.274888 
   41800    1918.4941   -113.92543    1.7358937   -112.18953   -35187.322    4.3620524    4.3620524    4.3620524   -35187.322   -46559.359   -67123.612    8121.0046    48135.784   -2200.3967    57516.803     82.99896 
   41900    1542.2025   -113.57237    1.3954172   -112.17696   -11588.626    4.3583218    4.3583218    4.3583218   -11588.626   -36611.112   -4966.8938    6812.1275    14697.891   -5408.7422   -26372.059    82.786188 
   42000    1706.0002   -113.70212    1.5436248   -112.15849    54755.477    4.3420748    4.3420748    4.3420748    54755.477    54177.545    79274.428    30814.456   -6457.7649     5375.273   -18795.533    81.863801 
   42100    2778.8977    -114.6751     2.514405   -112.16069   -11867.876    4.3550928    4.3550928    4.3550928   -11867.876   -1336.4641   -16742.311   -17524.852    15592.128    9258.5615    56093.254    82.602317 
   42200    1399.5872   -113.45355    1.2663759   -112.18717    18502.402    4.3425833    4.3425833    4.3425833    18502.402   -29371.711    69186.103    15692.812   -21482.566   -18189.452   -49382.143    81.892566 
   42300    1429.1935   -113.50466    1.2931643    -112.2115   -17713.121    4.3318968    4.3318968    4.3318968   -17713.121   -50329.705    16760.077   -19569.734   -19172.453    25918.913   -15425.894    81.289473 
   42400    2896.2943    -114.8106     2.620628   -112.18997    1312.2671    4.3474222    4.3474222    4.3474222    1312.2671   -24255.962    23844.028    4348.7361     13575.89    17885.532    23550.495    82.166626 
   42500    1527.4168   -113.57807    1.3820389   -112.19603   -25615.564    4.3698692    4.3698692    4.3698692   -25615.564   -64598.448     13943.64   -26191.883   -7338.7165   -25687.339   -46450.123    83.445958 
   42600    1724.3675   -113.71348     1.560244   -112.15324   -14652.534    4.3742388    4.3742388    4.3742388   -14652.534   -70147.885    35035.507   -8845.2247   -20307.908    18015.494    -8988.324    83.696534 
   42700    2481.3285   -114.37835    2.2451582   -112.13319    1663.0737    4.3452763    4.3452763    4.3452763    1663.0737    18631.376   -21115.086    7472.9314    22707.556    3407.8281    7558.7653    82.045013 
   42800    1100.3949    -113.1645   0.99566042   -112.16884    5161.0056    4.3247097    4.3247097    4.3247097    5161.0056     32801.66    9408.8675   -26727.511    -11527.13   -36744.118    -46358.88    80.885537 
   42900    2766.3539   -114.68275    2.5030552   -112.17969    31941.835    4.3350725    4.3350725    4.3350725    31941.835    14709.722    55356.666    25759.117   -8945.7047   -10547.482   -11883.865    81.468383 
   43000    1779.0619    -113.8103    1.6097326   -112.20057   -3547.3558    4.3687865    4.3687865    4.3687865   -3547.3558    45827.602   -7452.5426   -49017.127    41737.505    9845.9115   -421.30025    83.383951 
   43100    1742.8016    -113.7216    1.5769235   -112.14468   -3321.4128    4.3825268    4.3825268    4.3825268   -3321.4128    33280.418    23201.309   -66445.965   -4088.1606   -23774.254   -35349.395    84.173179 
   43200    1794.4712   -113.73432    1.6236753   -112.11065   -31216.266    4.3717537    4.3717537    4.3717537   -31216.266   -87479.559   -104.00618   -6065.2327    29801.016    27486.641    323.12276    83.553966 
   43300    1093.2393   -113.11619   0.98918585     -112.127    25061.268     4.335582     4.335582     4.335582    25061.268   -4204.9853    36418.196    42970.593    17334.581   -959.52072   -10692.927    81.497109 
   43400    3157.5688    -114.9751    2.8570346   -112.11806    36068.128    4.3288804    4.3288804    4.3288804    36068.128    36855.765    15014.295    56334.323   -1058.1267   -7220.3344   -1159.4179    81.119781 
   43500    1227.3309   -113.29391    1.1105148   -112.18339   -20230.915    4.3584372    4.3584372    4.3584372   -20230.915   -48919.139   -70757.068    58983.462    39373.493    6635.9449   -14731.686    82.792766 
   43600    2187.5171   -114.13988    1.9793115   -112.16057   -20517.575    4.3779306    4.3779306    4.3779306   -20517.575   -13640.314   -63310.863    15398.454   -23179.639    5931.4131   -1264.9804    83.908625 
   43700     2366.197   -114.26186    2.1409848   -112.12087   -51496.128     4.378869     4.378869     4.378869   -51496.128   -66556.053   -57650.514   -30281.818    40273.165   -55315.977     8813.018    83.962594 
   43800    1719.0989   -113.66104    1.5554768   -112.10557   -15456.875    4.3493333    4.3493333    4.3493333   -15456.875   -27251.175    -63150.99    44031.541    8680.4194   -4729.3162   -11413.531    82.275033 
   43900    2828.0057   -114.65929     2.558839   -112.10045    29524.742    4.3362173    4.3362173    4.3362173    29524.742    70664.125    7682.5933    10227.509   -21797.131   -15727.597    4143.2704    81.532942 
   44000    1119.5947   -113.18758    1.0130328   -112.17455    -43823.32    4.3385346    4.3385346    4.3385346    -43823.32   -101349.27   -9639.4536   -20481.233    48779.069    -33863.81   -8293.8328    81.663728 
   44100    2079.2361   -114.06074    1.8813365    -112.1794    26523.586    4.3269971    4.3269971    4.3269971    26523.586    40336.325   -11997.164    51231.598    10748.288   -1352.2921   -2818.7685    81.013953 
   44200    2442.1241    -114.3987    2.2096852   -112.18901   -18703.469    4.3558999    4.3558999    4.3558999   -18703.469    -50134.96   -27767.741    21792.293    4391.6495    9215.3316    7450.6085    82.648252 
   44300    747.01635   -112.87277   0.67591609   -112.19685   -40574.461     4.352407     4.352407     4.352407   -40574.461   -91560.617   -29653.543   -509.22217      56856.4   -16489.406     2390.383    82.449593 
   44400    2300.1991   -114.22878    2.0812685   -112.14751    53444.921    4.3394664    4.3394664    4.3394664    53444.921    17847.406    30070.424    112416.93   -7872.2762   -10105.547   -5568.1292    81.716355 
   44500    1582.9052   -113.59998    1.4322459   -112.16773   -26793.996    4.3562281    4.3562281    4.3562281   -26793.996   -93601.503    -76749.39    89968.905   -9443.6343    7742.8828   -7205.0014    82.666933 
   44600    1724.9357   -113.71279     1.560758   -112.15203    546.79032    4.3458066    4.3458066    4.3458066    546.79032   -36890.234   -21920.364    60450.968    52458.473   -17497.465    6278.4619    82.075055 
   44700    1956.7505   -113.91622     1.770509   -112.14571    49444.953    4.3375491    4.3375491    4.3375491    49444.953    23180.707   -8218.0521     133372.2    -48581.47   -7947.4458    10371.638    81.608091 
   44800    1448.1644   -113.48183    1.3103296    -112.1715   -1110.9992    4.3564258    4.3564258    4.3564258   -1110.9992   -63405.972   -45493.866    105566.84    11660.043   -183.91562    23555.107     82.67819 
   44900     2289.481   -114.21141    2.0715705   -112.13984    6981.5654    4.3661947    4.3661947    4.3661947    6981.5654     27201.93   -11745.201    5487.9672    30394.339   -6704.9531   -1289.6745    83.235636 
   45000     1585.438   -113.56817    1.4345376   -112.13363   -26258.449    4.3586764    4.3586764    4.3586764   -26258.449   -10810.895    -67749.62   -214.83211   -52774.002   -262.60296   -1301.1008    82.806396 
   45100    2039.1665   -113.98539    1.8450807   -112.14031   -8206.0627    4.3446249    4.3446249    4.3446249   -8206.0627   -35629.406    38.776086    10972.442    10118.301    12442.161   -3079.2174    82.008121 
   45200    2562.7735   -114.46202    2.3188513   -112.14317    16532.446    4.3427249    4.3427249    4.3427249    16532.446    41553.818    11768.797   -3725.2765   -7065.8346   -5634.5181    570.37633    81.900576 
   45300    813.62604   -112.91753   0.73618594   -112.18134   -13563.523    4.3581836    4.3581836    4.3581836   -13563.523   -22130.196   -31586.308    13025.937   -45612.754    9028.2963     8988.201    82.778309 
   45400    3093.3611   -114.93203    2.7989381    -112.1331   -28319.034    4.3709504    4.3709504    4.3709504   -28319.034   -25301.086   -31356.898   -28299.119    17430.866    13484.351   -22855.506    83.507917 
   45500    1297.1218   -113.32319    1.1736631   -112.14952    12758.947    4.3570508    4.3570508    4.3570508    12758.947   -10167.887   -14873.439    63318.169   -28105.742    10412.175     49927.72    82.713781 
   45600    1777.6171   -113.74322    1.6084253    -112.1348    13795.281     4.346696     4.346696     4.346696    13795.281    6029.2191    25406.993    9949.6318   -27398.507   -5339.5161    5402.4819    82.125458 
   45700    2660.6672   -114.53728    2.4074276   -112.12985    9153.9906    4.3479961    4.3479961    4.3479961    9153.9906   -18618.386    15417.717    30662.641    16303.816    23162.336   -17479.229    82.199172 
   45800    730.78898   -112.83156   0.66123323   -112.17032   -2606.0782    4.3503484    4.3503484    4.3503484   -2606.0782    -30564.28   -30626.349    53372.394   -56635.246   -416.97813    30314.986    82.332653 
   45900     2288.469   -114.22376    2.0706548    -112.1531    5331.9901    4.3543413    4.3543413    4.3543413    5331.9901    24405.373   -14422.513    6013.1104   -7096.8795   -21402.514    6295.5734    82.559566 
   46000    1446.5173   -113.47204    1.3088393   -112.16321    27162.578    4.3546588    4.3546588    4.3546588    27162.578    22150.906   -14433.127    73769.956    -5505.534   -4768.7055   -24219.598    82.577625 
   46100    1530.1233   -113.53058    1.3844877   -112.14609    5605.9015    4.3651816    4.3651816    4.3651816    5605.9015   -15768.249   -42264.883    74850.837    -17091.11    5772.8845     32636.57     83.17771 
   46200    1893.6721    -113.8369    1.7134343   -112.12346   -22672.688    4.3766035    4.3766035    4.3766035   -22672.688   -16620.109   -36722.007   -14675.948    1192.7938   -51090.802   -1018.4507    83.832342 
   46300    1887.1421   -113.84021    1.7075258   -112.13268   -10835.587    4.3508862    4.3508862    4.3508862   -10835.587   -9246.8216     -54797.9    31537.961   -46940.498    8948.9313   -13435.477    82.363195 
   46400    2042.7757   -113.97995    1.8483464    -112.1316    29064.071    4.3152688    4.3152688    4.3152688    29064.071    74364.793    15048.712    -2221.292   -13636.819   -18304.376    498.55493    80.356969 
   46500    2004.8622   -113.98448    1.8140414   -112.17044    21801.885    4.3197158    4.3197158    4.3197158    21801.885    10465.283    65260.213    -10319.84    10791.116    -62267.49   -2108.3745    80.605655 
   46600    1869.7857   -113.88628    1.6918214   -112.19446    18479.123    4.3517845    4.3517845    4.3517845    18479.123    80981.762   -26308.903    764.51092   -27263.511    20161.096   -2237.2742    82.414219 
   46700    1784.9915   -113.77616    1.6150978   -112.16106   -31866.227    4.3826986    4.3826986    4.3826986   -31866.227   -19884.679   -2032.3586   -73681.644    5415.7256   -49479.017    21980.746    84.183084 
   46800    2533.7471   -114.39262    2.2925876   -112.10003   -30129.111    4.3743464    4.3743464    4.3743464   -30129.111   -14299.049   -19292.912   -56795.372   -10990.915   -5240.7121   -21459.658    83.702708 
   46900    1410.9921   -113.37034    1.2766953   -112.09365   -1388.0234    4.3454751    4.3454751    4.3454751   -1388.0234    54297.821   -15091.251    -43370.64   -27770.603   -4073.1234   -15515.655    82.056273 
   47000     2287.766    -114.1738    2.0700187   -112.10379    1893.9975    4.3280068    4.3280068    4.3280068    1893.9975    -12651.72    64698.544   -46364.832    1237.6217   -68467.922    4805.8986    81.070678 
   47100    1533.3017   -113.53425    1.3873636   -112.14689    9000.6138    4.3276397    4.3276397    4.3276397    9000.6138    69399.504   -10255.852    -32141.81   -862.51231    33494.891   -48842.692    81.050048 
   47200    1540.6179   -113.58192    1.3939835   -112.18794   -20201.962    4.3560255    4.3560255    4.3560255   -20201.962    -26936.65    21709.034   -55378.271   -7907.9752    30964.681    13208.852    82.655399 
   47300    2699.2236   -114.58669    2.4423142   -112.14437   -9498.6448    4.3644762    4.3644762    4.3644762   -9498.6448    13537.041    7147.4224   -49180.398   -10804.242   -21471.349   -17683.399    83.137393 
   47400    788.00444   -112.86829   0.71300298   -112.15529     11232.45    4.3432562    4.3432562    4.3432562     11232.45    75067.433    16249.442   -57619.526   -1832.7331    19204.949   -66258.845    81.930641 
   47500    2823.7885   -114.68731    2.5550232   -112.13229      17488.9    4.3371815    4.3371815    4.3371815      17488.9    4449.2811     54937.92   -6920.5005    -9649.072    5423.7047    26476.649    81.587343 
   47600    1314.7475   -113.35035    1.1896112   -112.16074     43237.01     4.331911     4.331911     4.331911     43237.01    72589.259    68695.604   -11573.833   -2938.8041   -51159.619   -40413.734    81.290272 
   47700    1775.5116   -113.78649    1.6065202   -112.17997      16479.8    4.3486981    4.3486981    4.3486981      16479.8     47139.84     38089.09    -35789.53    21638.394    12918.325   -10729.091    82.238991 
   47800    2539.8255   -114.44165    2.2980875   -112.14356   -16409.024    4.3671079    4.3671079    4.3671079   -16409.024   -44252.275    19698.772   -24673.571   -2756.0056   -26387.895    13100.371    83.287874 
   47900    1085.5922   -113.13521   0.98226663   -112.15294    8289.2052    4.3434902    4.3434902    4.3434902    8289.2052   -20209.968    77374.468   -32296.885   -10990.593   -47525.549     -46133.1    81.943884 
   48000     2778.709   -114.63354    2.5142343    -112.1193    48182.246    4.3292799    4.3292799    4.3292799    48182.246    23051.928    97195.128    24299.681    8800.9147    16553.668    321.73943    81.142239 
   48100    1788.5715   -113.78617    1.6183371   -112.16783    19225.237    4.3402433    4.3402433    4.3402433    19225.237    21754.995    54472.227    -18551.51   -18834.131   -59702.591    287.58073    81.760255 
   48200    1765.4407    -113.7689    1.5974079   -112.17149    9954.1563    4.3542649    4.3542649    4.3542649    9954.1563   -1206.9915    40112.171    -9042.711   -15757.104    -22446.78   -28231.171     82.55522 
   48300    2579.9925   -114.46039    2.3344314   -112.12596   -5823.8332     4.375848     4.375848     4.375848   -5823.8332    7874.8565    43032.776   -68379.132    18381.835   -18305.701    16230.753     83.78894 
   48400     1075.212   -113.07165   0.97287439   -112.09877    -5986.377    4.3796693    4.3796693    4.3796693    -5986.377   -26157.271    56196.394   -47998.254   -13601.481   -51707.936   -24631.859     84.00864 
   48500     2925.612   -114.68379    2.6471552   -112.03664   -23560.922    4.3610534    4.3610534    4.3610534   -23560.922   -32448.242   -3012.9221   -35221.603    351.81371   -3592.1723    532.57273    82.941943 
   48600    1108.8384   -113.08795    1.0033002   -112.08465   -27661.167    4.3474279    4.3474279    4.3474279   -27661.167   -79030.508    80387.615   -84340.608   -9987.7922   -110505.84    -6665.556    82.166952 
   48700    2628.6215   -114.47593     2.378432    -112.0975    -5109.695    4.3406227    4.3406227    4.3406227    -5109.695   -4515.9747   -37522.579    26709.468   -8775.7402    37660.339   -26992.428    81.781696 
   48800    1349.0514   -113.37663      1.22065   -112.15598    -1114.178    4.3396793    4.3396793    4.3396793    -1114.178   -29461.725    17764.693    8354.4979    9158.3519   -88731.528   -3247.7134    81.728384 
   48900    1943.0194   -113.94497    1.7580848   -112.18689    3555.6737    4.3447191    4.3447191    4.3447191    3555.6737   -48484.419    3480.3653    55671.074   -8050.0271   -45657.712    426.28915    82.013456 
   49000    2281.0544   -114.23847     2.063946   -112.17453    6169.2728    4.3543901    4.3543901    4.3543901    6169.2728   -23432.011   -32184.458    74124.288    177.06821    13235.439    -1100.652     82.56234 
   49100    955.63616   -113.05929   0.86467968   -112.19461   -42686.228    4.3555575    4.3555575    4.3555575   -42686.228   -53884.833    11215.425   -85389.276    16918.863   -119414.48   -13096.591    82.628764 
   49200    2740.5098   -114.64283    2.4796708   -112.16316    4169.8298     4.337713     4.337713     4.337713    4169.8298    44762.701    -46684.38    14431.169    6417.0303    26498.586    -3157.266    81.617342 
   49300    1939.0064   -113.92609    1.7544537   -112.17164    9819.2978    4.3195278    4.3195278    4.3195278    9819.2978    2589.8776    61515.547   -34647.531   -6642.1162   -86621.627    4269.8276    80.595134 
   49400    1288.1518   -113.36698    1.1655468   -112.20143   -3729.9409    4.3331682    4.3331682    4.3331682   -3729.9409    21326.228    23305.311   -55821.361      1390.32   -69129.459   -18029.937     81.36107 
   49500    2257.0924   -114.21469    2.0422646   -112.17242   -25990.683    4.3596973    4.3596973    4.3596973   -25990.683   -5319.4267   -79747.554    7094.9313    26503.149    26351.286   -9621.7291    82.864593 
   49600    1449.6482   -113.47761    1.3116722   -112.16594   -4889.5586    4.3519041    4.3519041    4.3519041   -4889.5586    6843.9304     29918.14   -51430.746   -8358.0019   -79878.982    1383.8577    82.421015 
   49700      2164.74   -114.10867    1.9587023   -112.14997    41741.552    4.3330489    4.3330489    4.3330489    41741.552    10472.819    17373.207    97378.629    5653.7307   -8744.3776    99.517417    81.354348 
   49800    1915.9131   -113.90492    1.7335584   -112.17136    27985.529    4.3361218    4.3361218    4.3361218    27985.529   -18957.913   -18826.806    121741.31    15319.369     19242.65   -11737.097    81.527556 
   49900     1717.379   -113.73538    1.5539206   -112.18146    9493.1096    4.3500857    4.3500857    4.3500857    9493.1096    2208.7534    17820.462    8450.1131   -16690.447   -68087.082    5258.7818    82.317739 
   50000    2227.7808   -114.19038    2.0157429   -112.17463   -15671.217     4.361951     4.361951     4.361951   -15671.217   -25251.931   -44291.241    22529.522    34637.296    9947.4149    9078.2152    82.993172 
   50100    1833.3428   -113.82423    1.6588471   -112.16538   -21388.738    4.3572828    4.3572828    4.3572828   -21388.738   -41781.072    16358.992   -38744.135    14775.939   -27105.925   -1697.9805    82.726995 
   50200    1905.9732   -113.87805    1.7245646   -112.15349   -291.49485    4.3360893    4.3360893    4.3360893   -291.49485    9974.5478    34979.041   -45828.073   -2716.0404   -68984.345     5921.793    81.525723 
   50300    2005.1732   -113.98098    1.8143228   -112.16666    2523.2813    4.3303982    4.3303982    4.3303982    2523.2813     26461.43   -63286.739    44395.153    34354.829    19104.808    30590.317    81.205136 
   50400    1386.0473   -113.44086    1.2541247   -112.18673   -17641.524    4.3328608    4.3328608    4.3328608   -17641.524   -43322.474    21696.846   -31298.944    27507.172   -74427.644    16026.719    81.343754 
   50500    2027.0238   -114.02676    1.8340937   -112.19267    15050.995    4.3451347    4.3451347    4.3451347    15050.995   -5488.6937    16439.519    34202.159   -5633.8837   -48435.855   -18741.475     82.03699 
   50600    1763.4783   -113.77186    1.5956322   -112.17623   -21093.592     4.369322     4.369322     4.369322   -21093.592   -4131.1864   -59526.742    377.15352    33760.912    2411.4213    11209.924    83.414617 
   50700     1433.657   -113.43573     1.297203   -112.13853   -17400.438    4.3651053    4.3651053    4.3651053   -17400.438   -82095.632    72103.109    -42208.79   -3216.7577   -79717.629    9058.5389    83.173349 
   50800    2715.7289   -114.54077    2.4572486   -112.08353   -27729.528    4.3648701    4.3648701    4.3648701   -27729.528   -211.10407   -63809.091   -19168.388    22163.368    31676.609   -1658.6601    83.159901 
   50900    951.47529   -112.98388   0.86091484   -112.12296   -55341.705    4.3626614    4.3626614    4.3626614   -55341.705   -81422.295   -51238.424   -33364.394    59874.951   -64743.089    25348.994    83.033723 
   51000    2083.0016   -114.02148    1.8847436   -112.13674    37557.531    4.3240314    4.3240314    4.3240314    37557.531    99798.365    29151.042   -16276.814   -32602.128   -26033.956    -2619.018    80.847483 
   51100    2020.9648   -114.00633    1.8286114   -112.17772    26818.888    4.3169534    4.3169534    4.3169534    26818.888    59127.184    1548.8495     19780.63    20028.447    34477.469    4097.3308    80.451116 
   51200    1276.0005   -113.38785     1.154552    -112.2333   -17876.092    4.3552024    4.3552024    4.3552024   -17876.092   -8625.9703   -33951.939   -11050.367    57930.903   -29790.725    17493.908    82.608557 
   51300    2843.7125    -114.7307    2.5730509   -112.15765   -41839.427    4.3871709    4.3871709    4.3871709   -41839.427   -27390.231    -51547.58   -46580.469     -16076.5   -26841.988   -20796.274    84.441059 
   51400    1368.9606   -113.36302    1.2386643   -112.12436   -7589.6987    4.3783139    4.3783139    4.3783139   -7589.6987   -2033.4386    -52823.79    32088.133    23669.356    24738.088    33189.421    83.930666 
   51500    1600.4483   -113.54687    1.4481193   -112.09875    26439.095    4.3567632    4.3567632    4.3567632    26439.095    36056.045    28242.504    15018.736    10882.168    12056.479    26551.756    82.697401 
   51600     2004.049   -113.91332    1.8133056   -112.10001    31055.471    4.3492967    4.3492967    4.3492967    31055.471    61926.924    23275.168     7964.321   -40769.568    800.59653   -41012.779    82.272959 
   51700    1746.8438   -113.71575     1.580581   -112.13517    7371.7274    4.3578778    4.3578778    4.3578778    7371.7274    42969.089   -25077.257    4223.3497    30863.029    9682.9399    29318.433    82.760887 
   51800    2293.7432   -114.20846    2.0754271   -112.13303   -10567.811    4.3711829    4.3711829    4.3711829   -10567.811   -22508.445   -17854.714    8659.7264   -12951.706    4518.2101   -6290.0046    83.521238 
   51900    1922.0058   -113.87555    1.7390713   -112.13648   -13427.159    4.3693574    4.3693574    4.3693574   -13427.159    1671.6844   -48206.159    6252.9988   -13062.402   -17559.932    -41137.23    83.416641 
   52000    2197.6576   -114.12845    1.9884868   -112.13997   -17023.104    4.3499836    4.3499836    4.3499836   -17023.104   -29821.223   -29728.432    8480.3431    58763.536   -9710.9044     2089.403    82.311944 
   52100    2214.4805   -114.15274    2.0037085   -112.14903    28829.374    4.3253079    4.3253079    4.3253079    28829.374   -7440.3875    35135.413    58793.096   -53143.319    16588.007   -5425.1572    80.919105 
   52200    1895.4559   -113.89369    1.7150484   -112.17864   -10420.183    4.3375976    4.3375976    4.3375976   -10420.183   -9333.3558   -62553.842    40626.649    30444.042   -11963.755   -20915.865    81.610825 
   52300     1601.292   -113.63766    1.4488827   -112.18878   -27746.062    4.3637704    4.3637704    4.3637704   -27746.062   -33358.787   -25766.685   -24112.714    43635.359   -28217.552   -18756.513    83.097064 
   52400    2612.4073   -114.51097     2.363761   -112.14721   -26094.741    4.3712979    4.3712979    4.3712979   -26094.741    -26822.45   -38592.788   -12868.986   -31208.071    3353.7874    6394.3206     83.52783 
   52500    1396.5607   -113.41625    1.2636375   -112.15262   -41587.339    4.3599178    4.3599178    4.3599178   -41587.339   -62055.941   -88352.267    25646.192    102163.79   -5150.7955   -22354.312    82.877167 
   52600    2015.2289   -113.96492    1.8234214    -112.1415   -4229.8088    4.3217975    4.3217975    4.3217975   -4229.8088    23595.868   -8026.8069   -28258.487    11477.311   -982.18366   -20291.717     80.72225 
   52700    1892.4675   -113.87953    1.7123443   -112.16719    18636.193     4.321101     4.321101     4.321101    18636.193    6847.9873    5686.8334    43373.758    27614.094    14710.587    12351.372    80.683225 
   52800    1781.5509   -113.78394    1.6119847   -112.17195   -38288.196    4.3585776    4.3585776    4.3585776   -38288.196   -65202.148    -90632.39     40969.95    79730.754    3097.9547   -17061.199    82.800765 
   52900    1902.6913   -113.85954     1.721595   -112.13794   -21993.248    4.3616841    4.3616841    4.3616841   -21993.248     23393.76   -19269.465   -70104.038    -17283.67    -13019.85   -26808.435    82.977933 
   53000    2453.9199   -114.33939    2.2203583   -112.11903   -34887.171    4.3636099    4.3636099    4.3636099   -34887.171   -67663.381   -38939.063      1940.93    39808.938   -589.35532     34191.82    83.087897 
   53100    1501.5176   -113.48458    1.3586047   -112.12597   -24991.023    4.3708769    4.3708769    4.3708769   -24991.023   -19137.482   -11586.085   -44249.501    25871.472   -1361.1059   -72062.118    83.503702 
   53200    2296.4487   -114.21769    2.0778751   -112.13981   -15143.457    4.3553414    4.3553414    4.3553414   -15143.457    2354.1558     6724.139   -54508.667   -7908.0955   -19292.814   -14817.215    82.616464 
   53300    2442.4973   -114.35676    2.2100229   -112.14674    39723.002    4.3200457    4.3200457    4.3200457    39723.002    21601.242     99722.42   -2154.6574    23360.007    4697.2666    8763.5755    80.624126 
   53400    629.48579   -112.78527   0.56957198    -112.2157     3724.499    4.3237218    4.3237218    4.3237218     3724.499    88730.247   -21179.693   -56377.057    21984.812   -5106.5432   -100961.94    80.830119 
   53500    2613.7139   -114.54517    2.3649432   -112.18022   -14955.961    4.3534031    4.3534031    4.3534031   -14955.961   -32766.932     35079.74    -47180.69   -13747.417   -45436.981    29430.152    82.506209 
   53600    1566.5057   -113.57695    1.4174073   -112.15954   -9690.9062    4.3619622    4.3619622    4.3619622   -9690.9062    2494.1383   -35939.506    4372.6487    7528.2739    9337.4278   -59066.907     82.99381 
   53700    1557.5884   -113.56387    1.4093387   -112.15453   -30127.318    4.3577238    4.3577238    4.3577238   -30127.318   -41968.526    -80407.43    31994.002    47517.814    6953.4876   -33836.709    82.752113 
   53800     3063.838   -114.90714     2.772225   -112.13491   -8320.3409    4.3395424    4.3395424    4.3395424   -8320.3409   -31955.739   -15410.588    22405.304   -14706.548   -19466.532    22169.308    81.720649 
   53900     1768.073   -113.76851    1.5997896   -112.16872     -12957.5    4.3261353    4.3261353    4.3261353     -12957.5    38093.579   -77290.736    324.65598    12753.983   -15039.774   -64329.423    80.965552 
   54000    1554.5125   -113.60684    1.4065556   -112.20028   -21632.621      4.33064      4.33064      4.33064   -21632.621   -28660.208   -39626.645    3388.9917    55842.191    32168.619   -29264.557    81.218741 
   54100    2715.1168   -114.64757    2.4566947   -112.19088   -3659.4197    4.3452012    4.3452012    4.3452012   -3659.4197   -39360.126     24782.43    3599.4371   -24735.367    21339.139    24519.677     82.04076 
   54200    1467.7281   -113.50731    1.3280312   -112.17928   -31690.289     4.362929     4.362929     4.362929   -31690.289   -4783.9114   -52962.115   -37324.842     31901.89    -5403.435   -61157.019    83.049005 
   54300    2280.9346   -114.20378    2.0638375   -112.13995   -7211.8236    4.3642582    4.3642582    4.3642582   -7211.8236    -39734.03    46691.311   -28592.751    23622.452    18283.738   -7017.1488    83.124932 
   54400    2077.0232   -113.99417    1.8793342   -112.11484   -25846.097    4.3663375    4.3663375    4.3663375   -25846.097   -14517.795   -17133.828   -45886.668      -5272.5    10282.532   -18384.392    83.243804 
   54500    1393.9537   -113.37597    1.2612786   -112.11469   -23591.943    4.3620138    4.3620138    4.3620138   -23591.943   -19452.337    -59793.14    8469.6496    30321.438   -9579.3437   -52061.597    82.996753 
   54600    2718.8825   -114.55309     2.460102   -112.09299    35216.978    4.3381071    4.3381071    4.3381071    35216.978    75512.474    -3089.466    33227.925   -4475.2611    4317.6526    22784.768    81.639587 
   54700    977.53092     -113.028   0.88449052   -112.14351    6903.9532    4.3390408    4.3390408    4.3390408    6903.9532    130973.13   -76760.359   -33500.915   -4504.6061    5473.9701   -51129.227    81.692315 
   54800     2408.008   -114.30419    2.1788162   -112.12537    3252.2047    4.3535439    4.3535439    4.3535439    3252.2047    8564.7071   -1944.9665    3136.8736   -3038.6334   -23511.572    2829.7074    82.514216 
   54900    1508.5994   -113.51563    1.3650125   -112.15062    -2757.889    4.3504114    4.3504114    4.3504114    -2757.889    83891.786   -70853.209   -21312.244    1120.2853   -31740.776   -26056.667    82.336232 
   55000    1561.8461    -113.5717    1.4131912   -112.15851    754.93354     4.345008     4.345008     4.345008    754.93354    119440.82   -86951.456   -30224.566   -4376.8368    5042.0481   -12873.983    82.029814 
   55100    2491.8498   -114.38594     2.254678   -112.13126    23545.113    4.3378241    4.3378241    4.3378241    23545.113    47529.836   -3724.9034    26830.405   -4509.8877    1337.7775    5452.1792    81.623612 
   55200    1131.9859   -113.19261    1.0242446   -112.16837   -16011.721    4.3448624    4.3448624    4.3448624   -16011.721     77871.97   -72513.718   -53393.415    19569.418   -14726.096   -53281.829     82.02157 
   55300    2908.4573   -114.75522    2.6316333   -112.12359    -12520.89    4.3541359    4.3541359    4.3541359    -12520.89    3473.6023    2652.4479    -43688.72   -3788.2428     6934.075    24238.237    82.547885 
   55400      1191.39     -113.212    1.0779947   -112.13401    3750.1504    4.3513024    4.3513024    4.3513024    3750.1504    83353.108    -1455.036   -70647.621    -1732.078    55524.644   -46837.909     82.38683 
   55500    2364.4441   -114.26642    2.1393987   -112.12702   -18382.971    4.3517058    4.3517058    4.3517058   -18382.971    40098.717   -51607.655   -43639.975    8662.2238   -27936.033   -42324.142    82.409747 
   55600    2423.6461   -114.31876    2.1929659    -112.1258   -12060.529    4.3439574    4.3439574    4.3439574   -12060.529   -48050.107    22683.898   -10815.378    1311.1041    63002.407    24355.816    81.970329 
   55700    1250.4369   -113.28858    1.1314215   -112.15716   -17809.638    4.3463782    4.3463782    4.3463782   -17809.638    10858.962   -27118.086   -37169.791    1605.0856    48241.574    -52796.45    82.107445 
   55800    2950.0102   -114.79404    2.6692312   -112.12481   -25453.735    4.3589455    4.3589455    4.3589455   -25453.735   -11211.894   -50828.524   -14320.787   -2011.3183   -21743.232   -9811.8962    82.821732 
   55900    1227.2248   -113.25442    1.1104188     -112.144   -11387.096     4.348436     4.348436     4.348436   -11387.096   -59351.125    15313.915    9875.9223   -4692.6943     91299.35    21304.022    82.224124 
   56000    1774.9404   -113.75526    1.6060033   -112.14926    13318.929     4.327349     4.327349     4.327349    13318.929    40682.944    4218.6977    -4944.855   -2779.2447     10340.65   -34497.781     81.03372 
   56100    2306.5802   -114.24638    2.0870422   -112.15934    16383.035    4.3311125    4.3311125    4.3311125    16383.035    30604.236     22606.82    -4061.951    9113.8601    1848.4634     547.5912    81.245328 
   56200    1159.8987   -113.22976    1.0495007   -112.18026   -35214.062    4.3579603    4.3579603    4.3579603   -35214.062   -35549.518    10281.327   -80373.997   -9177.5769    69222.697    4687.7907    82.765591 
   56300    2627.7769   -114.51688    2.3776678   -112.13921    545.82483    4.3480978    4.3480978    4.3480978    545.82483    68774.308   -30902.218   -36234.616    866.13095   -9837.7285   -5642.5856    82.204937 
   56400    1569.5887   -113.56872    1.4201968   -112.14853   -10077.064    4.3280861    4.3280861    4.3280861   -10077.064   -456.04883    48171.297   -77946.442    4683.2228    55434.025      -2713.2    81.075132 
   56500    1355.9839   -113.39728    1.2269227   -112.17036   -28054.984    4.3290993    4.3290993    4.3290993   -28054.984   -33186.762     38354.64    -89332.83   -14153.851    20741.101    23346.197    81.132085 
   56600     2447.172   -114.37256    2.2142526   -112.15831    47515.181    4.3168304    4.3168304    4.3168304    47515.181    58996.731    21557.826    61990.988       8931.3    -15271.59    11312.742    80.444244 
   56700    1036.2291   -113.15559   0.93760189   -112.21799   -25676.424    4.3411886    4.3411886    4.3411886   -25676.424   -63991.605    43484.487   -56522.152    709.28781    88086.943    -21499.78    81.813689 
   56800    2812.0365   -114.70017    2.5443897   -112.15578   -23302.716    4.3598277    4.3598277    4.3598277   -23302.716   -41213.243   -7393.6975   -21301.207   -11521.142   -4618.2895    3658.2749    82.872029 
   56900    1345.6991   -113.36953    1.2176169   -112.15191    34148.592    4.3422675    4.3422675    4.3422675    34148.592    2827.8022    73587.291    26030.683    26945.929     45025.48   -5788.8952    81.874701 
   57000    1375.2399   -113.39322    1.2443459   -112.14888   -3392.8329    4.3471071    4.3471071    4.3471071   -3392.8329   -23608.424    12188.328    1241.5974   -13493.579    62901.305   -11426.177    82.148759 
   57100    2679.0019   -114.54842    2.4240172   -112.12441    24656.783     4.337726     4.337726     4.337726    24656.783     33398.39    34199.952    6372.0076    3502.2205   -36943.818    8590.5208    81.618076 
   57200    1076.8504   -113.14321   0.97435689   -112.16885    5269.4391    4.3275474    4.3275474    4.3275474    5269.4391   -5511.1891     89112.84   -67793.334    16644.047    77457.674   -5204.2258    81.044862 
   57300    2375.0439   -114.32098    2.1489896   -112.17199   -5370.8922    4.3362841    4.3362841    4.3362841   -5370.8922    26365.232   -2366.7306   -40111.179    3301.4088     10043.91   -12777.958     81.53671 
   57400    2171.6582   -114.14655     1.964962   -112.18159   -4194.8398    4.3321283    4.3321283    4.3321283   -4194.8398    34649.166    23134.133   -70367.818   -3251.4163     21068.19     -6837.74    81.302508 
   57500    870.19777   -112.99733   0.78737323   -112.20995   -7118.3824    4.3313662    4.3313662    4.3313662   -7118.3824   -45021.519    117498.89   -93832.514     10228.08    69524.861    4472.3149    81.259607 
   57600    2593.8102   -114.52769     2.346934   -112.18076    9770.3221     4.334116     4.334116     4.334116    9770.3221    9918.2978    14866.345    4526.3232    15289.917   -30602.399   -3195.3506    81.414471 
   57700    2012.5989   -114.01348    1.8210418   -112.19244    22527.856    4.3236488    4.3236488    4.3236488    22527.856    12750.068    26914.306    27919.192    -49924.82    44093.928    1664.0377    80.826027 
   57800    1867.0411   -113.88693     1.689338   -112.19759    27974.571    4.3238537    4.3238537    4.3238537    27974.571    15024.225    117153.09   -48253.603    15969.442    10501.453    8836.4938    80.837519 
   57900    1491.7151   -113.55879    1.3497352   -112.20905   -5941.3169    4.3340803    4.3340803    4.3340803   -5941.3169    32708.283   -13830.699   -36701.535    17391.252   -28604.451    17082.235    81.412456 
   58000     2336.554    -114.3061    2.1141631   -112.19194    19238.586    4.3326949    4.3326949    4.3326949    19238.586    26874.022    9014.0017    21827.734   -53522.594    10815.926   -20570.532    81.334409 
   58100    2197.4359   -114.17675    1.9882862   -112.18846    5436.7182    4.3399333    4.3399333    4.3399333    5436.7182   -11585.223    38034.009   -10138.631    39928.919    -9748.286     17228.72    81.742737 
   58200    1203.3039   -113.28113    1.0887747   -112.19236   -20217.191     4.342102     4.342102     4.342102   -20217.191   -1057.8704   -677.20663   -58916.497    21617.924   -30363.905   -8691.0146    81.865339 
   58300    2324.3673   -114.26602    2.1031363   -112.16288   -3507.2517    4.3351349    4.3351349    4.3351349   -3507.2517   -19184.242    38765.797    -30103.31     -20381.7    22657.571   -34038.975    81.471902 
   58400    1575.9857   -113.60183     1.425985   -112.17584    -14642.93    4.3344852    4.3344852    4.3344852    -14642.93   -53058.539    26002.577   -16872.828    58545.375    30554.979    16327.546    81.435274 
   58500    1679.1252    -113.7133    1.5193078   -112.19399    472.11332    4.3261117    4.3261117    4.3261117    472.11332   -10509.208    38105.888   -26180.339    18465.081   -60184.717    4321.5284    80.964229 
   58600    1895.6476   -113.91386    1.7152218   -112.19864    18966.587     4.321027     4.321027     4.321027    18966.587    7285.2094    70021.244   -20406.694   -7132.0974    19605.643   -16326.806    80.679081 
   58700    1636.6786   -113.69538    1.4809012   -112.21447   -5142.6182    4.3389976    4.3389976    4.3389976   -5142.6182   -29810.352    29503.002   -15120.505    41835.854    53453.119   -9370.1539    81.689876 
   58800    3238.4774    -115.0823    2.9302424   -112.15206   -21568.838      4.35753      4.35753      4.35753   -21568.838   -4808.1077   -28481.878   -31416.527   -4226.9892   -29859.058    10062.385    82.741074 
   58900    905.07728   -112.96526   0.81893294   -112.14633    1537.2538    4.3627409    4.3627409    4.3627409    1537.2538    2331.5407    45647.662   -43367.442    13153.561    82185.863   -36557.381    83.038267 
   59000    2190.2783   -114.08578    1.9818099   -112.10397   -3402.9971    4.3651164    4.3651164    4.3651164   -3402.9971    5430.8483   -25017.426    9377.5868   -5107.3065   -18096.213    31311.853    83.173982 
   59100    1548.7819   -113.52119    1.4013704   -112.11982   -28538.374    4.3494666    4.3494666    4.3494666   -28538.374   -55764.797    10805.487   -40655.812   -996.36148    31231.048   -9957.9463    82.282598 
   59200    779.76756   -112.86507   0.70555007   -112.15952    19723.154     4.312691     4.312691     4.312691    19723.154   -13074.852    52366.315        19878    13726.181    55420.441   -55824.434    80.213051 
   59300    3087.8798   -114.95944    2.7939785   -112.16546    27936.252     4.311732     4.311732     4.311732    27936.252    2977.4651    16046.879    64784.411    5490.6227   -29361.912    13318.286    80.159553 
   59400    1998.0746   -114.02341    1.8078999   -112.21551    5979.8118    4.3337453    4.3337453    4.3337453    5979.8118   -9912.6982    32624.668   -4772.5349   -5664.7716    48185.309   -1002.7794    81.393579 
   59500    1435.8973   -113.52306      1.29923   -112.22383   -29211.244    4.3492116    4.3492116    4.3492116   -29211.244    238.29886   -2787.6309     -85084.4    7702.0171    34915.442   -75831.144    82.268125 
   59600    2908.8625   -114.83423        2.632   -112.20223   -2337.9093    4.3315371    4.3315371    4.3315371   -2337.9093    14180.404   -8097.8958   -13096.236    2651.3747   -15142.513   -961.51363    81.269227 
   59700    2043.0544   -114.05981    1.8485985   -112.21121    15507.158    4.3139421    4.3139421    4.3139421    15507.158    15398.002    76184.864   -45061.391   -4886.0346    24088.246   -14452.214     80.28288 
   59800    508.51048   -112.70045   0.46011097   -112.24034   -19062.748    4.3218122    4.3218122    4.3218122   -19062.748     43850.19   -2226.9105   -98811.524    11512.622    47646.764   -100664.69    80.723069 
   59900    2628.9894   -114.58398    2.3787648   -112.20522    -4356.145      4.33924      4.33924      4.33924    -4356.145     30754.53   -18768.235    -25054.73   -16855.653   -25055.111    49091.034    81.703568 
   60000    1602.7848   -113.64541    1.4502334   -112.19517   -22125.411     4.352207     4.352207     4.352207   -22125.411    8959.7579    -21783.27    -53552.72   -2679.0619    -400.4581   -34478.437    82.438223 
   60100    990.59466    -113.1034   0.89631086   -112.20709   -20804.482    4.3387704    4.3387704    4.3387704   -20804.482    -20805.93    11309.281   -52916.796    6718.0355    70449.736   -55093.667    81.677041 
   60200    3093.8417   -114.97571     2.799373   -112.17634    26282.089    4.3147671    4.3147671    4.3147671    26282.089   -1371.5427    33652.765    46565.046    -11044.63    3253.6078    37863.015    80.328949 
   60300    2153.7027   -114.15424    1.9487155   -112.20552    8818.0017    4.3173078    4.3173078    4.3173078    8818.0017    35817.008   -10498.344    1135.3408   -5051.6758   -1779.7127   -57229.999    80.470932 
   60400    1097.3782   -113.22872    0.9929309   -112.23579   -17660.829    4.3337494    4.3337494    4.3337494   -17660.829   -7598.0644    7686.6973   -53071.121    4800.1869    71687.754   -49539.331    81.393808 
   60500    2441.6501   -114.42006    2.2092563   -112.21081   -12196.614    4.3444071    4.3444071    4.3444071   -12196.614    6286.5951   -2701.4557   -40174.982    2861.2544    3443.1223    37504.857    81.995788 
   60600     2160.847   -114.15992    1.9551798   -112.20474   -11101.486    4.3445311    4.3445311    4.3445311   -11101.486    22320.004    4750.5714   -60375.034   -9088.0421   -10953.783   -1100.7449    82.002812 
   60700    695.84359    -112.8447    0.6296139   -112.21509    -27085.46    4.3339981    4.3339981    4.3339981    -27085.46   -1346.6582     24792.41   -104702.13    10676.274    76360.453   -67870.745    81.407823 
   60800    3000.8754   -114.89646    2.7152551   -112.18121    17553.546    4.3236221    4.3236221    4.3236221    17553.546      24923.3    40189.806   -12452.468   -8876.4716   -29116.186    1617.3148    80.824529 
   60900    2050.1321   -114.05064    1.8550026   -112.19564   -10251.822    4.3362086    4.3362086    4.3362086   -10251.822   -34691.705    48264.899    -44328.66    4873.2232    54395.601   -4709.9934     81.53245 
   61000    1255.3525   -113.34049    1.1358694   -112.20462       -49112    4.3452915    4.3452915    4.3452915       -49112   -22324.848   -33849.472    -91161.68    7520.5464    37167.158   -82623.597    82.045872 
   61100    2430.5322    -114.3782    2.1991967   -112.17901    2432.0533    4.3355614    4.3355614    4.3355614    2432.0533   -6313.9337    25475.847   -11865.753    5004.2349    -31815.57    7791.3325    81.495949 
   61200    1857.7168     -113.873    1.6809012    -112.1921   -8780.9605      4.32887      4.32887      4.32887   -8780.9605   -4059.9535    15062.554   -37345.483    5297.4604    30052.228    32557.142    81.119194 
   61300    1067.8403   -113.17556   0.96620432   -112.20935    13116.649    4.3202661    4.3202661    4.3202661    13116.649    22939.702    30161.909   -13751.665     6847.389    38569.349   -64820.677    80.636465 
   61400    2753.0519    -114.6818    2.4910192   -112.19079    22008.117     4.332505     4.332505     4.332505    22008.117   -10088.929    51802.135    24311.145   -12535.758   -39584.247    2839.0163    81.323719 
   61500    2053.6844   -114.04661    1.8582168   -112.18839   -6732.6162    4.3506576    4.3506576    4.3506576   -6732.6162   -12085.959    6967.6905    -15079.58   -2794.2237    10581.657   -16432.155    82.350213 
   61600    2019.0449   -113.98563    1.8268743   -112.15875    5362.1592    4.3494452    4.3494452    4.3494452    5362.1592    22016.306   -2698.8433   -3230.9853    2152.0918    23404.331     -31891.2    82.281383 
   61700    1819.1913   -113.80417    1.6460425   -112.15813   -4294.0309    4.3363086    4.3363086    4.3363086   -4294.0309   -48440.567    64469.403   -28910.928   -3704.0632   -88472.852    22257.451    81.538091 
   61800    2024.1958   -113.99648    1.8315349   -112.16495    20001.521    4.3178077    4.3178077    4.3178077    20001.521    17180.109    29059.538    13764.917    22759.904    3513.8548   -7564.0794    80.498891 
   61900    1341.3545   -113.41625    1.2136857   -112.20257    5144.6126    4.3142093    4.3142093    4.3142093    5144.6126    32289.411    17255.454   -34111.027    2931.9365   -12582.417   -55178.278    80.297796 
   62000    1863.1862   -113.91578      1.68585   -112.22993   -6566.5241    4.3288445    4.3288445    4.3288445   -6566.5241   -42299.577    63353.972   -40753.968   -1612.5597   -63661.656    8737.1606    81.117759 
   62100    2886.9565   -114.81639    2.6121789   -112.20421   -5982.6974    4.3458167    4.3458167    4.3458167   -5982.6974   -14072.017    14783.632   -18659.707    4798.9494    20254.725     -8829.34    82.075625 
   62200     1006.854   -113.12279    0.9110227   -112.21176   -34738.003    4.3506047    4.3506047    4.3506047   -34738.003   -24415.052   -4929.5048   -74869.452    -3601.791    -38339.96   -40561.346    82.347206 
   62300    1607.3395   -113.64409    1.4543546   -112.18974    13849.945    4.3271803    4.3271803    4.3271803    13849.945   -10969.555    29436.766    23082.626    8848.3902   -37280.089    11438.875    81.024243 
   62400     2283.183   -114.23535     2.065872   -112.16948    28718.355    4.3222257    4.3222257    4.3222257    28718.355    17251.056    30851.926    38052.082    21007.966    31741.153   -28977.847    80.746242 
   62500    1406.5471   -113.45079    1.2726734   -112.17812   -13739.493    4.3488067    4.3488067    4.3488067   -13739.493    267.21607    24541.878   -66027.572   -5096.3271   -57490.771   -16276.694     82.24515 
   62600    1950.8079   -113.92009     1.765132   -112.15495   -14626.246    4.3523684    4.3523684    4.3523684   -14626.246   -4304.7827    3737.7051   -43311.661     15961.31   -11425.071    25457.308    82.447397 
   62700    1737.9703   -113.73063    1.5725521   -112.15807    16298.519    4.3312416    4.3312416    4.3312416    16298.519    5064.0061    45159.079   -1327.5286    22441.868    54194.977   -10119.425    81.252592 
   62800    1531.6036   -113.56962    1.3858271   -112.18379    611.61644    4.3211572    4.3211572    4.3211572    611.61644    -21861.13    42111.378   -18415.398   -10621.793   -89683.274   -12556.031    80.686372 
   62900    2288.8945   -114.26632    2.0710399   -112.19528    10862.315    4.3195169    4.3195169    4.3195169    10862.315    7176.0505    23535.098    1875.7952   -4338.1174   -13959.385   -4174.4114    80.594521 
   63000    2167.7643   -114.17903    1.9614387   -112.21759    5006.5106    4.3270598    4.3270598    4.3270598    5006.5106   -46131.524    27904.147    33246.909    6978.4212    56482.485    2480.8158    81.017473 
   63100    1148.0747   -113.26656    1.0388021   -112.22776   -18590.974    4.3393621    4.3393621    4.3393621   -18590.974   -55137.287    26008.832   -26644.467    26035.091   -59733.183    180.76395    81.710465 
   63200    1986.4684   -114.00722    1.7973984   -112.20982   -5869.4884    4.3325605    4.3325605    4.3325605   -5869.4884   -14008.425   -22271.072    18671.031   -40743.424   -16280.037   -16440.075    81.326839 
   63300    2677.3812   -114.61853    2.4225508   -112.19598    7667.7022     4.324675     4.324675     4.324675    7667.7022    -18969.83     529.5048    41443.431    -23972.34   -761.79476     13443.84    80.883593 
   63400     1767.984   -113.81476    1.5997091   -112.21505   -4431.5575    4.3277211    4.3277211    4.3277211   -4431.5575   -52440.321    75857.011   -36711.362    23119.769   -58883.603   -3886.9388    81.054623 
   63500    1404.4912   -113.47847    1.2708132   -112.20766   -7535.4585    4.3352184    4.3352184    4.3352184   -7535.4585   -42388.134     14680.46    5101.2985   -26271.684   -2818.9338   -26201.811     81.47661 
   63600    2459.7748    -114.4094    2.2256559   -112.18374   -19668.718    4.3438295    4.3438295    4.3438295   -19668.718   -53826.529    31706.283   -36885.909   -17097.222    20770.606    10623.964    81.963085 
   63700    1603.4356   -113.63673    1.4508222   -112.18591   -30962.967    4.3384131    4.3384131    4.3384131   -30962.967   -40601.128    18289.428   -70577.201    14263.862   -40167.365    3155.1741    81.656863 
   63800    1781.1183   -113.79037    1.6115933   -112.17877    10588.243    4.3224147    4.3224147    4.3224147    10588.243    13785.583   -2690.4206    20669.566    52223.705   -14718.304   -14789.377    80.756838 
   63900    2151.6832   -114.13549    1.9468882    -112.1886    6436.1459    4.3214992    4.3214992    4.3214992    6436.1459   -3962.8035    45957.731    -22686.49   -14969.998    69509.206    3629.3755    80.705531 
   64000    1865.4909   -113.89272    1.6879354   -112.20478     1206.062    4.3289117    4.3289117    4.3289117     1206.062    25086.084   -6174.0135   -15293.884    9497.8833    -6207.967    19429.857    81.121539 
   64100    1616.1315   -113.66458    1.4623097   -112.20227   -12941.402     4.339601     4.339601     4.339601   -12941.402    3407.2218    -54880.42    12648.992    63057.786   -23432.306   -2485.8584    81.723959 
   64200    2229.9904   -114.20559    2.0177422   -112.18785   -1951.8924    4.3313032    4.3313032    4.3313032   -1951.8924    6422.5178    13367.748   -25645.943   -8015.0036     60231.39   -8301.6887    81.256062 
   64300    1995.5651   -113.99267    1.8056293   -112.18704    6438.5857     4.328161     4.328161     4.328161    6438.5857    13911.912   -1407.3162    6811.1613    32970.396   -10245.434    -10159.84    81.079344 
   64400    1076.7818   -113.17705   0.97429477   -112.20275   -33536.209    4.3392091    4.3392091    4.3392091   -33536.209   -86922.134   -44779.406    31092.913    59559.412   -21577.867    6779.2215    81.701821 
   64500    2638.9737    -114.5625    2.3877988    -112.1747    4962.3571    4.3345274    4.3345274    4.3345274    4962.3571    29413.913    -20605.95    6079.1084   -50942.703    11001.761   -10503.027    81.437655 
   64600    1590.6406   -113.63293     1.439245   -112.19368   -18406.999    4.3346713    4.3346713    4.3346713   -18406.999   -41297.113   -48227.504     34303.62    56322.628   -11082.116   -24830.179    81.445768 
   64700    1166.6176   -113.25847    1.0555801   -112.20289   -18647.914    4.3318188    4.3318188    4.3318188   -18647.914   -55085.787   -29775.137    28917.181    48797.104   -33144.375    9912.5775    81.285084 
   64800     3046.777   -114.93227    2.7567879   -112.17549    24544.741    4.3220508    4.3220508    4.3220508    24544.741    59059.526   -6281.9667    20856.663   -35674.745    9956.6307   -14240.013    80.736442 
   64900    1267.2259   -113.36136    1.1466127   -112.21475   -3513.9501    4.3289255    4.3289255    4.3289255   -3513.9501   -30529.186    3017.7335    16969.602     65633.84    49.569164   -14353.775    81.122314 
   65000    1031.6279   -113.15782   0.93343863   -112.22438   -13127.313    4.3348709    4.3348709    4.3348709   -13127.313   -30082.447    12566.645   -21866.137    42070.313   -53024.752   -360.81331    81.457019 
   65100     2615.522   -114.55915    2.3665792   -112.19257    6493.2558    4.3324659    4.3324659    4.3324659    6493.2558      20148.3   -28852.978    28184.446   -44388.333   -896.37208    4926.6502    81.321513 
   65200    1876.9166   -113.90567    1.6982736    -112.2074    1452.1348    4.3261312    4.3261312    4.3261312    1452.1348    643.52237   -36259.012    39971.894    31574.863    8068.0215    11698.687    80.965323 
   65300    1665.8044   -113.71961    1.5072548   -112.21236    24568.567    4.3194869    4.3194869    4.3194869    24568.567    12356.055    34041.334    27308.313    53581.854   -50482.305    -10215.43    80.592843 
   65400    2266.9623   -114.25322    2.0511951   -112.20203    14940.022    4.3238501    4.3238501    4.3238501    14940.022    40422.829   -8444.6258    12841.862   -51560.968   -14093.983    11900.441    80.837314 
   65500    1738.5733   -113.78464    1.5730977   -112.21155   -10603.073     4.334724     4.334724     4.334724   -10603.073    1597.9585   -49230.725    15823.549    9215.8424    12433.926    14688.723    81.448739 
   65600    1550.8683   -113.61176    1.4032582    -112.2085   -12906.094    4.3336368    4.3336368    4.3336368   -12906.094   -25714.786    9778.8986   -22782.395    56836.393   -42634.372    -3550.236    81.387465 
   65700    2087.2131   -114.07732    1.8885542   -112.18877   -3411.2748    4.3269251    4.3269251    4.3269251   -3411.2748    43451.711    19161.117   -72846.653    -26191.11    13050.477    13674.799     81.00991 
   65800    1198.0997   -113.28975    1.0840658   -112.20568    -15125.65    4.3264891    4.3264891    4.3264891    -15125.65   -1579.4395   -13434.552   -30362.959    21249.203    18840.013    13645.486    80.985418 
   65900    2423.5568   -114.39285    2.1928851   -112.19997    8073.6739     4.323595     4.323595     4.323595    8073.6739    5420.5509    12197.663    6602.8081    47453.282   -6451.7118   -8615.5151    80.823011 
   66000    2104.8538   -114.11329     1.904516   -112.20877    1974.4545    4.3276859    4.3276859    4.3276859    1974.4545    27790.697    12360.313   -34227.646   -19811.977    6610.3325    21231.626    81.052643 
   66100    1176.2015   -113.28547    1.0642518   -112.22122   -6897.8285     4.332803     4.332803     4.332803   -6897.8285    16646.692    2493.0348   -39833.213   -277.61862     24007.03    19265.808    81.340499 
   66200    2009.3489   -114.02407    1.8181011   -112.20597   -13249.387     4.332297     4.332297     4.332297   -13249.387   -15525.674    27487.254   -51709.741    32849.852   -53587.013   -13329.448    81.312005 
   66300    1865.5408   -113.88884    1.6879805   -112.20086   -6487.8735    4.3268625    4.3268625    4.3268625   -6487.8735   -15336.246    46430.337   -50557.711   -6657.3532   -45008.438    24209.393    81.006393 
   66400    2349.1176    -114.3178     2.125531   -112.19227   -9804.6296    4.3268788    4.3268788    4.3268788   -9804.6296     50436.21   -34681.552   -45168.547   -23144.177    19426.562    18253.702    81.007307 
   66500    1282.0982   -113.37355    1.1600694   -112.21348    -19657.74    4.3284865    4.3284865    4.3284865    -19657.74   -26351.389    56526.048   -89147.878    24515.115   -94120.447   -18343.666    81.097639 
   66600    2212.4741   -114.20899     2.001893    -112.2071   -14634.437    4.3245307    4.3245307    4.3245307   -14634.437   -31596.418     46232.65   -58539.543   -12673.434    24499.081   -513.96141    80.875494 
   66700    2511.7516   -114.47758    2.2726856   -112.20489   -3154.6337    4.3290871    4.3290871    4.3290871   -3154.6337    23236.835    11451.091   -44151.828    1546.8069     23986.98    16469.811    81.131401 
   66800    1948.9072   -113.96978    1.7634122   -112.20637   -14914.389    4.3325824    4.3325824    4.3325824   -14914.389    5071.9337    25701.592   -75516.694    2834.2103   -72800.095   -18690.609    81.328076 
   66900    1025.0321   -113.14071   0.92747056   -112.21324    10626.819    4.3235122    4.3235122    4.3235122    10626.819    31080.447     62829.36   -62029.351    5312.6971    75892.716   -4154.1966    80.818366 
   67000    2562.4293   -114.52001    2.3185399   -112.20147    7415.0305    4.3277871    4.3277871    4.3277871    7415.0305     27248.98    4597.2267   -9601.1152   -4617.3767    4590.2722    8424.0825    81.058332 
   67100    1766.1319    -113.8057    1.5980332   -112.20766    23548.336     4.329407     4.329407     4.329407    23548.336    35030.232    61007.292   -25392.515   -23382.325    24305.483    8054.3632    81.149386 
   67200    1692.3403   -113.72909    1.5312651   -112.19783    6775.5759    4.3353126    4.3353126    4.3353126    6775.5759    11386.524    76571.647   -67631.443    14499.228    56846.963   -13768.908    81.481918 
   67300    1940.2168   -113.92881    1.7555489   -112.17326   -7887.8705    4.3445963    4.3445963    4.3445963   -7887.8705    12038.859     6810.695   -42513.165   -14308.791   -39043.491    23148.904    82.006503 
   67400    1420.9589   -113.46978    1.2857135   -112.18407    14229.198      4.33425      4.33425      4.33425    14229.198   -3553.7468    33182.417    13058.923   -45496.086    41753.076    22396.117    81.422022 
   67500    2781.1178   -114.67992    2.5164138   -112.16351    10694.025    4.3288403    4.3288403    4.3288403    10694.025    2845.3399    34714.474   -5477.7385    39906.253    26204.459   -18297.771    81.117526 
   67600    1433.1683   -113.49231    1.2967608   -112.19555   -18305.075    4.3339934    4.3339934    4.3339934   -18305.075   -3812.7564   -29246.972   -21855.495   -18275.903   -12489.711    48211.191    81.407561 
   67700    1884.4894   -113.89633    1.7051256    -112.1912   -25036.241    4.3354002    4.3354002    4.3354002   -25036.241   -24744.398   -24855.195   -25509.128   -38608.206   -10099.208    17061.319    81.486861 
   67800      1793.34   -113.81177    1.6226517   -112.18912   -17561.515    4.3328761    4.3328761    4.3328761   -17561.515   -43462.905   -38579.582    29357.942    83376.993   -7031.3998   -5464.1483    81.344613 
   67900    1673.6714    -113.7036    1.5143731   -112.18923   -12881.013    4.3342962    4.3342962    4.3342962   -12881.013    11129.546   -12724.293   -37048.291   -6709.9611    17313.499    57023.263    81.424626 
   68000    2091.6171   -114.07478    1.8925391   -112.18224   -15065.171    4.3341684    4.3341684    4.3341684   -15065.171   -6351.0541   -19053.584   -19790.875    6026.7938   -6797.5967    9417.5735    81.417424 
   68100    1759.4541   -113.78589     1.591991    -112.1939   -5963.2849    4.3244453    4.3244453    4.3244453   -5963.2849   -60740.113    5962.5769    36887.681    87855.585   -30121.316    -8744.727    80.870705 
   68200    2355.9004   -114.32498    2.1316682   -112.19331     5160.931    4.3268387    4.3268387    4.3268387     5160.931    24607.068    31721.997   -40846.273   -17592.891    25612.496    37257.082    81.005056 
   68300    1812.7356   -113.83221    1.6402013   -112.19201   -21329.304    4.3414525    4.3414525    4.3414525   -21329.304    -34083.83   -22401.768   -7502.3118    46660.489    18514.656    20640.849    81.828608 
   68400     1402.062   -113.45421    1.2686151   -112.18559    36.180889    4.3457762    4.3457762    4.3457762    36.180889   -50401.145    41258.164     9251.523    69304.186   -21871.357    -2588.021    82.073334 
   68500    2814.5776   -114.69058     2.546689   -112.14389    3495.8725    4.3528829    4.3528829    4.3528829    3495.8725   -6490.2594    52601.782   -35623.905   -30801.178    3746.5606    2196.3278    82.476637 
   68600    720.60448   -112.82642   0.65201808   -112.17441   -26266.753    4.3450655    4.3450655    4.3450655   -26266.753   -97206.086   -6542.5873    24948.413    111113.12    19021.709    15350.527    82.033072 
   68700    2503.6048   -114.41106    2.2653142   -112.14575    20336.806    4.3216695    4.3216695    4.3216695    20336.806    17299.339    50666.651   -6955.5722    11952.287    -6336.445   -14532.166    80.715076 
   68800    1848.1139    -113.8432    1.6722123   -112.17099    1786.8111    4.3301074    4.3301074    4.3301074    1786.8111    3607.2859   -49520.674    51273.822    45899.491   -11528.039   -6156.7864     81.18878 
   68900    778.97079   -112.88452   0.70482914   -112.17969   -26425.624    4.3452981    4.3452981    4.3452981   -26425.624    -64980.21   -73367.132     59070.47    78460.927    29253.546   -2156.7303    82.046248 
   69000    2727.7858   -114.60086    2.4681579    -112.1327    10701.254    4.3468657    4.3468657    4.3468657    10701.254    4772.1156    1325.4645    26006.181   -35638.512    1741.4591    1188.1602    82.135075 
   69100    1216.7881   -113.24866    1.1009755   -112.14769   -28189.816    4.3550578    4.3550578    4.3550578   -28189.816   -69823.598   -85060.798    70314.948    114461.41   -18736.573   -2578.6511    82.600325 
   69200    2866.7245   -114.70705    2.5938725   -112.11318    12181.227    4.3316951    4.3316951    4.3316951    12181.227    24762.847     5696.661    6084.1733   -31237.022    21515.305   -2547.5386    81.278121 
   69300    1348.3632   -113.35048    1.2200273   -112.13045    38103.013    4.3113056    4.3113056    4.3113056    38103.013    8895.4295   -9274.0697    114687.68     104008.9    6551.7107    3452.3249    80.135774 
   69400    2360.9196   -114.28434    2.1362097   -112.14813   -2237.2735    4.3357752    4.3357752    4.3357752   -2237.2735   -9310.4642   -29805.012    32403.656    31673.357   -11040.685   -6006.4006    81.508006 
   69500    2030.0793   -113.97905    1.8368584   -112.14219    7918.9081    4.3467447    4.3467447    4.3467447    7918.9081    1271.6177   -53467.085    75952.191    31628.904   -10917.092   -9063.5806    82.128219 
   69600    1170.2484   -113.20693    1.0588653   -112.14807    22844.174    4.3504333    4.3504333    4.3504333    22844.174   -1336.6371   -24105.612    93974.771    59896.524     5430.368   -5969.3108    82.337477 
   69700    2435.3039   -114.30175    2.2035141   -112.09824   -26981.607    4.3579115    4.3579115    4.3579115   -26981.607   -22215.981   -42519.375   -16209.466    5847.9426    17855.643   -4924.6434    82.762809 
   69800    1055.8356    -113.0698   0.95534221   -112.11446   -14652.073    4.3324532    4.3324532    4.3324532   -14652.073   -39878.827   -69784.664     65707.27    129190.54   -5802.6858    3336.5865      81.3208 
   69900     2747.227   -114.57881    2.4857487   -112.09306    20862.065    4.3179015    4.3179015    4.3179015    20862.065    7883.4907    70658.288   -15955.583   -58902.621    23738.569   -2870.3523    80.504137 
   70000    723.74677   -112.81196   0.65486129    -112.1571   -34961.236    4.3276972    4.3276972    4.3276972   -34961.236   -101915.54   -93653.365      90685.2    127277.14     16023.31   -4078.9944    81.053279 
   70100    2863.3456   -114.73361    2.5908153   -112.14279    6464.5009    4.3415943    4.3415943    4.3415943    6464.5009   -30041.923    39482.761    9952.6642    1968.0579   -9998.5756    3151.7541    81.836628 
   70200    1591.7006   -113.59604    1.4402041   -112.15584   -38632.967     4.359949     4.359949     4.359949   -38632.967   -56551.055   -48045.818   -11302.026    62980.808    11529.467   -7033.3909    82.878946 
   70300    1353.7233   -113.37507    1.2248773    -112.1502    1247.3815    4.3367257    4.3367257    4.3367257    1247.3815   -51329.914    25689.932    29382.127    61830.403    21068.367   -4785.3063    81.561621 
   70400    2940.8844   -114.77164     2.660974   -112.11066    15673.569    4.3261911    4.3261911    4.3261911    15673.569      15345.6    28707.199    2967.9083    1049.2643    2513.2016   -5438.4036    80.968689 
   70500    1028.1836   -113.09331   0.93032209   -112.16299   -29714.922    4.3271701    4.3271701    4.3271701   -29714.922     -91658.1   -41539.871    44053.205    131973.13   -4081.0914    3227.9226     81.02367 
   70600    2688.4842   -114.57616     2.432597   -112.14357    1359.0359    4.3256449    4.3256449    4.3256449    1359.0359    583.12019    61213.153   -57719.166   -25603.748    35523.513   -1240.0977    80.938025 
   70700    1380.7859   -113.41758    1.2493641   -112.16822   -41787.363    4.3487377    4.3487377    4.3487377   -41787.363   -78976.326   -79754.015    33368.252    101681.47    813.65392   -4318.4846    82.241236 
   70800     1894.171   -113.85835    1.7138857   -112.14446   -32498.897    4.3384589    4.3384589    4.3384589   -32498.897   -51555.271   -64118.978    18177.558    49899.295    -919.4288    2386.7556    81.659453 
   70900    1771.2651   -113.72657    1.6026779   -112.12389    18047.273    4.3244695    4.3244695    4.3244695    18047.273    21650.391    18843.832    13647.596    6593.8932    34572.095    8333.3577     80.87206 
   71000    1062.4413   -113.11178    0.9613192   -112.15046   -31307.375    4.3502174    4.3502174    4.3502174   -31307.375   -63636.679   -97541.012    67255.566    108053.14    5708.4893    3028.2751    82.325219 
   71100    2975.5044   -114.78213    2.6922989   -112.08983    1857.2176    4.3552392    4.3552392    4.3552392    1857.2176    29796.229    3833.0465   -28057.623   -23448.987   -692.99162   -9062.3979     82.61065 
   71200     874.0041   -112.91251   0.79081728   -112.12169    6406.2435    4.3564394    4.3564394    4.3564394    6406.2435   -56308.941    48816.317    26711.355    100717.17    25149.984   -1303.7568    82.678967 
   71300    2992.7649   -114.78778    2.7079165   -112.07986   -3121.6111    4.3537225    4.3537225    4.3537225   -3121.6111   -11881.949    44826.529   -42309.413   -41729.894    9369.8394    9309.0651    82.524372 
   71400    920.69727   -112.95387   0.83306623    -112.1208    9336.6531    4.3229166    4.3229166    4.3229166    9336.6531   -91850.082   -17847.437    137707.48    106023.42   -3037.1356   -13377.625    80.784968 
   71500     2617.157   -114.47774    2.3680587   -112.10968    25702.278    4.3170783    4.3170783    4.3170783    25702.278   -1848.0528    40584.528     38370.36    3612.0381    4148.0503    14707.515    80.458101 
   71600    1634.7613   -113.62554    1.4791664   -112.14637    267.98104    4.3448651    4.3448651    4.3448651    267.98104   -16438.114   -52788.917    70030.974    55515.911    19924.044    7561.2073    82.021725 
   71700    1545.6316   -113.53916    1.3985199   -112.14064   -24302.712    4.3636453    4.3636453    4.3636453   -24302.712   -45829.006   -97224.884    70145.754    59545.741   -3751.9112   -1051.6093    83.089914 
   71800    2569.6709   -114.42548    2.3250922   -112.10039   -7383.7904     4.351005     4.351005     4.351005   -7383.7904    5737.5276   -4694.8033   -23194.096    5049.8644    10624.756   -7663.6253    82.369941 
   71900    698.79501   -112.76079   0.63228441   -112.12851    3360.6551    4.3327399    4.3327399    4.3327399    3360.6551   -48584.523     -9678.77    68345.259    100106.56    13569.351    8184.6773    81.336944 
   72000    2921.3222   -114.74276    2.6432737   -112.09949    36252.413    4.3203517    4.3203517    4.3203517    36252.413    39460.695    33498.179    35798.366   -48488.236     10879.53   -7468.0641    80.641262 
   72100    1054.5797   -113.11942   0.95420586   -112.16521   -23276.655    4.3306774    4.3306774    4.3306774   -23276.655   -104298.72   -17030.342    51499.095    79217.972   -11078.598    317.86614    81.220846 
   72200    2026.4821   -113.99878    1.8336036   -112.16518   -8802.1663    4.3385166    4.3385166    4.3385166   -8802.1663   -23740.565    8491.2483   -11157.182    33261.629   -7826.8798     7107.314     81.66271 
   72300    2421.0102      -114.35    2.1905809   -112.15942    6246.3928    4.3339849    4.3339849    4.3339849    6246.3928   -5417.6105    15547.975    8608.8136   -230.18078    8276.5397   -10399.854    81.407083 
   72400    944.17273    -113.0415   0.85430733   -112.18719   -41247.772    4.3357145    4.3357145    4.3357145   -41247.772   -144110.59   -31119.901    51487.178    75803.127   -16461.347    8510.5569    81.504581 
   72500    2707.0019   -114.60332    2.4493522   -112.15396    7670.5612     4.327082     4.327082     4.327082    7670.5612    25059.759    12132.965   -14181.041   -28403.714    402.29625   -4356.7761    81.018718 
   72600    1577.9685   -113.60079    1.4277791   -112.17301   -14510.771    4.3286863    4.3286863    4.3286863   -14510.771    -45931.53   -4501.4636    6900.6806    74463.526    10975.492   -8291.2169     81.10887 
   72700    1728.9876   -113.73903    1.5644243    -112.1746   -11242.915     4.334734     4.334734     4.334734   -11242.915   -54271.972   -40856.849    61400.077    54992.369    1582.1422    18294.301    81.449301 
   72800    2550.8724   -114.45699     2.308083   -112.14891    5916.6439    4.3359731    4.3359731    4.3359731    5916.6439    32927.259    -16091.29    913.96342   -22831.411     1897.441   -25272.699    81.519168 
   72900    655.01558   -112.76262   0.59267186   -112.16995     -34634.8    4.3516283    4.3516283    4.3516283     -34634.8   -77265.466   -94049.408    67410.472    110470.66    5384.2567   -1423.6893    82.405346 
   73000    3235.9002   -115.03883    2.9279105   -112.11092   -6715.7115    4.3434848    4.3434848    4.3434848   -6715.7115   -5160.7543   -7856.9046   -7129.4757   -38968.525    16826.849   -6956.5805    81.943576 
   73100    671.69349   -112.75645   0.60776238   -112.14869    20721.076    4.3282291    4.3282291    4.3282291    20721.076    -34244.63    18123.702    78284.158    74637.931   -1911.9357   -16996.629    81.083168 
   73200    2287.5291   -114.21812    2.0698044   -112.14831   -11430.564    4.3333643    4.3333643    4.3333643   -11430.564   -47381.269    14649.996   -1560.4187    46934.396    10292.731   -17008.445    81.372115 
   73300    2337.9231    -114.2661    2.1154019    -112.1507    35271.986     4.328247     4.328247     4.328247    35271.986   -17444.125     98148.04    25112.042   -3804.7462    -7185.772    22855.142    81.084177 
   73400    1060.0684   -113.14824   0.95917217   -112.18907   -30803.976    4.3389461    4.3389461    4.3389461   -30803.976   -103246.72   -50908.712    61743.509    98435.652    7519.0805   -26099.911    81.686965 
   73500    3010.9713   -114.86819    2.7243901    -112.1438    12820.504    4.3368593    4.3368593    4.3368593    12820.504   -21726.894    61377.376   -1188.9694   -33279.422    6221.3157     4054.187    81.569161 
   73600    1196.3269   -113.26189    1.0824617   -112.17943   -8494.5444    4.3265486    4.3265486    4.3265486   -8494.5444   -38268.495   -52288.126    65072.989    83454.626   -6915.0738    44379.533    80.988761 
   73700    1903.0846   -113.89994    1.7219509   -112.17799     -3952.41    4.3288303    4.3288303    4.3288303     -3952.41   -45832.522   -23428.617    57403.908    35102.901    4643.5509   -4300.2369    81.116964 
   73800      2624.54   -114.53006    2.3747389   -112.15533    19058.519    4.3333832    4.3333832    4.3333832    19058.519    10586.603    3.2320861    46585.723    5812.3586    4192.0804   -9202.1941    81.373179 
   73900    510.53274   -112.64512   0.46194075   -112.18318   -29014.096    4.3470299    4.3470299    4.3470299   -29014.096   -56076.953    -91271.35    60306.015    107993.44   -10100.878    31755.403    82.144384 
   74000    3106.0354   -114.93221    2.8104061    -112.1218   -12321.054    4.3464549    4.3464549    4.3464549   -12321.054   -5010.1897   -10250.187   -21702.785   -32379.027   -6740.0821    18296.059     82.11179 
   74100    1266.8255   -113.29315    1.1462503    -112.1469   -18660.298    4.3340237    4.3340237    4.3340237   -18660.298   -69095.341    -58653.79    71768.237    93314.914   -775.74088   -12368.733    81.409269 
   74200    1549.8444   -113.55359    1.4023318   -112.15125   -6617.5529    4.3238849    4.3238849    4.3238849   -6617.5529    -16425.02   -25048.603    21620.964    28113.979    1710.0837    55142.399    80.839269 
   74300    2606.2139   -114.49964    2.3581571   -112.14149   -2694.8606    4.3308829    4.3308829    4.3308829   -2694.8606   -43141.202    8648.3542    26408.266    26447.246    800.42682     -10814.9    81.232408 
   74400    1051.0187    -113.1148   0.95098383   -112.16382   -26031.683    4.3495661    4.3495661    4.3495661   -26031.683   -104607.13   -41650.017    68162.095    92771.568   -2196.6456   -12710.057    82.288248 
   74500    2859.6211   -114.70129    2.5874453   -112.11384    2672.5387    4.3477459    4.3477459    4.3477459    2672.5387    9304.6265   -4952.0793     3665.069   -40165.715    5585.1418    31732.612    82.184984 
   74600    1327.6738   -113.33006    1.2013071   -112.12876     16874.93    4.3376247    4.3376247    4.3376247     16874.93   -12116.658    12331.812    50409.635    113187.47    2267.6954   -17768.034    81.612357 
   74700    2578.9529   -114.44818    2.3334908   -112.11469   -1066.0418    4.3357856    4.3357856    4.3357856   -1066.0418    236.02196   -2827.5876   -606.55984   -37678.521   -20735.182     1494.281    81.508595 
   74800    1357.9609    -113.3753    1.2287116   -112.14659    13882.183    4.3193705    4.3193705    4.3193705    13882.183    16134.858   -60052.204    85563.894    44214.283    9071.4971     6186.196    80.586327 
   74900    1745.1639   -113.75365    1.5790609   -112.17459    15584.872    4.3196063    4.3196063    4.3196063    15584.872    17420.333   -46315.204    75649.488    80788.277   -11799.166    7441.3698    80.599525 
   75000    2719.7084   -114.61144    2.4608493   -112.15059   -4258.4777    4.3424975    4.3424975    4.3424975   -4258.4777    46805.709   -52775.733    -6805.409    447.51906    4742.4376   -3285.1132    81.887713 
   75100    826.56577    -112.9142   0.74789408   -112.16631   -9962.9587    4.3437942    4.3437942    4.3437942   -9962.9587   -45836.783   -78094.674    94042.581    100085.76   -1243.3388   -8089.6452    81.961091 
   75200    2628.9051   -114.49206    2.3786886   -112.11337   -7415.6049    4.3451583    4.3451583    4.3451583   -7415.6049   -5210.3515   -16529.148   -507.31493   -63227.925    6642.8056   -10.725643    82.038332 
   75300    972.33531   -113.00794   0.87978942   -112.12815   -29974.531    4.3457367    4.3457367    4.3457367   -29974.531     -82945.4   -50785.948    43807.756    132438.36    3820.4102    26690.572    82.071093 
   75400    2632.1917   -114.49957    2.3816623   -112.11791    12137.183    4.3314572    4.3314572    4.3314572    12137.183   -31576.005    52767.331    15220.224   -1241.9278    8294.9823   -8006.1554    81.264725 
   75500    1851.7338   -113.82324    1.6754877   -112.14775   -25315.995    4.3336256    4.3336256    4.3336256   -25315.995   -55196.315   -50450.359    29698.689    58256.696    1711.2911   -13274.024    81.386836 
   75600    1570.8346   -113.58667    1.4213242   -112.16535   -16061.069    4.3315857    4.3315857    4.3315857   -16061.069   -67351.418    -17656.86    36825.072    103003.41    743.16917    23261.544    81.271959 
   75700    2724.0698   -114.60854    2.4647956   -112.14374    14703.775    4.3341722    4.3341722    4.3341722    14703.775    21742.489    32089.436   -9720.6003   -22442.065    12440.701    -5469.854    81.417634 
   75800    567.05241    -112.6773   0.51308093   -112.16422   -26769.994    4.3438968    4.3438968    4.3438968   -26769.994   -53321.111   -77221.413    50232.543     124367.3    8568.5166    -19982.08    81.966898 
   75900     2873.469   -114.71494    2.5999751   -112.11496    661.95318    4.3403517    4.3403517    4.3403517    661.95318    9928.8033    10294.972   -18237.916   -44804.027    1661.0202    12189.555     81.76638 
   76000    1108.9469   -113.14974    1.0033985   -112.14635   -18638.357    4.3350457    4.3350457    4.3350457   -18638.357   -53953.681   -57184.182    55222.791    117337.86   -2418.9351    8954.1571    81.466873 
   76100    2187.1961   -114.11562     1.979021    -112.1366   -4778.1913    4.3352025    4.3352025    4.3352025   -4778.1913    10106.657   -25267.128    825.89687    14096.455    13574.013   -23088.654    81.475715 
   76200     1708.907   -113.68579     1.546255   -112.13953   -30578.583    4.3479394    4.3479394    4.3479394   -30578.583   -55774.592    -77787.69    41826.532    70704.047    2806.2039   -8268.9117    82.195958 
   76300    1975.9569   -113.90996    1.7878874   -112.12207   -14091.544    4.3481134    4.3481134    4.3481134   -14091.544   -25692.901   -48912.321     32330.59     57418.16    141.31705    124.37177    82.205823 
   76400    2579.5206   -114.43763    2.3340044   -112.10362   -2515.6163    4.3421915    4.3421915    4.3421915   -2515.6163   -3985.7813   -3031.0943   -529.97327    9035.0169    4369.2111    2057.8399    81.870402 
   76500    894.67323   -112.96092   0.80951914    -112.1514   -26682.484    4.3348989    4.3348989    4.3348989   -26682.484   -33813.708   -105503.88    59270.135    130756.96    11837.679    -18473.15    81.458595 
   76600    3023.5818   -114.84457    2.7358003   -112.10877    27628.649    4.3224606    4.3224606    4.3224606    27628.649     33097.99    48614.234     1173.723   -41806.499   -6024.9359   -13286.643     80.75941 
   76700     836.5172   -112.91657   0.75689834   -112.15967   -30248.701    4.3394035    4.3394035    4.3394035   -30248.701   -65892.756   -97785.634    72932.285    127490.37   -7531.7079    5900.0593    81.712804 
   76800    2421.6703   -114.31534    2.1911781   -112.12416   -3715.9255     4.345947     4.345947     4.345947   -3715.9255    3401.9476    7377.3834   -21927.108   -28013.465   -1789.1792   -13079.601    82.083013 
   76900    1274.9978   -113.29859    1.1536448   -112.14494   -29844.605    4.3399591    4.3399591    4.3399591   -29844.605   -6199.5186   -81136.788   -2197.5079    81150.512   -5.0191252    -23231.21    81.744191 
   77000    2055.3663   -114.01355    1.8597387   -112.15381   -26686.391    4.3283756    4.3283756    4.3283756   -26686.391   -47615.855   -69320.702    36877.383    81046.298   -7846.6865    5526.0207    81.091402 
   77100    2483.0432   -114.39188    2.2467097   -112.14517    20150.274    4.3250499    4.3250499    4.3250499    20150.274    58060.813   -7573.8222    9963.8325   -23957.604   -6373.8533   -23363.281    80.904631 
   77200    1363.6655   -113.39704    1.2338732   -112.16317   -34582.508    4.3569544    4.3569544    4.3569544   -34582.508   -73311.914   -70179.772    39744.161    107338.23   -2043.8804   -19117.771    82.708289 
   77300    3225.7388   -115.00818    2.9187162   -112.08947   -21335.296     4.366641     4.366641     4.366641   -21335.296   -1642.3601   -18450.197   -43913.331   -20895.722    12399.459    19215.408    83.261161 
   77400     815.3376   -112.84404   0.73773459    -112.1063    8390.3162    4.3504924    4.3504924    4.3504924    8390.3162    8012.7522   -47141.685    64299.881    45777.343    15984.791   -19813.374    82.340831 
   77500    2786.2453    -114.5917    2.5210533   -112.07065   -618.54779    4.3439415    4.3439415    4.3439415   -618.54779    397.18512   -19607.995    17355.166    21080.432   -7511.8457    12437.937    81.969429 
   77600    1412.2091     -113.397    1.2777964    -112.1192   -17719.993    4.3275475    4.3275475    4.3275475   -17719.993    61649.159   -65031.542   -49777.595   -11396.015   -7477.1633    14823.752     81.04487 
   77700    1650.9726   -113.63688    1.4938347   -112.14305    22698.546    4.3198578    4.3198578    4.3198578    22698.546    44588.991   -12985.013    36491.661    58581.605   -4835.9496   -23203.457    80.613605 
   77800    2209.1542   -114.14837    1.9988891   -112.14948   -10276.953    4.3470921    4.3470921    4.3470921   -10276.953    20180.357   -2794.9586   -48216.257    -26729.39   -13046.213    23906.559    82.147913 
   77900    1194.4406   -113.24334     1.080755   -112.16259   -18865.331    4.3488508    4.3488508    4.3488508   -18865.331    16715.969   -10026.811   -63285.152   -2076.9842   -11514.012    6468.8157    82.247654 
   78000    2930.6366    -114.7767    2.6517016   -112.12499    13981.614      4.34421      4.34421      4.34421    13981.614     14589.89     42988.62    -15633.67    1415.4047    5740.6382   -4088.0866    81.984629 
   78100    1261.4948   -113.30653     1.141427    -112.1651   -13895.605    4.3400293    4.3400293    4.3400293   -13895.605   -12990.717    28514.287   -57210.385   -23626.958    22887.024    16807.741    81.748157 
   78200    2387.7736   -114.29746    2.1605078   -112.13695    40418.416    4.3251434    4.3251434    4.3251434    40418.416    78195.169    37917.632     5142.448   -17532.117   -20917.925   -9634.6909    80.909878 
   78300    1883.1973   -113.86521    1.7039565   -112.16125    12516.516    4.3397882    4.3397882    4.3397882    12516.516    10143.011    50999.604   -23593.068    10734.549    71316.049    -6156.996    81.734537 
   78400    2059.0656   -114.01369    1.8630858    -112.1506   -15747.596     4.357445     4.357445     4.357445   -15747.596   -14746.634   -37033.105    4536.9519    6018.2416   -1993.2598    18687.386    82.736233 
   78500    2414.8439   -114.31452    2.1850015   -112.12952    692.69555    4.3444729    4.3444729    4.3444729    692.69555    25673.372     3353.127   -26948.412   -10026.465    26127.056     5204.345    81.999517 
   78600    1478.3819   -113.47762     1.337671   -112.13995    37125.012    4.3291713    4.3291713    4.3291713    37125.012    22395.843    56705.789    32273.403    13807.405    82171.113   -14798.227    81.136136 
   78700    2409.8922   -114.31655    2.1805211   -112.13603   -757.50024    4.3438134    4.3438134    4.3438134   -757.50024     45223.56   -46560.188   -935.87271    -15116.69   -37144.717    42059.814    81.962179 
   78800    898.51332   -112.97541   0.81299373   -112.16242    -19971.14    4.3444337    4.3444337    4.3444337    -19971.14   -25477.265     4641.846   -39078.002   -24057.155     95695.61     20473.34    81.997294 
   78900    2467.7074   -114.37529    2.2328335   -112.14245    20632.993    4.3345943    4.3345943    4.3345943    20632.993    46324.613   -5254.3593    20828.725    17295.391     8926.192   -8823.7858    81.441428 
   79000    1671.6957   -113.67656    1.5125854   -112.16398   -31163.942    4.3468936    4.3468936    4.3468936   -31163.942    1241.6947   -34998.005   -59735.516   -14300.268     29368.12    45434.279    82.136657 
   79100    1210.7048   -113.27759    1.0954711   -112.18212   -16611.051    4.3339897    4.3339897    4.3339897   -16611.051   -14348.495    20105.039   -55589.697   -6157.5393    79361.978    14824.527    81.407351 
   79200    3153.5252   -114.99612    2.8533759   -112.14275    25545.477    4.3356211    4.3356211    4.3356211    25545.477    38608.611   -9834.7952    47862.616   -2237.0687   -25872.109   -3209.3313    81.499314 
   79300     740.5415   -112.84388   0.67005751   -112.17382   -48037.325    4.3629497    4.3629497    4.3629497   -48037.325   -52060.373    4005.4044   -96057.005     8380.641    119257.82    21606.516    83.050187 
   79400    2465.3889   -114.34066    2.2307357   -112.10993   -60.180867    4.3516018    4.3516018    4.3516018   -60.180867    25166.672   -2328.0306   -23019.184    5144.1279   -7475.3946    255.40452    82.403839 
   79500    1873.0581   -113.80271    1.6947823   -112.10793     2036.823    4.3416751    4.3416751    4.3416751     2036.823    18090.003    20843.328   -32822.862   -6160.1749    59756.973   -193.87496    81.841197 
   79600    1156.1378   -113.18027    1.0460978   -112.13417   -41324.926    4.3492397    4.3492397    4.3492397   -41324.926   -26511.716   -6114.3225   -91348.739     21444.67    44176.151    47534.662    82.269724 
   79700     2438.033   -114.33838    2.2059835    -112.1324   -1652.9318    4.3278886    4.3278886    4.3278886   -1652.9318    44961.758   -23447.726   -26472.827    -11515.26   -14836.661    33299.712    81.064036 
   79800    1404.6067   -113.44182    1.2709177   -112.17091    5216.7988    4.3215311    4.3215311    4.3215311    5216.7988   -44280.951     54015.18    5916.1671   -1135.8973    89692.101   -15566.696    80.707321 
   79900    1972.0645   -113.95913    1.7843654   -112.17477   -20939.441    4.3434611    4.3434611    4.3434611   -20939.441    25048.033   -41770.775   -46095.581    2545.9926   -1044.6055    57309.695    81.942233 
   80000    1894.1905   -113.87817    1.7139034   -112.16426    11108.016    4.3479466    4.3479466    4.3479466    11108.016    23548.635   -18103.319    27878.732    4269.7265    18483.212    7878.5645    82.196363 
   80100    1869.9147   -113.84567    1.6919381   -112.15373   -10437.954    4.3517749    4.3517749    4.3517749   -10437.954   -20060.853    16589.105   -27842.114    499.05551    78809.844   -15706.953    82.413673 
   80200    2347.2812   -114.26481    2.1238694   -112.14095   -4466.6468    4.3499316    4.3499316    4.3499316   -4466.6468    64895.197   -57439.408    -20855.73   -12544.584   -33135.963    65587.081     82.30899 
   80300    1719.2797   -113.69825    1.5556404   -112.14261    9108.7683    4.3318296    4.3318296    4.3318296    9108.7683    8180.5407    30373.032   -11227.268   -3384.7827    74338.163   -16310.608    81.285689 
   80400    1911.9707   -113.87988    1.7299913   -112.14989    23549.521    4.3251548    4.3251548    4.3251548    23549.521    76897.933    4244.7219   -10494.092   -8245.4488    32873.071    24976.531    80.910516 
   80500    2048.0923   -114.01259    1.8531569   -112.15943    -23950.61     4.343721     4.343721     4.343721    -23950.61    23433.464   -35917.953   -59367.342    -6562.793   -13741.393    61488.948    81.956945 
   80600    1909.8001   -113.88236    1.7280273   -112.15434   -18428.691    4.3416922    4.3416922    4.3416922   -18428.691   -48257.622    21944.724   -28973.173    -7617.916    70077.779   -35112.836    81.842161 
   80700    2028.1101   -113.98218    1.8350766    -112.1471    11920.496    4.3367149    4.3367149    4.3367149    11920.496    53702.556   -34625.079     16684.01    4272.1167    -13346.31    50663.209    81.561011 
   80800    1658.6366    -113.6611    1.5007692   -112.16034   -22909.162    4.3461653    4.3461653    4.3461653   -22909.162    -8306.179   -9996.8866    -50424.42   -2510.2189    39981.433     40380.02    82.095382 
   80900    1975.5069   -113.93768    1.7874802    -112.1502   -10316.125    4.3421819    4.3421819    4.3421819   -10316.125   -30041.714    29015.436   -29922.097   -1697.7137    60678.332   -11973.096    81.869859 
   81000    2277.2111    -114.2111    2.0604685   -112.15063    -13701.53    4.3462655    4.3462655    4.3462655    -13701.53    60392.386   -67136.004   -34360.973   -189.93348   -24643.273    78328.986    82.101058 
   81100    1675.7318   -113.67751    1.5162373   -112.16127   -42958.848    4.3436052    4.3436052    4.3436052   -42958.848   -81893.138    31646.074   -78629.481    13370.034    85735.673   -4677.2035     81.95039 
   81200    1786.6705   -113.76442     1.616617    -112.1478    16312.052     4.319015     4.319015     4.319015    16312.052    24421.271    43253.007    -18738.12   -1187.8349    45369.025     7444.412    80.566431 
   81300    2237.3495   -114.18654    2.0244008   -112.16214    -7976.577    4.3311813    4.3311813    4.3311813    -7976.577    35843.502   -29245.247   -30527.986   -8327.2734   -15371.683    64412.879    81.249197 
   81400    1565.1503   -113.58462    1.4161809   -112.16844   -39772.838    4.3497806    4.3497806    4.3497806   -39772.838    -83829.23    47790.474   -83279.758    9938.2796    83696.098   -15254.456    82.300423 
   81500     2215.785   -114.15021    2.0048888   -112.14532    20723.268    4.3456711    4.3456711    4.3456711    20723.268     23926.05    14277.698    23966.056   -16468.765   -15957.253    11036.336    82.067377 
   81600    1696.4619   -113.68397    1.5349943   -112.14897   -23171.823    4.3489858    4.3489858    4.3489858   -23171.823   -39389.638    45706.611   -75832.441    788.75725    82270.544     13084.45    82.255314 
   81700    1696.8106   -113.68498    1.5353099   -112.14967    3176.1819    4.3418338    4.3418338    4.3418338    3176.1819   -13700.324    54614.321   -31385.452    1259.5716    72110.887    1254.2636    81.850171 
   81800    2552.5752   -114.44322    2.3096237   -112.13359     26189.63    4.3373528    4.3373528    4.3373528     26189.63    45849.007    5237.3611    27482.521    6878.5048   -13408.724   -18174.004     81.59701 
   81900    843.77145   -112.93606   0.76346214   -112.17259   -9747.6022    4.3414281    4.3414281    4.3414281   -9747.6022   -61981.374    82971.475   -50232.907    8302.6174    124979.12   -3118.7531    81.827227 
   82000    2934.1855   -114.79144    2.6549127   -112.13652    20960.533    4.3387538    4.3387538    4.3387538    20960.533    22902.834    2938.1068    37040.658    379.53867   -45334.998    7701.0281    81.676108 
   82100     1325.807    -113.3685     1.199618   -112.16888   -31161.233    4.3456709    4.3456709    4.3456709   -31161.233   -83832.444    30222.252   -39873.507    3895.0375    105030.91    1688.4982    82.067365 
   82200    2134.9304   -114.08511    1.9317299   -112.15338   -17782.848      4.34803      4.34803      4.34803   -17782.848   -71536.337    24383.543     -6195.75    3809.0636    33137.804   -3845.4357    82.201095 
   82300    1840.1982   -113.81133      1.66505   -112.14628    18358.783    4.3330002    4.3330002    4.3330002    18358.783   -12623.662     70469.76   -2769.7486    3257.8073    22126.754    -10642.54    81.351606 
   82400    1292.8577   -113.33308    1.1698048   -112.16327   -777.61321    4.3367192    4.3367192    4.3367192   -777.61321   -67150.306    67353.557   -2536.0906   -3799.7785    93040.366    10235.664    81.561254 
   82500    3087.0835   -114.91766     2.793258   -112.12441   -4599.6431    4.3511638    4.3511638    4.3511638   -4599.6431   -21522.515   -25786.084    33509.669    11781.994   -31797.172   -16771.526    82.378959 
   82600    533.64342   -112.64095   0.48285178   -112.15809   -1400.7434    4.3418034    4.3418034    4.3418034   -1400.7434   -50602.827    86463.227    -40062.63   -5019.2418    119424.71    3510.5287    81.848451 
   82700    2686.6038   -114.55661    2.4308956   -112.12572    14405.227    4.3405031    4.3405031    4.3405031    14405.227    4875.7822    8676.6497    29663.251   -1206.3372   -32030.351    5573.8216    81.774933 
   82800    1505.7662   -113.50908    1.3624489   -112.14663   -27506.673    4.3411676    4.3411676    4.3411676   -27506.673   -74563.693    49080.347   -57036.672   -3694.2008    111564.54    4900.2045    81.812499 
   82900    2043.2152    -113.9843    1.8487441   -112.13556    17103.286     4.332988     4.332988     4.332988    17103.286   -9158.8088    73807.499   -13338.834    4530.2997    26982.648   -7858.9012    81.350918 
   83000    1460.1822   -113.46608    1.3212035   -112.14488   -15081.909    4.3505808    4.3505808    4.3505808   -15081.909   -12972.406    16720.416   -48993.737    7430.0877    67305.171    5879.2041    82.345849 
   83100    1727.8211    -113.6986    1.5633688   -112.13523   -34583.604    4.3553831    4.3553831    4.3553831   -34583.604   -50551.921    24163.275   -77362.166    157.56838    82941.122    14141.677    82.618839 
   83200    2740.3401   -114.59967    2.4795173   -112.12015    23940.308    4.3334941    4.3334941    4.3334941    23940.308    73241.672    6711.4108    -8132.159    3593.7404   -41798.659    51.534206    81.379428 
   83300     956.9549   -113.03799    0.8658729   -112.17212   -4748.7693    4.3256006    4.3256006    4.3256006   -4748.7693   -13235.904    65555.403   -66565.807    4761.0892    137424.56   -2542.5547    80.935539 
   83400     2668.299   -114.57996     2.414333   -112.16563   -2268.5526    4.3308311    4.3308311    4.3308311   -2268.5526   -15771.473    7899.1635    1066.6522   -3724.4215   -2261.8298    8866.8193    81.229494 
   83500    1522.9667   -113.56918    1.3780122   -112.19117    -21783.27    4.3454304    4.3454304    4.3454304    -21783.27   -86010.003    32924.126   -12263.933    6018.6883    7062.8636   -19791.923    82.053741 
   83600    1368.3105    -113.4256    1.2380761   -112.18752    -43537.05    4.3492719    4.3492719    4.3492719    -43537.05   -107814.41    34802.457   -57599.194    531.68077    106453.54    602.98034    82.271548 
   83700    2683.5766   -114.57717    2.4281565   -112.14902    11302.326    4.3283864    4.3283864    4.3283864    11302.326   -19558.468   -15636.484     69101.93   -16009.334   -23959.566    20536.648    81.092009 
   83800    1203.2676   -113.26585    1.0887418   -112.17711   -16415.517    4.3255902    4.3255902    4.3255902   -16415.517   -65637.192     60468.56   -44077.917   -2270.1811    68656.107   -6740.3569    80.934954 
   83900    2154.9491   -114.12279    1.9498432   -112.17295   -17099.935    4.3352186    4.3352186    4.3352186   -17099.935   -51284.865    20828.359     -20843.3    255.67519    25440.007    1757.4381     81.47662 
   84000    2072.5561   -114.04565    1.8752924   -112.17036    4321.4319     4.340697     4.340697     4.340697    4321.4319     30031.31   -24553.127    7486.1122    4545.2242   -12542.095    1231.2425    81.785894 
   84100    1340.6825   -113.39429    1.2130777   -112.18121   -25385.501    4.3517183    4.3517183    4.3517183   -25385.501   -52454.263    29823.753   -53525.993    1290.0219    107009.15    442.82246    82.410456 
   84200    3076.4257   -114.93115    2.7836146   -112.14753    11895.824    4.3408632    4.3408632    4.3408632    11895.824    20559.287    10264.526    4863.6587   -4098.0696   -21923.338   -10016.839    81.795288 
   84300    1702.9263   -113.70979    1.5408435   -112.16895    985.04594    4.3301401    4.3301401    4.3301401    985.04594   -13387.801    36865.475   -20522.536    10147.067    61092.323    4141.0223    81.190619 
   84400    1668.8396   -113.68891    1.5100011   -112.17891    2364.1366    4.3351534    4.3351534    4.3351534    2364.1366   -39100.692    33862.387    12330.715   -8366.2391    43753.447    7442.6811    81.472942 
   84500    2417.1822   -114.34924    2.1871172   -112.16212     16849.08    4.3382057    4.3382057    4.3382057     16849.08   -18090.119     68768.05   -130.69019   -2115.0705   -54698.628    -14821.17    81.645155 
   84600    1475.1846    -113.5106     1.334778   -112.17582   -16069.627    4.3446788    4.3446788    4.3446788   -16069.627   -81704.951    83568.599   -50072.528    5872.2371    97885.035   -9210.0667    82.011171 
   84700    2466.9454   -114.38923     2.232144   -112.15708   -20084.891    4.3391432    4.3391432    4.3391432   -20084.891    -56054.36   -6079.2157    1878.9027    5105.7126    8524.3355    8821.6782    81.698096 
   84800    1672.4974   -113.68871    1.5133108    -112.1754   -863.60666    4.3213032    4.3213032    4.3213032   -863.60666   -42430.836    45507.495   -5667.4787   -8633.1931   -37953.978    12786.119    80.694552 
   84900    1792.9648   -113.81267    1.6223122   -112.19036    5957.8775    4.3258478    4.3258478    4.3258478    5957.8775   -32539.916    93487.249     -43073.7   -6726.3576    57316.259   -9303.4696    80.949416 
   85000    2050.1525    -114.0383    1.8550211   -112.18328   -438.39724    4.3359074    4.3359074    4.3359074   -438.39724    4301.9781   -36594.231    30977.061    12343.105    -5986.579    9730.4656    81.515462 
   85100    956.73257      -113.07   0.86567174   -112.20432     787.1941    4.3424862    4.3424862    4.3424862     787.1941    20281.726   -4116.5614   -13803.583    2644.2061   -29341.316    11240.179     81.88707 
   85200    3137.4914    -115.0022    2.8388681   -112.16334   -5598.1596    4.3463182    4.3463182    4.3463182   -5598.1596   -5276.7531    16644.674     -28162.4    -14743.86    5107.7767   -10097.642    82.104045 
   85300    1250.7178   -113.30562    1.1316758   -112.17395    34713.354    4.3373411    4.3373411    4.3373411    34713.354     54636.43    31638.144    17865.489    47229.748   -11491.122    9437.1736    81.596349 
   85400    2336.9285   -114.27453    2.1145021   -112.16003    15891.895    4.3529848    4.3529848    4.3529848    15891.895    20658.157    38107.107    -11089.58   -9541.6247   -14370.428    358.31424     82.48243 
   85500    1598.6689   -113.58619    1.4465092   -112.13968   -33875.837    4.3676014    4.3676014    4.3676014   -33875.837   -34612.838   -44291.581   -22723.092    8918.4326    35409.894   -23061.164    83.316112 
   85600    1520.4922   -113.51127    1.3757733   -112.13549   -5027.1595    4.3378587    4.3378587    4.3378587   -5027.1595    23862.292   -27162.644   -11781.126    33757.626    -3983.152   -7379.1837    81.625564 
   85700    2636.4704   -114.49348    2.3855338   -112.10795    40866.755    4.3217042    4.3217042    4.3217042    40866.755    17067.417    42119.677    63413.172   -15468.652   -6056.8205   -285.72681    80.717019 
   85800    857.23619   -112.94467   0.77564532   -112.16902   -19035.764    4.3319885    4.3319885    4.3319885   -19035.764   -9015.9412   -24618.745   -23472.605    9974.3256    35762.846   -19355.864    81.294637 
   85900    2491.6292   -114.41765    2.2544784   -112.16318    8242.8659    4.3382883    4.3382883    4.3382883    8242.8659    34288.071    10749.131   -20308.604     27640.01   -2569.7245     -3592.34    81.649819 
   86000    1722.2427   -113.74349    1.5583214   -112.18517   -1900.6329    4.3433855    4.3433855    4.3433855   -1900.6329   -51198.148    65449.316   -19953.067   -16644.878   -31578.066    8125.8375    81.937957 
   86100    1317.6487   -113.37764    1.1922363    -112.1854    6010.9621    4.3420291    4.3420291    4.3420291    6010.9621    6600.6751    34981.231    -23549.02   -17599.352    43009.086   -28630.504    81.861216 
   86200    2549.7925   -114.46115    2.3071058   -112.15404    25462.386    4.3342174    4.3342174    4.3342174    25462.386    56799.397    20268.894   -681.13237    9102.5625   -33649.284    3158.2336    81.420182 
   86300    1449.5109   -113.48691    1.3115479   -112.17536   -13774.073    4.3400672    4.3400672    4.3400672   -13774.073   -15845.672    13197.696   -38674.242   -18767.323   -18561.115    10804.116      81.7503 
   86400    2480.5238   -114.38911    2.2444301   -112.14468   -8808.3012    4.3429273    4.3429273    4.3429273   -8808.3012    7558.0062   -8914.0494    -25068.86    -27533.75    40365.684   -34621.755    81.912027 
   86500    1493.2955    -113.5065    1.3511651   -112.15534    48597.725    4.3339379    4.3339379    4.3339379    48597.725    45379.375    32093.792     68320.01    46268.786   -53318.354    17842.177    81.404434 
   86600    2440.1486   -114.35563    2.2078977   -112.14773    49.439323    4.3508068    4.3508068    4.3508068    49.439323   -6935.7663   -1461.7209    8545.8051   -36655.909    -1133.296   -932.34461    82.358684 
   86700    1788.2694   -113.75596    1.6180637   -112.13789   -17921.782    4.3583508    4.3583508    4.3583508   -17921.782   -32902.157   -22112.731    1249.5406    2117.1227    1104.8636   -21704.545    82.787839 
   86800    2191.0119   -114.10916    1.9824736   -112.12669    3724.1749    4.3455941    4.3455941    4.3455941    3724.1749   -28835.888    12938.371    27070.042    49055.255   -26221.094    14414.884    82.063019 
   86900    2020.4647   -113.96788     1.828159   -112.13972   -8076.4148    4.3403265    4.3403265    4.3403265   -8076.4148   -15712.389   -21859.847    13342.991   -66557.372    16662.438   -27746.929    81.764956 
   87000    1266.0297   -113.31343    1.1455303    -112.1679   -21837.633    4.3364931    4.3364931    4.3364931   -21837.633   -38852.999   -54835.415    28175.516    32342.004     15078.36   -7830.0719    81.548502 
   87100    2628.7629   -114.54144    2.3785599   -112.16288    8079.5072    4.3369312    4.3369312    4.3369312    8079.5072   -8359.0778    8606.7656    23990.834    37007.099   -9993.5061    18452.189    81.573217 
   87200    1160.8889   -113.24415    1.0503967   -112.19375   -43908.639    4.3483689    4.3483689    4.3483689   -43908.639   -24433.762   -87208.806   -20083.349   -68516.937    9867.4125   -6388.8408    82.220314 
   87300    1423.0196   -113.46992    1.2875781   -112.18234   -8273.6003    4.3366618    4.3366618    4.3366618   -8273.6003    14007.567   -54807.103    15978.735   -4010.2615    25699.455   -23630.516    81.558016 
   87400    2364.0007    -114.2964    2.1389976    -112.1574    9887.0804    4.3382478    4.3382478    4.3382478    9887.0804    19485.467   -13109.325    23285.099    2250.8824   -14992.377    24468.563    81.647532 
   87500    748.29508   -112.84945   0.67707311   -112.17238   -45612.832    4.3604592    4.3604592    4.3604592   -45612.832   -7772.1135   -105916.76   -23149.619   -41082.342    5839.8149   -11274.713    82.908045 
   87600    2925.2413   -114.75975    2.6468198   -112.11293   -11306.987    4.3536823    4.3536823    4.3536823   -11306.987    17397.055    -26407.96   -24910.056    7190.2335   -4926.6433   -10507.391    82.522088 
   87700      1049.72   -113.08353   0.94980871   -112.13372   -8921.5821    4.3371334    4.3371334    4.3371334   -8921.5821    8620.9436   -54437.022    19051.332   -11109.976    -10462.93    52957.773    81.584626 
   87800    2536.3158   -114.43264    2.2949119   -112.13773   -6767.2335    4.3375178    4.3375178    4.3375178   -6767.2335    3954.4414   -32445.686    8189.5443   -26000.838   -12697.319    54.451797    81.606321 
   87900    2378.8512    -114.2993    2.1524345   -112.14687   -1028.8121    4.3379145    4.3379145    4.3379145   -1028.8121   -22546.364    11167.317    8292.6105    18573.696    19739.602    4615.9798    81.628716 
   88000    1275.8293   -113.33465    1.1543972   -112.18025   -2050.0306    4.3438865    4.3438865    4.3438865   -2050.0306    32923.277   -43442.127    4368.7582    12142.369   -5415.2483    60750.186    81.966313 
   88100    3291.8493   -115.12243    2.9785344    -112.1439   -7223.0769    4.3467806    4.3467806    4.3467806   -7223.0769   -18106.858   -1235.8119   -2326.5605   -5762.6826   -17845.559   -7981.4391    82.130253 
   88200    1243.4448   -113.29736     1.125095   -112.17227   -615.25946    4.3306612    4.3306612    4.3306612   -615.25946   -252.53689    10688.955   -12282.196   -13376.108     43937.64    2757.7261    81.219936 
   88300    2654.0374    -114.5534    2.4014288   -112.15197     14541.93    4.3299794    4.3299794    4.3299794     14541.93    19710.224   -4770.2921    28685.858    12262.296   -3449.0137    45548.547    81.181577 
   88400    1527.6665   -113.54283    1.3822647   -112.16057   -15000.523    4.3446362    4.3446362    4.3446362   -15000.523   -17319.458    960.48173   -28642.593   -30401.394   -9141.8139   -30770.446    82.008761 
   88500    1267.8057   -113.30846    1.1471372   -112.16132   -1448.8133    4.3414351    4.3414351    4.3414351   -1448.8133   -4844.0796    10458.522   -9960.8826    -22564.46    20899.405   -2233.9477    81.827626 
   88600    2742.2533    -114.6065    2.4812484   -112.12525   -17852.931    4.3493473    4.3493473    4.3493473   -17852.931   -11832.505    8471.4927   -50197.782    13655.427   -20205.652   -6286.0135     82.27583 
   88700    619.04427   -112.71573   0.56012426   -112.15561   -27800.904    4.3450384    4.3450384    4.3450384   -27800.904   -26708.384    4273.0046   -60967.332   -20341.039     1928.314   -31404.183    82.031539 
   88800    2774.7718   -114.62024    2.5106718   -112.10957    38932.293    4.3292981    4.3292981    4.3292981    38932.293    42585.047    15338.456    58873.376   -3173.7796     14853.95    9660.6446    81.143266 
   88900    897.03367   -112.96159   0.81165491   -112.14994   -29877.195    4.3458403    4.3458403    4.3458403   -29877.195   -12126.161    11465.613   -88971.036    7996.6603   -29919.623    11514.023    82.076968 
   89000    2381.1825   -114.28281     2.154544   -112.12826   -25600.011    4.3520444    4.3520444    4.3520444   -25600.011   -12027.498   -31670.058   -33102.477   -17118.444   -11683.623   -33882.254    82.428983 
   89100     1933.646   -113.87622    1.7496035   -112.12661    1185.0383    4.3465542    4.3465542    4.3465542    1185.0383    10490.142    1836.1756    -8771.203    11366.463    17077.922    56031.664    82.117423 
   89200    1642.2216   -113.63206    1.4859166   -112.14614   -7904.0092     4.346457     4.346457     4.346457   -7904.0092   -16916.066    26683.806   -33479.767    5492.9366   -14782.975    11021.736    82.111912 
   89300     3255.126   -115.07766    2.9453064   -112.13236    7887.0571    4.3366943    4.3366943    4.3366943    7887.0571    6045.5614   -2484.6819    20100.292   -21217.602   -2619.9167     1450.075     81.55985 
   89400    1283.9454   -113.33842    1.1617408   -112.17668    18610.232    4.3224958    4.3224958    4.3224958    18610.232    45914.663   -1116.6201    11032.653      14273.6    629.57309    46480.801    80.761382 
   89500    2353.1139    -114.3048    2.1291469   -112.17565    20385.018    4.3348833    4.3348833    4.3348833    20385.018    35936.216    6523.0644    18695.773    14042.704    2281.4275   -2063.2345    81.457719 
   89600     1724.105    -113.7239    1.5600064   -112.16389    4812.5034     4.353576     4.353576     4.353576    4812.5034    18740.554   -10976.212    6673.1686   -6116.8939    4114.3788    7706.4465    82.516044 
   89700    977.06954   -113.04037   0.88407305    -112.1563    8768.1605    4.3571372    4.3571372    4.3571372    8768.1605    45715.488   -1937.6002   -17473.407    14716.733    414.49434    14559.323      82.7187 
   89800    2917.4841   -114.75045    2.6398009   -112.11065    3648.7315    4.3499637    4.3499637    4.3499637    3648.7315    7932.5765    650.22273    2363.3952    3797.6309    1789.4333   -6699.0974    82.310816 
   89900    679.87074    -112.7662   0.61516133   -112.15104    -9888.435    4.3343992    4.3343992    4.3343992    -9888.435    33538.552   -38178.856   -25025.002   -13931.703   -12168.827    34329.031    81.430432 
   90000    2252.4109   -114.19413    2.0380287   -112.15611    12064.519    4.3281258    4.3281258    4.3281258    12064.519    32558.962   -3723.1684    7357.7632   -14320.725   -6223.1426   -23231.284    81.077363 
   90100    2307.0162   -114.25869    2.0874367   -112.17125    8825.8991    4.3347056    4.3347056    4.3347056    8825.8991    18235.746      11473.4   -3231.4479    21937.036    28216.875    16730.848    81.447699 
   90200    1630.2289   -113.65673    1.4750654   -112.18167   -5670.9806    4.3527341    4.3527341    4.3527341   -5670.9806    26530.772   -15241.071   -28302.642    6178.7967   -13878.055    30832.501    82.468181 
   90300     3022.262   -114.86673    2.7346062   -112.13212   -9996.3872    4.3579159    4.3579159    4.3579159   -9996.3872   -10829.028    14833.838   -33993.972   -6232.1477    16268.698   -12623.423    82.763059 
   90400    1187.3929    -113.2301    1.0743781   -112.15572   -40969.286    4.3436238    4.3436238    4.3436238   -40969.286   -24178.395   -29403.946   -69325.517    24365.597    5336.1212    36523.239    81.951447 
   90500    2109.6587   -114.05942    1.9088635   -112.15055      5517.45    4.3202756    4.3202756    4.3202756      5517.45    35917.433    1506.0614   -20871.144    20725.282   -15416.138    34537.454    80.636998 
   90600    1952.9367   -113.93788    1.7670582   -112.17082   -10535.266    4.3242711    4.3242711    4.3242711   -10535.266    3833.7183    4077.2859   -39516.801   -24338.319    33752.036   -43322.261    80.860929 
   90700    1156.8333   -113.23616    1.0467271   -112.18943     -22788.4    4.3415227    4.3415227    4.3415227     -22788.4    5974.9769   -2182.6756   -72157.501    18153.541    4036.0461    12250.263     81.83258 
   90800    2779.5312   -114.66341    2.5149782   -112.14843   -23390.069    4.3535306    4.3535306    4.3535306   -23390.069   -7965.2391   -22967.188   -39237.779    8278.0492    404.23426   -6225.5515    82.513463 
   90900    479.35001   -112.60192   0.43372596   -112.16819   -48108.222    4.3565838    4.3565838    4.3565838   -48108.222   -12594.868   -33430.668   -98299.131   -32140.929    13162.676   -43235.013    82.687185 
   91000    2726.8297   -114.60673    2.4672928   -112.13944     3984.427    4.3297774    4.3297774    4.3297774     3984.427    11085.742    26118.411   -25250.872    11129.532     20906.89    10675.311    81.170215 
   91100    2108.7759   -114.06012    1.9080648   -112.15205    15992.632    4.3173782    4.3173782    4.3173782    15992.632    51569.131   -39779.765    36188.529   -1740.0959   -11610.942     8970.286    80.474872 
   91200    1503.2598   -113.54322    1.3601811   -112.18304   -8466.3867    4.3330961    4.3330961    4.3330961   -8466.3867   -353.02178    261.80301   -25307.941   -30146.169    27671.235   -36519.988    81.357009 
   91300    2935.7859   -114.81496    2.6563608    -112.1586    3522.4074    4.3490364    4.3490364    4.3490364    3522.4074   -20027.717   -12606.528    43201.467    14732.443   -1418.6582    17309.262    82.258185 
   91400    961.39458   -113.04479   0.86989002    -112.1749   -31795.409    4.3608268    4.3608268    4.3608268   -31795.409   -7777.1331   -71882.066   -15727.027    15778.288   -9922.6514    18834.352    82.929017 
   91500    3104.0384   -114.92982    2.8085992   -112.12122   -3152.0633    4.3465945    4.3465945    4.3465945   -3152.0633   -19044.679    21698.455   -12109.966   -10672.789    16785.719   -25771.311    82.119705 
   91600    961.39714   -113.02647   0.86989233   -112.15658    -17300.79    4.3381284    4.3381284    4.3381284    -17300.79   -27693.064   -21849.014   -2360.2907    15416.518    -29104.25    42180.615    81.640789 
   91700    1413.9381   -113.45116    1.2793609    -112.1718    3126.8373    4.3273807    4.3273807    4.3273807    3126.8373   -2056.5055    16447.567   -5010.5496    15357.096   -10959.212    14761.772    81.035499 
   91800    2084.7762    -114.0622    1.8863493   -112.17585     24275.47    4.3400424    4.3400424    4.3400424     24275.47   -26409.705       131105   -31868.882   -5338.7885    22795.789   -27760.522    81.748898 
   91900    966.89168   -113.04854   0.87486391   -112.17368   -1677.5708    4.3672829    4.3672829    4.3672829   -1677.5708    -15287.15    26492.719   -16238.282    11509.563   -4461.9903    32198.004    83.297886 
   92000    2524.3812   -114.38489    2.2841131   -112.10078   -6080.9169    4.3762564    4.3762564    4.3762564   -6080.9169   -20472.529    39482.191   -37252.413    9054.7956    10612.737    -23419.12    83.812398 
   92100    1084.4821   -113.08266   0.98126219    -112.1014   -18814.707    4.3669388    4.3669388    4.3669388   -18814.707    -11022.62    34830.835   -80252.335   -3239.4525   -5876.8487   -30737.911    83.278198 
   92200    3134.2158   -114.89885    2.8359043   -112.06295    8560.3727    4.3448621    4.3448621    4.3448621    8560.3727    11567.878   -12520.259    26633.499   -26149.584   -4482.0188     13603.55    82.021556 
   92300    1174.2648   -113.17692    1.0624994   -112.11442    -9131.311    4.3306479    4.3306479    4.3306479    -9131.311   -22315.852    65727.049    -70805.13    1685.3832    1293.2067   -13739.745    81.219184 
   92400    1838.5205   -113.81429     1.663532   -112.15076   -17702.124    4.3313202    4.3313202    4.3313202   -17702.124    2780.2436    7211.1903   -63097.805   -1100.7581   -11124.518   -14724.652    81.257015 
   92500    2490.5265   -114.40953    2.2534808   -112.15605   -692.74428    4.3482943    4.3482943    4.3482943   -692.74428    18963.084   -8148.4541   -12892.863   -15284.172   -5499.7425    26322.388    82.216083 
   92600    1095.4295   -113.16453    0.9911676   -112.17336    -42613.16    4.3583264    4.3583264    4.3583264    -42613.16   -45920.425    20004.605   -101923.66   -3433.6224    3394.7697   -2108.9713    82.786448 
   92700     2488.087   -114.39669    2.2512734   -112.14542     6794.196    4.3387783    4.3387783    4.3387783     6794.196    16857.964     29697.34   -26172.716    4515.5623    12686.637    1150.2886    81.677491 
   92800    1417.6689   -113.44493    1.2827366    -112.1622    12032.977    4.3281788    4.3281788    4.3281788    12032.977    54394.151   -11005.806   -7289.4158    5711.4531   -8663.9498    73667.149    81.080343 
   92900    1546.0891   -113.58226    1.3989339   -112.18332   -10059.983    4.3379924    4.3379924    4.3379924   -10059.983   -23519.496    52068.485   -58728.936   -15405.223    696.46481   -10152.054    81.633115 
   93000    2079.4196   -114.04815    1.8815026   -112.16664   -9595.4896    4.3500674    4.3500674    4.3500674   -9595.4896    3668.0522    1748.3694    -34202.89    14906.181    11137.846     39536.04    82.316699 
   93100    1237.7071   -113.28729    1.1199034   -112.16738   -13017.316    4.3594804    4.3594804    4.3594804   -13017.316    14437.092    1138.0125   -54627.054    11895.158   -1538.2917     89117.64    82.852225 
   93200     2934.585   -114.78954    2.6552741   -112.13426    4531.5629    4.3464096    4.3464096    4.3464096    4531.5629   -43856.212    65681.737   -8230.8361   -2118.6966   -2437.8072   -33005.807    82.109227 
   93300    1177.6375   -113.22901    1.0655512   -112.16345    17618.773    4.3273665    4.3273665    4.3273665    17618.773     50321.23   -22245.898    24780.987   -266.36177    2451.4472    115635.19    81.034699 
   93400    2233.4781   -114.19465    2.0208979   -112.17376    10305.461    4.3285855    4.3285855    4.3285855    10305.461     24354.89   -12596.069    19157.561    2694.6396    2041.5069    24454.408    81.103204 
   93500    1691.3469   -113.71653    1.5303662   -112.18617    3762.1749    4.3432759    4.3432759    4.3432759    3762.1749    546.71704   -785.39922    11525.207     1889.566    259.94486    31022.104    81.931753 
   93600    956.75554    -113.0597   0.86569252   -112.19401   -38232.871    4.3534817    4.3534817    4.3534817   -38232.871    21536.819   -57642.785   -78592.647    -9591.522    13572.367    107024.88    82.510682 
   93700    2868.0056   -114.73961    2.5950318   -112.14458    2921.6898    4.3457379    4.3457379    4.3457379    2921.6898   -33470.902    24001.154    18234.818    12052.689   -10528.304    -34435.83    82.071161 
   93800    1067.1255   -113.13182   0.96555761   -112.16626   -10568.191    4.3480121    4.3480121    4.3480121   -10568.191    79222.968   -29013.117   -81914.425   -5135.9407    -3502.829    105288.28    82.200077 
   93900    2405.8196   -114.31633    2.1768362   -112.13949   -3031.0895    4.3552216    4.3552216    4.3552216   -3031.0895    20792.879   -14365.839   -15520.309   -5200.7128    2683.6981    -14759.32    82.609646 
   94000    1500.5172   -113.49586    1.3576995   -112.13816    15164.818    4.3489621    4.3489621    4.3489621    15164.818    30517.072   -867.14667    15844.528    6448.8545    293.16498    47580.907     82.25397 
   94100    2058.3978   -114.01632    1.8624816   -112.15384   -4196.1927    4.3419955    4.3419955    4.3419955   -4196.1927    39909.758    -36538.61   -15959.727    8596.0567    616.31382    79426.084    81.859314 
   94200    2886.6494   -114.76013     2.611901   -112.14823    36599.979    4.3306366    4.3306366    4.3306366    36599.979    10183.942    28628.463    70987.532    11075.508    7242.3549   -30016.223    81.218549 
   94300     1091.749   -113.18449    0.9878374   -112.19665    6930.8066    4.3365898    4.3365898    4.3365898    6930.8066    64432.362   -41856.494   -1783.4477   -3065.1518    16761.795    108888.72    81.553958 
   94400    2799.3835   -114.71106    2.5329411   -112.17811   -3583.5984    4.3614151    4.3614151    4.3614151   -3583.5984   -20238.867   -22124.229    31612.301    10530.492   -14289.684   -5758.5815    82.962582 
   94500    1717.2762   -113.72917    1.5538276   -112.17534   -16392.637    4.3555789    4.3555789    4.3555789   -16392.637    38524.642   -49679.669   -38022.886   -4099.5888     3960.894     65552.62    82.629984 
   94600    1490.5193   -113.50533    1.3486531   -112.15668    9276.4318    4.3392171    4.3392171    4.3392171    9276.4318    70715.147   -2867.4384   -40018.414   -11149.334    25416.846     55828.85    81.702274 
   94700    2804.4608   -114.66911    2.5375351   -112.13158   -8715.7781    4.3441174    4.3441174    4.3441174   -8715.7781    23022.568   -37682.169   -11487.733    1358.9643    4451.1226    770.18496    81.979385 
   94800    1043.3484   -113.11318    0.9440436   -112.16913    -36411.08    4.3462077    4.3462077    4.3462077    -36411.08     101305.8   -99068.632   -111470.41   -952.23196    1182.5371    129034.37    82.097781 
   94900    2532.4221   -114.43494    2.2913888   -112.14355    36305.046    4.3423018    4.3423018    4.3423018    36305.046    54565.499    10042.194    44307.446   -286.32393    9440.5001   -36578.436    81.876642 
   95000    1791.3048   -113.78769    1.6208102   -112.16688   -4479.1776    4.3483979    4.3483979    4.3483979   -4479.1776    29255.768   -43198.608    505.30759   -1796.6304   -9729.5054    84054.909    82.221962 
   95100    1884.6183   -113.87338    1.7052422   -112.16814    27147.849    4.3434847    4.3434847    4.3434847    27147.849    85017.702   -35566.243    31992.089   -10106.814   -1234.6652    42694.321    81.943573 
   95200    2057.9592   -114.03357    1.8620847   -112.17149    15503.754    4.3436288    4.3436288    4.3436288    15503.754    21404.206     10192.59    14914.466    20674.254     2968.882    8818.9598    81.951725 
   95300    1258.6252    -113.3234    1.1388305   -112.18457   -30589.462    4.3590682    4.3590682    4.3590682   -30589.462    37171.756   -77673.582    -51266.56    2485.3026    10662.033    98661.117    82.828727 
   95400    3021.5234    -114.8798    2.7339379   -112.14586    9845.7782     4.346613     4.346613     4.346613    9845.7782   -4333.7339    3812.4264    30058.642    1321.8021   -10426.804   -24495.613    82.120754 
   95500    1371.1624    -113.4158    1.2406565   -112.17514    5813.0782    4.3395843    4.3395843    4.3395843    5813.0782    42262.734   -17192.909   -7630.5909    578.79957    11485.026    73050.767    81.723014 
   95600    1799.1216   -113.80193     1.627883   -112.17405   -28817.927     4.351869     4.351869     4.351869   -28817.927    9633.1548   -50937.462   -45149.473   -366.09908    17606.443    54819.805    82.419019 
   95700    2726.8442   -114.61944    2.4673059   -112.15214    18721.657    4.3394993    4.3394993    4.3394993    18721.657    5546.1363    68504.827   -17885.991   -129.61687   -24515.846   -24678.524    81.718213 
   95800    1101.3109   -113.18772   0.99648926   -112.19123    25046.876    4.3373428    4.3373428    4.3373428    25046.876    124894.23   -15640.502   -34113.102    5572.8985    489.69081    100261.71    81.596447 
   95900    3118.0984   -114.96577    2.8213209   -112.14445   -7181.9705     4.360971     4.360971     4.360971   -7181.9705    3195.7193    105.54323   -24847.174    5387.3675   -815.01515   -17636.514    82.937243 
   96000    1351.8994   -113.37197     1.223227   -112.14874   -2502.6161    4.3581744    4.3581744    4.3581744   -2502.6161    35996.099    47746.836   -91250.783   -7462.5454   -21338.052    78137.734    82.777785 
   96100    2078.9601   -114.00546    1.8810868   -112.12438    15223.879    4.3487189    4.3487189    4.3487189    15223.879    59781.014     8534.667   -22644.045    2717.0793   -9760.0576    16973.869    82.240172 
   96200    2684.4636   -114.54897    2.4289591   -112.12001   -9005.7391    4.3435519    4.3435519    4.3435519   -9005.7391    31275.186   -20713.903     -37578.5   -9055.6012    9934.1156    34319.065    81.947373 
   96300    1370.6962   -113.40559    1.2402347   -112.16536   -6162.7824    4.3368112    4.3368112    4.3368112   -6162.7824    33334.415   -13436.138   -38386.624    12933.867   -26902.196    88690.461    81.566449 
   96400    2394.8017   -114.32477    2.1668669    -112.1579    7197.6258    4.3434666    4.3434666    4.3434666    7197.6258   -31129.207    70470.442   -17748.358   -8163.5838   -6474.4559   -40048.958    81.942545 
   96500    1882.2295   -113.88205    1.7030808   -112.17897   -20812.681    4.3410272    4.3410272    4.3410272   -20812.681    41167.134   -71279.109   -32326.067     1862.347    16068.118    80989.156    81.804559 
   96600     1796.856   -113.80853     1.625833    -112.1827    14532.745    4.3277865    4.3277865    4.3277865    14532.745    13679.355    18758.628    11160.253    6186.4599    -23659.94    32050.299      81.0583 
   96700    2027.1913   -114.01518    1.8342453   -112.18093   -31340.788    4.3508768    4.3508768    4.3508768   -31340.788    -64783.51   -8972.3316   -20266.523    9839.7408   -50396.263   -1531.3565     82.36266 
   96800    1465.5649   -113.50544    1.3260739   -112.17937   -28793.657    4.3495174    4.3495174    4.3495174   -28793.657    32590.337   -75941.587   -43029.721     3302.869    14579.745     100307.8     82.28548 
   96900    2159.2547   -114.09931     1.953739   -112.14557    37569.576    4.3305955    4.3305955    4.3305955    37569.576    33438.351    35619.379        43651   -11700.062   -15247.671   -21114.069    81.216238 
   97000    1508.0976   -113.53112    1.3645584   -112.16657   -36199.253    4.3490423    4.3490423    4.3490423   -36199.253   -42800.326   -28138.723   -37658.711    17481.458   -43931.836    44461.271    82.258521 
   97100    1725.5679   -113.71751    1.5613301   -112.15618    -27358.41    4.3547866    4.3547866    4.3547866    -27358.41    7144.2172   -62960.298   -26259.149   -7048.0232    23286.769    73957.379    82.584895 
   97200    2586.6408   -114.47371     2.340447   -112.13327   -5409.7557     4.345948     4.345948     4.345948   -5409.7557   -28049.895    18134.875   -6314.2466    5662.7822    -47399.73   -34585.781    82.083065 
   97300    1131.6284   -113.19756    1.0239212   -112.17364   -32859.208    4.3456627    4.3456627    4.3456627   -32859.208    27567.536   -65650.174   -60494.987    3402.4828   -10087.726    90839.982    82.066903 
   97400    2064.6376   -114.03975    1.8681275   -112.17162    6327.0299    4.3324057    4.3324057    4.3324057    6327.0299    35084.823   -18873.086    2769.3531   -3966.9085    23937.213    36119.689    81.318124 
   97500    2168.7424   -114.13767    1.9623237   -112.17535    16728.947    4.3410194    4.3410194    4.3410194    16728.947   -7460.3078    41613.627    16033.521    13857.832   -28047.825    -24408.52    81.804121 
   97600    1021.5651    -113.1118   0.92433357   -112.18747   -26813.677    4.3637575    4.3637575    4.3637575   -26813.677     37998.74   -44112.569   -74327.203    1543.7642   -4438.8805    97168.795    83.096328 
   97700    2913.2722   -114.76439    2.6359899    -112.1284   -3000.4497    4.3609344    4.3609344    4.3609344   -3000.4497   -17811.254    17844.433    -9034.528   -11273.005     6584.218    -20525.74    82.935157 
   97800    1174.0629   -113.21098    1.0623168   -112.14867   -3141.1305    4.3486867    4.3486867    4.3486867   -3141.1305    47010.862    2555.5157   -58989.769   -4849.0974   -36297.813    61332.104    82.238346 
   97900    1777.4134     -113.762     1.608241   -112.15376   -12506.857    4.3407432    4.3407432    4.3407432   -12506.857     30862.27   -29780.768   -38602.074   -2020.1243   -24904.486    43153.375    81.788504 
   98000    2651.1455   -114.54878    2.3988121   -112.14997    22893.826    4.3354467    4.3354467    4.3354467    22893.826    57648.104    5712.9811    5320.3918   -3058.5284    23648.988   -6816.5824     81.48948 
   98100    926.78615   -113.03414   0.83857559   -112.19556   -21324.929    4.3522513    4.3522513    4.3522513   -21324.929    52315.066   -61827.864   -54461.989    63.469505   -5772.4605    98541.119    82.440743 
   98200    2680.5544   -114.57921     2.425422   -112.15378   -20063.633     4.356118     4.356118     4.356118   -20063.633   -51366.314    29160.996   -37985.583   -5740.6138   -32630.943    -26089.52    82.660664 
   98300    2039.5781   -113.99957    1.8454532   -112.15412   -17801.056    4.3477702    4.3477702    4.3477702   -17801.056      17855.9   -12159.208    -59099.86     5136.195      12849.1    51485.776    82.186357 
   98400    1519.3212   -113.53403    1.3747137   -112.15932   -16809.055    4.3497337    4.3497337    4.3497337   -16809.055    14423.889   -10988.595   -53862.457   -13906.125   -4296.4636    46022.821     82.29776 
   98500    2558.8942    -114.4413    2.3153412   -112.12595   -12313.438    4.3517698    4.3517698    4.3517698   -12313.438   -41019.642    46594.829   -42515.501   -3522.4381   -37752.484   -10478.489    82.413384 
   98600    1302.4114    -113.3254    1.1784492   -112.14695    -31922.94    4.3571144    4.3571144    4.3571144    -31922.94    14458.383   -32402.514   -77824.689    2141.2921    17215.975    82470.514    82.717405 
   98700    2093.0342    -114.0384    1.8938213   -112.14458   -13816.612    4.3651651    4.3651651    4.3651651   -13816.612   -27590.565    24014.878   -37874.149    -5194.463   -3004.6188    -37104.26    83.176766 
   98800     1830.912    -113.7977    1.6566476   -112.14105   -12516.905    4.3571974    4.3571974    4.3571974   -12516.905    26233.041   -26661.085   -37122.672    105.60228   -10499.422    35838.658    82.722132 
   98900    1790.7917   -113.77438    1.6203459   -112.15404    11138.532    4.3410012    4.3410012    4.3410012    11138.532    24414.451   -28620.652    37621.797    10863.478    4200.6637    76276.686    81.803091 
   99000    2597.5027   -114.50968     2.350275   -112.15941      7150.33    4.3497082    4.3497082    4.3497082      7150.33   -44285.259    44369.709     21366.54   -4165.6813   -2455.0576   -41178.089    82.296311 
   99100    1225.7683   -113.29632    1.1091009   -112.18721    10499.544    4.3543485    4.3543485    4.3543485    10499.544    17625.934    8819.4556     5053.242   -2462.0685   -15933.325    63569.003    82.559974 
   99200    2253.1232   -114.21111    2.0386732   -112.17244    29340.146     4.367401     4.367401     4.367401    29340.146   -32232.789    41159.426    79093.802    7650.0046    2272.6246    32150.347    83.304642 
   99300    2038.9377   -113.99153    1.8448737   -112.14665   -38527.432    4.3836266    4.3836266    4.3836266   -38527.432   -29820.297   -57882.935   -27879.066    10617.929     2194.279    14099.415    84.236568 
   99400    1634.7937   -113.61382    1.4791957   -112.13463   -1298.9245     4.348068     4.348068     4.348068   -1298.9245    72078.428   -90294.957    14319.756   -11201.473   -12801.648    56805.984    82.203249 
   99500    2472.2048   -114.34762    2.2369029   -112.11072    27538.425    4.3225617    4.3225617    4.3225617    27538.425   -838.94029    44664.945    38789.271   -11977.322    38015.783   -19949.198    80.765074 
   99600    1702.4914   -113.70252      1.54045   -112.16207     -19075.5    4.3461915    4.3461915    4.3461915     -19075.5    2764.0993   -35470.088    -24520.51    2235.0706     15067.76    44930.534    82.096868 
   99700    1936.7657   -113.90392    1.7524263   -112.15149   -37160.732    4.3698482    4.3698482    4.3698482   -37160.732     9401.133   -55463.836   -65419.491   -5040.5141   -7359.1266     33092.47    83.444754 
   99800    1542.8966   -113.53536    1.3960452   -112.13931    3987.4214    4.3628706    4.3628706    4.3628706    3987.4214   -37273.891    51720.726   -2484.5706   -14002.045    2781.5327   -16727.729    83.045671 
   99900    1782.4753   -113.74931    1.6128211   -112.13649   -8324.7445    4.3489428    4.3489428    4.3489428   -8324.7445    34265.574   -13803.963   -45435.845    2463.6797    15045.782     46438.08    82.252873 
  100000    2017.0937   -113.96238    1.8251088   -112.13728    12773.426    4.3342013    4.3342013    4.3342013    12773.426     36347.65    24477.187   -22504.558   -3458.7488   -24256.381    5165.0347    81.419275 
Loop time of 22.3117 on 1 procs for 100000 steps with 8 atoms

Pair  time (%) = 6.80379 (30.4942)
Kspce time (%) = 5.3928 (24.1702)
Neigh time (%) = 0.252524 (1.1318)
Comm  time (%) = 1.05803 (4.74204)
Outpt time (%) = 0.0375395 (0.16825)
Other time (%) = 8.76705 (39.2935)

Nlocal:    8 ave 8 max 8 min
Histogram: 1 0 0 0 0 0 0 0 0 0
Nghost:    2140 ave 2140 max 2140 min
Histogram: 1 0 0 0 0 0 0 0 0 0
Neighs:    2182 ave 2182 max 2182 min
Histogram: 1 0 0 0 0 0 0 0 0 0

Total # of neighbors = 2182
Ave neighs/atom = 272.75
Neighbor list builds = 3086
Dangerous builds = 0
unfix 20
unfix 21
print "seeds:3188954"
seeds:3188954
