LAMMPS (10 Feb 2015)
# ---- initialize simulations
clear
units metal
dimension 3
boundary p p p
atom_style charge
atom_modify map array
# ---- create atoms
read_data /Users/eugeneragasa/pyflamestk_git/pypospack/tests/tests_integration/workflow/WorkflowLammpsThermalExpansion/param_9544/MgO_NaCl_unit.npt.T300/lammps.structure
  triclinic box = (0 0 0) to (4.2565 4.2565 4.2565) with tilt (0 0 0)
  1 by 1 by 1 MPI processor grid
  reading atoms ...
  8 atoms
# ---- define interatomic potential
include potential.mod
mass 1 24.305
mass 2 15.999

group Mg type 1
4 atoms in group Mg
group O type 2
4 atoms in group O

set group Mg charge 1.64252902328
  4 settings made for charge
set group O charge -1.64252902328
  4 settings made for charge

variable R_cut equal 10.0

pair_style buck/coul/long ${R_cut}
pair_style buck/coul/long 10
pair_coeff 1 1 0.0 0.5 0.0 ${R_cut}
pair_coeff 1 1 0.0 0.5 0.0 10
pair_coeff 1 2 1425.65456865 0.277130619093 0.0 ${R_cut}
pair_coeff 1 2 1425.65456865 0.277130619093 0.0 10
pair_coeff 2 2 8710.58674493 0.211543782712 -4.62088168449 ${R_cut}
pair_coeff 2 2 8710.58674493 0.211543782712 -4.62088168449 10

kspace_style pppm 1.0e-5

neighbor 1.0 bin
neigh_modify every 1 delay 0 check yes
# ---- define settings
compute eng all pe/atom
compute eatoms all reduce sum c_eng
# ---- run minimization
reset_timestep 0
fix 1 all box/relax iso 0.0 vmax 0.001
thermo 10
thermo_style custom step pe lx ly lz xy xz yz press pxx pyy pzz pxy pxz pyz c_eatoms
min_style cg
minimize 1e-25 1e-25 5000 10000
PPPM initialization ...
  G vector (1/distance) = 0.352708
  grid = 8 8 8
  stencil order = 5
  estimated absolute RMS force accuracy = 3.89813e-05
  estimated relative force accuracy = 2.7071e-06
  using double precision FFTs
  3d grid and FFT values/proc = 3375 512
Neighbor list info ...
  1 neighbor list requests
  update every 1 steps, delay 0 steps, check yes
  master list distance cutoff = 11
Memory usage per processor = 4.06549 Mbytes
Step PotEng Lx Ly Lz Xy Xz Yz Press Pxx Pyy Pzz Pxy Pxz Pyz eatoms 
       0   -111.38871       4.2565       4.2565       4.2565            0            0            0   -14022.103   -14022.103   -14022.103   -14022.103 -1.0617953e-11 -7.0203049e-11 5.2505523e-12   -111.38871 
       6    -111.3915    4.2448057    4.2448057    4.2448057            0            0            0    11.870105    11.870105    11.870105    11.870105 -3.2023954e-10 4.899455e-11 2.2757866e-10    -111.3915 
Loop time of 0.0150518 on 1 procs for 6 steps with 8 atoms

Minimization stats:
  Stopping criterion = linesearch alpha is zero
  Energy initial, next-to-last, final = 
        -111.388714234     -111.391500014     -111.391500014
  Force two-norm initial, final = 2.0248 0.00171153
  Force max component initial, final = 2.0248 0.00170464
  Final line search alpha, max atom move = 0.00229153 3.90625e-06
  Iterations, force evaluations = 6 44

Pair  time (%) = 0.00413775 (27.49)
Kspce time (%) = 0.00235176 (15.6244)
Neigh time (%) = 0 (0)
Comm  time (%) = 0.000460148 (3.05709)
Outpt time (%) = 0 (0)
Other time (%) = 0.00810218 (53.8285)

Nlocal:    8 ave 8 max 8 min
Histogram: 1 0 0 0 0 0 0 0 0 0
Nghost:    2189 ave 2189 max 2189 min
Histogram: 1 0 0 0 0 0 0 0 0 0
Neighs:    2344 ave 2344 max 2344 min
Histogram: 1 0 0 0 0 0 0 0 0 0

Total # of neighbors = 2344
Ave neighs/atom = 293
Neighbor list builds = 0
Dangerous builds = 0
unfix 1
# ---- define output variables ----
variable natoms equal "count(all)"
variable tot_energy equal "c_eatoms"
variable length_x equal "lx"
variable length_y equal "ly"
variable length_z equal "lz"
variable tilt_xy equal "xy"
variable tilt_xz equal "xz"
variable tilt_yz equal "yz"
variable tot_press equal "press"
variable press_xx equal "pxx"
variable press_yy equal "pyy"
variable press_zz equal "pzz"
variable press_xy equal "pxy"
variable press_xz equal "pxz"
variable press_yz equal "pyz"

# ---- output ----
print "pypospack:output_section:begin"
pypospack:output_section:begin
print "tot_energy = ${tot_energy}"
tot_energy = -111.391500014071
print "num_atoms = ${natoms}"
num_atoms = 8
print "xx = ${length_x}"
xx = 4.24480566540602
print "yy = ${length_y}"
yy = 4.24480566540602
print "zz = ${length_z}"
zz = 4.24480566540602
print "xy = ${tilt_xy}"
xy = 0
print "xz = ${tilt_xz}"
xz = 0
print "yz = ${tilt_yz}"
yz = 0
print "tot_press = ${tot_press}"
tot_press = 11.8701047091937
print "pxx = ${press_xx}"
pxx = 11.8701047092997
print "pyy = ${press_yy}"
pyy = 11.8701047087814
print "pzz = ${press_zz}"
pzz = 11.8701047094999
print "pxy = ${press_xy}"
pxy = -3.20239539923879e-10
print "pxz = ${press_xz}"
pxz = 4.8994550277695e-11
print "pyz = ${press_yz}"
pyz = 2.27578662531736e-10
print "pypospack:output_section:done"
pypospack:output_section:done
print "pypospack:lammps_sim:done"
pypospack:lammps_sim:done
#------------------------------------------------------------------------------
# RUN THERMOSTAT
# running using an NPT Nose-Hoover style thermostat
#------------------------------------------------------------------------------
variable tempdamp equal 0.1
variable pressdamp equal 1.0
# set initial velocities
velocity all create 300 4595794 mom yes dist gaussian loop all
# fix for Nose-Hoover style thermostat
fix 20 all npt temp 300 300 0.1 aniso 0.0 0.0 1.0 drag 1.0 couple xyz
variable boxx equal lx
variable boxy equal ly
variable boxz equal lz
variable boxp equal press
variable boxt equal temp
# calculate averages every 10000 steps
reset_timestep 0
fix 21 all ave/time 10 10 100 v_boxx v_boxy v_boxz v_boxp v_boxt file lattice.out
thermo_style custom step temp pe ke etotal press lx ly lz press pxx pyy pzz pxy pxz pyz vol
thermo_modify flush yes
thermo 100
run 100000
PPPM initialization ...
  G vector (1/distance) = 0.352825
  grid = 8 8 8
  stencil order = 5
  estimated absolute RMS force accuracy = 3.87738e-05
  estimated relative force accuracy = 2.69269e-06
  using double precision FFTs
  3d grid and FFT values/proc = 3375 512
Memory usage per processor = 3.06549 Mbytes
Step Temp PotEng KinEng TotEng Press Lx Ly Lz Press Pxx Pyy Pzz Pxy Pxz Pyz Volume 
       0          300    -111.3915    0.2714463   -111.12005    3802.7789    4.2448057    4.2448057    4.2448057    3802.7789    5346.0947    2836.0785    3226.1635    1881.8539   -668.52964   -897.63308    76.484501 
     100    165.51269   -111.23213   0.14975936   -111.08237    -3445.521    4.2551385    4.2551385    4.2551385    -3445.521    541.69992   -3787.0666   -7091.1963   -1122.2655    1298.1363    491.96183    77.044405 
     200    168.55618   -111.16137   0.15251318   -111.00886    337.37305    4.2496933    4.2496933    4.2496933    337.37305    1280.7142      1680.93   -1949.5251   -26.321603      3176.12    1905.9974    76.749008 
     300    262.70918   -111.18115   0.23770478   -110.94345     3653.567    4.2535251    4.2535251    4.2535251     3653.567    -4678.558     8915.088    6724.1711   -113.91213    327.19863    1749.2568    76.956797 
     400    389.81966    -111.2481   0.35271702   -110.89538    2829.0449    4.2551503    4.2551503    4.2551503    2829.0449    869.34723    391.79855    7225.9891   -2802.9523   -472.90204    1716.2802    77.045046 
     500    179.54641   -111.02858   0.16245736   -110.86612   -596.25269    4.2558407    4.2558407    4.2558407   -596.25269   -11159.006    12631.263   -3261.0146    943.18336    7745.5241      3879.62    77.082552 
     600    195.45246   -111.02706   0.17684949   -110.85021   -299.07048    4.2535193    4.2535193    4.2535193   -299.07048   -10576.193    13101.683   -3422.7013   -3749.7285    6056.3929    3381.3212    76.956484 
     700    470.61958   -111.26817   0.42582649   -110.84234   -2949.3492    4.2563827    4.2563827    4.2563827   -2949.3492   -806.13615   -1427.6956   -6614.2159    1628.8528   -2521.4145   -1106.2506    77.112008 
     800    350.21107   -111.16092   0.31687834   -110.84404   -7281.2798    4.2589374    4.2589374    4.2589374   -7281.2798   -10012.541    2620.8023   -14452.101    438.28635    4978.6079   -1965.8171    77.250938 
     900    218.28511   -111.04438   0.19750896   -110.84687   -5421.4711    4.2519265    4.2519265    4.2519265   -5421.4711   -9543.4588    5604.9744   -12325.929   -2601.2092    5323.9653    1266.9266    76.870063 
    1000    267.27609   -111.08982   0.24183702   -110.84798   -3135.4806    4.2589777    4.2589777    4.2589777   -3135.4806   -647.57253   -5821.8808   -2936.9886     1297.135   -781.98128    2061.8363    77.253131 
    1100    428.88301   -111.23307   0.38806236   -110.84501    1612.4198    4.2533787    4.2533787    4.2533787    1612.4198    3388.0031   -471.85779    1921.1141   -1218.1283   -2640.9777   -1067.2172    76.948853 
    1200    198.67373   -111.02811   0.17976417   -110.84834    397.99064    4.2558066    4.2558066    4.2558066    397.99064   -7450.7007    8871.9001   -227.22752     1771.296    5088.8476     2274.985    77.080701 
    1300    144.84296   -110.98087   0.13105695   -110.84982    2844.8292    4.2567081    4.2567081    4.2567081    2844.8292    8389.4036    5861.6172   -5716.5333   -3101.5484     4539.358    5746.0792    77.129693 
    1400    284.56215   -111.10424   0.25747782   -110.84676    8546.5667    4.2543756    4.2543756    4.2543756    8546.5667    5535.2906    15234.655    4869.7544   -2156.9631   -1735.6155    3453.4053     77.00297 
    1500    334.24797   -111.14816   0.30243459   -110.84572     3280.016    4.2536098    4.2536098    4.2536098     3280.016    10410.882    6556.6123   -7127.4464    1575.5269    3542.3014    -903.3786    76.961397 
    1600     162.4924   -110.99559   0.14702654   -110.84856   -3850.3185    4.2589136    4.2589136    4.2589136   -3850.3185    1887.9827     7109.735   -20548.673   -2655.9175    5984.7547    270.82709    77.249646 
    1700    254.05241   -111.07757   0.22987196    -110.8477    -2905.416     4.253869     4.253869     4.253869    -2905.416   -8612.8066    6489.7295   -6593.1709    1346.1788     769.5926    1231.9175    76.975466 
    1800    386.26711   -111.19471    0.3495026   -110.84521    504.73612    4.2536846    4.2536846    4.2536846    504.73612    5684.4871    503.50247   -4673.7812   -216.30899   -5306.0045   -3262.8903    76.965456 
    1900    328.91235   -111.14424   0.29760681   -110.84663   -10200.997    4.2596495    4.2596495    4.2596495   -10200.997   -12370.267   -4164.7937   -14067.929    778.62445    3929.6951   -3476.0396    77.289697 
    2000    182.34616   -111.01332   0.16499064   -110.84833   -4044.4031    4.2526813    4.2526813    4.2526813   -4044.4031   -12458.507    9313.8911   -8988.5936    801.05797    6860.7497    2021.0812    76.911011 
    2100    286.16717   -111.10683   0.25893007    -110.8479    792.87865    4.2562423    4.2562423    4.2562423    792.87865   -1372.8228    6666.5534   -2915.0947   -2621.6991    -1911.587    2792.6343    77.104375 
    2200    315.89347   -111.13215   0.28582705   -110.84633    5108.5462    4.2564609    4.2564609    4.2564609    5108.5462    8421.7765    8198.7791    -1294.917    1457.0016    994.11856   -999.72138    77.116258 
    2300     191.6174   -111.02114   0.17337945   -110.84776    2044.2234    4.2531776    4.2531776    4.2531776    2044.2234   -1109.8725    15070.163   -7827.6203   -3340.6202    7463.2648   -358.17856     76.93794 
    2400    220.88333   -111.04803   0.19985987   -110.84817   -1251.4267    4.2577684    4.2577684    4.2577684   -1251.4267    5271.7796     6412.946   -15439.006   -2746.5452    2121.2877    3478.1888    77.187343 
    2500    360.02541   -111.17133   0.32575855   -110.84557    2727.9324    4.2563121    4.2563121    4.2563121    2727.9324    4382.5362    5870.1687   -2068.9078     202.6095    -1328.708    2101.1939    77.108169 
    2600    393.34577   -111.20196   0.35590752   -110.84606   -1766.0799    4.2523618    4.2523618    4.2523618   -1766.0799    4107.8608   -2734.1118   -6671.9888    691.45782    786.02133   -6625.2254    76.893675 
    2700    261.66118   -111.08437   0.23675653   -110.84762   -6165.1847    4.2582799    4.2582799    4.2582799   -6165.1847    383.09715   -5180.4097   -13698.242    1983.4096    4227.4664   -1207.2804    77.215169 
    2800    384.18843   -111.19446   0.34762176   -110.84684   -4839.7107    4.2559992    4.2559992    4.2559992   -4839.7107   -6966.4401    3114.7283    -10667.42    -2280.431   -3353.4746    469.11966    77.091166 
    2900    397.98958   -111.20617   0.36010934   -110.84606    5090.9175    4.2526167    4.2526167    4.2526167    5090.9175    10405.649    2952.2777    1914.8256    3245.1184   -2261.7408   -1967.7225    76.907503 
    3000     284.6529    -111.1048   0.25755992   -110.84724   -425.70555    4.2584356    4.2584356    4.2584356   -425.70555   -188.66686    7084.1401   -8172.5899    194.79349    7352.0073    -951.8949    77.223636 
    3100    217.93827   -111.04497   0.19719512   -110.84778    4809.1479    4.2538012    4.2538012    4.2538012    4809.1479   -583.90219    14044.262    967.08399   -4240.5242    4762.5372    200.32109    76.971789 
    3200    367.73264   -111.17837   0.33273222   -110.84564    4269.2925    4.2546976    4.2546976    4.2546976    4269.2925    3294.4448    14254.086   -4740.6535   -1209.7928   -2136.7229     3437.469    77.020456 
    3300    368.59146   -111.17992    0.3335093   -110.84641    408.42177    4.2569256    4.2569256    4.2569256    408.42177    829.06909   -1936.8914    2333.0876   -1705.1814   -41.810511   -2463.5712     77.14152 
    3400    237.77365   -111.06408    0.2151426   -110.84894   -1770.6499    4.2525267    4.2525267    4.2525267   -1770.6499   -4332.7135    3308.3704   -4287.6066      3807.25    8371.7714   -2658.1017     76.90262 
    3500    355.65057   -111.16944   0.32180011   -110.84764   -4613.8301    4.2556112    4.2556112    4.2556112   -4613.8301    -5328.797   -2922.6885   -5590.0047   -3754.2356    2913.8138    1803.8089    77.070084 
    3600    446.72839   -111.24948   0.40420923   -110.84527   -4231.2152    4.2586561    4.2586561    4.2586561   -4231.2152   -2135.0303   -3032.1063    -7526.509     1617.333   -4413.5636   -3854.4554    77.235631 
    3700    339.91213   -111.15379   0.30755964   -110.84623   -3682.4384     4.251709     4.251709     4.251709   -3682.4384    -3173.285   -3713.5022   -4160.5278    5860.2212    2663.9922   -4668.7287    76.858269 
    3800    214.33465   -111.04229    0.1939345   -110.84836   -1744.4191    4.2560581    4.2560581    4.2560581   -1744.4191    1493.8751    3620.4532   -10347.586   -1779.3131    5387.3499   -1013.7973    77.094365 
    3900    357.66164   -111.17094   0.32361976   -110.84732    3084.3288    4.2560318    4.2560318    4.2560318    3084.3288   -18.394726    8116.4041    1154.9769    240.27034    4.8429046    2243.6203    77.092937 
    4000    376.16198   -111.18603   0.34035926   -110.84568    5396.3409    4.2519949    4.2519949    4.2519949    5396.3409    6705.3912    9586.1823    -102.5508   -2946.7307   -448.26755    2162.8283    76.873776 
    4100    185.99395   -111.01706   0.16829124   -110.84877   -1149.6606    4.2580011    4.2580011    4.2580011   -1149.6606   -41.867586    2427.0738    -5834.188    473.49389    6548.9118   -3163.9036    77.200003 
    4200    223.68223   -111.05091   0.20239239   -110.84852    3038.3289    4.2532186    4.2532186    4.2532186    3038.3289   -1321.7249    2724.1024    7712.6092   -91.173801    3394.7562     1991.959    76.940165 
    4300    408.34156   -111.21551   0.36947602   -110.84603    3119.2991    4.2534443    4.2534443    4.2534443    3119.2991    1089.6461    6672.3169    1595.9344   -2770.4801   -1846.8037   -555.35934    76.952416 
    4400    342.72451   -111.15713   0.31010434   -110.84703   -6089.0358    4.2588646    4.2588646    4.2588646   -6089.0358    -8904.915   -7599.5894   -1762.6029    4345.3853    1201.5878   -3983.8677    77.246981 
    4500    168.42483   -111.00099   0.15239433    -110.8486   -5357.6469    4.2534442    4.2534442    4.2534442   -5357.6469   -8895.7175     928.7051   -8105.9284    1846.6518    8259.9706   -2715.3624    76.952409 
    4600    300.18642   -111.11956   0.27161498   -110.84795   -1114.3576    4.2537536    4.2537536    4.2537536   -1114.3576   -10058.005    3149.5488    3565.3838    735.17425    2663.6005   -2807.5686    76.969201 
    4700    396.03927   -111.20432   0.35834466   -110.84597   -1524.6486    4.2572457    4.2572457    4.2572457   -1524.6486   -7100.3996    5960.9977   -3434.5439    1278.5566   -4286.1013     3046.846    77.158923 
    4800    196.05876   -111.02586   0.17739809   -110.84846   -2807.8979    4.2539204    4.2539204    4.2539204   -2807.8979   -12137.994    6214.2764   -2499.9764     515.2808    7318.6563   -1465.1431    76.978256 
    4900     123.9329   -110.96161   0.11213709   -110.84948   -313.78381    4.2560747    4.2560747    4.2560747   -313.78381    -8198.561    12474.213    -5217.003    -215.4615    8504.1416    607.60311    77.095268 
    5000    332.11499    -111.1466   0.30050462    -110.8461    4239.5049    4.2554453    4.2554453    4.2554453    4239.5049   -3285.1942    4967.4298    11036.279   -5412.0886   -22.128785    3570.7056    77.061072 
    5100    333.08271   -111.14744   0.30138024   -110.84606    1030.1234    4.2540421    4.2540421    4.2540421    1030.1234   -1408.6041    4993.1072   -494.13294    1181.2004    1390.2271   -1435.2054    76.984866 
    5200    172.83557    -111.0056   0.15638526   -110.84921   -4966.6009    4.2567961    4.2567961    4.2567961   -4966.6009   -3917.1887    -2836.515    -8146.099    2196.7199    7481.7012    -1683.595     77.13448 
    5300    244.34584    -111.0693   0.22108926   -110.84821    835.35968    4.2559888    4.2559888    4.2559888    835.35968   -3852.2761    1691.7919    4666.5633   -530.57803    3170.3307     -5112.47    77.090599 
    5400    454.65829   -111.25636   0.41138437   -110.84498    1623.0227     4.253033     4.253033     4.253033    1623.0227    2338.5386    757.19105    1773.3383    2365.0335   -3408.7746    1204.5201    76.930091 
    5500    269.90125   -111.09192   0.24421232   -110.84771   -1903.0536    4.2571661    4.2571661    4.2571661   -1903.0536   -10269.404    119.16178     4441.081    1444.4793    2832.4488    1062.4497    77.154592 
    5600     177.9964    -111.0101   0.16105489   -110.84905   -3451.4124    4.2570077    4.2570077    4.2570077   -3451.4124   -10846.852    5281.7157   -4789.1009    3898.7698    6895.3931   -2957.1842    77.145982 
    5700    291.58982    -111.1112    0.2638366   -110.84736    6546.4407    4.2534355    4.2534355    4.2534355    6546.4407   -4097.6846    11509.212    12227.794   -1560.8923    219.51176    2251.9862    76.951936 
    5800     398.8933   -111.20641   0.36092705   -110.84549    247.48617    4.2567892    4.2567892    4.2567892    247.48617   -6866.6739    6983.8274    625.30497   -2373.8674   -640.44536    2552.9946    77.134102 
    5900    172.31444   -111.00473   0.15591372   -110.84882   -1812.1591    4.2561015    4.2561015    4.2561015   -1812.1591   -5131.0497    4412.5329   -4717.9605     1654.598    8462.7109    1414.3172    77.096725 
    6000     232.2177   -111.05888   0.21011546   -110.84877   -2333.4934    4.2551526    4.2551526    4.2551526   -2333.4934   -3511.9405    3770.7854   -7259.3249   -3281.4908    9184.2289    -3606.961    77.045172 
    6100    410.15184   -111.21703   0.37111401   -110.84591    803.58305    4.2570178    4.2570178    4.2570178    803.58305     2739.951   -3455.3368     3126.135   -692.27921    -3387.552   -2463.2126    77.146531 
    6200    378.32442   -111.18922   0.34231588    -110.8469   -2234.4243    4.2546664    4.2546664    4.2546664   -2234.4243    1443.4735   -4534.4209   -3612.3256    1728.1792    953.02514    2814.4523    77.018762 
    6300    221.96535   -111.04984   0.20083891     -110.849   -4311.2915    4.2559436    4.2559436    4.2559436   -4311.2915   -7954.6614   -1976.1582   -3003.0551    3253.0766     7416.576   -2031.4772    77.088142 
    6400    313.02332   -111.13128   0.28323008   -110.84805   -977.71521     4.258347     4.258347     4.258347   -977.71521   -9820.9606    1920.2789    4967.5361    1690.5501    626.83401    140.18852    77.218816 
    6500    463.88877   -111.26496    0.4197363   -110.84523    2364.4921    4.2537072    4.2537072    4.2537072    2364.4921   -79.204931    3368.4019    3804.2794   -1153.5746   -530.98706    2171.3121    76.966686 
    6600    266.77656   -111.08937   0.24138504   -110.84798    2171.6121    4.2552441    4.2552441    4.2552441    2171.6121   -7273.3523     9051.891    4736.2977    2251.6964    3266.8654    2584.8734    77.050139 
    6700    234.61954    -111.0615   0.21228869   -110.84921   -3113.6252     4.257895     4.257895     4.257895   -3113.6252   -2527.3301    1417.9887   -8231.5342   -387.34173    7692.5686    -1545.416     77.19423 
    6800     336.7854   -111.15241   0.30473051   -110.84768    5169.9021    4.2535039    4.2535039    4.2535039    5169.9021     10717.14    3255.0335    1537.5327   -2249.1914   -1017.2901   -3919.0221    76.955648 
    6900    434.04691   -111.23888   0.39273477   -110.84614   -916.27988    4.2565423    4.2565423    4.2565423   -916.27988    4527.5393   -3424.0074   -3852.3716   -2238.9898   -826.92692    3005.1283    77.120683 
    7000    215.61298   -111.04364   0.19509116   -110.84855    1010.4629    4.2560363    4.2560363    4.2560363    1010.4629    8786.0705   -5142.1446   -612.53724    1622.8482    5704.1429   -1870.4331    77.093181 
    7100    318.47724   -111.13612    0.2881649   -110.84796   -4768.0723    4.2547996    4.2547996    4.2547996   -4768.0723   -4585.1506   -6018.8855   -3700.1808    1185.9937    5010.0222   -4026.5135    77.025996 
    7200    409.92108   -111.21737   0.37090521   -110.84646  -0.25054863    4.2567465    4.2567465    4.2567465  -0.25054863   -1166.5901   -1470.3314    2636.1699    363.90652   -3411.3684    1525.3408    77.131784 
    7300    403.96147   -111.21231   0.36551282    -110.8468   -1828.9657    4.2545989    4.2545989    4.2545989   -1828.9657   -1569.1516   -1044.9054     -2872.84    2539.3863    2773.3157    1683.8085    77.015098 
    7400    215.50145   -111.04394   0.19499024   -110.84895    1219.3179     4.254452     4.254452     4.254452    1219.3179   -6551.3091    8604.3708    1604.8921    2040.2434    10215.157    498.15032    77.007122 
    7500    323.95123   -111.14118   0.29311788   -110.84806   -1960.8095     4.257962     4.257962     4.257962   -1960.8095   -5706.8961    4852.0088   -5027.5414   -2374.5163    2493.9234   -3930.5718    77.197875 
    7600    366.87682   -111.17828   0.33195786   -110.84632    3162.8568    4.2541193    4.2541193    4.2541193    3162.8568    9136.1796    1019.2435   -666.85279   -2101.0694   -2297.4422    1854.5346    76.989057 
    7700    256.88129   -111.08027   0.23243159   -110.84784    3476.1969     4.253594     4.253594     4.253594    3476.1969    6606.8106    6497.0722    -2675.292   -20.030277    694.40338    4565.6027    76.960541 
    7800     220.2036   -111.04783   0.19924484   -110.84858   -2646.5511    4.2574466    4.2574466    4.2574466   -2646.5511   -2427.6901    -7166.321    1654.3578    917.06012    6491.7508    -4579.038    77.169847 
    7900    342.55996    -111.1569   0.30995545   -110.84695   -2847.5381    4.2540254    4.2540254    4.2540254   -2847.5381    2086.2129   -7554.8874   -3073.9398    223.92945   -2187.6526    -356.1126    76.983959 
    8000    388.60355   -111.19803   0.35161666   -110.84641   -4792.2993     4.256163     4.256163     4.256163   -4792.2993   -1093.6276   -7684.6981   -5598.5721   -1104.7914   -1088.9978    3767.6503    77.100067 
    8100    240.37126   -111.06569   0.21749297    -110.8482   -2323.9267    4.2560679    4.2560679    4.2560679   -2323.9267   -2518.4789   -2849.4871   -1603.8142    6377.1609     5777.904    1373.8095    77.094899 
    8200    288.44565   -111.10856   0.26099169   -110.84757   -3357.0545    4.2533102    4.2533102    4.2533102   -3357.0545   -6645.5294   -1670.8385   -1754.7956    1177.7909    6239.0093   -1882.6063    76.945136 
    8300    327.74784   -111.14366   0.29655313   -110.84711    308.65683    4.2565611    4.2565611    4.2565611    308.65683   -435.33648    5548.6079    -4187.301   -877.94851   -353.03423   -562.32201    77.121706 
    8400    291.95246   -111.11157   0.26416472    -110.8474     3158.857    4.2550865    4.2550865    4.2550865     3158.857     10094.05    4380.5702    -4998.049   -2407.6523   -1473.5467    6358.6202    77.041578 
    8500    170.01203   -111.00235   0.15383046   -110.84852    6262.9031    4.2532932    4.2532932    4.2532932    6262.9031    2294.6985    8938.8469    7555.1638   -127.11776    7433.1496   -2162.8838    76.944212 
    8600    290.13963   -111.10976   0.26252443   -110.84723    129.10039     4.256003     4.256003     4.256003    129.10039   -5679.9934    8175.1853   -2107.8907    107.95663    267.51853    -3208.912    77.091373 
    8700    327.32526   -111.14212   0.29617078   -110.84595   -903.49758    4.2560351    4.2560351    4.2560351   -903.49758    2680.5792   -7001.5652    1610.4932   -726.13327   -3818.3804    3655.5868    77.093119 
    8800    284.39449   -111.10448   0.25732611   -110.84715   -2537.0191    4.2530585    4.2530585    4.2530585   -2537.0191   -2287.7677    3578.3266   -8901.6163    1136.2367    4270.1528    3366.1486    76.931478 
    8900    237.56138   -111.06296   0.21495053   -110.84801   -4302.9703    4.2562305    4.2562305    4.2562305   -4302.9703   -12322.177   -3383.2087    2796.4753    3038.0968    6467.3854   -1713.3194    77.103736 
    9000    358.53409   -111.17135   0.32440918   -110.84694   -7100.8116    4.2560285    4.2560285    4.2560285   -7100.8116   -5314.7363   -8935.4795   -7052.2191    1940.5346    948.19986    -2517.063     77.09276 
    9100     274.8641   -111.09601   0.24870281   -110.84731    1832.6096     4.252591     4.252591     4.252591    1832.6096    4917.2825    1139.9593   -559.41298   -1858.8754   -4789.3382    5756.9597    76.906108 
    9200    217.10254   -111.04485   0.19643894   -110.84841   -1892.2117    4.2578926    4.2578926    4.2578926   -1892.2117    4035.6928    246.99658   -9959.3245    73.929248    4481.3964    2999.5168    77.194098 
    9300    225.15586   -111.05147   0.20372575   -110.84775    5439.7144    4.2531553    4.2531553    4.2531553    5439.7144    6292.3594    3688.7375    6338.0463   -1165.2351    5240.9848   -4932.1151    76.936729 
    9400    334.34624    -111.1488   0.30252351   -110.84628    2912.9028    4.2538469    4.2538469    4.2538469    2912.9028    3805.2224    6891.2964   -1957.8103   -1245.4313   -3227.5657    1198.1729    76.974269 
    9500    256.93149   -111.07983   0.23247701   -110.84736    1560.2573    4.2578579    4.2578579    4.2578579    1560.2573    9482.2524    995.17962   -5796.6601   -1027.9976     183.6345    3837.1077    77.192214 
    9600    268.00892   -111.08966   0.24250011   -110.84716   -8.7292496    4.2532609    4.2532609    4.2532609   -8.7292496   -2953.4204    1188.5049    1738.7277    2585.1146    7824.4071   -177.12387    76.942462 
    9700    345.19261   -111.15853   0.31233753    -110.8462   -1563.5578    4.2547607    4.2547607    4.2547607   -1563.5578   -5769.2834    683.04855    395.56145    3580.1014    3508.1285   -777.79564    77.023884 
    9800    347.39134   -111.16051   0.31432699   -110.84618   -2628.2909    4.2579291    4.2579291    4.2579291   -2628.2909    1096.5901   -10944.353    1962.8898    1088.8408   -1598.6548    1526.9016    77.196084 
    9900    280.62945   -111.10105   0.25391942   -110.84713   -3242.1452    4.2535683    4.2535683    4.2535683   -3242.1452    3890.6532   -5063.6855   -8553.4032   -303.35591    1424.2281    6969.5196    76.959147 
   10000    231.07726   -111.05682   0.20908356   -110.84774   -920.96196     4.256293     4.256293     4.256293   -920.96196   -477.16091   -2969.3181     683.5931    150.73772    7406.5182   -2010.2141    77.107133 
   10100    354.50831   -111.16673   0.32076657   -110.84596   -2780.0834    4.2569453    4.2569453    4.2569453   -2780.0834    5430.4005   -7725.0237   -6045.6271    723.31638   -1977.8552   -959.49595    77.142586 
   10200     250.6728    -111.0736   0.22681402   -110.84679    3709.4013     4.253512     4.253512     4.253512    3709.4013    10193.573     1750.081   -815.45014   -3449.4769   -3415.2511    7033.7461    76.956088 
   10300    274.14099   -111.09572   0.24804853   -110.84767   -3512.7856    4.2570041    4.2570041    4.2570041   -3512.7856    1122.0711    4256.5229   -15916.951   -1592.8886    7574.6011    492.08662    77.145784 
   10400       263.02   -111.08511   0.23798603   -110.84713    2711.2106    4.2565567    4.2565567    4.2565567    2711.2106    1121.1536    3401.5389    3610.9394    2411.9302    4777.8501   -1015.8815    77.121465 
   10500    408.01852   -111.21454   0.36918373   -110.84535   -441.66417    4.2535687    4.2535687    4.2535687   -441.66417    630.03781    2001.6623   -3956.6927    2158.7682   -702.38551    397.64221    76.959168 
   10600    283.92003   -111.10362   0.25689681   -110.84672    1126.9965     4.257324     4.257324     4.257324    1126.9965    4883.5361   -2036.9291     534.3825     809.2446   -1123.6314     5816.357    77.163181 
   10700    328.63555   -111.14358   0.29735635   -110.84622   -3033.8413    4.2563923    4.2563923    4.2563923   -3033.8413    2666.3098   -5624.1426    -6143.691    1750.1166    6379.1465    2443.3567    77.112529 
   10800    340.53443   -111.15389   0.30812271   -110.84577      2949.63    4.2537416    4.2537416    4.2537416      2949.63     5363.099   -4589.1952    8074.9861    5877.4718    3141.1977   -2427.9042    76.968554 
   10900    378.46908   -111.18834   0.34244678   -110.84589   -1303.7397    4.2571149    4.2571149    4.2571149   -1303.7397    6632.6602   -9702.0184   -841.86075    721.23074    -4841.539    3445.4328    77.151811 
   11000    268.11924   -111.08967   0.24259993   -110.84707   -331.66817    4.2556691    4.2556691    4.2556691   -331.66817    1301.9518   -1892.9592   -403.99717   -3245.3706    3225.3799      3530.57    77.073231 
   11100    302.14595   -111.12073     0.273388   -110.84734    301.47921    4.2529635    4.2529635    4.2529635    301.47921   -3548.1076    8073.4364   -3620.8911    778.35804    5741.9938   -1957.5996    76.926322 
   11200     339.9876   -111.15406   0.30762792   -110.84644   -1751.5962    4.2585975    4.2585975    4.2585975   -1751.5962   -8633.4248    1969.3573    1409.2789    3420.2275     211.5392    2.4702963    77.232442 
   11300    319.15687   -111.13566   0.28877984   -110.84688    -864.3291    4.2534874    4.2534874    4.2534874    -864.3291   -2803.9209    6691.8008   -6480.8671    1016.6582   -748.93354    3107.0294    76.954753 
   11400    273.35592   -111.09509   0.24733818   -110.84775   -918.43262    4.2539534    4.2539534    4.2539534   -918.43262   -7208.8015     11515.38   -7061.8765   -2534.5653    4540.4026    3671.8889     76.98005 
   11500    337.62734   -111.15255   0.30549231   -110.84706   -3060.4087    4.2585497    4.2585497    4.2585497   -3060.4087   -1990.3486   -1477.0927   -5713.7849    4053.2835    3367.6984   -570.36218    77.229847 
   11600    365.96427   -111.17747   0.33113216   -110.84634    515.95399    4.2525138    4.2525138    4.2525138    515.95399    3873.9496   -3374.3444    1048.2567    6446.9216   -3927.2016    2564.3892    76.901924 
   11700    314.69324   -111.13174   0.28474105     -110.847   -643.95609    4.2553365    4.2553365    4.2553365   -643.95609    4044.2999   -4103.2864   -1872.8818    281.84376    336.55813    6634.8014    77.055158 
   11800     312.8036   -111.13021   0.28303127   -110.84718   -885.13091    4.2569384    4.2569384    4.2569384   -885.13091    5508.5262   -3845.9805   -4317.9384   -722.85647    7278.8292   -2221.0789    77.142215 
   11900    336.18482   -111.15063   0.30418709   -110.84645    2719.0433    4.2527223    4.2527223    4.2527223    2719.0433   -109.68505    -269.7726    8536.5875    3542.0606    1448.0372   -1158.6538    76.913235 
   12000    345.85294   -111.15934     0.312935    -110.8464    -579.3835    4.2561136    4.2561136    4.2561136    -579.3835    -1137.868    372.43997   -972.72247    1108.6634   -1486.8243    1984.1121    77.097384 
   12100    249.73991   -111.07305   0.22596992   -110.84708     1794.195    4.2567067    4.2567067    4.2567067     1794.195   -4757.4259    6202.0156    3937.9954   -370.77443    4149.3711    3233.0247    77.129617 
   12200    318.35716   -111.13457   0.28805625   -110.84651   -3.6463409    4.2525372    4.2525372    4.2525372   -3.6463409   -8510.8224    12083.643   -3583.7592    2545.4064     5555.395     915.8807    76.903192 
   12300    264.50658   -111.08616   0.23933111   -110.84683    1658.9328    4.2572924    4.2572924    4.2572924    1658.9328   -3656.5474    1091.2295    7542.1163    7199.9041    997.58661   -1128.6901    77.161462 
   12400    322.42175   -111.13832   0.29173397   -110.84659   -4473.3946    4.2560585    4.2560585    4.2560585   -4473.3946   -763.14257   -3550.3468   -9106.6943     2188.975   -3679.2301    7375.6483    77.094389 
   12500    219.00577   -111.04554   0.19816103   -110.84738     3289.943    4.2528568    4.2528568    4.2528568     3289.943    2068.1025    5362.9281    2438.7984    -593.7443    4572.4038    4119.2456     76.92053 
   12600    322.37433   -111.13808   0.29169107   -110.84639   -5509.4647    4.2586463    4.2586463    4.2586463   -5509.4647     2645.818   -10990.386    -8183.826    5782.9392    3369.8603   -1108.6509    77.235102 
   12700    280.79494   -111.09988   0.25406916   -110.84581   -1229.7138    4.2552407    4.2552407    4.2552407   -1229.7138    7031.7478   -13228.703    2507.8138    3489.9944   -2767.8491    1599.2446    77.049957 
   12800    323.72934   -111.13875   0.29291711   -110.84584   -4516.5076    4.2540168    4.2540168    4.2540168   -4516.5076   -1471.3265   -6289.8853    -5788.311   -2552.6775    3892.3945    1647.1233    76.983492 
   12900    279.14087   -111.09895   0.25257252   -110.84637   -2906.6204     4.258455     4.258455     4.258455   -2906.6204   -1806.5024   -5801.8493   -1111.5094   -2183.0936    5835.8502    470.50584    77.224694 
   13000     311.8576   -111.12835   0.28217531   -110.84617     -1240.73    4.2545188    4.2545188    4.2545188     -1240.73    86.573597   -5673.7817     1865.018    4815.7387    2268.2274   -2191.8218    77.010748 
   13100    290.89579   -111.10917   0.26320863   -110.84596   -885.42143    4.2552913    4.2552913    4.2552913   -885.42143    805.89992   -6261.1323    2798.9681    4156.7748   -2308.6776    3903.5502    77.052704 
   13200    214.22899   -111.04058   0.19383889   -110.84674    2699.4719    4.2584256    4.2584256    4.2584256    2699.4719    9401.0626   -3911.8856    2609.2389    -130.1279    1690.9394    4466.2509    77.223094 
   13300    245.49201   -111.06926   0.22212633   -110.84714    4211.4077    4.2525157    4.2525157    4.2525157    4211.4077    4206.7472    5802.4715    2625.0043    4466.0945    5335.3279   -494.07243    76.902024 
   13400    195.44876   -111.02441   0.17684614   -110.84756    6306.8872     4.255176     4.255176     4.255176    6306.8872    10339.737   -4997.5123    13578.437    7764.3991   -1314.1857    2673.1902    77.046439 
   13500    285.53624    -111.1051   0.25835919   -110.84674   -5212.7336    4.2593007    4.2593007    4.2593007   -5212.7336    1438.3687   -11714.757   -5361.8129    1573.1491   -2662.6124    4082.4948    77.270711 
   13600    230.35112   -111.05505   0.20842653   -110.84662    93.917027    4.2522385    4.2522385    4.2522385    93.917027   -2680.9521    2657.3856    305.31765   -146.73907    5676.4324    2707.9376    76.886987 
   13700    332.08756   -111.14661   0.30047981   -110.84613   -7365.1931    4.2574295    4.2574295    4.2574295   -7365.1931   -8351.7889    -7645.768   -6098.0223    3474.4368    6547.6943   -2342.3141    77.168915 
   13800    295.40974   -111.11366   0.26729294   -110.84637    -4379.679    4.2576832    4.2576832    4.2576832    -4379.679    2523.9061   -13815.312   -1847.6311    1729.1396   -821.49133    791.53266    77.182713 
   13900    332.47401   -111.14688   0.30082947   -110.84605   -3479.7383    4.2519472    4.2519472    4.2519472   -3479.7383    2101.1558   -7933.9287   -4606.4421   -3951.9501    -1053.911    4813.9471    76.871185 
   14000    256.09119   -111.07908   0.23171669   -110.84736   -1124.9045    4.2592857    4.2592857    4.2592857   -1124.9045    6605.0567   -11017.413    1037.6424   -1073.9435    2865.4726   -1384.7683    77.269892 
   14100      277.553   -111.09835   0.25113579   -110.84722    4072.4751     4.254887     4.254887     4.254887    4072.4751    10579.396   -4143.3704       5781.4    6645.7758    1023.4797    1075.6133    77.030744 
   14200    318.68105   -111.13509   0.28834931   -110.84674    4210.3184    4.2528885    4.2528885    4.2528885    4210.3184    9773.7581   -4054.4561    6911.6531    4899.1106   -3154.3228    3793.9247    76.922255 
   14300     279.7401   -111.10012   0.25311473   -110.84701    264.82562    4.2606398    4.2606398    4.2606398    264.82562    6472.6118   -4804.9978   -873.13722   -818.62397    3481.8447    3049.9211    77.343615 
   14400    328.08371   -111.14299   0.29685703   -110.84614     540.8356    4.2536785    4.2536785    4.2536785     540.8356   -7477.9465    11036.363   -1935.9096    2052.3051    5086.3878    812.70054    76.965126 
   14500    318.49526   -111.13466    0.2881812   -110.84648    2424.8059    4.2542995    4.2542995    4.2542995    2424.8059   -1687.3897    3054.7775    5907.0299    5156.0464     2187.936    -1307.915    76.998839 
   14600    345.08125   -111.15875   0.31223677   -110.84651   -2853.8481    4.2592033    4.2592033    4.2592033   -2853.8481   -618.84153   -5080.0703   -2862.6325   -1082.2582   -1900.9001    3369.4085    77.265411 
   14700    278.36266   -111.09902   0.25186838   -110.84715    1627.6541    4.2539266    4.2539266    4.2539266    1627.6541    2025.9034    2801.7747    55.284112   -3709.4674    3213.7832   -1250.8582    76.978595 
   14800     311.4129   -111.12916   0.28177294   -110.84739   -1634.5715    4.2567334    4.2567334    4.2567334   -1634.5715    1617.0319   -8000.7411    1479.9948      -1362.9    3365.7837   -1747.5462    77.131069 
   14900    294.59885   -111.11349   0.26655923   -110.84694   -679.94689     4.257812     4.257812     4.257812   -679.94689    9962.3246   -13080.609    1078.4438    3760.2207   -4976.9019    3040.4568    77.189719 
   15000    336.02478   -111.15055   0.30404228    -110.8465   -1488.6557    4.2525462    4.2525462    4.2525462   -1488.6557    8299.6359   -5989.5775   -6776.0253    101.07966   -931.06675    2696.2456    76.903678 
   15100    342.07904   -111.15622    0.3095203    -110.8467   -4406.3856    4.2586869    4.2586869    4.2586869   -4406.3856   -2158.7309   -6513.1831   -4547.2427    775.15645    5297.1039    1706.2557    77.237307 
   15200    386.44685   -111.19602   0.34966523   -110.84635   -4186.4215    4.2567211    4.2567211    4.2567211   -4186.4215   -1509.5462   -5558.5624   -5491.1559     5278.416    3574.3639     121.4196    77.130402 
   15300    365.35476   -111.17703   0.33058067   -110.84645    1144.5078    4.2526885    4.2526885    4.2526885    1144.5078    188.45377     3684.636   -439.56632    796.09695   -1852.7605    4185.8129    76.911403 
   15400    329.62717   -111.14556   0.29825359   -110.84731    1391.6991    4.2582439    4.2582439    4.2582439    1391.6991    6482.0845   -1763.0222   -543.96498   -2994.1424   -501.25789    2966.8169     77.21321 
   15500    301.03568   -111.11951   0.27238341   -110.84713    6493.3949    4.2544923    4.2544923    4.2544923    6493.3949    5889.2127    8770.0446    4820.9273   -2203.8619    3507.4052   -4250.9274    77.009311 
   15600    320.96068   -111.13711   0.29041197    -110.8467    5634.4367    4.2537996    4.2537996    4.2537996    5634.4367    11756.036    1246.8674    3900.4068    1295.9301     222.3296    635.60791    76.971697 
   15700    318.08439   -111.13521   0.28780944    -110.8474   -488.75277    4.2582624    4.2582624    4.2582624   -488.75277    6699.6046    -10297.14    2131.2768   -619.99773   -4535.4903    2236.3474    77.214216 
   15800    279.35569   -111.10097    0.2527669    -110.8482    1223.0646    4.2521059    4.2521059    4.2521059    1223.0646   -2204.1803     7320.062   -1446.6879   -3656.2608    5037.2834    1849.6589    76.879795 
   15900    363.92926   -111.17689   0.32929084    -110.8476   -6592.0188     4.256124     4.256124     4.256124   -6592.0188   -9425.1089   -6451.0212   -3899.9264    678.22556    6419.5705   -418.96788    77.097946 
   16000    352.38908   -111.16572   0.31884905   -110.84687   -6647.5494    4.2584332    4.2584332    4.2584332   -6647.5494   -5328.1574   -15224.723    610.23218    7183.8971   -323.63511    108.76594    77.223505 
   16100     322.1761   -111.13823   0.29151171   -110.84671   -3149.6164    4.2512429    4.2512429    4.2512429   -3149.6164   -2109.2018   -4330.2838   -3009.3636   -457.53399    -106.1199    5724.0202    76.832993 
   16200    234.90365   -111.06066   0.21254576   -110.84812    189.30923    4.2570667    4.2570667    4.2570667    189.30923    3402.8509   -3410.1604    575.23724   -4210.0799    2120.5513   -1762.5361    77.149191 
   16300    301.22887   -111.12067   0.27255821   -110.84811    434.19708    4.2553807    4.2553807    4.2553807    434.19708    10949.117   -7344.0811   -2302.4448   -2607.6343    3838.7451   -469.20875     77.05756 
   16400    282.81449   -111.10334   0.25589649   -110.84745     4959.458    4.2521152    4.2521152    4.2521152     4959.458    16275.765   -2873.7857     1476.395    1300.6134   -3343.2662    902.51417    76.880301 
   16500    279.75725   -111.10072   0.25313024   -110.84759   -2202.5736    4.2586141    4.2586141    4.2586141   -2202.5736    6796.6907   -6126.6089   -7277.8026   -3008.2625   -970.80651   -617.03834     77.23335 
   16600    225.39455   -111.05171   0.20394172   -110.84777    897.42643    4.2538023    4.2538023    4.2538023    897.42643    -3250.552    1249.2919    4693.5394   -5241.8766    5146.2592    -178.0237    76.971846 
   16700    327.96029   -111.14361   0.29674537   -110.84687    -1665.073     4.253377     4.253377     4.253377    -1665.073   -401.91791   -2464.8299   -2128.4711    1235.7826    3615.9084    416.57718    76.948762 
   16800    305.82384   -111.12377   0.27671584   -110.84705    -3694.667    4.2595007    4.2595007    4.2595007    -3694.667    615.53242   -16844.746    5145.2129     2798.053   -2214.8584    4200.5759    77.281597 
   16900    237.37104    -111.0627   0.21477831   -110.84792    778.53112    4.2523471    4.2523471    4.2523471    778.53112    2127.6576   -2484.1924    2692.1282   -435.18433    1088.7726     372.4996    76.892878 
   17000    217.71837   -111.04518   0.19699616   -110.84818    438.72483    4.2556403    4.2556403    4.2556403    438.72483     6624.438    -7977.847    2669.5834    -1751.627    4299.5099    -1977.054    77.071665 
   17100    281.34234   -111.10119   0.25456447   -110.84663   -267.01367    4.2582222    4.2582222    4.2582222   -267.01367    13686.874   -18505.628    4017.7131   -400.33957    1088.8381    1913.9713    77.212028 
   17200     320.4339    -111.1357   0.28993532   -110.84576    -197.4525    4.2523651    4.2523651    4.2523651    -197.4525    9936.6974   -9695.2302   -833.82471   -2002.7799   -2613.0033    1575.8984    76.893856 
   17300    228.51627   -111.05414   0.20676632   -110.84738   -2516.6477    4.2575098    4.2575098    4.2575098   -2516.6477    743.46544   -8453.1964    159.78783   -4522.6935    2567.4726    272.99124     77.17328 
   17400    301.17132    -111.1194   0.27250614   -110.84689     -6085.88    4.2570717    4.2570717    4.2570717     -6085.88   -1361.5375   -12239.379   -4656.7238   -3746.5279    3814.0988   -1736.6291    77.149458 
   17500    277.73799   -111.09751   0.25130317   -110.84621    2872.0675     4.251895     4.251895     4.251895    2872.0675    10173.629   -7149.2978     5591.871    1548.6149   -2287.2872    3124.1756    76.868356 
   17600    311.66505   -111.12859   0.28200108   -110.84659    -4060.736     4.258372     4.258372     4.258372    -4060.736    2983.0575   -8268.5727   -6896.6929    648.87396   -171.58883    3107.7016    77.220178 
   17700    162.89117   -110.99558   0.14738735   -110.84819    3272.5479    4.2555356    4.2555356    4.2555356    3272.5479    10063.026   -3960.8806     3715.498   -1963.5893   -135.86918    155.29127    77.065974 
   17800    291.93804   -111.11152   0.26415167   -110.84737    2092.4974    4.2519485    4.2519485    4.2519485    2092.4974    12300.718   -3634.8937   -2388.3321    1521.1622    2980.5298    2648.3438    76.871257 
   17900    283.12528   -111.10338    0.2561777    -110.8472    2435.6316    4.2587401    4.2587401    4.2587401    2435.6316    10620.323   -10907.107    7593.6787    3568.8319   -2539.3261   -266.33109    77.240205 
   18000    311.20251   -111.12876   0.28158257   -110.84717   -1724.2842    4.2539793    4.2539793    4.2539793   -1724.2842   -3400.2731    756.92294   -2529.5025   -90.412409   -79.048526   -865.67868    76.981454 
   18100    284.00138   -111.10453   0.25697042   -110.84756   -472.60397    4.2525653    4.2525653    4.2525653   -472.60397   -5513.5866    662.71704    3433.0576   -3775.6439    9029.6653   -807.18539    76.904714 
   18200    347.96513   -111.16141   0.31484616   -110.84657   -4101.7166    4.2596702    4.2596702    4.2596702   -4101.7166   -176.34761    -15623.09     3494.288   -1986.4091   -1521.0458    1502.5615    77.290825 
   18300    347.73549   -111.16096   0.31463838   -110.84632    1433.6877    4.2517177    4.2517177    4.2517177    1433.6877    6072.8681    -4763.919     2992.114    281.40802    645.23846    2620.2975     76.85874 
   18400    297.31225   -111.11621   0.26901437    -110.8472   -1259.9725    4.2558367    4.2558367    4.2558367   -1259.9725    1640.5696   -3483.0649   -1937.4221    317.92487    295.39848   -2517.1926    77.082335 
   18500    317.43238   -111.13412   0.28721949    -110.8469   -2743.9476    4.2580984    4.2580984    4.2580984   -2743.9476    13910.434   -12090.735   -10051.542   -549.79305    2866.4511    1412.6534    77.205295 
   18600     322.8748   -111.13862    0.2921439   -110.84648    4549.3366    4.2503873    4.2503873    4.2503873    4549.3366    16128.373   -7222.1727     4741.809    2135.9781    1003.3869    3566.9748    76.786616 
   18700    387.07105   -111.19682   0.35023002   -110.84659    -4114.901    4.2578983    4.2578983    4.2578983    -4114.901    3221.2028     -7361.37   -8204.5357    2929.9899   -2692.5412    1105.2025    77.194409 
   18800    315.33923   -111.13286   0.28532556   -110.84753   -1226.0566    4.2565359    4.2565359    4.2565359   -1226.0566    -1882.395   -887.74236   -908.03258   -26.187075    3683.6051   -2247.0153    77.120332 
   18900    359.01619    -111.1722    0.3248454   -110.84736    1211.2562    4.2516725    4.2516725    4.2516725    1211.2562    8425.2856   -937.75612   -3853.7609    1123.7912     1516.095   -2941.9087     76.85629 
   19000    321.60499   -111.13811   0.29099495   -110.84711    1613.1503    4.2584067    4.2584067    4.2584067    1613.1503    3242.9324   -6754.8299    8351.3485    762.28452    22.631106    2123.0726    77.222062 
   19100    346.35867   -111.15984    0.3133926   -110.84645    28.443731    4.2542236    4.2542236    4.2542236    28.443731    2851.9542    1765.6399   -4532.2629   -1989.9841   -1160.6962     709.9787    76.994722 
   19200    270.71627   -111.09202   0.24494977   -110.84707    3335.6163     4.253211     4.253211     4.253211    3335.6163    6991.7341    2984.1587    30.956017   -1738.2615    3027.8144    33.206984    76.939755 
   19300    333.98904   -111.14923   0.30220031   -110.84703   -2047.0968    4.2580721    4.2580721    4.2580721   -2047.0968    6309.8842   -11268.231   -1182.9432    159.62815    1299.9526    457.13892    77.203865 
   19400    316.61364   -111.13348   0.28647867     -110.847    2810.4825    4.2519219    4.2519219    4.2519219    2810.4825     3435.737    -1035.059    6030.7696     4722.049   -320.69145   -37.157416    76.869815 
   19500    341.47648    -111.1558   0.30897509   -110.84682   -3724.4599    4.2549828    4.2549828    4.2549828   -3724.4599   -7911.8716   -1248.5513   -2012.9567    346.16021    3836.0216    1545.4112    77.035945 
   19600    296.57408   -111.11525   0.26834646    -110.8469   -2445.4662    4.2578059    4.2578059    4.2578059   -2445.4662    8907.5705    -11431.92   -4812.0488   -1605.7366    2593.9734    -188.3623    77.189383 
   19700     332.9008   -111.14725   0.30121564   -110.84603    517.01909    4.2523947    4.2523947    4.2523947    517.01909    6832.6999   -11068.496    5786.8533    5017.8484   -539.88196    820.36308    76.895463 
   19800    318.04074   -111.13411   0.28776995   -110.84634    1820.5855    4.2543947    4.2543947    4.2543947    1820.5855     14118.21   -6026.6858   -2629.7677    2312.7903      -1629.4   -1168.5641    77.004007 
   19900    272.36311   -111.09471   0.24643987   -110.84827   -2523.1239    4.2562683    4.2562683    4.2562683   -2523.1239    889.80171   -5979.5626    -2479.611   -734.85897   -574.73135   -1654.1967    77.105792 
   20000    275.11148   -111.09719   0.24892664   -110.84826   -809.42174    4.2516444    4.2516444    4.2516444   -809.42174    13963.649   -10407.757   -5984.1569   -2206.1997    2689.8729    2369.9567    76.854763 
   20100    305.30588   -111.12352   0.27624718   -110.84727   -2666.6915    4.2574741    4.2574741    4.2574741   -2666.6915    27.549448    -14546.96    6519.3365    1097.3309   -897.51336    1248.6863     77.17134 
   20200    298.66997   -111.11675   0.27024287   -110.84651   -1640.2387     4.254363     4.254363     4.254363   -1640.2387   -2736.1569   -374.02253   -1810.5367    2975.5818    -753.3886    762.32098    77.002288 
   20300    207.63303   -111.03511   0.18787073   -110.84724    407.95487    4.2518818    4.2518818    4.2518818    407.95487   -1135.5676  -0.16564539    2359.5978   -313.71598    5415.4673   -1275.9571    76.867638 
   20400    257.05574   -111.08011   0.23258943   -110.84752   -5285.2392    4.2584182    4.2584182    4.2584182   -5285.2392     3983.089   -16289.993   -3548.8136    975.25081    322.10606    569.65591    77.222692 
   20500    290.75714    -111.1095   0.26308317   -110.84641    3133.1333    4.2525275    4.2525275    4.2525275    3133.1333    7556.3273   -4114.3432    5957.4158     3821.703    862.03019    1791.3055    76.902664 
   20600    262.18254   -111.08443   0.23722827    -110.8472    1537.0293    4.2536005    4.2536005    4.2536005    1537.0293     1843.081    2016.0417    751.96526     33.59242   -559.85093   -1205.4551    76.960894 
   20700    195.46038   -111.02487   0.17685666   -110.84801   -127.31405     4.256115     4.256115     4.256115   -127.31405     12775.81   -9063.3499   -4094.4024   -362.85607    1944.2304    338.97709    77.097461 
   20800    295.02821   -111.11432   0.26694773   -110.84737   -2425.3209    4.2538997    4.2538997    4.2538997   -2425.3209     3737.451   -15859.189    4845.7753   -544.62143   -890.07575   -1046.1057    76.977132 
   20900    336.64426   -111.15115    0.3046028   -110.84655   -1700.0182    4.2557964    4.2557964    4.2557964   -1700.0182    8438.2186   -11544.148   -1994.1253   -1715.8622   -328.42369    307.57245    77.080146 
   21000    237.00222    -111.0621   0.21444459   -110.84766   -901.13361    4.2545196    4.2545196    4.2545196   -901.13361   -1764.4134   -1436.8797    497.89235    808.55619   -200.56576    668.48457    77.010793 
   21100    240.63065   -111.06582   0.21772767   -110.84809   -3352.8188    4.2528556    4.2528556    4.2528556   -3352.8188    10265.422   -12823.663   -7500.2152   -2879.6994   -1195.3616    531.38105    76.920468 
   21200    336.59808   -111.15161   0.30456101   -110.84705   -2416.4384    4.2559057    4.2559057    4.2559057   -2416.4384    3652.7868   -14853.587    3951.4846    2276.6562    1669.6411    1928.6036    77.086083 
   21300    342.76985   -111.15717   0.31014537   -110.84702   -2218.1012     4.255969     4.255969     4.255969   -2218.1012    4587.8143   -4535.1604   -6706.9576    2110.5113   -2854.1043   -2673.0767    77.089525 
   21400    209.69149   -111.03806   0.18973327   -110.84833    2094.1864     4.252891     4.252891     4.252891    2094.1864    2772.4019    3585.9668   -75.809355   -502.90395    2946.7173   -842.02496     76.92239 
   21500     305.3589   -111.12394   0.27629515   -110.84764   -1824.2413    4.2555095    4.2555095    4.2555095   -1824.2413    5354.6862   -9027.9642    -1799.446    983.89357    1388.0873    1467.1949    77.064558 
   21600    383.79163   -111.19316   0.34726273    -110.8459    2997.5725    4.2543018    4.2543018    4.2543018    2997.5725    5769.9528    492.26717    2730.4974   -1345.8071   -1693.1498    902.47952    76.998966 
   21700     314.2909   -111.13177   0.28437701    -110.8474    216.64192    4.2550282    4.2550282    4.2550282    216.64192   -556.33177    4267.6491   -3061.3916   -30.448065     3028.009   -559.28715    77.038413 
   21800    229.70122   -111.05686   0.20783849   -110.84902    385.80484    4.2548287    4.2548287    4.2548287    385.80484     7951.786    2366.9183   -9161.2898   -1840.2524   -467.08763   -2811.9357    77.027577 
   21900    370.81498   -111.18315   0.33552119   -110.84763    2175.6453     4.252994     4.252994     4.252994    2175.6453    5922.0661   -1867.9144    2472.7843   -2522.7215    1311.8299    1864.8396    76.927977 
   22000    431.42141   -111.23691   0.39035915   -110.84655   -1481.9825    4.2568626    4.2568626    4.2568626   -1481.9825    6231.3992    -4761.345   -5916.0016    501.83961   -290.92595    1899.8281    77.138091 
   22100    273.00538    -111.0951     0.247021   -110.84807   -2722.3991    4.2551277    4.2551277    4.2551277   -2722.3991   -3248.4814    1811.7057   -6730.4216    1238.1663   -2448.8647    275.77728    77.043819 
   22200    298.26913   -111.11795   0.26988018   -110.84807   -3983.1506    4.2543458    4.2543458    4.2543458   -3983.1506    1040.4762    -6316.149   -6673.7791   -1528.4155    1102.9984   -640.12683    77.001354 
   22300    429.44086   -111.23534   0.38856711   -110.84678    2241.5524    4.2541001    4.2541001    4.2541001    2241.5524    3281.0127   -5791.2829    9234.9274   -360.00863   -1820.6551   -1745.8573    76.988016 
   22400    404.07382   -111.21342   0.36561449   -110.84781   -1128.6172    4.2548579    4.2548579    4.2548579   -1128.6172    3104.2406    -357.3702    -6132.722   -329.28667    277.05169    1217.9411    77.029164 
   22500    204.26726   -111.03466   0.18482531   -110.84984   -1363.4318    4.2562884    4.2562884    4.2562884   -1363.4318    1356.3845   -1021.0407    -4425.639   -368.16261    130.71846   -85.330574     77.10688 
   22600    317.66192   -111.13585   0.28742718   -110.84842    574.39691    4.2544449    4.2544449    4.2544449    574.39691    9081.5015   -5417.5162   -1940.7945   -1953.9429     1447.481    233.16178    77.006738 
   22700    409.49756   -111.21634   0.37052199   -110.84582    5493.0937    4.2537305    4.2537305    4.2537305    5493.0937    9023.6544    3022.2585    4433.3683   -3366.7244    1578.3242   -585.50082    76.967947 
   22800    266.98995   -111.08927   0.24157811   -110.84769   -10.473395    4.2559444    4.2559444    4.2559444   -10.473395   -703.63346    4324.7864   -3652.5731    2510.5368   -1530.1397   -1132.0856    77.088189 
   22900    188.68519   -111.01967   0.17072632   -110.84894   -3761.1602    4.2553197    4.2553197    4.2553197   -3761.1602    397.26135   -1207.5779   -10473.164   -870.27105    1950.0344    2632.8388    77.054248 
   23000    349.08588   -111.16331   0.31586024   -110.84745    538.35382    4.2543008    4.2543008    4.2543008    538.35382    1863.8482   -3269.6871    3020.9004    206.97568   -2442.8904    1813.0465    76.998913 
   23100    374.15343   -111.18518   0.33854189   -110.84664    1157.0916     4.255053     4.255053     4.255053    1157.0916    6492.5804   -2417.6834   -603.62235    1192.7985   -727.63131    207.97348    77.039761 
   23200    172.27899   -111.00478   0.15588165    -110.8489   -2217.3018    4.2555052    4.2555052    4.2555052   -2217.3018    5791.9468   -1721.1285   -10722.724    991.97342   -1927.2577   -1744.2997    77.064324 
   23300    230.28616   -111.05667   0.20836776   -110.84831   -3442.1652     4.255938     4.255938     4.255938   -3442.1652    7790.0274   -9955.9331   -8160.5898    236.24045   -1424.7178   -667.21672    77.087842 
   23400     379.0718     -111.189   0.34299213     -110.846    2045.0491    4.2556385    4.2556385    4.2556385    2045.0491    10415.262   -13471.434    9191.3191   -2482.0385    2303.3096    1138.7444    77.071566 
   23500    328.09803    -111.1445   0.29686999   -110.84763   -190.53031    4.2528847    4.2528847    4.2528847   -190.53031    5706.9867   -3543.9577   -2734.6199    608.35307   -2937.1001   -1248.0459    76.922044 
   23600    122.92851   -110.96112    0.1112283    -110.8499   -2905.7788    4.2571092    4.2571092    4.2571092   -2905.7788   -2509.8936   -6767.2034    559.76051    120.40699    915.87494   -89.515953      77.1515 
   23700    321.84068   -111.13887   0.29120821   -110.84766   -3146.4544    4.2558458    4.2558458    4.2558458   -3146.4544    6002.9325   -12850.014   -2592.2817   -1197.3752     822.9204   -94.570273    77.082831 
   23800    370.15289   -111.18042   0.33492211    -110.8455    4159.8224    4.2535149    4.2535149    4.2535149    4159.8224    10373.298    -6030.303    8136.4725   -368.57611   -1337.5639    400.55351    76.956246 
   23900     206.4743   -111.03505   0.18682228   -110.84822   -2229.5197      4.25686      4.25686      4.25686   -2229.5197    7385.0434    -6505.709   -7567.8934    2516.9202    543.00584    785.95797    77.137951 
   24000    104.12887   -110.94388  0.094217993   -110.84966    365.29058    4.2548121    4.2548121    4.2548121    365.29058    11452.189   -2772.0945   -7584.2224    2531.6249    453.86481   -689.76668    77.026674 
   24100    371.47311    -111.1831   0.33611668   -110.84698    86.271462    4.2540702    4.2540702    4.2540702    86.271462    6093.9307   -4938.7245   -896.39184   -180.56998    1619.8149    1173.3752    76.986393 
   24200    339.57131   -111.15444   0.30725126   -110.84719   -1.1696488    4.2569693    4.2569693    4.2569693   -1.1696488    2129.5285   -5318.7384    3185.7009    1257.1311     287.4022   -3332.9366    77.143894 
   24300    150.32324   -110.98616   0.13601563   -110.85014   -2392.1619     4.253532     4.253532     4.253532   -2392.1619   -97.188175    423.76894   -7503.0665    830.75407    -2002.792   -2745.8692    76.957176 
   24400    255.04387   -111.08003   0.23076905   -110.84926   -3288.6836     4.255767     4.255767     4.255767   -3288.6836   -3874.6163   -1585.0866    -4406.348   -218.44962   -1278.0524    186.92832    77.078551 
   24500    413.16951   -111.22033   0.37384446   -110.84649    1234.8262    4.2572844    4.2572844    4.2572844    1234.8262    9729.7595   -7454.6251    1429.3441   -1652.0523   -277.79765    6.9652544    77.161023 
   24600    323.19856   -111.14099   0.29243685   -110.84856    1422.6024    4.2519695    4.2519695    4.2519695    1422.6024    10176.439   -2649.9971   -3258.6349   -241.60442   -1890.4256    -84.12097    76.872399 
   24700    151.86364   -110.98772   0.13740941   -110.85031   -646.08806    4.2565357    4.2565357    4.2565357   -646.08806      2917.34   -2946.2465   -1909.3577    584.79445    1369.8853   -1789.2388    77.120325 
   24800     392.4071   -111.20242   0.35505819   -110.84737   -2011.4682    4.2565044    4.2565044    4.2565044   -2011.4682    5603.3996   -5400.7078   -6237.0963    -1131.788    2452.8406    2244.8102    77.118621 
   24900    461.42819    -111.2629   0.41750992   -110.84539    3080.1711    4.2534641    4.2534641    4.2534641    3080.1711    5530.3191   -4656.3898     8366.584    1946.9512   -149.82589    1363.2665    76.953488 
   25000    320.45845   -111.13846   0.28995754    -110.8485   -2957.2143    4.2557773    4.2557773    4.2557773   -2957.2143   -478.30796   -4617.8963   -3775.4388     3746.572   -199.58782   -445.25165    77.079106 
   25100    208.46626   -111.03819   0.18862465   -110.84957    1039.2247    4.2564425    4.2564425    4.2564425    1039.2247    8926.5814   -266.03255   -5542.8746    1328.0959   -234.29711   -439.23689    77.115255 
   25200    457.27062   -111.26077   0.41374807   -110.84702    2192.4114     4.252923     4.252923     4.252923    2192.4114    11388.446   -1440.5452   -3370.6665   -1416.1273   -77.452671   -3058.0749    76.924126 
   25300    381.05113   -111.19216   0.34478307   -110.84738    2420.3757    4.2572608    4.2572608    4.2572608    2420.3757    9849.0554   -2152.0624   -435.86595    337.20737   -1025.7435    357.82488    77.159741 
   25400    245.59482   -111.07153   0.22221935   -110.84931   -2805.0979    4.2543897    4.2543897    4.2543897   -2805.0979    7139.1542    288.45677   -15842.905    1507.9373   -1317.0967   -601.08606    77.003738 
   25500     278.2814   -111.10117   0.25179486   -110.84938   -1136.6995     4.252752     4.252752     4.252752   -1136.6995   -8773.1425    8285.9791   -2922.9352    156.72782    443.66061    331.36665    76.914846 
   25600      462.988   -111.26547   0.41892127   -110.84655   -5386.0323    4.2588599    4.2588599    4.2588599   -5386.0323   -3383.2512   -4635.7715   -8139.0741   -3224.3917    926.34024   -233.42589    77.246724 
   25700    335.03411   -111.15069    0.3031459   -110.84754   -1938.9196    4.2537875    4.2537875    4.2537875   -1938.9196    360.58241   -2281.9932   -3895.3479   -538.33144   -3649.8527    -2090.625    76.971043 
   25800    202.25143   -111.03206   0.18300135   -110.84906    440.16007    4.2532352    4.2532352    4.2532352    440.16007    995.39464    1876.9977   -1551.9121    5157.9901   -1756.7386    2554.9794    76.941066 
   25900     316.5787    -111.1343   0.28644706   -110.84785    1397.7139    4.2573283    4.2573283    4.2573283    1397.7139    11019.274   -1818.2832   -5007.8493    1219.7598   -1052.8886    246.27626    77.163411 
   26000    381.49877   -111.19165   0.34518811   -110.84647    4325.5278    4.2530957    4.2530957    4.2530957    4325.5278    14323.416   -6939.7121    5592.8793   -13.829551    684.63946    147.42804    76.933496 
   26100    297.88524   -111.11794   0.26953283    -110.8484   -523.15054     4.255411     4.255411     4.255411   -523.15054    10780.717   -11190.622   -1159.5465   -472.75974   -2254.0891   -1796.5927    77.059206 
   26200    257.92066   -111.08202   0.23337203   -110.84865   -2924.5728    4.2572796    4.2572796    4.2572796   -2924.5728    4142.5712   -5470.9024   -7445.3872    655.16313    2408.6647    -871.6351    77.160762 
   26300    374.38252   -111.18529   0.33874917   -110.84654   -1120.4045    4.2529649    4.2529649    4.2529649   -1120.4045    349.52093   -2473.4231   -1237.3113   -566.68596    3656.8142    2009.7733    76.926395 
   26400    324.74917   -111.14022   0.29383987   -110.84638   -2896.1191    4.2571976    4.2571976    4.2571976   -2896.1191    6789.5292   -17076.076    1598.1894   -4490.6578   -2254.8772   -834.08693    77.156304 
   26500    230.93145   -111.05625   0.20895163    -110.8473   -4286.2739    4.2565394    4.2565394    4.2565394   -4286.2739    12119.674   -11302.319   -13676.176    71.957063    -167.1802    317.78642    77.120522 
   26600    184.84443    -111.0151   0.16725112   -110.84785    2020.9496    4.2533102    4.2533102    4.2533102    2020.9496    5661.7364    4.5641997    396.54827   -1030.6964   -3614.6851   -1006.9428    76.945134 
   26700    306.92825   -111.12435   0.27771513   -110.84663   -1632.4569    4.2564354    4.2564354    4.2564354   -1632.4569    8735.1169   -9444.3149   -4188.1728    -729.1373    1262.5297   -42.605062    77.114869 
   26800      239.069   -111.06302   0.21631465   -110.84671    126.12484    4.2562714    4.2562714    4.2562714    126.12484    8021.3011   -7546.4011   -96.525493    1962.1276    -3469.561    1273.7908    77.105958 
   26900    277.51182   -111.09786   0.25109853   -110.84676    -4850.984    4.2542951    4.2542951    4.2542951    -4850.984    -3765.973   -5890.1213   -4896.8576    1303.1532   -3061.0207   -977.54425    76.998601 
   27000     249.4672   -111.07283   0.22572317    -110.8471    150.00609    4.2568808    4.2568808    4.2568808    150.00609    5747.7844   -3802.8727   -1494.8934   -123.97826    4282.7951    1239.6553    77.139084 
   27100    311.77702   -111.12856    0.2821024   -110.84646    2798.4988    4.2540282    4.2540282    4.2540282    2798.4988    8532.4238     -1009.74    872.81272    -3810.716    433.63847   -1430.1603    76.984111 
   27200    261.48793   -111.08362   0.23659978   -110.84702    3843.7032    4.2539968    4.2539968    4.2539968    3843.7032    14972.684   -11408.815    7967.2408   -3114.7875   -991.39577   -1219.2874    76.982407 
   27300    219.05931   -111.04578   0.19820947   -110.84757     475.6039    4.2568428    4.2568428    4.2568428     475.6039    13138.252   -7173.3077   -4538.1328    583.62994   -1896.5111    1153.2219    77.137015 
   27400    247.77888   -111.07149   0.22419554    -110.8473    1485.5321    4.2535731    4.2535731    4.2535731    1485.5321    3045.7463    -4750.357    6161.2069   -2821.7286    3286.2415   -122.41305    76.959407 
   27500    274.64793   -111.09556   0.24850722   -110.84706    1117.7978    4.2547969    4.2547969    4.2547969    1117.7978    6470.3034   -12179.593    9062.6827   -5092.1578   -584.78723    765.54755    77.025848 
   27600    315.86633   -111.13259    0.2858025   -110.84679   -5505.2506    4.2561261    4.2561261    4.2561261   -5505.2506   -2487.7521    -11502.96   -2525.0396    852.19087   -2353.7906   -2011.3478    77.098063 
   27700    265.64406   -111.08773   0.24036033   -110.84737   -5432.7305    4.2542275    4.2542275    4.2542275   -5432.7305   -10744.793   -3129.3361   -2424.0623    942.13908    803.89117   -79.440242    76.994931 
   27800    325.75868   -111.14188    0.2947533   -110.84712   -7776.9087    4.2562002    4.2562002    4.2562002   -7776.9087   -5132.3321   -12844.629   -5353.7654   -995.85969    2982.6823     1589.267    77.102086 
   27900     283.5003   -111.10397   0.25651703   -110.84745    2193.1421    4.2541656    4.2541656    4.2541656    2193.1421     11758.11    -7446.104    2267.4205   -3007.9055   -1996.8473   -743.57281    76.991572 
   28000    349.95617   -111.16381    0.3166477   -110.84716   -1624.0876    4.2542089    4.2542089    4.2542089   -1624.0876    87.872835   -2498.7048    -2461.431   -1575.4714   -3931.5631    923.96482    76.993919 
   28100    235.74156   -111.06158   0.21330392   -110.84828    3373.6499    4.2559554    4.2559554    4.2559554    3373.6499    12356.634   -3654.5129    1418.8292   -1238.0959    365.11563   -2809.0945    77.088787 
   28200    351.14108   -111.16491   0.31771983   -110.84719    572.30341    4.2546514    4.2546514    4.2546514    572.30341    4973.1887   -4902.9799    1646.7014   -5263.3097    2020.1953   -934.62828    77.017951 
   28300    321.41667   -111.13759   0.29082456   -110.84676    5569.6162    4.2547061    4.2547061    4.2547061    5569.6162    4302.5246    1735.5968    10670.727    1187.9491   -1734.8594    398.37068    77.020921 
   28400    400.73359   -111.20909   0.36259217    -110.8465   -1988.9835    4.2546086    4.2546086    4.2546086   -1988.9835    423.02392    -1012.128   -5377.8463    1081.0516   -1267.4651   -576.68028    77.015627 
   28500    307.21649   -111.12546   0.27797593   -110.84748    1828.9613    4.2544844    4.2544844    4.2544844    1828.9613   -3750.5731     6437.112    2800.3451   -1499.1537    6103.8994   -111.59556     77.00888 
   28600    364.93877   -111.17764   0.33020427   -110.84744   -1254.1101    4.2562993    4.2562993    4.2562993   -1254.1101    -1189.109   -5564.5594     2991.338   -78.444071    112.46821   -2867.0608    77.107475 
   28700    357.92324   -111.17096   0.32385647    -110.8471    1021.1147    4.2549958    4.2549958    4.2549958    1021.1147    7976.7232   -5249.6432    336.26421    1398.6091    -2593.867      2448.99    77.036652 
   28800    286.35386    -111.1067   0.25909899    -110.8476    3372.7081    4.2542571    4.2542571    4.2542571    3372.7081    1221.1029    9026.6908   -129.66932    2189.0257   -3209.4925    2598.7497    76.996538 
   28900    335.43666   -111.15062   0.30351014   -110.84711    -1143.905    4.2556803    4.2556803    4.2556803    -1143.905    5731.7335   -5532.2209   -3631.2276   -4259.8374     1103.538   -1370.9691    77.073837 
   29000     322.9167   -111.13917   0.29218181   -110.84699   -202.08826    4.2551147    4.2551147    4.2551147   -202.08826    7467.5916   -8694.0744    620.21807   -4531.7878   -228.16123   -1198.3349    77.043109 
   29100    373.41085    -111.1846   0.33786999   -110.84673   -5618.2886    4.2555974    4.2555974    4.2555974   -5618.2886   -8693.5245   -2458.9875   -5702.3538    936.47821   -6326.8564   -1722.8826    77.069332 
   29200    298.37946   -111.11707      0.26998   -110.84709   -539.07554    4.2550673    4.2550673    4.2550673   -539.07554   -1595.9452   -809.73974    788.45833    1060.0943    1981.3619    2111.5813    77.040537 
   29300    366.42061   -111.17786   0.33154507   -110.84632   -3798.8684    4.2551256    4.2551256    4.2551256   -3798.8684    85.651076   -6121.6354   -5360.6209   -2621.6892    4426.5839   -930.32358    77.043703 
   29400    298.18424   -111.11645   0.26980336   -110.84664    1149.7838    4.2553161    4.2553161    4.2553161    1149.7838    2694.6534   -9378.4698    10133.168    994.36121   -2237.4476   -1154.0988     77.05405 
   29500    294.10448   -111.11325   0.26611192   -110.84714   -1376.5573    4.2559914    4.2559914    4.2559914   -1376.5573    5242.5867   -5651.6317   -3720.6269    3769.0549   -3969.4248    748.48217    77.090742 
   29600    224.84097   -111.05125   0.20344083   -110.84781    5914.0956    4.2532778    4.2532778    4.2532778    5914.0956    9427.7777   -241.27434    8555.7833    1558.7483    1407.8946    -60.06044    76.943377 
   29700    316.32964   -111.13349   0.28622171   -110.84727    -54.67796    4.2551797    4.2551797    4.2551797    -54.67796    5689.5926   -7407.7779    1554.1515   -434.21389    947.81851    273.46765     77.04664 
   29800     251.3779   -111.07484   0.22745201   -110.84739   -757.68798    4.2563323    4.2563323    4.2563323   -757.68798     6092.594   -12053.786     3688.128    1855.1366   -4115.1843   -2427.5011    77.109269 
   29900    292.54956   -111.11175   0.26470499   -110.84705   -4041.5264    4.2537386    4.2537386    4.2537386   -4041.5264   -7663.1528   -2345.5398   -2115.8866    703.70831   -3189.0741    30.564487    76.968387 
   30000    279.41011   -111.09955   0.25281614   -110.84673   -2340.2099    4.2559147    4.2559147    4.2559147   -2340.2099   -5151.0333   -772.99336   -1096.6031   -2757.2457    4459.7639    -2412.477    77.086573 
   30100    318.41061   -111.13443   0.28810461   -110.84632   -4185.9239    4.2551311    4.2551311    4.2551311   -4185.9239    3496.5127   -15753.562   -300.72268    583.26556    1560.3229   -2937.9017    77.044001 
   30200    256.43099   -111.07906   0.23202415   -110.84703   -2687.6055    4.2543614    4.2543614    4.2543614   -2687.6055   -1660.3158   -5307.4437    -1095.057    1891.1865   -8428.7142    922.84205    77.002204 
   30300    206.35493   -111.03432   0.18671428   -110.84761    2137.3936    4.2563568    4.2563568    4.2563568    2137.3936    3843.6628   -1111.6922    3680.2104    1190.2078   -1125.9264    504.27828      77.1106 
   30400     309.6676   -111.12655   0.28019375   -110.84636    1539.0509     4.253982     4.253982     4.253982    1539.0509     13764.55   -8291.4162   -855.98092   -970.98127    2908.2775    100.29827    76.981601 
   30500    209.50816   -111.03684   0.18956738   -110.84728    6026.2189    4.2539707    4.2539707    4.2539707    6026.2189    7058.2253   -5057.6274    16078.059    977.02068   -2186.7105   -1063.8926    76.980988 
   30600    285.39751   -111.10572   0.25823367   -110.84748    -4104.821    4.2572264    4.2572264    4.2572264    -4104.821    1804.6542   -9777.0425   -4342.0749     4349.938   -5837.7046    691.08214    77.157869 
   30700     239.6675   -111.06423   0.21685619   -110.84737    3418.0999    4.2539716    4.2539716    4.2539716    3418.0999     1198.107    1557.1174    7499.0753   -13.356098    4457.7588    1327.7732    76.981037 
   30800    371.27265   -111.18223    0.3359353   -110.84629   -3589.4815    4.2544054    4.2544054    4.2544054   -3589.4815   -2757.1926   -5938.4985   -2072.7534   -556.83234    6114.2682   -2747.1825     77.00459 
   30900    244.75606   -111.06883   0.22146043   -110.84737   -1596.7874    4.2567898    4.2567898    4.2567898   -1596.7874    2776.3802   -14448.359    6881.6163     1509.246   -3692.5395   -2429.4494    77.134133 
   31000    283.56536   -111.10383   0.25657589   -110.84725   -4094.6741    4.2543698    4.2543698    4.2543698   -4094.6741   -4193.0342   -4841.3494   -3249.6386    535.83905    -5742.081   -504.84242    77.002657 
   31100     287.3854   -111.10732   0.26003235   -110.84729   -52.052575    4.2556519    4.2556519    4.2556519   -52.052575     1660.641   -3684.5231    1867.7244    125.30284    717.15422   -344.06051    77.072296 
   31200    305.06189   -111.12302   0.27602641   -110.84699   -237.19735    4.2555312    4.2555312    4.2555312   -237.19735    7797.5834   -10219.778    1710.6021   -15.090744     1250.132   -2358.0292    77.065738 
   31300     268.3375   -111.09038   0.24279741   -110.84759   -1729.7507    4.2540981    4.2540981    4.2540981   -1729.7507    2364.8167   -7963.6969    409.62797    4943.9424   -8946.4852   -883.58878    76.987908 
   31400     299.7397   -111.11864   0.27121078   -110.84743   -2657.1698    4.2565893    4.2565893    4.2565893   -2657.1698   -4786.5175   -793.33258   -2391.6593    622.53397   -3098.8291   -370.04533    77.123238 
   31500    392.78212   -111.20163   0.35539752   -110.84623    -1306.949    4.2555118    4.2555118    4.2555118    -1306.949   -123.04354    991.82257    -4789.626    -1333.249    6947.2419   -3039.9525    77.064684 
   31600    339.41886   -111.15393   0.30711332   -110.84682    2692.8566    4.2533986    4.2533986    4.2533986    2692.8566    193.41358   -2978.1445    10863.301    3699.5653   -489.62935    -751.3815    76.949937 
   31700    334.83148   -111.15044   0.30296256   -110.84747   -565.95529    4.2553755    4.2553755    4.2553755   -565.95529   -6039.0615    6185.2912   -1844.0956    2155.0891   -6883.3613    1043.0704    77.057278 
   31800    307.01591   -111.12485   0.27779444   -110.84706    3939.2826    4.2570667    4.2570667    4.2570667    3939.2826    4925.2478    1354.8552    5537.7448    370.31759   -832.71344   -299.60854    77.149188 
   31900    405.81864   -111.21314   0.36719324   -110.84594     3245.547    4.2529297    4.2529297    4.2529297     3245.547    4785.1337     4440.808    510.69928   -2648.1753    3841.7646   -2373.8157     76.92449 
   32000     247.7339   -111.07186   0.22415484   -110.84771    6785.2326    4.2546095    4.2546095    4.2546095    6785.2326    13630.767    2659.4945    4065.4365   -57.128612   -5177.8474   -2434.4707    77.015671 
   32100    328.81318   -111.14534   0.29751708   -110.84783   -3623.6012     4.256074     4.256074     4.256074   -3623.6012   -442.09124   -1048.0104   -9380.7019    4091.8392    -7987.188    2446.0707    77.095229 
   32200    330.70296   -111.14662   0.29922699   -110.84739   -516.58161    4.2534167    4.2534167    4.2534167   -516.58161   -4265.0784    3740.8679   -1025.5343    157.80004    1436.1859   -1881.3156    76.950917 
   32300    387.38849   -111.19762   0.35051724    -110.8471   -6942.1028    4.2567788    4.2567788    4.2567788   -6942.1028   -1919.0879   -8820.2588   -10086.962   -39.687577    6409.7952   -5013.1556    77.133538 
   32400    284.63895   -111.10545    0.2575473    -110.8479   -4678.2274    4.2547159    4.2547159    4.2547159   -4678.2274   -9590.8902   -3766.1934   -677.59866    3515.1772   -8361.5095   -458.37529    77.021453 
   32500     283.2355   -111.10409   0.25627743   -110.84781   -2050.1328    4.2527941    4.2527941    4.2527941   -2050.1328   -11735.286    4626.1545    958.73272    623.51502   -8102.3464   -206.40927     76.91713 
   32600    360.83677   -111.17334   0.32649269   -110.84685   -4550.4845    4.2583159    4.2583159    4.2583159   -4550.4845    224.14558   -7565.7772    -6309.822    1617.0364    3916.4685    268.38077    77.217125 
   32700    256.68772    -111.0797   0.23225644   -110.84744    4103.9156    4.2536222    4.2536222    4.2536222    4103.9156    9713.5635   -3856.3633    6454.5465   -1927.4875   -1343.4145   -3626.0691    76.962073 
   32800    255.89396   -111.07985   0.23153823   -110.84831    2494.9451     4.252699     4.252699     4.252699    2494.9451    5602.7438    6199.9703   -4317.8787    651.63232   -8493.4292    1085.8211    76.911971 
   32900    252.95338   -111.07673   0.22887753   -110.84785    3992.5695    4.2573904    4.2573904    4.2573904    3992.5695    9058.8859    3524.8217   -605.99904    362.77182   -3761.7318    593.50882    77.166788 
   33000    383.55662   -111.19305   0.34705009     -110.846   -1464.5138    4.2542952    4.2542952    4.2542952   -1464.5138    1390.7069   -5066.0156   -718.23253   -2316.9953    5915.1594   -5082.5518    76.998607 
   33100    268.49796   -111.09022    0.2429426   -110.84728   -1681.2454    4.2555473    4.2555473    4.2555473   -1681.2454    1702.4655   -3955.5693   -2790.6325    3590.4629     -1415.73   -98.354689    77.066612 
   33200    259.91425   -111.08253   0.23517587   -110.84736   -1780.7976    4.2562389    4.2562389    4.2562389   -1780.7976   -4338.2668    5507.9009   -6512.0269    1208.8529   -9883.4078   -628.21996    77.104193 
   33300    316.34089     -111.133   0.28623188   -110.84677    890.47086    4.2536691    4.2536691    4.2536691    890.47086    1259.6111   -1268.4927    2680.2941    2207.0553    773.18725    1550.1462    76.964615 
   33400    308.92884   -111.12611   0.27952531   -110.84659   -2409.7707    4.2564149    4.2564149    4.2564149   -2409.7707    10420.529   -10844.192   -6805.6487   -469.28721    2980.9078   -2653.3736    77.113756 
   33500    200.02459   -111.02888   0.18098646    -110.8479    -1866.159     4.257168     4.257168     4.257168    -1866.159    6544.2614   -9403.2183   -2739.5202   -677.15789   -7916.4658   -2869.6863    77.154697 
   33600    213.68905   -111.04081   0.19335035   -110.84746    2680.1467    4.2542027    4.2542027    4.2542027    2680.1467    5237.4516    5921.9823   -3118.9938    1388.2541   -9617.1885    3273.0304    76.993582 
   33700    341.73418   -111.15459   0.30920827   -110.84538     177.4557    4.2555144    4.2555144    4.2555144     177.4557    8250.0717   -5814.2143   -1903.4903   -3728.5933    2500.0234   -4532.8929    77.064824 
   33800    308.40383   -111.12529   0.27905027   -110.84624   -5467.7228     4.257801     4.257801     4.257801   -5467.7228    -2541.111   -8423.3622   -5438.6952   -1263.9387    2096.9113   -2532.0256    77.189117 
   33900    235.28822   -111.06048   0.21289373   -110.84758   -2579.8152    4.2541575    4.2541575    4.2541575   -2579.8152   -9812.5707    1931.5917    141.53355      885.785   -11612.962   -208.81678    76.991132 
   34000    304.67395   -111.12274   0.27567539   -110.84706    662.41345    4.2558238    4.2558238    4.2558238    662.41345    93.615218    9451.3132    -7557.688    2746.5782   -4357.4734   -975.38142    77.081637 
   34100    380.48055   -111.19001   0.34426679   -110.84574   -42.098457    4.2563603    4.2563603    4.2563603   -42.098457    2256.1641    -3337.249    954.78959    2786.1255    4900.8388   -83.720425     77.11079 
   34200    280.77032   -111.10127   0.25404688   -110.84723    -807.4667    4.2547343    4.2547343    4.2547343    -807.4667    3889.3854    1171.0272   -7482.8127     1529.662   -3011.3821    -1091.701    77.022449 
   34300    224.30727   -111.05126   0.20295793    -110.8483     1573.742    4.2571273    4.2571273    4.2571273     1573.742    5566.3711    4466.3387   -5311.4837    2686.4344   -8939.3177    3931.5703    77.152485 
   34400     355.9033   -111.16806   0.32202878   -110.84604    3073.3646    4.2555206    4.2555206    4.2555206    3073.3646    4636.9233    6657.3328   -2074.1623   -401.62238   -1329.6536   -658.13362     77.06516 
   34500    385.08988   -111.19388   0.34843742   -110.84544    346.51955    4.2541026    4.2541026    4.2541026    346.51955    5070.9488    964.35483   -4995.7449   -2915.0502     1906.278    -4871.196    76.988149 
   34600    264.97646   -111.08754   0.23975627   -110.84779   -3514.6464    4.2576771    4.2576771    4.2576771   -3514.6464   -13075.414    6205.8256   -3674.3507   -396.61737   -8648.0446   -1895.1687    77.182379 
   34700    267.64456   -111.09024   0.24217043   -110.84807    795.79448    4.2551082    4.2551082    4.2551082    795.79448   -11314.497    13458.886    242.99426   -22.753004    -7900.679     834.9528    77.042761 
   34800    395.38286    -111.2041   0.35775072   -110.84635    151.56132    4.2542425    4.2542425    4.2542425    151.56132   -3514.1227    6627.7633   -2658.9567    1487.3936    4343.9485   -2070.8496    76.995743 
   34900    324.96301   -111.14107   0.29403336   -110.84704   -3716.7121    4.2582973    4.2582973    4.2582973   -3716.7121   -7976.1599    5415.8604   -8589.8367    845.43383   -817.69459   -4820.8866    77.216115 
   35000    237.97719   -111.06324   0.21532676   -110.84791   -2547.5358    4.2546647    4.2546647    4.2546647   -2547.5358    -8301.012    5184.7921   -4526.3876    2577.2919   -10319.247   -18.577229    77.018672 
   35100    284.01587   -111.10449   0.25698352   -110.84751    112.69481    4.2561724    4.2561724    4.2561724    112.69481    6555.4379    1043.9339   -7261.2874    4220.8532   -2549.0129    1696.1239    77.100575 
   35200    396.70292   -111.20507   0.35894514   -110.84613    283.84718    4.2554433    4.2554433    4.2554433    283.84718    3650.0904    4258.9982   -7057.5471   -2737.9342     1669.963   -1215.5167    77.060959 
   35300    286.31938   -111.10714    0.2590678   -110.84807    27.397969    4.2548239    4.2548239    4.2548239    27.397969   -444.95967       7715.7   -7188.5464   -1233.0496   -5259.3345   -1068.2194    77.027319 
   35400    227.49546   -111.05505   0.20584268   -110.84921    1320.3389    4.2562493    4.2562493    4.2562493    1320.3389   -11166.447    18214.237   -3086.7732   -1203.9853   -10979.694   -834.53758    77.104759 
   35500    312.19644   -111.12979    0.2824819   -110.84731    3697.6868    4.2555137    4.2555137    4.2555137    3697.6868   -5558.3414    15027.663    1623.7383    2618.6941    -373.9708   -1804.0309    77.064788 
   35600    341.03217   -111.15465   0.30857307   -110.84607      2158.71    4.2541259    4.2541259    4.2541259      2158.71   -6460.9591     13049.02   -111.93135    488.29863    1229.2286   -4139.8208    76.989416 
   35700    249.79085   -111.07347   0.22601601   -110.84745   -3008.1832    4.2574484    4.2574484    4.2574484   -3008.1832   -13491.279    13154.231   -8687.5017   -1289.9366   -8212.6965    -346.9037    77.169944 
   35800    261.82979   -111.08476    0.2369091   -110.84786   -4102.1944    4.2553366    4.2553366    4.2553366   -4102.1944   -10560.779   -4168.3899    2422.5854    6815.7961   -2899.7744    2054.5255    77.055165 
   35900    330.90987   -111.14632   0.29941421   -110.84691   -1187.8504    4.2542305    4.2542305    4.2542305   -1187.8504    4649.6907   -6036.8341   -2176.4078   -362.36887    3385.1732   -2331.2772    76.995093 
   36000    296.32644   -111.11533   0.26812239    -110.8472   -2671.3775    4.2574429    4.2574429    4.2574429   -2671.3775   -683.30695    4679.0935   -12009.919    194.62087   -2906.4716   -2007.5853    77.169643 
   36100    214.56462   -111.04212   0.19414257   -110.84798   -1697.2126    4.2554593    4.2554593    4.2554593   -1697.2126   -7480.1589    11139.944   -8751.4233   -4446.8368   -9478.0111    115.05472    77.061831 
   36200    269.75675   -111.09175   0.24408157   -110.84767    2261.7576    4.2559464    4.2559464    4.2559464    2261.7576    179.10803     5254.748    1351.4167    1217.4393   -3062.4382    1679.3891    77.088298 
   36300    290.93714   -111.11005   0.26324604   -110.84681    4523.8222     4.256225     4.256225     4.256225    4523.8222   -3302.3376    18235.261   -1361.4564     1635.443    2138.3185   -4817.3912    77.103435 
   36400    274.23442    -111.0952   0.24813306   -110.84707    1299.0904    4.2544306    4.2544306    4.2544306    1299.0904   -4664.3212    5484.3697    3077.2227   -2405.9659   -7916.6603   -5473.2961    77.005957 
   36500    276.80105   -111.09736   0.25045541    -110.8469   -3808.4086    4.2589772    4.2589772    4.2589772   -3808.4086   -13993.956    1727.6709    841.05897    3831.1936   -8044.0798    1577.8414    77.253108 
   36600    367.08066   -111.17823    0.3321423   -110.84609   -965.33752    4.2547686    4.2547686    4.2547686   -965.33752   -4671.1537   -5303.3002    7078.4413    2719.9662    2959.7227    790.08874    77.024312 
   36700    301.68755   -111.12008   0.27297324    -110.8471    1262.1099    4.2544619    4.2544619    4.2544619    1262.1099   -3249.3312     6710.806     324.8549    3704.1331    8.3865145    2349.8869    77.007657 
   36800    274.54142   -111.09597   0.24841084   -110.84756   -5931.5779    4.2587752    4.2587752    4.2587752   -5931.5779   -9334.6236    6154.7891   -14614.899   -2500.1451   -5952.2892   -990.60895    77.242113 
   36900      300.842   -111.11872   0.27220816   -110.84651   -955.03912    4.2558108    4.2558108    4.2558108   -955.03912   -5949.9918    5594.4846   -2509.6101    2160.5789   -3308.3331    1335.9062    77.080927 
   37000    336.44662   -111.15062   0.30442397   -110.84619    1051.3242    4.2560109    4.2560109    4.2560109    1051.3242   -2190.6451    6588.2317   -1243.6141    2076.4138    341.76517   -66.583521      77.0918 
   37100    268.06236   -111.08997   0.24254845   -110.84742    1961.4793    4.2550073    4.2550073    4.2550073    1961.4793    1527.5064    6832.1098   -2475.1784   -2783.0091   -7531.6135    -6752.319    77.037278 
   37200     265.1079   -111.08754    0.2398752   -110.84766    226.62176    4.2557917    4.2557917    4.2557917    226.62176   -8797.8117    2163.2092    7314.4678    676.17322   -9396.3106   -369.27185    77.079892 
   37300     402.6186   -111.21048   0.36429777   -110.84619   -1221.4118    4.2567671    4.2567671    4.2567671   -1221.4118   -2842.9739   -8044.7012    7223.4396    2060.7894    1261.4478   -1560.9981      77.1329 
   37400    297.48386   -111.11648   0.26916965   -110.84731    5681.3552    4.2555578    4.2555578    4.2555578    5681.3552   -682.37871     12076.12    5650.3245     3027.781   -528.61025    876.00225    77.067184 
   37500    323.62401   -111.14044   0.29282181   -110.84762    -859.7466    4.2537258    4.2537258    4.2537258    -859.7466    -8734.584    7077.8848   -922.54062   -691.57196   -9751.7544     847.0212    76.967693 
   37600    296.50799   -111.11576   0.26828666   -110.84747    1502.2849    4.2566963    4.2566963    4.2566963    1502.2849   -2698.2323    16843.247   -9638.1602    2415.4964   -3915.5706    266.21974    77.129051 
   37700    451.35764   -111.25385   0.40839788   -110.84545   -4831.6892     4.257654     4.257654     4.257654   -4831.6892   -8950.2726    1906.3462   -7451.1412    2619.6101     4192.502    3327.7194    77.181123 
   37800    265.65074    -111.0877   0.24036638   -110.84733    2765.4207     4.253217     4.253217     4.253217    2765.4207   -2581.8348    12441.298   -1563.2017    979.17335   -3158.6422   -5480.8738    76.940077 
   37900    284.97241   -111.10575   0.25784903    -110.8479   -2982.3552    4.2558041    4.2558041    4.2558041   -2982.3552   -10320.968    6038.7039   -4664.8018   -487.50119   -11945.838   -2039.5986    77.080566 
   38000    352.97794   -111.16614   0.31938185   -110.84676   -1302.4079    4.2571605    4.2571605    4.2571605   -1302.4079   -10907.343   -1533.5517    8533.6712    1329.4926   -1870.6538    -563.7127     77.15429 
   38100    341.25673   -111.15516   0.30877626   -110.84638    795.21104     4.253859     4.253859     4.253859    795.21104   -6018.6377    345.04177    8059.2291    4552.2473     827.8318    774.39619    76.974925 
   38200    249.46022   -111.07396   0.22571685   -110.84825    -2506.243    4.2569514    4.2569514    4.2569514    -2506.243   -11690.834    5180.1952   -1008.0907   -946.87153   -9136.6801    2274.0026    77.142919 
   38300    257.90972   -111.08138   0.23336214   -110.84802    1553.6751    4.2548753    4.2548753    4.2548753    1553.6751   -10855.896    16592.771     -1075.85    2225.1436   -7173.5986   -2493.1809    77.030109 
   38400    433.88654    -111.2378   0.39258966   -110.84521   -1601.9037    4.2545622    4.2545622    4.2545622   -1601.9037   -3311.1044    3056.9887   -4551.5956    5537.0417    2414.2183     3847.419    77.013106 
   38500    299.13525   -111.11766   0.27066386     -110.847   -2584.8439    4.2587932    4.2587932    4.2587932   -2584.8439   -6625.3984    8645.4591   -9774.5924    909.57896   -1633.2481     -447.777    77.243095 
   38600    241.61097   -111.06673   0.21861468   -110.84812   -1544.7648    4.2529302    4.2529302    4.2529302   -1544.7648   -1184.5334    2283.4475   -5733.2085   -668.12384   -10258.887   -3108.5885    76.924512 
   38700    296.01245   -111.11537   0.26783828   -110.84753    3569.9975    4.2544305    4.2544305    4.2544305    3569.9975   -5276.3184    15564.752    421.55858   -1088.1487   -2062.4534   -344.25542    77.005954 
   38800    383.33062   -111.19247    0.3468456   -110.84562    -1236.864    4.2587572    4.2587572    4.2587572    -1236.864    3092.4374   -7862.9715    1059.9422    762.52963    3913.9885   -2837.6912    77.241135 
   38900    213.20453   -111.04027   0.19291194   -110.84736   -737.55263    4.2539015    4.2539015    4.2539015   -737.55263   -4731.7491     742.7658    1776.3254   -475.94412   -6211.2862    2569.4102    76.977233 
   39000     203.0495   -111.03229   0.18372346   -110.84857   -724.63099    4.2549434    4.2549434    4.2549434   -724.63099   -3893.2093    5528.4814   -3809.1651   -2183.4669   -10498.822   -1859.1913    77.033805 
   39100    334.54015   -111.14914   0.30269895   -110.84644    3806.7048    4.2560299    4.2560299    4.2560299    3806.7048     1972.581    10194.334   -746.80017    2883.7739    -508.9292    2158.2343    77.092835 
   39200    355.90059   -111.16803   0.32202633   -110.84601   -1811.1332    4.2543558    4.2543558    4.2543558   -1811.1332    1482.3338   -2895.1277   -4020.6056    4412.4042   -4.0363555    4305.4501    77.001895 
   39300    176.73171    -111.0087   0.15991057   -110.84879    -5900.265    4.2569931    4.2569931    4.2569931    -5900.265    -1413.933   -2860.3367   -13426.525   -416.86323   -10633.203   -3614.7072    77.145186 
   39400    241.52852   -111.06645   0.21854008   -110.84791   -1021.2027    4.2557257    4.2557257    4.2557257   -1021.2027   -3494.8967    5528.7462   -5097.4576    1681.2249   -4866.5678   -1530.1049    77.076306 
   39500    379.77617   -111.18903   0.34362946    -110.8454    4012.5588    4.2526138    4.2526138    4.2526138    4012.5588    6024.7106    2199.7521    3813.2136   -599.86753    3608.3637   -2092.8971    76.907347 
   39600    281.88498   -111.10215   0.25505545    -110.8471   -4579.1536    4.2571168    4.2571168    4.2571168   -4579.1536   -5279.9812   -6841.6685    -1615.811   -20.576162   -3284.7863    166.31206    77.151914 
   39700    159.79097    -110.9936   0.14458223   -110.84902   -5905.3086    4.2564121    4.2564121    4.2564121   -5905.3086   -7308.7817    -6475.831   -3931.3131   -1030.5254   -10503.182   -1804.1796    77.113608 
   39800    284.71746   -111.10556   0.25761834   -110.84794    4860.0028    4.2522558    4.2522558    4.2522558    4860.0028   -250.36485    11005.542    3824.8316   -1930.5632   -1591.1634   -3657.6311    76.887924 
   39900    386.38197    -111.1957   0.34960652   -110.84609     2823.957    4.2559537    4.2559537    4.2559537     2823.957    7006.6009   -935.14244    2400.4126    4969.6061    2817.0011    4956.8068    77.088695 
   40000    191.08823   -111.02154   0.17290064   -110.84864   -3363.9745    4.2563856    4.2563856    4.2563856   -3363.9745    1800.8838   -2407.7447   -9485.0626   -1510.5693   -9785.1567    794.17938    77.112166 
   40100    182.37467   -111.01375   0.16501644   -110.84873     -1963.68    4.2539536    4.2539536    4.2539536     -1963.68     3207.768     949.3588   -10048.167    1529.5926   -10715.113   -342.79584    76.980062 
   40200    353.52457   -111.16648   0.31987646    -110.8466    3281.3819    4.2560967    4.2560967    4.2560967    3281.3819    8058.6591     6317.236   -4531.7494   -406.46523    1853.2312   -746.52674    77.096464 
   40300    377.61034   -111.18832   0.34166977   -110.84665   -1209.6781    4.2538385    4.2538385    4.2538385   -1209.6781    4270.7413   -2252.1745   -5647.6011    857.05072    444.68627   -1414.2713    76.973812 
   40400    177.38745   -111.00983    0.1605039   -110.84933   -5795.4971    4.2548014    4.2548014    4.2548014   -5795.4971   -3290.0397   -2251.7689   -11844.683    862.24061   -11658.902    371.95542    77.026093 
   40500    332.28194   -111.14854   0.30065568   -110.84789   -9414.1177    4.2597114    4.2597114    4.2597114   -9414.1177   -9507.8835   -8443.4159   -10291.054   -4367.3811   -5328.7723   -5684.1887    77.293064 
   40600    381.34174   -111.19046   0.34504602   -110.84541    6361.6199    4.2522177    4.2522177    4.2522177    6361.6199    8349.8358     7161.078     3573.946    3023.1852    2372.7313    1409.2992    76.885859 
   40700    312.60755   -111.12976   0.28285388   -110.84691   -675.93811    4.2539189    4.2539189    4.2539189   -675.93811    2294.6358    272.09767   -4594.5478    997.06878   -5817.3669    2550.3186    76.978178 
   40800     152.6061    -110.9873   0.13808121   -110.84921    57.761343    4.2586037    4.2586037    4.2586037    57.761343    5244.8431    3062.1979   -8133.7569    2031.6498   -10717.038   -1906.7625    77.232785 
   40900    407.85296   -111.21613   0.36903393    -110.8471    386.53557    4.2541251    4.2541251    4.2541251    386.53557    2327.5484    1540.4098   -2708.3515   -1179.9165   -1090.0875    1931.0147    76.989373 
   41000    345.44741   -111.15999   0.31256808   -110.84742    9610.1859    4.2547542    4.2547542    4.2547542    9610.1859    15142.237    10742.759    2945.5618    1555.8785     984.4906    599.48757    77.023531 
   41100    299.77438   -111.11972   0.27124216   -110.84848   -3469.5778    4.2568401    4.2568401    4.2568401   -3469.5778   -4321.8584    1840.6731    -7927.548    956.56762   -7069.9833    1127.1856    77.136869 
   41200    294.84332   -111.11411   0.26678043   -110.84733    110.69418    4.2531159    4.2531159    4.2531159    110.69418    2389.8525    3522.3369   -5580.1069   -2123.3396   -5152.1446   -2201.7706     76.93459 
   41300    432.63202   -111.23723   0.39145454   -110.84577    -1718.326    4.2591262    4.2591262    4.2591262    -1718.326    7186.8408   -6584.8053   -5757.0137   -2486.0402    3284.1167   -3466.4252    77.261212 
   41400    382.18406   -111.19227   0.34580817   -110.84646   -1387.6669    4.2545742    4.2545742    4.2545742   -1387.6669     1231.817     846.1202   -6240.9377   -944.90474   -3318.0773    2181.3187    77.013758 
   41500    234.74066   -111.06088   0.21239828   -110.84848   -144.74829    4.2523397    4.2523397    4.2523397   -144.74829    5285.6438    5082.9834   -10802.872    2602.4862   -12064.126    -2303.912    76.892475 
   41600    405.42694   -111.21363   0.36683881   -110.84679   -8839.0457    4.2602204    4.2602204    4.2602204   -8839.0457   -7841.4549   -5839.1517    -12836.53   -1389.7413   -1778.6305   -769.79219    77.320776 
   41700    357.16463   -111.16898   0.32317006   -110.84581    1728.7945    4.2550373    4.2550373    4.2550373    1728.7945    756.61092    2540.9508    1888.8218    1537.8106    1463.8956    3117.4565    77.038909 
   41800    327.28336   -111.14314   0.29613286   -110.84701   -3301.9067    4.2541078    4.2541078    4.2541078   -3301.9067   -8938.5579    4941.2545   -5908.4165    521.39163   -7505.9373    1633.4488    76.988431 
   41900    182.24959   -111.01415   0.16490326   -110.84924    5570.8735    4.2563539    4.2563539    4.2563539    5570.8735    7055.2024    11865.582   -2208.1635   -894.55228   -6767.1842    1083.9209    77.110444 
   42000     413.5972   -111.22188   0.37423143   -110.84764   -895.75088    4.2545635    4.2545635    4.2545635   -895.75088   -4402.5104   -1124.2149    2839.4726   -3056.3269    3732.1082   -2974.8408    77.013175 
   42100    284.62873    -111.1056   0.25753806   -110.84806    4453.0992    4.2568523    4.2568523    4.2568523    4453.0992    11686.597   -1104.3424     2777.043   -1471.3871    2507.9614    1472.3807    77.137534 
   42200    296.96922   -111.11609   0.26870399   -110.84739   -3370.9464    4.2567388    4.2567388    4.2567388   -3370.9464   -2364.4109   -1123.1997   -6625.2285    299.92164   -8001.2194    182.47979    77.131365 
   42300    298.11667   -111.11602   0.26974223   -110.84628    2319.9161    4.2530225    4.2530225    4.2530225    2319.9161     6670.476    2438.4161   -2149.1437   -2090.7495    -4932.008   -3561.3395    76.929526 
   42400    423.47676   -111.22831   0.38317067   -110.84514   -6152.9395    4.2582544    4.2582544    4.2582544   -6152.9395   -1210.9534   -13109.832   -4138.0336   -1335.2143    2057.6099    396.58318    77.213777 
   42500    282.47689   -111.10267   0.25559102   -110.84708   -3943.3232    4.2566642    4.2566642    4.2566642   -3943.3232   -6196.4899   -4346.2866   -1287.1931    1440.3507      -4014.5    100.91508    77.127308 
   42600     207.9257   -111.03619   0.18813554   -110.84805     738.6376    4.2536754    4.2536754    4.2536754     738.6376    116.24779     4461.863   -2362.1979    851.02232   -9289.9152    2242.8358    76.964959 
   42700    277.40556   -111.09822   0.25100238   -110.84722    1802.0907    4.2565407    4.2565407    4.2565407    1802.0907    2334.5209    1626.7281     1445.023   -4541.4082    249.39214    84.214752    77.120594 
   42800     243.7627    -111.0673   0.22056161   -110.84674    3028.6325    4.2560786    4.2560786    4.2560786    3028.6325    1886.0951     -2284.05    9483.8522   -3176.8603     3766.095    1047.3087    77.095479 
   42900    223.80409   -111.05056   0.20250265   -110.84805   -3013.0859    4.2564409    4.2564409    4.2564409   -3013.0859   -5016.2882   -1300.7836   -2722.1859    -762.2074   -5575.3455    4225.3899    77.115169 
   43000    178.50586   -111.00953   0.16151585   -110.84801    3677.8342    4.2554789    4.2554789    4.2554789    3677.8342     8938.577    6052.3721   -3957.4466     868.8563   -5117.3543   -2067.5708    77.062895 
   43100    381.92172   -111.19083    0.3455708   -110.84526   -2410.7769    4.2546381    4.2546381    4.2546381   -2410.7769   -5476.3981   -1941.9001    185.96759   -3849.8639    1908.6351   -587.44633    77.017228 
   43200    270.37444   -111.09135   0.24464047   -110.84671    -2977.426    4.2565699    4.2565699    4.2565699    -2977.426    4293.9456   -10357.264   -2868.9598     424.0103    542.81444    1107.6457    77.122182 
   43300    271.87343   -111.09357   0.24599679   -110.84757   -7637.8715    4.2562686    4.2562686    4.2562686   -7637.8715    -6433.812   -7242.9534   -9236.8492    1538.5535   -10648.428   -54.682733    77.105806 
   43400    229.22544   -111.05523     0.207408   -110.84782    5135.8358    4.2546229    4.2546229    4.2546229    5135.8358    8617.4084    3198.7572    3591.3419   -676.54927   -3053.1514     390.9664      77.0164 
   43500    353.81766   -111.16618   0.32014165   -110.84604   -232.27899    4.2556475    4.2556475    4.2556475   -232.27899    901.80495   -6295.4196    4696.7777   -2474.5048    4379.2422   -2866.4882    77.072053 
   43600    205.63185   -111.03341   0.18606002   -110.84735    801.31849    4.2554856    4.2554856    4.2554856    801.31849   -4746.5258    836.68676    6313.7945   -2839.9382   -4069.6525    2746.0881    77.063262 
   43700     212.7954   -111.04063   0.19254175   -110.84809   -814.37139    4.2564841    4.2564841    4.2564841   -814.37139   -3910.1156    3199.0304   -1732.0289    164.63066   -8508.4601     2583.779    77.117516 
   43800     302.7539   -111.12028   0.27393809   -110.84634    6161.5744    4.2534247    4.2534247    4.2534247    6161.5744    4213.4948    9533.0749    4738.1535   -4845.2688   -496.66211   -492.38792    76.951348 
   43900    350.02709   -111.16303   0.31671187   -110.84632   -2094.0065    4.2554472    4.2554472    4.2554472   -2094.0065   -6031.9501    -1072.666    822.59657   -513.70578    2112.0798    1579.8896    77.061172 
   44000    265.58345   -111.08839   0.24030548   -110.84809   -6384.1922    4.2565293    4.2565293    4.2565293   -6384.1922   -9769.2905   -1126.4341   -8256.8519    2400.2586   -7831.4455     -23.6221    77.119978 
   44100    284.16628   -111.10473   0.25711962   -110.84761   -1441.7157      4.25557      4.25557      4.25557   -1441.7157    5493.4474   -1290.1147   -8528.4798   -189.67243   -5619.5084    540.14583    77.067842 
   44200     418.8347   -111.22441   0.37897044   -110.84544    499.94726    4.2546334    4.2546334    4.2546334    499.94726   -2563.0596    -824.4518    4887.3532   -3483.3735    1914.2399   -1301.1391    77.016971 
   44300    324.71885    -111.1405   0.29381244   -110.84669   -1818.1885    4.2555116    4.2555116    4.2555116   -1818.1885    3303.9166   -2794.5604   -5963.9218   -1953.2508   -1273.9751    344.18551    77.064673 
   44400    268.59189   -111.09144   0.24302758   -110.84841   -4256.7686    4.2557659    4.2557659    4.2557659   -4256.7686    -9941.222    4005.0613   -6834.1451    2022.6741    -9123.412     2375.064    77.078491 
   44500    319.46424   -111.13731   0.28905796   -110.84825    4648.2389      4.25495      4.25495      4.25495    4648.2389    4617.2785    10327.319   -999.88034   -2415.2788   -1720.2949   -1756.3814    77.034168 
   44600      427.905   -111.23337   0.38717743   -110.84619    1252.3389    4.2552585    4.2552585    4.2552585    1252.3389    -2648.201    4124.0473    2281.1704   -5128.4205      3052.89    1974.9438    77.050923 
   44700    256.24002   -111.07964   0.23185136   -110.84779    2064.6295    4.2541587    4.2541587    4.2541587    2064.6295   -6541.7385    16219.467   -3483.8398   -348.28182   -7518.1882    2834.4318    76.991193 
   44800    301.96276   -111.12081   0.27322225   -110.84759   -3983.7459    4.2572935    4.2572935    4.2572935   -3983.7459   -9053.5897    5933.7415   -8831.3895    2441.5162   -8854.3126    1728.5066    77.161518 
   44900    388.42958   -111.19732   0.35145925   -110.84586    3214.7446    4.2546941    4.2546941    4.2546941    3214.7446    6361.2006     1031.056    2251.9771   -855.28023    2352.5642    -62.93565     77.02027 
   45000    405.83952   -111.21327   0.36721213   -110.84606   -1565.9247    4.2541302    4.2541302    4.2541302   -1565.9247   -5479.6379    253.04086     528.8229   -2103.2052   -59.321559   -3006.3685    76.989649 
   45100    225.16842   -111.05163   0.20373712    -110.8479   -875.39428    4.2559635    4.2559635    4.2559635   -875.39428   -3136.5255    7538.9915   -7028.6489   -1079.6976   -9600.5885    3822.1991    77.089225 
   45200    357.92839   -111.17073   0.32386113   -110.84687   -4869.2455    4.2563816    4.2563816    4.2563816   -4869.2455     799.7287   -6385.8347   -9021.6305   -1403.8374   -3448.5498    236.85887    77.111947 
   45300    392.88649   -111.20111   0.35549195   -110.84562    1979.9366    4.2541977    4.2541977    4.2541977    1979.9366   -1469.3956    231.00434    7178.2011   -3156.8264    3093.4403   -487.37783     76.99331 
   45400    278.79791   -111.09961   0.25226221   -110.84735    972.08653    4.2552624    4.2552624    4.2552624    972.08653    4653.1165    3769.4398   -5506.2967    -403.3347   -2565.4171    2528.1392    77.051136 
   45500    206.23265   -111.03558   0.18660364   -110.84897    824.47118    4.2547311    4.2547311    4.2547311    824.47118   -5549.1078    14694.507   -6671.9853     580.2337    -9037.594    1706.2448    77.022275 
   45600    322.94364   -111.13946   0.29220619   -110.84725    800.30938    4.2556163    4.2556163    4.2556163    800.30938    4802.7985    1328.2037   -3730.0741   -1807.9342   -1529.3835     2877.005    77.070358 
   45700    337.32427   -111.15154   0.30521809   -110.84632   -705.08932    4.2561153    4.2561153    4.2561153   -705.08932   -11.504778   -5243.8359    3140.0727    231.72423    783.04471   -1192.8771    77.097477 
   45800    167.92274   -111.00009   0.15194002   -110.84815    2221.8099    4.2527244    4.2527244    4.2527244    2221.8099    324.07711    10704.207   -4362.8546     1012.975   -11239.173    1656.8802    76.913347 
   45900    259.58903   -111.08248   0.23488161   -110.84759   -4591.1324    4.2565466    4.2565466    4.2565466   -4591.1324   -6691.9775    1597.4982   -8678.9179    1967.0099   -6889.5574     1759.017    77.120918 
   46000    361.91833   -111.17351   0.32747131   -110.84604   -4593.9237    4.2565619    4.2565619    4.2565619   -4593.9237    2266.0615   -14248.814   -1799.0191   -4910.4634    3135.5897   -1375.5468    77.121748 
   46100    292.02293   -111.11138   0.26422849   -110.84715   -2453.1409    4.2534325    4.2534325    4.2534325   -2453.1409   -6406.8952   -4592.9929    3640.4654   -3931.4956   -4521.1915    294.31671    76.951772 
   46200    163.63178   -110.99656   0.14805748    -110.8485    228.02609    4.2558883    4.2558883    4.2558883    228.02609    2052.1845    8539.3671   -9907.4732    730.80758   -9070.8922    1589.9416    77.085141 
   46300     292.3879   -111.11138   0.26455871   -110.84683    -574.7785    4.2553523    4.2553523    4.2553523    -574.7785     4707.393   -4042.5139   -2389.2146    541.49917   -1105.7369    3699.3183     77.05602 
   46400    350.64915   -111.16256   0.31727472   -110.84529    -367.9904    4.2549263    4.2549263    4.2549263    -367.9904   -688.71148   -1563.4099    1148.1502    126.06872    2236.4162   -645.33219    77.032878 
   46500    174.59951   -111.00618   0.15798131    -110.8482    2623.7044    4.2564952    4.2564952    4.2564952    2623.7044    7728.1743    1761.9327   -1618.9939   -1632.4519   -7020.6642    1043.4696    77.118123 
   46600    210.28823   -111.03843   0.19027321   -110.84816    4255.6256    4.2525528    4.2525528    4.2525528    4255.6256    2998.3124    10518.738   -750.17351    724.11846   -8714.4772    3724.9398    76.904038 
   46700    353.18255    -111.1657   0.31956699   -110.84613    919.60046     4.255427     4.255427     4.255427    919.60046    3242.4373   -2081.3685    1597.7326    146.37632    1970.8994   -439.27162    77.060077 
   46800    366.71926    -111.1787    0.3318153   -110.84689   -5538.1852    4.2575621    4.2575621    4.2575621   -5538.1852   -8436.4128    -7710.441   -467.70193   -2327.9123   -324.71072   -286.63817    77.176124 
   46900    178.59319   -111.01076   0.16159487   -110.84916     926.7611    4.2533448    4.2533448    4.2533448     926.7611   -2427.0004    2995.6142    2211.6695   -2212.7199   -9817.0152    380.34677    76.947015 
   47000    346.12432     -111.161   0.31318056   -110.84782   -4241.3771    4.2555772    4.2555772    4.2555772   -4241.3771   -7169.0357    3102.1298   -8657.2255   -1620.4743   -5735.3969    2612.4639    77.068234 
   47100    402.42983   -111.21007   0.36412697   -110.84594   -1906.4717    4.2561025    4.2561025    4.2561025   -1906.4717   -1618.9191   -5652.8763    1552.3803   -2533.8585    3439.0841   -998.56157    77.096782 
   47200    317.12193   -111.13433   0.28693858   -110.84739   -5165.4984    4.2550606    4.2550606    4.2550606   -5165.4984   -12039.413     620.1292    -4077.211   -484.48863   -7883.1191   -2634.5784    77.040172 
   47300    187.38012   -111.01872   0.16954547   -110.84918    2134.7684    4.2554726    4.2554726    4.2554726    2134.7684    3612.9532    13967.072    -11175.72    1590.9668   -9814.3378    4532.6978    77.062552 
   47400    402.90304   -111.21194   0.36455514   -110.84738    976.35719    4.2541673    4.2541673    4.2541673    976.35719   -708.95065    2100.8845    1537.1377    2821.8313   -250.54883     3011.483     76.99166 
   47500    393.01587    -111.2022   0.35560902   -110.84659    2574.1597    4.2548133    4.2548133    4.2548133    2574.1597   -423.05299    8266.7228   -121.19059   -2026.9042    1005.1161    5.9006564    77.026743 
   47600    257.25249   -111.08112   0.23276746   -110.84836   -1535.7353    4.2577293    4.2577293    4.2577293   -1535.7353   -3940.7612    6878.5307   -7544.9753   -2004.4046   -7006.3971    847.98387    77.185217 
   47700    291.58859   -111.11138   0.26383548   -110.84755    529.93865    4.2543342    4.2543342    4.2543342    529.93865    869.30755    736.35766   -15.849248    1133.6483   -5137.7236    3210.9067    77.000725 
   47800    418.11393   -111.22403   0.37831827   -110.84571    3940.6784    4.2533123    4.2533123    4.2533123    3940.6784     4257.496   -947.44624    8511.9854   -254.48936    3838.6156    3211.2843    76.945251 
   47900    391.58114   -111.20142   0.35431085   -110.84711    -3936.457    4.2571406    4.2571406    4.2571406    -3936.457   -5459.8436   -3635.9408   -2713.5866   -853.01196   -3689.2935   -3748.8233    77.153205 
   48000     188.6435    -111.0199    0.1706886   -110.84921   -706.23578    4.2547276    4.2547276    4.2547276   -706.23578   -3257.9814   -2751.4593    3890.7334   -3765.8199   -10591.123    894.71629    77.022088 
   48100    345.95238   -111.16104   0.31302498   -110.84802   -3845.9474    4.2554105    4.2554105    4.2554105   -3845.9474   -1934.7786   -2542.1444   -7060.9193    2762.9813   -4356.7607    3277.4706    77.059181 
   48200    346.11289   -111.15936   0.31317022   -110.84619    5109.4892    4.2549822    4.2549822    4.2549822    5109.4892    881.59769    2830.8177    11616.052    2219.0779    3288.0523   -1426.6508    77.035915 
   48300    318.31873   -111.13566   0.28802147   -110.84763   -4293.1467    4.2548857    4.2548857    4.2548857   -4293.1467   -9680.6949    4498.1223   -7696.8675   -272.80409   -7702.9767      2067.65    77.030676 
   48400    153.35963   -110.98829   0.13876302   -110.84953   -282.14649    4.2568523    4.2568523    4.2568523   -282.14649   -19.551038    11801.266   -12628.154   -1055.5526   -7940.4132    1806.2565    77.137532 
   48500    385.29823    -111.1952   0.34862594   -110.84657   -1078.2915    4.2542897    4.2542897    4.2542897   -1078.2915   -2646.4466   -1543.0873    954.65951   -480.05703     1507.138    3122.9501    76.998309 
   48600    334.57494   -111.14903   0.30273044    -110.8463     5134.594    4.2540104    4.2540104    4.2540104     5134.594    6899.7298     2684.534    5819.5182    618.02323    1033.0664    -2340.631    76.983144 
   48700    248.31616   -111.07254   0.22468168   -110.84786   -1974.6841    4.2560174    4.2560174    4.2560174   -1974.6841   -998.53514    6085.7353   -11011.253   -1621.3827   -9370.0389   -2415.3634    77.092152 
   48800    229.50088   -111.05619   0.20765722   -110.84853   -3939.3358    4.2565989    4.2565989    4.2565989   -3939.3358   -43.204429    -11973.62     198.8166   -103.75072   -6398.0578    4675.3979    77.123761 
   48900    357.25995   -111.17006   0.32325631    -110.8468    2075.2936    4.2538232    4.2538232    4.2538232    2075.2936    7474.8825   -9426.9017    8177.8999    1571.9582    1587.2362    405.84113    76.972982 
   49000    304.14393   -111.12217   0.27519582   -110.84698    1334.8757    4.2553853    4.2553853    4.2553853    1334.8757    1051.0011    107.20676    2846.4194    768.43908   -4484.7294   -1797.5526    77.057812 
   49100    175.59177   -111.00693   0.15887913   -110.84805   -2296.6434    4.2561912    4.2561912    4.2561912   -2296.6434   -8694.1957   -596.73112    2400.9967   -986.49264   -8590.2367    2225.8225    77.101599 
   49200    300.59232   -111.11879   0.27198225   -110.84681   -5107.2059     4.255631     4.255631     4.255631   -5107.2059   -2027.8804   -4796.2548   -8497.4826    2158.5971   -701.52973    4204.4048    77.071159 
   49300    315.10748   -111.13173   0.28511587   -110.84661    3739.0077     4.255163     4.255163     4.255163    3739.0077   -2410.0035    4045.0109    9582.0158    1512.2074    3118.6048    2118.5407    77.045737 
   49400    285.95668   -111.10648   0.25873961   -110.84774    829.55424     4.254342     4.254342     4.254342    829.55424   -2797.4401    8484.9316   -3198.8287   -1634.4624   -8942.6135   -3641.5793    77.001149 
   49500    211.94165   -111.03983   0.19176926   -110.84806   -2141.3577    4.2561502    4.2561502    4.2561502   -2141.3577   -2058.4199    4617.6699    -8983.323   -2062.6632   -7864.3877    1597.2501    77.099372 
   49600    367.42929   -111.17843   0.33245774   -110.84597   -4338.8083    4.2573023    4.2573023    4.2573023   -4338.8083   -2864.6714   -8513.5143   -1638.2394      1314.49     1832.566    1531.9272    77.161998 
   49700    329.32372   -111.14424   0.29797902   -110.84626    4412.7011     4.254139     4.254139     4.254139    4412.7011    5172.7341   -1571.1234    9636.4926     2540.044   -1413.1383   -2677.7437    76.990124 
   49800    288.11168   -111.10839    0.2606895    -110.8477   -37.858546    4.2545657    4.2545657    4.2545657   -37.858546   -721.28063    7035.5954   -6427.8904   -558.15641   -11153.068    2601.6336    77.013296 
   49900    268.99451   -111.09123   0.24339189   -110.84784   -2458.0137    4.2574984    4.2574984    4.2574984   -2458.0137   -10601.156   -3834.5725     7061.687   -55.168914   -3119.4912    1619.4258     77.17266 
   50000     383.9046   -111.19316   0.34736495   -110.84579    -3196.912    4.2560544    4.2560544    4.2560544    -3196.912   -3922.9962   -3979.8395   -1687.9004    3255.0627    3998.5221    5257.1393    77.094168 
   50100    280.85828   -111.10091   0.25412647   -110.84678    3087.4425    4.2549123    4.2549123    4.2549123    3087.4425    -3327.363    10758.591    1831.1001    1594.7539   -3373.6146   -2192.8337    77.032116 
   50200    267.15123   -111.08902   0.24172405   -110.84729   -1320.9597    4.2553846    4.2553846    4.2553846   -1320.9597   -12105.977    9708.4368   -1565.3388   -2148.2995   -8821.4359   -223.69521    77.057774 
   50300    300.90656   -111.11882   0.27226658   -110.84655   -1272.1123    4.2557835    4.2557835    4.2557835   -1272.1123   -2527.7528    2091.8862   -3380.4704   -2839.0605   -491.68809    6537.1699    77.079442 
   50400    353.97691   -111.16623   0.32028575   -110.84594   -3513.3607    4.2577376    4.2577376    4.2577376   -3513.3607   -7599.1108   -1591.3943   -1349.5771    104.94815    430.77157    -4605.286    77.185668 
   50500    259.46115   -111.08168    0.2347659   -110.84691    1288.6447    4.2552005    4.2552005    4.2552005    1288.6447    703.39862    5228.9336    -2066.398    297.43913   -10525.324   -1412.6904    77.047773 
   50600    299.00347   -111.11729   0.27054463   -110.84674       749.72    4.2541184    4.2541184    4.2541184       749.72    333.90321    1048.0261    867.23071   -1564.8383   -4643.2905    1229.5961    76.989009 
   50700    364.06686    -111.1753   0.32941535   -110.84589   -2010.3418    4.2580445    4.2580445    4.2580445   -2010.3418   -6623.1379   -1143.9485    1736.0608    1929.0306    2317.8468     4417.101    77.202364 
   50800    327.16529   -111.14222   0.29602603    -110.8462   -981.03211    4.2560748    4.2560748    4.2560748   -981.03211   -2666.7987   -2407.6895    2131.3919    3379.8207   -2372.6602    1879.5045    77.095272 
   50900    284.62341   -111.10476   0.25753324   -110.84723    720.71504    4.2545793    4.2545793    4.2545793    720.71504   -27.511452    10887.731   -8698.0741    788.84483   -9470.2717   -3581.4597    77.014035 
   51000    303.36598   -111.12098   0.27449191   -110.84649    2929.2718    4.2559482    4.2559482    4.2559482    2929.2718    -7704.446    4911.2897    11580.972    556.31514   -536.17489    4660.1079    77.088396 
   51100    339.81055   -111.15337   0.30746773    -110.8459   -1196.7024    4.2560791    4.2560791    4.2560791   -1196.7024   -2155.8636    3061.1946   -4495.4383    58.615527    2717.9218    1363.4844    77.095505 
   51200     227.3653   -111.05294    0.2057249   -110.84722    35.940563    4.2565962    4.2565962    4.2565962    35.940563   -1555.1371     2565.154   -902.19529   -554.17163    -8599.639   -2973.5815     77.12361 
   51300    261.14913   -111.08359   0.23629322    -110.8473   -1900.2807    4.2560696    4.2560696    4.2560696   -1900.2807   -2341.8698    226.01236   -3584.9847   -2456.9582   -9321.5326    252.07468    77.094991 
   51400    294.68877   -111.11309   0.26664059   -110.84645    2078.1382    4.2534368    4.2534368    4.2534368    2078.1382    7040.4311   -4771.0713    3965.0549   -2421.2175     534.3028    1508.5724    76.952009 
   51500    299.69935    -111.1177   0.27117427   -110.84653    -4209.587    4.2577825    4.2577825    4.2577825    -4209.587    -3963.406   -4343.4909   -4321.8641    2605.8962    242.71347    2334.8812     77.18811 
   51600    260.64104   -111.08272   0.23583349   -110.84689   -4982.9315    4.2568568    4.2568568    4.2568568   -4982.9315   -1604.2985   -5587.3084   -7757.1876    1157.2411   -8928.6811   -1352.5573    77.137777 
   51700     321.4428   -111.13719    0.2908482   -110.84634   -1150.2615     4.253299     4.253299     4.253299   -1150.2615    3207.0453   -5206.4781   -1451.3517    505.61081   -2604.5993    2999.3906    76.944526 
   51800    351.47812   -111.16426   0.31802479   -110.84624   -560.94819    4.2566096    4.2566096    4.2566096   -560.94819   -2065.9131   -1373.5886    1756.6571    2388.0655    1571.7585    5643.9644    77.124339 
   51900    268.81767   -111.08995   0.24323188   -110.84672    2035.4136    4.2554989    4.2554989    4.2554989    2035.4136    55.675159    3860.0185    2190.5472    2481.2093   -4431.6701    -4144.694    77.063983 
   52000    291.69732   -111.11029   0.26393387   -110.84635   -1146.6975    4.2558145    4.2558145    4.2558145   -1146.6975    5646.5808    -934.7658   -8151.9074   -355.19271   -6886.9014    71.810252    77.081132 
   52100    279.98132    -111.0996   0.25333299   -110.84627    6096.9634    4.2551682    4.2551682    4.2551682    6096.9634    4023.6121    -2072.471    16339.749   -2955.5381   -94.688461    2560.5428    77.046018 
   52200    311.33461   -111.12875    0.2817021   -110.84705    3325.5385    4.2542063    4.2542063    4.2542063    3325.5385     13221.65   -325.75796   -2919.2763   -682.12473   -276.21658    1527.2854    76.993778 
   52300    234.77277   -111.06071   0.21242734   -110.84829    619.28083      4.25593      4.25593      4.25593    619.28083   -530.96595    131.33557    2257.4728    1309.2042   -5606.1488   -126.27539    77.087406 
   52400    315.31787   -111.13234   0.28530624   -110.84703   -5669.5819    4.2565566    4.2565566    4.2565566   -5669.5819   -4086.5264   -5406.1017   -7516.1178   -1739.8415   -5010.8566   -2342.9045    77.121459 
   52500    320.03406    -111.1357   0.28957354   -110.84612   -1986.8687    4.2542095    4.2542095    4.2542095   -1986.8687    5382.3274   -12617.233    1274.2994   -402.33124    3736.1083    9945.0812    76.993951 
   52600    312.33019   -111.12923   0.28260292   -110.84663   -4108.2421    4.2552267    4.2552267    4.2552267   -4108.2421   -6256.0434   -2857.2157   -3211.4672    3334.4479   -1748.4717    1315.2672    77.049198 
   52700    297.59646   -111.11646   0.26927153   -110.84718   -7195.0045    4.2569929    4.2569929    4.2569929   -7195.0045   -13137.723    -3332.307   -5114.9837    1292.7037   -11017.128   -1860.0043    77.145176 
   52800     304.6397   -111.12246    0.2756444   -110.84681   -1990.1108    4.2546163    4.2546163    4.2546163   -1990.1108    2998.6615   -6410.9076   -2558.0862   -1453.2944    -842.4565    5416.7245    77.016043 
   52900    329.11492   -111.14417    0.2977901   -110.84638    216.30436    4.2554216    4.2554216    4.2554216    216.30436    5185.1876   -8549.8404    4013.5658   -2257.0422    1223.9796   -138.27774    77.059783 
   53000    248.79475   -111.07217   0.22511472   -110.84706    4505.0906    4.2549955    4.2549955    4.2549955    4505.0906    1803.2486    10054.203      1657.82    785.75107   -3468.6709    717.52221    77.036635 
   53100    317.16298   -111.13409   0.28697573   -110.84711   -75.690852     4.254721     4.254721     4.254721   -75.690852    2948.4761    1440.2347   -4615.7834   -1157.7266   -7963.6731   -1789.7816    77.021728 
   53200    274.42247   -111.09571   0.24830322   -110.84741    5577.0796    4.2560784    4.2560784    4.2560784    5577.0796   -1821.4222    4042.9414    14509.719   -3406.5021    2057.6891    5091.1198    77.095468 
   53300    348.74852   -111.16249   0.31555499   -110.84693    1731.4437    4.2543694    4.2543694    4.2543694    1731.4437    7567.1709   -696.10765   -1676.7321    1709.9925    1583.0296    2948.0359    77.002633 
   53400     267.2107   -111.08887   0.24177786   -110.84709    1558.3943    4.2555823    4.2555823    4.2555823    1558.3943   -11719.503    5834.1654    10560.521    3277.5744   -6193.4634   -3003.4754    77.068516 
   53500    364.34555    -111.1758   0.32966751   -110.84613   -6302.8353     4.256436     4.256436     4.256436   -6302.8353   -14423.791    86.560991   -4571.2761    1205.7195   -5135.6606     5035.465    77.114905 
   53600    291.54243   -111.11035   0.26379372   -110.84656    299.32208     4.254758     4.254758     4.254758    299.32208    1693.0613    -3485.651    2690.5559   -1995.0125   -276.11453    4481.9139    77.023736 
   53700    328.80242   -111.14434   0.29750734   -110.84683    -4237.532    4.2558031    4.2558031    4.2558031    -4237.532   -1900.1266   -6590.4697   -4221.9999   -119.92559   -1175.6236   -1434.2929    77.080507 
   53800    251.36779     -111.075   0.22744286   -110.84755   -1547.5996    4.2565655    4.2565655    4.2565655   -1547.5996   -5944.3394    4265.8104   -2964.2698    1946.5543   -8183.6421   -2125.7294    77.121941 
   53900     303.6535   -111.12158   0.27475207   -110.84683   -1988.6167    4.2555715    4.2555715    4.2555715   -1988.6167    2891.7575   -1496.1077   -7361.4999   -4143.3069   -51.282549    3571.7979    77.067926 
   54000     267.6906   -111.08904   0.24221208   -110.84683    3044.6579    4.2557754    4.2557754    4.2557754    3044.6579    5072.2346    172.00856    3889.7304   -3519.1601    2202.8468    7364.3438    77.079004 
   54100    286.78175   -111.10607   0.25948616   -110.84659    331.15681     4.256654     4.256654     4.256654    331.15681   -6801.2653    4728.1226    3066.6132    131.16479   -4984.2469   -1747.7603    77.126755 
   54200    321.09928   -111.13651   0.29053738   -110.84598    115.82469    4.2550061    4.2550061    4.2550061    115.82469   -4805.9494    3279.2797    1874.1437    477.97411   -4520.0148    425.98646    77.037214 
   54300    316.00019   -111.13198   0.28592361   -110.84605    340.11335    4.2577739    4.2577739    4.2577739    340.11335    -8103.543   -511.76917    9635.6522    1053.9839    510.88239     6076.025    77.187647 
   54400    355.42486   -111.16761   0.32159588   -110.84601   -311.03661    4.2548385    4.2548385    4.2548385   -311.03661    2310.3382   -1098.7847   -2144.6633    311.83581    966.28314   -634.28563     77.02811 
   54500    292.03974   -111.11086   0.26424369   -110.84662    1796.2657    4.2558063    4.2558063    4.2558063    1796.2657   -934.23945   -3262.3963    9585.4327     2924.903   -4923.1319   -1987.1484    77.080686 
   54600     365.5644   -111.17718   0.33077035   -110.84641   -4194.8863    4.2576639    4.2576639    4.2576639   -4194.8863   -2744.6561   -3624.5697   -6215.4333   -1320.0119   -4368.1213   -459.48653    77.181663 
   54700    225.06969   -111.05117   0.20364778   -110.84752    5260.6593    4.2547881    4.2547881    4.2547881    5260.6593    14744.928    2930.5034   -1893.4529   -3039.3017    2359.6869     4028.081    77.025371 
   54800    326.14301   -111.14211   0.29510105   -110.84701   -3677.0468    4.2567849    4.2567849    4.2567849   -3677.0468    463.01182   -4044.7748   -7449.3773    -194.2701   -802.70943    1365.2148    77.133871 
   54900    233.85464   -111.05872    0.2115966   -110.84712    3151.4346    4.2562621    4.2562621    4.2562621    3151.4346   -1431.9592    11370.578   -484.31511   -2074.6247   -6596.5514   -1717.3313    77.105451 
   55000    342.02693    -111.1558   0.30947316   -110.84633   -5456.5871    4.2556893    4.2556893    4.2556893   -5456.5871   -2686.9817    -1481.822   -12200.958   -2603.2399    271.41722      9545.09    77.074329 
   55100    244.06029   -111.06802   0.22083088   -110.84719   -205.66778    4.2559594    4.2559594    4.2559594   -205.66778   -460.15572    1138.4406   -1295.2883   -2974.6141   -316.54814    2087.3368    77.089005 
   55200    358.63909   -111.17096   0.32450419   -110.84645   -6543.9984    4.2565483    4.2565483    4.2565483   -6543.9984   -11125.961   -4538.2173   -3967.8163    2680.0699   -3782.4065   -2879.7369    77.121009 
   55300    333.49331   -111.14798   0.30175176   -110.84623    669.17553    4.2545511    4.2545511    4.2545511    669.17553    3576.9531   -4419.9197    2850.4932    2815.1026   -4317.6241    490.92695      77.0125 
   55400    309.80399   -111.12718   0.28031716   -110.84687   -1864.3922    4.2576601    4.2576601    4.2576601   -1864.3922    1340.7696   -7722.8367    788.89049   -2859.2445    726.89283    4835.0234    77.181454 
   55500     279.8323   -111.10028   0.25319814   -110.84708    1155.9602    4.2545646    4.2545646    4.2545646    1155.9602    6078.2745    667.27064   -3277.6645   -922.40508   -27.102988    2427.0996    77.013236 
   55600    268.07868   -111.08971   0.24256323   -110.84715     6194.424    4.2545517    4.2545517    4.2545517     6194.424    10931.395    1703.0695    5948.8078    -369.9092   -6680.9221   -5808.1895    77.012533 
   55700    315.01139   -111.13193   0.28502892    -110.8469     1659.159    4.2571158    4.2571158    4.2571158     1659.159   -404.57839    5882.4812   -500.42578   -176.25524    1217.0797      5501.74    77.151861 
   55800    210.05027   -111.03776    0.1900579    -110.8477    3879.2608    4.2535713    4.2535713    4.2535713    3879.2608    10360.135    7655.8801   -6378.2329   -3273.9468    102.37511    5544.4544    76.959308 
   55900    306.64759   -111.12514   0.27746118   -110.84768   -6343.3331    4.2568216    4.2568216    4.2568216   -6343.3331   -5404.6836   -6606.5547    -7018.761   -1786.0843   -613.56355   -673.33499    77.135864 
   56000    307.21019   -111.12447   0.27797023    -110.8465   -363.91211    4.2559207    4.2559207    4.2559207   -363.91211   -5681.9625     3051.038    1539.1881    2609.2038   -6769.9317   -205.58107    77.086903 
   56100    349.53249   -111.16232   0.31626434   -110.84606   -5699.3188    4.2542329    4.2542329    4.2542329   -5699.3188    -2113.042    -6853.685   -8131.2295   -790.51824   -2630.0476    4564.9078    76.995224 
   56200    233.78842   -111.05871   0.21153668   -110.84717   -5558.7716    4.2575293    4.2575293    4.2575293   -5558.7716   -6324.4273   -6509.5324   -3842.3551   -662.77171    2982.8945    5251.0056    77.174341 
   56300    314.91561   -111.13172   0.28494227   -110.84677   -4250.7479    4.2555554    4.2555554    4.2555554   -4250.7479   -10130.697    2421.9958   -5043.5421   -224.95917   -8226.7462   -3660.7367    77.067054 
   56400     300.8361   -111.11899   0.27220283   -110.84678    5669.0263    4.2534941    4.2534941    4.2534941    5669.0263     4031.917    7166.4353    5808.7266   -225.15801   -1992.3882    1790.9052    76.955116 
   56500    247.38901   -111.07135   0.22384277    -110.8475     1199.587     4.257658     4.257658     4.257658     1199.587   -582.11532    5490.0937   -1309.2174   -1846.8123    1281.5295    9166.3546     77.18134 
   56600    232.75121   -111.05798   0.21059818   -110.84738    659.92452    4.2548579    4.2548579    4.2548579    659.92452   -2107.0631    4980.1183   -893.28154   -4842.5308     -554.069   -3014.6855    77.029161 
   56700    336.80143   -111.15075   0.30474501   -110.84601    2600.9008    4.2544256    4.2544256    4.2544256    2600.9008    5652.4221    2272.4368   -122.15639   -445.83621   -1351.1135   -3115.5904    77.005686 
   56800    328.81658   -111.14364   0.29752015   -110.84612    2155.8804    4.2577308    4.2577308    4.2577308    2155.8804    1185.6935    -1085.747    6367.6949    127.85241   -2759.9438    5138.2994    77.185302 
   56900    277.27024   -111.09784   0.25087994   -110.84696    -1896.961    4.2536784    4.2536784    4.2536784    -1896.961    111.00772    26.532576   -5828.4232   -597.86384    2346.3578    6191.7775     76.96512 
   57000    305.20124   -111.12294   0.27615249   -110.84679   -3248.4876    4.2555762    4.2555762    4.2555762   -3248.4876   -4137.5173   -5842.6676    234.72207    779.42799   -3216.8557   -1317.4168     77.06818 
   57100    372.65756   -111.18318    0.3371884   -110.84599   -1276.5961    4.2582406    4.2582406    4.2582406   -1276.5961    -6904.748    7994.4713   -4919.5115    346.36798    -4169.208   -4661.0409    77.213031 
   57200     305.4091   -111.12313   0.27634057   -110.84679    476.82584    4.2526093    4.2526093    4.2526093    476.82584    2121.2602    2489.9237   -3180.7064     1519.559    1733.4133    11757.313    76.907106 
   57300    259.29781   -111.08234   0.23461811   -110.84772   -3352.7673    4.2565324    4.2565324    4.2565324   -3352.7673   -3841.8437   -2365.1212   -3851.3369   -3356.0933   -128.63692    4483.9675    77.120141 
   57400    343.28711   -111.15721   0.31061339   -110.84659   -2459.5983    4.2575945    4.2575945    4.2575945   -2459.5983   -10491.444     5256.811   -2144.1621   -2284.8335   -2329.7424   -3350.1511    77.177888 
   57500    353.83039   -111.16609   0.32015317   -110.84594    3296.2293    4.2520995    4.2520995    4.2520995    3296.2293    10427.216     139.5653    -678.0935   -599.51205   -1515.3117    4686.1584    76.879445 
   57600    284.48751   -111.10488   0.25741028   -110.84747   -2717.6504    4.2579318    4.2579318    4.2579318   -2717.6504    1042.9202   -7863.9934    -1331.878    -1141.955    796.57028    6176.1161    77.196232 
   57700    271.09882   -111.09227   0.24529591   -110.84697    1513.6012    4.2553946    4.2553946    4.2553946    1513.6012    298.20129   -729.94054     4972.543   -360.63656   -582.49989    508.14782    77.058316 
   57800    386.38021   -111.19507   0.34960494   -110.84546    3774.7813    4.2525209    4.2525209    4.2525209    3774.7813    4654.7314    5455.5295     1214.083    157.35609   -4451.3709   -4709.3571    76.902308 
   57900    311.97182   -111.12883   0.28227866   -110.84655    597.36736    4.2590849    4.2590849    4.2590849    597.36736    2416.6041   -61.013245   -563.48881     2929.086    107.18001    6899.0735    77.258964 
   58000    283.26084   -111.10352   0.25630036   -110.84722   -1043.9458    4.2540727    4.2540727    4.2540727   -1043.9458    1079.3735     1277.313   -5488.5238    767.12721    539.05248    5338.5252    76.986529 
   58100    325.03343   -111.14082   0.29409708   -110.84673    2386.3999    4.2539392    4.2539392    4.2539392    2386.3999    660.82183   -1276.6674    7775.0453   -2585.8166   -2123.7992   -5374.4575    76.979277 
   58200    381.15436   -111.19032   0.34487647   -110.84544   -2060.0262    4.2591122    4.2591122    4.2591122   -2060.0262   -5587.9952    7869.3652   -8461.4487   -1297.4023    676.88267    3883.8214    77.260452 
   58300    285.88848   -111.10544    0.2586779   -110.84676   -4641.9825    4.2540347    4.2540347    4.2540347   -4641.9825    1324.1586   -9734.1314   -5515.9748   -1510.1427   -105.81862    10091.562    76.984465 
   58400    280.93867   -111.10174   0.25419921   -110.84754   -3095.7902    4.2544433    4.2544433    4.2544433   -3095.7902    5042.2923   -9647.4781   -4682.1849   -2297.0691     1622.655    2203.7484     77.00665 
   58500    333.93789   -111.14855   0.30215402   -110.84639   -1217.1342    4.2589618    4.2589618    4.2589618   -1217.1342   -6035.4278    564.51406     1819.511   -1345.3333   -2146.5482   -6371.5518    77.252269 
   58600    303.75421   -111.12053   0.27484319   -110.84569    966.52671    4.2522191    4.2522191    4.2522191    966.52671    9337.2721    1705.3858   -8143.0777    1595.6382   -1430.6673    4637.1839    76.885936 
   58700     235.0881   -111.05973   0.21271265   -110.84702   -4551.2195    4.2574368    4.2574368    4.2574368   -4551.2195    4513.5845   -7217.0637   -10950.179    2141.1887    2704.7895    10538.623    77.169313 
   58800    250.25976   -111.07352   0.22644029   -110.84708    1561.5654    4.2573486    4.2573486    4.2573486    1561.5654    1388.3073    1757.0036    1539.3854   -1351.2641   -1838.2281   -3564.1217    77.164516 
   58900    301.08622   -111.11834   0.27242914   -110.84591    7944.3679    4.2508034    4.2508034    4.2508034    7944.3679    6313.7483    9193.4817    8325.8738   -1061.5568   -1023.0759   -545.21805    76.809169 
   59000    255.94478   -111.07831   0.23158422   -110.84672   -3475.0831    4.2588462    4.2588462    4.2588462   -3475.0831   -923.57911   -3149.8343   -6351.8359    1400.7044   -1005.2728     9625.366    77.245975 
   59100    248.23197   -111.07169    0.2246055   -110.84708   -5283.7453     4.256776     4.256776     4.256776   -5283.7453    -3113.618   -6206.0164   -6531.6016   -2145.4561    843.54295    2587.0625    77.133386 
   59200    305.29345   -111.12264   0.27623593   -110.84641    4262.3929    4.2512502    4.2512502    4.2512502    4262.3929    1453.7419   -679.48219    12012.919   -5442.9692    801.47868   -3482.6234    76.833391 
   59300    326.36598   -111.14128    0.2953028   -110.84598   -2342.0181     4.259298     4.259298     4.259298   -2342.0181   -5925.5987    5148.5948   -6249.0503   -799.74536   -1761.0484    1400.4734    77.270562 
   59400    236.21503   -111.06073   0.21373232     -110.847   -3850.3912     4.254452     4.254452     4.254452   -3850.3912   -3178.7162   -1699.5498   -6672.9076    3214.6138    1758.3906    9647.5058    77.007123 
   59500    293.25714   -111.11231   0.26534522   -110.84696   -2127.5835    4.2535187    4.2535187    4.2535187   -2127.5835    3115.2718   -1567.3966   -7930.6256    461.84955    130.19933    273.34311    76.956455 
   59600    283.53475   -111.10313    0.2565482   -110.84659    3473.6663    4.2594757    4.2594757    4.2594757    3473.6663   -602.89765    6845.3691    4178.5273   -2755.8366   -61.789421   -4425.2408    77.280233 
   59700    314.80867   -111.13106    0.2848455   -110.84622    460.21045    4.2513878    4.2513878    4.2513878    460.21045    4384.7536    718.58929   -3722.7116    1979.7916    341.39635    12024.057     76.84085 
   59800    223.48655   -111.04944   0.20221533   -110.84722   -1690.8309    4.2562086    4.2562086    4.2562086   -1690.8309    4217.5913   -5125.9901    -4164.094    264.44946   -347.65473    8509.2642    77.102544 
   59900    350.36213   -111.16339   0.31701502   -110.84637   -4077.9153    4.2595114    4.2595114    4.2595114   -4077.9153   -5521.1037    -2560.995   -4151.6471   -3701.0493   -1280.6209   -4925.6719     77.28218 
   60000    283.84626   -111.10353   0.25683006    -110.8467    7806.5387    4.2505036    4.2505036    4.2505036    7806.5387    4739.4902    7172.1899    11507.936    -2828.077   -1289.8099   -672.68852    76.792916 
   60100    314.85201   -111.13212   0.28488472   -110.84723   -3817.2196    4.2562715    4.2562715    4.2562715   -3817.2196   -4251.5281    959.28295   -8159.4136    447.56629   -812.04059    8790.3169    77.105965 
   60200    276.11987   -111.09737   0.24983906   -110.84753   -2736.3651    4.2582617    4.2582617    4.2582617   -2736.3651   -10729.528    2014.9762    505.45622   -1122.5992     2459.918    5766.2448    77.214177 
   60300    352.76317   -111.16559   0.31918753    -110.8464    1452.3446    4.2520487    4.2520487    4.2520487    1452.3446    -5838.965    1251.8497     8944.149    -5834.489     1083.981   -6622.1447    76.876695 
   60400    357.76598   -111.17039   0.32371418   -110.84668   -2752.0147    4.2578284    4.2578284    4.2578284   -2752.0147   -7635.9504    -244.7443   -375.34948    742.48831    27.631455    3710.9829     77.19061 
   60500    295.38989   -111.11429   0.26727498   -110.84701    285.36283    4.2549359    4.2549359    4.2549359    285.36283   -3014.5625   -2577.6924    6448.3434    2992.7029    1584.6223    8362.9662    77.033399 
   60600    374.16175   -111.18423   0.33854941   -110.84568   -928.90213    4.2526391    4.2526391    4.2526391   -928.90213   -6062.2654   -1470.9986    4746.5577   -5221.4338   -1148.3732   -1124.8086    76.908721 
   60700      287.352   -111.10716   0.26000213   -110.84716     1107.489    4.2597978    4.2597978    4.2597978     1107.489   -1744.6732    3742.8032    1324.3369   -4846.2602    1508.7636   -1023.5151    77.297771 
   60800    356.36749   -111.16914    0.3224488   -110.84669   -1167.0168    4.2532582    4.2532582    4.2532582   -1167.0168    3336.9164   -902.15102   -5935.8159    1529.6315   -2002.8614     4274.402    76.942312 
   60900    235.42742   -111.06073   0.21301968   -110.84771    8682.4612     4.251294     4.251294     4.251294    8682.4612    8187.3838    9350.6093    8509.3904    500.13284    678.06566    7386.8446    76.835766 
   61000    381.65287   -111.19219   0.34532754   -110.84687    -6382.534    4.2604177    4.2604177    4.2604177    -6382.534   -5009.8638   -5162.6447   -8975.0934   -4050.3552    -321.2822    -4209.224    77.331521 
   61100    251.17809   -111.07449   0.22727121   -110.84722   -477.87307    4.2541384    4.2541384    4.2541384   -477.87307    4798.2248   -7540.4558    1308.6117   -2811.3543    774.99102    3692.5226    76.990095 
   61200    330.78165   -111.14662   0.29929819   -110.84732   -2423.0944    4.2522819    4.2522819    4.2522819   -2423.0944    6021.9898    -5889.769   -7401.5039    2020.0016    3813.3194    12908.666    76.889342 
   61300    272.30801   -111.09318   0.24639001   -110.84679    2973.7625    4.2583174    4.2583174    4.2583174    2973.7625   -3007.0017   -425.96744    12354.257   -1252.7522   -244.08096   -1156.7945    77.217204 
   61400     339.1251   -111.15297   0.30684752   -110.84612   -4814.2768    4.2533137    4.2533137    4.2533137   -4814.2768   -6317.0037   -6492.8779   -1632.9488    -6513.158    1209.7774     -2784.74    76.945325 
   61500    239.30727   -111.06403   0.21653025    -110.8475   -4659.1548    4.2566016    4.2566016    4.2566016   -4659.1548   -3426.6255   -3911.9536   -6638.8853    1424.9633   -2136.7115    4601.4699    77.123906 
   61600    283.91864   -111.10352   0.25689555   -110.84663    511.03467    4.2568726    4.2568726    4.2568726    511.03467   -697.91289    1746.4927    484.52419    855.64382   -1102.3125    7869.9288    77.138635 
   61700    314.73164   -111.13095    0.2847758   -110.84618     6709.728    4.2496351    4.2496351    4.2496351     6709.728    2188.9272    4946.2762    12993.981   -6019.2118    1755.3189   -550.19054    76.745852 
   61800    254.56396   -111.07743   0.23033482    -110.8471    -3888.764    4.2587493    4.2587493    4.2587493    -3888.764   -3719.1602   -2643.0297   -5304.1019   -4347.6988   -232.21647   -2468.1092    77.240705 
   61900    270.37587   -111.09149   0.24464177   -110.84685   -5697.0616    4.2580921    4.2580921    4.2580921   -5697.0616    6646.5147   -9492.4926   -14245.207    1998.3008    1290.1493    10159.526    77.204949 
   62000    253.55636   -111.07617   0.22942312   -110.84674    10185.183    4.2495695    4.2495695    4.2495695    10185.183    12564.636    6901.4189    11089.495    1886.6389   -204.46441    6324.2422    76.742302 
   62100    334.29709   -111.14857   0.30247903   -110.84609   -846.85346    4.2573042    4.2573042    4.2573042   -846.85346    1141.9629   -1778.6695   -1903.8538   -6695.0068    1218.7353   -3629.9879      77.1621 
   62200    199.31811   -111.02812   0.18034722   -110.84778   -3539.7062    4.2565653    4.2565653    4.2565653   -3539.7062    3341.9756   -7035.2785   -6925.8158   -1796.6899     1605.936    5167.0665    77.121933 
   62300    333.43886   -111.14866   0.30170249   -110.84696   -6400.6682    4.2539068    4.2539068    4.2539068   -6400.6682     1494.902    -7067.316   -13629.591    2362.8956   -1614.8091    7348.1022    76.977521 
   62400    285.27965   -111.10457   0.25812703   -110.84644    5039.5013    4.2568963    4.2568963    4.2568963    5039.5013    1300.3344    2596.9333    11221.236   -1879.3368   -1348.2467    1196.7768    77.139924 
   62500    368.22516   -111.17996   0.33317786   -110.84678   -5414.4173    4.2527856    4.2527856    4.2527856   -5414.4173    -6811.029   -7204.2082   -2228.0147   -5324.5165    284.06998   -1052.8539     76.91667 
   62600    215.30722   -111.04285    0.1948145   -110.84803   -2634.5705    4.2554631    4.2554631    4.2554631   -2634.5705    1666.1302   -5383.6264   -4186.2154   -1204.2364     4.130079    8535.7104    77.062038 
   62700    359.88328    -111.1724   0.32562996   -110.84677   -4486.5071    4.2599379    4.2599379    4.2599379   -4486.5071    -2611.365   -6055.5084   -4792.6478    1405.4196    3007.4916    7808.2376    77.305397 
   62800    299.90105   -111.11713   0.27135678   -110.84577    10621.865    4.2509051    4.2509051    4.2509051    10621.865    7995.1487    7045.9753     16824.47   -5897.0476   -110.85268   -5507.2023    76.814682 
   62900    303.15402    -111.1208   0.27430013    -110.8465    808.08471    4.2536888    4.2536888    4.2536888    808.08471   -740.89922    889.01356    2276.1398   -3470.5076     2162.847    2928.3205    76.965686 
   63000    241.36498   -111.06614   0.21839211   -110.84775   -567.74459    4.2597712    4.2597712    4.2597712   -567.74459    4419.6458    -1440.706   -4682.1737    2752.7046   -288.97613    8420.7403     77.29632 
   63100    398.76379   -111.20656   0.36080985   -110.84575    2600.0659    4.2526754    4.2526754    4.2526754    2600.0659    4837.4266    2113.8996    848.87152   -2298.5101   -1356.0067    854.87331     76.91069 
   63200    376.50012   -111.18728   0.34066522   -110.84662    55.273507    4.2554257    4.2554257    4.2554257    55.273507   -3590.2092    515.67989    3240.3498   -6159.0108    876.96419   -2112.1343    77.060004 
   63300    263.79006    -111.0867   0.23868279   -110.84801   -1919.5676    4.2558891    4.2558891    4.2558891   -1919.5676    897.60594   -1291.6523   -5364.6565   -2698.3947   -1626.9743    4617.9485    77.085182 
   63400    362.45407   -111.17473   0.32795606   -110.84678   -4663.0715    4.2542885    4.2542885    4.2542885   -4663.0715    996.22424   -7379.8219   -7605.6168    3422.0475    1780.1733    12224.033    76.998245 
   63500    351.48547   -111.16456   0.31803144   -110.84653   -1103.9338    4.2588546    4.2588546    4.2588546   -1103.9338    1131.7746   -4303.7276   -139.84839   -2135.5915   -840.32859   -1983.3234    77.246436 
   63600    332.29528    -111.1473   0.30066775   -110.84663   -4683.6623    4.2546348    4.2546348    4.2546348   -4683.6623    4.5192073    -9699.748   -4355.7581   -6560.9612    2917.4627    875.43671    77.017045 
   63700    164.32739   -110.99705   0.14868688   -110.84836    5559.8397    4.2517896    4.2517896    4.2517896    5559.8397     14851.21    360.94184    1467.3676    255.61723    3044.4115    11026.457    76.862641 
   63800     399.0942   -111.20743   0.36110882   -110.84632   -5164.8474    4.2591667    4.2591667    4.2591667   -5164.8474     2900.898   -9872.1137   -8523.3265    974.91633    110.18108    1000.9483     77.26342 
   63900    303.26273    -111.1205   0.27439849    -110.8461    1151.2592    4.2563555    4.2563555    4.2563555    1151.2592    6133.4945   -1429.3482   -1250.3687   -3884.9556   -691.50577   -763.66897    77.110531 
   64000    300.26759    -111.1193   0.27168842   -110.84762   -2896.5822    4.2524702    4.2524702    4.2524702   -2896.5822    1803.9246   -5362.1093   -5131.5618   -4696.9498    -1165.886    5311.7703    76.899555 
   64100    221.42616   -111.04832   0.20035104   -110.84797    5020.4701    4.2576505    4.2576505    4.2576505    5020.4701     6025.656     9139.322   -103.56756    247.95666   -499.42002    7076.7995    77.180932 
   64200    449.08728   -111.25148   0.40634361   -110.84513   -1839.7952     4.254699     4.254699     4.254699   -1839.7952   -1347.7104   -137.72776   -4033.9475    411.21337    282.58393    306.51915    77.020534 
   64300    286.22007   -111.10588   0.25897794    -110.8469   -1385.1251    4.2557781    4.2557781    4.2557781   -1385.1251   -1865.4821   -1760.0805   -529.81266   -5876.0695    355.90406   -1654.9954    77.079149 
   64400    200.01696   -111.02923   0.18097955   -110.84825   -759.33977    4.2572274    4.2572274    4.2572274   -759.33977    9074.7347   -1766.1092   -9586.6448    -761.2597    1816.6967    10403.629    77.157926 
   64500    282.53075   -111.10318   0.25563976   -110.84754    6621.9456    4.2521205    4.2521205    4.2521205    6621.9456    12255.935    3847.8802     3762.021    928.17813    3056.2314     4883.549    76.880589 
   64600    354.44795   -111.16693   0.32071195   -110.84621   -240.44449    4.2561471    4.2561471    4.2561471   -240.44449    9156.1528   -3986.1248   -5891.3614   -2160.6716   -1140.4247   -3447.3524    77.099203 
   64700    236.66639   -111.06246   0.21414072   -110.84832   -8178.3752    4.2594263    4.2594263    4.2594263   -8178.3752    1342.4103    -12370.47   -13507.066   -6559.7039    2297.3158    5347.7352    77.277546 
   64800     161.2613   -110.99475   0.14591261   -110.84884    2924.5356      4.25183      4.25183      4.25183    2924.5356    13561.308    5468.6946   -10256.396   -1416.4596    931.05699    9655.2995    76.864831 
   64900     400.9787   -111.20869   0.36281395   -110.84588   -1561.1201     4.256119     4.256119     4.256119   -1561.1201   -1611.9168    140.26227   -3211.7056    2723.0644   -519.72945    2256.0986    77.097679 
   65000    333.17031   -111.14857    0.3014595   -110.84712    -4224.606    4.2578348    4.2578348    4.2578348    -4224.606   -3468.0058    864.23007   -10070.042   -2290.4549   -1147.5379   -1186.4912    77.190955 
   65100    247.47664   -111.07283   0.22392207   -110.84891   -6540.9761    4.2533691    4.2533691    4.2533691   -6540.9761   -644.52051   -8333.4245   -10644.983   -2875.1711    619.64836    8251.0571    76.948331 
   65200    210.64713   -111.04005   0.19059795   -110.84945    3784.8763    4.2572859    4.2572859    4.2572859    3784.8763    7607.0011    9087.5576   -5339.9298    219.36804    3675.6019    7597.4713    77.161109 
   65300    417.51958   -111.22394   0.37778049   -110.84616    3617.5528    4.2539876    4.2539876    4.2539876    3617.5528    5489.2733    4416.2647    947.12043    2043.6596   -623.26896    -3564.024    76.981904 
   65400    274.81551   -111.09582   0.24865885   -110.84716    2402.1701    4.2539298    4.2539298    4.2539298    2402.1701     4565.273    4865.4416   -2224.2042   -3223.3331    457.69438    3993.4162     76.97877 
   65500    172.53643   -111.00558   0.15611459   -110.84947   -2950.3232    4.2595441    4.2595441    4.2595441   -2950.3232    8108.3999   -2550.0704   -14409.299   -5732.2355    1698.9118    9138.5994    77.283958 
   65600    284.14453   -111.10444   0.25709994   -110.84734    5835.0472    4.2529335    4.2529335    4.2529335    5835.0472    3368.1837    11731.039    2405.9193   -933.83869    1724.0172    1075.6316    76.924694 
   65700    403.00217   -111.21011   0.36464483   -110.84547    1648.4483    4.2529633    4.2529633    4.2529633    1648.4483    581.62041    7245.8944   -2882.1698   -1533.1256   -190.33797   -779.52323     76.92631 
   65800    275.82335   -111.09806   0.24957076   -110.84849   -7529.4594    4.2587928    4.2587928    4.2587928   -7529.4594   -10782.369   -6555.5127   -5250.4963   -835.66232    -1687.983    4424.4431     77.24307 
   65900     199.9888    -111.0303   0.18095407   -110.84935   -4386.0529    4.2543848    4.2543848    4.2543848   -4386.0529   -3009.7103    671.49116    -10819.94    503.13848    4310.6174    9028.5895    77.003471 
   66000    381.82778    -111.1928    0.3454858   -110.84731   -1873.6573    4.2551951    4.2551951    4.2551951   -1873.6573   -6725.7072    3418.9649   -2314.2296   -232.35606     2244.948   -2445.5611     77.04748 
   66100    345.07043   -111.15883   0.31222697    -110.8466    1690.8262    4.2558796    4.2558796    4.2558796    1690.8262    364.67713    6758.8388   -2051.0373   -1329.8766    -2730.346   -1724.7649    77.084665 
   66200    205.59487   -111.03449   0.18602656   -110.84846   -1441.7669    4.2537723    4.2537723    4.2537723   -1441.7669    1901.6452   -1746.1083   -4480.8376    -5665.554    2599.2271    11507.604    76.970218 
   66300    211.60171   -111.04045   0.19146167   -110.84899    609.83021    4.2566207    4.2566207    4.2566207    609.83021    6072.1699    6446.3853   -10689.065   -817.57745    3096.3737    3912.3356    77.124941 
   66400    388.99386   -111.19823   0.35196982   -110.84626      1974.77    4.2559414    4.2559414    4.2559414      1974.77    7187.8235   -117.05848    -1146.455   -51.634093    2266.1108   -1550.0408    77.088024 
   66500    307.44965   -111.12541    0.2781869   -110.84722     4310.552     4.252681     4.252681     4.252681     4310.552    3721.2476    11995.079   -2784.6707   -2660.2599   -1589.0513    1864.9199    76.910993 
   66600    232.02447   -111.05825   0.20994062   -110.84831   -4641.4699    4.2573495    4.2573495    4.2573495   -4641.4699    3518.5752   -10623.684   -6819.3012   -1066.0262   -125.73535    8644.0251    77.164564 
   66700    337.67692   -111.15237   0.30553717   -110.84683   -4422.5926    4.2567868    4.2567868    4.2567868   -4422.5926   -5367.7392   -1419.0537   -6480.9848    329.50164    3299.2748    1075.5825    77.133974 
   66800    415.26618   -111.22152   0.37574157   -110.84578   -112.99889    4.2537306    4.2537306    4.2537306   -112.99889    146.94232     2923.645    -3409.584      3888.55   -2001.6561   -5079.7573    76.967955 
   66900    278.53121   -111.09953   0.25202089   -110.84751    303.70468    4.2558432    4.2558432    4.2558432    303.70468    875.49969     1581.129   -1545.5146   -3434.2795   -740.18112    6060.8332    77.082687 
   67000    238.27298     -111.064    0.2155944    -110.8484   -1612.0904    4.2563192    4.2563192    4.2563192   -1612.0904    4466.3295   -5887.9541   -3414.6465   -4385.6879    2497.2152    4855.7342    77.108558 
   67100     361.1513   -111.17318   0.32677728    -110.8464    163.53931    4.2556684    4.2556684    4.2556684    163.53931    6970.9564    3457.6712   -9938.0097   -887.29638     1334.211   -1379.0598    77.073194 
   67200    337.54147   -111.15177   0.30541462   -110.84636     3457.852    4.2564721    4.2564721    4.2564721     3457.852    11456.049    596.51479   -1679.0073   -1253.3585   -791.83492       1975.6    77.116867 
   67300    251.85491   -111.07613   0.22788361   -110.84825    1662.5459    4.2549956    4.2549956    4.2549956    1662.5459    10607.672    1786.0514   -7406.0857   -659.95812    1797.0726    6670.4577    77.036644 
   67400    305.08229   -111.12338   0.27604487   -110.84733    342.55529    4.2553435    4.2553435    4.2553435    342.55529    7562.8948   -185.69448   -6349.5344   -516.41873    4582.6784    3692.4927     77.05554 
   67500    453.28316   -111.25546   0.41014013   -110.84532   -4557.0958    4.2582046    4.2582046    4.2582046   -4557.0958    1121.3543   -5190.0489   -9602.5928     1942.382    961.33178   -3585.7307    77.211072 
   67600    344.36778   -111.15803    0.3115912   -110.84644     -666.546    4.2552301    4.2552301    4.2552301     -666.546    883.84028     4489.099   -7372.5773     1423.522   -4848.5974    3009.4401    77.049382 
   67700    289.88717   -111.10972   0.26229601   -110.84743     -2532.99    4.2557731    4.2557731    4.2557731     -2532.99    6570.8932   -4141.5103   -10028.353   -3181.8492    693.99143    7705.9409    77.078879 
   67800    336.67948   -111.15187   0.30463467   -110.84723    884.77211    4.2567995    4.2567995    4.2567995    884.77211    6039.3671    1219.6665   -4604.7173   -1109.8408    2787.7845   -1603.9154    77.134663 
   67900    376.16563   -111.18623   0.34036257   -110.84586   -506.61412    4.2566555    4.2566555    4.2566555   -506.61412    10605.733   -1061.5928   -11063.982   -1752.5171   -4029.8491   -711.75971    77.126835 
   68000    205.69551   -111.03414   0.18611762   -110.84803    1907.7188    4.2559437    4.2559437    4.2559437    1907.7188    12471.702    2132.8027   -8881.3483   -5371.5035   -1980.3827     6259.627    77.088148 
   68100    247.48303    -111.0719   0.22392785   -110.84797    410.00029    4.2559573    4.2559573    4.2559573    410.00029    9249.5686   -6578.2284   -1441.3393   -1350.2694    519.95707    5417.8194    77.088892 
   68200       367.24   -111.17798   0.33228647   -110.84569     942.0182    4.2563437    4.2563437    4.2563437     942.0182    3131.6869    4870.7449   -5176.3772   -58.700758    3984.4637   -1216.8576    77.109889 
   68300     359.6865   -111.17186   0.32545191   -110.84641   -2561.7148    4.2555485    4.2555485    4.2555485   -2561.7148    1378.7525    -6394.248   -2669.6488     5045.053   -1369.9393    299.05658    77.066675 
   68400    228.22503   -111.05481    0.2065028   -110.84831   -3043.7172    4.2569876    4.2569876    4.2569876   -3043.7172   -5256.7705   -136.47105     -3737.91   -1764.1089   -687.67716    6995.9462    77.144886 
   68500    311.17582   -111.12941   0.28155842   -110.84785   -151.33845    4.2559071    4.2559071    4.2559071   -151.33845    4784.9633    399.05785   -5638.0365    -2970.156    4199.5024    307.65702    77.086161 
   68600    331.23023   -111.14579   0.29970407   -110.84609    5555.3936    4.2544187    4.2544187    4.2544187    5555.3936    5292.2587    11218.638    155.28459    873.86481   -1950.3198   -1997.3393    77.005314 
   68700    239.51107   -111.06419   0.21671465   -110.84748   -786.39051    4.2574154    4.2574154    4.2574154   -786.39051    8820.8778    -1157.283   -10022.766   -2915.9163   -3421.3308    4471.9458    77.168147 
   68800    154.27889   -110.98871   0.13959479   -110.84912   -170.90089     4.255231     4.255231     4.255231   -170.90089    8795.7193    1948.8257   -11257.248   -3678.8714   -622.18275    5218.2677    77.049427 
   68900    292.72067   -111.11296   0.26485982    -110.8481   -682.27154    4.2542953    4.2542953    4.2542953   -682.27154   -3070.5798    2367.2212    -1343.456   -2470.8311    2720.6823    507.70634    76.998614 
   69000    344.33794   -111.15835   0.31156421   -110.84678   -4104.8942    4.2576612    4.2576612    4.2576612   -4104.8942   -4031.1094    1269.8905   -9553.4639    1631.1599   -2320.1426    -1666.457    77.181513 
   69100    224.20321   -111.05104   0.20286378   -110.84818   -8389.1831    4.2553839    4.2553839    4.2553839   -8389.1831   -9498.2764   -6362.7795   -9306.4933    1338.1391   -3269.7743    7587.1649    77.057734 
   69200    239.25592   -111.06481   0.21648378   -110.84833   -6313.9111    4.2555654    4.2555654    4.2555654   -6313.9111   -9183.6457   -4785.7199   -4972.3677   -2663.3379    3697.2918    3616.9991    77.067596 
   69300     312.1465   -111.12944   0.28243671     -110.847    2020.6041    4.2574988    4.2574988    4.2574988    2020.6041    613.76384    6629.2804    -1181.232   -645.41584     3227.883   -1949.4099    77.172682 
   69400    267.98167   -111.08989   0.24247544   -110.84742    4367.0683    4.2537091    4.2537091    4.2537091    4367.0683    16216.506    2486.2731   -5601.5742   -2099.5402    -5291.404    2852.0916    76.966785 
   69500    138.15586     -110.974   0.12500632     -110.849    4535.7186    4.2560142    4.2560142    4.2560142    4535.7186    8735.5579     3210.809    1660.7889   -6024.5704   -2946.2801    4272.4881    77.091982 
   69600    283.32495   -111.10363   0.25635837   -110.84727   -979.48269    4.2588148    4.2588148    4.2588148   -979.48269    9110.1757   -3483.7915   -8564.8323   -2013.0199    1893.6424    1736.1655     77.24427 
   69700    352.32209   -111.16489   0.31878843    -110.8461    6803.2078    4.2521234    4.2521234    4.2521234    6803.2078    2144.8621    13298.477    4966.2842   -403.12468    593.41666   -2318.3464    76.880743 
   69800    317.00922   -111.13447   0.28683661   -110.84763    -5444.963    4.2586588    4.2586588    4.2586588    -5444.963   -951.14504   -6781.2625   -8602.4816    3422.6563    -2836.372      3448.53     77.23578 
   69900    251.98905   -111.07582   0.22800499   -110.84781   -6461.4417     4.258281     4.258281     4.258281   -6461.4417   -3435.9025   -5289.7509   -10658.672   -1557.8392   -372.26719    5206.5809    77.215229 
   70000    375.77867   -111.18652   0.34001244   -110.84651    86.427187    4.2531017    4.2531017    4.2531017    86.427187    9380.7386   -4055.2378   -5066.2193   -2004.4863    4971.2758   -1365.1556    76.933823 
   70100    323.26983   -111.13941   0.29250134   -110.84691    645.61973     4.260697     4.260697     4.260697    645.61973    11881.213    474.07827   -10418.433    866.62282   -2379.2466      1460.46     77.34673 
   70200    222.66639   -111.04952   0.20147323   -110.84805    137.83411    4.2543526    4.2543526    4.2543526    137.83411    16571.329   -3220.2144   -12937.612   -5085.8019   -4161.6145    6066.9105    77.001726 
   70300    264.88614   -111.08738   0.23967454   -110.84771   -349.06632    4.2555597    4.2555597    4.2555597   -349.06632    5702.1922    446.07794   -7195.4691   -4489.1757    1675.9308    3366.3144    77.067287 
   70400    434.87838   -111.23926    0.3934871   -110.84577   -2988.2892    4.2609917    4.2609917    4.2609917   -2988.2892     1308.105    945.56847   -11218.541   -2582.4883    388.69991    -1927.057    77.362781 
   70500    334.94527   -111.15051   0.30306552   -110.84745    2606.5748     4.252299     4.252299     4.252299    2606.5748    3145.7472    8272.0418   -3598.0647    576.12233   -4956.6873    1624.4579    76.890268 
   70600    265.81463   -111.08931   0.24051466    -110.8488   -3104.2424    4.2567471    4.2567471    4.2567471   -3104.2424    4922.1461    -6798.289   -7436.5844    847.51968   -2602.5849    5674.7462    77.131816 
   70700    357.46792   -111.17082   0.32344449   -110.84737   -1174.9889    4.2602569    4.2602569    4.2602569   -1174.9889    10634.423   -10823.264   -3336.1259    337.46543    1845.8764   -948.10794    77.322764 
   70800    431.14857   -111.23584   0.39011229   -110.84572    4449.0865    4.2516992    4.2516992    4.2516992    4449.0865    14232.264    3754.7302   -4639.7346     2149.663    1742.9743    -1628.914    76.857739 
   70900    260.37337   -111.08438    0.2355913   -110.84879    1585.0906    4.2578219    4.2578219    4.2578219    1585.0906    17208.343   -9401.8742   -3051.1965   -1968.6153   -3326.4898    5370.5837    77.190257 
   71000    274.63854   -111.09767   0.24849872   -110.84917   -2717.1264    4.2572876    4.2572876    4.2572876   -2717.1264   -132.25402    465.88392   -8485.0091   -6062.1049   -1935.6757    3920.6046    77.161198 
   71100    390.95562   -111.20057   0.35374486   -110.84683    2739.5051    4.2517433    4.2517433    4.2517433    2739.5051    3375.7545    2010.8545    2831.9063   -3847.1367    2257.3918    244.40361    76.860128 
   71200    386.34953   -111.19682   0.34957718   -110.84724   -3672.2629    4.2608111    4.2608111    4.2608111   -3672.2629   -7503.9777    10850.922   -14363.733    1897.5098   -3854.0881   -345.59143    77.352945 
   71300    226.37448   -111.05379   0.20482839   -110.84896   -20.398985    4.2546285    4.2546285    4.2546285   -20.398985    1533.7893    3560.6694   -5155.6556    1223.4266   -2431.2563    5272.8669    77.016704 
   71400    303.35186   -111.12266   0.27447914   -110.84818    526.45893    4.2526961    4.2526961    4.2526961    526.45893    10042.149   -3491.9968   -4970.7756    -3811.925    982.20629    3796.6624    76.911811 
   71500    368.11238   -111.17972   0.33307581   -110.84664   -1202.4123      4.26121      4.26121      4.26121   -1202.4123    12023.542   -7531.3401   -8099.4385     667.3811   -277.45874   -4278.4497    77.374671 
   71600    323.15374   -111.13992   0.29239629   -110.84752   -1587.4275    4.2539322    4.2539322    4.2539322   -1587.4275     6092.093    46.434844    -10900.81    455.78335   -2444.0873    5472.8246    76.978898 
   71700    204.07511   -111.03369   0.18465145   -110.84904    1037.3091    4.2548237    4.2548237    4.2548237    1037.3091     13058.17   -3253.3672    -6692.875   -3318.0526   -3949.8065    5227.8892    77.027305 
   71800     368.5292   -111.18018   0.33345296   -110.84673   -4542.8413    4.2605491    4.2605491    4.2605491   -4542.8413   -4416.8028    301.98109   -9513.7023   -5682.3605    3340.1147    115.61765    77.338674 
   71900    324.94481   -111.14005   0.29401689   -110.84603    2618.4132    4.2537103    4.2537103    4.2537103    2618.4132    -5682.162    14857.057   -1319.6553   -173.81849    874.86095    1016.4505    76.966854 
   72000    271.12196   -111.09287   0.24531685   -110.84755   -3850.3578    4.2578374    4.2578374    4.2578374   -3850.3578   -2216.4397    5751.2739   -15085.908    3012.5078   -6454.9821    4460.7341    77.191098 
   72100    210.25179   -111.03809   0.19024024   -110.84785    2858.0912    4.2589176    4.2589176    4.2589176    2858.0912    5330.0412    6790.1618   -3545.9294    1496.0759   -740.78569     4674.715    77.249861 
   72200    389.02727   -111.19749   0.35200005   -110.84549    830.71226    4.2530084    4.2530084    4.2530084    830.71226    6264.3152   -3577.6744    -194.5041   -1186.4852   -1600.7215   -3488.1561    76.928758 
   72300     267.0252   -111.08866   0.24161002   -110.84705    201.27473    4.2590193    4.2590193    4.2590193    201.27473    4771.6814    2322.9624   -6490.8196   -510.99019   -1857.4222    1336.5307    77.255397 
   72400    258.69791    -111.0818   0.23407531   -110.84773   -3929.5436    4.2582497    4.2582497    4.2582497   -3929.5436   -2092.8536   -1330.1481   -8365.6291   -2983.3927    -2237.129    5548.2765    77.213526 
   72500    270.16667   -111.09142   0.24445248   -110.84697    4485.9805    4.2525191    4.2525191    4.2525191    4485.9805      1423.32    7604.1624    4430.4592   -7409.6677   -1894.0524   -380.13974    76.902211 
   72600    360.17879   -111.17194   0.32589733   -110.84604   -4064.6304    4.2605996    4.2605996    4.2605996   -4064.6304   -8652.2352    6749.4421   -10291.098    -2648.683    1620.9572   -2500.1414    77.341422 
   72700    251.03208   -111.07433    0.2271391   -110.84719   -641.06817    4.2554092    4.2554092    4.2554092   -641.06817   -4092.4052     6353.499   -4184.2983    2589.7227   -3421.8101    2012.9672    77.059111 
   72800     263.6664   -111.08647    0.2385709    -110.8479    80.494088    4.2531694    4.2531694    4.2531694    80.494088    8120.1685    2541.5985   -10420.285    -291.9787   -1185.5365    7748.5672    76.937498 
   72900     329.4594   -111.14515   0.29810179   -110.84704   -3226.2824    4.2612313    4.2612313    4.2612313   -3226.2824    8380.6982   -7812.4961   -10247.049    -2406.043     1335.961   -838.75271     77.37583 
   73000     338.6464   -111.15326   0.30641438   -110.84685   -580.58557    4.2523732    4.2523732    4.2523732   -580.58557    5015.1657   -2491.1315   -4265.7909   -348.18675   -3494.1178   -700.27662    76.894296 
   73100    262.77972   -111.08547   0.23776861    -110.8477   -1650.7184    4.2561968    4.2561968    4.2561968   -1650.7184    9429.8175   -5862.2016    -8519.771    92.161344   -2654.7033    5184.5408    77.101904 
   73200    269.33535   -111.09104   0.24370029   -110.84734    325.02693    4.2591142    4.2591142    4.2591142    325.02693     717.5242    10009.141   -9751.5846   -2440.8478    -1858.944    1598.4389    77.260559 
   73300    332.59689   -111.14751   0.30094065   -110.84657    1723.8979    4.2516271    4.2516271    4.2516271    1723.8979   -4640.4015    5884.4769    3927.6184   -7161.7664    1883.1422   -2449.7786    76.853827 
   73400    259.60396   -111.08254   0.23489512   -110.84764   -106.58652    4.2583088    4.2583088    4.2583088   -106.58652   -3491.7993     10679.55   -7507.5104    1430.1647     1114.999   -764.12943    77.216738 
   73500    285.53896   -111.10605   0.25836165   -110.84769   -2908.6605    4.2578192    4.2578192    4.2578192   -2908.6605   -3552.1229    449.22479   -5623.0833    1603.1724   -3567.8984    4305.7384     77.19011 
   73600    286.19129   -111.10605   0.25895189    -110.8471    1715.1086    4.2521741    4.2521741    4.2521741    1715.1086    6203.4795    -2471.951    1413.7974   -3503.0455    1913.4718    462.18897    76.883496 
   73700    365.36441   -111.17681    0.3305894   -110.84622   -7587.6194    4.2601754    4.2601754    4.2601754   -7587.6194   -1064.3537   -7027.6052   -14670.899   -1658.4999    330.71954   -789.00005    77.318326 
   73800    265.51349   -111.08737   0.24024218   -110.84713   -392.04474    4.2562831    4.2562831    4.2562831   -392.04474    10027.038   -2654.1799   -8548.9922   -3724.2344   -1083.3934    3484.3511    77.106594 
   73900    281.08081   -111.10158   0.25432782   -110.84725    2402.1835    4.2537414    4.2537414    4.2537414    2402.1835    7944.6822     4396.683   -5134.8148    936.10569   -306.78634    5955.3449     76.96854 
   74000    290.10172   -111.10921   0.26249014   -110.84672   -618.86476    4.2597853    4.2597853    4.2597853   -618.86476    3446.8248    6458.1444   -11761.563   -5218.9891   -308.91273   -922.29829    77.297086 
   74100    278.40718   -111.09826   0.25190866   -110.84635    1490.2699    4.2546721    4.2546721    4.2546721    1490.2699    5424.2173    6526.3903   -7479.7979   -100.56081    1543.9966   -4671.5857    77.019073 
   74200    282.85401    -111.1025   0.25593225   -110.84657    1578.3082    4.2546613    4.2546613    4.2546613    1578.3082    5700.7009    2012.8496   -2978.6259    1521.8174   -2595.2568    3477.2498    77.018487 
   74300    282.18212   -111.10204   0.25532431   -110.84672   -538.97249    4.2595906    4.2595906    4.2595906   -538.97249    6115.2599   -637.87998   -7094.2973   -2247.5557     182.9438    2062.8812    77.286488 
   74400     349.3168   -111.16222   0.31606919   -110.84615     -2712.33    4.2530496    4.2530496    4.2530496     -2712.33   -3037.5845   -5535.9771    436.57152   -459.94927    3091.3959   -2170.1611    76.930992 
   74500    273.67165   -111.09472   0.24762386    -110.8471   -96.022906    4.2561336    4.2561336    4.2561336   -96.022906    6910.8379    1602.9208   -8801.8274   -2119.7564   -804.32466    204.61001    77.098467 
   74600    292.11229   -111.11143   0.26430934   -110.84713   -1141.8333    4.2586921    4.2586921    4.2586921   -1141.8333    -2866.538    8271.3505   -8830.3123    1362.8878   -1130.0085    4975.6356    77.237594 
   74700    288.25013   -111.10782   0.26081477   -110.84701    2239.3773    4.2513374    4.2513374    4.2513374    2239.3773   -346.32487    5573.6932    1490.7634   -4221.7755    356.35891    4347.8388    76.838119 
   74800    328.16458   -111.14415   0.29693021   -110.84722   -3980.5575     4.257507     4.257507     4.257507   -3980.5575   -10466.538    8255.2202   -9730.3552   -3885.4644    2712.5008   -3211.4479    77.173132 
   74900    298.02487   -111.11737   0.26965916   -110.84771   -867.13969    4.2564195    4.2564195    4.2564195   -867.13969    11062.797   -778.63487   -12885.581    3139.0542    1123.3912    1884.9576     77.11401 
   75000    333.81079   -111.14922   0.30203902   -110.84718    -1555.105    4.2523729    4.2523729    4.2523729    -1555.105    175.12623   -6331.9423    1491.5011   -792.89636   -2522.5975    2162.1909     76.89428 
   75100    338.33861   -111.15296   0.30613588   -110.84683   -4834.1717    4.2587937    4.2587937    4.2587937   -4834.1717   -3623.3082   -4708.4565   -6170.7503     -2009.47    1131.3486   -1286.3513     77.24312 
   75200    314.87585   -111.13186   0.28490628   -110.84696    1034.6556    4.2547272    4.2547272    4.2547272    1034.6556    6166.6009    969.61177    -4032.246   -1201.0851    152.10202   -1695.1575    77.022065 
   75300    296.97625    -111.1156   0.26871035   -110.84689    4588.5434    4.2531886    4.2531886    4.2531886    4588.5434    11874.938    6165.7373   -4275.0448    476.87784   -617.49428    3618.5264    76.938536 
   75400     305.0011   -111.12338    0.2759714    -110.8474    709.16105    4.2579457    4.2579457    4.2579457    709.16105    -988.9089    8191.8175   -5075.4254    2376.4725    1312.3868    4947.8612    77.196986 
   75500    304.17406   -111.12281   0.27522308   -110.84759    2580.3881    4.2541662    4.2541662    4.2541662    2580.3881   -2428.0603    9343.1595    826.06499   -3589.7296    1068.1536   -1582.7756    76.991602 
   75600     332.0489    -111.1477   0.30044482   -110.84726    2983.5618    4.2545695    4.2545695    4.2545695    2983.5618    4618.0136    8484.9615   -4152.2898   -2627.2581    1324.8728    325.24569      77.0135 
   75700    349.03724   -111.16261   0.31581623    -110.8468   -3081.3531    4.2585343    4.2585343    4.2585343   -3081.3531    5867.4578   -2906.6029   -12204.914    1785.8104   -770.40494    4678.0262    77.229008 
   75800    315.76175   -111.13247   0.28570787   -110.84676   -2664.6282    4.2535872    4.2535872    4.2535872   -2664.6282   -5308.2004   -2365.6086   -320.07555    -4595.897    2444.6051    503.93089    76.960169 
   75900    344.97757   -111.15881   0.31214296   -110.84667   -4451.6258    4.2562695    4.2562695    4.2562695   -4451.6258   -12257.731    6744.3535   -7841.4996    1221.2151    2978.2341   -3033.6834    77.105853 
   76000    268.66622   -111.09039   0.24309484    -110.8473    2587.0985    4.2569571    4.2569571    4.2569571    2587.0985    11948.109    7200.7914   -11387.605    -1334.232   -1880.2689    333.39581    77.143229 
   76100    318.92179   -111.13555   0.28856713   -110.84699   -2316.2176    4.2530293    4.2530293    4.2530293   -2316.2176    308.42594    1841.5902   -9098.6688    2819.9176   -536.68894    5614.5125    76.929892 
   76200     239.0057   -111.06386   0.21625738    -110.8476   -1517.5244     4.258208     4.258208     4.258208   -1517.5244   -2925.1028    7794.8795   -9422.3498    1404.3323    2493.7247    474.83916    77.211256 
   76300    354.41399    -111.1669   0.32068122   -110.84622   -4256.7965    4.2565199    4.2565199    4.2565199   -4256.7965    548.66392   -2258.3938    -11060.66   -3292.8616    3131.8273    -630.3732    77.119463 
   76400    260.39585   -111.08211   0.23561164    -110.8465    4451.7222    4.2528023    4.2528023    4.2528023    4451.7222    18235.035   -2646.8098   -2233.0586    4506.7163   -1443.0871    3585.1829    76.917574 
   76500    342.62685   -111.15676   0.31001597   -110.84674     -5485.76    4.2579631    4.2579631    4.2579631     -5485.76   -3309.2417   -2981.9454   -10166.093   -1846.8059    40.996097    3142.2739    77.197936 
   76600     258.9369   -111.08183   0.23429155   -110.84754    3898.9563    4.2544211    4.2544211    4.2544211    3898.9563    6024.0837     8108.349   -2435.5638   -1454.9455    3009.6311   -2176.0804    77.005442 
   76700    316.86406   -111.13389   0.28670526   -110.84719    2640.2777    4.2551877    4.2551877    4.2551877    2640.2777    844.02688    11363.391   -4286.5849   -694.28175     1817.859   -2905.6495    77.047078 
   76800    230.18326   -111.05599   0.20827465   -110.84771    4318.7505    4.2576037    4.2576037    4.2576037    4318.7505    12285.164    9204.6245   -8533.5373     3205.697   -132.33933    2633.4769    77.178387 
   76900    261.70611   -111.08406   0.23679719   -110.84726    2047.1157    4.2523636    4.2523636    4.2523636    2047.1157    5375.6856    6288.4148   -5522.7534    4985.0452    1943.0773    1759.8839    76.893775 
   77000    297.16141   -111.11584   0.26887789   -110.84696   -2912.8918    4.2581768    4.2581768    4.2581768   -2912.8918    77.506507    4011.0214   -12827.203   -2875.5913    3853.7333   -836.44516     77.20956 
   77100    293.37549   -111.11232   0.26545231   -110.84687   -3404.1513    4.2568959    4.2568959    4.2568959   -3404.1513    14499.408     -10479.5   -14232.362     -1082.99   -690.51331    3689.4041    77.139903 
   77200    282.60501   -111.10292   0.25570695   -110.84721   -5168.0165    4.2536949    4.2536949    4.2536949   -5168.0165     5900.235   -11365.447   -10038.837    1085.5557    365.67217    5765.6263    76.966019 
   77300    247.49454   -111.07155   0.22393826   -110.84761   -2351.5652    4.2574244    4.2574244    4.2574244   -2351.5652    -877.0607    5635.1084   -11812.743    515.78699    1552.3932     607.8324    77.168639 
   77400    338.88471   -111.15335   0.30663001   -110.84672   -5330.5063    4.2572134    4.2572134    4.2572134   -5330.5063   -3756.0951    4409.3457   -16644.769   -60.445732    818.14842   -2170.6884    77.157167 
   77500    220.38547   -111.04652   0.19940941   -110.84711    3580.1892    4.2554626    4.2554626    4.2554626    3580.1892    9361.6044    9638.0677   -8259.1044    948.65977     -960.603    2710.1834    77.062012 
   77600    264.51832   -111.08646   0.23934173   -110.84712    917.56147    4.2567543    4.2567543    4.2567543    917.56147   -540.13864    10881.937   -7589.1144    5431.1205    113.73604    2076.0907    77.132207 
   77700    251.53339     -111.075   0.22759269   -110.84741    4843.7559    4.2555862    4.2555862    4.2555862    4843.7559    17824.411    4626.7942   -7919.9372     2853.884    5731.6119   -3146.5395    77.068728 
   77800    342.74791   -111.15716   0.31012551   -110.84703   -1770.5604    4.2564285    4.2564285    4.2564285   -1770.5604    6781.9591    -748.6255   -11345.015   -3285.4454     1505.082   -406.94862    77.114498 
   77900    265.67381   -111.08806   0.24038724   -110.84767   -87.553726    4.2582266    4.2582266    4.2582266   -87.553726    13495.661   -4822.2343   -8936.0882    513.23626   -1029.7443    2630.7685     77.21227 
   78000    288.65576   -111.10831   0.26118179   -110.84713    742.23771    4.2549782    4.2549782    4.2549782    742.23771    397.32266    6558.9922   -4729.6018   -3107.4857    3156.7834    4407.5173    77.035698 
   78100      326.117    -111.1415   0.29507752   -110.84643   -196.60071    4.2553601    4.2553601    4.2553601   -196.60071   -1733.7708    8210.7301   -7066.7614    83.591314    467.95348    945.37599    77.056443 
   78200    299.68572   -111.11781   0.27116194   -110.84665   -5463.1978    4.2606961    4.2606961    4.2606961   -5463.1978   -4975.9344    6983.6883   -18397.347    331.66484    -572.2874    1328.5485    77.346679 
   78300    270.39439   -111.09181   0.24465852   -110.84715   -1154.5214    4.2553162    4.2553162    4.2553162   -1154.5214    4044.0819    2277.8049    -9785.451    6221.1109   -1257.9538     3225.315    77.054059 
   78400    260.40944   -111.08279   0.23562393   -110.84717    4487.9378    4.2555054    4.2555054    4.2555054    4487.9378    11090.419    6358.7386   -3985.3445    8543.2595    89.032919   -930.23303    77.064336 
   78500    341.55067   -111.15596   0.30904223   -110.84692   -2507.5451    4.2579949    4.2579949    4.2579949   -2507.5451    14619.174   -8121.2003   -14020.609   -3094.9772    1789.4011    -204.2755    77.199663 
   78600    289.31266   -111.10955   0.26177617   -110.84777   -2134.8695    4.2559844    4.2559844    4.2559844   -2134.8695     13483.06   -6714.7511   -13172.918     295.4203   -677.80382    1658.1485    77.090361 
   78700    320.58564   -111.13798   0.29007262   -110.84791   -2386.8529    4.2595374    4.2595374    4.2595374   -2386.8529   -1656.5682    432.71943   -5936.7098   -300.78132    3548.1931   -89.684935    77.283594 
   78800     396.4779   -111.20447   0.35874153   -110.84573    1191.4453    4.2553251    4.2553251    4.2553251    1191.4453   -1572.4018     6079.943    -933.2053    348.58942    3631.8572   -788.34291    77.054538 
   78900    355.60613   -111.16764    0.3217599   -110.84588    31.817325    4.2559398    4.2559398    4.2559398    31.817325   -3183.6115    9410.0592   -6130.9958   -2482.1244   -1972.5857    1910.4512     77.08794 
   79000    292.83565   -111.11239   0.26496385   -110.84743   -10.809472    4.2595935    4.2595935    4.2595935   -10.809472    4716.4756    6233.3864    -10982.29    1961.5587   -2588.0015    4158.4434    77.286647 
   79100    266.22731   -111.08857   0.24088806   -110.84768    8260.5287    4.2557872    4.2557872    4.2557872    8260.5287    18952.345    7004.4159   -1175.1747    7102.6166   -352.69899    537.83743    77.079644 
   79200    331.52798   -111.14723   0.29997348   -110.84726    5893.0094    4.2553244    4.2553244    4.2553244    5893.0094    23230.287     479.5769   -6030.8359    2465.4821    98.127482   -574.69265    77.054501 
   79300    253.95761   -111.07826   0.22978618   -110.84848    1604.7884    4.2579592    4.2579592    4.2579592    1604.7884    15781.223    -1472.995   -9493.8622   -1239.7566   -2934.0719   -429.02285     77.19772 
   79400    353.68261   -111.16725   0.32001946   -110.84723    -6836.016    4.2576364    4.2576364    4.2576364    -6836.016    2922.9083   -9962.1082   -13468.848   -1255.1984   -5132.5826    910.90496    77.180167 
   79500    417.36785   -111.22372    0.3776432   -110.84608   -6972.2019    4.2574941    4.2574941    4.2574941   -6972.2019   -9740.5074   -5593.3229   -5582.7753    3686.9513    4294.8396   -428.06557    77.172428 
   79600    400.14488   -111.20849    0.3620595   -110.84643   -6080.6831    4.2561968    4.2561968    4.2561968   -6080.6831    -3238.791   -4619.3095   -10383.949   -1507.5854    1801.0315   -2317.1093    77.101903 
   79700    291.15322   -111.11166   0.26344155   -110.84822   -1845.2012    4.2567343    4.2567343    4.2567343   -1845.2012     9427.272   -1490.7066   -13472.169    674.96062   -3215.0041      581.434    77.131118 
   79800    305.40629    -111.1249   0.27633803   -110.84856    1989.2385    4.2561596    4.2561596    4.2561596    1989.2385    13358.623    2755.5569   -10146.464    4282.2931   -2160.6405    17.766849    77.099882 
   79900    334.02673   -111.14959    0.3022344   -110.84735     4091.688    4.2576201    4.2576201    4.2576201     4091.688    18511.945   -2271.6486   -3965.2326    5734.5563    245.24427     2204.732    77.179282 
   80000    295.64409   -111.11534   0.26750499   -110.84783    4426.8203    4.2549186    4.2549186    4.2549186    4426.8203     13307.65    7487.8188   -7515.0078   -373.01627    -1716.931      2408.46    77.032458 
   80100    299.76795   -111.11965   0.27123634   -110.84842    234.87919    4.2549186    4.2549186    4.2549186    234.87919    386.06568     3929.741   -3611.1691   -2671.7756   -6593.8885    883.62147    77.032459 
   80200    376.46139   -111.18823   0.34063018    -110.8476   -3653.4524    4.2587352    4.2587352    4.2587352   -3653.4524   -10938.633    1890.1314   -1911.8558     2892.325   -1604.5767   -207.36263    77.239939 
   80300    410.97155   -111.21866    0.3718557   -110.84681   -3303.4041    4.2561435    4.2561435    4.2561435   -3303.4041    -3280.713   -2627.4989   -4002.0004   -588.46426    3318.8114   -1250.0984    77.099008 
   80400    277.83702    -111.0997   0.25139277   -110.84831    940.48049    4.2551089    4.2551089    4.2551089    940.48049    6918.2234     4317.983    -8414.765   -1723.9033   -987.74233    2210.4193    77.042798 
   80500    239.05208   -111.06508   0.21629935   -110.84878    3596.9843    4.2566388    4.2566388    4.2566388    3596.9843    15511.476    1426.3266   -6146.8495    1299.5553     -3471.51   -1459.1264    77.125929 
   80600    318.97943   -111.13613   0.28861929   -110.84751     690.3097    4.2564496    4.2564496    4.2564496     690.3097     14683.81    -3149.786    -9463.095    6473.0413    1339.2349   -1625.7545    77.115644 
   80700    311.34678   -111.12929   0.28171311   -110.84758    484.90986    4.2560931    4.2560931    4.2560931    484.90986    11549.208    -1379.236   -8715.2421    6033.3947   -1358.9581    1928.4286    77.096267 
   80800    264.51815   -111.08712   0.23934158   -110.84778   -4628.1521     4.258736     4.258736     4.258736   -4628.1521    5150.7496    -2784.418   -16250.788   -2339.4118     -3991.09    1619.8565     77.23998 
   80900    314.47922   -111.13133    0.2845474   -110.84678   -2360.2146    4.2536147    4.2536147    4.2536147   -2360.2146   -6185.3438   -461.48552   -433.81443    1136.0154   -6950.9636    3445.7562    76.961664 
   81000    358.96712    -111.1712     0.324801    -110.8464   -8138.8332    4.2595294    4.2595294    4.2595294   -8138.8332   -6132.4984   -8968.8111     -9315.19    2996.2379    818.41967   -1059.2639     77.28316 
   81100    286.56381   -111.10629   0.25928896     -110.847   -4898.0614    4.2577921    4.2577921    4.2577921   -4898.0614    3213.4758    -5636.379   -12271.281   -3629.9056    973.96799    523.40396    77.188635 
   81200    163.84433   -110.99642   0.14824979   -110.84817    5403.3671     4.254391     4.254391     4.254391    5403.3671    17120.715    6006.0834   -6916.6974    555.17939    -3761.251    1522.6886    77.003806 
   81300    236.32898   -111.06119   0.21383543   -110.84735    5690.2392    4.2567452    4.2567452    4.2567452    5690.2392    16010.545    1790.9576   -730.78499    2557.4869    2663.8624   -1960.4323    77.131712 
   81400    256.41425   -111.07851   0.23200901    -110.8465    3552.6614    4.2572412    4.2572412    4.2572412    3552.6614    15917.326    5280.9199   -10540.262    6443.9398    1727.8159    2067.5561    77.158678 
   81500     265.8073   -111.08746   0.24050803   -110.84695   -2417.5803    4.2568444    4.2568444    4.2568444   -2417.5803    4251.9085    5217.6437   -16722.293   -411.79614    -1908.443   -905.83505    77.137103 
   81600    251.59529   -111.07442   0.22764871   -110.84677    2213.8932    4.2565907    4.2565907    4.2565907    2213.8932   -2576.0778     12333.97    -3116.213    436.60222   -3803.3613   -736.71873    77.123311 
   81700    340.28511    -111.1535   0.30789712   -110.84561   -1121.6133    4.2562064    4.2562064    4.2562064   -1121.6133   -1952.6017    1637.0112   -3049.2493     5287.114   -1803.6788    468.77118    77.102428 
   81800    306.73005   -111.12345   0.27753579   -110.84592   -3977.5048    4.2558816    4.2558816    4.2558816   -3977.5048    31.038255   -2909.2554   -9054.2973    391.03106    787.56381   -504.79302    77.084775 
   81900    225.41179   -111.05132   0.20395733   -110.84736   -6231.2225    4.2600495    4.2600495    4.2600495   -6231.2225    7573.9642   -7138.8177   -19128.814   -3697.5784   -3984.8778    2926.3582    77.311473 
   82000    198.38509   -111.02701     0.179503   -110.84751    4226.9511    4.2537011    4.2537011    4.2537011    4226.9511    15028.009   -3209.8603    862.70499    1223.9754   -2469.0555   -1962.3512    76.966352 
   82100    240.34074   -111.06457   0.21746535   -110.84711    1751.2311    4.2549981    4.2549981    4.2549981    1751.2311    9484.6443   -5658.5711      1427.62    9098.1319    3584.0023   -1126.9887    77.036777 
   82200    274.57547   -111.09504   0.24844165    -110.8466   -6861.8091    4.2589984    4.2589984    4.2589984   -6861.8091    4197.2418   -10497.178   -14285.491    2851.6813    540.97098    640.88084    77.254261 
   82300     268.1307   -111.08903   0.24261029   -110.84642    -5640.027     4.256563     4.256563     4.256563    -5640.027   -5163.4916     2847.152   -14603.742   -866.96168   -3147.2615   -3002.8287    77.121805 
   82400    292.04079   -111.11082   0.26424464   -110.84658    1029.1877    4.2548856    4.2548856    4.2548856    1029.1877   -6079.4375     4105.997    5061.0038    4674.1629   -1799.8956    1818.1829    77.030667 
   82500    345.06244    -111.1584   0.31221975   -110.84618    -169.7322    4.2564627    4.2564627    4.2564627    -169.7322   -381.82638    3889.4149   -4016.7851    3392.7943   -479.57477   -632.67256    77.116354 
   82600    308.75981   -111.12624   0.27937236   -110.84686     1318.569    4.2545716    4.2545716    4.2545716     1318.569    5896.6267    6039.5359   -7980.4557   -4330.3786   -1404.8538   -1529.6819    77.013618 
   82700    296.18033   -111.11522   0.26799019   -110.84723    617.85376    4.2576255    4.2576255    4.2576255    617.85376    9205.6602    5331.0233   -12683.122   -2627.4214   -5123.9448     1315.818    77.179571 
   82800    284.41236   -111.10449   0.25734228   -110.84714    5347.5867    4.2559215    4.2559215    4.2559215    5347.5867    8273.1123    3307.6346    4462.0131    5613.7665    1142.4902   -1157.1877    77.086943 
   82900    371.64041   -111.18284   0.33626805   -110.84657    1308.5255    4.2527309    4.2527309    4.2527309    1308.5255    4744.5561    703.43638    -1522.416    5238.4134    2194.2105      3195.03      76.9137 
   83000    330.06766   -111.14571   0.29865215   -110.84706   -2546.4416     4.258099     4.258099     4.258099   -2546.4416   -2043.8712    -1003.741   -4591.7124   -145.87075   -3863.3919   -518.12082    77.205326 
   83100    343.06233   -111.15754   0.31041001   -110.84713   -6868.7746    4.2574628    4.2574628    4.2574628   -6868.7746   -12332.244    2911.1178   -11185.198    2387.0966    1573.5071   -2938.8575    77.170729 
   83200     306.6013   -111.12451    0.2774193    -110.8471   -204.61731    4.2539213    4.2539213    4.2539213   -204.61731   -9733.0646     1674.657    7444.5557    10139.148    858.91857    2854.9244    76.978306 
   83300    396.30319   -111.20475   0.35858346   -110.84617   -3697.8015    4.2568032    4.2568032    4.2568032   -3697.8015   -2938.8198   -1277.5025   -6877.0822   -1992.7864    324.29531   -1495.1181    77.134866 
   83400    302.94353   -111.12164   0.27410967   -110.84753    1720.9957    4.2550403    4.2550403    4.2550403    1720.9957    1814.3318    5071.9218   -1723.2666   -5933.8343   -3732.4241    927.04413    77.039073 
   83500    318.45653   -111.13584   0.28814616   -110.84769   -1300.5175    4.2560445    4.2560445    4.2560445   -1300.5175    4726.0533   -2023.6278   -6603.9781    2420.7597   -2208.2282   -1104.6296    77.093625 
   83600    325.11496   -111.14139   0.29417085   -110.84722    1811.5476    4.2582539    4.2582539    4.2582539    1811.5476    7836.0495   -1211.9262   -1189.4804    6740.0208    2762.9258   -2111.1388    77.213754 
   83700    413.87169   -111.22032    0.3744798   -110.84584    1474.6307    4.2539731    4.2539731    4.2539731    1474.6307    7295.6082    4254.6836   -7126.3996    87.478867   -4158.1774    2322.4031     76.98112 
   83800    319.02045   -111.13537   0.28865641   -110.84672    4196.2923     4.254953     4.254953     4.254953    4196.2923    1675.0265    8776.5569    2137.2935   -1097.4055   -3274.4995   -1103.9455     77.03433 
   83900    338.66172   -111.15354   0.30642825   -110.84711   -4477.7378    4.2590234    4.2590234    4.2590234   -4477.7378    -11995.96    8558.5856   -9995.8387     7417.558    3672.6022    1515.4824     77.25562 
   84000    349.88239   -111.16329   0.31658094   -110.84671    72.198609    4.2541803    4.2541803    4.2541803    72.198609   -3648.9257    5518.9739   -1653.4524    3968.5965    945.66714   -310.08489    76.992368 
   84100    353.74615   -111.16683   0.32007695   -110.84675    35.922379    4.2559264    4.2559264    4.2559264    35.922379    3631.4095    7366.7068   -10890.349   -4303.6199   -885.72182   -2684.0436    77.087211 
   84200    233.02531   -111.05834   0.21084619   -110.84749    1948.9954    4.2577951    4.2577951    4.2577951    1948.9954    4898.8339    1290.7061    -342.5538   -1753.9827   -36.167271    2174.2613    77.188799 
   84300    277.75053   -111.09835   0.25131452   -110.84703   -1915.3636    4.2540863    4.2540863    4.2540863   -1915.3636    7066.4889   -7823.5561   -4989.0235    7567.7902    2401.6365   -250.78638    76.987263 
   84400    276.07315   -111.09654   0.24979679   -110.84674   -1426.7911    4.2581454    4.2581454    4.2581454   -1426.7911    10170.611   -5500.6064   -8950.3775    3703.0611    899.34496   -1401.3611     77.20785 
   84500    346.98849   -111.16052   0.31396248   -110.84656   -4805.3542    4.2570905    4.2570905    4.2570905   -4805.3542    975.05669   -1850.4174   -13540.702   -902.13438   -4693.1273   -1612.3498    77.150481 
   84600    226.83147   -111.05328   0.20524188   -110.84804    2484.8593    4.2533834    4.2533834    4.2533834    2484.8593   -5382.6458     7523.638    5313.5857    5878.9923     999.4525   -1253.7674     76.94911 
   84700    330.16947   -111.14583   0.29874427   -110.84709   -4863.9277    4.2584856    4.2584856    4.2584856   -4863.9277   -11432.515    6355.9387   -9515.2068    5979.4664    1551.9064    2624.7234    77.226358 
   84800    283.36134   -111.10268    0.2563913   -110.84629     483.6881    4.2578352    4.2578352    4.2578352     483.6881    -473.5979    13792.782    -11868.12   -4401.6245   -2770.6472    417.83084     77.19098 
   84900    305.11368   -111.12238   0.27607327   -110.84631    -576.0331     4.254398     4.254398     4.254398    -576.0331    4125.2825    4495.4229   -10348.805   -5420.6131    814.71561   -1566.2823    77.004189 
   85000    172.05299   -111.00346   0.15567716   -110.84778    5320.6215    4.2584533    4.2584533    4.2584533    5320.6215      7254.22    6816.4802    1891.1641    3381.5157    3591.5425    723.06228      77.2246 
   85100    302.99604   -111.12046   0.27415718    -110.8463    475.30094    4.2556575    4.2556575    4.2556575    475.30094    9736.5365   -804.25501   -7506.3787     4736.339     2635.171   -990.10098    77.072598 
   85200    245.04981   -111.06817   0.22172622   -110.84644    303.61406    4.2564735    4.2564735    4.2564735    303.61406    8317.4857      4256.37   -11663.014    1281.6877   -1220.6156   -2401.9398    77.116942 
   85300    218.17244   -111.04465   0.19740701   -110.84724   -3554.2766    4.2598492    4.2598492    4.2598492   -3554.2766   -6883.3625    9429.2023    -13208.67    2189.2908   -692.58554   -1803.7731    77.300565 
   85400    192.47891   -111.02115   0.17415896   -110.84699    3683.1533     4.254782     4.254782     4.254782    3683.1533   -9852.2777    16660.411    4241.3265    10612.754    4457.8255   -3556.1791    77.025041 
   85500    316.33865   -111.13248   0.28622986   -110.84625   -1669.0472    4.2563426    4.2563426    4.2563426   -1669.0472   -9153.0639    15524.165   -11378.243    1942.3429   -2154.1528   -145.36402    77.109827 
   85600    289.58117   -111.10903   0.26201912   -110.84701   -8906.5927    4.2608009    4.2608009    4.2608009   -8906.5927   -14623.484    6133.4245   -18229.718   -5844.2478   -2380.0453   -1412.0369    77.352388 
   85700    282.15495   -111.10232   0.25529973   -110.84702   -5616.7139    4.2550692    4.2550692    4.2550692   -5616.7139   -9131.6073   -3096.8508   -4621.6837    1285.1712    2391.8413    2703.6918    77.040641 
   85800    331.62791   -111.14659    0.3000639   -110.84653   -1687.1364    4.2573693    4.2573693    4.2573693   -1687.1364   -6423.8232    2160.6066   -798.19254    3854.4999   -827.26361    3106.3502    77.165643 
   85900    335.24905   -111.14967   0.30334038   -110.84633    588.63197    4.2575342    4.2575342    4.2575342    588.63197    187.66862    10192.168   -8613.9408    2231.9084   -2077.2926   -2851.0565    77.174608 
   86000    252.21802   -111.07534   0.22821216   -110.84713    2211.4983      4.25569      4.25569      4.25569    2211.4983    1281.0144    15857.176   -10503.695   -573.08952    246.79283   -1085.2095    77.074363 
   86100    192.56344   -111.02293   0.17423545   -110.84869    5406.7832    4.2583412    4.2583412    4.2583412    5406.7832   -5173.0657    19719.582     1673.833    8354.9226    4167.5768   -2272.5925    77.218499 
   86200    277.77692   -111.09904   0.25133839    -110.8477    8580.9341     4.254496     4.254496     4.254496    8580.9341     6132.625     10475.23    9134.9474    5683.0013     423.8971   -385.93991    77.009509 
   86300    342.05154   -111.15618   0.30949542   -110.84669   -299.61903    4.2564985    4.2564985    4.2564985   -299.61903   -4597.6691    8097.9437   -4399.1316    454.55057   -4029.9767   -2229.9543      77.1183 
   86400    327.41978   -111.14414    0.2962563   -110.84788   -6230.5479    4.2576779    4.2576779    4.2576779   -6230.5479   -6682.7987   -7438.6071   -4570.2378   -3902.1933    2979.3234   -3504.5319    77.182422 
   86500     341.0485    -111.1565   0.30858785   -110.84792   -6343.9985    4.2578696    4.2578696    4.2578696   -6343.9985   -13418.265   -10131.074    4517.3429    3968.7111     3839.165     4261.164    77.192849 
   86600    414.51384   -111.22186   0.37506083    -110.8468   -3202.7062     4.254447     4.254447     4.254447   -3202.7062   -7428.0758    858.86398   -3038.9068    2778.3977   -4282.5718    1799.2143    77.006848 
   86700    343.80906   -111.15866   0.31108567   -110.84758    202.14697    4.2567582    4.2567582    4.2567582    202.14697   -6021.1556    12151.399   -5523.8023    -2651.976   -5276.8925   -230.09029     77.13242 
   86800    306.17982   -111.12507   0.27703794   -110.84803   -456.80763    4.2580807    4.2580807    4.2580807   -456.80763   -1312.7067    5010.2914   -5068.0077    5365.5907    756.14123    -753.8585     77.20433 
   86900    284.91723   -111.10623   0.25779909   -110.84843    6547.0371     4.254604     4.254604     4.254604    6547.0371    397.58946    13226.026    6017.4962    7093.9988    5296.2555   -1756.0952    77.015377 
   87000    358.33541   -111.17185   0.32422941   -110.84762    4009.5461     4.257041     4.257041     4.257041    4009.5461    9829.1965   -287.60796    2487.0498    2362.4636   -332.76256    1053.3015    77.147789 
   87100    312.30056   -111.13016   0.28257611   -110.84759    4697.9755    4.2556262    4.2556262    4.2556262    4697.9755    3361.6808    2543.6746    8188.5711   -2045.6383    169.81675   -2961.3878    77.070901 
   87200     373.2745   -111.18513   0.33774661   -110.84738   -5270.0204    4.2564578    4.2564578    4.2564578   -5270.0204   -4689.5088   -8972.2905    -2148.262    779.34422    2538.7448   -1380.2942     77.11609 
   87300    361.47636   -111.17414   0.32707141   -110.84707    -5289.093    4.2590899    4.2590899    4.2590899    -5289.093   -4264.5133   -12110.505    507.73902    1261.9605   -931.37038    3269.8065     77.25924 
   87400    391.54228   -111.20157   0.35427569   -110.84729   -1968.3761    4.2539965    4.2539965    4.2539965   -1968.3761   -5315.2926    3949.5538   -4539.3897   -1364.5693   -4030.1076   -1080.9926    76.982389 
   87500    298.77735   -111.11811   0.27034002   -110.84777   -565.79824    4.2569445    4.2569445    4.2569445   -565.79824    1729.9574    1316.1843   -4743.5364   -1243.5579   -1146.3151    2284.2407    77.142543 
   87600    273.77788   -111.09559   0.24771998   -110.84787    -4684.936    4.2596752    4.2596752    4.2596752    -4684.936   -4104.4019   -510.99438   -9439.4117    6635.8745    1223.3558   -1334.3689    77.291094 
   87700    245.85606   -111.07017   0.22245573   -110.84771    3893.0696    4.2537848    4.2537848    4.2537848    3893.0696    8110.6737    6287.4464   -2718.9112     5677.546   -1602.4041    859.15115    76.970898 
   87800    252.08536   -111.07524   0.22809213   -110.84715    6848.0183    4.2563662    4.2563662    4.2563662    6848.0183    5795.0657    8605.4447    6143.5446    1887.4961   -625.88319   -2008.2399    77.111109 
   87900    253.15758   -111.07643    0.2290623   -110.84737    101.30049    4.2574973    4.2574973    4.2574973    101.30049   -827.42334    267.70656    863.61826    2045.8766    5420.5584   -5109.9966    77.172599 
   88000     253.2097   -111.07609   0.22910946   -110.84698    -4508.724    4.2559552    4.2559552    4.2559552    -4508.724   -6053.8453   -6990.7796   -481.54729    5037.3973    1192.5096    2969.4316    77.088775 
   88100    332.51688   -111.14746   0.30086826   -110.84659   -5274.0488    4.2578645    4.2578645    4.2578645   -5274.0488   -3607.3724   -6609.1736   -5605.6005   -2110.8587   -5789.8789   -1846.1804    77.192574 
   88200    294.79461   -111.11307   0.26673636   -110.84634    1984.0672    4.2550843    4.2550843    4.2550843    1984.0672   -3320.5831     212.4389    9060.3459     -1822.13   -5119.4757    2253.1254    77.041462 
   88300    299.68387   -111.11773   0.27116026   -110.84657   -6056.8128    4.2552379    4.2552379    4.2552379   -6056.8128   -785.43268   -8646.7765   -8738.2293    2820.9472    1802.0764    1502.3944    77.049804 
   88400    233.06924   -111.05811   0.21088595   -110.84722    -5669.258    4.2599675    4.2599675    4.2599675    -5669.258   -2101.9006   -8953.5322   -5952.3413    2566.6447    901.91604     1501.487    77.307006 
   88500     268.7347   -111.09014   0.24315681   -110.84698    4438.9496    4.2537439    4.2537439    4.2537439    4438.9496    1900.3674    9945.5568    1470.9244    10.288743   -6407.7475     1615.252    76.968676 
   88600    222.20282   -111.04864   0.20105378   -110.84758    8489.9006    4.2526945    4.2526945    4.2526945    8489.9006    8211.6075    6610.2027    10647.892    1213.9289   -788.26738   -6133.3784    76.911727 
   88700    216.45177   -111.04371   0.19585011   -110.84786   -2787.8051    4.2594522    4.2594522    4.2594522   -2787.8051    -9476.128    6235.3679   -5122.6554    6576.4952    2803.8735    204.64926    77.278954 
   88800    265.62938   -111.08717   0.24034705   -110.84682   -2664.5085    4.2549559    4.2549559    4.2549559   -2664.5085   -2973.7577    910.02976   -5929.7976    4615.1519    -251.8163    827.63177    77.034485 
   88900    273.87715   -111.09519    0.2478098   -110.84738    3553.6476    4.2545075    4.2545075    4.2545075    3553.6476   -5962.7737    10235.927      6387.79   -1903.0756   -4736.1875   -1289.9154    77.010136 
   89000    344.20253   -111.15794   0.31144169   -110.84649   -4416.8615    4.2565764    4.2565764    4.2565764   -4416.8615   -11525.811   -2210.3696    485.59657    3427.1901   -2013.8756    1161.8702    77.122536 
   89100    295.83111   -111.11463   0.26767421   -110.84696   -3911.0799    4.2536026    4.2536026    4.2536026   -3911.0799   -7503.4447   -8828.1076    4598.3127    5111.3116     754.8456    417.03757    76.961009 
   89200    356.73338   -111.16958   0.32277986    -110.8468   -7911.2903    4.2586367    4.2586367    4.2586367   -7911.2903    -11671.53   -8788.1899   -3274.1505   -1571.6742   -7713.7459    6528.3419    77.234578 
   89300    293.89786     -111.113   0.26592496   -110.84708    3666.6208    4.2552103    4.2552103    4.2552103    3666.6208   -5003.1823    1390.7747     14612.27    910.13335   -3286.3659    -629.2446    77.048306 
   89400    372.31347   -111.18412   0.33687705   -110.84724    3128.2707    4.2506608    4.2506608    4.2506608    3128.2707    58.002696   -257.98124    9584.7906    3721.1067    3807.5803   -5591.6609     76.80144 
   89500    311.85809   -111.12974   0.28217576   -110.84757    69.250497    4.2593744    4.2593744    4.2593744    69.250497   -6380.6416   -1215.1159     7803.509    4911.0536   -353.16423    1668.6886     77.27472 
   89600    302.75424   -111.12152    0.2739384   -110.84758    794.95062    4.2560543    4.2560543    4.2560543    794.95062   -1573.5764    11123.387   -7164.9586   -783.37427   -6161.0533   -1129.3849    77.094157 
   89700    344.10032   -111.15863    0.3113492   -110.84728    3812.3023     4.252272     4.252272     4.252272    3812.3023    2034.4952    4859.3907     4543.021     2674.921   -4272.1609    4078.6116    76.888804 
   89800    352.84403   -111.16624    0.3192607   -110.84698    4732.2969    4.2558004    4.2558004    4.2558004    4732.2969   -4939.2135    9516.1981    9619.9061    5874.8167    4324.1982   -134.09969    77.080364 
   89900    359.56316   -111.17349    0.3253403   -110.84815   -2983.2704    4.2556609    4.2556609    4.2556609   -2983.2704   -4031.2911   -7013.8434    2095.3234   -15.560446   -4627.4782    5331.5468    77.072783 
   90000    273.54394   -111.09624   0.24750831   -110.84874   -1469.0919    4.2570134    4.2570134    4.2570134   -1469.0919   -8384.2407   -1829.9661    5806.9311   -823.49177   -8395.7202    3348.9734    77.146293 
   90100    410.58488    -111.2176   0.37150583    -110.8461   -3379.4294    4.2560034    4.2560034    4.2560034   -3379.4294   -10881.278   -3554.0588    4297.0491    1520.4173   -335.02181   -3281.7375    77.091394 
   90200    335.54516   -111.14957   0.30360831   -110.84596    5105.9035    4.2525614    4.2525614    4.2525614    5105.9035   -4891.2851   -1161.3175    21370.313    6117.0861    535.62743     2106.173    76.904503 
   90300    328.09641   -111.14377   0.29686853   -110.84691   -7592.6846    4.2579355    4.2579355    4.2579355   -7592.6846   -14658.099    -1911.895   -6208.0599   -1163.6189   -3282.6634   -484.04992    77.196434 
   90400    231.41573    -111.0571   0.20938982   -110.84771   -4624.3061    4.2585834    4.2585834    4.2585834   -4624.3061   -13364.031    6962.5333   -7471.4206   -115.40659   -6520.7858    2124.2554    77.231679 
   90500    352.08913   -111.16454   0.31857764   -110.84596    2531.3363    4.2524402    4.2524402    4.2524402    2531.3363    -5821.766    6427.4774    6988.2973     8064.299    2652.5898    166.09884    76.897931 
   90600    260.04294   -111.08185   0.23529232   -110.84656    4637.9246    4.2564919    4.2564919    4.2564919    4637.9246   -8441.5094    6181.4057    16173.877    2066.1026   -2268.1593    2505.0162    77.117941 
   90700    218.93469   -111.04553   0.19809671   -110.84743   -4187.4989    4.2572293    4.2572293    4.2572293   -4187.4989   -7223.5224    5751.1232   -11090.098    133.48216   -10740.063    7214.9003    77.158031 
   90800    269.17238     -111.091   0.24355282   -110.84744   -4067.0901    4.2571936    4.2571936    4.2571936   -4067.0901    -2908.872   -6313.9736   -2978.4248    1948.1392    -2290.354   -209.29476    77.156089 
   90900     316.5371   -111.13229   0.28640942   -110.84588    6470.5555    4.2548059    4.2548059    4.2548059    6470.5555    1494.6569    4522.7684    13394.241    5616.2198   -252.96814   -1169.5484    77.026341 
   91000    305.36486   -111.12293   0.27630054   -110.84663    488.60763    4.2546992    4.2546992    4.2546992    488.60763    1894.3257   -187.07706    -241.4258    111.93466   -3221.7699    379.32229    77.020545 
   91100    201.86501   -111.03008    0.1826517   -110.84743   -3903.1489    4.2579577    4.2579577    4.2579577   -3903.1489   -908.19448   -2580.0377   -8221.2144   -2490.5099   -5205.5598    1325.4767     77.19764 
   91200    331.55727   -111.14597   0.29999998   -110.84597   -2963.5065    4.2573041    4.2573041    4.2573041   -2963.5065   -5258.2234    3554.7894   -7187.0855    3251.4298    1437.6528    1454.7698    77.162094 
   91300    263.78314   -111.08463   0.23867653   -110.84595    9289.6934     4.254194     4.254194     4.254194    9289.6934   -1654.0169    6997.6979    22525.399    174.46124    2690.5135   -679.54408    76.993113 
   91400    254.07573   -111.07715   0.22989306   -110.84726   -3907.0578     4.255664     4.255664     4.255664   -3907.0578   -7429.5454    4889.2372   -9180.8654   -729.31466   -8540.9993    7475.2278    77.072951 
   91500    193.08917   -111.02288   0.17471114   -110.84817   -5686.4809    4.2578225    4.2578225    4.2578225   -5686.4809   -10795.034    5106.9946   -11371.403     1184.868   -5703.3785     1819.282    77.190286 
   91600    335.52689   -111.14987   0.30359178   -110.84627   -2576.7182    4.2566813    4.2566813    4.2566813   -2576.7182   -7622.5328   -1066.6357    959.01387    7223.9412     361.5587   -611.04245    77.128239 
   91700    308.49327   -111.12555    0.2791312   -110.84642    1943.8789     4.253891     4.253891     4.253891    1943.8789   -1447.1656    1218.2342    6060.5681    4281.4363   -5252.8781    1548.1501    76.976661 
   91800    230.60228   -111.05673   0.20865379   -110.84808   -4575.2139    4.2566111    4.2566111    4.2566111   -4575.2139   -1708.6526    7181.0772   -19198.066   -1632.0095   -8491.6897    289.76431    77.124424 
   91900    285.17373    -111.1058   0.25803119   -110.84777   -4817.5343    4.2575949    4.2575949    4.2575949   -4817.5343    -1698.032   -10341.187   -2413.3836    5378.7775   -1308.8456    2752.9152    77.177911 
   92000    325.51441   -111.14134   0.29453227   -110.84681    6429.5835    4.2549097    4.2549097    4.2549097    6429.5835    2718.5835    4127.9634    12442.204    2371.5129     5056.605    -3246.581    77.031975 
   92100    291.10987   -111.11039   0.26340233   -110.84699    3473.4255    4.2555567    4.2555567    4.2555567    3473.4255    -3353.206    6806.0375    6967.4452   -2329.3567   -4992.5765     3480.966     77.06712 
   92200    223.23714   -111.04958   0.20198965   -110.84759    699.48427    4.2550864    4.2550864    4.2550864    699.48427   -4316.4817    3880.4348    2534.4997   -1712.0621   -6527.1651    7273.7237    77.041576 
   92300     365.5274   -111.17749   0.33073688   -110.84675   -3761.7682    4.2571698    4.2571698    4.2571698   -3761.7682   -7705.2916    1493.1465   -5073.1595    853.87278    1088.0648    878.84764    77.154794 
   92400    376.23759   -111.18707   0.34042768   -110.84664   -166.71474    4.2573416    4.2573416    4.2573416   -166.71474   -8880.6232   -474.65916    8855.1381    5034.9454    -966.8679   -980.11082    77.164134 
   92500    331.27033   -111.14675   0.29974036   -110.84701   -1522.8628    4.2533874    4.2533874    4.2533874   -1522.8628   -4197.0667    6815.4093    -7186.931   -392.57951   -7143.1985    896.18633    76.949326 
   92600    290.49972   -111.11029   0.26285025   -110.84744   -3488.1945    4.2570801    4.2570801    4.2570801   -3488.1945   -2565.9256   -3512.1592   -4386.4988    3552.8602    -4855.869    3020.3281    77.149918 
   92700    384.67177   -111.19485    0.3480591   -110.84679   -2342.6249    4.2578287    4.2578287    4.2578287   -2342.6249   -5022.1819   -8507.0044    6501.3115    5352.7951     3003.897   -68.265271    77.190623 
   92800    346.38631   -111.16088   0.31341761   -110.84746    4222.0785    4.2536673    4.2536673    4.2536673    4222.0785    5369.0473   -4978.3941    12275.582   -276.33096     525.2513   -1623.3451     76.96452 
   92900    256.58434   -111.08076    0.2321629    -110.8486    3943.9842    4.2567228    4.2567228    4.2567228    3943.9842    1421.3438    8440.5824    1970.0262   -1321.4079   -7169.9343    5547.8446    77.130491 
   93000    302.48207   -111.12128   0.27369213   -110.84759    1950.3317    4.2566459    4.2566459    4.2566459    1950.3317   -3722.7895   -1351.9791    10925.764    401.07868    835.00514    2466.9257    77.126313 
   93100    372.22125   -111.18285   0.33679361   -110.84606    1301.1895    4.2557092    4.2557092    4.2557092    1301.1895   -1515.9351     3685.659    1733.8445     2001.207    1253.5149    1069.9982    77.075408 
   93200    332.73603   -111.14841   0.30106655   -110.84734   -1621.5081     4.257341     4.257341     4.257341   -1621.5081   -11028.808    9627.2109   -3462.9271   -1292.7163   -5830.6061    240.08153    77.164102 
   93300    246.86096   -111.07136   0.22336499   -110.84799     2345.991    4.2534451    4.2534451    4.2534451     2345.991   -7492.1332    10906.655    3623.4513   -871.42163   -8043.3467    1296.9381    76.952459 
   93400    362.54395   -111.17508   0.32803738   -110.84704   -5898.7516    4.2573225    4.2573225    4.2573225   -5898.7516   -8867.4329   -6984.3909   -1844.4311    6279.8258   -566.45761    3385.0739    77.163098 
   93500    367.38025   -111.17892   0.33241337   -110.84651   -6272.4979    4.2589486    4.2589486    4.2589486   -6272.4979   -7850.3628   -10875.078   -92.052512    3009.0664    2896.6112    -3956.254     77.25155 
   93600    283.91643   -111.10438   0.25689355   -110.84748   -2130.4017    4.2541576    4.2541576    4.2541576   -2130.4017   -278.13677    1496.4817     -7609.55    -129.3376   -8136.6817    6502.0763    76.991137 
   93700    234.86433   -111.06047   0.21251018   -110.84796    2545.8578    4.2554215    4.2554215    4.2554215    2545.8578    8120.0238   -326.93986   -155.51066   -1186.3716   -2224.6317    5421.7808    77.059776 
   93800    334.48661   -111.14948   0.30265052   -110.84683    -929.0968     4.258234     4.258234     4.258234    -929.0968     1012.049    1678.3084   -5477.6478   -128.58142    3195.5536    16.064851    77.212669 
   93900    274.36759   -111.09551   0.24825356   -110.84726    2496.0869    4.2552001    4.2552001    4.2552001    2496.0869    5006.8798      8681.59   -6200.2092    284.38309   -2264.8756    959.89982    77.047749 
   94000    215.47696   -111.04335   0.19496808   -110.84838    4781.6664    4.2559415    4.2559415    4.2559415    4781.6664    2580.2588    22132.618   -10367.877   -2626.9689   -7336.5154    1352.1755    77.088032 
   94100     270.5417   -111.09222   0.24479182   -110.84743    3531.6708    4.2567864    4.2567864    4.2567864    3531.6708   -4286.0292     2716.328    12164.713    3317.3636    -2754.247    3709.0829    77.133949 
   94200    386.62669   -111.19533   0.34982795    -110.8455   -3174.9429    4.2558005    4.2558005    4.2558005   -3174.9429   -4348.0909   -457.83785   -4718.8998      3910.35     1942.599   -3362.3988    77.080367 
   94300     313.8105   -111.13081   0.28394233   -110.84687   -6457.4712    4.2593608    4.2593608    4.2593608   -6457.4712   -10935.438   -2010.3159   -6426.6598    2253.5239   -4816.8311    167.49686     77.27398 
   94400    288.68826    -111.1087   0.26121121   -110.84749   -2483.1077    4.2551274    4.2551274    4.2551274   -2483.1077   -3211.2253   -203.39977    -4034.698    757.38545   -6324.0167    6303.3004    77.043802 
   94500    290.72091   -111.11032   0.26305039   -110.84727    1126.1418    4.2557504    4.2557504    4.2557504    1126.1418    1784.1364    3967.3619   -2373.0729     1205.995    2573.7493    3676.3862    77.077644 
   94600      290.267   -111.10909   0.26263968   -110.84645   -3024.4086    4.2592661    4.2592661    4.2592661   -3024.4086   -2430.8928    6288.6413   -12930.974    1090.4364   -32.338537    110.73005    77.268826 
   94700    187.83268    -111.0172   0.16995496   -110.84725    4.7774815    4.2569177    4.2569177    4.2569177    4.7774815    1216.9639    19386.552   -20589.183   -5090.4789   -7095.1553    564.46495    77.141088 
   94800    204.92273   -111.03316   0.18541839   -110.84774    4072.9549    4.2551867    4.2551867    4.2551867    4072.9549    8340.7353    12366.954   -8488.8249   -2226.9403   -4227.2916    3725.2063    77.047022 
   94900    296.13582   -111.11447   0.26794991   -110.84652    1394.3118    4.2573159    4.2573159    4.2573159    1394.3118    2265.4347    3524.3037    -1606.803    521.62362   -747.33161   -785.65651    77.162738 
   95000    289.00448   -111.10807   0.26149733   -110.84658   -4011.0144    4.2575375    4.2575375    4.2575375   -4011.0144   -2836.5498    38.673057   -9235.1663    2799.0707   -4839.0415   -2488.2479     77.17479 
   95100    307.40947   -111.12484   0.27815055   -110.84669   -7012.7559    4.2569755    4.2569755    4.2569755   -7012.7559    -3230.092   -2261.5452    -15546.63     1044.417   -8026.1969    5634.0164    77.144229 
   95200      300.166   -111.11814    0.2715965   -110.84654    2874.1667    4.2561768    4.2561768    4.2561768    2874.1667   -1779.7921    -702.1793    11104.471    1694.4408    379.80964    3881.7062    77.100819 
   95300    387.91761   -111.19696   0.35099601   -110.84597   -1342.8523    4.2559641    4.2559641    4.2559641   -1342.8523   -5115.8813      3541.52   -2454.1955    7160.2237    1493.8793    2007.9416     77.08926 
   95400    228.96184   -111.05438   0.20716948   -110.84721    194.55562    4.2579206    4.2579206    4.2579206    194.55562   -9047.7523    14769.508   -5138.0885   -986.13414   -4168.4482    743.93389    77.195621 
   95500     309.1218   -111.12656    0.2796999   -110.84686   -2268.9443     4.257236     4.257236     4.257236   -2268.9443   -2676.4858    5595.2766   -9725.6236   -999.79218   -1506.4042    4982.8973    77.158394 
   95600    282.80863   -111.10213   0.25589119   -110.84624    8497.9698    4.2538479    4.2538479    4.2538479    8497.9698    3931.8638    16480.633    5081.4124   -1421.9016    2154.2984    2374.2463     76.97432 
   95700    346.58322   -111.15999   0.31359578    -110.8464   -2815.3188    4.2567728    4.2567728    4.2567728   -2815.3188    -529.4296   -4403.0321   -3513.4947    580.40448   -1975.7565   -4393.1955     77.13321 
   95800    241.16782   -111.06531   0.21821371    -110.8471   -4930.2468    4.2586033    4.2586033    4.2586033   -4930.2468   -3462.4951   -642.13299   -10686.112    1680.2256   -9431.2733    532.91502    77.232761 
   95900    343.04526    -111.1565   0.31039456    -110.8461   -3767.6348    4.2554781    4.2554781    4.2554781   -3767.6348    1204.5426   -5279.4428   -7228.0041   -2593.0371   -4738.2624    6237.6312     77.06285 
   96000    314.00423   -111.13011   0.28411762   -110.84599    2795.9917    4.2558614    4.2558614    4.2558614    2795.9917   -1648.9816     3498.803    6538.1537    7626.7742    957.15144    3556.6614    77.083679 
   96100    272.20522   -111.09343     0.246297   -110.84714   -1407.2649    4.2564027    4.2564027    4.2564027   -1407.2649   -7958.2612    7056.8376   -3320.3712    4830.1026   -7348.1698    46.472495    77.113093 
   96200    252.51683   -111.07607   0.22848253   -110.84759   -1955.0642    4.2571105    4.2571105    4.2571105   -1955.0642   -10148.614     12508.36   -8224.9385    559.41984   -3876.8015    5840.6202    77.151572 
   96300    309.21948   -111.12627   0.27978828   -110.84648    2985.2773    4.2568175    4.2568175    4.2568175    2985.2773   -5695.7282    14083.945    567.61478    2216.3744    2267.8902    7262.2684     77.13564 
   96400     354.2591   -111.16673   0.32054108   -110.84619   -1101.0503    4.2564348    4.2564348    4.2564348   -1101.0503   -11147.611    7606.1623    238.29754   -1379.5103   -3252.6455   -1088.6127    77.114836 
   96500    308.53057    -111.1257   0.27916495   -110.84654   -2289.2775    4.2554344    4.2554344    4.2554344   -2289.2775   -7363.6031    3192.1636   -2696.3929    1606.5945   -5307.1515   -2048.6453    77.060478 
   96600    404.54378   -111.21206   0.36603971   -110.84602   -6705.4584    4.2591517    4.2591517    4.2591517   -6705.4584    -7347.358   -7023.4724   -5745.5447   -3810.0724   -578.74965    1360.6008    77.262601 
   96700    346.54612   -111.15957   0.31356221     -110.846    1929.1515     4.256395     4.256395     4.256395    1929.1515   -2062.9699    8518.0375   -667.61306    2118.2437    2492.8826    3410.9117    77.112675 
   96800    319.00089   -111.13548   0.28863871   -110.84685    1385.2361    4.2548952    4.2548952    4.2548952    1385.2361   -5632.9464    8807.5837    981.07093    4629.7758   -5235.7522   -994.40073    77.031189 
   96900     250.6949   -111.07445   0.22683401   -110.84762    3934.4008    4.2584317    4.2584317    4.2584317    3934.4008   -1921.2651    13468.365    256.10293    1675.5974   -4851.7229    3139.9894    77.223426 
   97000     296.2779   -111.11452   0.26807847   -110.84644    4373.6654    4.2571116    4.2571116    4.2571116    4373.6654   -1109.3598    13937.376    292.98049     2430.876    2139.9164    7753.7058     77.15163 
   97100     276.1873   -111.09674   0.24990008   -110.84684    2272.0027    4.2563805    4.2563805    4.2563805    2272.0027   -2471.3135    2923.8719    6363.4498    2604.9389   -2464.3237    5369.5807     77.11189 
   97200    262.71101   -111.08482   0.23770644   -110.84711    60.931574    4.2577148    4.2577148    4.2577148    60.931574   -3433.7334    258.68125    3357.8469    3049.4779   -5536.1755    735.69135    77.184429 
   97300    340.49069   -111.15463   0.30808313   -110.84654   -2437.4576    4.2558711    4.2558711    4.2558711   -2437.4576   -3743.1854   -6284.1628    2714.9753   -2057.0929   -3745.2951     1931.897    77.084207 
   97400    329.45201   -111.14482   0.29809511   -110.84672    -3811.458    4.2575107    4.2575107    4.2575107    -3811.458   -3936.0029   -385.91527   -7112.4558   -1239.5256    1460.9575    3171.5834    77.173332 
   97500    311.55787   -111.12856   0.28190411   -110.84665   -7125.3057    4.2589651    4.2589651    4.2589651   -7125.3057   -14714.633    4007.7414   -10669.026    1819.8608    -4173.291   -2496.2776    77.252447 
   97600     292.8343   -111.11182   0.26496263   -110.84686    53.405633    4.2546532    4.2546532    4.2546532    53.405633   -7770.3242    10804.264   -2873.7232    899.37685   -2109.1525    880.58342    77.018045 
   97700    314.67041    -111.1313    0.2847204   -110.84658    480.03308    4.2572069    4.2572069    4.2572069    480.03308   -6056.2809    12648.461   -5152.0807    113.74209    5216.3485    6425.6985    77.156811 
   97800    260.86811   -111.08341   0.23603895   -110.84737    -1333.755    4.2584332    4.2584332    4.2584332    -1333.755   -8021.8469    2125.7112    1894.8706     3188.647   -1390.4974     4548.998    77.223506 
   97900    248.38241   -111.07287   0.22474163   -110.84813    2369.0497    4.2535251    4.2535251    4.2535251    2369.0497   -1993.4787    3333.1567     5767.471    3262.5757   -7716.0016    60.526097    76.956802 
   98000    273.14604   -111.09472   0.24714828   -110.84757    3919.3125    4.2570987    4.2570987    4.2570987    3919.3125    2131.6544   -4743.4296    14369.713     418.3523   -4675.7119    614.45079    77.150927 
   98100    330.65844   -111.14605   0.29918671   -110.84687   -2059.4914    4.2575399    4.2575399    4.2575399   -2059.4914      2864.45   -5579.5458   -3463.3785   -1802.1308    1567.7853    5158.7422    77.174918 
   98200    283.37067    -111.1034   0.25639974     -110.847   -3008.3559    4.2548574    4.2548574    4.2548574   -3008.3559     2569.871    -3799.178   -7795.7607    2782.2084   -2957.5076   -518.81056    77.029134 
   98300    305.71467   -111.12382   0.27661706   -110.84721   -3954.4231    4.2585152    4.2585152    4.2585152   -3954.4231   -8104.3925    4333.2351    -8092.112    2489.0424   -6674.4019   -2654.4128     77.22797 
   98400    303.01293   -111.12144   0.27417247   -110.84727    3989.6574    4.2546083    4.2546083    4.2546083    3989.6574    3054.8299    6325.7905    2588.3519   -2632.3727    2377.7456    4117.2848     77.01561 
   98500    292.63235   -111.11204    0.2647799   -110.84726   -953.07265    4.2562472    4.2562472    4.2562472   -953.07265   -3230.2069    2205.4926   -1834.5036    743.72033    2670.3221    6443.1806    77.104641 
   98600      232.262   -111.05853   0.21015554   -110.84838   -963.91297    4.2591376    4.2591376    4.2591376   -963.91297   -11818.437    2448.1046     6478.594    2863.6501   -4425.8969    2572.7735    77.261835 
   98700    258.27128   -111.08102   0.23368928   -110.84733    6294.4993    4.2542925    4.2542925    4.2542925    6294.4993   -1757.1788    2463.1422    18177.534    3820.1271   -4941.8226    889.47982    76.998461 
   98800    363.99607   -111.17569    0.3293513   -110.84633   -1218.3791    4.2565167    4.2565167    4.2565167   -1218.3791   -3.0000674   -5367.3627    1715.2257   -767.41554     -2185.38    4042.6173    77.119293 
   98900     308.9977   -111.12657   0.27958761   -110.84698   -4561.1163    4.2588841    4.2588841    4.2588841   -4561.1163    620.53212   -8932.7892   -5371.0917    2133.7691   -158.55398    109.89494    77.248041 
   99000    327.48874   -111.14328   0.29631869   -110.84697     -5598.45    4.2565573    4.2565573    4.2565573     -5598.45   -5146.1304   -6872.9713   -4776.2483    5051.0993   -6993.2137   -2784.3639    77.121498 
   99100    293.68178   -111.11278   0.26572945   -110.84705    3454.3261    4.2553553    4.2553553    4.2553553    3454.3261    1149.2006    -1372.972     10586.75    -2356.074   -265.65753    1027.5369    77.056182 
   99200    348.15747    -111.1617    0.3150202   -110.84668   -2844.6496    4.2572945    4.2572945    4.2572945   -2844.6496   -1175.7234   -9111.2216    1752.9962   -387.09142    4973.4595    7230.0004    77.161572 
   99300    250.75963   -111.07444   0.22689258   -110.84755   -602.86594     4.257288     4.257288     4.257288   -602.86594   -4035.6543   -6546.6342    8773.6907    1970.9103   -2207.1863    3814.6859    77.161223 
   99400    276.71157   -111.09749   0.25037444   -110.84712     1140.004    4.2564008    4.2564008    4.2564008     1140.004   -10279.279    2243.3872    11455.904    1450.9829   -4190.9597    -729.2142    77.112988 
   99500    353.45841   -111.16593    0.3198166   -110.84612    78.955877    4.2560444    4.2560444    4.2560444    78.955877   -1878.7773    4683.9036   -2568.2587   -1720.3815    -3452.909    5202.0755    77.093621 
   99600    340.47354   -111.15453   0.30806761   -110.84646   -979.12326    4.2560697    4.2560697    4.2560697   -979.12326    643.34162   -4869.8905    1289.1791     246.1521    528.05232    5322.1105    77.094997 
   99700    324.60007   -111.14079   0.29370496   -110.84709   -2212.0044    4.2568224    4.2568224    4.2568224   -2212.0044   -4846.8243   -903.22578   -885.96312    5627.6185   -5452.0869   -2051.8918    77.135906 
   99800    299.33065   -111.11795   0.27084066   -110.84711    3159.2706    4.2564581    4.2564581    4.2564581    3159.2706   -560.95416    4203.6457    5835.1202    2182.9464   -4765.8034    -3147.208    77.116108 
   99900    355.71765   -111.16792   0.32186081   -110.84606      2819.46    4.2548765    4.2548765    4.2548765      2819.46    3266.8001   -8200.8726    13392.452    378.39964    3712.3664    1143.9164    77.030173 
  100000    283.18301   -111.10321   0.25622993   -110.84698    2727.9799    4.2555106    4.2555106    4.2555106    2727.9799    376.54236   -6449.7554    14257.153    2825.9411   -1705.7213    4652.0613    77.064618 
Loop time of 22.4037 on 1 procs for 100000 steps with 8 atoms

Pair  time (%) = 7.20771 (32.172)
Kspce time (%) = 5.37399 (23.987)
Neigh time (%) = 0 (0)
Comm  time (%) = 1.09318 (4.87948)
Outpt time (%) = 0.0251391 (0.112209)
Other time (%) = 8.70369 (38.8493)

Nlocal:    8 ave 8 max 8 min
Histogram: 1 0 0 0 0 0 0 0 0 0
Nghost:    2189 ave 2189 max 2189 min
Histogram: 1 0 0 0 0 0 0 0 0 0
Neighs:    2344 ave 2344 max 2344 min
Histogram: 1 0 0 0 0 0 0 0 0 0

Total # of neighbors = 2344
Ave neighs/atom = 293
Neighbor list builds = 0
Dangerous builds = 0
unfix 20
unfix 21
print "seeds:4595794"
seeds:4595794
