LAMMPS (10 Feb 2015)
# ---- initialize simulations
clear
units metal
dimension 3
boundary p p p
atom_style charge
atom_modify map array
# ---- create atoms
read_data /Users/eugeneragasa/pyflamestk_git/pypospack/tests/tests_integration/workflow/WorkflowLammpsThermalExpansion/param_5091/MgO_NaCl_unit.npt.T1900/lammps.structure
  triclinic box = (0 0 0) to (4.2565 4.2565 4.2565) with tilt (0 0 0)
  1 by 1 by 1 MPI processor grid
  reading atoms ...
  8 atoms
# ---- define interatomic potential
include potential.mod
mass 1 24.305
mass 2 15.999

group Mg type 1
4 atoms in group Mg
group O type 2
4 atoms in group O

set group Mg charge 1.60395442224
  4 settings made for charge
set group O charge -1.60395442224
  4 settings made for charge

variable R_cut equal 10.0

pair_style buck/coul/long ${R_cut}
pair_style buck/coul/long 10
pair_coeff 1 1 0.0 0.5 0.0 ${R_cut}
pair_coeff 1 1 0.0 0.5 0.0 10
pair_coeff 1 2 1640.33364459 0.274285748818 0.0 ${R_cut}
pair_coeff 1 2 1640.33364459 0.274285748818 0.0 10
pair_coeff 2 2 138.503876614 0.167383398543 15.9463705464 ${R_cut}
pair_coeff 2 2 138.503876614 0.167383398543 15.9463705464 10

kspace_style pppm 1.0e-5

neighbor 1.0 bin
neigh_modify every 1 delay 0 check yes
# ---- define settings
compute eng all pe/atom
compute eatoms all reduce sum c_eng
# ---- run minimization
reset_timestep 0
fix 1 all box/relax iso 0.0 vmax 0.001
thermo 10
thermo_style custom step pe lx ly lz xy xz yz press pxx pyy pzz pxy pxz pyz c_eatoms
min_style cg
minimize 1e-25 1e-25 5000 10000
PPPM initialization ...
  G vector (1/distance) = 0.352384
  grid = 8 8 8
  stencil order = 5
  estimated absolute RMS force accuracy = 3.76636e-05
  estimated relative force accuracy = 2.6156e-06
  using double precision FFTs
  3d grid and FFT values/proc = 3375 512
Neighbor list info ...
  1 neighbor list requests
  update every 1 steps, delay 0 steps, check yes
  master list distance cutoff = 11
Memory usage per processor = 4.06549 Mbytes
Step PotEng Lx Ly Lz Xy Xz Yz Press Pxx Pyy Pzz Pxy Pxz Pyz eatoms 
       0   -105.40733       4.2565       4.2565       4.2565            0            0            0    42357.047    42357.047    42357.047    42357.047 -5.4591187e-11 1.2697943e-10 -3.1158894e-11   -105.40733 
      10   -105.43209    4.2922445    4.2922445    4.2922445            0            0            0   -4.9211524   -4.9211524   -4.9211524   -4.9211524 1.7090498e-11 -3.1779622e-11 -1.1443831e-10   -105.43209 
      12   -105.43209    4.2922402    4.2922402    4.2922402            0            0            0  -0.19512063  -0.19512063  -0.19512063  -0.19512063 3.2638439e-11 -8.1058727e-11 1.6032595e-10   -105.43209 
Loop time of 0.00860405 on 1 procs for 12 steps with 8 atoms

Minimization stats:
  Stopping criterion = linesearch alpha is zero
  Energy initial, next-to-last, final = 
        -105.407331285      -105.43208818      -105.43208818
  Force two-norm initial, final = 6.11638 6.94804e-05
  Force max component initial, final = 6.11638 2.86507e-05
  Final line search alpha, max atom move = 0.5 1.43253e-05
  Iterations, force evaluations = 12 25

Pair  time (%) = 0.00239015 (27.7793)
Kspce time (%) = 0.00142169 (16.5235)
Neigh time (%) = 0 (0)
Comm  time (%) = 0.000254154 (2.95389)
Outpt time (%) = 1.19209e-05 (0.13855)
Other time (%) = 0.00452614 (52.6047)

Nlocal:    8 ave 8 max 8 min
Histogram: 1 0 0 0 0 0 0 0 0 0
Nghost:    2189 ave 2189 max 2189 min
Histogram: 1 0 0 0 0 0 0 0 0 0
Neighs:    2344 ave 2344 max 2344 min
Histogram: 1 0 0 0 0 0 0 0 0 0

Total # of neighbors = 2344
Ave neighs/atom = 293
Neighbor list builds = 0
Dangerous builds = 0
unfix 1
# ---- define output variables ----
variable natoms equal "count(all)"
variable tot_energy equal "c_eatoms"
variable length_x equal "lx"
variable length_y equal "ly"
variable length_z equal "lz"
variable tilt_xy equal "xy"
variable tilt_xz equal "xz"
variable tilt_yz equal "yz"
variable tot_press equal "press"
variable press_xx equal "pxx"
variable press_yy equal "pyy"
variable press_zz equal "pzz"
variable press_xy equal "pxy"
variable press_xz equal "pxz"
variable press_yz equal "pyz"

# ---- output ----
print "pypospack:output_section:begin"
pypospack:output_section:begin
print "tot_energy = ${tot_energy}"
tot_energy = -105.432088180201
print "num_atoms = ${natoms}"
num_atoms = 8
print "xx = ${length_x}"
xx = 4.29224022422512
print "yy = ${length_y}"
yy = 4.29224022422512
print "zz = ${length_z}"
zz = 4.29224022422512
print "xy = ${tilt_xy}"
xy = 0
print "xz = ${tilt_xz}"
xz = 0
print "yz = ${tilt_yz}"
yz = 0
print "tot_press = ${tot_press}"
tot_press = -0.195120630166908
print "pxx = ${press_xx}"
pxx = -0.195120630011552
print "pyy = ${press_yy}"
pyy = -0.195120630547228
print "pzz = ${press_zz}"
pzz = -0.195120629941943
print "pxy = ${press_xy}"
pxy = 3.26384388476247e-11
print "pxz = ${press_xz}"
pxz = -8.10587270505021e-11
print "pyz = ${press_yz}"
pyz = 1.60325951029016e-10
print "pypospack:output_section:done"
pypospack:output_section:done
print "pypospack:lammps_sim:done"
pypospack:lammps_sim:done
#------------------------------------------------------------------------------
# RUN THERMOSTAT
# running using an NPT Nose-Hoover style thermostat
#------------------------------------------------------------------------------
variable tempdamp equal 0.1
variable pressdamp equal 1.0
# set initial velocities
velocity all create 1900 2754426 mom yes dist gaussian loop all
# fix for Nose-Hoover style thermostat
fix 20 all npt temp 1900 1900 0.1 aniso 0.0 0.0 1.0 drag 1.0 couple xyz
variable boxx equal lx
variable boxy equal ly
variable boxz equal lz
variable boxp equal press
variable boxt equal temp
# calculate averages every 10000 steps
reset_timestep 0
fix 21 all ave/time 10 10 100 v_boxx v_boxy v_boxz v_boxp v_boxt file lattice.out
thermo_style custom step temp pe ke etotal press lx ly lz press pxx pyy pzz pxy pxz pyz vol
thermo_modify flush yes
thermo 100
run 100000
PPPM initialization ...
  G vector (1/distance) = 0.352034
  grid = 8 8 8
  stencil order = 5
  estimated absolute RMS force accuracy = 3.82705e-05
  estimated relative force accuracy = 2.65774e-06
  using double precision FFTs
  3d grid and FFT values/proc = 3375 512
Memory usage per processor = 3.06549 Mbytes
Step Temp PotEng KinEng TotEng Press Lx Ly Lz Press Pxx Pyy Pzz Pxy Pxz Pyz Volume 
       0         1900   -105.43209    1.7191599   -103.71293    23219.843    4.2922402    4.2922402    4.2922402    23219.843    20429.855    30149.886    19079.789   -10618.266    1863.9901   -2684.1367    79.077342 
     100     384.1936   -103.84127   0.34762644   -103.49364    19322.016    4.3130985    4.3130985    4.3130985    19322.016    25574.534    28526.869    3864.6458    12743.432    244.01466    29717.851     80.23579 
     200    1577.4962   -104.43514    1.4273517   -103.00779   -17145.365    4.3488561    4.3488561    4.3488561   -17145.365   -23061.291   -13392.547   -14982.257   -6785.9581    9685.2114    2984.6878    82.247956 
     300    1475.5308   -103.96008    1.3350912   -102.62499    16121.593    4.3554076    4.3554076    4.3554076    16121.593     13161.62    23170.227    12032.934    6263.8857    -3078.158    14719.688    82.620232 
     400    1270.6744   -103.42158    1.1497329   -102.27184    18039.289    4.3498505    4.3498505    4.3498505    18039.289    4548.7115    41948.938     7620.218    10974.567    12967.787    40388.146    82.304386 
     500    2396.5071   -104.21101      2.16841    -102.0426   -552.24512    4.3529625    4.3529625    4.3529625   -552.24512    12300.603     2341.966   -16299.304   -21051.617    15093.071    2089.3978    82.481164 
     600    1224.9478   -103.06441    1.1083585   -101.95605   -14339.282    4.3647359    4.3647359    4.3647359   -14339.282    2871.6355   -42081.707    -3807.776     26192.59   -2359.4376    54149.943    83.152232 
     700    2556.2366   -104.19989    2.3129366   -101.88696    19798.288    4.3674793    4.3674793    4.3674793    19798.288    13398.073    68229.919   -22233.129   -25458.853    9659.8916   -26929.419    83.309125 
     800    1441.2877   -103.20383    1.3041074   -101.89972   -35938.619    4.3802417    4.3802417    4.3802417   -35938.619    77129.629    -99148.31   -85797.174    17273.588   -609.88106    60130.396    84.041582 
     900    2855.5297   -104.44955    2.5837433   -101.86581    12712.625    4.3642936    4.3642936    4.3642936    12712.625     6710.631    72058.044     -40630.8   -8431.5503    7705.1803   -1099.5753    83.126958 
    1000    1299.0047   -103.05489    1.1753668   -101.87953    35084.833     4.335218     4.335218     4.335218    35084.833     84937.05    32643.289   -12325.841   -970.56313    3060.8511    56680.868    81.476586 
    1100    2575.5324    -104.2169    2.3303958   -101.88651    24997.167    4.3528196    4.3528196    4.3528196    24997.167    53827.348    11291.065    9873.0867    15013.956    3889.1413   -27481.769    82.473039 
    1200    1509.1474   -103.27591    1.3655082    -101.9104    7339.5325    4.3655852    4.3655852    4.3655852    7339.5325   -2363.4697    42039.417    -17657.35   -11315.127   -6341.0087    53550.549    83.200783 
    1300     2235.949   -103.89879    2.0231337   -101.87565    11822.793    4.3823977    4.3823977    4.3823977    11822.793    17027.985   -1046.8043    19487.199    1957.7622      7046.54    12016.764    84.165744 
    1400    1326.8559   -103.07655    1.2005671   -101.87599   -68990.904    4.3745224    4.3745224    4.3745224   -68990.904   -490.88656    -122063.4   -84418.421   -4272.4288   -3415.4613     51718.01    83.712815 
    1500    2619.5987   -104.22261    2.3702679   -101.85235    52778.391    4.3307048    4.3307048    4.3307048    52778.391    35715.816    11084.285    111535.07   -1614.1868   -5279.5205   -21271.982    81.222386 
    1600    1157.6339   -102.96451    1.0474515   -101.91706     5714.142     4.327561     4.327561     4.327561     5714.142    46916.709   -47863.786    18089.503   -3813.6979    29196.692    39695.087    81.045631 
    1700    2356.5898   -104.06237     2.132292   -101.93008   -11828.003    4.3560983    4.3560983    4.3560983   -11828.003    5898.0143   -41137.874   -244.15087   -13481.402   -12483.129    -22888.83    82.659544 
    1800    1677.3112   -103.43858    1.5176665   -101.92091    15246.216    4.3631127    4.3631127    4.3631127    15246.216    39014.446    -30970.96    37695.161    22920.082    17380.148     41159.57    83.059498 
    1900     1993.669   -103.68401    1.8039136    -101.8801   -9481.7205    4.3684099    4.3684099    4.3684099   -9481.7205    15160.782   -33627.236   -9978.7072   -24598.839    19860.248   -4899.9889    83.362388 
    2000    2322.9889   -103.98273    2.1018891   -101.88084   -21711.456    4.3470818    4.3470818    4.3470818   -21711.456    19763.356   -35481.998   -49415.725    3580.4699   -8341.0849    30696.022    82.147329 
    2100    1900.2672   -103.60199    1.7194017   -101.88258    59986.148    4.3296293    4.3296293    4.3296293    59986.148    55363.991    27712.648    96881.804   -8131.5622    36507.145   -4106.9412    81.161889 
    2200    1444.7182   -103.21089    1.3072114   -101.90368   -16416.713      4.35233      4.35233      4.35233   -16416.713    72106.066   -85883.904   -35472.301   -3334.5508   -12029.702    48238.681    82.445211 
    2300    2044.4402   -103.75819    1.8498524   -101.90834   -2402.1298    4.3552874    4.3552874    4.3552874   -2402.1298    5150.6743   -29107.358    16750.295   -470.79249    18718.297    14147.472    82.613395 
    2400    2119.4492   -103.82293    1.9177222    -101.9052    2441.6277    4.3492931    4.3492931    4.3492931    2441.6277    62835.122   -34780.043   -20730.195   -20272.678   -10121.363    34201.055    82.272751 
    2500    1203.0891   -103.01557    1.0885803   -101.92699    2072.5664    4.3380543    4.3380543    4.3380543    2072.5664    24380.814   -51778.869    33615.754    2085.6904   -7590.2324    25730.421    81.636606 
    2600     2501.162   -104.17671    2.2631039   -101.91361     22814.19    4.3384694    4.3384694    4.3384694     22814.19    39005.183     12574.99    16862.398   -7036.3675    18398.879    27452.726    81.660043 
    2700    1200.7651   -103.02939    1.0864775   -101.94291   -1782.9718    4.3518654    4.3518654    4.3518654   -1782.9718    17083.999   -68927.904     46494.99   -9157.1145    -21071.15    26137.752    82.418815 
    2800    2471.1979    -104.1546    2.2359918   -101.91861   -6084.0217    4.3487352    4.3487352    4.3487352   -6084.0217    13790.533     169.8881   -32212.486   -8390.2178   -3131.7632    1466.2002    82.241097 
    2900    1311.2609   -103.11153    1.1864564   -101.92507     26846.84    4.3418324    4.3418324    4.3418324     26846.84    15508.805   -20886.356    85918.073    8898.3842   -3835.1701    35959.448    81.850088 
    3000    2400.7501     -104.082    2.1722492   -101.90975    8087.0332    4.3462381    4.3462381    4.3462381    8087.0332    10516.523    20114.263   -6369.6871   -14580.559   -14654.045    -20676.82    82.099508 
    3100    1471.3231   -103.26364     1.331284   -101.93236    4858.6863    4.3444057    4.3444057    4.3444057    4858.6863    48711.276   -21601.814   -12533.404    2732.5823     5283.974    50408.525     81.99571 
    3200    2653.3596   -104.32165    2.4008155   -101.92083   -1341.7733    4.3531661    4.3531661    4.3531661   -1341.7733   -31821.808    13893.244    13903.244    2028.8846   -18305.833    -30438.57    82.492736 
    3300    1260.4853   -103.06693    1.1405136   -101.92641    7361.2673    4.3475037    4.3475037    4.3475037    7361.2673    92134.153   -47079.168   -22971.183   -19645.964    4950.0313     51081.61     82.17125 
    3400    2178.8487    -103.8887    1.9714681   -101.91723    1389.1132    4.3456227    4.3456227    4.3456227    1389.1132    -3180.487    26580.994   -19233.168    16567.665     6925.625   -24579.431    82.064637 
    3500    1939.5544   -103.68478    1.7549496   -101.92983    26983.632    4.3458306    4.3458306    4.3458306    26983.632    49690.127    22730.128    8530.6395   -18246.436    2056.8517    44085.725    82.076415 
    3600    2257.3233   -103.97201    2.0424736   -101.92953   -17771.431     4.355519     4.355519     4.355519   -17771.431    5480.5014   -23681.513   -35113.281   -5272.9328    -1038.747   -8033.1553    82.626571 
    3700     1713.885    -103.4653    1.5507592   -101.91454   -14551.651    4.3675224    4.3675224    4.3675224   -14551.651    -2857.949    -25059.85   -15737.155    4237.8029    1666.4418    38776.188    83.311588 
    3800    2416.8533   -104.07697    2.1868196   -101.89015    1711.3474    4.3682781    4.3682781    4.3682781    1711.3474    10631.697   -16557.754    11060.099    9201.9017    2829.7369   -4591.0443    83.354845 
    3900    1605.6484   -103.31909    1.4528244   -101.86626   -8173.9649    4.3665866    4.3665866    4.3665866   -8173.9649    10985.807   -46147.462     10639.76   -7491.5061    12128.288    28624.555     83.25805 
    4000    2250.7364    -103.9047    2.0365136   -101.86818   -29436.893    4.3590898    4.3590898    4.3590898   -29436.893   -25183.847   -49722.318   -13404.515    17359.006    -8269.055   -1512.4838    82.829961 
    4100    2110.8096   -103.77848    1.9099049   -101.86857    10751.111    4.3577191    4.3577191    4.3577191    10751.111    36753.173   -6353.1563    1853.3158    2746.9894    20586.107     29960.24    82.751847 
    4200    1908.3061   -103.60332    1.7266755   -101.87664    -29334.06    4.3642419    4.3642419    4.3642419    -29334.06    12396.798   -91287.515    -9111.463   -6401.0539    4616.0876    10937.453    83.124001 
    4300    2078.3132   -103.74475    1.8805015   -101.86425   -16342.955    4.3653428    4.3653428    4.3653428   -16342.955    1832.6019   -18322.537   -32538.928    10118.811   -4839.6185     48757.72    83.186926 
    4400    2114.5926   -103.77565    1.9133278   -101.86233    -5133.896    4.3647627    4.3647627    4.3647627    -5133.896    49726.075       -37274   -27853.763   -12282.825    19368.556    3785.9617    83.153766 
    4500    1660.4787   -103.37852     1.502436   -101.87608   -8321.1598    4.3640924    4.3640924    4.3640924   -8321.1598    31544.376   -4521.7917   -51986.064    14914.529   -1500.2759    28911.435    83.115459 
    4600       2149.2   -103.84353    1.9446414   -101.89889   -10310.978    4.3629901    4.3629901    4.3629901   -10310.978    36150.683   -44653.069   -22430.547     5746.096    17105.345     18141.06    83.052494 
    4700    2193.1681   -103.88811    1.9844246   -101.90368    32966.962    4.3407471    4.3407471    4.3407471    32966.962    13289.171    23969.214    61642.499    572.69036   -6934.9314    36021.981     81.78873 
    4800    1647.1331   -103.44113    1.4903607   -101.95077   -510.66365    4.3543612    4.3543612    4.3543612   -510.66365    32289.119   -29920.305   -3900.8045    7656.2352   -969.39135    31479.118    82.560698 
    4900    2119.2944   -103.83298    1.9175821    -101.9154   -12929.884    4.3763791    4.3763791    4.3763791   -12929.884   -21519.156   -39799.798    22529.301    9077.5158   -5794.9886    5133.0267    83.819451 
    5000    1394.4086   -103.16196    1.2616902   -101.90027    6519.8944    4.3675264    4.3675264    4.3675264    6519.8944    2657.2827    26329.417   -9427.0168   -3560.2687   -1137.7834    55089.486     83.31182 
    5100    2340.7279   -104.00545    2.1179398   -101.88751     -3680.54    4.3466593    4.3466593    4.3466593     -3680.54   -10935.962    38970.793    -39076.45    12286.964   -3135.0364   -8187.8335     82.12338 
    5200    1619.5474    -103.3961    1.4654006    -101.9307    9926.7311    4.3362547    4.3362547    4.3362547    9926.7311    17131.294   -7197.9223    19846.822   -10654.177   -535.47572    56701.685    81.535051 
    5300    2513.7835   -104.19267    2.2745241   -101.91815    10566.254    4.3408358    4.3408358    4.3408358    10566.254   -6519.0392    56384.449   -18166.647    3074.9855    293.63951   -15710.899    81.793743 
    5400    1052.0263   -102.89135   0.95189553   -101.93945   -12400.803    4.3510066    4.3510066    4.3510066   -12400.803    38815.508   -37197.507   -38820.408   -10113.995    6363.7298    65394.468    82.370031 
    5500    2513.0745   -104.16887    2.2738826   -101.89499    3376.1271     4.362082     4.362082     4.362082    3376.1271   -27859.638    26890.899    11097.121   -10682.388   -5803.9936    -15845.14    83.000647 
    5600     1168.142   -102.95692    1.0569594   -101.89996   -15773.176    4.3485828    4.3485828    4.3485828   -15773.176    82579.202    -63403.26   -66495.469   -5435.2239    15063.282    78381.733    82.232452 
    5700    2453.0136   -104.09505    2.2195383   -101.87552    10487.004    4.3434974    4.3434974    4.3434974    10487.004    43486.484   -5934.7245   -6090.7465   -16581.968    5003.9483   -23641.205    81.944289 
    5800    1453.2598   -103.21979      1.31494   -101.90485    -22422.49    4.3495506    4.3495506    4.3495506    -22422.49    42198.116   -55590.128   -53875.458    12698.614   -5643.5742    80678.542    82.287367 
    5900    2202.8526   -103.87863    1.9931873   -101.88544    11854.211     4.354413     4.354413     4.354413    11854.211    62384.333   -39413.888    12592.189   -19255.446    13356.683   -25885.236    82.563647 
    6000    1603.5391   -103.36885    1.4509159   -101.91794   -23529.801    4.3605479    4.3605479    4.3605479   -23529.801    27111.783   -23609.927    -74091.26    3779.6677     2742.027    68260.656    82.913104 
    6100    2418.5564   -104.08014    2.1883607   -101.89178    7971.4858    4.3666304    4.3666304    4.3666304    7971.4858    26549.487    -256.0749   -2378.9546   -15645.248    16241.078   -18785.018    83.260555 
    6200     1756.775   -103.47968     1.589567   -101.89012   -27047.316    4.3704834    4.3704834    4.3704834   -27047.316     6149.448   -54813.526    -32477.87    104.96983    11017.108    85757.663    83.481149 
    6300    2552.8949   -104.17411    2.3099129    -101.8642   -13671.474    4.3717747    4.3717747    4.3717747   -13671.474    2797.7929   -27677.322   -16134.892   -3840.9633    16594.986    3699.8839    83.555171 
    6400    1751.2512   -103.44733    1.5845689   -101.86276   -27431.465    4.3607821    4.3607821    4.3607821   -27431.465    22615.383    -102972.5   -1937.2838   -5952.2746    6949.8764    69124.542    82.926468 
    6500    2076.0063   -103.73355    1.8784141   -101.85514    2253.8979    4.3566617    4.3566617    4.3566617    2253.8979    38537.548   -28572.906   -3202.9491   -5954.9992    4030.8147    21080.304     82.69162 
    6600    1815.3059   -103.52197    1.6425269   -101.87944   -13924.517     4.358677     4.358677     4.358677   -13924.517    59473.842   -31410.207   -69837.185   -22964.157   -5410.8718    46042.237    82.806431 
    6700    1767.1392   -103.48626    1.5989447   -101.88732    15568.316    4.3582109    4.3582109    4.3582109    15568.316    64607.113    39010.072   -56912.237    5029.2179    12644.124    4453.3807     82.77987 
    6800    2090.1906   -103.79685    1.8912484    -101.9056   -21672.579     4.358774     4.358774     4.358774   -21672.579        38155   -40320.664   -62852.074   -14353.545    3186.7835    32073.751    82.811959 
    6900    1584.9087   -103.34314    1.4340587   -101.90908    15640.092    4.3569715    4.3569715    4.3569715    15640.092    90807.966    13418.618   -57306.307   -2250.3496    10959.965    5843.4531    82.709267 
    7000    2459.9899   -104.12469    2.2258506   -101.89884   -30462.221    4.3633872    4.3633872    4.3633872   -30462.221   -11413.223   -19760.093   -60213.349   -18566.521    2934.2546    21853.633    83.075175 
    7100    1841.0706    -103.5676    1.6658393   -101.90176   -33457.881    4.3680254    4.3680254    4.3680254   -33457.881   -4602.9155   -27083.604   -68687.125   -6034.1114    22423.197   -3014.5971     83.34038 
    7200    2312.9163   -103.99121    2.0927752   -101.89843    -6400.639    4.3684101    4.3684101    4.3684101    -6400.639    3637.2437    37580.679   -60419.839    -19224.77   -8532.8912    34683.542    83.362401 
    7300    1693.4014   -103.42633    1.5322251    -101.8941   -3375.1716    4.3712227    4.3712227    4.3712227   -3375.1716   -39057.311    74023.455   -45091.659    5690.6684    30166.601   -2185.8896    83.523521 
    7400    1986.8631   -103.68179    1.7977555   -101.88403   -18697.551    4.3628568    4.3628568    4.3628568   -18697.551    26814.655   -19716.282   -63191.026   -164.17536   -4169.4939    37653.058    83.044885 
    7500    2617.8141   -104.27123    2.3686532   -101.90258   -16428.885     4.360737     4.360737     4.360737   -16428.885   -52829.421    45503.669   -41960.902   -6137.1137   -4492.6699   -1023.7978    82.923894 
    7600    1653.4929   -103.43003    1.4961152   -101.93392   -32627.025    4.3766235    4.3766235    4.3766235   -32627.025    29893.645   -40722.433   -87052.286    2678.8984     3555.649    54179.366    83.833492 
    7700    1959.1821   -103.67836    1.7727091   -101.90565    15330.422    4.3634586    4.3634586    4.3634586    15330.422   -36721.179    69076.011    13636.433   -11723.886    -19980.81   -7856.7438    83.079254 
    7800    1808.1872    -103.5394    1.6360858   -101.90331   -6323.1055    4.3642023    4.3642023    4.3642023   -6323.1055    8131.7096    6225.0126   -33326.039    736.05344    6704.1508    41314.472    83.121741 
    7900    2088.6466   -103.79055    1.8898513    -101.9007   -13822.396    4.3669417    4.3669417    4.3669417   -13822.396   -50038.688    11477.357   -2905.8575   -16004.381   -18168.657    -10801.56    83.278363 
    8000    1798.0017   -103.52579    1.6268697   -101.89892   -21681.974    4.3697365    4.3697365    4.3697365   -21681.974   -8570.3581   -15960.648   -40514.917   -15958.316     8867.741     23236.36    83.438357 
    8100    1639.1714   -103.38288    1.4831567   -101.89972   -9634.8551    4.3606851    4.3606851    4.3606851   -9634.8551   -6982.7981    6613.3089   -28535.076   -4319.2735   -6732.3768    24266.511    82.920932 
    8200    2216.5646   -103.91166    2.0055942   -101.90607   -1493.0386    4.3582369    4.3582369    4.3582369   -1493.0386    4123.1022    5101.7705   -13703.988   -19299.932    6970.3872    4693.4353     82.78135 
    8300    1497.4145   -103.28394    1.3548921   -101.92904   -7222.4905    4.3706744    4.3706744    4.3706744   -7222.4905    16834.954    7390.2611   -45892.687   -11943.845    9825.7465    32173.203    83.492098 
    8400    2415.5248   -104.10515    2.1856176   -101.91954   -10479.336    4.3855404    4.3855404    4.3855404   -10479.336   -23273.481    19251.897   -27416.424   -16581.022    8482.7834   -14801.337    84.346945 
    8500    1684.5946   -103.43493    1.5242566   -101.91068   -24656.337    4.3969521    4.3969521    4.3969521   -24656.337    3710.9997   -10390.466   -67289.546    14367.333    16821.096    49425.942    85.007099 
    8600    2377.5636   -104.01887    2.1512695    -101.8676   -5446.8681    4.3783197    4.3783197    4.3783197   -5446.8681   -42982.422    9316.7729    17325.045   -21412.786    12554.934   -20994.833    83.931002 
    8700    1614.2264   -103.32689     1.460586    -101.8663    34976.621    4.3658156    4.3658156    4.3658156    34976.621   -7240.5738   -1624.9221    113795.36   -3037.6395   -15352.898    67529.209    83.213957 
    8800     2182.145   -103.85176    1.9744506   -101.87731        17815    4.3676845    4.3676845    4.3676845        17815   -28997.515    24624.988    57817.526   -35.409321    8680.2414   -18111.539    83.320866 
    8900    1887.6684   -103.61082     1.708002   -101.90282   -16280.276    4.3756793    4.3756793    4.3756793   -16280.276    20235.045   -30599.168   -38476.704   -5819.2429   -7170.9499    36877.114    83.779248 
    9000    2492.8413   -104.15038    2.2555752    -101.8948   -935.52829    4.3845557    4.3845557    4.3845557   -935.52829    -47143.59    25585.101    18751.904    11047.876   -23882.788   -11236.616    84.290142 
    9100    1673.6663   -103.39621    1.5143685   -101.88184   -13245.928     4.402505     4.402505     4.402505   -13245.928    16452.573   -22247.192   -33943.166   -5837.4729    514.69078   -7317.7148    85.329572 
    9200    2291.9028   -103.89857    2.0737618   -101.82481   -46343.103    4.4079251    4.4079251    4.4079251   -46343.103   -72846.948   -13541.461   -52640.899    2077.0075   -13283.902   -3640.1165     85.64512 
    9300    2175.1955   -103.79721    1.9681626   -101.82905    9796.9305    4.3626093    4.3626093    4.3626093    9796.9305   -24047.131    41736.315    11701.608   -2394.3593    21920.109   -5014.3582     83.03075 
    9400    2197.6459   -103.85085    1.9884762   -101.86238    25646.297    4.3313986    4.3313986    4.3313986    25646.297    16189.677    67830.546   -7081.3321    10419.644     -29266.7    373.23057     81.26143 
    9500    2189.6891   -103.95221    1.9812767   -101.97093    15212.972    4.3527725    4.3527725    4.3527725    15212.972     27159.11    15994.134    2485.6718    4876.8363    9855.1595   -2250.1245    82.470362 
    9600    1782.9976    -103.5837    1.6132937   -101.97041   -15861.307    4.3893714    4.3893714    4.3893714   -15861.307   -33252.789    42482.112   -56813.244   -10544.041   -20722.098    -11075.97    84.568182 
    9700    2243.6934   -103.94508     2.030141   -101.91494   -11495.452     4.395721     4.395721     4.395721   -11495.452     34326.11   -39695.793   -29116.672    28179.147    8565.4658    531.48323    84.935719 
    9800    1579.8441   -103.32715    1.4294761   -101.89767   -9947.5445    4.3793093    4.3793093    4.3793093   -9947.5445   -38586.758    52710.083   -43965.959   -17041.282   -27368.823    11430.624    83.987929 
    9900    2192.6619   -103.85027    1.9839666    -101.8663    37480.841      4.34873      4.34873      4.34873    37480.841    17149.583    21787.562    73505.379    34166.766    8012.2138    5128.4392    82.240799 
   10000    1633.6345   -103.37791    1.4781468   -101.89976   -6099.6227    4.3494765    4.3494765    4.3494765   -6099.6227   -39021.142    55473.563   -34751.289    -18765.96    -44895.92    -6820.209     82.28316 
   10100    2124.1275    -103.8509    1.9219552   -101.92894   -10726.355     4.365747     4.365747     4.365747   -10726.355   -47873.236   -3996.5366    19690.709    18425.836    19639.078    8335.3672    83.210034 
   10200    1570.4565   -103.33802    1.4209821   -101.91704   -25811.379    4.3839817    4.3839817    4.3839817   -25811.379   -60327.157     22237.01   -39343.989    11902.478    -22450.77    104.61362    84.257041 
   10300    1597.4117   -103.33805    1.4453716   -101.89267   -6217.6522    4.3743662    4.3743662    4.3743662   -6217.6522    28810.839   -754.71604    -46709.08   -19262.285    -6480.739    2184.3227    83.703845 
   10400    1874.4689   -103.57643    1.6960588   -101.88037    27885.531    4.3643921    4.3643921    4.3643921    27885.531   -10575.612    83977.295    10254.911    38157.121   -11030.283   -1026.9335    83.132584 
   10500      1355.47   -103.12322    1.2264578   -101.89676   -2064.9019    4.3757772    4.3757772    4.3757772   -2064.9019   -42865.351    64806.099   -28135.454   -6005.3699   -28291.088    3742.0019    83.784868 
   10600    2258.7328   -103.93475    2.0437489     -101.891   -7078.1364    4.3878475    4.3878475    4.3878475   -7078.1364    -22655.74    24238.389   -22817.059    8061.3047    8224.9841   -325.91731    84.480128 
   10700    1745.7546   -103.45757    1.5795955   -101.87797    -10417.77    4.3851154    4.3851154    4.3851154    -10417.77   -19523.816    26987.224    -38716.72    6385.8978   -38761.201    15335.964    84.322425 
   10800    1631.6186   -103.36022    1.4763228    -101.8839    7220.6163    4.3675053    4.3675053    4.3675053    7220.6163   -16979.204   -3170.7219    41811.775   -24970.605    24811.171   -3191.3728    83.310612 
   10900    2274.8459   -103.95071    2.0583284   -101.89239    26966.675     4.357535     4.357535     4.357535    26966.675    48734.597      14986.6    17178.828     6383.569    -43358.81    21941.127    82.741361 
   11000    1370.5749   -103.15832    1.2401249    -101.9182   -10150.068    4.3598742    4.3598742    4.3598742   -10150.068    -87633.93   -34470.246    91653.971   -16303.629    59866.289   -15139.706     82.87468 
   11100    2601.9083    -104.2769    2.3542613   -101.92263   -35032.474     4.378683     4.378683     4.378683   -35032.474   -47291.064   -45610.184   -12196.173   -10241.631    2665.2359    14516.593    83.951895 
   11200     2031.795   -103.74959    1.8384108   -101.91118   -14695.533    4.3824601    4.3824601    4.3824601   -14695.533   -41150.239    21020.561   -23956.921   -6384.5222    35774.884    24141.409    84.169339 
   11300    1644.1533   -103.38327    1.4876645   -101.89561   -44357.461    4.3739204    4.3739204    4.3739204   -44357.461   -81144.349   -54440.919    2512.8843   -21938.508    18766.791    -17229.67    83.678257 
   11400    2732.1835   -104.34766    2.4721371   -101.87552    19547.484    4.3599662    4.3599662    4.3599662    19547.484    22393.119     48363.86   -12114.526   -1428.5997    18613.155   -10907.236    82.879928 
   11500    1895.3408   -103.62719    1.7149442   -101.91224   -45083.732    4.3676776    4.3676776    4.3676776   -45083.732   -84964.398   -27474.215   -22812.583   -21610.007    34105.746   -2800.6093    83.320473 
   11600    1730.8031   -103.48568     1.566067   -101.91962    15533.699     4.363255     4.363255     4.363255    15533.699    12533.535    16154.509    17913.054     4442.323   -26250.547   -1473.0869    83.067621 
   11700    2806.9461   -104.44886    2.5397838   -101.90908   -2645.8808      4.35712      4.35712      4.35712   -2645.8808   -31359.706    18853.495    4568.5689   -23659.283    21796.296    1468.3377    82.717724 
   11800    1152.5906   -102.97428    1.0428882   -101.93139     27312.26     4.357737     4.357737     4.357737     27312.26   -33711.075    61136.643    54511.213    3396.5521     -26586.4    4833.3405    82.752869 
   11900     2194.323    -103.9082    1.9854696   -101.92273    19253.738    4.3697223    4.3697223    4.3697223    19253.738   -26458.316    8272.0003     75947.53   -1804.9106   -12152.251    -4429.816    83.437547 
   12000    1706.3977   -103.45719    1.5439845   -101.91321   -5273.4981    4.3832248    4.3832248    4.3832248   -5273.4981   -62735.494    27415.757    19499.242   -14974.116   -9770.6845   -13484.334    84.213404 
   12100    1484.4724   -103.25083    1.3431818   -101.90765   -14145.176    4.3657948    4.3657948    4.3657948   -14145.176   -22857.663    7483.5823   -27061.447    4300.5094   -43518.272   -6516.9937    83.212768 
   12200    2464.6777   -104.13125    2.2300922   -101.90116    23147.902    4.3470598    4.3470598    4.3470598    23147.902    9222.4383    30643.406     29577.86    535.20947    20789.246    21296.979    82.146077 
   12300    1479.7867   -103.28234    1.3389421   -101.94339    12858.062    4.3599082    4.3599082    4.3599082    12858.062   -31621.496    23419.394    46776.288    13965.016   -28702.864    23529.142     82.87662 
   12400    2004.7245   -103.73183    1.8139169   -101.91792   -13169.645    4.3732694    4.3732694    4.3732694   -13169.645   -58928.984     1393.399    18026.651   -12384.226    21847.112    10200.963    83.640898 
   12500    1718.8144   -103.46357    1.5552194   -101.90835    3445.6135    4.3720053    4.3720053    4.3720053    3445.6135   -35263.313   -29480.236     75080.39    37767.287    -16598.01    19853.441    83.568391 
   12600    2132.9327   -103.82334    1.9299224   -101.89342   -8413.5531    4.3691219    4.3691219    4.3691219   -8413.5531   -48646.744    4295.5241    19110.561   -18631.444    4266.1718    9795.3388    83.403154 
   12700    1332.4277   -103.11736    1.2056086   -101.91176   -28738.882    4.3676013    4.3676013    4.3676013   -28738.882   -62140.787   -44235.433    20159.574    45285.855    10877.887    593.40562    83.316102 
   12800    2795.5456   -104.42895    2.5294684   -101.89949    16210.604    4.3622498    4.3622498    4.3622498    16210.604    588.45126    4995.2615      43048.1   -14077.591   -3203.2068   -4273.9611    83.010228 
   12900    997.08681   -102.83778    0.9021851   -101.93559   -40374.808    4.3732347    4.3732347    4.3732347   -40374.808   -95319.096    -27936.26    2130.9326    43223.885    13957.886    3766.8116     83.63891 
   13000    2608.4365   -104.26701    2.3601682   -101.90684    2413.0723    4.3685963    4.3685963    4.3685963    2413.0723    5498.8454   -9521.0552    11261.427   -19165.599   -3167.5421   -4808.2108    83.373058 
   13100    1690.3828   -103.45556    1.5294939   -101.92606   -40646.575    4.3846366    4.3846366    4.3846366   -40646.575   -95700.151    -62178.68    35939.106    68130.681    4471.3244    2857.3785    84.294804 
   13200     1366.118   -103.12467    1.2360923   -101.88857    9695.2163    4.3911499    4.3911499    4.3911499    9695.2163    27664.799    3738.7239   -2317.8738   -16988.679   -6485.9694   -4695.1693     84.67102 
   13300    2406.5207   -104.05766    2.1774705   -101.88019   -20303.032    4.3686852    4.3686852    4.3686852   -20303.032   -59261.169   -38402.406    36754.479    49734.174   -19228.457   -6099.4122    83.378149 
   13400    2122.7292   -103.81757      1.92069   -101.89688    3034.8323     4.352066     4.352066     4.352066    3034.8323   -15651.318    6417.9625    18337.852   -5924.4329    12525.473    16029.762    82.430212 
   13500     1704.504   -103.48886    1.5422711   -101.94659    13331.314    4.3626329    4.3626329    4.3626329    13331.314   -2752.8583    4623.5594     38123.24    27998.256     -19833.1   -26684.656    83.032097 
   13600     2473.508   -104.16951     2.238082   -101.93143   -59662.111    4.3982824    4.3982824    4.3982824   -59662.111   -83175.993   -47527.146   -48283.195   -1577.1743   -321.87625    7381.7889    85.084282 
   13700    1397.2423   -103.15869    1.2642542   -101.89444   -22242.869    4.3929614    4.3929614    4.3929614   -22242.869   -25926.434   -43031.915    2229.7431    11378.567   -28659.332    18859.588    84.775852 
   13800    2253.3985   -103.90395    2.0389223   -101.86503    32949.492    4.3481295    4.3481295    4.3481295    32949.492    9265.0863   -2514.1543    92097.543    23244.297    28640.821   -6489.1404    82.206737 
   13900    1990.4259   -103.70741    1.8009792   -101.90643   -14015.376    4.3425692    4.3425692    4.3425692   -14015.376   -52589.462    5010.0218    5533.3114   -5878.0094   -53004.388    35610.007    81.891769 
   14000    1850.3219   -103.62142    1.6742101   -101.94721     1972.586    4.3683725    4.3683725    4.3683725     1972.586    15308.137    -46769.88    37379.501    24549.662    21642.947     -12941.2    83.360248 
   14100    2049.0965   -103.77555    1.8540656   -101.92149   -40940.762    4.3932775    4.3932775    4.3932775   -40940.762   -89957.226   -7419.3442   -25445.716   -12177.051   -39138.687    8561.7986    84.794154 
   14200    1105.2786   -102.89794    1.0000793   -101.89786   -2083.0464    4.3789133    4.3789133    4.3789133   -2083.0464    514.90684   -52906.287     46142.24     33457.21    6370.0714    27968.018    83.965146 
   14300    2600.0612   -104.20744      2.35259   -101.85485     9835.252    4.3509195    4.3509195    4.3509195     9835.252   -28732.142    13370.378     44867.52    -26008.05   -16113.909    1402.1954    82.365081 
   14400    1444.7245   -103.21213    1.3072171   -101.90492   -8580.2258    4.3653961    4.3653961    4.3653961   -8580.2258   -13172.612   -43384.183    30816.117    44817.028   -7045.0066    7562.4938    83.189968 
   14500    1720.5019   -103.45931    1.5567463   -101.90256   -6047.4777    4.3833939    4.3833939    4.3833939   -6047.4777   -15009.565    18713.979   -21846.848    20636.751    10646.143    10129.863     84.22315 
   14600    1895.8477   -103.59359    1.7154028   -101.87819    8271.4545    4.3920546    4.3920546    4.3920546    8271.4545   -49076.279    20475.234    53415.408    13745.816   -5603.7598   -15089.723    84.723365 
   14700    1835.4811   -103.53826    1.6607819   -101.87748   -38029.012    4.3838495    4.3838495    4.3838495   -38029.012   -56401.031   -52893.153   -4792.8535   -26376.024    19966.539   -20792.183    84.249418 
   14800    2364.1663   -103.99795    2.1391474   -101.85881    13650.419    4.3553367    4.3553367    4.3553367    13650.419   -41947.982    18022.064    64877.176    26757.675   -3962.5379    4468.8612    82.616197 
   14900    2050.3935   -103.74489    1.8552391   -101.88965    5838.7722     4.362001     4.362001     4.362001    5838.7722   -14159.108    36577.518    -4902.093   -6423.6307    5698.3894    -19710.65    82.996023 
   15000    1634.9412   -103.39859    1.4793292   -101.91926   -42561.531    4.3764712    4.3764712    4.3764712   -42561.531   -94712.436   -41953.469    8981.3106    51656.757    13144.067   -17941.457     83.82474 
   15100    2383.9468   -104.07052    2.1570452   -101.91348    8220.2264    4.3607098    4.3607098    4.3607098    8220.2264   -17895.544   -7719.5047    50275.728   -7902.1374   -19650.296    7441.6902    82.922339 
   15200    1611.3957   -103.39179    1.4580247   -101.93376     9198.682    4.3560275    4.3560275    4.3560275     9198.682   -22260.175    38827.738    11028.483    20307.813    1996.6985   -31589.689    82.655513 
   15300    1866.1315   -103.61722     1.688515   -101.92871    24218.227    4.3620462    4.3620462    4.3620462    24218.227    40324.562   -39816.457    72146.576    23901.061     2795.423    11026.669    82.998601 
   15400    1951.7823   -103.67693    1.7660136   -101.91092   -7034.4449     4.385049     4.385049     4.385049   -7034.4449   -51492.752    16427.131    13962.286    1306.5487    3443.8247   -7323.2179    84.318596 
   15500    1714.8006   -103.45321    1.5515876   -101.90163   -27561.205     4.376801     4.376801     4.376801   -27561.205   -61070.011    -43197.25    21583.645    52839.899    3832.9721   -3139.2089    83.843695 
   15600    1955.0525   -103.64891    1.7689726   -101.87994    49267.127    4.3383508    4.3383508    4.3383508    49267.127    49695.464    53785.019    44320.897   -13927.647     1171.415    13341.565    81.653346 
   15700    1903.3424   -103.64373    1.7221842   -101.92154    28756.174    4.3526881    4.3526881    4.3526881    28756.174   -12883.302   -15547.119    114698.94    42237.711    9775.9126    -29611.43    82.465569 
   15800    1491.6134   -103.28178    1.3496431   -101.93214     12512.95    4.3813651    4.3813651    4.3813651     12512.95    26920.655    2514.1679    8104.0279   -3655.5202    32532.185    2925.1305    84.106262 
   15900    1697.3517     -103.433    1.5357995    -101.8972   -10706.057     4.402983     4.402983     4.402983   -10706.057   -16352.384   -55485.907    39720.119     31885.37    13750.631   -18093.177    85.357373 
   16000     1884.728    -103.5468    1.7053415   -101.84146    16267.215     4.386262     4.386262     4.386262    16267.215     98744.43   -47572.962   -2369.8223    5945.8836    36631.421   -3558.8222    84.388585 
   16100    1583.7662   -103.27553    1.4330249   -101.84251    -2756.186     4.360784     4.360784     4.360784    -2756.186    -42761.75   -81308.571    115801.76    30871.545    2031.2974   -14600.021    82.926573 
   16200    2381.0018   -104.01241    2.1543805   -101.85803    3985.6216    4.3506751    4.3506751    4.3506751    3985.6216    59196.084   -36287.949   -10951.271    5347.1724    23705.665    -24813.85    82.351203 
   16300    1760.6176   -103.50578    1.5930438   -101.91274   -6443.4687    4.3575069    4.3575069    4.3575069   -6443.4687   -75380.225   -6056.2057    62106.025    22630.573    8918.9017   -6377.9805    82.739758 
   16400    2354.4488   -104.03837    2.1303548   -101.90801   -43786.328    4.3815535    4.3815535    4.3815535   -43786.328   -6122.1951   -79204.432   -46032.357     2096.055    5237.1577   -43756.475     84.11711 
   16500    1270.4865   -103.04236    1.1495629    -101.8928   -844.44354    4.3798205    4.3798205    4.3798205   -844.44354   -14193.633    -18803.19    30463.492    12929.808    12654.567    690.85284     84.01734 
   16600    2564.5174   -104.19319    2.3204292   -101.87276   -10922.024    4.3638093    4.3638093    4.3638093   -10922.024    945.52518   -30916.731   -2794.8665    13083.679    11308.997   -16950.324    83.099287 
   16700    1240.0872   -103.01333    1.1220569   -101.89127    36915.366    4.3388116    4.3388116    4.3388116    36915.366    25617.168    17593.431    67535.498   -30.316649    22740.229   -8134.4798    81.679368 
   16800    2014.7627   -103.75814    1.8229996   -101.93514    168.95989    4.3356066    4.3356066    4.3356066    168.95989   -11061.811   -34713.645    46282.335    13976.505   -712.75686    22275.478    81.498497 
   16900     2502.992   -104.21221    2.2647597   -101.94745   -6862.3256    4.3562435    4.3562435    4.3562435   -6862.3256   -41726.914   -2687.5669    23827.504   -13379.951    2325.2052    1828.0749    82.667811 
   17000    1333.8712   -103.14743    1.2069147   -101.94051   -28738.855    4.3812039    4.3812039    4.3812039   -28738.855   -62733.852   -31658.551     8175.837    6793.0346    1891.7026    34153.446    84.096978 
   17100     2200.676   -103.87431    1.9912179    -101.8831   -17508.859    4.3752366    4.3752366    4.3752366   -17508.859   -23761.468    -32386.54    3621.4312   -20579.856   -1142.4319    25168.646    83.753822 
   17200     1748.937   -103.46282    1.5824749   -101.88035   -5991.2532     4.361043     4.361043     4.361043   -5991.2532   -5090.1872    11448.051   -24331.623    11810.569     12675.75   -10983.377     82.94135 
   17300    2122.2463   -103.80356     1.920253   -101.88331    34761.012    4.3432265    4.3432265    4.3432265    34761.012   -2682.8862   -23620.879     130586.8    -23964.74   -14423.032     13269.89    81.928957 
   17400     1503.127   -103.29269    1.3600609   -101.93263    1426.2129    4.3470916    4.3470916    4.3470916    1426.2129   -16623.612     -30321.9    51224.151    14515.907    53410.546   -11303.014    82.147885 
   17500    2454.3438   -104.15461    2.2207419   -101.93387    1924.8601    4.3675202    4.3675202    4.3675202    1924.8601     3245.757    8433.2904    -5904.467   -19573.736    4857.1146    9563.8283    83.311464 
   17600     1370.034    -103.1824    1.2396356   -101.94277   -17077.208    4.3711398    4.3711398    4.3711398   -17077.208   -36091.678   -53289.236    38149.288   -26710.995    27505.205    229.29419    83.518772 
   17700    2089.8703   -103.78941    1.8909586   -101.89845    19826.006    4.3584182    4.3584182    4.3584182    19826.006    19259.427    61251.372   -21032.782    14371.855    22951.814    -2371.749    82.791681 
   17800     2037.266   -103.74503    1.8433611   -101.90167    13602.257    4.3490285    4.3490285    4.3490285    13602.257    17397.867   -6008.1772    29417.083    -43650.05    14771.332     17321.15     82.25774 
   17900    1871.2369   -103.60383    1.6931344    -101.9107    33165.657    4.3493044    4.3493044    4.3493044    33165.657     51275.87     63646.18    -15425.08     11410.67    33337.328    3700.4064    82.273391 
   18000     1648.595    -103.4167    1.4916834   -101.92502     15850.74    4.3592966    4.3592966    4.3592966     15850.74   -3308.8312    19616.851    31244.199   -31605.529   -6293.2432    6663.5029    82.841747 
   18100    2022.3899   -103.75007    1.8299009   -101.92017    -14939.05    4.3758882    4.3758882    4.3758882    -14939.05   -55571.892    13148.888   -2394.1464   -576.07912     47514.63     22867.72    83.791247 
   18200    2113.6541   -103.80262    1.9124786   -101.89014     272.8282    4.3728797    4.3728797    4.3728797     272.8282    13952.531    16826.504    -29960.55   -9691.9436   -16088.783    1663.5307     83.61854 
   18300     1166.164   -102.95061    1.0551697   -101.89544   -5362.7433    4.3654353    4.3654353    4.3654353   -5362.7433   -33931.412    48846.893   -31003.711   -17254.339    57093.454    15893.038    83.192211 
   18400    2828.7873   -104.42939    2.5595462   -101.86984   -13870.761    4.3610439    4.3610439    4.3610439   -13870.761   -12226.867   -46749.948    17364.532    10734.631   -13162.255   -4011.5753    82.941402 
   18500    1483.7807   -103.25582     1.342556   -101.91327   -4812.1525    4.3539551    4.3539551    4.3539551   -4812.1525   -24890.081    24456.316   -14002.692   -17880.755    56830.407   -2767.2965    82.537599 
   18600    1990.5255   -103.71559    1.8010693   -101.91452    23579.384     4.361393     4.361393     4.361393    23579.384    23717.125   -7706.0637     54727.09    5305.8716    609.75565   -1663.6592    82.961325 
   18700    1650.8194    -103.4262    1.4936961    -101.9325   -34031.941    4.3684182    4.3684182    4.3684182   -34031.941   -47112.937   -17335.205   -37647.682   -20821.556     29149.45   -15982.414    83.362862 
   18800    2107.4424    -103.8223    1.9068581   -101.91544    7471.0143    4.3629151    4.3629151    4.3629151    7471.0143    -13831.14    37078.178   -833.99475    17725.705    21407.049    4837.0867    83.048212 
   18900    1942.6832   -103.66058    1.7577806    -101.9028    -25963.44    4.3594912    4.3594912    4.3594912    -25963.44   -29306.886   -1055.6123    -47527.82   -19191.841    14204.229   -25166.197    82.852843 
   19000    1352.8178   -103.14004     1.224058   -101.91598     26454.32    4.3530334    4.3530334    4.3530334     26454.32    -34655.28    61456.439    52561.799   -8926.5543    46035.361    9088.8405    82.485193 
   19100    2729.8704   -104.37469    2.4700441   -101.90465   -6325.4347    4.3536765    4.3536765    4.3536765   -6325.4347   -7137.9424   -25847.032    14008.671    12590.845   -7934.9844    7557.7708    82.521758 
   19200    961.31918    -102.8152    0.8698218   -101.94538    20797.482    4.3654536    4.3654536    4.3654536    20797.482    5446.9664   -13155.193    70100.672   -31554.857    66732.253    1261.7146    83.193255 
   19300     2298.178   -103.98061    2.0794398   -101.90117    12127.726    4.3762782    4.3762782    4.3762782    12127.726   -4245.5902   -329.25519    40958.022    15920.854   -25522.698    19147.187     83.81365 
   19400    1836.6379   -103.56191    1.6618285   -101.90008   -40281.592    4.3586739    4.3586739    4.3586739   -40281.592   -76362.838    12504.684   -56986.621   -23163.874    63573.693   -10610.316    82.806252 
   19500    2006.3944   -103.70908    1.8154278   -101.89365     46032.58    4.3495963    4.3495963    4.3495963     46032.58    58061.217   -12200.607    92237.131    13186.626   -2469.5264     11643.15     82.28996 
   19600    1960.3828   -103.69163    1.7737955   -101.91783   -34971.087    4.3641908    4.3641908    4.3641908   -34971.087   -44981.165   -10329.109   -49602.987   -23147.503    28862.107    287.69473     83.12108 
   19700    2224.1535   -103.91594    2.0124609   -101.90348   -23773.419    4.3758641    4.3758641    4.3758641   -23773.419   -27627.251   -37130.866   -6562.1395    8245.3085   -3971.8573   -8209.7702    83.789865 
   19800     1716.247   -103.42543    1.5528963   -101.87253   -54992.047    4.3928965    4.3928965    4.3928965   -54992.047   -29408.083   -56992.134   -78575.926   -17161.144    29799.572    22194.101    84.772096 
   19900    1895.9908   -103.54766    1.7155323   -101.83213   -876.32146    4.3682724    4.3682724    4.3682724   -876.32146   -41165.771    34897.548    3639.2587     8861.195    10678.518   -6234.9363    83.354518 
   20000    2276.0776   -103.89179    2.0594428   -101.83235   -11467.458    4.3356649    4.3356649    4.3356649   -11467.458    8605.8682   -10085.383   -32922.859   -8270.4452    15972.408    8513.6097    81.501787 
   20100    1885.6376   -103.60388    1.7061645   -101.89772    4384.3863    4.3394294    4.3394294    4.3394294    4384.3863    -50265.91    27746.153    35672.916   -10741.837    27037.384   -1447.2082    81.714264 
   20200    1835.5967   -103.59268    1.6608865   -101.93179   -8553.6635    4.3697659    4.3697659    4.3697659   -8553.6635   -12588.435    54621.394    -67693.95   -1361.0156   -22754.695      10374.8    83.440044 
   20300    2218.6696   -103.87861    2.0074989   -101.87111    -58297.99    4.4068682    4.4068682    4.4068682    -58297.99   -87528.327    -54124.96   -33240.683   -7273.9489    21001.462   -10807.403    85.583527 
   20400    2072.8764   -103.72122    1.8755822   -101.84564   -28800.324    4.3773188    4.3773188    4.3773188   -28800.324   -83717.685    35600.204   -38283.491     13917.77   -39931.021    8781.2489    83.873454 
   20500     1963.206   -103.58829      1.77635   -101.81194    31640.672    4.3269393    4.3269393    4.3269393    31640.672   -28260.118     99782.25    23399.885   -28152.763    26119.171    161.88342    81.010704 
   20600    1699.7165   -103.41886    1.5379392   -101.88092    47113.712    4.3277161    4.3277161    4.3277161    47113.712   -29115.325    187329.43   -16872.968    26529.859   -48794.576    -1691.969    81.054344 
   20700    2339.9395   -104.05872    2.1172264   -101.94149   -26820.356    4.3612252    4.3612252    4.3612252   -26820.356   -49118.897    30181.932   -61524.103   -23057.038    32226.825    12574.472    82.951745 
   20800    1783.5943   -103.54319    1.6138336   -101.92936     -41137.7    4.3832308    4.3832308    4.3832308     -41137.7   -93947.459    42224.517   -71690.159   -2629.7801   -62146.909   -4839.6969    84.213753 
   20900    2141.6335   -103.81373     1.937795   -101.87594   -19847.318    4.3749168    4.3749168    4.3749168   -19847.318    8204.5031   -22454.982   -45291.474   -7711.7632    37224.616    20253.246    83.735455 
   21000    1827.3266   -103.50942    1.6534035   -101.85602    -27741.71    4.3509093    4.3509093    4.3509093    -27741.71   -40277.481   -20748.642   -22199.008    557.93892   -39124.843    29401.638    82.364504 
   21100    2513.4059   -104.13914    2.2741825   -101.86496   -1800.5704    4.3497515    4.3497515    4.3497515   -1800.5704    37130.785    5455.5104   -47988.007   -6242.7605    9707.8175   -1186.8864    82.298771 
   21200    1962.9509   -103.66448    1.7761193   -101.88836   -44573.509    4.3714175    4.3714175    4.3714175   -44573.509   -12620.081   -47976.357   -73124.088   -4361.9942    -17886.49    55570.081     83.53469 
   21300    1790.7548   -103.51114    1.6203125   -101.89083   -9103.5312    4.3644617    4.3644617    4.3644617   -9103.5312   -19766.721     7041.408    -14585.28    21552.443   -15569.872   -35769.975    83.136561 
   21400    2676.7935   -104.32348     2.422019   -101.90146   -3969.3351    4.3526499    4.3526499    4.3526499   -3969.3351    4989.8413    24537.785   -41435.631   -16578.876   -10185.916    41758.685    82.463394 
   21500    1206.0319   -103.01245     1.091243    -101.9212    14678.351    4.3382175    4.3382175    4.3382175    14678.351   -18503.995    60466.701    2072.3479    40236.858   -16056.145   -44703.652    81.645825 
   21600    2424.3677   -104.14118    2.1936189   -101.94756   -16056.246    4.3539773    4.3539773    4.3539773   -16056.246   -2243.3684   -9609.2157   -36316.153   -3192.1893   -7191.8164   -24216.967    82.538861 
   21700    2157.9508   -103.88847    1.9525593   -101.93591   -12741.334    4.3687632    4.3687632    4.3687632   -12741.334   -45011.976    59246.257   -52458.281    15837.148   -12605.853   -18378.791    83.382619 
   21800    1442.0306    -103.2374    1.3047796   -101.93262   -41455.458    4.3528893    4.3528893    4.3528893   -41455.458   -23218.784   -84437.846   -16709.745    23314.964   -9816.2776   -43210.581    82.477004 
   21900    2425.2928   -104.11052    2.1944559   -101.91606    23406.435      4.32826      4.32826      4.32826    23406.435    22806.324    47303.433    109.54687   -32259.384    28.912194      28429.4    81.084909 
   22000    1799.9291   -103.58086    1.6286137   -101.95225    18159.524    4.3268615    4.3268615    4.3268615    18159.524    4077.8898    11332.087    39068.594    42604.575    -2019.359   -51370.528    81.006336 
   22100    2128.3768    -103.8795    1.9258001    -101.9537   -11616.057    4.3647571    4.3647571    4.3647571   -11616.057   -41344.061    7255.1086    -759.2174   -16603.327    4365.3821    18018.598    83.153441 
   22200    1444.2409   -103.22644    1.3067795   -101.91967   -33741.434     4.379027     4.379027     4.379027   -33741.434   -33733.451   -44456.422   -23034.428    6860.3265   -6632.7618   -29433.885    83.971687 
   22300    1830.6208    -103.5531    1.6563842   -101.89672    18776.036    4.3458025    4.3458025    4.3458025    18776.036    6981.1242    4324.7393    45022.243    47966.181   -10403.339   -13305.092    82.074824 
   22400    2290.1259   -103.96178     2.072154   -101.88963    21315.249    4.3276511    4.3276511    4.3276511    21315.249    36903.764   -5488.9386    32530.921   -13563.356    11981.193    2789.5632    81.050692 
   22500    1035.8094   -102.89516   0.93722211   -101.95794    8276.9089    4.3413805    4.3413805    4.3413805    8276.9089   -41518.373   -51311.685    117660.78    57501.462    12004.244   -30675.029    81.824537 
   22600    3020.8325   -104.66244    2.7333127   -101.92913   -22801.354    4.3652933    4.3652933    4.3652933   -22801.354   -27519.088    -29707.83   -11177.143   -33225.001    21324.902    1719.9196    83.184091 
   22700    1375.7433   -103.18282    1.2448014   -101.93802   -14608.228    4.3574299    4.3574299    4.3574299   -14608.228    966.38954   -88547.705     43756.63    71813.415    5646.0298    -18587.41    82.735373 
   22800    2063.8374   -103.77991    1.8674034   -101.91251    28125.424    4.3551225    4.3551225    4.3551225    28125.424   -10975.359    19815.356    75536.274   -47228.591   -15263.824   -17100.671    82.604012 
   22900    1722.8238   -103.46291    1.5588471   -101.90407     20697.65    4.3572617    4.3572617    4.3572617     20697.65    10567.729     7125.441     44399.78    43098.989    7405.7117   -26281.102    82.725792 
   23000    1501.8154   -103.27141    1.3588741   -101.91253   -10014.645    4.3585901    4.3585901    4.3585901   -10014.645   -28717.549   -23174.646    21848.262   -40773.732   -8055.9692    -30643.19    82.801478 
   23100    2173.2953   -103.87944    1.9664433     -101.913   -4727.6149    4.3639461    4.3639461    4.3639461   -4727.6149    16437.221   -51994.562    21374.496   -28072.548    536.53418    10243.946    83.107099 
   23200    1377.1966   -103.15967    1.2461164   -101.91356    17609.047    4.3609749    4.3609749    4.3609749    17609.047    15804.201    -41748.01     78770.95    4100.5581    1579.9937   -42250.206    82.937463 
   23300    1806.6346   -103.56495    1.6346809   -101.93027   -11784.292    4.3532715    4.3532715    4.3532715   -11784.292    20392.733   -76618.261    20872.651   -28144.422    -2923.034    28255.897    82.498729 
   23400    2214.6174   -103.92407    2.0038323   -101.92024    42005.924    4.3420759    4.3420759    4.3420759    42005.924    116588.54   -18269.421    27698.652     3422.147   -2768.7965   -3849.9944    81.863865 
   23500    1666.9337   -103.45693    1.5082766   -101.94865   -33458.664    4.3384301    4.3384301    4.3384301   -33458.664   -11502.207   -90679.279    1805.4957    -27865.64    3554.5751    11273.799    81.657825 
   23600    1604.7919   -103.41887    1.4520494   -101.96682   -450.48711    4.3449375    4.3449375    4.3449375   -450.48711    17980.545    -61740.52    42408.514    6624.1769   -18508.128    34611.779    82.025826 
   23700    2394.6349   -104.09956     2.166716   -101.93285    15295.578    4.3544324    4.3544324    4.3544324    15295.578    62636.692   -31539.448    14789.491   -23857.378    5076.0907    2497.3304    82.564749 
   23800    1069.7718    -102.8928   0.96795196   -101.92485   -41397.721    4.3678629    4.3678629    4.3678629   -41397.721   -7132.1867   -83791.597   -33269.378   -10354.048    -14148.16    39541.827    83.331075 
   23900    2594.3536   -104.22966    2.3474256   -101.88224   -12928.965    4.3608191    4.3608191    4.3608191   -12928.965     -30199.9   -23807.994        15221    3601.7142   -20623.839   -22330.192    82.928575 
   24000      1857.29   -103.57435     1.680515   -101.89383   -4165.3227    4.3414164    4.3414164    4.3414164   -4165.3227    48273.471    -41121.81   -19647.629   -24551.778    2928.2455    68198.385    81.826565 
   24100    1797.8662   -103.54499    1.6267471   -101.91824   -29033.999    4.3406847    4.3406847    4.3406847   -29033.999   -35867.128   -53148.383    1913.5138    7535.1695   -41428.055   -42621.944    81.785198 
   24200    2191.2203   -103.91175    1.9826622   -101.92908    12772.923    4.3416663    4.3416663    4.3416663    12772.923    22446.285   -38487.582    54360.065   -189.73866    1722.5694    24358.663    81.840699 
   24300    1508.0851   -103.31079    1.3645471   -101.94625    2449.9981    4.3591163    4.3591163    4.3591163    2449.9981     3419.828   -95.974468    4026.1406    -17213.16   -15330.443    -18022.06    82.831468 
   24400    1725.0893   -103.48728     1.560897   -101.92638    -33946.11    4.3685227    4.3685227    4.3685227    -33946.11   -21848.862   -61842.806   -18146.663    6792.5232   -8775.8581    -48924.73    83.368849 
   24500    2102.3689   -103.79893    1.9022676   -101.89666   -755.05174    4.3550432    4.3550432    4.3550432   -755.05174   -57390.594    53200.612    1924.8268   -35678.354     13032.06    9782.2917    82.599499 
   24600    1398.1251   -103.18442    1.2650529   -101.91936   -14152.024     4.343414     4.343414     4.343414   -14152.024   -37242.742    44050.279    -49263.61   -1464.6665    -31973.24   -42240.191     81.93957 
   24700    2601.7548   -104.29148    2.3541224   -101.93735     17067.86      4.34124      4.34124      4.34124     17067.86     -28567.9    28052.683    51718.797    8176.8934    25773.364    12563.764    81.816592 
   24800    1773.4905   -103.56141    1.6046915   -101.95672   -19573.975    4.3661976    4.3661976    4.3661976   -19573.975   -13073.198   -6077.2629   -39571.463    -10531.15   -20323.445    632.07883    83.235799 
   24900    1543.1374   -103.33542    1.3962631   -101.93915   -7029.7925    4.3621734    4.3621734    4.3621734   -7029.7925   -20041.277    55496.024   -56544.124    42101.069    17838.647   -15644.696    83.005866 
   25000    2401.9006   -104.07371    2.1732901   -101.90042   -6957.5746    4.3604756    4.3604756    4.3604756   -6957.5746    -35501.51   -64652.981    79281.767   -28410.293   -2345.3178     5482.125    82.908982 
   25100     1514.223   -103.28025    1.3701008   -101.91015   -26358.995    4.3501246    4.3501246    4.3501246   -26358.995   -16226.261   -25371.201   -37479.522    25659.571    5730.1775    -60736.36    82.319948 
   25200    1607.5027    -103.3789    1.4545022    -101.9244    30145.154    4.3335638    4.3335638    4.3335638    30145.154    -7904.461    4267.5845    94072.338   -6638.4269     26826.91    33085.757    81.383353 
   25300    2416.8425   -104.12518    2.1868099   -101.93837   -11192.946    4.3536272    4.3536272    4.3536272   -11192.946   -12705.293   -23517.627    2644.0838    792.84422    3786.0386   -38066.357    82.518953 
   25400    1510.5305   -103.31312    1.3667597   -101.94636    33848.211    4.3536814    4.3536814    4.3536814    33848.211     15702.75   -29917.279    115759.16    4051.2131    20647.446     10551.48    82.522035 
   25500    1696.5036   -103.47937    1.5350321   -101.94434   -9629.3862    4.3621754    4.3621754    4.3621754   -9629.3862    -52014.93    15766.243    7360.5287   -7647.4807   -1220.1508   -6836.9503    83.005978 
   25600    2699.2491   -104.35504    2.4423373    -101.9127    11407.515    4.3618004    4.3618004    4.3618004    11407.515    15503.546   -40122.383     58841.38    606.98119    -9702.913    6732.1435    82.984571 
   25700    940.42395    -102.8072   0.85091535   -101.95628   -39842.256    4.3523624    4.3523624    4.3523624   -39842.256   -46711.922   -6975.4943   -65839.352    -24573.27   -9496.9968     19338.54    82.447055 
   25800    1870.4496   -103.63309    1.6924221   -101.94067    43292.343    4.3271414    4.3271414    4.3271414    43292.343    24527.756     20400.52    84948.753   -4951.7065   -6598.7222   -18619.846    81.022056 
   25900    2345.7403   -104.07348    2.1224751     -101.951    799.62309     4.344796     4.344796     4.344796    799.62309    5129.5626   -22792.528    20061.835   -8722.1879   -86.207541     5040.346    82.017812 
   26000    1256.0751   -103.09136    1.1365232   -101.95483    16391.865    4.3536489    4.3536489    4.3536489    16391.865   -35681.543    35419.059     49438.08   -15850.774   -3927.6607    1012.2359    82.520189 
   26100    2043.2009   -103.77939    1.8487311   -101.93066    5463.7003    4.3578863    4.3578863    4.3578863    5463.7003   -5829.9981   -45547.781     67768.88    8318.9357   -67.867115   -30910.133    82.761373 
   26200    2630.8616   -104.30834    2.3804589   -101.92788   -2486.5087    4.3448151    4.3448151    4.3448151   -2486.5087   -24614.146   -18981.555    36136.175   -1669.3106    1342.8828    10588.946    82.018893 
   26300    1359.5809   -103.19027    1.2301774    -101.9601   -6632.3749    4.3221409    4.3221409    4.3221409   -6632.3749   -6706.0534   -4241.1248   -8949.9464    1749.0365   -8062.8033   -53486.654    80.741488 
   26400    1604.8705    -103.4358    1.4521205   -101.98368    2566.1606    4.3209427    4.3209427    4.3209427    2566.1606    4927.5953   -39008.451    41779.337    16744.149   -2208.8303     46639.59     80.67436 
   26500    2582.3139   -104.33253    2.3365319   -101.99599   -4296.2308    4.3402226    4.3402226    4.3402226   -4296.2308   -22456.403   -20236.141    29803.851   -12854.496   -3993.1988   -23002.115    81.759085 
   26600    1286.1929    -103.1662    1.1637743   -102.00242   -53303.249    4.3512188    4.3512188    4.3512188   -53303.249   -5426.6277   -77853.092   -76630.026    15262.442   -1004.4448    10468.385    82.382085 
   26700    1535.3112   -103.36554    1.3891819   -101.97636    17605.482     4.331912     4.331912     4.331912    17605.482   -5944.7305   -16047.636    74808.814   -4768.8853     3447.417    37953.438    81.290329 
   26800    2794.2818   -104.47502    2.5283249    -101.9467    4181.8084    4.3328276    4.3328276    4.3328276    4181.8084   -31527.149   -12499.717    56572.291    13989.809    2248.3872    -2771.568    81.341886 
   26900    1395.2161   -103.22584    1.2624208   -101.96342    6884.4436     4.333807     4.333807     4.333807    6884.4436   -24297.383    7141.2947    37809.419    19010.849    2974.8882    50433.003    81.397054 
   27000    1737.1776   -103.54604    1.5718348    -101.9742   -6160.5169    4.3424618    4.3424618    4.3424618   -6160.5169   -61495.225    15763.015    27250.659   -13157.941    3291.6648   -20016.371    81.885689 
   27100    2246.3949   -104.00345    2.0325853   -101.97087   -20505.093    4.3448178    4.3448178    4.3448178   -20505.093   -63419.226   -41718.963     43622.91    34642.623    5357.8641    12939.541    82.019046 
   27200     1838.913   -103.62865    1.6638871   -101.96477    7835.1896    4.3383447    4.3383447    4.3383447    7835.1896   -15206.514    33137.337    5574.7458   -10499.939    -174.5783    19437.129    81.653002 
   27300    1705.1616   -103.50794     1.542866   -101.96507   -36147.887    4.3449973    4.3449973    4.3449973   -36147.887   -76814.299   -2057.9411   -29571.422    16792.215    5043.5381   -38509.947    82.029213 
   27400     2020.891    -103.7902    1.8285447   -101.96166    24799.529    4.3480062    4.3480062    4.3480062    24799.529   -15560.526    24299.654    65659.458    3061.0598    5116.7669   -6241.8534    82.199744 
   27500    2231.4952   -103.99098    2.0191037   -101.97188   -15459.468     4.342928     4.342928     4.342928   -15459.468   -23600.489    12423.933   -35201.847   -8527.9198   -7334.4383    4461.6221    81.912069 
   27600    1182.6475   -103.05501    1.0700843   -101.98492    27242.185    4.3321194    4.3321194    4.3321194    27242.185   -5536.1207    65420.702    21841.974     15661.82    3133.9293   -34936.871    81.302006 
   27700    2415.9857   -104.16708    2.1860346   -101.98104    9462.6741    4.3395978    4.3395978    4.3395978    9462.6741    4139.9313   -8416.3051    32664.396   -12713.751   -6532.2208    7693.8646    81.723778 
   27800    2032.7115   -103.83372    1.8392401   -101.99448   -24904.442    4.3506564    4.3506564    4.3506564   -24904.442   -31420.362   -35031.629   -8261.3356   -3557.9856   -11831.201    -6290.819    82.350145 
   27900    937.00402   -102.85461   0.84782093   -102.00678   -43109.922    4.3538536    4.3538536    4.3538536   -43109.922   -29536.161   -44378.273   -55415.331    3076.1643    21142.809   -30453.755    82.531829 
   28000    2775.7232    -104.4865    2.5115327   -101.97496    30764.194    4.3262535    4.3262535    4.3262535    30764.194   -11867.769    37005.105    67155.245   -6393.9795   -9576.5554    10136.069    80.972188 
   28100    1887.9622   -103.70767    1.7082679    -101.9994    692.39349    4.3253583    4.3253583    4.3253583    692.39349    3025.3471   -19637.217     18689.05    10167.859    6383.2881   -18009.356    80.921936 
   28200    1506.0728   -103.37715    1.3627263   -102.01443   -17359.259    4.3370617    4.3370617    4.3370617   -17359.259   -54381.291    26156.635   -23853.122   -8853.0189    1261.9009    8310.6667    81.580584 
   28300    2232.3523   -104.00995    2.0198792   -101.99007   -20533.773    4.3579175    4.3579175    4.3579175   -20533.773   -66976.838   -20504.506    25880.023     3016.254   -17153.959   -7500.4604    82.763152 
   28400    2357.4522   -104.10022    2.1330723   -101.96715    16612.265     4.346368     4.346368     4.346368    16612.265   -25822.029   -36830.475     112489.3   -4628.1871    10510.517    3161.3854    82.106869 
   28500    951.83479   -102.85316   0.86124013   -101.99192   -50816.845    4.3261214    4.3261214    4.3261214   -50816.845   -103470.81    49944.964   -98924.686    2384.2138   -20578.825    3216.5045    80.964772 
   28600    2309.7325   -104.06814    2.0898945   -101.97825    36935.312     4.318168     4.318168     4.318168    36935.312    6166.5162    30248.304    74391.116     4445.403    24162.523   -5047.1644    80.519043 
   28700    2198.0412   -103.98362    1.9888338   -101.99479   -5665.2464    4.3387966    4.3387966    4.3387966   -5665.2464    -66792.21    16289.052    33507.419    662.94165   -21308.498   -7706.6654     81.67852 
   28800    1270.0189    -103.1412    1.1491398   -101.99206   -34533.806    4.3557757    4.3557757    4.3557757   -34533.806   -63284.107    11818.933   -52136.243    4962.2357    -6452.478    6743.3767     82.64118 
   28900    2042.2406   -103.81223    1.8478622   -101.96437    25628.474    4.3475333    4.3475333    4.3475333    25628.474    -17613.93    23591.012    70908.341   -3016.2592    2962.0865   -34351.445    82.172924 
   29000     2537.183   -104.24184    2.2956965   -101.94614   -2344.0668    4.3447734    4.3447734    4.3447734   -2344.0668   -20736.693    20335.756   -6631.2627    10728.159   -10702.907    8009.9137     82.01653 
   29100    1063.2054   -102.92976    0.9620106   -101.96775     24855.26    4.3286422    4.3286422    4.3286422     24855.26    -12563.36    38372.899    48756.242   -3727.6327    13641.798   -31490.321    81.106391 
   29200    2199.0344   -103.97396    1.9897325   -101.98423   -13094.355    4.3354282    4.3354282    4.3354282   -13094.355    5324.1088   -47173.914    2566.7405   -10637.852    693.10834   -20024.327     81.48844 
   29300    2331.5805   -104.09422     2.109663   -101.98456    33413.477     4.331282     4.331282     4.331282    33413.477   -8616.9318    1556.0146    107301.35    9226.8867   -302.86278    22975.822    81.254866 
   29400    1281.4834    -103.1623    1.1595131   -102.00279   -33424.248     4.338635     4.338635     4.338635   -33424.248   -11394.417   -46556.408   -42321.919   -20288.562    4810.7858   -45926.607    81.669395 
   29500    1762.4134   -103.56389    1.5946686   -101.96922   -16126.146    4.3398187    4.3398187    4.3398187   -16126.146   -29863.366    14607.401   -33122.473   -178.88045   -20153.545    13991.795    81.736262 
   29600    2056.1185    -103.8142    1.8604193   -101.95378   -4137.3731    4.3307309    4.3307309    4.3307309   -4137.3731   -14956.533   -43377.853    45922.267   -21478.382    6040.8911   -12088.833    81.223855 
   29700    1496.3465   -103.32266    1.3539257   -101.96873   -18871.902    4.3318287    4.3318287    4.3318287   -18871.902    -61295.98    35935.478   -31255.206    -11455.77   -26028.265   -18101.616    81.285641 
   29800    2045.4304   -103.82107    1.8507484   -101.97033    21456.661    4.3285443    4.3285443    4.3285443    21456.661   -37638.129    61335.692    40672.421   -3628.7656     11288.21    26902.797    81.100888 
   29900    2364.6354   -104.11088    2.1395718    -101.9713   -9480.5442    4.3412956    4.3412956    4.3412956   -9480.5442   -31986.014   -6447.4029    9991.7842   -6495.7756   -10144.634    -19276.57    81.819735 
   30000    860.96228   -102.75938   0.77901676   -101.98036    1522.7249    4.3400489    4.3400489    4.3400489    1522.7249   -102064.38    105296.03    1336.5253    10706.213   -10155.843   -7589.5438    81.749267 
   30100    2640.2447   -104.34032    2.3889489   -101.95137   -694.03122    4.3397945    4.3397945    4.3397945   -694.03122   -7501.4502   -1328.7691    6748.1256   -1270.6966    16937.873     2690.699    81.734892 
   30200    1885.9146    -103.6577    1.7064152   -101.95129    17751.799    4.3400531    4.3400531    4.3400531    17751.799   -42351.696    49353.357    46253.738    3680.9088   -16397.857   -1305.9602    81.749506 
   30300    1685.4096   -103.47993     1.524994   -101.95493   -15421.274    4.3392042    4.3392042    4.3392042   -15421.274   -78655.742    38647.027   -6255.1085   -1344.6024    19902.858    5275.2239    81.701542 
   30400    2084.2132    -103.8404    1.8858399   -101.95456   -1219.5058    4.3416598    4.3416598    4.3416598   -1219.5058    6935.6862   -52656.621    42062.418   -9722.4341   -6721.3087    47730.927    81.840331 
   30500    2134.3578   -103.88431    1.9312118    -101.9531   -7272.0707    4.3545276    4.3545276    4.3545276   -7272.0707   -65223.701     35751.38    7656.1091   -2512.5201      5380.84   -31717.709    82.570163 
   30600    1544.1751   -103.36175    1.3972021   -101.96454   -5226.7762    4.3483452    4.3483452    4.3483452   -5226.7762   -31498.669   -59303.214    75121.554   -14445.609    720.12311    47239.541    82.218972 
   30700    1909.5909   -103.71163    1.7278379   -101.98379    23974.461     4.334523     4.334523     4.334523    23974.461   -17186.098   -71.173173    89180.654    8797.8593   -8434.2468    2291.4225    81.437407 
   30800    1766.6027   -103.61077    1.5984592   -102.01231   -5847.7518    4.3348054    4.3348054    4.3348054   -5847.7518   -27036.305    23988.458   -14495.409   -9092.3895    12740.059    6332.5373    81.453322 
   30900    1757.8707   -103.61314    1.5905583   -102.02258   -17676.161    4.3421564    4.3421564    4.3421564   -17676.161    -21192.25    -29383.55   -2452.6826   -9725.3337    3093.2219    57184.188    81.868417 
   31000    3221.2686   -104.90719    2.9146715   -101.99251    3400.9066    4.3463853    4.3463853    4.3463853    3400.9066   -27409.835   -17517.761    55130.316    5616.2325   -5339.3835   -30577.716    82.107847 
   31100    1621.9311   -103.48135    1.4675573   -102.01379   -32835.943    4.3387902    4.3387902    4.3387902   -32835.943    8725.7181   -77643.373   -29590.175    -9219.159    7534.8244    78336.788    81.678163 
   31200    1918.0379   -103.74732     1.735481   -102.01184   -27635.105    4.3357115    4.3357115    4.3357115   -27635.105    -65999.79    508.28795   -17413.812     6938.127   -15661.636   -19212.465    81.504412 
   31300    2338.0837   -104.12735    2.1155473   -102.01181    6930.0216    4.3352155    4.3352155    4.3352155    6930.0216   -24292.783   -26841.502     71924.35   -3604.2755    -8124.593    23961.947    81.476448 
   31400    1896.0954   -103.71479     1.715627   -101.99917    14184.044    4.3412487    4.3412487    4.3412487    14184.044   -40200.524   -14152.304    96904.959    10924.287    1342.6449   -3085.3372    81.817083 
   31500    1076.7787    -102.9677   0.97429202   -101.99341    -42483.75    4.3582494    4.3582494    4.3582494    -42483.75   -88921.287    32206.959   -70736.924    2679.7876   -15852.136   -16591.059    82.782062 
   31600    2917.2848   -104.57692    2.6396206    -101.9373    26980.286    4.3482533    4.3482533    4.3482533    26980.286   -24535.354    636.98239    104839.23    8756.7991     5195.652   -4533.6361    82.213758 
   31700    1228.3653   -103.06908    1.1114507   -101.95763    -2619.757    4.3282316    4.3282316    4.3282316    -2619.757   -63996.702    59804.438    -3667.007     13899.91   -1653.7297   -15039.956    81.083309 
   31800    1821.1641   -103.60026    1.6478275   -101.95243   -14446.053    4.3262852    4.3262852    4.3262852   -14446.053   -19696.857     7185.173   -30826.476   -5089.9729    9256.2669    8413.1996    80.973969 
   31900    1998.7694   -103.77838    1.8085285   -101.96985     23801.18    4.3408312    4.3408312    4.3408312     23801.18    8633.2669    596.98416    62173.289    6145.3627   -8485.5772    36271.423     81.79348 
   32000    1961.0958   -103.73211    1.7744407   -101.95767    9810.8199    4.3511361    4.3511361    4.3511361    9810.8199   -71937.052      7885.24    93484.272    2525.9254   -4398.4849   -4261.1799    82.377388 
   32100    1242.4527   -103.08878    1.1241973   -101.96459    -34366.17    4.3425358    4.3425358    4.3425358    -34366.17   -7354.8108   -89531.225   -6212.4737   -13522.296    6723.4956    56114.409    81.889877 
   32200    2660.0734   -104.36157    2.4068903   -101.95468    20536.287    4.3333023    4.3333023    4.3333023    20536.287   -19637.579   -1533.3176    82779.758    1104.0636   -2423.6387   -40425.433    81.368625 
   32300     1871.021   -103.67766    1.6929391   -101.98472    11138.884    4.3333111    4.3333111    4.3333111    11138.884   -17246.805    2750.1981     47913.26    2686.8461    11911.594    43623.905    81.369117 
   32400    1709.1369    -103.5307     1.546463   -101.98424    2061.4626    4.3486397    4.3486397    4.3486397    2061.4626    -16847.76    18295.858    4736.2896   -12751.118    4583.7129    8777.4501    82.235676 
   32500     2016.522   -103.76418    1.8245915   -101.93959    8707.3133    4.3574254    4.3574254    4.3574254    8707.3133    2520.0676    26733.195   -3131.3224    15167.247    3342.4858    1904.3074    82.735115 
   32600     1490.162   -103.28648    1.3483299   -101.93815   -24610.155    4.3488045    4.3488045    4.3488045   -24610.155   -5504.4575   -10798.028   -57527.979   -15596.801    5788.6665    42550.734    82.245027 
   32700    2673.2772   -104.32479    2.4188374   -101.90595    11012.765    4.3302825    4.3302825    4.3302825    11012.765   -11250.789    47785.855   -3496.7709    21494.762   -11052.378   -47914.938    81.198629 
   32800    1305.8507   -103.12287    1.1815611   -101.94131   -15615.185    4.3389355    4.3389355    4.3389355   -15615.185   -10996.705    -27501.52   -8347.3296   -15482.226    7167.3749    56799.803    81.686366 
   32900    1575.4383   -103.38532    1.4254897   -101.95983   -1264.4873    4.3495681    4.3495681    4.3495681   -1264.4873   -73800.139    83553.916   -13547.239   -4795.3221   -7542.2292    16233.353    82.288361 
   33000    2589.0439   -104.28305    2.3426214   -101.94043   -7151.6003    4.3443481    4.3443481    4.3443481   -7151.6003   -48287.179    32101.242   -5268.8638    10044.542   -27778.014    21852.334    81.992449 
   33100    1591.4255     -103.392    1.4399553   -101.95205    5060.3585    4.3359718    4.3359718    4.3359718    5060.3585   -30380.941   -5672.0926    51234.109   -26407.187     10231.92    43125.661    81.519092 
   33200    1537.1698   -103.35134    1.3908635   -101.96047    -12431.17    4.3361387    4.3361387    4.3361387    -12431.17   -83748.385    48286.831   -1831.9561    32385.212    -25485.41   -9784.9588    81.528506 
   33300    1960.3068   -103.73862    1.7737268   -101.96489    7132.5432    4.3381118    4.3381118    4.3381118    7132.5432   -1265.4245    7751.6687    14911.385    3441.1281    3893.9545    50537.213    81.639853 
   33400    2321.1689   -104.06398    2.1002424   -101.96374   -2263.4153    4.3408218    4.3408218    4.3408218   -2263.4153   -55110.479    36715.296    11604.937    12272.874   -16088.369   -16467.365    81.792949 
   33500    1161.7225   -103.01785    1.0511509    -101.9667   -40816.202      4.34814      4.34814      4.34814   -40816.202   -71204.961   -29255.545     -21988.1     8093.765   -14879.222    28340.886    82.207333 
   33600    2067.6892   -103.82277    1.8708886   -101.95188    22233.004    4.3414386    4.3414386    4.3414386    22233.004    3298.3697   -16627.217    80027.858   -15278.818    8464.3848    20341.415    81.827822 
   33700    2479.2608    -104.1994    2.2432873   -101.95611    15022.483    4.3374295    4.3374295    4.3374295    15022.483   -32335.118    35002.432    42400.134    7906.7684   -17869.247    2001.4449    81.601339 
   33800    1149.1365   -103.03367    1.0397629   -101.99391   -17102.685    4.3533164    4.3533164    4.3533164   -17102.685   -36275.363   -60122.141    45089.447   -24795.878    10577.471     49684.43     82.50128 
   33900    2932.5566   -104.58127    2.6534388   -101.92783   -10673.372    4.3698858    4.3698858    4.3698858   -10673.372   -27239.167   -25848.298    21067.349    6457.7117    3078.8694   -3089.4291     83.44691 
   34000    1165.4305   -102.98907     1.054506   -101.93456    11540.257    4.3573629    4.3573629    4.3573629    11540.257   -21928.912   -26001.428    82551.112   -28881.666    3879.4038    44860.357    82.731558 
   34100    2163.7254   -103.88571    1.9577842   -101.92792   -17194.086    4.3483156    4.3483156    4.3483156   -17194.086   -63793.401   -9336.8349    21547.978    11603.603    4314.1758    5774.9985    82.217294 
   34200    1995.1298   -103.73875    1.8052353   -101.93352    41330.329    4.3373298    4.3373298    4.3373298    41330.329   -8199.8487    11357.075    120833.76   -13754.624   -9358.7409    19340.021    81.595715 
   34300     1681.659   -103.47965    1.5216004   -101.95805    2836.8473    4.3450286    4.3450286    4.3450286    2836.8473    -19521.29    32400.247   -4368.4157    4753.7784    15893.566    11533.748    82.030981 
   34400    2010.7102   -103.75749    1.8193329   -101.93816    -5157.505    4.3622159    4.3622159    4.3622159    -5157.505   -49080.946   -4324.3002    37932.731    4190.1453    -836.4172   -12068.075    83.008291 
   34500    1853.3772   -103.60014    1.6769746   -101.92316    5376.0636     4.364626     4.364626     4.364626    5376.0636    29464.276    1245.2318   -14581.317    5156.5285    10976.122    32285.761    83.145952 
   34600     2404.169   -104.08014    2.1753426    -101.9048   -11581.606    4.3609507    4.3609507    4.3609507   -11581.606    -60970.44    42801.359   -16575.737    2298.1501   -7369.6121   -22418.241    82.936087 
   34700    1773.5032   -103.50905     1.604703   -101.90435   -32628.757    4.3478142    4.3478142    4.3478142   -32628.757    11594.693   -29066.441   -80414.524   -6761.5194   -12254.271    28974.191    82.188855 
   34800    1892.7984   -103.62693    1.7126438   -101.91429    30683.222    4.3387195    4.3387195    4.3387195    30683.222    -10331.26    19608.836    82772.092   -3176.6774    21391.793   -23903.713    81.674168 
   34900    2316.2352   -104.02259    2.0957783   -101.92681    22813.768    4.3433436    4.3433436    4.3433436    22813.768   -13161.718    1217.5988    80385.424   -1424.0066    1815.7363    37285.245    81.935584 
   35000    1078.9406   -102.94249   0.97624813   -101.96624    2979.6268    4.3444779    4.3444779    4.3444779    2979.6268    17690.085   -14073.069    5321.8644     4940.925    11553.879   -1910.2485    81.999797 
   35100    2679.4926   -104.34603    2.4244612   -101.92156   -17318.788    4.3551245    4.3551245    4.3551245   -17318.788   -12085.203   -18615.563   -21255.599   -5088.0821    5805.2711    6650.5344    82.604125 
   35200    1229.9194   -103.04283    1.1128569   -101.92997   -13464.633    4.3501359    4.3501359    4.3501359   -13464.633    4386.9415    11911.747   -56692.587   -6266.7433    4414.7191    19190.486     82.32059 
   35300    2434.9611   -104.11738     2.203204   -101.91417    -4803.713    4.3357038    4.3357038    4.3357038    -4803.713    2229.0155    4825.1431   -21465.298    3012.1363    9924.5757   -25181.192    81.503981 
   35400    1546.6165   -103.32793    1.3994112   -101.92852   -11758.873    4.3349491    4.3349491    4.3349491   -11758.873   -32930.867    32009.396   -34355.149    1843.4539   -16856.524    27689.458    81.461427 
   35500    1843.5282   -103.60304    1.6680631   -101.93498    1991.3883    4.3413801    4.3413801    4.3413801    1991.3883    12837.983   -12911.792    6047.9736    107.27656    648.64335   -48618.733    81.824513 
   35600    2354.7668   -104.05392    2.1306425   -101.92328   -11460.962    4.3482966    4.3482966    4.3482966   -11460.962   -20672.273   -11793.864   -1916.7483   -13447.964   -15331.039    17034.738    82.216213 
   35700    1108.6318   -102.93662    1.0031134   -101.93351     -26121.6    4.3488676    4.3488676    4.3488676     -26121.6   -6355.4506   -18025.317   -53984.032   -2334.3223    11131.035   -41086.536    82.248611 
   35800    2971.7257    -104.6006    2.6888799   -101.91172    22011.416    4.3384973    4.3384973    4.3384973    22011.416   -179.06642     10386.88    55826.435   -3765.5946    1073.5552    3260.6713    81.661622 
   35900    1180.8775   -103.01511    1.0684828   -101.94663   -13772.951    4.3338884    4.3338884    4.3338884   -13772.951    10584.131   -59343.839    7440.8548   -18683.469   -3719.8152   -20411.591    81.401645 
   36000    2209.3531   -103.94646    1.9990692   -101.94739   -8803.0375    4.3373005    4.3373005    4.3373005   -8803.0375   -23059.301    13443.904   -16793.716     6101.893    36205.098    -106.9204    81.594056 
   36100    1863.4751   -103.63897    1.6861115   -101.95286   -25365.251    4.3499725    4.3499725    4.3499725   -25365.251   -51257.425   -59499.425    34661.095   -15096.315   -12506.804   -4306.0983    82.311312 
   36200    1737.0124   -103.52388    1.5716853   -101.95219    -4505.901    4.3503936    4.3503936    4.3503936    -4505.901   -13591.318    7225.5288   -7151.9143    973.88584    15298.997   -26259.247    82.335219 
   36300    2400.8921   -104.11737    2.1723776   -101.94499   -15869.395    4.3404841    4.3404841    4.3404841   -15869.395   -80763.275   -2224.8935    35379.984   -4622.5105   -13342.461    -49.88124    81.773864 
   36400    1004.2466   -102.86854   0.90866342   -101.95988    50143.313    4.3308975    4.3308975    4.3308975    50143.313   -11676.817    61581.426    100525.33   -4569.2664   -9987.8151   -22460.874    81.233229 
   36500    2847.7631   -104.51531    2.5767159   -101.93859    5325.2518    4.3444747    4.3444747    4.3444747    5325.2518   -32493.757   -17482.011    65951.524    2177.3689    6699.0833   -9022.5003    81.999618 
   36600    1477.1887   -103.28764    1.3365913   -101.95105   -5993.1178    4.3459319    4.3459319    4.3459319   -5993.1178   -64773.279    5216.6362    41577.289   -13317.088   -17758.481   -12976.076    82.082156 
   36700    1837.8357   -103.59697    1.6629123   -101.93405    11147.644     4.347637     4.347637     4.347637    11147.644     -33804.8   -10006.866      77254.6    948.23425    17000.032   -8994.0198    82.178805 
   36800    1868.1502   -103.63241    1.6903416   -101.94207   -11742.278     4.335093     4.335093     4.335093   -11742.278   -74911.229   -38858.793    78543.189   -16033.124   -2209.7647    6817.9422    81.469541 
   36900    2324.3736   -104.03689    2.1031421   -101.93375     20365.98    4.3227029    4.3227029    4.3227029     20365.98     1764.187    29595.228    29738.525    24281.019    8651.3914   -25729.767    80.772992 
   37000    1452.3778   -103.26449     1.314142   -101.95035    9140.3339    4.3285911    4.3285911    4.3285911    9140.3339   -64673.488    1251.1701    90843.319   -37635.764    23271.045   -1499.5684    81.103517 
   37100    2270.9181   -104.00589    2.0547744   -101.95112   -14890.022    4.3446168    4.3446168    4.3446168   -14890.022   -50279.719   -12403.835    18013.489    43486.743   -10079.185   -1265.4167    82.007661 
   37200    1697.7311   -103.46556    1.5361428   -101.92941    9719.5432    4.3588494    4.3588494    4.3588494    9719.5432   -67093.167    49018.371    47233.425   -47769.751     13169.01   -19425.896    82.816257 
   37300     1785.026   -103.51868     1.615129   -101.90355   -36916.763    4.3594205    4.3594205    4.3594205   -36916.763   -84942.863    -64585.62    38778.193    28103.209    9639.2373    13351.925     82.84881 
   37400    2153.4174   -103.82916    1.9484573    -101.8807    2219.0275    4.3367084    4.3367084    4.3367084    2219.0275   -17491.373    37858.191   -13709.735   -28049.823   -20628.628   -4714.7437     81.56065 
   37500    1802.2355    -103.5307    1.6307006       -101.9   -16021.093    4.3288863    4.3288863    4.3288863   -16021.093   -51617.715   -34239.945    37794.381   -12005.657    19690.253    3333.7964    81.120108 
   37600    1960.0323   -103.68859    1.7734785   -101.91511    8732.2839    4.3427373    4.3427373    4.3427373    8732.2839    6557.2146    26262.991   -6623.3542    11107.589   -18421.204    30090.366    81.901279 
   37700    1675.9263    -103.4379    1.5164133   -101.92149   -15902.847    4.3553395    4.3553395    4.3553395   -15902.847   -14992.075   -41890.596    9174.1292   -57957.089    478.71663   -7894.7991    82.616359 
   37800    2478.9211   -104.14308    2.2429799    -101.9001     -11289.3    4.3538081    4.3538081    4.3538081     -11289.3     29958.81   -8652.9762   -55173.733     37395.07    748.02707    33164.379    82.529239 
   37900    1259.5738   -103.05731    1.1396888   -101.91762    2366.3592    4.3375139    4.3375139    4.3375139    2366.3592   -17690.216    8820.1494    15969.144   -79682.693   -26698.667    6233.7106    81.606105 
   38000    2735.7093   -104.38656    2.4753273   -101.91123    20852.787    4.3298451    4.3298451    4.3298451    20852.787    37061.706    18213.767    7282.8893    28292.481    19346.489    17010.752    81.174026 
   38100    1388.5626   -103.19217    1.2564006   -101.93577    -14290.76    4.3414326    4.3414326    4.3414326    -14290.76   -26744.449    -7171.633   -8956.1969   -73340.624    -20670.49      16965.1    81.827484 
   38200    2142.5015   -103.87009    1.9385804   -101.93151   -20491.583    4.3514666    4.3514666    4.3514666   -20491.583   -28732.838    174.07159   -32915.982   -5490.8283    2500.1015    7199.7721    82.396158 
   38300    1961.6234   -103.69038    1.7749181   -101.91546   -14755.168    4.3506402    4.3506402    4.3506402   -14755.168   -18988.233   -35222.747    9945.4756   -41712.851    9750.9999    16857.199    82.349222 
   38400    1580.9329   -103.35193    1.4304613   -101.92147    -12753.77    4.3448903    4.3448903    4.3448903    -12753.77   -22129.285    13860.041   -29992.067   -29758.243   -35229.148    28.556523    82.023148 
   38500    2452.1299   -104.12658    2.2187387   -101.90784    1919.5635    4.3369146    4.3369146    4.3369146    1919.5635   -18439.923   -10780.219    34978.832   -20665.126    4312.5862   -15189.758    81.572284 
   38600    1167.8065   -102.98027    1.0566559   -101.92361   -7367.7824    4.3344025    4.3344025    4.3344025   -7367.7824   -20833.156   -7306.2461    6036.0551   -50949.707   -35588.117    6379.4932    81.430614 
   38700     2367.464   -104.04937    2.1421311   -101.90724   -2213.8592    4.3349917    4.3349917    4.3349917   -2213.8592    5639.4154   -10391.487   -1889.5062    1902.5509   -7216.8508   -39867.797    81.463825 
   38800    1735.8116   -103.49514    1.5705988   -101.92454    -6604.211     4.337281     4.337281     4.337281    -6604.211   -38879.563    20696.564    -1629.634   -77844.876   -15971.219    2933.5271     81.59296 
   38900    2093.4816   -103.81032    1.8942262   -101.91609   -3740.7635    4.3362995    4.3362995    4.3362995   -3740.7635    11275.143    1586.4296   -24083.863    14593.349   -36355.816   -20577.698    81.537577 
   39000     1641.505   -103.41725    1.4852682   -101.93198   -19286.134    4.3496291    4.3496291    4.3496291   -19286.134   -4311.6738   -57005.147     3458.418    -52332.52    5561.6625   -16998.805    82.291824 
   39100    2312.1526   -104.00553    2.0920842   -101.91345    4944.9673    4.3509203    4.3509203    4.3509203    4944.9673   -15256.875    83283.732   -53191.956    2936.9757   -47667.328    19011.621    82.365127 
   39200    1556.0144   -103.33146    1.4079145   -101.92355   -12689.779    4.3541389    4.3541389    4.3541389   -12689.779    19272.734   -55315.576   -2026.4952   -43554.103     9863.515   -2120.7084    82.548053 
   39300    2090.3594   -103.79984    1.8914011   -101.90843    290.87009    4.3448077    4.3448077    4.3448077    290.87009   -15318.201    64846.058   -48655.247   -23011.183   -27976.768    4326.8428    82.018473 
   39400    1709.1646   -103.47007    1.5464881   -101.92358   -5240.7427    4.3402638    4.3402638    4.3402638   -5240.7427    20498.915   -19379.314   -16841.828   -1540.7573   -1710.2796     24024.75    81.761412 
   39500    2074.9746   -103.80446    1.8774807   -101.92698   -5928.8093    4.3446735    4.3446735    4.3446735   -5928.8093   -1650.6671    9155.2067   -25290.967   -35068.353     34195.44   -6356.3086    82.010874 
   39600    2031.4282   -103.75796    1.8380789   -101.91988    5284.5212    4.3491128    4.3491128    4.3491128    5284.5212    71942.855   -7788.1438   -48301.147    1331.6227    -11161.65    31095.902    82.262521 
   39700     1816.182   -103.56545    1.6433196   -101.92213   -18364.604    4.3577075    4.3577075    4.3577075   -18364.604   -19423.491   -12532.902   -23137.419   -12946.719    33039.297   -10145.873    82.751188 
   39800    2165.1953   -103.86704    1.9591142   -101.90792   -1290.9572    4.3514857    4.3514857    4.3514857   -1290.9572    73623.237   -695.35444   -76800.754    3536.7562    9001.5002    36486.965    82.397246 
   39900    2286.4719   -103.97641    2.0688478   -101.90756   -26273.417    4.3480953    4.3480953    4.3480953   -26273.417     -23656.1   -49614.308   -5549.8431    20384.795   -9392.4177   -11278.831    82.204796 
   40000    1614.3041   -103.39052    1.4606563   -101.92986     35112.39    4.3368304    4.3368304    4.3368304     35112.39    109238.38    54412.115   -58313.325   -1756.7402   -4713.9163    26389.186    81.567531 
   40100    2171.5945   -103.90124    1.9649043   -101.93634    -3016.873     4.347263     4.347263     4.347263    -3016.873   -13462.254   -27762.363    32173.998    38436.452   -6945.1719   -7962.3924    82.157599 
   40200    1893.8505   -103.63013    1.7135957   -101.91654   -15094.516    4.3594528    4.3594528    4.3594528   -15094.516    26707.798   -21074.611   -50916.735   -18019.213   -10826.637    25137.154    82.850653 
   40300    1695.0364   -103.43474    1.5337046   -101.90103    22871.597    4.3584217    4.3584217    4.3584217    22871.597    64230.492   -14515.561    18899.859    34516.849   -4520.7647    7170.0503    82.791878 
   40400    1939.6251   -103.63877    1.7550136   -101.88376   -23737.811    4.3641102    4.3641102    4.3641102   -23737.811   -17432.129   -55616.583    1835.2796   -14751.007   -5898.2995    24842.058    83.116476 
   40500    1738.5164   -103.46193    1.5730461   -101.88888   -13681.559    4.3498116    4.3498116    4.3498116   -13681.559    33900.104   -71451.307   -3493.4744    19294.904   -3408.4757    20826.241    82.302178 
   40600    1849.5789   -103.58373    1.6735379   -101.91019    8220.3379    4.3324902    4.3324902    4.3324902    8220.3379    32280.433   -32935.709    25316.289    18175.428    12683.044    8747.9578    81.322881 
   40700    1674.1329   -103.45847    1.5147907   -101.94368    12641.966    4.3347201    4.3347201    4.3347201    12641.966    58178.433   -38248.587    17996.052   -45010.058   -10479.277    27670.716    81.448515 
   40800    1893.3664   -103.65077    1.7131577   -101.93761    14102.324    4.3532774    4.3532774    4.3532774    14102.324    46644.969   -43253.353    38915.357    27355.767     7670.239   -6079.4396    82.499067 
   40900    1527.6787   -103.30126    1.3822758   -101.91898   -13359.479    4.3715678    4.3715678    4.3715678   -13359.479    5980.2558    -3844.177   -42214.515   -41930.627   -11027.483    35829.267    83.543308 
   41000     2343.834   -103.99837    2.1207502   -101.87762   -15875.654    4.3676539    4.3676539    4.3676539   -15875.654   -3209.0105   -16940.276   -27477.676    10206.118   -11730.863   -21828.884    83.319118 
   41100    1610.1344   -103.34539    1.4568834    -101.8885     16901.65    4.3260395    4.3260395    4.3260395     16901.65   -1961.6033   -22074.282    74740.836    -23474.27    25121.963    49311.385    80.960177 
   41200    1849.7318   -103.57079    1.6736762   -101.89712    32300.132    4.3093489    4.3093489    4.3093489    32300.132    43478.479    31440.724    21981.193     -18340.3    -50579.88   -54423.933    80.026709 
   41300    2302.4496   -104.01095    2.0833048   -101.92764   -3268.6052    4.3456138    4.3456138    4.3456138   -3268.6052      5281.85   -27622.078    12534.413   -18096.318    17505.507    31346.703    82.064135 
   41400    1322.4882     -103.118    1.1966151   -101.92139   -26821.717    4.3726819    4.3726819    4.3726819   -26821.717   -21786.658   -72038.537    13360.043   -27619.113    -18457.77   -39660.053    83.607195 
   41500    1975.3255   -103.68489     1.787316   -101.89757    5384.0409    4.3610529    4.3610529    4.3610529    5384.0409    6730.5858   -32302.947    41724.484     10354.89   -21541.103     5576.096    82.941915 
   41600      2329.36   -104.01622    2.1076539   -101.90856   -11848.012    4.3300229    4.3300229    4.3300229   -11848.012    7807.3424   -40509.029   -2842.3514   -43050.607     4295.209   -15693.771    81.184023 
   41700    1292.2635   -103.09253    1.1692671   -101.92327    26287.329    4.3050921    4.3050921    4.3050921    26287.329    53609.905    149.09912    25102.982    7844.1617   -35837.905   -36504.073    79.789792 
   41800    2619.0823   -104.31672    2.3698007   -101.94692    26221.437    4.3254173    4.3254173    4.3254173    26221.437    28620.265    4348.6155     45695.43   -11595.861    -3867.285    10331.687    80.925248 
   41900    1335.4946   -103.15439    1.2083836     -101.946   -21259.465    4.3607719    4.3607719    4.3607719   -21259.465    4435.2307   -65525.042   -2688.5828   -6086.4448   -21538.446   -43436.302    82.925883 
   42000    1630.3602   -103.39443    1.4751842   -101.91925   -17363.579    4.3600452    4.3600452    4.3600452   -17363.579   -58753.617   -48347.645    55010.526    31226.293   -35064.749    9545.0726    82.884434 
   42100    2468.4475   -104.13175    2.2335032   -101.89824    9539.1838    4.3413732    4.3413732    4.3413732    9539.1838    39039.981    -47670.96    37248.531   -15835.593   -544.81029   -26228.154    81.824124 
   42200    1034.6962   -102.87022   0.93621487   -101.93401   -8749.2178    4.3216728    4.3216728    4.3216728   -8749.2178   -39009.874   -24341.864    37104.085    55162.879   -49193.858   -4052.8438    80.715258 
   42300    2738.6527   -104.41366    2.4779905   -101.93567    8526.8621    4.3253645    4.3253645    4.3253645    8526.8621    34478.702   -7096.6362   -1801.4794   -19795.301   -1687.1402   -5726.4236    80.922283 
   42400    1219.9777   -103.06512    1.1038615   -101.96126   -5035.1237    4.3470967    4.3470967    4.3470967   -5035.1237    43464.489   -63464.591    4894.7312    57558.475   -4036.3912    -28290.66    82.148171 
   42500    2434.8285   -104.13413     2.203084   -101.93105   -15623.952    4.3581474    4.3581474    4.3581474   -15623.952    2903.0861   -2208.0522   -47566.891   -5631.4674   -23412.387    7668.2204    82.776252 
   42600    1750.2031   -103.50342    1.5836205    -101.9198   -5925.3301    4.3603193    4.3603193    4.3603193   -5925.3301    41252.108   -41652.679   -17375.419    36112.169    24018.564   -29312.091    82.900069 
   42700    2127.9824   -103.83663    1.9254432   -101.91119   -24628.552    4.3395689    4.3395689    4.3395689   -24628.552   -40756.495    10056.484   -43185.646      16601.2   -49088.161    803.82534    81.722147 
   42800    2295.5519   -103.97276    2.0770636    -101.8957    36117.789    4.3156916    4.3156916    4.3156916    36117.789     70421.41    19664.758      18267.2    3008.8219     18165.68    -17967.71    80.380593 
   42900    1280.5043   -103.11119    1.1586272   -101.95256   -20950.078    4.3329874    4.3329874    4.3329874   -20950.078   -52401.326   -16783.332    6334.4244    45801.366   -25475.067   -17507.582    81.350883 
   43000    2426.1408   -104.13096    2.1952232   -101.93573    27054.512    4.3513916    4.3513916    4.3513916    27054.512    18103.679   -24273.052    87332.909   -16466.366   -26227.996    905.56572    82.391896 
   43100     1283.942   -103.09775    1.1617377   -101.93601   -4112.2356    4.3664877    4.3664877    4.3664877   -4112.2356    12134.795   -51818.685    27347.183    50220.348   -17172.977   -13463.118    83.252392 
   43200    1745.9373   -103.49147    1.5797608   -101.91171   -9453.6835    4.3537249    4.3537249    4.3537249   -9453.6835   -30425.255   -11334.293    13398.498   -31949.776   -36836.005    2802.2513    82.524511 
   43300    2053.0666   -103.75265    1.8576578   -101.89499    16380.738    4.3318673    4.3318673    4.3318673    16380.738    13626.451   -40015.273    75531.036    40806.532    10799.319    23473.699     81.28781 
   43400    1777.8813   -103.52682    1.6086643   -101.91816   -6925.2724    4.3336241    4.3336241    4.3336241   -6925.2724   -34569.208    33360.381    -19566.99   -20146.439   -27732.164    1866.1155    81.386754 
   43500    1584.5123   -103.36201       1.4337   -101.92831   -18319.898     4.347394     4.347394     4.347394   -18319.898   -4362.8618   -59966.114    9369.2811   -20941.659    14485.913     38246.48     82.16503 
   43600    2197.8661   -103.90358    1.9886754    -101.9149   -16202.613    4.3489065    4.3489065    4.3489065   -16202.613   -20132.385    -11093.32   -17382.133    7787.0376   -26992.897   -1164.7301    82.250816 
   43700    1311.6697   -103.11415    1.1868263   -101.92733   -20355.335    4.3532858    4.3532858    4.3532858   -20355.335   -21355.599   -42075.192    2364.7861   -59517.412   -12263.665    13251.839     82.49954 
   43800    2938.3258   -104.55534    2.6586589   -101.89668   -1760.1053    4.3479753    4.3479753    4.3479753   -1760.1053   -25336.093   -9345.1791    29400.957    -1952.077   -4271.5287    4165.5638    82.197991 
   43900    1498.0625   -103.29668    1.3554784    -101.9412    -40005.26    4.3445024    4.3445024    4.3445024    -40005.26   -60032.146   -34114.157   -25869.477   -48489.747   -45308.133    -7140.773    82.001186 
   44000    1758.2187   -103.54003    1.5908732   -101.94915    22542.548    4.3239936    4.3239936    4.3239936    22542.548    49767.315    -2429.707    20290.037   -5004.9139    30634.814    11836.253    80.845366 
   44100    2344.0649   -104.08326    2.1209592    -101.9623    1548.9549    4.3385733    4.3385733    4.3385733    1548.9549   -14310.043   -28153.222     47110.13   -6766.7823   -24819.289   -19338.771     81.66591 
   44200    1722.6631   -103.51869    1.5587018   -101.95998   -23633.322    4.3529749    4.3529749    4.3529749   -23633.322   -24333.738   -39598.347   -6967.8803    -51957.66    5763.4192     10788.44    82.481866 
   44300    1749.1015   -103.52719    1.5826238   -101.94456   -3571.3491    4.3498617    4.3498617    4.3498617   -3571.3491    41248.118   -47070.013   -4892.1519    45240.595    16773.135   -21577.341    82.305026 
   44400    2483.7635   -104.16703    2.2473614   -101.91967   -29424.196    4.3547686    4.3547686    4.3547686   -29424.196   -61609.631   -53561.429    26898.473   -64721.772    5593.6667    9434.4689    82.583874 
   44500    1170.9622   -102.98911    1.0595112    -101.9296   -33964.214    4.3594447    4.3594447    4.3594447   -33964.214    11070.325   -48876.247    -64086.72    49004.738    31688.646   -24207.883     82.85019 
   44600    2379.2061   -104.06692    2.1527557   -101.91417   -9022.8836    4.3396611    4.3396611    4.3396611   -9022.8836    6857.7018   -14422.968   -19503.385   -22414.665   -24614.266   -11936.849    81.727356 
   44700    1740.6706   -103.52215    1.5749953   -101.94716    7205.7859    4.3358669    4.3358669    4.3358669    7205.7859    63514.978   -35504.416   -6393.2048    6363.7026    27330.267    9156.2596    81.513179 
   44800    1351.4958   -103.20357    1.2228618   -101.98071   -39207.191    4.3358958    4.3358958    4.3358958   -39207.191   -57865.168   -19170.781   -40585.624    31915.296    26795.319   -28944.442     81.51481 
   44900    2659.1543   -104.37645    2.4060587   -101.97039    12252.018    4.3359021    4.3359021    4.3359021    12252.018    16253.962    29156.442   -8654.3512   -7645.2658   -23556.007    28792.382    81.515163 
   45000    1262.9406    -103.1227    1.1427352   -101.97996   -56677.163    4.3551536    4.3551536    4.3551536   -56677.163   -38891.333   -47675.825   -83464.331    31315.125     56374.83   -13947.393    82.605776 
   45100    2085.8427    -103.8421    1.8873143   -101.95478    9567.3438    4.3316371    4.3316371    4.3316371    9567.3438   -9142.1242    23274.323    14569.833    12423.107   -7754.6214   -12828.147    81.274851 
   45200    1948.8314   -103.71781    1.7633436   -101.95446    12653.029    4.3258144    4.3258144    4.3258144    12653.029    15946.948    39845.882   -17833.743   -13561.623    14567.282     11888.94    80.947537 
   45300    1672.1587   -103.46572    1.5130043   -101.95271   -9478.2352     4.335897     4.335897     4.335897   -9478.2352   -3395.6903    1722.7171   -26761.732    44796.331     24780.68   -21062.809    81.514878 
   45400     2171.916   -103.91176    1.9651952   -101.94656    15452.536    4.3505875    4.3505875    4.3505875    15452.536    4427.2396    42604.228    -673.8583   -52080.194    7911.1411    7806.7107    82.346229 
   45500    1836.3086   -103.58821    1.6615307   -101.92668   -30920.729    4.3610742    4.3610742    4.3610742   -30920.729   -43656.955   -149.67899   -48955.552    32898.313    19745.443    -10798.85    82.943133 
   45600    1734.7391   -103.49091    1.5696284   -101.92128    1022.2963    4.3326769    4.3326769    4.3326769    1022.2963   -42474.389    24140.111    21401.167   -6011.5285   -7094.7188   -1263.2571    81.333396 
   45700     2053.868   -103.78114     1.858383   -101.92275    31542.213    4.3182901    4.3182901    4.3182901    31542.213     8614.584    70011.764    16000.291   -38310.274    11416.948    23380.249    80.525872 
   45800    1882.8599   -103.66285    1.7036512    -101.9592   -10068.984    4.3328468    4.3328468    4.3328468   -10068.984   -49272.055   -15376.811    34441.915    81612.357    3749.1094   -7309.6028    81.342965 
   45900    2020.0066   -103.77368    1.8277444   -101.94594   -17290.543    4.3586192    4.3586192    4.3586192   -17290.543   -9893.3015    5997.9392   -47976.266   -38540.557    -7793.185    23614.129    82.803137 
   46000    1739.8083   -103.51047    1.5742152   -101.93626   -44839.702    4.3567156    4.3567156    4.3567156   -44839.702   -43968.631   -49707.081   -40843.394     54692.36   -326.74699    18251.896    82.694689 
   46100    2258.7077   -103.95924    2.0437262   -101.91552    1471.5024    4.3391704    4.3391704    4.3391704    1471.5024    18317.557   -16065.496    2162.4465     12597.23    1781.6291   -21718.009    81.699635 
   46200    1586.8043   -103.36476    1.4357739   -101.92899   -10384.716    4.3341911    4.3341911    4.3341911   -10384.716    34308.394   -67655.545    2193.0027    9275.7838    8352.0938    63805.326    81.418703 
   46300    1663.5748   -103.43738    1.5052374   -101.93214    5498.9751    4.3348298    4.3348298    4.3348298    5498.9751    53845.762   -1258.3244   -36090.512    50872.653     7800.569   -50772.671      81.4547 
   46400    2043.0209   -103.77913    1.8485683   -101.93056    1666.4829    4.3564784    4.3564784    4.3564784    1666.4829    78353.775   -28461.298   -44893.028    7384.8578    -2506.009    29240.714    82.681184 
   46500     1165.923   -102.97673    1.0549516   -101.92178   -17514.596    4.3657412    4.3657412    4.3657412   -17514.596   -11233.908   -17142.517   -24167.362    83193.811     3961.539   -4281.1328      83.2097 
   46600    2130.8359   -103.81904    1.9280251   -101.89102    3778.4855    4.3497208    4.3497208    4.3497208    3778.4855    79769.152    11001.435   -79435.131   -16279.942    7590.7407   -30663.574    82.297028 
   46700    1661.4015   -103.40659     1.503271   -101.90332   -22745.779    4.3393672    4.3393672    4.3393672   -22745.779   -37651.775    -44706.34    14120.778    79059.181   -3044.6742    27353.676    81.710749 
   46800     2357.811   -104.04673    2.1333969   -101.91333   -22119.718    4.3377113    4.3377113    4.3377113   -22119.718   -14036.377   -5669.0789   -46653.697   -7077.6778    16675.646    -47266.18    81.617247 
   46900    1658.8964   -103.43547    1.5010044   -101.93447   -11483.185    4.3407922    4.3407922    4.3407922   -11483.185   -12543.257   -31416.816    9510.5183    32997.209   -5584.3715    24527.521    81.791275 
   47000    1857.3781    -103.6192    1.6805947   -101.93861   -2209.4117    4.3490301    4.3490301    4.3490301   -2209.4117    15469.432   -27970.458    5872.7905    58908.202    6538.1959   -7518.0108    82.257829 
   47100    1693.5987   -103.45953    1.5324037   -101.92713    33539.101    4.3457729    4.3457729    4.3457729    33539.101    45221.152    72709.703   -17313.553    24456.536     432.5635    24167.741    82.073147 
   47200    1556.9327   -103.32817    1.4087454   -101.91943   -22358.377    4.3529978    4.3529978    4.3529978   -22358.377   -42402.218   -64929.949    40257.034     43500.16   -18290.401   -6602.8287    82.483172 
   47300    2313.0612    -103.9812    2.0929064    -101.8883    1507.3531    4.3473151    4.3473151    4.3473151    1507.3531   -11528.817    18764.274   -2713.3971    51.999547   -3003.0325     18030.53    82.160555 
   47400    1563.9516    -103.3224    1.4150962    -101.9073   -21173.132    4.3387785    4.3387785    4.3387785   -21173.132   -65829.793   -26038.606    28349.004    60948.451   -12132.251    4912.3704    81.677503 
   47500    2326.0341   -104.00828    2.1046445   -101.90364    5957.5609    4.3397291    4.3397291    4.3397291    5957.5609   -24951.883    40096.463     2728.102   -47509.472   -10986.358   -24935.938    81.731199 
   47600    1271.0156   -103.09408    1.1500416   -101.94404   -31877.481    4.3428627    4.3428627    4.3428627   -31877.481   -57390.043   -73501.387    35258.987    114104.86    251.78091    8110.6335    81.908375 
   47700    2938.8974   -104.57756    2.6591762   -101.91839   -1747.9699    4.3495308    4.3495308    4.3495308   -1747.9699   -29658.943    31060.575    -6645.542   -29696.738   -11194.954    4961.5681    82.286243 
   47800    1144.0972   -102.97792    1.0352032   -101.94272   -51708.111    4.3588798    4.3588798    4.3588798   -51708.111   -78239.423   -67110.065   -9774.8452    88633.865   -2414.9706   -16403.466    82.817988 
   47900    2252.5126   -103.95678    2.0381207   -101.91866    5439.4506    4.3481085    4.3481085    4.3481085    5439.4506    9355.9083    30755.728   -23793.284   -10592.402    5550.6104    35564.835    82.205544 
   48000    1604.9018   -103.37991    1.4521489   -101.92776    4523.2821    4.3356711    4.3356711    4.3356711    4523.2821   -2944.3828   -5089.3386    21603.568    65472.831    10437.685   -23476.736    81.502133 
   48100    2010.4008   -103.76338    1.8190529   -101.94432   -24326.128    4.3399339    4.3399339    4.3399339   -24326.128     18147.33   -50301.677   -40824.036    19666.306   -1362.3275    21407.629    81.742771 
   48200     1884.073   -103.64711    1.7047489   -101.94236   -35223.193     4.357476     4.357476     4.357476   -35223.193   -56244.631   -46310.657   -3114.2905    5494.0488   -9623.5354    1588.9327    82.738001 
   48300    1616.9111    -103.3839    1.4630152   -101.92089   -28990.133    4.3520238    4.3520238    4.3520238   -28990.133    2617.1794   -62020.019   -27567.558    48770.166    5911.9598   -10652.693    82.427813 
   48400    2678.5199    -104.3143    2.4235811   -101.89072    312.30154    4.3371538    4.3371538    4.3371538    312.30154   -12845.058    17195.814   -3413.8513   -28307.946   -22466.929    20342.631    81.585782 
   48500    723.78068     -102.586   0.65489197    -101.9311   -7752.1785    4.3416126    4.3416126    4.3416126   -7752.1785    25962.341   -63797.497    14578.621    64470.609    -1228.383   -24862.916    81.837662 
   48600    2838.2031   -104.46595    2.5680658   -101.89789   -97.451851    4.3493989    4.3493989    4.3493989   -97.451851   -17023.902    58749.017   -42017.471   -9222.9165   -16555.722    20572.305    82.278756 
   48700    1345.1676   -103.13501    1.2171359   -101.91788   -42652.419    4.3633315    4.3633315    4.3633315   -42652.419   -520.83605   -91780.621   -35655.802    23704.387    1172.7594   -10780.823    83.071995 
   48800    2118.1118   -103.80925    1.9165121   -101.89274    3238.3188    4.3432889    4.3432889    4.3432889    3238.3188    50102.961    6700.9743   -47088.979    2937.3836   -14453.546    22621.203     81.93249 
   48900    1812.7275   -103.54102    1.6401939   -101.90083    37749.685    4.3319339    4.3319339    4.3319339    37749.685     103933.9    15197.668   -5882.5137    22694.542   -15986.399     19187.23    81.291561 
   49000    1868.2479   -103.61539      1.69043   -101.92496   -14105.096    4.3590061    4.3590061    4.3590061   -14105.096     27300.08   -12067.411   -57547.958    18613.681   -6176.5615    26811.914    82.825187 
   49100    1889.7041   -103.61434    1.7098439    -101.9045   -35629.732    4.3692858    4.3692858    4.3692858   -35629.732   -34732.769   -7928.8926   -64227.534     6377.367   -472.58845    22293.642    83.412543 
   49200    1639.5687   -103.37611    1.4835162    -101.8926   -7433.7642    4.3546125    4.3546125    4.3546125   -7433.7642   -28190.303    14705.412   -8816.4018    50564.028    2012.7191    24132.344    82.574994 
   49300    2138.6926   -103.82648     1.935134   -101.89135   -1852.6209     4.344691     4.344691     4.344691   -1852.6209     26607.13   -15512.873   -16652.119   -21247.374   -7948.2185     46823.31    82.011862 
   49400    1679.3408   -103.43339    1.5195028   -101.91389    -386.1191    4.3477833    4.3477833    4.3477833    -386.1191   -37208.598    36376.996   -326.75477     50503.11    1536.9356   -32701.855    82.187105 
   49500    1870.5448   -103.62011    1.6925083    -101.9276      18994.1    4.3394229    4.3394229    4.3394229      18994.1    70453.589    14124.663   -27595.953    6438.3615    2720.1829    49495.151    81.713901 
   49600    1855.2447   -103.61453    1.6786644   -101.93586     10909.61    4.3420052    4.3420052    4.3420052     10909.61   -28280.979    51382.463    9627.3465    24339.402   -12814.324   -46008.693    81.859863 
   49700    1839.2915   -103.59457    1.6642296   -101.93034   -27830.561    4.3544642    4.3544642    4.3544642   -27830.561   -35961.118   -54548.494    7017.9296    39554.892    16502.304     36038.53    82.566555 
   49800    2304.3721   -103.99995    2.0850443    -101.9149    7901.7224    4.3545878    4.3545878    4.3545878    7901.7224    19070.883    23821.214    -19186.93   -5973.6135   -15104.854    2292.4744    82.573589 
   49900    1513.6324   -103.29676    1.3695664    -101.9272   -18619.292    4.3591205    4.3591205    4.3591205   -18619.292   -48392.319    32922.954    -40388.51    34802.175    21976.814    1634.3109    82.831708 
   50000    2081.4551   -103.80042    1.8833443   -101.91707    4099.6263    4.3495453    4.3495453    4.3495453    4099.6263    5395.6088     45525.11    -38621.84   -19916.222   -5932.6587     34459.21    82.287067 
   50100     2013.679   -103.74935    1.8220191   -101.92733   -5778.8299     4.341736     4.341736     4.341736   -5778.8299   -7225.1929   -33694.838    23583.541    40703.391    -1498.838   -33457.752    81.844642 
   50200    1866.6556   -103.62823    1.6889892   -101.93924   -4541.9371    4.3374219    4.3374219    4.3374219   -4541.9371    -13193.36   -28051.063    27618.612    4056.9348    23875.334    28272.548    81.600909 
   50300     2022.072   -103.76976    1.8296133   -101.94015     2298.764    4.3461876    4.3461876    4.3461876     2298.764    2763.2827       -46041    50174.009    13084.126   -18978.421    18367.269    82.096645 
   50400    1718.7306   -103.47969    1.5551435   -101.92455    12265.164    4.3622764    4.3622764    4.3622764    12265.164   -16890.441    6287.2555    47398.678    26608.915    14318.827   -2106.1312    83.011745 
   50500    1518.6122   -103.27406    1.3740722   -101.89999    3515.1973    4.3646145    4.3646145    4.3646145    3515.1973   -61740.618    47014.246    25271.963    -40260.77   -8420.1943    35923.775    83.145297 
   50600     2193.984   -103.87141    1.9851628   -101.88625    7164.3877     4.352544     4.352544     4.352544    7164.3877   -57730.277    19180.691    60042.749    49343.303   -3214.1886   -315.24712    82.457378 
   50700    1407.0272   -103.17882    1.2731078   -101.90571    223.93231    4.3364392    4.3364392    4.3364392    223.93231   -107.45118   -6562.3961    7341.6442   -61116.639    3865.6902    33053.978    81.545458 
   50800    2390.9253   -104.08075    2.1633594   -101.91739   -687.76222    4.3383018    4.3383018    4.3383018   -687.76222   -49663.925    3662.1496    43938.488    39309.453   -2845.8513   -1895.7964    81.650583 
   50900    1507.2898   -103.30649    1.3638275   -101.94266   -32695.787    4.3590548    4.3590548    4.3590548   -32695.787   -56598.986   -31414.417   -10073.958   -60712.633   -2129.2844   -18456.174    82.827961 
   51000    1697.8335   -103.46747    1.5362354   -101.93123   -41621.252    4.3584818    4.3584818    4.3584818   -41621.252     -22257.3   -39939.875   -62666.582   -18221.603   -1563.8856     19006.72    82.795306 
   51100    2436.6565   -104.11065     2.204738   -101.90591    787.09028    4.3387751    4.3387751    4.3387751    787.09028   -51326.451    28264.808    25422.914   -18924.234    4404.6788    1519.5029    81.677309 
   51200    1245.5952   -103.07055    1.1270407   -101.94351   -19312.104    4.3415697    4.3415697    4.3415697   -19312.104   -21730.013    12704.557   -48910.855   -36744.451   -4521.8762   -417.64257    81.835236 
   51300    2485.6324   -104.18384    2.2490524   -101.93479   -14484.754    4.3519813    4.3519813    4.3519813   -14484.754   -65030.478    20598.481    977.73679     28394.64   -1988.5635    9453.1704      82.4254 
   51400    1249.8947    -103.0798     1.130931   -101.94886   -53739.487    4.3539701    4.3539701    4.3539701   -53739.487   -94520.727   -72819.167    6121.4322   -37437.937    10623.788   -34011.157    82.538451 
   51500    2482.2379   -104.15911     2.245981   -101.91313    34841.561    4.3437526    4.3437526    4.3437526    34841.561   -6152.4379    130746.68   -20069.561    27147.606    243.52455   -732.31331    81.958737 
   51600    1284.3382   -103.09976    1.1620962   -101.93767   -28202.385    4.3404015    4.3404015    4.3404015   -28202.385   -50276.551   -43488.148    9157.5436    -28501.57    1087.8153   -3331.5437    81.769192 
   51700    2602.1067     -104.274    2.3544408   -101.91955    17385.724    4.3414599    4.3414599    4.3414599    17385.724   -51643.819    126974.66   -23173.666    2794.3467   -6205.8147   -13742.523    81.829023 
   51800    1597.6104   -103.38451    1.4455515   -101.93896   -1540.8233    4.3399186    4.3399186    4.3399186   -1540.8233   -29411.243    3551.9611    21236.812    -24508.94    3966.8957    25060.486    81.741905 
   51900    1982.4782   -103.72544    1.7937879   -101.93165    16085.244    4.3493762    4.3493762    4.3493762    16085.244   -56659.874     113194.4   -8278.7874    -4634.108   -3943.0178   -5856.3714    82.277471 
   52000    2089.5115   -103.81593    1.8906339    -101.9253   -30059.226    4.3489602    4.3489602    4.3489602   -30059.226   -23984.098   -3098.3232   -63095.258   -5062.2814    -13109.61    48567.644    82.253861 
   52100    1729.1164   -103.48422    1.5645409   -101.91968    26903.171    4.3262409    4.3262409    4.3262409    26903.171   -61119.827    107669.46    34159.884   -30623.002    11956.759   -9361.2922    80.971482 
   52200    2237.8974   -103.94774    2.0248966   -101.92285    1529.7273    4.3410411    4.3410411    4.3410411    1529.7273   -7028.6762    46010.627   -34392.769    25854.693   -9715.2864    15305.041    81.805346 
   52300    1508.7289   -103.30272    1.3651296   -101.93759   -538.65733    4.3526597    4.3526597    4.3526597   -538.65733   -36878.854    31898.351    3364.5305   -54365.832     15020.64    11613.364    82.463955 
   52400    2451.7432   -104.13158    2.2183888   -101.91319   -1358.6358     4.356183     4.356183     4.356183   -1358.6358   -14238.752   -726.31111    10889.156      26012.4   -6869.6081   -16605.739    82.664368 
   52500     1512.327   -103.28797    1.3683853   -101.91959    4427.2508     4.342547     4.342547     4.342547    4427.2508   -9061.4621    25079.495   -2736.2805    -41417.06    20133.914    16047.014    81.890509 
   52600    2451.1679    -104.1277    2.2178683   -101.90983   -10290.899    4.3504163    4.3504163    4.3504163   -10290.899   -13595.971   -30971.965    13695.238   -14659.897   -9224.8524    -9358.368    82.336512 
   52700    1230.8013    -103.0345    1.1136549   -101.92084    15204.353      4.34392      4.34392      4.34392    15204.353    20642.971    20549.571    4420.5181   -22836.887   -22973.135    4685.2098    81.968209 
   52800    1974.5575    -103.7162    1.7866211   -101.92958   -3246.4077    4.3454821    4.3454821    4.3454821   -3246.4077   -15106.776   -43107.868    48475.421   -43081.458    13821.815    6326.1565     82.05667 
   52900    2535.6341   -104.21357    2.2942951   -101.91928   -12985.013    4.3583469    4.3583469    4.3583469   -12985.013   -37782.248    18296.929    -19469.72    20877.436   -6821.6478   -3355.2539    82.787619 
   53000    1115.3174   -102.95236    1.0091626    -101.9432    5596.1976    4.3413655    4.3413655    4.3413655    5596.1976    16367.772   -35167.711    35588.532    -58565.54   -137.72597    5703.9222    81.823686 
   53100    2306.5794   -104.01997    2.0870415   -101.93293    29823.024    4.3283902    4.3283902    4.3283902    29823.024    26950.869   -15509.814    78028.017    49002.404   -5295.7562   -3984.7762    81.092225 
   53200    2227.7637   -103.96207    2.0157274   -101.94634     -8335.05    4.3418249    4.3418249    4.3418249     -8335.05   -32181.458   -5741.3861    12917.695   -41763.805    5779.9376    5212.3392    81.849666 
   53300    1511.3924   -103.31048    1.3675396   -101.94294    956.28246    4.3541609    4.3541609    4.3541609    956.28246    24577.175   -59468.424    37760.097    11379.545     2992.841    12317.987    82.549307 
   53400    1720.1434   -103.48433    1.5564219    -101.9279    22264.933    4.3500245    4.3500245    4.3500245    22264.933    34735.316    -36764.74    68824.222    33796.388   -19279.355   -5367.8938    82.314266 
   53500    2317.3902   -104.02512    2.0968234    -101.9283   -2352.1699    4.3393622    4.3393622    4.3393622   -2352.1699    25175.537   -31439.212   -792.83445   -30476.779    12873.213    15177.304     81.71047 
   53600    1221.3869   -103.06588    1.1051366   -101.96074    19692.877    4.3323895    4.3323895    4.3323895    19692.877    8577.5549    -35062.04    85563.117    54934.976   -7926.5454   -7992.9965    81.317212 
   53700    2754.0058   -104.44527    2.4918824   -101.95339    25876.195    4.3483928    4.3483928    4.3483928    25876.195    52371.505   -3792.3805    29049.462   -12105.588    20364.656    -1131.979    82.221672 
   53800     1199.398   -103.05555    1.0852406   -101.97031   -9220.7351    4.3502312    4.3502312    4.3502312   -9220.7351   -43310.241   -79231.895    94879.931    61544.933    5088.2423    8902.6511    82.326001 
   53900    1895.6583   -103.66108    1.7152315   -101.94585    26.925757    4.3326153    4.3326153    4.3326153    26.925757    -24884.15   -16017.245    40982.172   -11627.427   -11371.918   -30033.371    81.329929 
   54000    2035.5782   -103.78613    1.8418339    -101.9443    17617.767    4.3260324    4.3260324    4.3260324    17617.767    6895.0308    -16107.87    62066.141    28969.497    11370.129    4961.5622    80.959777 
   54100    1604.7032   -103.41826    1.4519692   -101.96629   -38726.002    4.3453387    4.3453387    4.3453387   -38726.002   -24258.145   -75182.173   -16737.688    32406.596    1522.1468   -13554.916     82.04855 
   54200    1972.6798   -103.73217    1.7849222   -101.94725    1809.8818    4.3489016    4.3489016    4.3489016    1809.8818   -15072.635    162.47385    20339.806   -33140.539    4563.4568    4680.4106    82.250537 
   54300    2142.8829   -103.87354    1.9389255   -101.93461    21441.798     4.347919     4.347919     4.347919    21441.798    30669.835   -37616.289    71271.848    36148.769    33647.283    -19620.72    82.194798 
   54400    1425.4671   -103.22818    1.2897926   -101.93839   -37861.179    4.3543324    4.3543324    4.3543324   -37861.179    -21600.18   -79941.255   -12042.103   -40943.022   -16852.584   -7179.4572    82.559062 
   54500    2563.4019   -104.23249    2.3194199   -101.91307    9297.7225    4.3470176    4.3470176    4.3470176    9297.7225    29999.169   -24918.348    22812.346    6317.8211    8619.0606    18380.157     82.14369 
   54600    1640.1226   -103.41247    1.4840174   -101.92845   -3557.4341    4.3365681    4.3365681    4.3365681   -3557.4341    29198.011   -72841.864    32971.551   -24579.611   -7745.2838   -37624.086    81.552729 
   54700    1494.1626   -103.29178    1.3519497   -101.93983    4521.0115    4.3379893    4.3379893    4.3379893    4521.0115    24304.406   -31414.847    20673.476   -27650.201   -831.43213    40536.826     81.63294 
   54800    2430.8216   -104.12804    2.1994584   -101.92858    20751.673    4.3456431    4.3456431    4.3456431    20751.673    29345.481   -776.25946    33685.799    20548.184    -7448.735    -26450.27     82.06579 
   54900       1597.8   -103.38192     1.445723    -101.9362   -31010.365    4.3625449    4.3625449    4.3625449   -31010.365   -28087.976   -99599.736    34656.615   -42088.603    5045.2421    21979.285    83.027072 
   55000    1881.5212   -103.61843    1.7024399   -101.91599   -4686.5189    4.3608371    4.3608371    4.3608371   -4686.5189    7945.0979   -16369.986   -5634.6689    39017.628   -5789.1425    8462.2249    82.929604 
   55100    1843.2284   -103.56407    1.6677918   -101.89628    28296.917    4.3401607    4.3401607    4.3401607    28296.917    4122.5619    16555.539    64212.649   -44199.928    20021.516   -2955.9854    81.755584 
   55200     1920.216   -103.63666    1.7374518   -101.89921   -27267.276    4.3429215    4.3429215    4.3429215   -27267.276   -31731.642   -14970.622   -35099.563    37721.565   -37475.622    23092.049    81.911698 
   55300    2045.3709   -103.76126    1.8506946   -101.91056    30220.516    4.3481182    4.3481182    4.3481182    30220.516    12303.209    44066.022    34292.317   -11631.301    1569.8988   -13124.762    82.206098 
   55400    1714.1065   -103.47867    1.5509596   -101.92771   -19735.069     4.350027     4.350027     4.350027   -19735.069   -37120.464   -58564.614    36479.871    3563.0291   -16881.194    33452.568    82.314407 
   55500    1751.9318   -103.52115    1.5851847   -101.93596   -20924.297    4.3432453    4.3432453    4.3432453   -20924.297   -29758.689   -4276.1558   -28738.047    33533.562   -44480.534   -828.69211    81.930021 
   55600    2872.5108   -104.52798    2.5991081   -101.92887    1449.7702    4.3434238    4.3434238    4.3434238    1449.7702    7264.6335   -25688.035    22772.713   -24143.064    10909.215    17302.076    81.940125 
   55700    839.72565   -102.71558   0.75980142   -101.95578   -12568.482    4.3563319    4.3563319    4.3563319   -12568.482   -31351.061   -38211.452    31857.069     45812.13   -48972.546    14777.653    82.672844 
   55800    2849.2673   -104.48716    2.5780769   -101.90908   -3139.2145    4.3649768    4.3649768    4.3649768   -3139.2145   -3950.4166   -13888.254     8421.027   -19861.254    18014.985   -9440.6832    83.166002 
   55900    1598.6912   -103.37975    1.4465294   -101.93322   -4484.0759    4.3477072    4.3477072    4.3477072   -4484.0759   -19472.765    13753.476   -7732.9391    26203.152   -30644.651    31459.256    82.182786 
   56000    1702.8434   -103.45877    1.5407685     -101.918    58196.556    4.3353401    4.3353401    4.3353401    58196.556     77660.39    59548.661    37380.617   -8374.7007   -6002.4684   -19331.629     81.48347 
   56100    1941.7037   -103.67661    1.7568943   -101.91972   -20316.812    4.3602757    4.3602757    4.3602757   -20316.812   -23456.002   -17150.814   -20343.621     8830.273   -14585.446    31001.605    82.897582 
   56200    1432.6813   -103.21089    1.2963201   -101.91457   -898.67288    4.3663901    4.3663901    4.3663901   -898.67288   -15948.454   -1813.7905    15066.225    43343.832   -19851.852    16145.173    83.246812 
   56300    2708.7122   -104.33722    2.4508997   -101.88632    6941.5507    4.3521225    4.3521225    4.3521225    6941.5507   -14238.518    32074.845    2988.3246    -28512.55   -8243.5308    2252.5118    82.433425 
   56400    1082.6455   -102.89962    0.9796004   -101.92002   -39408.534    4.3390289    4.3390289    4.3390289   -39408.534   -67472.442   -58347.533    7594.3719     74336.13   -32655.404    26322.554     81.69164 
   56500    2874.3916   -104.50313      2.60081   -101.90232    33070.104    4.3432428    4.3432428    4.3432428    33070.104    12482.981    24868.655    61858.677   -24712.132   -3859.0971    -2765.065    81.929882 
   56600    1000.5302   -102.84184   0.90530072   -101.93654   -23176.186    4.3555412    4.3555412    4.3555412   -23176.186   -68487.468   -6828.1291    5787.0407    60088.146   -57478.284    19423.893    82.627837 
   56700    2850.7593   -104.48372    2.5794269   -101.90429   -18521.181    4.3525635    4.3525635    4.3525635   -18521.181   -7504.4683   -18524.524   -29534.552   -580.42719    16462.322     17870.62    82.458483 
   56800    1400.2502   -103.17522    1.2669758   -101.90824   -12303.615    4.3512774    4.3512774    4.3512774   -12303.615   -28324.268   -2212.5771   -6373.9992    37298.452   -31776.259   -639.22367    82.385414 
   56900    1462.7297   -103.24219    1.3235086   -101.91868    14786.364    4.3411698    4.3411698    4.3411698    14786.364    3876.0578    59315.366   -18832.332    11822.001   -23226.548    39130.814    81.812626 
   57000    2797.5588   -104.44655      2.53129   -101.91526     10985.58    4.3358695    4.3358695    4.3358695     10985.58    4607.0438   -3727.8031    32077.498    11607.451    18211.747   -15945.172    81.513325 
   57100    739.39284   -102.61825   0.66901818   -101.94923   -36977.892    4.3506415    4.3506415    4.3506415   -36977.892   -69253.602    3247.9932   -44928.067    47785.137   -45330.231     33961.88    82.349297 
   57200    2692.8317   -104.35561    2.4365307   -101.91908    8207.1729    4.3487586    4.3487586    4.3487586    8207.1729   -7505.7254   -6740.9211    38868.165   -16420.663    21140.899   -2103.2888    82.242427 
   57300    1699.0322   -103.46756      1.53732   -101.93024   -33564.611    4.3422515    4.3422515    4.3422515   -33564.611   -72637.822   -45423.406    17367.395     75867.86   -35946.162    11732.186    81.873796 
   57400    1911.8776    -103.6537     1.729907   -101.92379    16295.406    4.3394558    4.3394558    4.3394558    16295.406    9253.0065    26952.377    12680.834   -15393.203    8827.5388    27701.699    81.715755 
   57500    1733.1513   -103.49214    1.5681917   -101.92395    10873.698    4.3476895    4.3476895    4.3476895    10873.698   -54543.227   -32151.281     119315.6    52052.775   -22131.842   -15614.664    82.181785 
   57600    1935.9989   -103.67858    1.7517325   -101.92685   -32835.954    4.3545893    4.3545893    4.3545893   -32835.954   -25759.908   -13637.439   -59110.516    10406.678    -11084.45    39620.569    82.573673 
   57700    2178.2589   -103.87733    1.9709344    -101.9064    -15810.63    4.3512377    4.3512377    4.3512377    -15810.63   -47488.765   -40483.849    40540.725    31695.944   -2370.9251   -10998.508    82.383157 
   57800    1700.5312   -103.44789    1.5386764   -101.90921    2552.8099    4.3418264    4.3418264    4.3418264    2552.8099   -46773.025    2459.0671    51972.388    28514.987   -19633.056    21449.207    81.849752 
   57900    2158.2388   -103.86653    1.9528198   -101.91371   -25060.774    4.3475784    4.3475784    4.3475784   -25060.774   -13855.052   -36482.529   -24844.741    17113.312    6327.0797    29694.813    82.175484 
   58000    1530.2734   -103.30519    1.3846235   -101.92057    1627.0891    4.3509216    4.3509216    4.3509216    1627.0891   -86695.982    32669.806    58907.444    59847.777   -12274.685   -18974.781    82.365203 
   58100    2101.5555   -103.81725    1.9015315   -101.91572   -12172.306    4.3546265    4.3546265    4.3546265   -12172.306   -9663.5482   -471.88211   -26381.487   -13358.226    753.09519    51025.631     82.57579 
   58200    1831.4767   -103.58316    1.6571586     -101.926   -41942.259    4.3620827    4.3620827    4.3620827   -41942.259   -83498.747    -63777.02     21448.99    67305.199    3648.7676   -12821.517    83.000685 
   58300    2207.5644   -103.90525    1.9974507   -101.90779    24428.314    4.3491585    4.3491585    4.3491585    24428.314    2620.9317    35279.877    35384.133    -20513.17    10698.929    41556.645    82.265114 
   58400    1415.9236    -103.2069    1.2811574   -101.92574   -6458.3667    4.3455484    4.3455484    4.3455484   -6458.3667   -21507.313   -16401.247     18533.46    67352.449    13903.533   -3229.3902    82.060425 
   58500    2351.3026   -104.02285     2.127508   -101.89534    44626.794    4.3415296    4.3415296    4.3415296    44626.794    13805.409    26419.408    93655.566   -24240.555    -5191.183    16595.006    81.832968 
   58600    1031.5419   -102.86305   0.93336078   -101.92968   -26173.358    4.3477194    4.3477194    4.3477194   -26173.358   -73968.841    -30388.58    25837.347    82860.081    11579.894    25839.491    82.183482 
   58700    3051.1984   -104.65255    2.7607884   -101.89176    2169.4936    4.3500963    4.3500963    4.3500963    2169.4936   -45573.062    31927.005    20154.537   -24693.737    1624.4624    2279.8925    82.318343 
   58800    1001.8125   -102.84868   0.90646099   -101.94222   -36187.952    4.3517618    4.3517618    4.3517618   -36187.952    -62621.91   -40738.512   -5203.4341    74129.217   -2319.7699    21986.696    82.412927 
   58900    2597.4161   -104.25679    2.3501967   -101.90659    21409.485    4.3431827    4.3431827    4.3431827    21409.485   -37334.706    94915.318    6647.8437   -21241.974   -2965.0027    14954.365    81.926479 
   59000    1605.6638   -103.37475    1.4528384   -101.92191   -15700.199    4.3281681    4.3281681    4.3281681   -15700.199   -54155.882   -29375.035    36430.319     66756.39   -11246.621    846.51387    81.079742 
   59100    2238.1315   -103.96455    2.0251084   -101.93945    13747.702    4.3376963    4.3376963    4.3376963    13747.702    7874.4152    38839.955   -5471.2647    -8860.573    3830.5553    26189.226      81.6164 
   59200    1334.0813   -103.15639    1.2071048   -101.94929   -25593.467    4.3592741    4.3592741    4.3592741   -25593.467   -85939.435   -66088.399    75247.434    54609.404   -3344.4906   -19812.685    82.840467 
   59300    2016.8086   -103.76236    1.8248508   -101.93751   -30512.107    4.3514992    4.3514992    4.3514992   -30512.107   -48555.451   -45286.538     2305.668    11594.227    -7544.659    39465.325    82.398009 
   59400    2109.4573   -103.83566    1.9086813   -101.92698    18593.829    4.3270566    4.3270566    4.3270566    18593.829   -30995.162    33158.578    53618.071    29894.513    1953.0908   -30096.005    81.017292 
   59500     1222.199   -103.06223    1.1058713   -101.95636    14253.291    4.3322281    4.3322281    4.3322281    14253.291   -23243.496    15371.766    50631.604    18305.249    -8408.547    9666.0968    81.308126 
   59600    2587.1839   -104.26888    2.3409383   -101.92794   -2934.9495    4.3552667    4.3552667    4.3552667   -2934.9495   -28749.405   -8401.7395    28346.296    13461.327    18921.752   -13234.386    82.612217 
   59700    1174.3049   -102.99203    1.0625358   -101.92949   -28842.773    4.3640278    4.3640278    4.3640278   -28842.773    -53565.85   -82914.618    49952.149     27838.96    2293.9186   -9826.3849     83.11177 
   59800    2684.0404   -104.30935    2.4285762   -101.88077    10445.194    4.3485357    4.3485357    4.3485357    10445.194   -33491.941    51181.329    13646.193    113.88069    13319.772    -10980.82    82.229777 
   59900    1334.7881   -103.12161    1.2077443   -101.91387    3308.7918    4.3302563    4.3302563    4.3302563    3308.7918   -15431.797    -45884.99    71243.163    51739.517    11465.462   -18866.279    81.197151 
   60000     1966.887   -103.69731    1.7796807   -101.91763    49805.383    4.3244492    4.3244492    4.3244492    49805.383    8759.4661     45247.91    95408.773   -24919.619    15151.812   -8772.1135    80.870925 
   60100    1615.7747   -103.39971    1.4619869   -101.93772    -12639.36    4.3467014    4.3467014    4.3467014    -12639.36   -903.69579   -60770.172    23755.788    57035.577    20782.798     11229.77    82.125762 
   60200    1966.2011   -103.68654    1.7790601   -101.90748    7599.8475    4.3596317    4.3596317    4.3596317    7599.8475    12213.052   -13368.714    23955.204   -29476.644    3271.8436   -24661.777    82.860856 
   60300    1380.4234   -103.13621    1.2490361   -101.88717   -33112.773    4.3693043    4.3693043    4.3693043   -33112.773   -54075.647   -80050.351    34787.679    73960.241    24184.963    32971.201    83.413604 
   60400     2018.689   -103.69919    1.8265523   -101.87264    8201.5922    4.3399608    4.3399608    4.3399608    8201.5922    55240.755   -42096.709    11460.731   -34190.899    15167.268    -22742.25     81.74429 
   60500     1829.147   -103.52921    1.6550506   -101.87415    7757.8884    4.3112938    4.3112938    4.3112938    7757.8884    14017.609   -34940.095    44196.151    71546.224   -6160.9497    25131.362    80.135116 
   60600    1874.0294   -103.62017    1.6956612   -101.92451   -13392.332    4.3285449    4.3285449    4.3285449   -13392.332   -493.58496   -17591.245   -22092.165   -24406.816    18693.409   -7705.7772    81.100922 
   60700    1763.8276   -103.52048    1.5959483   -101.92453     477.2915    4.3533859    4.3533859    4.3533859     477.2915    9549.4763   -6445.0818     -1672.52    50370.191   -19385.126    331.86726    82.505235 
   60800     2205.537   -103.89717    1.9956163   -101.90156   -7411.8145    4.3737593    4.3737593    4.3737593   -7411.8145    35504.388   -13949.585   -43790.246   -18410.242     2708.628    4188.4128    83.669009 
   60900    1595.4074   -103.33589    1.4435582   -101.89233   -37704.017    4.3597905    4.3597905    4.3597905   -37704.017   -23327.125   -80965.868    -8819.058     69908.37    6160.5703    591.21584    82.869907 
   61000    2236.1651   -103.90923    2.0233292    -101.8859   -486.34546    4.3105878    4.3105878    4.3105878   -486.34546    33390.962   -42374.471    7524.4736    27495.738   -8144.6987    12938.969    80.095754 
   61100    1596.7849   -103.35629    1.4448045   -101.91148    42062.643    4.3057407    4.3057407    4.3057407    42062.643    84729.999   -17540.025    58997.954    39293.052    22825.496    -5062.411     79.82586 
   61200    1965.7756   -103.71195     1.778675   -101.93327   -26540.521     4.354996     4.354996     4.354996   -26540.521   -23449.789   -58875.176    2703.4021    45326.056   -6249.0215    16894.895    82.596811 
   61300    1878.6447   -103.59562    1.6998372   -101.89578   -60863.636    4.3776988    4.3776988    4.3776988   -60863.636   -39498.759   -97057.135   -46035.014    22207.937    16399.324   -3633.8844    83.895303 
   61400    1490.7046   -103.26362    1.3488208    -101.9148   -23061.175    4.3483842    4.3483842    4.3483842   -23061.175    6193.6508    -75007.22   -369.95414    60408.989   -3188.8361    7119.8155    82.221183 
   61500    2491.1859   -104.13956    2.2540773   -101.88548    54455.679    4.3156885    4.3156885    4.3156885    54455.679    85550.881     82735.12   -4918.9623   -14468.047   -2841.1826    5829.4504     80.38042 
   61600    1316.5607   -103.13868    1.1912518   -101.94743   -13129.684    4.3197357    4.3197357    4.3197357   -13129.684   -20414.185   -48679.792    29704.925     99928.44    17871.224   -3488.8948    80.606773 
   61700    2468.6866    -104.1843    2.2337195   -101.95058    32337.759    4.3506354    4.3506354    4.3506354    32337.759    68762.839    54865.559   -26615.121   -37154.783   -22428.199    11699.308    82.348951 
   61800    1259.3379   -103.08224    1.1394754   -101.94276   -65562.346    4.3789525    4.3789525    4.3789525   -65562.346   -79573.294   -103312.18   -13801.567    104876.03    5880.6007    -11709.28    83.967398 
   61900     2750.284   -104.37435    2.4885148   -101.88584    25003.402    4.3546524    4.3546524    4.3546524    25003.402    32094.585    47631.634   -4716.0141   -37196.925    991.02628    11300.808    82.577261 
   62000    1226.3866   -103.00377    1.1096604   -101.89411   -1846.0048    4.3194732    4.3194732    4.3194732   -1846.0048   -19029.822   -16057.433    29549.241    116638.22   -24115.211    -8860.203    80.592078 
   62100    2696.7621    -104.3393     2.440087   -101.89921    25115.392    4.3276195    4.3276195    4.3276195    25115.392    40373.221    43225.072   -8252.1163   -37951.874    17832.831   -14156.501    81.048916 
   62200    1029.8436   -102.87337    0.9318241   -101.94154    30981.476    4.3464433    4.3464433    4.3464433    30981.476    78660.593    -31415.89    45699.725    96984.737   -2943.1866    4243.2848    82.111135 
   62300     2743.359   -104.37546    2.4822489   -101.89321   -16255.667    4.3732027    4.3732027    4.3732027   -16255.667   -8713.5398    10093.116   -50146.576   -24681.979    18944.552   -31714.801    83.637071 
   62400    1115.1153   -102.90086    1.0089798   -101.89188    -26610.54     4.361415     4.361415     4.361415    -26610.54   -39557.814   -68274.376    28000.569    106954.51     12998.31     4415.748    82.962581 
   62500    2666.3519    -104.2543    2.4125713   -101.84172    21381.879    4.3323254    4.3323254    4.3323254    21381.879    46025.221    33320.756   -15200.341   -33174.838    2170.0332   -18870.624    81.313602 
   62600    1120.8278   -102.90846    1.0141486   -101.89431    8851.7653    4.3261404    4.3261404    4.3261404    8851.7653    8606.8875   -70917.093    88865.501     120744.2    17054.851   -704.75618    80.965843 
   62700    2975.7807   -104.59157    2.6925489   -101.89902   -3637.0002    4.3415606    4.3415606    4.3415606   -3637.0002   -353.31011   -1297.3362   -9260.3543    -36976.99     1013.425   -18983.663    81.834718 
   62800    915.83517   -102.76282   0.82866691   -101.93415   -28834.426    4.3687521    4.3687521    4.3687521   -28834.426   -43821.421   -98030.239    55348.381    103673.01   -13145.248    2114.0542    83.381978 
   62900    3153.9179   -104.71025    2.8537312   -101.85652   -11769.487    4.3709995    4.3709995    4.3709995   -11769.487    -6989.131    17168.382   -45487.712   -41898.535   -4106.9146   -2234.0231    83.510727 
   63000    1121.4468   -102.89706    1.0147087   -101.88235    -59451.41      4.36691      4.36691      4.36691    -59451.41   -123129.45   -59112.846    3888.0724    96801.641   -16739.718    4023.3328    83.276552 
   63100    2850.2116   -104.42198    2.5789313   -101.84305    27547.342    4.3527733    4.3527733    4.3527733    27547.342    50193.426    55045.727   -22597.127   -21973.079   -5454.7145    16329.967     82.47041 
   63200    1380.9186   -103.12723    1.2494841   -101.87775   -18740.673    4.3559836    4.3559836    4.3559836   -18740.673   -73807.521    -35289.38    52874.882    100455.94   -24260.083    13668.716    82.653017 
   63300    2466.0443   -104.08898    2.2313287   -101.85765    10894.341    4.3631381    4.3631381    4.3631381    10894.341     45551.87    17896.451   -30765.297   -20635.434   -11823.387      24366.6    83.060949 
   63400    1536.8192   -103.26871    1.3905463   -101.87817    5170.8301    4.3571461    4.3571461    4.3571461    5170.8301    1453.5337   -25208.916    39267.872    98058.687   -10133.223   -6317.5862    82.719206 
   63500    2409.2362   -104.05106    2.1799276   -101.87114    39579.137    4.3446113    4.3446113    4.3446113    39579.137    61342.149    35503.264    21891.998   -32152.415    -30563.94    12504.479    82.007349 
   63600     1520.398   -103.27798    1.3756881    -101.9023    15513.267    4.3412564    4.3412564    4.3412564    15513.267      20267.1   -6999.7466    33272.448    83394.171    10367.743   -416.61282    81.817518 
   63700    2693.8122   -104.33182    2.4374179    -101.8944   -7167.9004    4.3531322    4.3531322    4.3531322   -7167.9004   -11962.946    22796.465   -32337.221   -34358.819    -32670.24     9204.075    82.490809 
   63800    1184.4303   -102.98451    1.0716974   -101.91281   -7889.5326     4.353475     4.353475     4.353475   -7889.5326   -27510.163   -55100.484     58942.05    76093.571   -1947.0197     17018.57    82.510298 
   63900    2204.8751    -103.8886    1.9950174   -101.89358    19499.491    4.3511432    4.3511432    4.3511432    19499.491    70142.589    9740.5277   -21384.643   -23993.868   -547.24625    -4121.421     82.37779 
   64000    1704.6858   -103.44386    1.5424355   -101.90142   -27223.172    4.3539062    4.3539062    4.3539062   -27223.172   -41857.255   -72881.998    33069.739    49026.776   -21616.235    20869.751    82.534819 
   64100    2164.2235   -103.83563    1.9582349    -101.8774    3509.2422    4.3575567    4.3575567    4.3575567    3509.2422    7701.4193   -5058.7263    7885.0336   -9418.4318    19395.352   -1140.7672    82.742595 
   64200    1703.5462   -103.43082    1.5414044   -101.88941   -29815.002    4.3584534    4.3584534    4.3584534   -29815.002   -43005.311   -40515.576   -5924.1178    11854.646     -17955.3    16273.919    82.793689 
   64300     2290.371   -103.95377    2.0723758    -101.8814   -1792.8974    4.3581826    4.3581826    4.3581826   -1792.8974    21658.741   -9594.7662   -17442.667    3535.9122    29466.084   -510.02523    82.778253 
   64400    1159.0983   -102.95146    1.0487765   -101.90269   -336.27555     4.353249     4.353249     4.353249   -336.27555    5628.3823    21350.672   -27987.881   -29447.395   -2097.5722    5122.3412    82.497452 
   64500     2263.047    -103.9363    2.0476525   -101.88865    19400.682    4.3445258    4.3445258    4.3445258    19400.682   -15350.201    21459.998    52092.248    1898.8347    384.94876   -7993.6734    82.002511 
   64600    1829.0892   -103.56266    1.6549983   -101.90766   -6138.2444    4.3560606    4.3560606    4.3560606   -6138.2444    -52049.62    81053.758   -47418.872    -14334.41    37864.597   -8018.0717    82.657403 
   64700    2193.3811   -103.86982    1.9846173    -101.8852   -10152.246    4.3704329    4.3704329    4.3704329   -10152.246   -53649.881    10273.205    12919.937   -20308.712   -33382.939    8890.0845    83.478254 
   64800    1631.8893   -103.36325    1.4765678   -101.88669   -24129.612    4.3664419    4.3664419    4.3664419   -24129.612   -37506.052    51396.072   -86278.856   -2782.7923     65732.74   -18826.373    83.249771 
   64900    2564.0496   -104.20109    2.3200059   -101.88108   -4038.4262    4.3473321    4.3473321    4.3473321   -4038.4262   -23955.133    7682.9085    4156.9457   -36508.429   -49615.413    2177.8445    82.161516 
   65000    1060.9055   -102.86853    0.9599296    -101.9086    37070.121    4.3269486    4.3269486    4.3269486    37070.121    44498.176    72140.222   -5428.0342   -18343.605    75133.673   -7465.8112    81.011226 
   65100     2904.564   -104.54698    2.6281106   -101.91887   -3433.0891    4.3442206    4.3442206    4.3442206   -3433.0891    21461.075   -34259.743     2499.401     29874.95     -24074.3    1471.1928    81.985226 
   65200    1412.1339   -103.21165    1.2777284   -101.93393   -1741.0226    4.3553384    4.3553384    4.3553384   -1741.0226   -14175.419    18519.239   -9566.8877   -13196.358    70036.733    11752.997    82.616292 
   65300    1958.3415   -103.67846    1.7719485   -101.90651    31045.803    4.3609494    4.3609494    4.3609494    31045.803    17253.475    30544.229    45339.706    24315.752   -22502.276   -19725.634    82.936009 
   65400    1772.6204   -103.49573    1.6039042   -101.89183   -26978.097    4.3607573    4.3607573    4.3607573   -26978.097   -48166.499    35131.784   -67899.576   -13048.534    52481.264    17759.874    82.925054 
   65500    2002.1343   -103.69714    1.8115731   -101.88556   -6331.7366    4.3344157    4.3344157    4.3344157   -6331.7366     10474.06   -35451.555    5982.2856   -8769.6289    21640.631   -11437.602     81.43136 
   65600    1977.6808   -103.68902    1.7894472   -101.89958    24821.199    4.3322876    4.3322876    4.3322876    24821.199   -24751.969    77801.123    21414.444    10402.289    4164.0714   -4816.6124    81.311475 
   65700    1491.7423   -103.28632    1.3497598   -101.93656   -11291.031    4.3493126    4.3493126    4.3493126   -11291.031   -4840.6745   -42963.612    13931.193   -41995.623    32399.515    1696.9218    82.273858 
   65800     2223.454   -103.92693    2.0118279    -101.9151    5486.2711    4.3713839    4.3713839    4.3713839    5486.2711   -45449.028    768.65109     61139.19    12521.931   -25142.947   -6495.5643     83.53276 
   65900    1027.2964   -102.84775   0.92951935   -101.91823   -67711.042    4.3606048    4.3606048    4.3606048   -67711.042   -127815.81   -16944.453   -58372.865    -53352.79    14481.852    2418.2556    82.916351 
   66000     2886.036   -104.46831     2.611346   -101.85696    29896.613     4.331828     4.331828     4.331828    29896.613   -8806.0486    3201.8841    95294.002    31349.756    4861.9692     -2133.72      81.2856 
   66100    1319.6107   -103.10118    1.1940115   -101.90717   -17781.483    4.3325771    4.3325771    4.3325771   -17781.483   -64403.813     11630.19   -570.82553   -44383.948    19317.565   -645.89519    81.327776 
   66200    2132.1188   -103.84396    1.9291859   -101.91477    32159.975    4.3461637    4.3461637    4.3461637    32159.975   -8792.0725   -1653.6095    106925.61    49815.489   -90.137736   -5173.7841    82.095289 
   66300    2203.2386   -103.90147    1.9935366   -101.90793   -60474.958    4.3689407    4.3689407    4.3689407   -60474.958   -104495.46   -42904.451   -34024.966   -17818.788    23368.457    8944.5445    83.392781 
   66400    1475.8131   -103.23534    1.3353467   -101.89999   -1225.0633    4.3496139    4.3496139    4.3496139   -1225.0633   -41399.409    1011.9991     36712.22    34757.044     2145.029      3595.44    82.290957 
   66500    2453.1528   -104.10141    2.2196642   -101.88174    30970.463    4.3323828    4.3323828    4.3323828    30970.463    16182.184    24972.787    51756.418    17657.677   -3186.9312   -7389.3968    81.316833 
   66600    1668.3495   -103.41666    1.5095577    -101.9071   -27957.937    4.3359742    4.3359742    4.3359742   -27957.937   -96140.242   -21028.489     33294.92    58056.035    23627.645    11245.655    81.519231 
   66700    2020.1519   -103.74855    1.8278759   -101.92067    5382.4821    4.3549647    4.3549647    4.3549647    5382.4821   -34463.418    4537.0347    46073.829   -6238.9754   -21219.996    8976.7021    82.595032 
   66800    1734.9589   -103.46579    1.5698273   -101.89596   -29660.379    4.3732539    4.3732539    4.3732539   -29660.379   -91417.773   -22039.858    24476.494    56182.629   -4227.9905   -1664.0466    83.640011 
   66900    1735.2155   -103.45465    1.5700594   -101.88459     15243.24    4.3442449    4.3442449    4.3442449     15243.24   -36318.442    45382.322     36665.84    27865.412    1007.2379    1148.3733    81.986604 
   67000     2200.342   -103.87802    1.9909157   -101.88711   -10574.352    4.3323075    4.3323075    4.3323075   -10574.352   -37197.886   -7427.2093     12902.04    11897.327    -43570.05    16923.691    81.312596 
   67100    1920.9034    -103.6512    1.7380738   -101.91313    30364.749    4.3375714    4.3375714    4.3375714    30364.749    11840.549    23231.603    56022.094    42048.728    24665.105    1446.4091    81.609348 
   67200    1874.8014    -103.6106    1.6963597   -101.91424   -8515.9719    4.3590534    4.3590534    4.3590534   -8515.9719   -31822.914    -9783.879    16058.878    -8146.737   -24395.854    7930.3289    82.827885 
   67300    1918.1374   -103.61969     1.735571   -101.88412   -39707.793    4.3674384    4.3674384    4.3674384   -39707.793   -67625.979   -36795.074   -14702.326    31852.111    16267.951    3272.3418    83.306782 
   67400    2259.2606   -103.90062    2.0442264   -101.85639   -16752.046    4.3501287    4.3501287    4.3501287   -16752.046   -33858.238    57229.724   -73627.625   -9440.9043    26833.281    3205.3351    82.320184 
   67500    1414.1651   -103.14763    1.2795663   -101.86807     12980.14    4.3414517    4.3414517    4.3414517     12980.14   -50223.839    31595.586    57568.673    41925.654   -4184.5076    -9992.265     81.82856 
   67600    1723.7739   -103.45713    1.5597069   -101.89742   -21053.993    4.3486997    4.3486997    4.3486997   -21053.993    -48475.42    31782.995   -46469.554   -18731.379    68175.459    5453.3293    82.239081 
   67700    2445.1176   -104.10521    2.2123938   -101.89282   -1856.0804    4.3561113    4.3561113    4.3561113   -1856.0804   -32720.818   -17057.641    44210.218    16457.873   -23233.164    808.38808    82.660287 
   67800    1290.7734   -103.08186    1.1679189   -101.91394   -26846.296    4.3517784    4.3517784    4.3517784   -26846.296    -101331.1    39048.917   -18256.708    14486.181    57643.192   -3567.1109    82.413871 
   67900    2475.8448   -104.15002    2.2401964   -101.90982    20577.253    4.3330937    4.3330937    4.3330937    20577.253    26779.059   -16900.284    51852.985    -49013.57   -30856.623   -9655.9172    81.356872 
   68000    1687.9167   -103.46345    1.5272625   -101.93618    44690.359    4.3230511    4.3230511    4.3230511    44690.359    2384.4142    31373.409    100313.25    33929.696    52459.809   -5547.1295    80.792514 
   68100    1770.7034   -103.56251    1.6021696   -101.96034    20280.944    4.3398738    4.3398738    4.3398738    20280.944   -2627.7313    28617.232     34853.33   -24208.758    6260.2328   -566.46563    81.739371 
   68200    2290.2566   -104.00784    2.0722723   -101.93556   -15017.149    4.3599009    4.3599009    4.3599009   -15017.149   -38829.715   -11311.998    5090.2653   -388.17077   -16738.842      347.321    82.876207 
   68300    1632.1313   -103.40296    1.4767867   -101.92617   -6653.8523    4.3544234    4.3544234    4.3544234   -6653.8523   -45088.561    -24732.09    49859.093    2186.3968    35897.369     1717.396    82.564236 
   68400    1867.1283   -103.59867    1.6894169   -101.90925    53429.848    4.3329428    4.3329428    4.3329428    53429.848    17652.454    73382.617    69254.474   -19322.549   -36370.013   -2984.1588    81.348372 
   68500    2053.3375   -103.78204    1.8579029   -101.92414   -16246.128    4.3330594    4.3330594    4.3330594   -16246.128   -59720.655    8461.8084    2520.4629    11428.371    18697.855    6984.4911    81.354937 
   68600    1960.4224   -103.70783    1.7738314   -101.93399    12970.533    4.3432285    4.3432285    4.3432285    12970.533    5696.8788   -14290.008    47504.729   -7512.3356    -10912.78    13172.524    81.929075 
   68700    1284.0823   -103.10762    1.1618647   -101.94576   -8282.4778    4.3521106    4.3521106    4.3521106   -8282.4778   -43182.876    55637.747   -37302.305    5634.4849   -14785.776    1215.8756    82.432745 
   68800    2414.7223   -104.10794    2.1848915   -101.92304   -16287.077    4.3512108    4.3512108    4.3512108   -16287.077   -70065.675   -23052.511    44256.955    15303.374    34829.141   -2463.3949    82.381626 
   68900    1806.1409    -103.5501    1.6342342   -101.91587   -5071.7184    4.3428113    4.3428113    4.3428113   -5071.7184    -51396.47    33626.661    2554.6532    6979.7804   -69220.468     3858.174    81.905465 
   69000    2100.2355   -103.81028    1.9003372   -101.90994   -589.74287    4.3439511    4.3439511    4.3439511   -589.74287   -21852.175    40702.349   -20619.403    20502.043    66353.947    2384.9585    81.969969 
   69100    1751.8814   -103.49874    1.5851391    -101.9136   -20907.003    4.3504851    4.3504851    4.3504851   -20907.003   -45846.165    16401.961   -33276.803    19636.093    -76741.28    -10194.01    82.340416 
   69200    2174.8707   -103.87352    1.9678687   -101.90565   -10505.972    4.3504639    4.3504639    4.3504639   -10505.972   -9116.9221    31472.762   -53873.756   -7758.9669    48924.195    4967.6953    82.339211 
   69300     1560.779   -103.32916    1.4122257   -101.91693     501.4572    4.3446489    4.3446489    4.3446489     501.4572   -23015.408    46333.788   -21814.008    38413.351   -39396.906    -8701.636    82.009481 
   69400    2130.1285   -103.84566     1.927385   -101.91827   -6821.2206    4.3409295    4.3409295    4.3409295   -6821.2206    10491.113   -10341.636   -20613.139   -30794.699   -8298.2901    4694.8849    81.799038 
   69500    2023.0829   -103.74855    1.8305279   -101.91802    27708.837    4.3383346    4.3383346    4.3383346    27708.837    11912.791    79108.371   -7894.6519    38242.706    3951.8071   -5110.4046    81.652434 
   69600    1424.7125   -103.22961    1.2891098    -101.9405   -20103.258    4.3448988    4.3448988    4.3448988   -20103.258   -4060.2724   -29720.131    -26529.37   -1044.6736   -45201.614   -6159.5895    82.023634 
   69700    2505.7414   -104.19491    2.2672474   -101.92766    28842.336    4.3353723    4.3353723    4.3353723    28842.336    53894.092    28536.469    4096.4453   -20498.322    29954.483     1200.547    81.485285 
   69800    1301.4596   -103.12713     1.177588   -101.94954   -11087.845    4.3298221    4.3298221    4.3298221   -11087.845   -56041.469    21180.807    1597.1266     46029.31    -46904.37     5092.238    81.172733 
   69900     2386.546   -104.09638     2.159397   -101.93698    23374.272    4.3385625    4.3385625    4.3385625    23374.272     47217.78      19690.7    3214.3359    -37871.77    13234.312    2373.5001    81.665305 
   70000    1352.6742   -103.17588     1.223928   -101.95195   -21174.967     4.344038     4.344038     4.344038   -21174.967   -92843.852    21056.816    8262.1358    41133.481   -21451.832    6376.6162    81.974888 
   70100     1913.923   -103.65637    1.7317577   -101.92461    3295.8158    4.3555828    4.3555828    4.3555828    3295.8158    4391.8688    17996.643   -12501.064    13740.059    -20604.42   -44.138969    82.630201 
   70200    1981.6488   -103.70991    1.7930375   -101.91688    3904.7295    4.3428254    4.3428254    4.3428254    3904.7295   -20084.385    18042.362    13756.211     341.0254   -16815.428    6149.7023    81.906261 
   70300    1541.3495   -103.31645    1.3946454    -101.9218   -7202.5566    4.3373513    4.3373513    4.3373513   -7202.5566   -60967.918    7766.4797    31593.768    49881.601    -33383.84    1580.0148    81.596926 
   70400    1921.8005   -103.66008    1.7388855    -101.9212    38027.273    4.3369227    4.3369227    4.3369227    38027.273    45497.006    16628.464    51956.348    -42158.12   -9083.5434    4014.1951    81.572739 
   70500    1882.9109   -103.61577    1.7036973   -101.91207   -10393.239    4.3573417    4.3573417    4.3573417   -10393.239   -66659.753   -2585.7782    38065.815     46244.94   -42527.121   -776.55971    82.730349 
   70600    2191.7033   -103.86822    1.9830992   -101.88512   -7944.5462    4.3598667    4.3598667    4.3598667   -7944.5462   -11706.832   -63976.402    51849.595   -48402.808    18533.517   -4268.6378    82.874257 
   70700    1288.5164   -103.05358    1.1658767    -101.8877   -5992.6271    4.3459888    4.3459888    4.3459888   -5992.6271   -12455.357    10800.738   -16323.262    25380.989    -48167.75     25703.97     82.08538 
   70800    2784.1275     -104.393     2.519137   -101.87386    126.08259     4.340912     4.340912     4.340912    126.08259    6633.7005   -2485.0761   -3770.3766   -21863.224    18583.364   -31873.016    81.798049 
   70900    1560.1505   -103.30973     1.411657   -101.89807   -16985.837    4.3570588    4.3570588    4.3570588   -16985.837      13286.7   -7637.1642   -56607.047    18709.052   -43194.003    21583.021    82.714237 
   71000    2263.4659   -103.90438    2.0480315   -101.85635   -29766.542     4.370622     4.370622     4.370622   -29766.542    -47821.19    28392.648   -69871.084   -7103.0188    47881.266   -28145.069    83.489092 
   71100    1615.9669   -103.33224    1.4621609   -101.87008   -13000.568    4.3438083    4.3438083    4.3438083   -13000.568    8137.4859   -5044.4487    -42094.74   -11155.124   -17618.896    24986.769    81.961887 
   71200    2300.1975   -103.94463     2.081267   -101.86336    11165.433    4.3128672    4.3128672    4.3128672    11165.433   -14781.096    54927.268   -6649.8724     6958.017    37493.781   -18732.883    80.222883 
   71300    1942.2647    -103.6658    1.7574019    -101.9084   -12429.764    4.3284598    4.3284598    4.3284598   -12429.764   -7232.9645   -14751.624   -15304.703   -9588.2024    10159.501    15143.958    81.096134 
   71400    1533.2032    -103.3063    1.3872745   -101.91902   -22867.838    4.3535272    4.3535272    4.3535272   -22867.838   -33640.133    10273.995   -45237.375   -5096.7845    27002.257    31372.153    82.513266 
   71500    2600.3511   -104.23883    2.3528523   -101.88597   -33250.619    4.3620057    4.3620057    4.3620057   -33250.619   -26919.739   -10269.413   -62562.704   -10836.907    34987.751   -2385.6351    82.996289 
   71600     1574.314   -103.31529    1.4244724   -101.89081    -19137.99    4.3522421    4.3522421    4.3522421    -19137.99    1214.7632   -5881.8246   -52746.909   -10407.113    48398.251      53612.6    82.440221 
   71700    2311.7373   -103.96638    2.0917085   -101.87467    8317.3777    4.3385627    4.3385627    4.3385627    8317.3777    -9526.934    15517.709    18961.358    1773.5662    21617.975   -827.70747    81.665314 
   71800    1514.3101   -103.26581    1.3701796   -101.89563   -4852.1216    4.3364206    4.3364206    4.3364206   -4852.1216   -33731.563    1858.3193    17316.879   -9629.9372    71506.238    19222.468    81.544411 
   71900    2088.6477   -103.78531    1.8898523   -101.89546   -1315.6767    4.3436242    4.3436242    4.3436242   -1315.6767    8469.4333   -10061.322   -2355.1412     3570.145     19198.64    20010.703    81.951467 
   72000    1975.2037   -103.69192    1.7872058   -101.90471   -20544.094    4.3463298    4.3463298    4.3463298   -20544.094     -50245.8    21389.473   -32775.956   -150.92216    55794.289   -7042.5784      82.1047 
   72100    1703.3416   -103.45084    1.5412192   -101.90962    1108.3886    4.3361582    4.3361582    4.3361582    1108.3886    9915.7709   -33087.827    26497.221   -14785.771    27036.787    24589.347    81.529611 
   72200    1792.2297   -103.53338    1.6216471   -101.91174   -21822.988      4.33757      4.33757      4.33757   -21822.988   -41130.748   -14834.289   -9503.9266     12815.97    52384.805   -9766.7209    81.609271 
   72300    1935.2995   -103.67563    1.7510996   -101.92453   -7387.3025    4.3303331    4.3303331    4.3303331   -7387.3025   -44815.651    19085.053    3568.6911    9004.5747    57822.484    10575.058    81.201476 
   72400    1875.4436   -103.61651    1.6969408   -101.91956   -3662.0694    4.3325454    4.3325454    4.3325454   -3662.0694    828.21229   -2806.2466   -9008.1738   -15960.815    38600.017   -809.99586    81.325994 
   72500     1536.979    -103.3166    1.3906909   -101.92591   -26436.414     4.335382     4.335382     4.335382   -26436.414    -62284.56    3862.6163   -20887.297     19471.27    69674.716   -5196.1825    81.485834 
   72600    2130.1409   -103.82477    1.9273963   -101.89738    23039.653    4.3366253    4.3366253    4.3366253    23039.653    21349.978    18828.688    28940.294   -2849.0198    33833.634     8369.284    81.555958 
   72700    1696.2711   -103.44076    1.5348218   -101.90594   -15117.128    4.3402027    4.3402027    4.3402027   -15117.128   -69090.736    3521.5301    20217.822    15474.908    61275.495   -7504.5917    81.757961 
   72800    2144.5636   -103.83495    1.9404462    -101.8945     5340.361    4.3338217    4.3338217    4.3338217     5340.361   -2179.7932    -20369.72    38570.596     13783.49    23099.594   -14227.012    81.397885 
   72900    1765.4482   -103.50493    1.5974146   -101.90751    28465.215    4.3262845    4.3262845    4.3262845    28465.215   -42767.406    40250.725    87912.327   -1068.9085     65668.29    18324.353    80.973931 
   73000    1963.8281   -103.68699    1.7769129   -101.91007    9742.5239    4.3293834    4.3293834    4.3293834    9742.5239   -4674.3028   -16396.663    50298.538    33920.586    3766.2005   -12308.158    81.148062 
   73100    1859.1336   -103.60437    1.6821831   -101.92219    8631.6221    4.3328717    4.3328717    4.3328717    8631.6221   -38604.556    36694.361    27805.061   -17804.131    65393.945    4138.6231    81.344366 
   73200    2214.4332   -103.90739    2.0036657   -101.90373   -7177.3538    4.3427401    4.3427401    4.3427401   -7177.3538   -9234.7149   -20650.762    8353.4152    26499.559    7093.0216   -15112.383    81.901434 
   73300    1202.3375   -103.00592    1.0879003   -101.91802   -7972.1477    4.3346036    4.3346036    4.3346036   -7972.1477   -28039.823    21672.001   -17548.621   -7068.6133    73078.343   -8474.3591    81.441948 
   73400    2643.9189   -104.28102    2.3922733   -101.88875    13946.078    4.3320631    4.3320631    4.3320631    13946.078    44278.815    7975.3725   -10415.953   -2393.9848   -5727.4001   -4871.9786    81.298834 
   73500    1144.2724   -102.96727    1.0353617   -101.93191   -22314.192    4.3271444    4.3271444    4.3271444   -22314.192   -46106.204    23853.911   -44690.284     21735.52    112134.57   -8560.7484    81.022227 
   73600    2608.4423   -104.27757    2.3601734    -101.9174    12453.363    4.3283312    4.3283312    4.3283312    12453.363    62191.796   -26531.298    1699.5898   -22635.103   -35978.686    862.42652    81.088909 
   73700    1302.3359   -103.13062    1.1783809   -101.95224    -775.3576    4.3313622    4.3313622    4.3313622    -775.3576    20933.392    9294.1562   -32553.621    7476.8655     111428.4   -7069.8223     81.25938 
   73800    3115.2168   -104.74662    2.8187136   -101.92791    218.46774    4.3456946    4.3456946    4.3456946    218.46774      47304.5   -38930.186   -7718.9116   -4999.9975   -28156.725   -8127.3681    82.068713 
   73900    774.63923   -102.64833   0.70090986   -101.94742    17235.186    4.3371023    4.3371023    4.3371023    17235.186    66355.716    54263.346   -68913.503   -22720.208    100253.92     6304.683    81.582876 
   74000    2530.3499    -104.1944    2.2895138   -101.90488    34171.354    4.3359559    4.3359559    4.3359559    34171.354     70614.33    -12478.33    44378.062   -6036.2319   -24322.064   -27845.396    81.518198 
   74100    1694.4301   -103.45208    1.5331559   -101.91893   -31566.855    4.3385122    4.3385122    4.3385122   -31566.855   -55439.489    38759.202   -78020.277   -15112.944    88541.217    14211.063    81.662462 
   74200    2103.6096   -103.80897    1.9033902   -101.90558    9533.7673     4.334953     4.334953     4.334953    9533.7673    23673.365   -33491.124     38419.06   -14553.942    -31810.78    -38981.87    81.461646 
   74300    1840.5083   -103.58242    1.6653306   -101.91709   -22471.497    4.3349192    4.3349192    4.3349192   -22471.497   -27750.833    5897.6179   -45561.276    5831.7498    63040.148   -1560.1217    81.459742 
   74400    1862.2995   -103.60707    1.6850478   -101.92202    -6912.795    4.3408694    4.3408694    4.3408694    -6912.795    2740.0141   -19359.793   -4118.6058   -33866.685   -1278.5552   -28028.192    81.795639 
   74500     1848.114   -103.59106    1.6722124   -101.91885   -20431.333    4.3475439    4.3475439    4.3475439   -20431.333   -6170.0177   -12999.296   -42124.685    5100.0644    15044.288   -26405.733    82.173526 
   74600    2101.3441   -103.81103    1.9013403   -101.90969   -3116.3211    4.3389696    4.3389696    4.3389696   -3116.3211    7954.7552   -17241.064   -62.654789   -16043.146     33342.32   -975.68771    81.688294 
   74700    1511.9811   -103.29743    1.3680722   -101.92936   -2908.2392    4.3372161    4.3372161    4.3372161   -2908.2392    24293.867   -6202.3699   -26816.214   -14313.716   -21033.148   -40441.619    81.589298 
   74800    2551.3009     -104.219    2.3084706   -101.91053    21344.244    4.3312367    4.3312367    4.3312367    21344.244    36602.196    21669.376    5761.1615    18963.265     47078.87    12293.742    81.252316 
   74900    1099.7816    -102.9384   0.99510547    -101.9433   -37348.174    4.3372132    4.3372132    4.3372132   -37348.174   -15373.898   -50586.556   -46084.067   -61282.965   -24823.142   -42222.379    81.589131 
   75000    2572.3213   -104.24772    2.3274904   -101.92023     28818.78    4.3370668    4.3370668    4.3370668     28818.78    76248.714     7129.942    3077.6848    10770.185   -781.50737    9168.2694    81.580869 
   75100    1503.2755   -103.29868    1.3601953   -101.93848   -2263.1077     4.333711     4.333711     4.333711   -2263.1077    10955.448    9783.5827   -27528.354   -49273.478    1519.3084   -33992.452    81.391646 
   75200    1942.1663   -103.69323    1.7573129   -101.93592   -22691.371    4.3401467    4.3401467    4.3401467   -22691.371   -1236.7115   -26983.571   -39853.831     2929.695   -29582.428   -5781.3028    81.754793 
   75300    1795.7422   -103.55853    1.6248253    -101.9337    34549.546    4.3245213    4.3245213    4.3245213    34549.546    41342.154    25199.478    37107.007   -7305.1331    24911.592    -1560.666     80.87497 
   75400    1872.3828   -103.64417    1.6941713      -101.95   -9190.8074    4.3320565    4.3320565    4.3320565   -9190.8074    31198.512   -65207.073    6436.1391   -16568.128   -22301.743     -29641.1    81.298461 
   75500    2343.9352   -104.03808    2.1208418   -101.91724    16686.224    4.3426076    4.3426076    4.3426076    16686.224     47079.26    -18495.19    21474.603    9042.4418     23259.56    10089.041    81.893937 
   75600    1047.6627   -102.89347   0.94794721   -101.94552   -23217.315    4.3398689    4.3398689    4.3398689   -23217.315    20079.886   -77460.004   -12271.829   -28495.162    1409.4428   -39394.287    81.739099 
   75700    2713.4047   -104.36821    2.4551456   -101.91306    18110.386    4.3381343    4.3381343    4.3381343    18110.386    53549.331    4400.9363   -3619.1081    13686.399   -14442.738    26332.866    81.641125 
   75800    1571.3354   -103.35637    1.4217773    -101.9346    4392.9323      4.32492      4.32492      4.32492    4392.9323    11527.619   -19887.059    21538.236   -47945.468    13912.592   -24702.518    80.897339 
   75900    1900.8348   -103.65405    1.7199153   -101.93414   -184.07253    4.3357241    4.3357241    4.3357241   -184.07253    10347.313    16412.247   -27311.777    16396.241   -22745.163    21955.226    81.505127 
   76000    1983.2538   -103.73209    1.7944897    -101.9376   -24219.906    4.3369083    4.3369083    4.3369083   -24219.906   -7371.3129   -18187.936   -47100.469    -29379.64   -20835.049    12686.148    81.571925 
   76100    1677.1493   -103.44772    1.5175199    -101.9302    23108.355     4.335255     4.335255     4.335255    23108.355    8702.2762    14216.443    46406.345   -28893.881    2442.7649    -16266.79    81.478672 
   76200    1940.6121   -103.68711    1.7559066    -101.9312   -35450.576    4.3338636    4.3338636    4.3338636   -35450.576   -28775.377      1345.71   -78922.062    5716.2545   -49655.128    50193.661    81.400248 
   76300    1637.8062   -103.42309    1.4819215   -101.94117    32768.393    4.3279402    4.3279402    4.3279402    32768.393    31238.625   -3135.4042    70201.956   -70331.634    25100.878   -30157.852    81.066933 
   76400    2298.6204   -104.01277    2.0798401   -101.93293   -26516.435    4.3423544    4.3423544    4.3423544   -26516.435   -32252.857    14335.554   -61632.002    24381.323   -35803.188    37150.669    81.879617 
   76500    1182.4259    -103.0137    1.0698838   -101.94381   -6302.0173    4.3353415    4.3353415    4.3353415   -6302.0173   -20943.262   -48411.166    50448.376   -73187.548   -2495.0323   -39.428914    81.483547 
   76600    2479.1604   -104.16318    2.2431964   -101.91998    15302.903    4.3258131    4.3258131    4.3258131    15302.903    18594.141    26251.777    1062.7924    19269.693    15130.279    5473.2665    80.947466 
   76700    1164.6337   -102.99655     1.053785   -101.94276   -16914.485    4.3327904    4.3327904    4.3327904   -16914.485   -50773.131   -53627.889    53657.567   -44213.404   -25154.639    15344.351    81.339789 
   76800    2443.6268     -104.129    2.2110449   -101.91796   -1000.7308    4.3369918    4.3369918    4.3369918   -1000.7308    16292.377   -25016.839    5722.2693   -2803.1934    28890.829    13292.845    81.576639 
   76900    1331.5719   -103.13817    1.2048343   -101.93334   -26884.451    4.3418746    4.3418746    4.3418746   -26884.451    -85437.03    -22148.21    26931.887    7909.8075   -25217.659    -5165.924    81.852479 
   77000    2445.5498   -104.12085    2.2127849   -101.90807    4513.7334    4.3340984    4.3340984    4.3340984    4513.7334    31714.684    -21419.07    3245.5855   -28820.968     14100.45    22095.268    81.413475 
   77100    1132.5338   -102.95688    1.0247404   -101.93214    -130.7428    4.3286625    4.3286625    4.3286625    -130.7428   -24091.879    19523.834    4175.8168    53035.842    22678.835    4302.6925     81.10753 
   77200    2427.8493   -104.11817     2.196769    -101.9214    30993.333    4.3309758    4.3309758    4.3309758    30993.333    49404.614    41171.628    2403.7582   -10837.558   -26980.545   -8150.8956    81.237635 
   77300    1455.6836   -103.26394    1.3171331   -101.94681   -11460.786    4.3433958    4.3433958    4.3433958   -11460.786   -59816.859    31540.026   -6105.5259    19151.549    79819.584    9102.0851    81.938541 
   77400    2459.4698   -104.13879      2.22538   -101.91341     5275.652    4.3442249    4.3442249    4.3442249     5275.652    5056.4018    25496.213   -14725.659    24628.045    -47237.84   -13680.796    81.985473 
   77500    1599.6113   -103.36009    1.4473619   -101.91273    12273.701    4.3397021    4.3397021    4.3397021    12273.701    9853.5323    50551.235   -23583.663   -9225.1217    85564.048   -2138.4847    81.729671 
   77600    2168.7612   -103.87062    1.9623407   -101.90828     11704.17    4.3292709    4.3292709    4.3292709     11704.17    9033.2837    1427.7807    24651.447    49658.387   -26489.856   -955.81299    81.141734 
   77700    1657.9201   -103.42913    1.5001209   -101.92901    7086.9936    4.3304195    4.3304195    4.3304195    7086.9936    41757.461    32908.055   -53404.536   -12955.001    40400.672   -24239.077    81.206334 
   77800    2294.8813    -104.0014    2.0764568   -101.92495   -6795.5988    4.3318185    4.3318185    4.3318185   -6795.5988   -7728.2852    6876.0582    -19534.57    31702.355    14237.242    18148.772    81.285065 
   77900    1429.9347   -103.23066     1.293835   -101.93683     10127.51    4.3340042    4.3340042    4.3340042     10127.51    17033.272     32428.18   -19078.921    8231.2499    4826.8527   -17176.817    81.408167 
   78000    2447.2158   -104.13646    2.2142923   -101.92217   -27395.793    4.3375976    4.3375976    4.3375976   -27395.793   -25225.339    4025.4648   -60987.505    7824.5956    34559.635    14704.209    81.610827 
   78100    1281.7853   -103.09134    1.1597863   -101.93156    8238.9594    4.3301102    4.3301102    4.3301102    8238.9594   -3378.8433    18942.942    9152.7798    9077.3796   -16771.506    19298.564    81.188938 
   78200    2424.1976   -104.10992     2.193465   -101.91646    14140.398    4.3386833    4.3386833    4.3386833    14140.398     -27324.9    99233.944   -29487.851   -4695.9262    29890.219    4159.6093    81.672124 
   78300    1389.2411   -103.19804    1.2570146   -101.94103   -38904.993    4.3335925    4.3335925    4.3335925   -38904.993   -65943.279   -61460.866    10689.165    24874.007   -12816.911    40295.488    81.384973 
   78400    2104.4018   -103.81856    1.9041069   -101.91445    42418.403    4.3206698    4.3206698    4.3206698    42418.403   -2441.7316    84128.299     45568.64    3518.2148    400.32388   -23768.749    80.659073 
   78500    1462.5194   -103.24441    1.3233183   -101.92109   -39258.182     4.331831     4.331831     4.331831   -39258.182   -41158.986   -45014.097   -31601.463    18333.044   -13929.488   -14439.597     81.28577 
   78600    2085.2278   -103.78491     1.886758   -101.89816    13461.424    4.3266925    4.3266925    4.3266925    13461.424   -25013.149    30921.997    34475.425    10642.693    -12883.99    5116.6358     80.99684 
   78700    1605.8203   -103.37086    1.4529799   -101.91788   -35571.622    4.3372228    4.3372228    4.3372228   -35571.622    12419.234   -59888.393   -59245.708   -310.90227    11103.954   -73622.133    81.589675 
   78800    2473.8029   -104.13343    2.2383489   -101.89509    9667.3372    4.3331016    4.3331016    4.3331016    9667.3372    -53248.77    41204.609    41046.172    34543.808    -15616.91     22800.89    81.357317 
   78900     1507.141   -103.27787    1.3636929   -101.91417   -16927.514    4.3285715    4.3285715    4.3285715   -16927.514    35409.323   -38388.111   -47803.753   -6954.5369    15155.571   -96630.948    81.102414 
   79000    2467.8895   -104.12271    2.2329983   -101.88972      38402.4    4.3242783    4.3242783    4.3242783      38402.4    8933.9694     77233.57    29039.659     27825.28    7162.1413    36033.905    80.861337 
   79100    1393.1501   -103.18303    1.2605515   -101.92248   -10825.608    4.3323945    4.3323945    4.3323945   -10825.608    28224.806   -22139.693   -38561.938   -6411.6083   -3206.9695   -97466.062    81.317496 
   79200    2680.9233   -104.32336    2.4257558    -101.8976    -5324.079    4.3303055    4.3303055    4.3303055    -5324.079     -45508.2    54258.876   -24722.913     2522.582    31916.504    29008.692    81.199924 
   79300    1040.7648   -102.86792   0.94170583   -101.92621     9793.024    4.3111899    4.3111899    4.3111899     9793.024    61064.138   -34075.835    2390.7691    12813.704   -10393.538   -105372.99    80.129318 
   79400    2600.8538   -104.27682    2.3533072   -101.92351    11285.851    4.3224964    4.3224964    4.3224964    11285.851   -26162.447    67583.368    -7563.368    266.20216    35123.679    27788.903    80.761416 
   79500    1604.6966   -103.39187    1.4519632    -101.9399   -27690.292      4.33533      4.33533      4.33533   -27690.292    20622.605   -48449.207   -55244.274     11254.08    8.5273505     -86112.7    81.482899 
   79600     2162.798   -103.86773     1.956945   -101.91078   -10395.111      4.34144      4.34144      4.34144   -10395.111   -8961.2852   -6545.7084   -15678.339    12736.668    10842.157    906.00485    81.827902 
   79700    1685.9194   -103.43156    1.5254553   -101.90611   -43060.367     4.340968     4.340968     4.340968   -43060.367   -11998.633   -45402.213   -71780.255   -10179.378    17715.546   -85434.179    81.801216 
   79800    2289.8486   -103.96322    2.0719031   -101.89132    22375.335    4.3194207    4.3194207    4.3194207    22375.335    15017.295   -27303.543    79412.254    12215.589   -12160.205   -12626.336    80.589138 
   79900    1195.8426   -102.99867    1.0820235   -101.91664    7192.0933    4.3188592    4.3188592    4.3188592    7192.0933    24952.312   -5796.5809    2420.5485   -437.59305    30088.314   -46281.646    80.557717 
   80000    2293.9804   -103.99532    2.0756417   -101.91968   -12557.303    4.3341618    4.3341618    4.3341618   -12557.303   -11933.253   -1826.8182   -23911.837    4376.1823   -3048.5408   -42120.235    81.417047 
   80100    2067.2234   -103.79135    1.8704672   -101.92088   -11770.925    4.3438256    4.3438256    4.3438256   -11770.925    4266.8901    17737.669   -57317.333    4570.4813    9869.4173   -14737.595    81.962865 
   80200    1685.4603   -103.43148    1.5250399   -101.90644   -14037.681    4.3418981    4.3418981    4.3418981   -14037.681    4887.7526     9250.451   -56251.246   -2457.0433    11334.353   -45451.148    81.853805 
   80300    2388.2269   -104.04683    2.1609179   -101.88592    -5096.039    4.3362544    4.3362544    4.3362544    -5096.039   -25766.267    25294.398   -14816.248    3265.6382   -23762.839    -6612.611    81.535034 
   80400    1869.4452   -103.58137    1.6915133   -101.88986    11757.366    4.3227958    4.3227958    4.3227958    11757.366    63635.635   -7815.3094   -20548.228    6719.4039    12996.772   -66614.335      80.7782 
   80500    1808.0341   -103.52369    1.6359473   -101.88774    40766.042     4.317536     4.317536     4.317536    40766.042     30680.15    24871.369    66746.606    7154.3829   -10258.011    8756.5504    80.483696 
   80600    1737.5886   -103.49354    1.5722067   -101.92133   -3745.3881     4.337819     4.337819     4.337819   -3745.3881    44561.157   -42923.127   -12874.194   -12123.278   -1078.3104   -62393.167    81.623325 
   80700    2032.1408   -103.73231    1.8387237   -101.89358   -13373.222    4.3460449    4.3460449    4.3460449   -13373.222   -73132.985   -22224.247    55237.567     37604.95    7752.8221    10718.512     82.08856 
   80800    1675.1555   -103.39976    1.5157159   -101.88405   -10309.007    4.3366633    4.3366633    4.3366633   -10309.007    33742.419   -57955.226   -6714.2145   -8075.3989   -5220.1458   -53572.653    81.558101 
   80900    1886.6465   -103.59466    1.7070774   -101.88758   -19608.276    4.3362523    4.3362523    4.3362523   -19608.276   -85198.472   -28784.761    55158.405    29553.639    12491.707    1420.4899    81.534915 
   81000    2026.3851   -103.72118    1.8335158   -101.88767    4011.2909    4.3294588    4.3294588    4.3294588    4011.2909    32426.619   -10066.338   -10326.408   -2295.2834    7905.0349   -35816.138    81.152302 
   81100     1529.058   -103.28576    1.3835238   -101.90224    5936.4998    4.3298983    4.3298983    4.3298983    5936.4998    1377.7019   -23272.928    39704.726    51253.184   -2752.5301   -18180.181    81.177017 
   81200    2454.0741   -104.11336    2.2204978   -101.89286    491.09596    4.3415876    4.3415876    4.3415876    491.09596    5082.6214    15274.074   -18883.408   -11209.441    17609.606   -14586.165     81.83625 
   81300    1384.9874   -103.16632    1.2531657   -101.91315   -11022.844    4.3336941    4.3336941    4.3336941   -11022.844    20688.537   -53582.072   -174.99835    60986.912   -8992.9052   -18063.474    81.390696 
   81400    2221.7611   -103.91488    2.0102961   -101.90458    10672.141    4.3240613    4.3240613    4.3240613    10672.141    8181.9504    28385.076   -4550.6043     26587.79   -5555.8197    1257.8647    80.849165 
   81500    1653.4795   -103.42425     1.496103   -101.92815    30510.202    4.3203434    4.3203434    4.3203434    30510.202    77562.446   -19322.359     33290.52    31528.449    4607.6383   -11390.788    80.640797 
   81600    1944.3946    -103.6953    1.7593291   -101.93597   -2223.9681    4.3333348    4.3333348    4.3333348   -2223.9681    -27569.46    6788.6999    14108.856    50028.396   -15814.694   -14657.792    81.370451 
   81700    2124.7345   -103.84195    1.9225045   -101.91945   -8448.0871    4.3445186    4.3445186    4.3445186   -8448.0871    13531.477   -32897.351   -5978.3873    2269.3985      2445.17    4609.6396      82.0021 
   81800    1733.5965   -103.49617    1.5685946   -101.92757    5597.7203    4.3309376    4.3309376    4.3309376    5597.7203     23755.84   -18896.568    11933.889    74394.836   -6166.5559    7372.8505    81.235483 
   81900     2451.621   -104.13691    2.2182782   -101.91863    13833.386     4.322535     4.322535     4.322535    13833.386    11814.719   -1451.1689    31136.609   -39189.514   -839.05815   -9664.8737    80.763577 
   82000     945.0497     -102.801   0.85510083    -101.9459     30340.18    4.3176116    4.3176116    4.3176116     30340.18    31000.691   -3182.4483    63202.298    75317.741     8798.847    21910.658    80.487924 
   82100    3211.3366   -104.82874    2.9056848   -101.92305   -4681.9369    4.3375334    4.3375334    4.3375334   -4681.9369    23469.654   -5849.2497   -31666.215   -30748.404    12587.248    3866.4148    81.607203 
   82200    1084.3576   -102.92304   0.98114954   -101.94189   -12137.086     4.335648     4.335648     4.335648   -12137.086   -25040.034   -61863.743    50492.519    62279.332   -8333.3327    2112.3985    81.500836 
   82300    2379.3776   -104.06248    2.1529109   -101.90957    30484.413    4.3318186    4.3318186    4.3318186    30484.413    86695.736   -17706.466     22463.97   -15896.005    18471.036    15134.971    81.285068 
   82400    1525.2042   -103.31066    1.3800368   -101.93063   -22018.048    4.3247026    4.3247026    4.3247026   -22018.048   -42350.033   -82331.462     58627.35    64378.269   -380.23506   -10965.394    80.885142 
   82500    2252.5217   -103.95933     2.038129    -101.9212    28356.623    4.3171878    4.3171878    4.3171878    28356.623    66411.371    -9545.821    28204.321   -39778.703   -3754.1561    7010.6786    80.464221 
   82600    1939.1181   -103.68206    1.7545548   -101.92751   -1521.2676    4.3267861    4.3267861    4.3267861   -1521.2676    18473.755   -76303.956    53266.398    57143.272    14135.775   -5027.2399    81.002101 
   82700     1356.894   -103.17418    1.2277462   -101.94643   -4249.6572    4.3308411    4.3308411    4.3308411   -4249.6572   -26730.088   -43651.832    57632.948   -37790.075   -8639.4853   -7023.6845    81.230056 
   82800     2698.203   -104.36083    2.4413907   -101.91943   -11182.559    4.3332684    4.3332684    4.3332684   -11182.559    27998.715   -30584.346   -30962.046    8581.9171    4222.0568   -4956.9349    81.366715 
   82900    1009.2402   -102.85546   0.91318179   -101.94228    5307.3757    4.3199281    4.3199281    4.3199281    5307.3757   -15347.277   -23371.115    54640.519    3995.5507    710.44871   -11968.606    80.617541 
   83000    2598.0357   -104.26844    2.3507573   -101.91769    32679.839    4.3235179    4.3235179    4.3235179    32679.839    61593.742   -9376.2201    45821.995   -28490.809    7372.0683    9353.9224    80.818688 
   83100    1516.7809   -103.31644    1.3724152   -101.94402   -23229.471    4.3314537    4.3314537    4.3314537   -23229.471   -10276.664   -39224.124   -20187.627     26408.21   -1213.2995     5759.499     81.26453 
   83200    2404.9683   -104.09646    2.1760658   -101.92039    12710.487    4.3336964    4.3336964    4.3336964    12710.487    35559.049   -17140.363    19712.774   -10286.794    3815.9565   -4464.8317    81.390826 
   83300    1469.4833   -103.26597    1.3296194   -101.93635     -14085.1    4.3362229    4.3362229    4.3362229     -14085.1    12277.181   -56082.231    1549.7489    8740.8675   -3801.0777    41981.105    81.533258 
   83400    2332.7076   -104.03061    2.1106829   -101.91993   -7372.9767    4.3321242    4.3321242    4.3321242   -7372.9767   -19158.338   -13140.664    10180.071    24013.901    3427.1791   -40514.448    81.302277 
   83500    1706.4167   -103.46489    1.5440017   -101.92088    -6232.131    4.3238865    4.3238865    4.3238865    -6232.131    26145.956   -43177.527   -1664.8216   -1007.1656   -4373.9957    84106.856    80.839358 
   83600    1803.5788   -103.55472     1.631916    -101.9228    3194.1199       4.3286       4.3286       4.3286    3194.1199   -25781.734    9276.3172    26087.777    42406.211    4257.9189    -42707.33    81.104018 
   83700    2271.1101   -103.97211    2.0549481   -101.91717   -13564.535    4.3324819    4.3324819    4.3324819   -13564.535    17912.918   -34409.263    -24197.26   -33825.028   -8584.1026    54366.587    81.322417 
   83800    1337.8261   -103.13688    1.2104932   -101.92638    18966.012    4.3285355    4.3285355    4.3285355    18966.012   -3420.5233    41122.132    19196.427    65079.538    -2462.716   -878.93776    81.100391 
   83900    2408.5974   -104.09896    2.1793496   -101.91961   -21303.396    4.3327005    4.3327005    4.3327005   -21303.396   -14988.007   -36593.727   -12328.455   -37790.648   -11274.014    7544.8321    81.334725 
   84000    1547.9058    -103.3304    1.4005777   -101.92983    14157.583    4.3243405    4.3243405    4.3243405    14157.583    5650.3225    27726.908    9095.5198    40782.761    -3617.589    36669.745    80.864823 
   84100    2255.8954   -103.96669    2.0411816   -101.92551   -9653.0801    4.3263503    4.3263503    4.3263503   -9653.0801    8480.3013   -51129.393    13689.851    18099.102   -15009.539   -2245.4327    80.977627 
   84200    1818.3906   -103.58941     1.645318   -101.94409   -9419.9373    4.3287152    4.3287152    4.3287152   -9419.9373   -9403.4834   -36804.926    17948.597    -3067.534    3364.2059    15201.961    81.110492 
   84300    1709.2357   -103.49678    1.5465524   -101.95022    -5999.125    4.3289798    4.3289798    4.3289798    -5999.125    22693.088   -24709.495   -15980.968    55211.036    -21926.46    14595.474     81.12537 
   84400    2303.7264   -104.01865      2.08446   -101.93419   -5800.0793    4.3352451    4.3352451    4.3352451   -5800.0793   -2543.7558    -46620.79    31764.308    4372.5923    4926.1825   -13513.414    81.478114 
   84500     1382.962   -103.18722    1.2513331   -101.93589   -18524.562    4.3332972    4.3332972    4.3332972   -18524.562   -35918.444   -41943.714    22288.471    59877.631   -5210.8088    29340.205    81.368337 
   84600    2451.3275   -104.13187    2.2180126   -101.91386    103.30287    4.3321499    4.3321499    4.3321499    103.30287     32811.93    -19987.01   -12515.011   -13171.788   -1268.4966   -18666.966     81.30372 
   84700    1615.6556   -103.38317    1.4618792   -101.92129   -2359.0645    4.3290472    4.3290472    4.3290472   -2359.0645   -43918.405   -2843.1518    39684.363     73280.88    10649.008    6089.5553    81.129159 
   84800     1917.448   -103.65198    1.7349473   -101.91704   -12284.989    4.3304535    4.3304535    4.3304535   -12284.989     24457.05   -40667.208   -20644.808   -26526.624   -6810.5118    25946.521    81.208249 
   84900    2062.2517   -103.78585    1.8659686   -101.91988   -9600.6919    4.3397889    4.3397889    4.3397889   -9600.6919    -41782.14   -19085.938    32066.003    63734.941    6464.6873   -43144.354    81.734577 
   85000    1815.9361   -103.55859    1.6430971    -101.9155   -18816.841    4.3382437    4.3382437    4.3382437   -18816.841    -9465.532   -69832.098    22847.107   -42600.406    4081.6641    37070.605    81.647304 
   85100    1523.8041   -103.29495      1.37877   -101.91618    20781.669    4.3237712    4.3237712    4.3237712    20781.669    40369.671    -40944.81    62920.146    30080.302    282.07112   -49572.535     80.83289 
   85200    2442.9292   -104.11633    2.2104137   -101.90591    2684.8576    4.3312189    4.3312189    4.3312189    2684.8576   -6012.5956   -37366.781     51433.95   -36204.876    4911.7452     26128.77    81.251316 
   85300    1406.0628   -103.18851    1.2722351   -101.91627   -32517.436    4.3388269    4.3388269    4.3388269   -32517.436     9511.355   -87391.649   -19672.015    6991.1076    6386.2801   -39721.794    81.680232 
   85400    2468.3015   -104.12795    2.2333711   -101.89458    33186.541    4.3282453    4.3282453    4.3282453    33186.541    22547.876    305.59449    76706.154   -28616.486   -6790.2737     12833.77    81.084078 
   85500    1382.3702   -103.17796    1.2507976   -101.92717   -31146.161    4.3342267    4.3342267    4.3342267   -31146.161    1579.0161   -71908.686   -23108.812   -20405.312    11702.295   -26844.522    81.420707 
   85600    2563.6239   -104.21589    2.3196208   -101.89627    20271.934    4.3353554    4.3353554    4.3353554    20271.934    10617.427    6096.2548    44102.121   -8201.1997   -10274.699    7087.8987    81.484335 
   85700    1319.6306   -103.11058    1.1940295   -101.91655   -22253.051    4.3376685    4.3376685    4.3376685   -22253.051   -190.13561   -67961.536    1392.5179   -32483.497   -1818.5955   -14954.766     81.61483 
   85800    2292.7735   -103.97539    2.0745496   -101.90084    8023.2547    4.3328226    4.3328226    4.3328226    8023.2547    14525.197    5213.8699    4330.6969    18360.564   -4417.7103   -527.73945    81.341605 
   85900    1648.6711   -103.40804    1.4917523   -101.91629   -10768.316    4.3306066    4.3306066    4.3306066   -10768.316   -19416.576   -45325.261    32436.888   -9910.5986     11330.75   -3251.9799    81.216863 
   86000    2225.2183   -103.91946    2.0134243   -101.90604   -7404.5143    4.3356713    4.3356713    4.3356713   -7404.5143    23749.407   -30016.694   -15946.256    3721.5532   -3030.7198   -1725.3051    81.502146 
   86100    1643.8411   -103.40355     1.487382   -101.91617   -2577.5047    4.3335098    4.3335098    4.3335098   -2577.5047   -35171.932    12731.879     14707.54    11492.167    21177.102    2638.1833    81.380313 
   86200    2052.8967   -103.76553    1.8575041   -101.90803   -7.1599732    4.3432857    4.3432857    4.3432857   -7.1599732    3356.0177    -31676.84    28299.342   -3046.7476   -4586.9234   -12018.416    81.932307 
   86300    1396.4218    -103.1854    1.2635118   -101.92189   -34793.384    4.3456594    4.3456594    4.3456594   -34793.384   -90702.947   -29338.356    15661.151    39319.636    14908.524    9459.6574    82.066714 
   86400    2251.9353   -103.93986    2.0375983   -101.90226    16749.501    4.3424291    4.3424291    4.3424291    16749.501    9173.3097   -20027.075    61102.269   -15191.709    2306.5996   -17622.203    81.883839 
   86500    1337.7611   -103.14228    1.2104344   -101.93185   -22700.483    4.3419838    4.3419838    4.3419838   -22700.483   -73002.352   -65055.167     69956.07    41744.966   -6828.9637   -11830.968    81.858652 
   86600    3179.2403   -104.78334    2.8766435    -101.9067   -4534.3379    4.3483476    4.3483476    4.3483476   -4534.3379   -7516.8273   -25188.699    19102.513   -11986.537    21278.078    -16837.52    82.219106 
   86700    989.33293   -102.84062   0.89516922   -101.94545   -29031.985    4.3625004    4.3625004    4.3625004   -29031.985   -19737.012   -88257.843    20898.899    40483.597    -14785.84   -15895.728    83.024533 
   86800    2527.9733   -104.17462    2.2873634   -101.88726    14210.146    4.3670196    4.3670196    4.3670196    14210.146    2835.4691   -28444.434    68239.404   -14007.259     27322.91    1021.6029    83.282822 
   86900    1277.5871   -103.04609    1.1559876   -101.89011   -6454.4676     4.360028     4.360028     4.360028   -6454.4676   -12001.177    -43145.96    35783.734    40768.137   -13515.902   -9251.3788     82.88345 
   87000    2488.9342   -104.10307      2.25204   -101.85103    15557.184    4.3563492    4.3563492    4.3563492    15557.184   -18925.134   -18348.729    83945.415   -13980.419     7415.666   -13108.548    82.673831 
   87100    1226.7217   -103.00164    1.1099636   -101.89168   -29107.078    4.3494482    4.3494482    4.3494482   -29107.078    -60755.21   -39493.266    12927.242    27199.922    30966.762   -865.25725    82.281553 
   87200     2721.791   -104.33454    2.4627337    -101.8718    31644.897    4.3408524    4.3408524    4.3408524    31644.897    12866.679    4838.7151    77229.297   -19382.715   -17022.806   -8389.4678    81.794678 
   87300    1373.6508   -103.15643    1.2429081   -101.91352   -44872.609    4.3438799    4.3438799    4.3438799   -44872.609   -79643.873   -48789.367   -6184.5885    16977.602    32903.258    1118.5579    81.965942 
   87400    2296.1073   -103.97056    2.0775661     -101.893    38616.775     4.338303     4.338303     4.338303    38616.775     26475.22    28365.904    61009.201    -22105.44   -22650.402    15195.275    81.650652 
   87500    1501.5972   -103.27935    1.3586767   -101.92067   -33555.679    4.3510017    4.3510017    4.3510017   -33555.679   -66009.541   -57902.795    23245.299    13048.971    13473.913   -1565.6908    82.369751 
   87600    2579.8273   -104.21943     2.334282   -101.88515    1829.3832    4.3466232    4.3466232    4.3466232    1829.3832   -4827.8918    32276.862   -21960.821   -747.88347    -17824.23    2217.8133    82.121333 
   87700    1102.1743   -102.90398   0.99727044   -101.90671    16784.253    4.3393085    4.3393085    4.3393085    16784.253   -14351.785   -20604.634     85309.18   -11503.616   -32683.577   -1827.1086    81.707437 
   87800    2834.0357   -104.44231    2.5642951   -101.87802    1265.6274     4.351928     4.351928     4.351928    1265.6274    -9706.399    37363.085   -23859.804    12507.138   -5991.8443   -18093.065    82.422369 
   87900    1263.1978   -103.05104    1.1429679   -101.90807   -30600.791    4.3503368    4.3503368    4.3503368   -30600.791   -72662.049   -5552.7861   -13587.537   -20587.964   -43329.561    3442.9945    82.331998 
   88000    2637.0746   -104.26712    2.3860805   -101.88104   -715.85517    4.3519674    4.3519674    4.3519674   -715.85517    17387.926   -9241.3342   -10294.158    8560.0246    5928.1128   -16274.311    82.424608 
   88100    959.66179   -102.78249   0.86832215   -101.91417   -20774.925    4.3417447    4.3417447    4.3417447   -20774.925    -78774.93    55761.534   -39311.378   -25323.346     -53214.1   -9700.6434    81.845129 
   88200    3084.4814   -104.66481    2.7909036    -101.8739     21648.65    4.3330723    4.3330723    4.3330723     21648.65    46751.483    23057.709   -4863.2405    4849.8099    7131.5022    2399.1711    81.355665 
   88300    994.48452   -102.82391   0.89983049   -101.92408   -34791.253     4.346547     4.346547     4.346547   -34791.253   -81562.183   -10085.801   -12725.775   -14896.933   -33773.492   -2153.0851    82.117012 
   88400    2222.3834   -103.91515    2.0108592   -101.90429     29143.53    4.3464846    4.3464846    4.3464846     29143.53    63771.747    13480.699    10178.144   -14549.248   -3602.0026    6526.3394    82.113476 
   88500    1784.6883   -103.53066    1.6148235   -101.91584   -21420.163    4.3508095    4.3508095    4.3508095   -21420.163   -17876.802   -12364.162   -34019.526    15922.437   -18269.371    8035.3812    82.358836 
   88600    2262.2622   -103.94627    2.0469424   -101.89933    174.73082    4.3499639    4.3499639    4.3499639    174.73082    -7862.198   -3681.5049    12067.895   -22748.871   -15300.692   -9588.5949    82.310825 
   88700    1655.9198   -103.41373     1.498311   -101.91542   -7510.3044    4.3466345    4.3466345    4.3466345   -7510.3044   -19998.526   -29926.155    27393.769    34798.147   -6817.3881    4472.8069    82.121971 
   88800    2295.8708   -103.97625    2.0773521    -101.8989    10807.236    4.3476705    4.3476705    4.3476705    10807.236   -33864.857    14786.763    51499.802    -13366.88   -44261.043   -19122.201    82.180703 
   88900    1451.1014   -103.22001     1.312987   -101.90702   -67393.365    4.3652996    4.3652996    4.3652996   -67393.365   -38556.606   -119333.48   -44290.009     41492.12    5508.8075    28987.617    83.184451 
   89000    2542.7047   -104.16927    2.3006927   -101.86858   -7201.9006    4.3570722    4.3570722    4.3570722   -7201.9006   -35611.705   -5858.1499    19864.153   -12005.625   -10795.417    18845.559       82.715 
   89100    1653.5465   -103.37453    1.4961636   -101.87837   -14041.231    4.3397895    4.3397895    4.3397895   -14041.231   -21454.707   -75600.499    54931.513    33985.637   -3150.8635   -1285.2915     81.73461 
   89200    1962.3421   -103.66587    1.7755684    -101.8903     195.0859     4.336912     4.336912     4.336912     195.0859   -24355.098   -34637.387    59577.743   -12230.975     14082.69    5300.9326    81.572135 
   89300    1953.6689   -103.68316    1.7677207   -101.91544    -31985.86    4.3471515    4.3471515    4.3471515    -31985.86   -53544.345   -49809.633     7396.398   -5688.1976    1167.4812   -12624.074    82.151281 
   89400     2079.651   -103.78202     1.881712   -101.90031   -34868.852     4.351453     4.351453     4.351453   -34868.852   -27561.864   -32806.646   -44238.047   -3842.9068    25022.376   -1960.8245    82.395388 
   89500    1837.1656   -103.55114    1.6623061   -101.88883    -18064.47    4.3421617    4.3421617    4.3421617    -18064.47   -59263.204   -55404.157    60473.951   -28381.566    15338.238   -369.14922    81.868717 
   89600    1947.4327   -103.64099     1.762078   -101.87891    28870.372    4.3405191    4.3405191    4.3405191    28870.372     1280.153    30684.879    54646.084    15382.157    1241.6502   -17009.091    81.775839 
   89700    1622.2268   -103.37644    1.4678249   -101.90861   -3181.6176    4.3480501    4.3480501    4.3480501   -3181.6176   -56077.125   -27685.564    74217.836   -41663.508    20241.596    11838.107    82.202232 
   89800    1983.4454   -103.67592    1.7946631   -101.88126   -9770.6778     4.358049     4.358049     4.358049   -9770.6778    8374.9201   -22917.224    -14769.73    21379.974   -13667.175   -356.69883    82.770641 
   89900    1730.4844   -103.47066    1.5657786   -101.90488   -24465.662    4.3338203    4.3338203    4.3338203   -24465.662   -52905.512   -32670.329    12178.856   -66315.531    31771.143    9385.7173    81.397804 
   90000    2232.7647   -103.91461    2.0202524   -101.89436    19623.925    4.3168486    4.3168486    4.3168486    19623.925    34662.703    22441.969    1767.1044    38181.264   -17758.158   -16137.056    80.445256 
   90100    1552.4115   -103.32655    1.4046546   -101.92189    -24723.12    4.3265997    4.3265997    4.3265997    -24723.12   -26672.479    -55075.77    7578.8885   -60790.494    8422.0233    14257.203    80.991632 
   90200    2062.5684   -103.77955    1.8662553   -101.91329    26675.309    4.3360849    4.3360849    4.3360849    26675.309    -26166.59     11514.66    94677.858    56394.603    9459.3554   -11608.761    81.525471 
   90300    1775.4468    -103.5213    1.6064616   -101.91484      -8902.5    4.3445461    4.3445461    4.3445461      -8902.5    6506.8989   -54613.218    21398.819   -33775.078   -993.67729     22369.69    82.003661 
   90400     1407.334   -103.17874    1.2733854   -101.90535    13948.771    4.3361477    4.3361477    4.3361477    13948.771   -52206.965   -18795.022     112848.3     58149.61    6358.7607    6392.2891    81.529017 
   90500    2562.2724   -104.21809    2.3183979   -101.89969    6357.2796    4.3344715    4.3344715    4.3344715    6357.2796    24058.881   -21730.025    16742.982   -13391.675    4226.1969    14038.712    81.434501 
   90600    1237.9189    -103.0611    1.1200951   -101.94101   -28628.551    4.3436837    4.3436837    4.3436837   -28628.551   -68787.555   -91742.785    74644.688    74789.657    947.92717    11282.032    81.954836 
   90700    2256.5161   -103.95928    2.0417432   -101.91754    20437.304    4.3444169    4.3444169    4.3444169    20437.304   -12113.519    51215.781     22209.65   -7712.1754    20057.469   -4815.5492    81.996345 
   90800    1763.2467   -103.52842    1.5954226     -101.933   -35223.835    4.3531437    4.3531437    4.3531437   -35223.835   -76242.525   -78720.807    49291.828    85669.245    1236.8544    188.53811    82.491464 
   90900    2132.9511   -103.84173     1.929939   -101.91179   -2284.1597    4.3452105    4.3452105    4.3452105   -2284.1597   -34587.286     26304.68    1430.1276   -22609.551    12280.932   -1575.8187    82.041286 
   91000     1674.525    -103.4264    1.5151454   -101.91125   -11956.503    4.3366897    4.3366897    4.3366897   -11956.503    -35685.78   -27715.867    27532.138    62271.912    12746.453   -18978.338    81.559593 
   91100    2399.8973    -104.0772    2.1714775   -101.90572    1335.8949    4.3431675    4.3431675    4.3431675    1335.8949     -19203.9   -15116.492    38328.077   -26024.198   -437.66436    35685.558    81.925623 
   91200    1672.0868   -103.42469    1.5129392   -101.91175   -10172.096    4.3465998    4.3465998    4.3465998   -10172.096   -60150.035    12841.029    16792.718    36489.419    17622.991   -19251.461    82.120007 
   91300    2003.0589   -103.71562    1.8124098   -101.90321    16868.092    4.3478181    4.3478181    4.3478181    16868.092   -11007.301   -11662.587    73274.165   -6523.6917   -4396.6676    54410.435    82.189074 
   91400    1329.5206   -103.11386    1.2029782   -101.91088    13122.336    4.3514432    4.3514432    4.3514432    13122.336   -52163.394     50978.01    40552.392     22226.32    12780.891    25698.023    82.394831 
   91500    2004.9232    -103.7183    1.8140967   -101.90421    3724.2689    4.3497688    4.3497688    4.3497688    3724.2689   -19679.638   -6141.8112    36994.256    13249.871   -8989.1337   -13529.087    82.299749 
   91600    2030.0005   -103.74006    1.8367871   -101.90327    14486.777    4.3444598    4.3444598    4.3444598    14486.777    18374.895    31249.578   -6164.1409    33317.806    1079.7925    20120.057    81.998772 
   91700    1686.3011   -103.44086    1.5258007   -101.91506    -30651.62    4.3612972    4.3612972    4.3612972    -30651.62   -367.44465   -69559.026   -22028.389    28710.543    11823.736    -31328.06    82.955858 
   91800      2009.87   -103.69428    1.8185726   -101.87571    17355.231    4.3682213    4.3682213    4.3682213    17355.231    32092.513    34438.896   -14465.715     24577.57   -7551.5001    7075.6987    83.351592 
   91900    1858.6446   -103.55078    1.6817407   -101.86903   -27909.282    4.3670263    4.3670263    4.3670263   -27909.282   -6867.3392    -31851.37   -45009.138    39450.143    20519.262   -19982.162    83.283206 
   92000    1722.3527   -103.42469    1.5584209   -101.86627    -8077.135    4.3505804    4.3505804    4.3505804    -8077.135   -11590.543   -12597.282   -43.579961    16877.329    3121.3824   -5617.8196    82.345826 
   92100    2112.2592    -103.7948    1.9112165   -101.88359   -232.76111    4.3391985    4.3391985    4.3391985   -232.76111   -45212.637    3945.3263    40569.028     48452.45    2898.2578    1311.1318    81.701222 
   92200    1989.9996   -103.70812    1.8005935   -101.90753   -3830.1912    4.3525272    4.3525272    4.3525272   -3830.1912   -52900.538   -12757.206     54167.17     18320.16    16067.271   -1074.0393    82.456422 
   92300    1764.8795   -103.50228    1.5969001   -101.90538   -35252.494    4.3686509    4.3686509    4.3686509   -35252.494   -100796.43   -40371.568    35410.518    34773.055   -10350.589    1434.4916    83.376186 
   92400    2350.7625    -103.9942    2.1270193   -101.86718   -32690.333    4.3785011    4.3785011    4.3785011   -32690.333   -76857.873   -25161.507    3948.3797    11171.992    8479.0793    13656.238    83.941438 
   92500    1710.4937   -103.40883    1.5476906   -101.86114   -39370.016    4.3687297    4.3687297    4.3687297   -39370.016   -83362.438   -81634.852    46887.241    45050.404   -4110.2063   -27429.096    83.380697 
   92600    2255.1626   -103.91086    2.0405185   -101.87034    2716.3696    4.3364993    4.3364993    4.3364993    2716.3696   -9179.3719   -15443.303    32771.783   -21229.173    3858.8186    15385.746    81.548853 
   92700    2111.3205   -103.80764    1.9103672   -101.89727    7913.5126    4.3329698    4.3329698    4.3329698    7913.5126    -17711.88   -29421.739    70874.157    61794.059    2396.3873    -10655.39    81.349895 
   92800    1977.2948   -103.70347    1.7890978   -101.91437   -13416.102    4.3582589    4.3582589    4.3582589   -13416.102    8248.5296   -65720.613    17223.777   -6013.7158   -3340.9083   -9212.1405    82.782603 
   92900    2140.9696   -103.81715    1.9371943   -101.87996    2860.7532    4.3818088    4.3818088    4.3818088    2860.7532    -32890.91   -30472.544    71945.714    34635.397    -9843.765    19160.782    84.131816 
   93000    1408.3108   -103.12835    1.2742692   -101.85408   -28599.295    4.3737458    4.3737458    4.3737458   -28599.295   -51748.687   -73082.408    39033.211    5008.3904   -16808.584   -28004.241    83.668237 
   93100    2403.1339   -103.99751     2.174406    -101.8231    27740.206    4.3489609    4.3489609    4.3489609    27740.206    618.89223   -1210.0353    83811.762    20320.068   -17620.909    9366.2481      82.2539 
   93200    1261.0685   -103.01976    1.1410413   -101.87872   -38026.805    4.3356932    4.3356932    4.3356932   -38026.805   -36965.501   -69377.133   -7737.7809   -429.18259    -10196.44   -38648.081    81.503385 
   93300    2646.6182   -104.26985    2.3947158   -101.87513    20901.692    4.3332626    4.3332626    4.3332626    20901.692   -8857.0285    17895.394    53666.709    30418.828   -6854.1771    9614.6452    81.366389 
   93400    1229.0222   -103.03077    1.1120452   -101.91873   -59015.606    4.3634557    4.3634557    4.3634557   -59015.606   -52008.658   -65549.098   -59489.061   -20124.924   -8945.2327   -8201.2647    83.079086 
   93500    2940.1142   -104.52552    2.6602771   -101.86524   -9198.3351    4.3668371    4.3668371    4.3668371   -9198.3351   -47635.879   -11590.074    31630.948   -8997.5093   -1742.4227   -788.70553    83.272378 
   93600    1130.3094   -102.91159    1.0227277   -101.88886   -11661.734    4.3534964    4.3534964    4.3534964   -11661.734    14313.514    10400.064    -59698.78    12229.573     21510.85    31628.244    82.511517 
   93700    2819.3774   -104.40701    2.5510319   -101.85598    35958.766    4.3412325    4.3412325    4.3412325    35958.766    58595.125    9917.1485    39364.024    11846.986   -7683.4108   -10332.056    81.816168 
   93800    793.51323   -102.62731   0.71798745   -101.90933   -4090.4631    4.3457525    4.3457525    4.3457525   -4090.4631   -4742.2136     49988.28   -57517.456   -4597.8321    26066.223    62354.624    82.071991 
   93900    3060.4252   -104.65304    2.7691371   -101.88391    1556.0387    4.3547303    4.3547303    4.3547303    1556.0387   -672.31103    315.66208    5024.7651    16017.875    3806.6356   -32774.939    82.581695 
   94000    885.37807   -102.71305   0.80110868   -101.91194   -20702.099    4.3592455    4.3592455    4.3592455   -20702.099    20840.291    8287.8057   -91234.394   -3816.6642    1313.9018    57016.127    82.838836 
   94100    2544.0922   -104.17377    2.3019481   -101.87182    17925.093    4.3594892    4.3594892    4.3594892    17925.093    48329.948   -1973.7232    7419.0553    17740.376    3966.0594   -16583.044    82.852729 
   94200    1258.4962   -103.02649    1.1387138   -101.88778   -37576.341    4.3595685    4.3595685    4.3595685   -37576.341    19181.824   -77362.093   -54548.754   -9361.8973    6637.4687    71172.931    82.857253 
   94300    2716.2692   -104.31906    2.4577375   -101.86132    25820.903    4.3433536    4.3433536    4.3433536    25820.903    20328.484    43194.016    13940.211    878.42631    11349.114   -20090.426    81.936154 
   94400    1050.1932    -102.8573   0.95023684   -101.90707    -14993.15    4.3462534    4.3462534    4.3462534    -14993.15    87199.828   -91366.749   -40812.529   -4802.8952    5817.8245    73132.734    82.100371 
   94500    2528.8639   -104.17488    2.2881692   -101.88672    12965.862     4.350398     4.350398     4.350398    12965.862   -9221.1567    41789.379    6329.3648    4220.8431    9152.3662   -23947.242    82.335469 
   94600    1704.9844    -103.4483    1.5427057   -101.90559   -12861.294    4.3516142    4.3516142    4.3516142   -12861.294    5732.1685   -31537.554   -12778.496    10904.752   -23.000278    70228.813    82.404544 
   94700    2488.7299   -104.15515    2.2518551    -101.9033   -1776.4092    4.3514023    4.3514023    4.3514023   -1776.4092    8619.9122    10407.465   -24356.604   -1058.2239    -22173.65       -32031    82.392507 
   94800    1482.4482   -103.26381    1.3413503   -101.92246    859.81902    4.3436198    4.3436198    4.3436198    859.81902    24951.793   -42441.686     20069.35    14222.216    14154.303    80259.838     81.95122 
   94900    2308.8737    -104.0073    2.0891175   -101.91818    20546.399    4.3420441    4.3420441    4.3420441    20546.399    33245.049    26574.006    1820.1404   -460.89624    734.00553   -12374.302    81.862066 
   95000    1585.5907   -103.37883    1.4346758   -101.94416    7235.4779    4.3465943    4.3465943    4.3465943    7235.4779    56113.582   -33423.864   -983.28347    12340.059   -22656.589    58560.888    82.119691 
   95100    2066.5236    -103.8072     1.869834   -101.93737   -19574.232    4.3534752    4.3534752    4.3534752   -19574.232   -21525.299   -4412.0837   -32785.313    1266.0035    27414.708    27797.237    82.510311 
   95200    2088.1381   -103.80375    1.8893912   -101.91436    15522.562    4.3564342    4.3564342    4.3564342    15522.562    86084.217   -27751.559   -11764.972   -7556.3863   -13955.826    34890.889    82.678671 
   95300    1787.2461   -103.52708    1.6171379   -101.90994   -22360.883    4.3619194    4.3619194    4.3619194   -22360.883    -18595.06   -26198.469   -22289.121    6606.1472      14823.3    30931.445    82.991366 
   95400    2116.8552   -103.81525    1.9153751   -101.89987    16670.773    4.3511903    4.3511903    4.3511903    16670.773    43940.196   -1204.1933    7276.3148   -4725.7269     38698.25    14797.211    82.380466 
   95500    1252.9542   -103.05409    1.1336993   -101.92039    7636.9379    4.3492459    4.3492459    4.3492459    7636.9379    11443.188    4364.3681    7103.2578    20055.332   -18981.642    25445.753    82.270075 
   95600    2447.7292   -104.12153    2.2147568   -101.90677    12069.939    4.3471548    4.3471548    4.3471548    12069.939   -19859.727    42392.373     13677.17    454.60484    41725.142    2611.5287    82.151468 
   95700    1479.1372   -103.27513    1.3383544   -101.93678   -311.74992    4.3546051    4.3546051    4.3546051   -311.74992    -374.1148     25309.31   -25870.445    11238.776   -31704.018    36984.138    82.574574 
   95800    2504.8847   -104.17402    2.2664723   -101.90755   -6914.0946    4.3742936    4.3742936    4.3742936   -6914.0946   -49733.747    74122.899   -45131.435    3581.2679    1979.8034   -12350.516     83.69968 
   95900     1467.896    -103.2313    1.3281832   -101.90312    897.44183     4.365337     4.365337     4.365337    897.44183    71009.857    4195.0051   -72512.537   -15413.995   -8774.2413    44883.878     83.18659 
   96000    1601.4713   -103.32761    1.4490449   -101.87856    34704.217    4.3477349    4.3477349    4.3477349    34704.217     57294.42     99431.22   -52612.988   -13837.892   -30367.069   -31615.278    82.184359 
   96100    2430.5496   -104.09216    2.1992124   -101.89295   -14223.005    4.3453704    4.3453704    4.3453704   -14223.005    16854.835   -824.07553   -58699.774   -24973.338    743.37445    34572.702    82.050342 
   96200    1691.7136   -103.44862     1.530698   -101.91793   -6320.7386    4.3505042    4.3505042    4.3505042   -6320.7386   -234.29233    51577.041   -70304.964    6006.3723   -45514.893   -21093.605    82.341502 
   96300    2160.2835   -103.86321    1.9546699   -101.90854   -26165.993    4.3752833    4.3752833    4.3752833   -26165.993    12563.244   -13729.478   -77331.744    1481.0273    44159.988     20028.17    83.756506 
   96400    1491.1285   -103.24586    1.3492044   -101.89665   -11858.245    4.3690134    4.3690134    4.3690134   -11858.245    57758.441   -24600.657   -68732.517   -12578.576   -47294.466    9525.4497    83.396943 
   96500    2525.4953   -104.16135    2.2851212   -101.87623   -22263.359    4.3577739    4.3577739    4.3577739   -22263.359   -32788.348    14468.619   -48470.349      22270.1    39362.555   -3648.8222     82.75497 
   96600    1476.9544   -103.22819    1.3363794   -101.89181    2553.2015    4.3461382    4.3461382    4.3461382    2553.2015    39841.217    38711.369   -70892.981    13159.689    -27674.82    26086.197    82.093843 
   96700    1823.3999    -103.5528    1.6498505   -101.90295    12967.069     4.337594     4.337594     4.337594    12967.069    -11009.74    38762.574    11148.372   -7989.1561    8299.4357   -1416.4068    81.610624 
   96800    1962.6263   -103.69677    1.7758256   -101.92094   -26934.161    4.3509207    4.3509207    4.3509207   -26934.161    -34103.01    21394.265    -68093.74    1078.2013    2494.9303    3404.6723     82.36515 
   96900    1832.6171   -103.57598    1.6581905   -101.91779   -10298.778    4.3581436    4.3581436    4.3581436   -10298.778   -16207.758   -1386.7382   -13301.837   -3184.1017   -39681.746    1895.2442    82.776034 
   97000    2009.9266   -103.72728    1.8186238   -101.90866     122.6061    4.3473726    4.3473726    4.3473726     122.6061    -11979.75      61835.1   -49487.531   -18422.499    51108.663    1268.1983    82.163813 
   97100     1782.364   -103.53214    1.6127204   -101.91942   -12523.387    4.3394617    4.3394617    4.3394617   -12523.387    8938.3647   -2812.4462   -43696.079   -3469.8427   -70535.714    13507.914    81.716089 
   97200    2042.6828   -103.76579    1.8482624   -101.91752    33225.378    4.3254829    4.3254829    4.3254829    33225.378     62759.69    10317.098    26599.345    -29068.85    47296.133   -12724.433    80.928928 
   97300    1690.9951   -103.46054    1.5300479   -101.93049   -24765.181    4.3447918    4.3447918    4.3447918   -24765.181    -42246.97    23427.696   -55476.268    5916.0465   -56141.028    19643.327    82.017575 
   97400    1581.2677   -103.34618    1.4307643   -101.91542   -19895.695    4.3514675    4.3514675    4.3514675   -19895.695   -12466.072   -59788.687    12567.674   -55030.094    6201.7625    -29891.33    82.396211 
   97500    2730.5528   -104.35718    2.4706615   -101.88652   -9010.6437    4.3358269    4.3358269    4.3358269   -9010.6437    99.197281   -11451.327   -15679.802     24657.62   -31774.276     16446.74    81.510919 
   97600    1355.2067   -103.15836    1.2262195   -101.93214    -38985.73    4.3469076    4.3469076    4.3469076    -38985.73   -59843.453   -33377.455    -23736.28   -55066.884   -10260.426   -8711.2256     82.13745 
   97700    2223.4836   -103.92704    2.0118547   -101.91519    27534.881    4.3408858    4.3408858    4.3408858    27534.881    51794.521    18018.403     12791.72    11175.681    1069.7767   -15309.247    81.796566 
   97800    1798.2983   -103.56426    1.6271381   -101.93712   -24229.922    4.3488201    4.3488201    4.3488201   -24229.922   -26525.619   -56981.089    10816.941   -10806.046   -25310.817    11724.035    82.245914 
   97900    1847.2133   -103.59268    1.6713974   -101.92128    5929.5526    4.3529197    4.3529197    4.3529197    5929.5526    37280.688    8387.6405   -27879.671   -21975.341    35885.459   -15351.228    82.478731 
   98000    2011.5677   -103.74412    1.8201087   -101.92401   -5572.8356     4.338337     4.338337     4.338337   -5572.8356   -2047.9968     5789.499   -20460.009     20946.43   -2206.7256    28292.925     81.65257 
   98100    1986.8658    -103.7343     1.797758   -101.93654    3294.1019     4.345266     4.345266     4.345266    3294.1019    5591.7102   -12513.364     16803.96   -26860.036    11218.617   -19202.404    82.044433 
   98200    1461.6418   -103.25617    1.3225242   -101.93365    -9835.495    4.3515799    4.3515799    4.3515799    -9835.495   -25277.758    7553.1574   -11781.885   -6280.4734    72780.482    24272.014    82.402597 
   98300    2432.0077    -104.1103    2.2005316   -101.90977   -8871.5169    4.3567456    4.3567456    4.3567456   -8871.5169   -20023.014   -33161.022    26569.486   -7549.0707   -27306.776      4631.42      82.6964 
   98400     1285.768   -103.08108    1.1633899   -101.91769   -56978.671    4.3663758    4.3663758    4.3663758   -56978.671   -107347.69   -2073.4971   -61514.823    -17753.96    91630.979    7243.6152    83.245993 
   98500    2726.1223    -104.3418    2.4666527   -101.87515     21742.74    4.3425236    4.3425236    4.3425236     21742.74    24270.183    6618.3875    34339.649    3135.4133    -35857.77    10548.145    81.889189 
   98600    1286.4049   -103.07297    1.1639662   -101.90901   -43049.001     4.343096     4.343096     4.343096   -43049.001    -109178.2    50775.755   -70744.558   -16930.444    78125.086   -7395.8307    81.921572 
   98700    2429.4965   -104.09478    2.1982595   -101.89652    36135.118    4.3468402    4.3468402    4.3468402    36135.118     79311.92   -2021.9353     31115.37   -15773.628   -21977.285    3311.7653    82.133634 
   98800    1481.4444    -103.2774     1.340442   -101.93696   -17565.903    4.3586029    4.3586029    4.3586029   -17565.903   -21038.811    31544.571   -63203.469   -8071.7858    86449.527    6389.7926    82.802205 
   98900    1995.5079   -103.71945    1.8055775   -101.91387    2045.2641    4.3567564    4.3567564    4.3567564    2045.2641    28485.288    21110.704     -43460.2    -11110.32   -39117.259    7115.0045    82.697015 
   99000    1993.3011   -103.71281    1.8035807   -101.90923    7115.3515    4.3394685    4.3394685    4.3394685    7115.3515    19624.204    17816.589   -16094.738    4742.3492    60056.719    8057.9508    81.716477 
   99100    1499.9843   -103.28563    1.3572173   -101.92841    11584.871    4.3345276    4.3345276    4.3345276    11584.871    79836.654   -16691.241   -28390.799    3133.0597    4542.1175   -1314.3843    81.437668 
   99200    1843.4779   -103.61724    1.6680176   -101.94922   -12209.764     4.339397     4.339397     4.339397   -12209.764   -24790.464    20585.432    -32424.26    4914.1875    -28190.37    22288.204    81.712438 
   99300    2252.6223   -103.97409      2.03822   -101.93587    9656.9357    4.3488516    4.3488516    4.3488516    9656.9357    1168.8728   -7719.8894    35521.824      3724.14    27134.622   -16953.201      82.2477 
   99400    985.75535   -102.84664   0.89193216   -101.95471   -38572.714    4.3579957    4.3579957    4.3579957   -38572.714     29885.62   -68070.967   -77532.795   -9342.0057   -48795.603    23728.235    82.767605 
   99500    2721.1523   -104.38024    2.4621558   -101.91809    20152.433    4.3481233    4.3481233    4.3481233    20152.433    87792.341   -30689.121    3354.0805   -2700.4858    4470.2191    8538.3931    82.206388 
   99600    1678.4594   -103.47138    1.5187053   -101.95267   -19255.814      4.34222      4.34222      4.34222   -19255.814    17272.615   -25628.237   -49411.819   -18753.462   -48343.565    6352.9257    81.872012 
   99700    1545.2683   -103.36603    1.3981913   -101.96784   -11276.524    4.3440658    4.3440658    4.3440658   -11276.524   -26435.722    40118.669    -47512.52   -23407.706   -21447.782    19102.967    81.976465 
   99800    2542.1028   -104.24234     2.300148   -101.94219   -2725.9797    4.3590334    4.3590334    4.3590334   -2725.9797    12065.104    255.98822   -20499.031    1781.2746    5803.9534   -3368.6874    82.826745 
   99900    1820.0004    -103.5681    1.6467746   -101.92132   -54614.002    4.3726712    4.3726712    4.3726712   -54614.002   -33919.628   -47142.188   -82780.189   -10005.549   -55130.743    32301.679     83.60658 
  100000    2146.7653   -103.82687    1.9424383   -101.88443     24644.86     4.356261     4.356261     4.356261     24644.86    33803.867   -11329.148     51459.86   -7776.6246    72713.675   -7493.5439    82.668807 
Loop time of 22.3178 on 1 procs for 100000 steps with 8 atoms

Pair  time (%) = 7.05317 (31.6034)
Kspce time (%) = 5.27016 (23.6142)
Neigh time (%) = 0.273699 (1.22637)
Comm  time (%) = 1.05326 (4.71936)
Outpt time (%) = 0.023221 (0.104047)
Other time (%) = 8.64427 (38.7327)

Nlocal:    8 ave 8 max 8 min
Histogram: 1 0 0 0 0 0 0 0 0 0
Nghost:    2014 ave 2014 max 2014 min
Histogram: 1 0 0 0 0 0 0 0 0 0
Neighs:    2114 ave 2114 max 2114 min
Histogram: 1 0 0 0 0 0 0 0 0 0

Total # of neighbors = 2114
Ave neighs/atom = 264.25
Neighbor list builds = 3278
Dangerous builds = 0
unfix 20
unfix 21
print "seeds:2754426"
seeds:2754426
