LAMMPS (10 Feb 2015)
# ---- initialize simulations
clear
units metal
dimension 3
boundary p p p
atom_style charge
atom_modify map array
# ---- create atoms
read_data /Users/eugeneragasa/pyflamestk_git/pypospack/tests/tests_integration/workflow/WorkflowLammpsThermalExpansion/param_785/MgO_NaCl_unit.npt.T900/lammps.structure
  triclinic box = (0 0 0) to (4.2565 4.2565 4.2565) with tilt (0 0 0)
  1 by 1 by 1 MPI processor grid
  reading atoms ...
  8 atoms
# ---- define interatomic potential
include potential.mod
mass 1 24.305
mass 2 15.999

group Mg type 1
4 atoms in group Mg
group O type 2
4 atoms in group O

set group Mg charge 1.62294375895
  4 settings made for charge
set group O charge -1.62294375895
  4 settings made for charge

variable R_cut equal 10.0

pair_style buck/coul/long ${R_cut}
pair_style buck/coul/long 10
pair_coeff 1 1 0.0 0.5 0.0 ${R_cut}
pair_coeff 1 1 0.0 0.5 0.0 10
pair_coeff 1 2 1315.47688947 0.28024601768 0.0 ${R_cut}
pair_coeff 1 2 1315.47688947 0.28024601768 0.0 10
pair_coeff 2 2 7992.27283476 0.124296175577 7.5002562575 ${R_cut}
pair_coeff 2 2 7992.27283476 0.124296175577 7.5002562575 10

kspace_style pppm 1.0e-5

neighbor 1.0 bin
neigh_modify every 1 delay 0 check yes
# ---- define settings
compute eng all pe/atom
compute eatoms all reduce sum c_eng
# ---- run minimization
reset_timestep 0
fix 1 all box/relax iso 0.0 vmax 0.001
thermo 10
thermo_style custom step pe lx ly lz xy xz yz press pxx pyy pzz pxy pxz pyz c_eatoms
min_style cg
minimize 1e-25 1e-25 5000 10000
PPPM initialization ...
  G vector (1/distance) = 0.352546
  grid = 8 8 8
  stencil order = 5
  estimated absolute RMS force accuracy = 3.83063e-05
  estimated relative force accuracy = 2.66022e-06
  using double precision FFTs
  3d grid and FFT values/proc = 3375 512
Neighbor list info ...
  1 neighbor list requests
  update every 1 steps, delay 0 steps, check yes
  master list distance cutoff = 11
Memory usage per processor = 4.06549 Mbytes
Step PotEng Lx Ly Lz Xy Xz Yz Press Pxx Pyy Pzz Pxy Pxz Pyz eatoms 
       0   -108.88461       4.2565       4.2565       4.2565            0            0            0   -30879.056   -30879.056   -30879.056   -30879.056 -2.5133272e-10 -7.2643252e-11 5.7873381e-11   -108.88461 
      10   -108.89911    4.2290577    4.2290577    4.2290577            0            0            0   0.26053131   0.26053131   0.26053131   0.26053131 3.8284322e-11 -1.3873734e-12 -2.9889769e-10   -108.89911 
      12   -108.89911    4.2290577    4.2290577    4.2290577            0            0            0   0.25210742   0.25210742   0.25210742   0.25210742 1.3658055e-10 -3.2077679e-12 -1.3269119e-10   -108.89911 
Loop time of 0.00903201 on 1 procs for 12 steps with 8 atoms

Minimization stats:
  Stopping criterion = linesearch alpha is zero
  Energy initial, next-to-last, final = 
        -108.884606122     -108.899110632     -108.899110632
  Force two-norm initial, final = 4.45895 5.1421e-05
  Force max component initial, final = 4.45895 3.59365e-05
  Final line search alpha, max atom move = 0.5 1.79683e-05
  Iterations, force evaluations = 12 23

Pair  time (%) = 0.00259638 (28.7464)
Kspce time (%) = 0.00145531 (16.1128)
Neigh time (%) = 0 (0)
Comm  time (%) = 0.000260353 (2.88256)
Outpt time (%) = 1.5974e-05 (0.17686)
Other time (%) = 0.004704 (52.0814)

Nlocal:    8 ave 8 max 8 min
Histogram: 1 0 0 0 0 0 0 0 0 0
Nghost:    2189 ave 2189 max 2189 min
Histogram: 1 0 0 0 0 0 0 0 0 0
Neighs:    2344 ave 2344 max 2344 min
Histogram: 1 0 0 0 0 0 0 0 0 0

Total # of neighbors = 2344
Ave neighs/atom = 293
Neighbor list builds = 0
Dangerous builds = 0
unfix 1
# ---- define output variables ----
variable natoms equal "count(all)"
variable tot_energy equal "c_eatoms"
variable length_x equal "lx"
variable length_y equal "ly"
variable length_z equal "lz"
variable tilt_xy equal "xy"
variable tilt_xz equal "xz"
variable tilt_yz equal "yz"
variable tot_press equal "press"
variable press_xx equal "pxx"
variable press_yy equal "pyy"
variable press_zz equal "pzz"
variable press_xy equal "pxy"
variable press_xz equal "pxz"
variable press_yz equal "pyz"

# ---- output ----
print "pypospack:output_section:begin"
pypospack:output_section:begin
print "tot_energy = ${tot_energy}"
tot_energy = -108.899110631848
print "num_atoms = ${natoms}"
num_atoms = 8
print "xx = ${length_x}"
xx = 4.22905766787052
print "yy = ${length_y}"
yy = 4.22905766787052
print "zz = ${length_z}"
zz = 4.22905766787052
print "xy = ${tilt_xy}"
xy = 0
print "xz = ${tilt_xz}"
xz = 0
print "yz = ${tilt_yz}"
yz = 0
print "tot_press = ${tot_press}"
tot_press = 0.252107417895481
print "pxx = ${press_xx}"
pxx = 0.252107418292273
print "pyy = ${press_yy}"
pyy = 0.252107418323333
print "pzz = ${press_zz}"
pzz = 0.252107417070837
print "pxy = ${press_xy}"
pxy = 1.36580554666579e-10
print "pxz = ${press_xz}"
pxz = -3.20776791999541e-12
print "pyz = ${press_yz}"
pyz = -1.32691186845421e-10
print "pypospack:output_section:done"
pypospack:output_section:done
print "pypospack:lammps_sim:done"
pypospack:lammps_sim:done
#------------------------------------------------------------------------------
# RUN THERMOSTAT
# running using an NPT Nose-Hoover style thermostat
#------------------------------------------------------------------------------
variable tempdamp equal 0.1
variable pressdamp equal 1.0
# set initial velocities
velocity all create 900 7760779 mom yes dist gaussian loop all
# fix for Nose-Hoover style thermostat
fix 20 all npt temp 900 900 0.1 aniso 0.0 0.0 1.0 drag 1.0 couple xyz
variable boxx equal lx
variable boxy equal ly
variable boxz equal lz
variable boxp equal press
variable boxt equal temp
# calculate averages every 10000 steps
reset_timestep 0
fix 21 all ave/time 10 10 100 v_boxx v_boxy v_boxz v_boxp v_boxt file lattice.out
thermo_style custom step temp pe ke etotal press lx ly lz press pxx pyy pzz pxy pxz pyz vol
thermo_modify flush yes
thermo 100
run 100000
PPPM initialization ...
  G vector (1/distance) = 0.352817
  grid = 8 8 8
  stencil order = 5
  estimated absolute RMS force accuracy = 3.78369e-05
  estimated relative force accuracy = 2.62763e-06
  using double precision FFTs
  3d grid and FFT values/proc = 3375 512
Memory usage per processor = 3.06549 Mbytes
Step Temp PotEng KinEng TotEng Press Lx Ly Lz Press Pxx Pyy Pzz Pxy Pxz Pyz Volume 
       0          900   -108.89911   0.81433891   -108.08477    11500.436    4.2290577    4.2290577    4.2290577    11500.436    20513.725    8346.9736    5640.6091    5682.6056    5414.2497    1096.5149    75.636395 
     100    371.46878   -108.31423   0.33611276   -107.97812    6487.4055     4.255126     4.255126     4.255126    6487.4055    39994.907   -12546.942   -7985.7479   -4371.8024   -4597.8035   -1169.6248    77.043725 
     200    656.87166   -108.34559   0.59435128   -107.75124   -23448.294    4.2719567    4.2719567    4.2719567   -23448.294   -2261.8173   -30532.741   -37550.323   -1223.3287   -12446.259    -641.5364    77.961561 
     300    874.35537   -108.34843   0.79113511    -107.5573     10424.69      4.25597      4.25597      4.25597     10424.69    40846.271   -2873.0061   -6699.1935    5739.1789    4381.9418    839.16299    77.089578 
     400    545.99201   -107.90696   0.49402505   -107.41293    15069.979    4.2583442    4.2583442    4.2583442    15069.979      55683.7   -2351.7684   -8121.9944   -5478.4536    -6313.515   -626.83037    77.218667 
     500     442.8804   -107.72162   0.40072749   -107.32089   -1706.8215    4.2803647    4.2803647    4.2803647   -1706.8215    55151.385   -24878.965   -35392.884   -8228.6092   -179.31552    38.020657    78.422796 
     600    1263.0693   -108.40946    1.1428516   -107.26661   -19267.921    4.2756359    4.2756359    4.2756359   -19267.921    5921.5856   -38194.082   -25531.267   -5183.0827    9988.1639    2236.7057    78.163167 
     700    1100.2753   -108.24397    0.9955522   -107.24842    27335.165    4.2505112    4.2505112    4.2505112    27335.165     43603.62    33852.619    4549.2542    3075.0336   -16170.753    154.62346    76.793329 
     800    808.59906   -107.99909   0.73163742   -107.26745   -17289.154    4.2853845    4.2853845    4.2853845   -17289.154   -496.32504   -17398.328    -33972.81   -1501.1651   -5927.0104    148.28363    78.699031 
     900    1074.8852   -108.22906   0.97257874   -107.25648   -24925.767    4.2771815    4.2771815    4.2771815   -24925.767   -9649.2158   -31371.466   -33756.619    10007.031      8865.37    3507.8912    78.247961 
    1000    793.78145   -107.97342   0.71823013   -107.25519    23837.671    4.2480944    4.2480944    4.2480944    23837.671    47966.455    16889.004    6657.5533    13606.587    -5287.595   -4179.8587    76.662414 
    1100    764.15889   -107.96526   0.69142702   -107.27384    2693.4266    4.2727978    4.2727978    4.2727978    2693.4266    56352.897   -29567.039   -18705.578   -4775.5133   -7974.3655     969.8272     78.00762 
    1200    758.11084   -107.95188   0.68595462   -107.26593    -30813.49    4.2890722    4.2890722    4.2890722    -30813.49    -1706.299   -48437.184   -42296.985    11453.185    6109.7972    5434.1244    78.902376 
    1300    815.47778   -107.99189   0.73786143   -107.25403    16623.962    4.2513129    4.2513129    4.2513129    16623.962    31861.348    7689.8878    10320.651    12240.771   -5045.0621   -3639.8251     76.83679 
    1400    981.07934   -108.14911    0.8877012    -107.2614    30912.128    4.2562278    4.2562278    4.2562278    30912.128    73930.853    27817.856   -9012.3231   -8527.4725   -10681.289    1319.1083    77.103589 
    1500    1176.3275   -108.32431    1.0643658   -107.25994   -36746.634    4.2890534    4.2890534    4.2890534   -36746.634   -33828.791   -31672.605   -44738.507    12162.136    10797.305   -2586.8296    78.901337 
    1600    742.12528   -107.92618   0.67149055   -107.25469     25306.86    4.2597867    4.2597867    4.2597867     25306.86    72080.018    9998.8607   -6158.2984    16938.606   -12545.828   -1508.7447    77.297164 
    1700    1016.3109   -108.17743   0.91957947   -107.25786     6611.555    4.2627564    4.2627564    4.2627564     6611.555    37452.936   -10894.176   -6724.0953    2685.6863    5704.5223    7510.8768    77.458938 
    1800    820.78558   -108.00403   0.74266404   -107.26137   -20622.244    4.2761067    4.2761067    4.2761067   -20622.244    5703.3604   -34520.964    -33049.13    1409.2051    9961.1482   -3714.4297    78.188991 
    1900    905.91659   -108.07813   0.81969237   -107.25843    13716.304    4.2588974    4.2588974    4.2588974    13716.304    61557.832   -11952.154   -8456.7676    2859.0841   -3649.7379    2927.2261    77.248761 
    2000     829.9615   -108.01239    0.7509666   -107.26143   -2780.3914    4.2786341    4.2786341    4.2786341   -2780.3914    16729.598    5313.5848   -30384.357    783.58904   -1121.2644    -32.24374    78.327714 
    2100    625.42711   -107.82382   0.56589959   -107.25792   -8807.5552    4.2722836    4.2722836    4.2722836   -8807.5552    17837.452   -20939.471   -23320.646    3928.5468    9096.1843    -3005.616    77.979459 
    2200    909.28891   -108.08017   0.82274372   -107.25742     11994.19    4.2487838    4.2487838    4.2487838     11994.19    22147.621    17353.401   -3518.4509    17556.935   -4694.0663    7145.0605    76.699739 
    2300    1120.2591   -108.28125     1.013634   -107.26762   -14095.191    4.2774392    4.2774392    4.2774392   -14095.191    9322.3312   -12689.945   -38917.959   -7939.7566   -1730.7835   -393.12718    78.262105 
    2400    777.87646   -107.96236   0.70383897   -107.25852   -30608.356    4.2882614    4.2882614    4.2882614   -30608.356   -2540.8827   -39610.351   -49673.833    5121.8972    8001.1512    4378.2117    78.857635 
    2500    974.31911   -108.12759   0.88158441     -107.246    8675.3747    4.2464802    4.2464802    4.2464802    8675.3747    28814.463   -3269.5055    481.16673    22896.644    749.75178    433.03974    76.575056 
    2600     993.2933   -108.15564   0.89875265   -107.25689     15517.09     4.255472     4.255472     4.255472     15517.09    19112.942    32771.804   -5333.4769    -10597.98   -4019.9001    2013.0788    77.062522 
    2700    857.77646     -108.032   0.77613416   -107.25587   -41319.836    4.2916904    4.2916904    4.2916904   -41319.836   -28902.895   -43506.004   -51550.607    7707.8118    8264.0574    3814.3883    79.046956 
    2800    745.85761   -107.92481   0.67486764   -107.24994    7740.5734     4.262159     4.262159     4.262159    7740.5734     23146.96    16086.583   -16011.822    21730.637    3505.8722     2645.586    77.426376 
    2900    1010.1033   -108.16135   0.91396272   -107.24739    9395.6127    4.2536346    4.2536346    4.2536346    9395.6127     16784.24    10292.653    1109.9447   -8109.4161    -17005.66    7668.6816    76.962745 
    3000    905.29395   -108.07389   0.81912899   -107.25476   -18738.889    4.2766511    4.2766511    4.2766511   -18738.889   -37646.925    4792.4713   -23362.213   -1879.1045    8287.0617   -3757.8032    78.218854 
    3100    1060.9269    -108.2114   0.95994894   -107.25145   -17196.749    4.2745149    4.2745149    4.2745149   -17196.749    13613.872   -35462.664   -29741.454    6390.5241    742.46711    4386.7654    78.101706 
    3200    1088.4247   -108.23085   0.98482956   -107.24602    14583.232      4.26003      4.26003      4.26003    14583.232    17992.907    29571.495   -3814.7073   -4169.2863   -5251.9067    269.99189     77.31041 
    3300    861.70063   -108.03406   0.77968484   -107.25437      202.406    4.2687671    4.2687671    4.2687671      202.406    54213.917   -32546.784   -21059.915      5301.11    6328.6985    2833.3621    77.787067 
    3400    776.47894   -107.95765   0.70257447   -107.25507   -25805.033    4.2802277    4.2802277    4.2802277   -25805.033   -17960.574   -35323.652   -24130.872    17425.448    1520.8943    4428.2339    78.415266 
    3500     1036.619   -108.18582   0.93795463   -107.24786   -341.58138       4.2546       4.2546       4.2546   -341.58138     1395.834   -3030.0074    609.42932   -165.94252    1825.1931   -4566.3396     77.01516 
    3600    653.51435    -107.8535   0.59131352   -107.26218    17261.209    4.2639737    4.2639737    4.2639737    17261.209    36214.201    26251.504   -10682.077   -2219.4395     8131.138   -4156.3449    77.525316 
    3700    1120.3294   -108.26912    1.0136976   -107.25542   -40722.695    4.2837396    4.2837396    4.2837396   -40722.695    -46785.63   -42996.498   -32385.959    7995.3656   -460.57957    3028.3134    78.608441 
    3800    785.90323   -107.95628   0.71110176   -107.24518    45672.437    4.2517291    4.2517291    4.2517291    45672.437    79888.372    34286.248    22842.691   -10375.506   -5653.2735   -8731.3071     76.85936 
    3900    1217.4675   -108.35883    1.1015902   -107.25724   -19852.063    4.2706536    4.2706536    4.2706536   -19852.063   -20138.551   -31849.841   -7567.7952    12984.203    11433.203   -271.41777    77.890238 
    4000    831.03336   -108.00669   0.75193645   -107.25476   -13655.335    4.2768951    4.2768951    4.2768951   -13655.335    6607.8739   -33665.649   -13908.229    12373.406    9866.9614   -606.61283    78.232244 
    4100    940.53962    -108.0966   0.85102002   -107.24558    20609.733    4.2521333    4.2521333    4.2521333    20609.733    33895.277   -17618.151    45552.072   -14435.724    7990.9778    417.60758    76.881281 
    4200    687.06502   -107.88408   0.62167087   -107.26241   -17669.848    4.2773667    4.2773667    4.2773667   -17669.848   -23991.789   -11810.827   -17206.928    5915.4714    8069.6088    429.76835    78.258128 
    4300    557.91102    -107.7615   0.50480962   -107.25669   -2715.2794    4.2670569    4.2670569    4.2670569   -2715.2794   -4474.1803   -16063.186    12391.528    2191.8025    19573.084   -4463.8036    77.693613 
    4400    961.63496   -108.12092   0.87010752   -107.25082    5003.3808    4.2567548    4.2567548    4.2567548    5003.3808   -26193.325     9195.645    32007.822   -16994.101   -2890.7882    12414.646    77.132231 
    4500    1076.4614   -108.22606   0.97400492   -107.25205   -25874.321    4.2822372    4.2822372    4.2822372   -25874.321   -33703.413   -11486.509   -32433.041    3481.8709    1054.9961    2113.2361    78.525762 
    4600    1020.4951   -108.17505   0.92336537   -107.25168   -3308.8483    4.2607419    4.2607419    4.2607419   -3308.8483    918.41183    -19144.89    8299.9337    10642.507    5332.6595   -1013.4197    77.349172 
    4700     1260.097   -108.39272    1.1401623   -107.25256    15116.179    4.2526585    4.2526585    4.2526585    15116.179     11985.65    7674.9484    25687.939      778.119   -2758.3461   -5574.0877     76.90977 
    4800    977.95659   -108.14873   0.88487567   -107.26385   -25421.911     4.290447     4.290447     4.290447   -25421.911   -40691.076   -40510.693    4936.0357    4520.8121    11227.888   -3523.8897    78.978272 
    4900    619.18397   -107.82333   0.56025067   -107.26308    615.89385    4.2651408    4.2651408    4.2651408    615.89385   -31503.026   -19857.175    53207.882   -1871.4102   -2612.9812    8929.4878    77.588995 
    5000    850.60419   -108.01543   0.76964455   -107.24579    18445.819    4.2438062    4.2438062    4.2438062    18445.819    7792.0705    13818.852    33726.536   -1353.7523    14543.834   -13164.198    76.430486 
    5100    631.68485   -107.83106   0.57156173    -107.2595   -17542.201    4.2841645    4.2841645    4.2841645   -17542.201   -17609.192   -24913.171    -10104.24    12676.726   -1087.1246    5677.8399    78.631835 
    5200    946.76848   -108.10881   0.85665601   -107.25216   -18620.817    4.2763434    4.2763434    4.2763434   -18620.817   -5794.1935   -43330.614   -6737.6419   -2454.1197    10164.701    1703.0917    78.201975 
    5300     949.3355   -108.10135   0.85897871   -107.24237    36773.594    4.2437043    4.2437043    4.2437043    36773.594    45305.177   -4549.4484    69565.053    -4709.235   -15089.828   -4383.7809    76.424984 
    5400    842.69496   -108.02981   0.76248811   -107.26732    4850.3771    4.2735028    4.2735028    4.2735028    4850.3771    198.51839   -33064.931    47417.544    15859.885   -8742.4387    1415.8307     78.04624 
    5500     1274.153   -108.40533    1.1528804   -107.25245   -29104.632    4.2780928    4.2780928    4.2780928   -29104.632    -17881.47   -45351.946   -24080.481    -3061.319   -5817.1621    7897.6458    78.297991 
    5600    629.33332    -107.8175   0.56943401   -107.24807    29861.379    4.2430824    4.2430824    4.2430824    29861.379    15129.994    12688.677    61765.467    11881.871    1297.5008   -5173.8734    76.391388 
    5700    866.12161    -108.0494   0.78368504   -107.26572   -13978.039    4.2654142    4.2654142    4.2654142   -13978.039    -39298.08   -28934.589    26298.552    16515.869     1038.122    9980.1155    77.603912 
    5800    717.86097   -107.90561   0.64953569   -107.25607   -1835.3893    4.2760927    4.2760927    4.2760927   -1835.3893   -16517.724   -29865.321    40876.878   -7946.1362    10298.288   -3271.0309    78.188222 
    5900    646.19852   -107.84202     0.584694   -107.25733     8090.628    4.2551996    4.2551996    4.2551996     8090.628   -5132.4016   -7973.9508    37378.236    21230.173   -1359.1244   -3008.7773    77.047723 
    6000    1152.3874     -108.303    1.0427043    -107.2603   -21102.221    4.2647199    4.2647199    4.2647199   -21102.221   -30480.364   -22715.439    -10110.86    8187.1181   -6727.7602   -2281.5588    77.566027 
    6100    931.51612   -108.09857   0.84285536   -107.25572    19535.005    4.2650893    4.2650893    4.2650893    19535.005    9276.5827    -13499.71    62828.141   -6696.9135    2776.2122    2804.7274    77.586184 
    6200    1080.8453   -108.23292   0.97797158   -107.25495   -9256.6094    4.2657825    4.2657825    4.2657825   -9256.6094   -9988.8924    -32149.44    14368.504    17284.611    4635.7562   -3117.7512    77.624017 
    6300    841.04697   -108.01463   0.76099697   -107.25363   -436.50362    4.2692444    4.2692444    4.2692444   -436.50362   -29163.583   -15355.424    43209.497    -2392.117   -5572.3389     3308.079    77.813158 
    6400    953.06449   -108.11564   0.86235278   -107.25328    6258.3962    4.2526288    4.2526288    4.2526288    6258.3962    15320.056   -4041.1927    7496.3255    3061.9385   -7924.8932    9876.1057    76.908161 
    6500    634.19729   -107.84042   0.57383503   -107.26659   -7445.1268    4.2673822    4.2673822    4.2673822   -7445.1268   -25984.693   -17143.335    20792.648    16936.857    9161.0109   -1438.0566    77.711381 
    6600    893.81851   -108.06104   0.80874577    -107.2523   -16485.893    4.2786455    4.2786455    4.2786455   -16485.893   -36393.368    -23965.76    10901.449    -6120.041   -9553.0702     4598.966     78.32834 
    6700    898.52825   -108.05828   0.81300724   -107.24528    26222.087    4.2467598    4.2467598    4.2467598    26222.087    21825.622    1706.7057    55133.933    4237.4989   -7121.3419     5993.505     76.59018 
    6800    857.74347   -108.03978   0.77610431   -107.26367   -917.21159    4.2654834    4.2654834    4.2654834   -917.21159   -6428.7319   -9804.0443    13481.141    16598.948    9923.7432     2684.353    77.607694 
    6900    1273.5321   -108.40015    1.1523186   -107.24783   -20807.679    4.2826831    4.2826831    4.2826831   -20807.679   -12798.018   -18420.818   -31204.202    -3182.924    9740.3018   -9478.1969    78.550295 
    7000    923.64141   -108.08046   0.83573016   -107.24472    25783.957    4.2490623    4.2490623    4.2490623    25783.957    14901.266    11913.083    50537.524    2172.2834   -2556.0601   -1513.8037    76.714826 
    7100     867.5237   -108.04405   0.78495367    -107.2591   -4771.1312    4.2601295    4.2601295    4.2601295   -4771.1312   -15364.137   -11454.824    12505.567    10418.441    926.11605    -4781.048    77.315825 
    7200    795.72723   -107.97101   0.71999072   -107.25102   -11771.345    4.2831941    4.2831941    4.2831941   -11771.345   -45202.342   -18691.499    28579.805   -2690.1343   -3902.4517   -4352.5807    78.578416 
    7300    936.09717   -108.09335   0.84700039   -107.24635    1954.6283    4.2545748    4.2545748    4.2545748    1954.6283   -30113.008    12393.784    23583.108    5606.0227    -6941.414     1467.786     77.01379 
    7400    654.18172   -107.84602   0.59191737    -107.2541    13858.342    4.2536553    4.2536553    4.2536553    13858.342    13189.888    4031.3264    24353.812    7001.3749   -2824.0658    10519.249    76.963868 
    7500     1155.318   -108.29544     1.045356   -107.25009   -15327.211    4.2772267    4.2772267    4.2772267   -15327.211   -2689.8641   -35428.904    -7862.865   -10233.641   -4451.1815    10401.251    78.250444 
    7600    1111.6365   -108.25216    1.0058321   -107.24633   -13161.008    4.2710039    4.2710039    4.2710039   -13161.008   -24860.658   -3894.6444   -10727.721    9426.8435    7385.2178    3436.1662     77.90941 
    7700    794.66258   -107.96767    0.7190274   -107.24864    21189.514    4.2523073    4.2523073    4.2523073    21189.514    14486.603    8558.8507    40523.089    9215.5296    1080.0559    7765.6348     76.89072 
    7800     1000.003   -108.16126    0.9048237   -107.25644    1791.7704    4.2603188    4.2603188    4.2603188    1791.7704   -15818.499    7507.9586    13685.851   -2920.8309   -4401.7028   -12542.997    77.326135 
    7900    779.46554    -107.9653    0.7052768   -107.26002   -7981.5196    4.2747338    4.2747338    4.2747338   -7981.5196   -52530.146     162.3251    28423.263    17671.352   -2743.4849    -2111.326    78.113702 
    8000     995.5616   -108.15324   0.90080505   -107.25244   -1138.5572    4.2618363    4.2618363    4.2618363   -1138.5572   -29422.128    29116.439   -3109.9829    278.45148    8822.8981     4782.234    77.408795 
    8100    727.04775   -107.91573   0.65784808   -107.25788    11087.115    4.2522658    4.2522658    4.2522658    11087.115    9068.8906   -2294.9954    26487.451   -2022.5162   -2585.2648   -3638.9027    76.888466 
    8200    937.38147   -108.11147   0.84816245    -107.2633   -9293.9145    4.2680778    4.2680778    4.2680778   -9293.9145   -20262.054   -9852.3197    2232.6302    18191.755   -1848.6402   -795.63016    77.749388 
    8300    999.69831   -108.15925   0.90454804    -107.2547   -20900.067    4.2763713    4.2763713    4.2763713   -20900.067   -27848.537   -31084.158   -3767.5066    -1034.176    9843.0673   -1449.4611    78.203508 
    8400    853.34433   -108.02544   0.77212388   -107.25331    17613.278    4.2446716    4.2446716    4.2446716    17613.278    11431.522    27464.254    13944.058   -4169.5795    -2816.861     6960.567    76.477256 
    8500    1056.9091   -108.22143   0.95631353   -107.26512    11931.011    4.2543414    4.2543414    4.2543414    11931.011   -10567.339    16627.026    29733.345    14320.146   -12045.891   -2233.3304    77.001118 
    8600    1049.7503   -108.20679   0.94983614   -107.25695    -31406.27    4.2821931    4.2821931    4.2821931    -31406.27    -51129.41   -22177.806   -20911.596   -2204.2979   -2690.5352   -538.52714    78.523336 
    8700    663.98768   -107.85782   0.60079001   -107.25703    4485.6994    4.2482298    4.2482298    4.2482298    4485.6994   -10442.294    8305.4389    15593.954   -1110.0742     4170.974    1190.7849    76.669744 
    8800    818.80269   -108.00045   0.74086989   -107.25958    9198.1935    4.2511492    4.2511492    4.2511492    9198.1935    2847.4004   -5705.6608    30452.841    13159.255    -14872.27    3602.3134    76.827914 
    8900    734.84375   -107.91745   0.66490207   -107.25255   -16347.227     4.278406     4.278406     4.278406   -16347.227   -25919.481   -27302.568    4180.3673   -12260.758    3253.2323    3413.3465    78.315187 
    9000     772.9887   -107.94928   0.69941642   -107.24987    4066.9899    4.2541714    4.2541714    4.2541714    4066.9899   -1673.2938   -20434.191    34308.455   -5243.5833    7184.2979   -5972.6046    76.991883 
    9100    1040.0193   -108.19868   0.94103128   -107.25765   -3715.7648    4.2532062    4.2532062    4.2532062   -3715.7648    6530.0875   -7315.8993   -10361.483    6347.8161   -7639.3384   -1053.0233     76.93949 
    9200    1073.3478   -108.23127   0.97118766   -107.26008   -8622.1944    4.2719645    4.2719645    4.2719645   -8622.1944   -29412.029   -3284.0923    6829.5386   -15234.889   -4731.7632   -3773.4875    77.961986 
    9300    1210.2947   -108.35166    1.0951001   -107.25656    -8831.528    4.2606302    4.2606302    4.2606302    -8831.528   -12386.509   -4544.9054   -9563.1693   -492.94671    13217.445    -1818.353    77.343091 
    9400    768.70842   -107.95318   0.69554353   -107.25764    20906.543     4.252171     4.252171     4.252171    20906.543   -10995.786    34267.879    39447.535   -1077.1264   -12776.773   -560.71875    76.883326 
    9500    912.68521   -108.08416   0.82581676   -107.25834     4931.532    4.2668998    4.2668998    4.2668998     4931.532   -11894.397    9642.1405    17046.853   -11287.026   -7111.8407     10226.97    77.685029 
    9600    862.01758    -108.0328   0.77997162   -107.25282   -9966.4877    4.2680301    4.2680301    4.2680301   -9966.4877    -19223.98   -21921.707    11246.224    7877.2277     6688.857    8619.0178    77.746782 
    9700    493.46555   -107.70089     0.446498   -107.25439   -4581.2129    4.2557303    4.2557303    4.2557303   -4581.2129   -14076.484     1232.104   -899.25885   -1431.0929   -20907.455   -4360.3127    77.076555 
    9800    1039.2506   -108.19828   0.94033581   -107.25794   -15717.884    4.2628544    4.2628544    4.2628544   -15717.884   -18968.372   -18715.037   -9470.2414    1026.9227   -8878.6965   -3368.9094    77.464283 
    9900    943.30589   -108.11053     0.853523   -107.25701   -2581.5306    4.2698723    4.2698723    4.2698723   -2581.5306   -20006.274   -16054.338    28316.021    7972.6785    309.74524   -8923.8311    77.847497 
   10000    843.68427   -108.02006   0.76338326   -107.25668    492.17121    4.2588023    4.2588023    4.2588023    492.17121   -19165.915    5588.0003    15054.428    2639.9006   -12156.789   -10344.026    77.243588 
   10100    1089.7267   -108.24246    0.9860076   -107.25645    11638.621    4.2613409    4.2613409    4.2613409    11638.621   -5962.9415    9659.7408    31219.064    260.01616    3517.1206   -1603.4746    77.381802 
   10200    1280.0655   -108.41307    1.1582302   -107.25484   -13243.897    4.2715398    4.2715398    4.2715398   -13243.897   -17700.769   -16685.818    -5345.104    1881.2251    8894.2441    7854.7746    77.938738 
   10300    679.99571   -107.87451   0.61527441   -107.25923   -1558.8615     4.253216     4.253216     4.253216   -1558.8615      20059.6   -14299.437   -10436.748   -2793.7834   -13131.139    -1067.064    76.940024 
   10400     767.9414   -107.95796   0.69484952   -107.26311     314.6492    4.2578508    4.2578508    4.2578508     314.6492     14643.77   -1060.6904   -12639.132   -2126.5444   -10414.419   -395.44381    77.191827 
   10500    784.86384   -107.96493    0.7101613   -107.25477   -9963.9247    4.2770531    4.2770531    4.2770531   -9963.9247   -7613.8051   -37094.758    14816.789    4156.9452    2918.3692    2522.2351    78.240918 
   10600    626.26279   -107.82139   0.56665574   -107.25474    18873.439    4.2500484    4.2500484    4.2500484    18873.439     32874.27    -7749.917    31495.964   -1716.2046   -25165.347   -6726.4465     76.76825 
   10700    768.28116   -107.96114   0.69515694   -107.26599    11415.259    4.2558068    4.2558068    4.2558068    11415.259   -20155.813    7934.5151    46467.073    277.03704   -7998.0622   -5522.7191    77.080711 
   10800     1311.687   -108.44081    1.1868419   -107.25396   -13440.601    4.2768829    4.2768829    4.2768829   -13440.601   -25030.855   -11190.822   -4100.1253     7359.535     2416.478    5294.0636    78.231575 
   10900    1089.4347   -108.23704   0.98574337   -107.25129    12499.922    4.2574069    4.2574069    4.2574069    12499.922    15447.345    4327.4752    17724.945   -6764.9515   -13252.114   -5997.3627    77.167688 
   11000    946.58785   -108.11175   0.85649257   -107.25526   -9366.2102    4.2581052    4.2581052    4.2581052   -9366.2102    -8647.731   -14553.744   -4897.1555   -4615.8996    5432.2204    -1723.406    77.205662 
   11100    773.53706   -107.95717   0.69991259   -107.25726    12037.154    4.2629782    4.2629782    4.2629782    12037.154    44.859175   -17022.056    53088.659    7625.4913    4320.2448    6384.5439    77.471033 
   11200    901.54145   -108.07429   0.81573365   -107.25856    -6313.659     4.264335     4.264335     4.264335    -6313.659    1387.4839   -26932.166    6603.7049   -7266.0946   -14841.335    2333.1297    77.545026 
   11300    633.71919   -107.83613   0.57340244   -107.26273   -9161.4441    4.2604473    4.2604473    4.2604473   -9161.4441    240.11203   -23192.934   -4531.5105    1378.1312   -18973.754    1429.3381    77.333129 
   11400    739.28499   -107.92989    0.6689206   -107.26097    24639.842    4.2531669    4.2531669    4.2531669    24639.842    63102.246   -3487.3777    14304.658        10571   -156.62999    1525.9506    76.937357 
   11500    1079.2768    -108.2368   0.97655233   -107.26025   -14391.398    4.2751041    4.2751041    4.2751041   -14391.398    1283.2574   -15923.474   -28533.977    7571.1677   -2955.5163    8029.3339    78.134005 
   11600    853.12295   -108.02725   0.77192358   -107.25532   -12754.777     4.266965     4.266965     4.266965   -12754.777    5470.1052   -9314.2147   -34420.221    6774.0646   -16354.267    7440.1996    77.688591 
   11700    1209.2198   -108.33948    1.0941275   -107.24535    15374.737    4.2400926    4.2400926    4.2400926    15374.737     2439.311    23175.328    20509.574    765.09939    20618.088     245.1934    76.230017 
   11800    914.17769   -108.09061   0.82716719   -107.26345   -7418.8748    4.2686364    4.2686364    4.2686364   -7418.8748    25257.307   -26843.015   -20670.916    2409.7751    1829.0292   -575.99355    77.779917 
   11900    921.20933   -108.09088   0.83352956   -107.25735   -16388.806    4.2704151    4.2704151    4.2704151   -16388.806    14367.655   -29700.886   -33833.187    3381.4285   -21568.756     803.9073     77.87719 
   12000    831.56035    -107.9958   0.75241328   -107.24339    34189.035    4.2434263    4.2434263    4.2434263    34189.035    63204.657    14553.794    24808.655   -4739.2731    7741.5693    3021.2961    76.409965 
   12100    806.90958   -107.98703   0.73010874   -107.25692   -11080.085    4.2647743    4.2647743    4.2647743   -11080.085   -25375.449   -8930.8321    1066.0265    -3429.244    3832.8193    -5323.013    77.568995 
   12200    797.89191   -107.97612   0.72194937   -107.25417   -9263.0949    4.2672648    4.2672648    4.2672648   -9263.0949   -32896.684   -1288.7614    6396.1606   -7582.6674   -18390.546     3639.541    77.704967 
   12300     913.4397   -108.07625   0.82649944   -107.24975    -642.1686    4.2549126    4.2549126    4.2549126    -642.1686   -21554.131    13120.686    6506.9392    92.939419    21311.697    6544.1754    77.032135 
   12400    724.62522    -107.9122   0.65565613   -107.25654    -4274.661    4.2574731    4.2574731    4.2574731    -4274.661    9832.4909    6655.5218   -29311.996    496.66169    24024.815   -4555.7645    77.171288 
   12500    964.02832   -108.12914   0.87227308   -107.25687    1176.4486    4.2561492    4.2561492    4.2561492    1176.4486      20197.1   -12381.002   -4286.7525   -3129.2023   -20017.413    783.21047    77.099318 
   12600    1000.1194   -108.16261   0.90492905   -107.25768    -16941.15    4.2671119    4.2671119    4.2671119    -16941.15    8731.3944   -22841.523    -36713.32    6078.7086    13641.518   -4018.9918    77.696616 
   12700    978.92068   -108.14172     0.885748   -107.25597   -22721.788    4.2611791    4.2611791    4.2611791   -22721.788   -5291.4422   -27729.857   -35144.065   -610.71306    13431.226   -1176.1614    77.372988 
   12800    1033.6169   -108.18995    0.9352383   -107.25472    10058.865    4.2426787    4.2426787    4.2426787    10058.865    15620.442    12958.556    1597.5965    941.56965   -27079.807    701.86785    76.369585 
   12900     654.6302    -107.8611   0.59232316   -107.26878   -1195.1734     4.264057     4.264057     4.264057   -1195.1734    20391.495   -9881.4676   -14095.548   -826.44321    28087.316   -5249.4557    77.529859 
   13000    575.36341   -107.78636   0.52060091   -107.26576   -19098.842    4.2703347    4.2703347    4.2703347   -19098.842   -15547.877   -17316.143   -24432.507   -4516.2008     29047.67     2531.648     77.87279 
   13100    1043.3032   -108.19183   0.94400262   -107.24783    26070.585    4.2388369    4.2388369    4.2388369    26070.585    27784.218    14452.762    35974.774   -3753.9389   -8771.9942    7360.3858    76.162312 
   13200    841.62989   -108.02775   0.76152441   -107.26623   -18603.758    4.2688665    4.2688665    4.2688665   -18603.758   -22194.502   -12253.927   -21362.844    511.82863     14530.19    4784.9786    77.792499 
   13300    907.42756   -108.07838   0.82105952   -107.25732   -29028.706    4.2722287    4.2722287    4.2722287   -29028.706   -13740.374   -38695.996   -34649.746    807.44805    16497.451    942.28793    77.976454 
   13400     1205.931   -108.32971    1.0911517   -107.23855    31550.621    4.2365493    4.2365493    4.2365493    31550.621     79666.54   -8070.2993    23055.621   -5288.2655   -19813.577    2694.6553    76.039072 
   13500    678.81995   -107.87471   0.61421055    -107.2605   -23175.558    4.2697314    4.2697314    4.2697314   -23175.558   -1414.7524   -27477.759   -40634.162    2666.1256    28636.581    3299.1278    77.839793 
   13600    770.91736   -107.95373   0.69754222   -107.25619   -26214.256    4.2639186    4.2639186    4.2639186   -26214.256   -9209.8505   -24673.542   -44759.376    3513.8397    28538.017    5407.5889    77.522313 
   13700    1201.2282   -108.32799    1.0868965   -107.24109    25235.969    4.2361225    4.2361225    4.2361225    25235.969    23222.913    15334.153    37150.842    10194.275   -8033.3374   -3315.3708    76.016092 
   13800    764.61913   -107.95099   0.69184346   -107.25915   -25119.022    4.2684116    4.2684116    4.2684116   -25119.022   -41836.045    131.13425   -33652.155   -748.12244    27827.733   -138.91978    77.767634 
   13900    850.39525   -108.02852   0.76945549   -107.25907   -6844.5431    4.2585091    4.2585091    4.2585091   -6844.5431    3008.6731   -7252.6512   -16289.651    2463.7147    11432.802    7365.1178    77.227637 
   14000     1213.207   -108.34964    1.0977352   -107.25191    18457.499    4.2503751    4.2503751    4.2503751    18457.499    29265.543   -1754.5986    27861.553    1806.2927   -8638.4395   -5722.8117    76.785952 
   14100    866.84267   -108.04221   0.78433746   -107.25787   -5870.8343    4.2651122    4.2651122    4.2651122   -5870.8343    28562.268   -18873.752   -27301.019   -8040.5613    13841.442   -5457.5136    77.587432 
   14200     802.3943   -107.98228   0.72602323   -107.25625   -7489.3101    4.2609758    4.2609758    4.2609758   -7489.3101    18766.448   -26734.395   -14499.983    1024.7673    15377.601   -2343.3727    77.361916 
   14300    1065.9172   -108.21672   0.96446426   -107.25226   -3341.4593    4.2588699    4.2588699    4.2588699   -3341.4593   -1825.1611   -18200.533    10001.316   -275.93424   -5047.6024   -259.59132    77.247267 
   14400    992.44527   -108.15185   0.89798534   -107.25387    162.59704    4.2508944    4.2508944    4.2508944    162.59704    21675.329   -4353.4735   -16834.064     -3840.75    21929.172   -1668.4317      76.8141 
   14500    711.29797   -107.90967   0.64359735   -107.26607    -6044.664    4.2604049    4.2604049    4.2604049    -6044.664   -8972.8978   -1321.9303   -7839.1639     3694.327    11403.131   -2090.5749    77.330822 
   14600    943.94752   -108.11283   0.85410355   -107.25872    8279.5456     4.263108     4.263108     4.263108    8279.5456    14027.156    1897.3801     8914.101    8140.6945   -19249.933    6315.9098    77.478106 
   14700    1119.5641    -108.2658    1.0130051    -107.2528    9870.4004    4.2517262    4.2517262    4.2517262    9870.4004    32434.273    3711.0611   -6534.1328    5481.7087    13702.343    2327.8414    76.859199 
   14800     574.9811   -107.78306   0.52025498   -107.26281   -5959.4608    4.2556476    4.2556476    4.2556476   -5959.4608   -7084.6274   -14313.002    3519.2472    6740.6204    5728.6461    5512.6953    77.072063 
   14900    872.35593   -108.05067   0.78932598   -107.26134    1230.9686    4.2565026    4.2565026    4.2565026    1230.9686    8343.7185   -15434.697    10783.884    12410.954   -8339.6311   -1151.8541    77.118526 
   15000    936.07678   -108.10595   0.84698194   -107.25897    2039.4864    4.2634967    4.2634967    4.2634967    2039.4864    27081.653   -26953.138    5989.9445   -2932.6897    10371.983    3535.3267    77.499303 
   15100    801.19718   -107.98727   0.72494005   -107.26233    3206.5654    4.2486828    4.2486828    4.2486828    3206.5654    10842.157   -12378.881     11156.42    2381.0474    19527.057    2673.3758    76.694273 
   15200    790.02303   -107.98215   0.71482944   -107.26732    19057.429    4.2501398    4.2501398    4.2501398    19057.429    61902.735    189.02599    -4919.473    13737.896   -9958.4508   -2915.6229    76.773201 
   15300    1423.8103     -108.545    1.2882934   -107.25671   -16679.753    4.2692379    4.2692379    4.2692379   -16679.753   -11060.049   -8871.7062   -30107.503   -4066.6583   -13004.925   -2788.5354    77.812806 
   15400    992.71947    -108.1537   0.89823344   -107.25546     9725.399    4.2526645    4.2526645    4.2526645     9725.399    30444.689   -125.69093   -1142.8011    7800.1044    11211.465   -1055.8225      76.9101 
   15500    809.64337   -107.99234   0.73258233   -107.25976   -6717.0869    4.2563808    4.2563808    4.2563808   -6717.0869    16203.218   -20280.332   -16074.147    16753.848   -12754.376    2686.9686    77.111907 
   15600    720.07043   -107.90961   0.65153486   -107.25808     5307.616    4.2630069    4.2630069    4.2630069     5307.616    48559.756   -34519.801    1882.8924   -2034.4799   -6923.4319   -2464.5364    77.472597 
   15700    651.06899   -107.84732    0.5891009   -107.25822      11227.1     4.260362     4.260362     4.260362      11227.1    39916.931   -30745.194    24509.563     14939.59    19916.826   -2277.1924    77.328487 
   15800    775.35933   -107.95804   0.70156142   -107.25648   -2856.1613    4.2622406    4.2622406    4.2622406   -2856.1613    5708.9381   -24117.515    9840.0934    13924.991    5360.4696   -291.23765    77.430822 
   15900    1158.7593   -108.29886    1.0484698   -107.25039    16217.047    4.2484231    4.2484231    4.2484231    16217.047    82.320096    14672.316    33896.507   -1021.3138   -12719.964   -4188.0142    76.680209 
   16000    1020.5508   -108.18561    0.9234158    -107.2622   -4268.6764    4.2618105    4.2618105    4.2618105   -4268.6764   -3663.2464   -9248.8689    106.08627    7121.9271   -397.58878   -7336.0656    77.407384 
   16100     972.5057   -108.14128   0.87994359   -107.26134   -3725.4632    4.2592279    4.2592279    4.2592279   -3725.4632   -174.83051   -8001.2155   -3000.3437    8082.7643    2677.8302   -6605.9338    77.266748 
   16200    654.77622   -107.85074   0.59245528   -107.25829    33300.416     4.248273     4.248273     4.248273    33300.416    79891.657    5111.3121    14898.279   -8962.6553   -22193.979     517.3527     76.67208 
   16300    740.22211   -107.92837   0.66976852    -107.2586    -13000.06    4.2685927    4.2685927    4.2685927    -13000.06    13924.376   -39176.884   -13747.671    -2585.035    1235.6727    2339.5298     77.77753 
   16400    859.16076   -108.03031   0.77738671   -107.25293    4610.3366    4.2538952    4.2538952    4.2538952    4610.3366    38341.532   -23674.547    -835.9754    6161.6789    7472.5637    -3319.326    76.976888 
   16500    988.70624   -108.15235   0.89460218   -107.25775     7386.689     4.245215     4.245215     4.245215     7386.689   -7627.9975    20636.342    9151.7228   -1028.4023   -15524.755    1031.4622    76.506631 
   16600    1047.3004   -108.21106   0.94761938   -107.26344      -9050.5    4.2687742    4.2687742    4.2687742      -9050.5    8107.9238   -15756.311   -19503.113   -5729.2156   -2836.5788   -95.975925    77.787453 
   16700     1026.588   -108.18388   0.92887843     -107.255   -724.68199    4.2698531    4.2698531    4.2698531   -724.68199      30759.7   -7090.8263   -25842.919    12777.774    7222.6689    2007.1632    77.846447 
   16800    791.84063   -107.96872   0.71647404   -107.25224    23169.727    4.2435867    4.2435867    4.2435867    23169.727    38764.861    23451.776    7292.5446    7684.0163   -26651.281    1886.9375    76.418627 
   16900    797.67861   -107.98164   0.72175637   -107.25989    1628.1724     4.253424     4.253424     4.253424    1628.1724    18051.628   -2600.1329   -10566.978    -5933.385   -10370.532    286.44997     76.95131 
   17000    781.84672   -107.96493   0.70743135    -107.2575   -24710.206    4.2775606    4.2775606    4.2775606   -24710.206    -12404.36   -43489.195   -18237.062    11039.475    2849.0426    4911.5487    78.268773 
   17100    844.83091   -108.02217   0.76442076   -107.25774    122.64438    4.2471757    4.2471757    4.2471757    122.64438   -2033.8583   -2542.1622    4943.9536   -1355.7268   -23820.478   -2370.0439    76.612685 
   17200    634.23201   -107.83485   0.57386645   -107.26098    32618.712    4.2395372    4.2395372    4.2395372    32618.712    62921.189    13017.902    21917.047   -11922.865   -4325.9117     3560.951    76.200064 
   17300    1127.4566   -108.28154    1.0201464   -107.26139   -14222.085    4.2725716    4.2725716    4.2725716   -14222.085    16536.988   -40786.551    -18416.69     2952.657    9179.1078    315.92178    77.995232 
   17400    1093.8808   -108.24718    0.9897663   -107.25741    5144.0497    4.2579828    4.2579828    4.2579828    5144.0497    26185.536    1227.6707   -11981.057    1242.5844   -19163.328    2774.5961    77.199004 
   17500    999.33074   -108.16371   0.90421545   -107.25949   -214.04213    4.2413082    4.2413082    4.2413082   -214.04213   -11112.149    12833.387   -2363.3637   -2186.4546   -21276.038    5644.5817    76.295603 
   17600    1048.8345   -108.21461   0.94900746    -107.2656   -16337.129     4.261002     4.261002     4.261002   -16337.129   -7011.0694   -21400.589   -20599.729   -1451.9639    16120.761   -7102.9475    77.363343 
   17700    793.75517   -107.97594   0.71820636   -107.25773   -18012.973    4.2711047    4.2711047    4.2711047   -18012.973   -8903.1307   -32110.117   -13025.671    3798.8528   -9281.8124   -2879.5701    77.914923 
   17800    560.52896   -107.76375   0.50717838   -107.25657    12424.833    4.2441469    4.2441469    4.2441469    12424.833    45543.758   -3421.8197   -4847.4401   -19.757335   -14608.968    9380.7733    76.448899 
   17900    638.86497   -107.84222   0.57805845   -107.26416    16220.723     4.249861     4.249861     4.249861    16220.723    65405.637   -15836.218   -907.24902   -975.66588    17845.904   -6069.6998    76.758092 
   18000     941.6195   -108.10605   0.85199711   -107.25405   -21211.062    4.2790515    4.2790515    4.2790515   -21211.062   -463.44358   -35510.619   -27659.123    1151.4728   -2913.5173   -1643.7436    78.350636 
   18100    1076.0205   -108.22438   0.97360598   -107.25077    -562.5425    4.2507148    4.2507148    4.2507148    -562.5425    9928.2296    1206.0696   -12821.927    1713.0059   -15162.536    7651.2745    76.804364 
   18200    1175.7161    -108.3138    1.0638127   -107.24998    11908.376    4.2412501    4.2412501    4.2412501    11908.376    13615.851     9151.189    12958.088   -6087.7978    8304.6343   -4226.0334    76.292466 
   18300    1058.6217   -108.21191   0.95786315   -107.25405   -16264.467    4.2691691    4.2691691    4.2691691   -16264.467   -24761.329   -10038.788   -13993.284    -1673.216    2784.7881   -6892.1219    77.809045 
   18400    794.14286   -107.97036   0.71855714    -107.2518   -643.17718    4.2605787    4.2605787    4.2605787   -643.17718    7733.6655   -3903.5747   -5759.6223   -5463.0179   -16255.104    8131.8049    77.340289 
   18500    697.65552    -107.8816   0.63125337   -107.25035    7125.3458    4.2515629    4.2515629    4.2515629    7125.3458    35353.679   -8482.7148    -5494.927   -3112.1693    18056.241    2359.7811    76.850343 
   18600    867.55204   -108.03838   0.78497932    -107.2534    5850.1917    4.2499372    4.2499372    4.2499372    5850.1917    33183.652   -7503.0078   -8130.0694    -1008.772     12425.29   -5533.8037     76.76222 
   18700    972.83283   -108.14255   0.88023959   -107.26231    3198.8721    4.2599242    4.2599242    4.2599242    3198.8721    15722.067   -24832.841     18707.39    4927.2208   -23804.753    8427.6188    77.304647 
   18800    1057.5504   -108.21935   0.95689386   -107.26246   -25881.393    4.2652439    4.2652439    4.2652439   -25881.393   -27465.468   -21343.926   -28834.785    2207.5979    18737.222    6552.7079    77.594619 
   18900    1153.3849   -108.29553    1.0436069   -107.25193    22898.851    4.2329615    4.2329615    4.2329615    22898.851    2206.2447    26090.502    40399.807    4223.1661    18886.675   -970.59434    75.846049 
   19000    892.13992   -108.07522   0.80722695   -107.26799   -3693.7693    4.2620569    4.2620569    4.2620569   -3693.7693     6787.734   -20277.019    2407.9775    4816.9725   -14186.623    6345.1902    77.420815 
   19100    725.39203   -107.91532   0.65634995   -107.25897   -17932.922    4.2678986    4.2678986    4.2678986   -17932.922    42.979917   -11808.217    -42033.53    8785.6613    4998.8645    3194.9418    77.739594 
   19200    729.41731   -107.90252   0.65999211   -107.24253    36730.445    4.2332636    4.2332636    4.2332636    36730.445    47096.307    31440.005    31655.023    2407.8555     21059.53   -5235.5704     75.86229 
   19300    931.35194   -108.10109   0.84270681   -107.25838   -12504.707    4.2641509    4.2641509    4.2641509   -12504.707    3576.5821   -32630.376   -8460.3269     -3740.92   -15577.626     15912.63    77.534984 
   19400    1061.3936   -108.20959   0.96037125   -107.24922   -13776.594    4.2665201    4.2665201    4.2665201   -13776.594    14614.287   -16888.781   -39055.288   -4602.9512    3232.9759    5742.1965    77.664294 
   19500    1272.1874   -108.39177    1.1511019   -107.24067    20176.212    4.2387376    4.2387376    4.2387376    20176.212    28187.413    12645.338    19695.886   -7511.5097    29893.804   -3898.6975     76.15696 
   19600    970.84675   -108.13529   0.87844254   -107.25684   -1130.9223    4.2577262    4.2577262    4.2577262   -1130.9223     49523.42   -32440.104   -20476.083   -1779.5603   -11213.919    20218.552    77.185048 
   19700    806.35095   -107.98511   0.72960328    -107.2555   -6867.6394    4.2645187    4.2645187    4.2645187   -6867.6394    26937.287   -13820.523   -33719.683    419.15442     -3249.65    4882.1747    77.555048 
   19800    822.47028   -107.99684    0.7441884   -107.25266    7725.1712    4.2449423    4.2449423    4.2449423    7725.1712    10305.388    17203.464   -4333.3383     526.4401    16610.997   -3938.8861    76.491884 
   19900    773.56005   -107.95977   0.69993339   -107.25984   -4799.2033    4.2488944    4.2488944    4.2488944   -4799.2033    16997.073   -13646.059   -17748.624   -4659.3783   -7503.4106    18997.869    76.705728 
   20000     773.4269   -107.96204   0.69981292   -107.26223   -21798.125    4.2618226    4.2618226    4.2618226   -21798.125   -29920.721   -6525.0626   -28948.592    8195.3076   -13726.708   -31.035544    77.408043 
   20100    843.37763    -108.0213    0.7631058   -107.25819   -5261.1904    4.2523332    4.2523332    4.2523332   -5261.1904    13069.385   -2061.5563     -26791.4    3220.9641    18834.251    1280.4971    76.892125 
   20200    790.06521   -107.97498   0.71486761   -107.26012   -1079.7282    4.2526826    4.2526826    4.2526826   -1079.7282    67871.132    -33226.89   -37883.427    1399.7233   -10168.175    16462.118     76.91108 
   20300    1112.1992   -108.26634    1.0063412      -107.26   -9681.6653    4.2557705    4.2557705    4.2557705   -9681.6653    15403.354   -18652.174   -25796.176    -2396.853   -10100.686   -4542.3148    77.078738 
   20400    1150.0991   -108.30114    1.0406338    -107.2605   -1873.1357     4.257027     4.257027     4.257027   -1873.1357    29601.754    -12955.77   -22265.392   -5627.7042    18494.274    5918.4246    77.147032 
   20500    946.72016   -108.11858   0.85661229   -107.26197   -14372.331    4.2591852    4.2591852    4.2591852   -14372.331    19367.543   -19932.384   -42552.152   -3966.2936   -3061.8947    10919.408    77.264422 
   20600    850.44606   -108.02697   0.76950146   -107.25747    19605.043     4.238208     4.238208     4.238208    19605.043    36359.773    22556.025    -100.6705   -5771.7621   -27631.866   -6016.6009    76.128416 
   20700    846.28573   -108.03627   0.76573711   -107.27053   -5194.2474    4.2592793    4.2592793    4.2592793   -5194.2474    24705.358   -12787.123   -27500.977    5132.1446    5758.2057    8481.4839    77.269546 
   20800    813.72487   -108.00069   0.73627536   -107.26441   -22856.993    4.2636374    4.2636374    4.2636374   -22856.993   -12760.997    -17209.18     -38600.8    5003.6332    5685.5151    11166.607    77.506974 
   20900     923.6743   -108.08975   0.83575992   -107.25399    13172.144    4.2384327    4.2384327    4.2384327    13172.144    5795.4791    23100.539    10620.413     4685.428   -32438.524   -4088.5584    76.140527 
   21000    901.92289   -108.07697   0.81607879    -107.2609   -13086.725    4.2658086    4.2658086    4.2658086   -13086.725    13902.349   -27198.644   -25963.881    8647.5935    12757.667    7791.8887    77.625444 
   21100    766.47635    -107.9506   0.69352391   -107.25707   -1012.8914    4.2608577    4.2608577    4.2608577   -1012.8914     55615.32     -26677.6   -31976.395    6524.4843    11484.515    9166.4586    77.355481 
   21200    915.88502   -108.08084   0.82871201   -107.25212    10594.059    4.2466003    4.2466003    4.2466003    10594.059    29642.621   -2102.8823    4242.4383   -7192.5803   -26563.253    -5095.832    76.581553 
   21300    1099.2866   -108.24918    0.9946576   -107.25452   -18260.697     4.259273     4.259273     4.259273   -18260.697   -2131.6362   -24059.257   -28591.198   -5285.3895    4304.9408     6662.981    77.269201 
   21400    1034.5976   -108.19576   0.93612562   -107.25963   -2390.2266    4.2510819    4.2510819    4.2510819   -2390.2266    8506.7788   -4299.2236   -11378.235    4966.5318    6514.0858    9082.0273    76.824263 
   21500    949.75926   -108.12269   0.85936214   -107.26333   -2174.0211    4.2536965    4.2536965    4.2536965   -2174.0211   -1248.0913    5296.7278     -10570.7   -8531.7639   -25642.059   -3792.6408    76.966103 
   21600     963.1597   -108.13156   0.87148713   -107.26007   -671.26686    4.2560554    4.2560554    4.2560554   -671.26686    33981.678   -12024.637   -23970.842   -7584.1955    1825.6114    5495.3957    77.094219 
   21700    863.50445   -108.04188   0.78131697   -107.26057   -1107.1605    4.2540477    4.2540477    4.2540477   -1107.1605    16260.702   -5206.3491   -14375.834     10909.06    14661.333    11122.754    76.985171 
   21800    1014.6618    -108.1773   0.91808736   -107.25921    -8823.761    4.2576453    4.2576453    4.2576453    -8823.761    348.75633   -12042.598   -14777.442    6967.5418   -12800.715   -2878.5008    77.180651 
   21900    853.48956    -108.0293   0.77225529   -107.25704    -11402.94     4.261648     4.261648     4.261648    -11402.94    32436.342   -46640.512    -20004.65    276.67545    3113.5439    5379.4602    77.398533 
   22000     721.8069   -107.91126   0.65310605   -107.25815   -2807.6486    4.2528412    4.2528412    4.2528412   -2807.6486    35136.357   -22611.085   -20948.218    6664.4669    21969.915    9854.3347    76.919688 
   22100    883.12909   -108.05907   0.79907376   -107.25999    9310.8613      4.25019      4.25019      4.25019    9310.8613     46296.11   -7191.8164    -11171.71   -6658.9152   -12117.445   -3524.9704    76.775921 
   22200    988.01714   -108.15554   0.89397867   -107.26156   -25473.894    4.2662663    4.2662663    4.2662663   -25473.894    1887.1569   -33812.146   -44496.694   -13103.201     -4616.68    5247.0757    77.650432 
   22300    1092.5802   -108.24682   0.98858948   -107.25823   -5231.6127    4.2483861    4.2483861    4.2483861   -5231.6127    -6944.974    16273.319   -25023.183    2408.9529    26174.129    12166.139    76.678206 
   22400    1281.1144   -108.41808    1.1591792   -107.25891     9324.475    4.2475129    4.2475129    4.2475129     9324.475    15027.125    28424.113   -15477.813    911.71908   -7415.7466   -2384.8204    76.630936 
   22500    1149.9284   -108.30567    1.0404794   -107.26519   -12879.496    4.2575316    4.2575316    4.2575316   -12879.496    3287.2057   -11815.132   -30110.562   -7554.6221   -4666.0116   -5688.2339    77.174469 
   22600    431.89494    -107.6613   0.39078762   -107.27052    26582.889     4.248749     4.248749     4.248749    26582.889    68931.512    28419.379   -17602.225   -466.29948    34023.275    6411.4399    76.697858 
   22700    1007.7982     -108.175   0.91187698   -107.26312   -9281.0263    4.2630586    4.2630586    4.2630586   -9281.0263     12725.06   -17601.699    -22966.44    12913.027    5200.3585   -4550.7552    77.475413 
   22800    800.73589   -107.98644   0.72452266   -107.26192    17061.813    4.2440689    4.2440689    4.2440689    17061.813    44197.576    3214.8579    3773.0047    613.45022   -481.53493   -6596.5264    76.444684 
   22900    488.50858   -107.71539   0.44201283   -107.27338     -5642.01    4.2479226    4.2479226    4.2479226     -5642.01   -5977.9356    10214.372   -21162.467   -4034.4363    36463.409    6020.0375    76.653109 
   23000    850.91017   -108.03314   0.76992141   -107.26322   -7000.5125      4.26771      4.26771      4.26771   -7000.5125    8670.6923   -15166.868   -14505.361   -6250.8676    297.19401   -327.45544    77.729291 
   23100    1118.2656   -108.26634    1.0118303   -107.25451    6813.5319    4.2507858    4.2507858    4.2507858    6813.5319    16549.151    11993.204   -8101.7591   -9728.2233   -1845.9838   -3326.6422    76.808215 
   23200    629.18112   -107.83303    0.5692963   -107.26373   -14447.365    4.2518171    4.2518171    4.2518171   -14447.365   -22189.363    16720.378   -37873.109   -9880.5089      38850.1    9880.0685     76.86413 
   23300    1115.4363   -108.26716    1.0092702   -107.25789    3282.3567    4.2506497    4.2506497    4.2506497    3282.3567    13786.428     11956.27   -15895.628    287.60212    4161.6863    791.06297    76.800834 
   23400    1247.6081   -108.38964     1.128862   -107.26078   -2221.2744    4.2591538    4.2591538    4.2591538   -2221.2744    19872.634    -4796.099   -21740.358    15022.643   -607.95036   -5357.3273    77.262713 
   23500    759.42902   -107.95378   0.68714734   -107.26663   -16440.003    4.2580248    4.2580248    4.2580248   -16440.003   -7264.6716   -2308.4529   -39746.885   -4179.7727      41154.7     8792.664    77.201293 
   23600    949.06425   -108.11451   0.85873328   -107.25578    29598.239    4.2355144    4.2355144    4.2355144    29598.239    69328.627    2052.0451    17414.044    3795.1955   -12716.322    4070.9156     75.98336 
   23700    903.57691   -108.08109   0.81757537   -107.26352   -20171.782    4.2687445    4.2687445    4.2687445   -20171.782   -15480.194   -29144.613   -15890.538     1946.593   -10226.231    854.99864    77.785828 
   23800    660.88876   -107.85843   0.59798604   -107.26044   -15243.348     4.258491     4.258491     4.258491   -15243.348   -19754.827   -10426.547   -15548.669   -1188.4318    32212.973    7049.2059     77.22665 
   23900    838.85002   -108.00575   0.75900912   -107.24674    36797.137    4.2301174    4.2301174    4.2301174    36797.137    57185.526    28275.455     24930.43   -7074.7533    -719.2939    5603.2883    75.693267 
   24000    607.53775   -107.81019   0.54971292   -107.26048   -18138.774    4.2676105    4.2676105    4.2676105   -18138.774   -26111.035   -17449.319   -10855.967    -6121.298   -8747.3583    2083.3886    77.723853 
   24100    795.85222   -107.97317   0.72010381   -107.25306   -9024.9347    4.2636129    4.2636129    4.2636129   -9024.9347   -14130.557    5471.4851   -18415.732   -2706.8178     28417.68    3987.1405    77.505637 
   24200    1072.9287    -108.2179   0.97080842   -107.24709    16671.054    4.2392298    4.2392298    4.2392298    16671.054    27639.085    12648.637    9725.4411   -8381.6892    2909.9825    2460.3739    76.183494 
   24300    913.65952   -108.08541   0.82669833   -107.25872   -5546.5742    4.2484481    4.2484481    4.2484481   -5546.5742   -19973.009    2050.0225    1283.2636    2205.7996   -20623.417    586.90254    76.681562 
   24400    1087.4849    -108.2406   0.98397916   -107.25663   -8928.9619    4.2676155    4.2676155    4.2676155   -8928.9619    11328.229   -6047.2073   -32067.908    13745.519    18379.167    3152.7504    77.724128 
   24500    1028.2159   -108.18805   0.93035132    -107.2577   -3199.1409    4.2528403    4.2528403    4.2528403   -3199.1409   -2839.2457   -11263.946    4505.7689   -5149.6767   -7558.5576    2704.8012    76.919639 
   24600    467.32758   -107.67881   0.42284781   -107.25596    16914.668    4.2341336    4.2341336    4.2341336    16914.668    20932.157    7516.8667    22294.982    8763.2014   -11028.636   -2439.3867    75.909071 
   24700    921.56136   -108.09196   0.83384809   -107.25812   -7301.1191    4.2654016    4.2654016    4.2654016   -7301.1191   -86.065754   -8259.0726   -13558.219    12245.941    12678.832    3563.4997    77.603229 
   24800    873.12303   -108.04269   0.79002006   -107.25267    3312.3046    4.2591375    4.2591375    4.2591375    3312.3046    6319.1438   -5203.0694    8820.8392   -8850.9974   -10500.423   -258.58218    77.261827 
   24900    655.20072   -107.84547   0.59283938   -107.25264   -6096.7598    4.2437853    4.2437853    4.2437853   -6096.7598   -8433.4578   -15382.191    5525.3688    12621.199   -9957.5894     1355.427     76.42936 
   25000    1329.5173   -108.45497    1.2029752     -107.252    1795.4373    4.2552497    4.2552497    4.2552497    1795.4373    6858.3299    7806.6733   -9278.6915    2467.9839    613.97438    1638.4082    77.050446 
   25100    1084.7546   -108.23594   0.98150873   -107.25443    18190.206    4.2551886    4.2551886    4.2551886    18190.206    47526.206   -9165.9893    16210.401   -8331.7748   -3809.8842   -6017.5003    77.047127 
   25200    625.85118    -107.8281    0.5662833   -107.26182   -16071.409    4.2609882    4.2609882    4.2609882   -16071.409   -18633.625   -33050.598    3469.9944    13440.098   -15317.134   -1877.1392     77.36259 
   25300    1081.3565    -108.2304   0.97843406   -107.25196    15992.121    4.2442846    4.2442846    4.2442846    15992.121    23273.327    -1039.343    25742.378   -1019.4671    -6447.776   -3315.4136    76.456339 
   25400     798.2047   -107.98299   0.72223238   -107.26076    1843.0768    4.2507733    4.2507733    4.2507733    1843.0768   -16355.775   -8705.6158    30590.622   -290.11209    3494.6788   -5832.0325    76.807535 
   25500    449.23338   -107.66596    0.4064758   -107.25948   -42118.254     4.271401     4.271401     4.271401   -42118.254   -75741.958   -49536.842   -1075.9622    12452.581   -22688.419    -5023.843     77.93114 
   25600    1128.4939   -108.27011     1.021085   -107.24902    24628.896    4.2349653    4.2349653    4.2349653    24628.896    20190.988     18024.33     35671.37     1994.228    11183.869   -4901.1982    75.953812 
   25700    829.33457   -108.01321   0.75039935   -107.26281    12798.033    4.2465078    4.2465078    4.2465078    12798.033    19803.257    10993.626    7597.2162    6180.9606    12285.645     5203.674    76.576546 
   25800    862.51218   -108.03676   0.78041915   -107.25634   -23077.135     4.269521     4.269521     4.269521   -23077.135   -5044.7275   -35128.914   -29057.765    8022.7955   -16101.891   -2407.7744    77.828285 
   25900    1211.2028   -108.34227    1.0959217   -107.24635    24542.649    4.2422027    4.2422027    4.2422027    24542.649    55350.654    10214.961    8062.3324    1810.5694     6927.452    3135.3779    76.343885 
   26000    1067.5485   -108.22239   0.96594034   -107.25645   -8307.0934     4.252273     4.252273     4.252273   -8307.0934   -9160.7082    1744.7971   -17505.369    5678.0193    10148.749   -1593.0994    76.888858 
   26100    974.62167   -108.13432   0.88185817   -107.25246    -16016.82    4.2649571    4.2649571    4.2649571    -16016.82   -11245.648   -26013.216   -10791.596    5648.9115   -15702.248   -71.971341    77.578969 
   26200    1018.7113   -108.17164   0.92175142   -107.24989    5461.3789    4.2464623    4.2464623    4.2464623    5461.3789    14802.937   -2738.9867    4320.1864    2073.0968    6368.0552    9785.3191    76.574085 
   26300    537.21528   -107.74517   0.48608368   -107.25909    1683.2782    4.2503562    4.2503562    4.2503562    1683.2782   -4465.2092    17026.626   -7511.5823   -4488.1336    26874.099    2323.3294    76.784928 
   26400    819.29583   -107.99403   0.74131608   -107.25272   -3596.0972    4.2581536    4.2581536    4.2581536   -3596.0972    7178.9635   -20934.904    2967.6491    4949.0025   -6557.2295   -1060.4609    77.208299 
   26500    916.18365   -108.08149   0.82898222   -107.25251   -14616.404    4.2550837    4.2550837    4.2550837   -14616.404   -20026.406   -14526.383   -9296.4239    2649.8239     14801.24    2980.3942    77.041426 
   26600    648.14316   -107.84498   0.58645355   -107.25852   -3494.5483     4.249737     4.249737     4.249737   -3494.5483   -2056.3791    13399.247   -21826.513   -8869.7462    37763.999    7290.2038    76.751375 
   26700    1164.8722   -108.30963    1.0540009   -107.25563    7720.6133    4.2490864    4.2490864    4.2490864    7720.6133   -5381.0747     2480.644    26062.271    20220.794   -16327.362   -1142.3125    76.716129 
   26800    997.05462   -108.16237   0.90215597   -107.26022   -16984.749    4.2577293    4.2577293    4.2577293   -16984.749   -20654.456   -6254.1634   -24045.627    7562.3721    16257.116    2793.3673    77.185219 
   26900    783.57903    -107.9703   0.70899877    -107.2613     -11040.4    4.2499103    4.2499103    4.2499103     -11040.4   -11936.554    16887.215   -38071.861   -7257.5943    32489.682    7216.7079    76.760766 
   27000    1241.2562   -108.37613    1.1231147   -107.25301    2040.9485    4.2467037    4.2467037    4.2467037    2040.9485    699.84354   -5791.9587    11214.961    17068.045   -7984.9529   -2998.4296    76.587145 
   27100    785.13191   -107.96825   0.71040385   -107.25785   -18301.776    4.2607778    4.2607778    4.2607778   -18301.776   -27546.396   -4151.2863   -23207.645    6693.1277     22723.37    8295.5986    77.351131 
   27200    615.28804   -107.81347   0.55672555   -107.25674   -11059.427    4.2529104    4.2529104    4.2529104   -11059.427   -4292.7455   -8888.1399   -19997.395    1098.5125      21771.3    4653.1694     76.92344 
   27300    807.96875   -107.98387   0.73106711    -107.2528    14414.376    4.2451903    4.2451903    4.2451903    14414.376    3826.7096   -12996.912    52413.331    13189.943    -3880.642   -12040.103    76.505295 
   27400    694.19875   -107.88664   0.62812562   -107.25851   -8628.7541    4.2564985    4.2564985    4.2564985   -8628.7541   -23746.284    2474.1886   -4614.1671    2026.9205    20794.051    3105.8692    77.118301 
   27500    772.70682   -107.95529   0.69916137   -107.25613   -13909.702    4.2588532    4.2588532    4.2588532   -13909.702   -8504.2265    -13603.95   -19620.929    1333.3221    16039.469     852.2711    77.246357 
   27600    1102.1447   -108.24845   0.99724371    -107.2512    3922.7395    4.2515957    4.2515957    4.2515957    3922.7395    136.07724   -7986.3592      19618.5    16624.172   -8378.5452   -4664.6934    76.852126 
   27700    1150.0594   -108.29403     1.040598   -107.25343   -5512.1537    4.2469625    4.2469625    4.2469625   -5512.1537   -22734.232    23374.304   -17176.533    1726.4126    24111.197     4194.354    76.601146 
   27800    907.88595   -108.08235   0.82147429   -107.26087    -3976.819    4.2553519    4.2553519    4.2553519    -3976.819   -11525.681   -2886.9426    2482.1666   -4694.6819    16200.677    15791.402    77.055996 
   27900    1073.0106   -108.22597   0.97088255   -107.25509   -5301.5502    4.2561984    4.2561984    4.2561984   -5301.5502   -17736.831   -21664.386    23496.566    10784.008   -7454.8813    7317.7431    77.101988 
   28000    715.71246   -107.90315   0.64759168   -107.25556    9786.7753    4.2410965    4.2410965    4.2410965    9786.7753   -19953.331    23218.248    26095.409   -2340.8836     20587.96    536.49356    76.284177 
   28100    482.69879    -107.6998   0.43675601   -107.26304   -3942.3446    4.2569435    4.2569435    4.2569435   -3942.3446    422.72568   -18643.827    6394.0673   -9164.4199    14960.953    20731.947    77.142493 
   28200    969.88169   -108.13015   0.87756933   -107.25258   -5030.3359    4.2549823    4.2549823    4.2549823   -5030.3359    7613.1084   -28991.222    6287.1061    2348.3931    -4579.596    5617.8108    77.035922 
   28300    735.64558   -107.91821   0.66562758   -107.25259    3702.9442    4.2427536    4.2427536    4.2427536    3702.9442    1536.3856    13117.655   -3545.2078   -3373.1319    22118.712   -5769.3749    76.373628 
   28400    808.05268   -107.98726   0.73114304   -107.25612   -15112.948    4.2611406    4.2611406    4.2611406   -15112.948   -2502.4749   -16954.961   -25881.408   -10101.624    7770.0789    18734.184    77.370889 
   28500    1408.5335   -108.52274    1.2744707   -107.24827    8857.7132    4.2482563    4.2482563    4.2482563    8857.7132    3543.5028    12375.796     10653.84    2203.5898   -5932.8983    1535.5481    76.671177 
   28600    1032.5655    -108.1878   0.93428696   -107.25352    1642.5809    4.2423972    4.2423972    4.2423972    1642.5809    -6248.325    20189.966   -9013.8981     1825.534    23317.279    596.77567    76.354387 
   28700    653.46375   -107.85015   0.59126774   -107.25888   -15473.358    4.2612712    4.2612712    4.2612712   -15473.358   -17238.545   -17462.604   -11718.925   -6708.8232     4172.295    25492.597    77.378006 
   28800    1241.5557   -108.37114    1.1233857   -107.24775    1241.5002    4.2455366    4.2455366    4.2455366    1241.5002    3166.0833   -7204.0087    7762.4258     5426.792   -3027.9511   -4026.9255    76.524018 
   28900    525.75345   -107.73076   0.47571277   -107.25505   -14761.074    4.2474987    4.2474987    4.2474987   -14761.074   -16633.784   -10681.024   -16968.415    475.32711    28785.104    3078.7499    76.630166 
   29000    559.61026   -107.76418   0.50634712   -107.25783   -26498.231    4.2573156    4.2573156    4.2573156   -26498.231   -17752.894   -40923.659   -20818.141   -2145.9658   -596.38918    21790.735    77.162722 
   29100    1210.9871   -108.34374    1.0957265   -107.24801    12822.924    4.2453766    4.2453766    4.2453766    12822.924    1235.9805     19285.28    17947.512    1661.3964    -4222.552   -1709.1269     76.51537 
   29200    851.44565   -108.02661   0.77040592   -107.25621   -4980.7053    4.2506455    4.2506455    4.2506455   -4980.7053   -4528.7915    2463.3294   -12876.654   -4017.3137    27012.506    -475.1835    76.800609 
   29300    789.98945   -107.97554   0.71479906   -107.26074   -4418.6796    4.2519223    4.2519223    4.2519223   -4418.6796   -4958.2739   -7447.3972   -850.36771   -3044.1865    900.80093    22906.115    76.869838 
   29400    1397.5631   -108.51493    1.2645445   -107.25038    9994.9197     4.245796     4.245796     4.245796    9994.9197    10585.555     12298.67    7100.5351   -3291.2141   -2947.2039    3152.7625    76.538046 
   29500    670.59532   -107.86552   0.60676874   -107.25875   -9923.1663    4.2583005    4.2583005    4.2583005   -9923.1663   -7166.4527   -2536.0702   -20066.976   -928.82441    24371.408    1969.4959     77.21629 
   29600    771.69607   -107.95439   0.69824682   -107.25614     -12307.1     4.248684     4.248684     4.248684     -12307.1    5214.4337   -21959.897   -20175.838   -9455.9996    2204.9019    22272.442    76.694337 
   29700     938.2306   -108.10127   0.84893077   -107.25234    35399.825    4.2405081    4.2405081    4.2405081    35399.825    16549.831     38810.12    50839.524   -9849.4971    5448.7766   -1161.2369     76.25243 
   29800    670.60835    -107.8669   0.60678052   -107.26012   -19003.624    4.2624295    4.2624295    4.2624295   -19003.624   -20649.792   -11402.747   -24958.334    -585.1039    21595.031    5835.7097    77.441118 
   29900     664.9467   -107.85899   0.60165775   -107.25733    458.27898    4.2479435    4.2479435    4.2479435    458.27898   -7635.1667   -2613.6811    11623.685   -6834.8385   -4538.7643    18547.721     76.65424 
   30000    1140.9703   -108.28232    1.0323739   -107.24994    19010.792    4.2410653    4.2410653    4.2410653    19010.792   -5647.3968    30572.024    32107.748    -2719.483    783.58204   -5184.5009    76.282495 
   30100    759.47161    -107.9457   0.68718587   -107.25851   -20937.421    4.2621843    4.2621843    4.2621843   -20937.421   -34693.807    7789.8812   -35908.339    5522.9083    19350.895    148.63388    77.427754 
   30200    1009.0762   -108.16646   0.91303336   -107.25342    905.06963     4.248343     4.248343     4.248343    905.06963   -4834.7137    17347.636   -9797.7133    1361.0227   -6726.5573     5788.143    76.675871 
   30300    1193.1893   -108.32865    1.0796228   -107.24903     9297.072    4.2502462    4.2502462    4.2502462     9297.072   -4014.5023    17545.518      14360.2      708.739    3294.8578   -4786.7412    76.778964 
   30400    717.90946   -107.90662   0.64957957   -107.25704   -28886.025    4.2578148    4.2578148    4.2578148   -28886.025   -21595.008    -14311.96   -50751.108     1997.856    16658.763   -8328.8553    77.189868 
   30500    971.19735   -108.13065   0.87875977   -107.25189    9124.0326    4.2435567    4.2435567    4.2435567    9124.0326     13808.82     15707.98   -2144.7019   -2332.2045   -7645.5636    17685.417    76.417005 
   30600    1124.6386    -108.2686    1.0175966     -107.251    627.95354    4.2556879    4.2556879    4.2556879    627.95354   -14675.097    12044.525    4514.4324    7805.1296    3419.3229   -1337.5685    77.074248 
   30700    458.16492   -107.67704   0.41455725   -107.26248   -11036.848    4.2525865    4.2525865    4.2525865   -11036.848   -23000.328    10005.405   -20115.621    5140.3217    11669.552   -801.69332    76.905867 
   30800    852.32018   -108.02817   0.77119721   -107.25697    20158.935    4.2440596    4.2440596    4.2440596    20158.935    6357.8181    34624.951    19494.035    984.98487   -6013.0492    15735.536    76.444179 
   30900    1045.7223   -108.20017   0.94619151   -107.25398    1298.4397    4.2572854    4.2572854    4.2572854    1298.4397   -23647.584    20421.049    7121.8535   -2834.3665    7628.0182   -4763.6626    77.161081 
   31000    535.03102   -107.74327   0.48410731   -107.25917   -2172.5958    4.2508234    4.2508234    4.2508234   -2172.5958   -21573.802    46037.457   -30981.442    1509.8253    11726.079     2555.389    76.810253 
   31100     1172.072   -108.31167    1.0605153   -107.25115   -1827.3996    4.2527922    4.2527922    4.2527922   -1827.3996   -6105.1963    5001.0549   -4378.0575   -47.706835   -1374.6194    1597.8632    76.917025 
   31200    1160.0211   -108.30146    1.0496115   -107.25184   -15139.558    4.2558311    4.2558311    4.2558311   -15139.558     -35674.8    12618.108   -22361.982   -12317.035    7661.4586   -8148.3884    77.082034 
   31300    743.00711   -107.93102   0.67228845   -107.25873    4946.6447    4.2427011    4.2427011    4.2427011    4946.6447   -3033.7385    35309.297   -17435.624    2028.4641    8402.6986   -917.50081    76.370794 
   31400    1365.4519   -108.48943    1.2354896   -107.25394   -1151.9315    4.2579758    4.2579758    4.2579758   -1151.9315   -7436.0387   -985.55186    4965.7961    3556.0124   -3279.4618    5408.7166    77.198625 
   31500    930.84632   -108.09861   0.84224931   -107.25636   -11559.376    4.2576547    4.2576547    4.2576547   -11559.376   -37299.796      13847.1   -11225.433   -1536.1899    3489.7135   -3584.9875    77.181161 
   31600    441.27147   -107.65383    0.3992717   -107.25455    24823.919    4.2369615    4.2369615    4.2369615    24823.919    2141.1963    52677.652    19652.908    2981.9151    8756.4839    5996.0219    76.061265 
   31700    1124.5015   -108.26723    1.0174726   -107.24976   -7181.1146    4.2591047    4.2591047    4.2591047   -7181.1146   -28678.555   -850.77884    7985.9894   -4076.4031   -3745.9401    1910.1702    77.260045 
   31800    504.17561   -107.71359   0.45618869    -107.2574   -1039.9512    4.2532109    4.2532109    4.2532109   -1039.9512   -55222.317    56245.039   -4142.5756     1730.448    426.92344    2288.9474    76.939745 
   31900    563.01422   -107.76841    0.5094271   -107.25898    3213.4337    4.2394254    4.2394254    4.2394254    3213.4337   -14567.257    29416.339   -5208.7804   -4540.9769    8370.2464    -8319.474     76.19404 
   32000    1270.3086   -108.40231    1.1494019    -107.2529   -1244.5484    4.2540722    4.2540722    4.2540722   -1244.5484   -2686.2795    537.54287   -1584.9087    -1119.303    65.287385   -950.98366    76.986499 
   32100    919.11296   -108.08973   0.83163272    -107.2581   -10500.965    4.2560376    4.2560376    4.2560376   -10500.965   -44174.729      26889.2   -14217.366    3102.5788    929.96403   -852.42048    77.093251 
   32200    1016.7241   -108.17823   0.91995333   -107.25828    1134.3147    4.2458785    4.2458785    4.2458785    1134.3147   -8398.1049    9378.2817    2422.7674   -1820.5412    1177.9459   -5650.5505    76.542507 
   32300    1522.2503    -108.6288     1.377364   -107.25144     2828.969    4.2481928    4.2481928    4.2481928     2828.969   -7870.0196   -2018.6369    18375.563    10490.214   -1606.8043    83.977494    76.667738 
   32400    620.05947    -107.8215   0.56104284   -107.26045   -8467.3046    4.2576563    4.2576563    4.2576563   -8467.3046   -53737.095    32268.763   -3933.5822    3229.1444    1639.2565     5121.162    77.181249 
   32500    745.24803    -107.9309   0.67431608   -107.25658   -2575.9698    4.2520074    4.2520074    4.2520074   -2575.9698   -29072.842    33150.247   -11805.315    237.17189    5924.6717   -3793.4985    76.874453 
   32600    874.59466   -108.03963   0.79135163   -107.24828    22003.401    4.2446015    4.2446015    4.2446015    22003.401   -2609.5241    43496.367    25123.361    8398.7736   -3343.5541    4548.4103    76.473466 
   32700    402.80954   -107.62598   0.36447054   -107.26151   -17933.514    4.2581169    4.2581169    4.2581169   -17933.514   -57633.592    37490.104   -33657.054    2072.7102    2214.2416   -2523.1189    77.206301 
   32800     831.6618   -108.00897   0.75250508   -107.25647    3024.9474     4.251402     4.251402     4.251402    3024.9474   -21334.483    31392.509   -983.18367    734.12112    6234.1987   -264.05728    76.841624 
   32900    1363.0756    -108.4817    1.2333394   -107.24836    20680.096    4.2392579    4.2392579    4.2392579    20680.096    474.02349    29902.723    31663.542    1822.6871   -3912.9926   -329.67732    76.185009 
   33000    822.02603    -108.0042   0.74378643   -107.26041   -31889.501    4.2621592    4.2621592    4.2621592   -31889.501   -54576.882   -1544.4761   -39547.146    6088.6632   -2313.5984    3702.3517    77.426388 
   33100    1107.8681   -108.25744    1.0024223   -107.25502   -667.00201    4.2479209    4.2479209    4.2479209   -667.00201   -8203.1049     6130.792    71.306876   -4558.4201   -1121.9915    9169.7544    76.653019 
   33200    1198.5996   -108.33525    1.0845181   -107.25073    9141.8524    4.2390257    4.2390257    4.2390257    9141.8524   -6597.4535    21585.906    12437.105   -12791.916    3143.5509   -4497.5466     76.17249 
   33300    492.89732   -107.70945   0.44598386   -107.26346   -23462.671    4.2595499    4.2595499    4.2595499   -23462.671   -50413.115    30354.752    -50329.65    6251.6437   -2575.5147    1938.8269    77.284272 
   33400    795.08914   -107.97372   0.71941337   -107.25431    14021.205    4.2488319    4.2488319    4.2488319    14021.205   -16496.086    44117.584    14442.118   -6648.3543   -835.87327   -1268.7998    76.702346 
   33500    789.06313   -107.96636    0.7139609    -107.2524    4391.8407    4.2522557    4.2522557    4.2522557    4391.8407   -34029.236    40787.668    6417.0902   -8064.0793    1357.4994   -3328.7881    76.887921 
   33600    709.79971    -107.8985   0.64224169   -107.25626   -11094.037    4.2533973    4.2533973    4.2533973   -11094.037   -49988.112    36714.348   -20008.348    6538.6716    2528.3979    2366.3493    76.949862 
   33700    1219.8413   -108.35381     1.103738   -107.25008    17074.081    4.2469604    4.2469604    4.2469604    17074.081     8890.753    19278.005    23053.484   -1849.2269    2163.6074   -1593.2899    76.601032 
   33800    1069.6229   -108.22245   0.96781731   -107.25463   -18518.517    4.2593607    4.2593607    4.2593607   -18518.517   -23775.649   -17135.074   -14644.829   -10177.787   -7147.6583   -5982.6439    77.273974 
   33900    764.29699    -107.9496   0.69155198   -107.25804   -7800.2856    4.2464191    4.2464191    4.2464191   -7800.2856   -27844.824    25583.719   -21139.752   -3701.4852   -3216.8492    7075.4037    76.571747 
   34000    1042.6823   -108.19673    0.9434409   -107.25329    22709.617    4.2454804    4.2454804    4.2454804    22709.617    2490.5623    38213.835    27424.453       4185.9     3083.717   -787.62656    76.520979 
   34100    822.22676   -107.99944   0.74396805   -107.25547   -17961.464     4.261925     4.261925     4.261925   -17961.464   -48913.683    12830.155   -17800.863   -2835.3656   -2303.3907   -1331.7571    77.413624 
   34200    623.99598    -107.8199   0.56460467    -107.2553    10656.831    4.2429767    4.2429767    4.2429767    10656.831   -38547.493     70011.88    506.10549    -141.9414   -1276.7582   -5408.2037    76.385679 
   34300    1192.1051    -108.3323    1.0786417   -107.25366    13214.611    4.2480419    4.2480419    4.2480419    13214.611   -6948.4073    15716.903    30875.336    6183.8084     329.3579    2001.6276    76.659567 
   34400    976.17137    -108.1389   0.88326037   -107.25564   -247.23506    4.2577931    4.2577931    4.2577931   -247.23506    -17995.27    4640.7058    12612.859   -1523.2141    1075.5428   -3894.9584    77.188686 
   34500     757.4737    -107.9413   0.68537812   -107.25592    7255.9951    4.2490664    4.2490664    4.2490664    7255.9951   -23049.286    27906.318    16910.953    2933.9551   -3799.9056   -4541.2121    76.715048 
   34600     1114.251   -108.25786    1.0081977   -107.24966    10320.456    4.2480281    4.2480281    4.2480281    10320.456    7300.7909    -8910.017    32570.594     1380.449   -1928.1867    1529.7247    76.658825 
   34700    878.42142   -108.04806   0.79481416   -107.25325   -6004.2313    4.2511308    4.2511308    4.2511308   -6004.2313   -23697.497   -10062.878    15747.681    -5409.194   -4119.8549    3506.3988    76.826915 
   34800    633.93797   -107.83032   0.57360039   -107.25672   -18419.912    4.2570552    4.2570552    4.2570552   -18419.912    -46531.21    17727.133   -26455.657    2994.0592   -1760.6236     1295.018    77.148561 
   34900    1094.2868   -108.24064   0.99013365    -107.2505   -4896.3718    4.2481979    4.2481979    4.2481979   -4896.3718   -25843.525     -5065.55    16219.959    7009.2301   -454.73281    3607.0087    76.668017 
   35000    911.95129   -108.07849   0.82515269   -107.25334    14936.544    4.2437443    4.2437443    4.2437443    14936.544   -8618.3695     30604.27    22823.731   -2566.7481   -3063.2958    6900.4266    76.427145 
   35100    802.06303    -107.9846   0.72572348   -107.25887    -8521.851    4.2604029    4.2604029    4.2604029    -8521.851    -43593.69    34647.585   -16619.447    1829.4794   -1141.3251   -5716.0139    77.330712 
   35200    1209.3875   -108.34737    1.0942793    -107.2531    8814.6479    4.2477888    4.2477888    4.2477888    8814.6479   -9222.6268   -5115.5143    40782.085    14394.611   -262.23833   -792.49636    76.645868 
   35300     1018.862   -108.17432   0.92188778   -107.25244     19487.94    4.2389093    4.2389093    4.2389093     19487.94   -1835.1815    39646.047    20652.955     1868.967    2837.4834   -5095.2093    76.166217 
   35400    615.59611   -107.81703    0.5570043   -107.26003    -20177.71    4.2621393    4.2621393    4.2621393    -20177.71   -39493.698    13299.109   -34338.542    583.69328   -4856.3937    4493.4935    77.425305 
   35500    993.76084   -108.14955    0.8991757   -107.25037   -1452.2264    4.2491057    4.2491057    4.2491057   -1452.2264    -16089.98   -6851.3914    18584.693    8853.9412    983.27931      -3852.6    76.717178 
   35600    784.19616   -107.96059   0.70955716   -107.25103    10299.054    4.2397808    4.2397808    4.2397808    10299.054   -2526.0532    30701.655    2721.5603   -1585.4291   -5727.7563   -2348.5896    76.213201 
   35700    557.41311   -107.76289    0.5043591   -107.25853   -24846.715     4.257647     4.257647     4.257647   -24846.715   -41741.266    3007.5033   -35806.381    5979.0553   -3667.5371    7653.2311    77.180741 
   35800    1167.5903   -108.30936    1.0564602    -107.2529   -2965.0365    4.2511267    4.2511267    4.2511267   -2965.0365   -21066.107   -11308.317    23479.315     9178.032    756.10803   -7030.9135    76.826694 
   35900    1077.5043    -108.2294    0.9749485   -107.25445    11057.701    4.2456747    4.2456747    4.2456747    11057.701   -12898.042    37976.133    8095.0125   -1420.3185    -10085.92   -2110.6502    76.531485 
   36000    831.35401   -108.01232   0.75222658   -107.26009     2910.235    4.2491875    4.2491875    4.2491875     2910.235   -18664.256    29209.706   -1814.7458    6170.0693    328.78794   -6900.1691    76.721606 
   36100    1212.0712   -108.35092    1.0967075   -107.25421    4247.0826    4.2541026    4.2541026    4.2541026    4247.0826     -13901.9    4594.4357    22048.712    7121.9772    2448.0283   -6961.9261    76.988148 
   36200    868.62159   -108.04138   0.78594707   -107.25543    2935.9704    4.2511953    4.2511953    4.2511953    2935.9704   -15261.842    33648.729   -9578.9761   -4628.7131   -4142.0148   -7934.9382    76.830413 
   36300    560.62818   -107.76564   0.50726816   -107.25837    3243.9002    4.2424741    4.2424741    4.2424741    3243.9002   -20416.212    32196.217   -2048.3045   -519.94646   -2146.0175    6581.7906    76.358536 
   36400    1002.5069   -108.16186   0.90708927   -107.25477   -1687.6476    4.2539005    4.2539005    4.2539005   -1687.6476   -27455.778    9390.8512    13001.984    4229.5497    3825.7751   -2967.5664    76.977176 
   36500     735.7295   -107.92175   0.66570352   -107.25605   -6565.3539    4.2568059    4.2568059    4.2568059   -6565.3539   -32242.158    5584.8863    6961.2104   -2354.9961   -7025.1773   -7255.8524    77.135008 
   36600      676.386   -107.86967   0.61200827   -107.25766   -2573.6503    4.2451924    4.2451924    4.2451924   -2573.6503   -29584.894    8241.8675    13622.075   -5400.1951   -4276.1014    6478.0544    76.505409 
   36700    1331.9409   -108.45722    1.2051681   -107.25205    13064.769    4.2463445    4.2463445    4.2463445    13064.769    4225.9929    10768.729    24199.587    3469.4921    476.43894   -5923.4922    76.567715 
   36800    940.36212   -108.10748   0.85085941   -107.25662    2306.4588     4.257774     4.257774     4.257774    2306.4588   -16541.598    18358.942    5102.0327   -1641.2596   -8435.3574   -10012.186    77.187648 
   36900    912.20144   -108.08125   0.82537903   -107.25587   -5389.4002    4.2552224    4.2552224    4.2552224   -5389.4002   -27555.587    25820.462   -14433.076   -3807.6067    3149.8405    198.47107     77.04896 
   37000    1295.5213   -108.41944    1.1722149   -107.24723    21433.575    4.2410552    4.2410552    4.2410552    21433.575    5094.6108      52605.6    6600.5135   -1523.1681    1387.5097    945.16387    76.281946 
   37100    700.53648   -107.89538   0.63386013   -107.26152    6797.9828    4.2500982    4.2500982    4.2500982    6797.9828     -14509.3    31515.453    3387.7953   -4650.3656   -9051.6339   -676.15702    76.770948 
   37200    687.29401    -107.8794   0.62187807   -107.25752   -11803.476    4.2601633    4.2601633    4.2601633   -11803.476   -43418.861    28415.224    -20406.79    2212.0827   -6605.1485   -1079.8921    77.317669 
   37300    974.80639   -108.13114   0.88202531   -107.24911    17252.579     4.240932     4.240932     4.240932    17252.579    16612.368    15661.394    19483.973    5773.2572    2928.1528    9881.1832      76.2753 
   37400    597.75336   -107.80036    0.5408598    -107.2595   -6398.2486    4.2470102    4.2470102    4.2470102   -6398.2486   -7201.2579   -13173.431    1179.9429   -1655.6578   -13424.719    4396.9611    76.603727 
   37500    862.91655   -108.03476   0.78078503   -107.25397    -16113.12    4.2600807    4.2600807    4.2600807    -16113.12   -35174.237   -1768.6399   -11396.484   -1921.0026   -9577.8827   -5327.7578    77.313168 
   37600    1142.4446   -108.28289    1.0337079   -107.24918   -2717.3176    4.2475348    4.2475348    4.2475348   -2717.3176    17325.502   -22598.123   -2879.3325    7719.8791    4171.8977    15451.655     76.63212 
   37700    732.17621   -107.91958   0.66248843   -107.25709    3881.4282    4.2442834    4.2442834    4.2442834    3881.4282    4472.3793    15692.637   -8520.7321    1155.2161   -11307.889   -1120.9255    76.456274 
   37800    1163.7204   -108.30752    1.0529587   -107.25456   -3478.2648    4.2579361    4.2579361    4.2579361   -3478.2648   -26763.951    39712.985   -23383.828   -12761.158   -1231.7766   -4997.4252    77.196466 
   37900    942.78283   -108.10491   0.85304972   -107.25186    5305.0227    4.2546831    4.2546831    4.2546831    5305.0227    22664.361    14370.448   -21119.742   -3921.0459     1573.098    17336.854    77.019671 
   38000    720.83619   -107.90476   0.65222773   -107.25253    3204.4207    4.2457867    4.2457867    4.2457867    3204.4207   -18542.232    45791.399   -17635.904    3751.9069   -15514.173    876.29318    76.537542 
   38100    1132.0251   -108.27179    1.0242801   -107.24751   -6127.6482    4.2515004    4.2515004    4.2515004   -6127.6482   -23878.226    15282.252   -9786.9706    2244.6956   -1718.7558    982.22461    76.846955 
   38200    673.17831   -107.86395   0.60910589   -107.25484   -10794.326    4.2539076    4.2539076    4.2539076   -10794.326     21690.23   -39753.485   -14319.723    3631.2851    1519.7718    32186.017    76.977562 
   38300    699.41072   -107.88778   0.63284152   -107.25493   -9054.0326    4.2489747    4.2489747    4.2489747   -9054.0326   -6802.6539   -8201.3304   -12158.114    6828.0063   -22282.473   -375.12956    76.710078 
   38400    1022.4976   -108.17561   0.92517732   -107.25043     1353.031    4.2494139    4.2494139    4.2494139     1353.031    12332.022   -2873.5089   -5399.4205    4484.1631    -6456.004    2971.5024     76.73387 
   38500    650.19289   -107.84602   0.58830819   -107.25771   -3493.1747     4.247436     4.247436     4.247436   -3493.1747     38612.64   -30950.789   -18141.375   -5899.3808    1276.8528    26890.164    76.626774 
   38600    844.00387   -108.02477   0.76367244    -107.2611   -4501.3975     4.251158     4.251158     4.251158   -4501.3975   -5970.8616    22546.929    -30080.26    3112.1385   -18670.651   -2031.8857    76.828392 
   38700     1191.352    -108.3315    1.0779603   -107.25354    9251.3326    4.2527257    4.2527257    4.2527257    9251.3326    25972.645    22832.349   -21050.995   -3828.4821    1161.3699    5141.7425     76.91342 
   38800    890.65477   -108.06361   0.80588316   -107.25772     10395.02     4.244471     4.244471     4.244471     10395.02    30330.451    12635.699   -11781.091    2432.2011    979.32062    16965.188    76.466411 
   38900     1020.022    -108.1794   0.92293738   -107.25647   -2416.6643    4.2534502    4.2534502    4.2534502   -2416.6643   -6491.6459    24967.924   -25726.271    413.99131   -18633.353   -2840.4917    76.952735 
   39000    1173.1035    -108.3108    1.0614487   -107.24935   -3149.0087    4.2543828    4.2543828    4.2543828   -3149.0087    17002.416   -12737.507   -13711.934   -7839.8729    1754.8517    5596.5744    77.003363 
   39100    693.45915   -107.88229   0.62745642   -107.25483   -2211.1836    4.2446001    4.2446001    4.2446001   -2211.1836    15505.955   -11838.206   -10301.299    -7272.977   -851.13187    18787.246    76.473389 
   39200    754.64919   -107.93763   0.68282244    -107.2548   -1675.5491    4.2532366    4.2532366    4.2532366   -1675.5491    15966.515   -86.374742   -20906.788    2236.0792   -19466.521   -1943.8168    76.941142 
   39300    982.93151   -108.14047   0.88937708   -107.25109   -5266.1162    4.2506174    4.2506174    4.2506174   -5266.1162    11236.637   -6429.5153   -20605.471    1258.0257    6182.6274    5546.2007    76.799086 
   39400    488.74069   -107.70087   0.44222285   -107.25865    6345.5307    4.2444544    4.2444544    4.2444544    6345.5307    19487.593    14230.463   -14681.464   -9649.0346    2990.4238    11527.379    76.465512 
   39500     1141.445   -108.28773    1.0328034   -107.25493   -1542.3623     4.251441     4.251441     4.251441   -1542.3623   -2186.3724    10940.905   -13381.619    11228.445   -16877.406   -106.99304    76.843734 
   39600    1122.4783   -108.26967    1.0156419   -107.25403    7018.8347    4.2479163    4.2479163    4.2479163    7018.8347    5244.2636    40530.341     -24718.1    3018.2402    16882.365   -338.35743    76.652769 
   39700    851.76875    -108.0317   0.77069826     -107.261   -3922.0733    4.2494256    4.2494256    4.2494256   -3922.0733   -2467.7393    12116.575   -21415.055   -14054.184    8624.3485    12845.667    76.734504 
   39800    1230.2758   -108.36697    1.1131794   -107.25379    1217.1682    4.2488624    4.2488624    4.2488624    1217.1682    2335.6123     4676.057   -3360.1647   -8508.3526   -14589.111    3524.7364       76.704 
   39900    866.51989   -108.04256   0.78404541   -107.25851   -2684.6222    4.2455329    4.2455329    4.2455329   -2684.6222    -7922.751    19190.998   -19322.113     -704.179    18036.716   -5476.8119    76.523819 
   40000    440.10148   -107.66252   0.39821307    -107.2643   -17892.995    4.2529172    4.2529172    4.2529172   -17892.995   -1772.1657   -28810.715   -23096.106   -5534.8595    10032.333    18271.029    76.923809 
   40100    1080.1775   -108.22895   0.97736735   -107.25158    -6966.295    4.2498507    4.2498507    4.2498507    -6966.295   -3586.8688   -8487.7625   -8824.2536   -7874.8916   -7984.6218    7067.0173    76.757537 
   40200    697.72175   -107.88675    0.6313133   -107.25543   -2408.6656    4.2482955    4.2482955    4.2482955   -2408.6656   -1853.7666    29348.585   -34720.815    1368.1231    19647.927   -4817.2869    76.673298 
   40300    687.77211   -107.88259   0.62231066   -107.26028   -14974.394     4.251166     4.251166     4.251166   -14974.394   -3951.1759   -10494.515   -30477.491   -5281.4366    11313.363    17846.632    76.828827 
   40400    1450.3517   -108.56432    1.3123087   -107.25201    10567.619    4.2446577    4.2446577    4.2446577    10567.619    7704.1062    21300.988    2697.7639    5134.2657   -4110.7807     2263.678    76.476502 
   40500    931.26618    -108.1027   0.84262921   -107.26008   -1138.9343    4.2517495    4.2517495    4.2517495   -1138.9343   -14737.346    28078.342   -16757.799    914.74874    22470.543   -4673.2502    76.860466 
   40600     697.7827   -107.89328   0.63136845   -107.26191   -14793.275    4.2521312    4.2521312    4.2521312   -14793.275   -4670.4132   -25520.321   -14189.091   -13182.049    7454.8411    15070.551     76.88117 
   40700    1166.4628   -108.30748      1.05544   -107.25204    9722.6978    4.2442828    4.2442828    4.2442828    9722.6978    22124.434   -7671.0846    14714.744   -2855.8831   -4830.4766    1963.5398    76.456242 
   40800    670.39406   -107.86645   0.60658664   -107.25987   -6775.7521    4.2523122    4.2523122    4.2523122   -6775.7521   -7153.0439    -1313.955   -11860.257    3032.2079    25595.652    680.33154    76.890988 
   40900    617.20279   -107.81891   0.55845805   -107.26045   -10396.389    4.2496374    4.2496374    4.2496374   -10396.389    17176.233   -20647.667   -27717.735   -3094.1079    9832.3073    16396.943     76.74598 
   41000    1195.3674   -108.33333    1.0815935   -107.25173    7417.0604    4.2492206    4.2492206    4.2492206    7417.0604    16633.946    912.24019    4704.9945   -9640.1716    -10072.82    3777.5683    76.723399 
   41100    865.21719   -108.04063   0.78286669   -107.25776    2021.7685    4.2503693    4.2503693    4.2503693    2021.7685   -10704.301    21484.581   -4714.9744     5763.384     14227.83   -3205.1284    76.785641 
   41200    923.69709   -108.09466   0.83578054   -107.25888    9130.9781    4.2445626    4.2445626    4.2445626    9130.9781    17089.272    20169.058   -9865.3957    3249.6289    14843.336    13432.641    76.471362 
   41300    1213.3887   -108.35361    1.0978996   -107.25571    7357.4545    4.2539014    4.2539014    4.2539014    7357.4545   -4293.0412    10947.359    15418.046   -773.92929   -21135.377   -3289.5619    76.977228 
   41400    827.41147   -108.00898   0.74865929   -107.26032    6902.9841    4.2464702    4.2464702    4.2464702    6902.9841   -13988.136    38008.416   -3311.3277    2945.4445    71.396337   -6427.5931    76.574515 
   41500    822.73506   -108.00319   0.74442798   -107.25876    11610.906    4.2430565    4.2430565    4.2430565    11610.906      26010.7    5780.2926    3041.7259   -2087.1865    18121.172    5355.1753    76.389987 
   41600    946.21899   -108.11001   0.85615883   -107.25385   -5492.0741    4.2574703    4.2574703    4.2574703   -5492.0741   -15834.365   -3773.0985    3131.2414    2774.4215   -18356.172    1732.1184    77.171136 
   41700    778.58694   -107.96038   0.70448182    -107.2559    1997.2678     4.244007     4.244007     4.244007    1997.2678   -1446.9358    25363.991   -17925.251    1192.4111   -178.08374    808.59176    76.441336 
   41800    787.84253   -107.96987   0.71285648   -107.25701    12143.061    4.2452102    4.2452102    4.2452102    12143.061    23856.391    11374.569    1198.2224   -2223.1948    14288.829    7767.5654     76.50637 
   41900    991.54968   -108.14999   0.89717499   -107.25281   -16130.482    4.2587885    4.2587885    4.2587885   -16130.482   -31792.487    11317.383   -27916.343   -1427.3634   -26452.878    451.58568    77.242835 
   42000    949.51835   -108.11289   0.85914416   -107.25374     12146.58    4.2382111    4.2382111    4.2382111     12146.58   -1947.0755    37152.388    1234.4283    1672.5643    1055.2354   -893.89224    76.128582 
   42100     1004.098   -108.16686   0.90852893   -107.25833    8923.1851    4.2465487    4.2465487    4.2465487    8923.1851   -234.94422    21122.818     5881.681   -770.30873    14604.399    8269.6379    76.578759 
   42200    975.07602   -108.13855   0.88226928   -107.25628   -21716.376    4.2591666    4.2591666    4.2591666   -21716.376    -43465.17      2462.94   -24146.898    4912.1859   -40475.104   -3469.0589    77.263414 
   42300    985.67484   -108.14336   0.89185931    -107.2515    17758.378    4.2351451    4.2351451    4.2351451    17758.378    4883.1689    34578.334     13813.63    320.73257   -1965.6154   -3108.7243    75.963484 
   42400    828.88649   -108.00705   0.74999391   -107.25706    22.883414    4.2500189    4.2500189    4.2500189    22.883414   -11592.571    23236.543   -11575.322   -1998.0477    18500.892    4545.6018     76.76665 
   42500    645.74295   -107.83967   0.58428179   -107.25539   -24601.362    4.2586269    4.2586269    4.2586269   -24601.362   -36107.417    3280.7982   -40977.469    8732.8318   -44373.207    6018.8751    77.234044 
   42600     1005.016   -108.15673   0.90935961   -107.24737    18987.211    4.2357127    4.2357127    4.2357127    18987.211    17984.152    30920.783    8056.6969   -2707.1399    2042.3009    424.67313    75.994029 
   42700    845.17895   -108.02116   0.76473567   -107.25643   -7359.1867    4.2494891    4.2494891    4.2494891   -7359.1867   -9926.5962     20716.15   -32867.114     741.0441    13951.307   -630.16797    76.737944 
   42800    559.12018   -107.76785   0.50590369   -107.26195   -24482.827     4.253464     4.253464     4.253464   -24482.827   -38782.148    5480.5071   -40146.841    5153.8769   -44013.504    10644.714    76.953486 
   42900    1277.8111   -108.40967    1.1561904   -107.25348    9321.6324    4.2415426    4.2415426    4.2415426    9321.6324    11110.873    10639.423    6214.6007   -7748.3637    1706.9235    4094.1135    76.308253 
   43000    1034.7238   -108.19388    0.9362398   -107.25764   -9430.7149    4.2526817    4.2526817    4.2526817   -9430.7149   -24006.935    14997.868   -19283.077    5287.7874   -7024.0142    915.71265    76.911031 
   43100     573.7054   -107.78244    0.5191007   -107.26334   -12799.367    4.2490659    4.2490659    4.2490659   -12799.367   -10273.878     2583.331   -30707.553    2403.9522     -37865.1    1563.6688    76.715021 
   43200    1215.1262   -108.35551    1.0994717   -107.25604    7773.8306    4.2451497    4.2451497    4.2451497    7773.8306    33865.721   -3743.4401   -6800.7889    -1971.726    7629.7712    -543.5502      76.5031 
   43300    1018.1378   -108.18158   0.92123245   -107.26034    129.57434    4.2450183    4.2450183    4.2450183    129.57434     4252.989    26522.195   -30386.461   -3618.8516    -21646.02   -1599.5995    76.495997 
   43400    553.04055   -107.76742   0.50040271   -107.26702   -1475.6861    4.2438748    4.2438748    4.2438748   -1475.6861    26916.248    14761.235   -46104.541    9815.3214   -31389.008    9247.5832    76.434195 
   43500    1002.1544   -108.16636   0.90677035   -107.25959   -8186.2283    4.2581029    4.2581029    4.2581029   -8186.2283    15667.327   -9935.3491   -30290.662   -3896.1185    14618.268   -4653.1206    77.205537 
   43600    905.33222   -108.07587   0.81916361    -107.2567    5176.3502    4.2451127    4.2451127    4.2451127    5176.3502   -5838.5687    31961.761   -10594.142   -4260.8877   -21215.025   -1214.2842    76.501098 
   43700    800.22094   -107.97956   0.72405672   -107.25551    10852.963    4.2357242    4.2357242    4.2357242    10852.963      926.407    34171.901   -2539.4188    8099.2611   -23901.256    14845.449    75.994651 
   43800    922.17308   -108.09153   0.83440158   -107.25712   -15379.914    4.2583964    4.2583964    4.2583964   -15379.914   -25429.595   -4026.0791   -16684.066    1281.4561    11522.345    317.34773    77.221504 
   43900    976.76826   -108.13934   0.88380044   -107.25554   -3175.8067    4.2473479    4.2473479    4.2473479   -3175.8067   -24809.885    35485.178   -20202.712   -5794.6819   -19148.122   -9172.5049    76.622005 
   44000    832.33041   -108.00653   0.75311005   -107.25342    7485.8492    4.2408215    4.2408215    4.2408215    7485.8492    25011.106    20740.391   -23293.949    6256.9183   -12895.162    17381.701    76.269337 
   44100    890.31328    -108.0603   0.80557416   -107.25473   -18724.623    4.2505759    4.2505759    4.2505759   -18724.623    3392.1183   -16934.353   -42631.634    11421.278    9138.7443    -1108.982    76.796838 
   44200    870.48338   -108.04345   0.78763166   -107.25582    11509.242    4.2449572    4.2449572    4.2449572    11509.242    5647.9254    57305.943   -28426.142   -2142.6911   -16636.577   -10343.146    76.492692 
   44300    982.57963   -108.14448   0.88905869   -107.25542    1400.0517    4.2482547    4.2482547    4.2482547    1400.0517    12728.807    4867.0114   -13395.664    2279.8106   -6759.7967    14896.514    76.671088 
   44400    791.99972   -107.97536   0.71661799   -107.25874    -3044.734    4.2460379    4.2460379    4.2460379    -3044.734   -10757.787     17180.82   -15557.235    8007.5152    11025.897    6068.4164    76.551128 
   44500    1103.8875   -108.25303   0.99882059    -107.2542    5793.9654    4.2451707    4.2451707    4.2451707    5793.9654   -16235.392    40055.162   -6437.8737   -4697.1652   -11445.587   -9330.6509    76.504233 
   44600    1052.5025   -108.20698   0.95232637   -107.25465   -4043.5848    4.2495076    4.2495076    4.2495076   -4043.5848   -822.94464   -13829.358    2521.5481    7930.2503   -4113.6137    10215.153    76.738944 
   44700    574.56466    -107.7812   0.51987818   -107.26132      1423.69     4.244407     4.244407     4.244407      1423.69   -11308.202    28492.594   -12913.322    11598.567    11246.108    8719.6306    76.462952 
   44800    1112.7223   -108.26176    1.0068145   -107.25495     2415.643    4.2468136    4.2468136    4.2468136     2415.643    606.50381    27444.828   -20804.403   -6110.1502   -6907.2562   -6965.0725    76.593089 
   44900    717.11751   -107.90719   0.64886299   -107.25833    4056.1911    4.2487901    4.2487901    4.2487901    4056.1911    10258.363    14328.745   -12418.535    13882.984   -2171.2292    8264.6019    76.700083 
   45000    483.82041    -107.7027   0.43777087   -107.26493   -11965.244    4.2447887    4.2447887    4.2447887   -11965.244   -9858.3507     10862.63   -36900.011    11969.522    12462.459    10893.842    76.483582 
   45100    1198.0087   -108.34077    1.0839834   -107.25678    4185.0915    4.2445338    4.2445338    4.2445338    4185.0915    17309.644    14546.014   -19300.384   -7686.2992     80.32018   -4545.2766    76.469807 
   45200    1035.9175   -108.19833   0.93731996   -107.26101    -5507.294     4.250278     4.250278     4.250278    -5507.294   -7637.5164   -1991.6468   -6892.7189    10022.343   -2092.5958    7111.2431     76.78069 
   45300    719.65833   -107.91706   0.65116198    -107.2659   -15646.176    4.2506929    4.2506929    4.2506929   -15646.176   -26819.904   -14120.633   -5997.9918    10338.441    16409.937    10627.931    76.803176 
   45400    1440.1769   -108.55622    1.3031023   -107.25312    16626.313    4.2409559    4.2409559    4.2409559    16626.313    5702.8929    27543.794    16632.252   -2470.5099    11055.847   -4594.8297    76.276589 
   45500    970.13163   -108.14014   0.87779549   -107.26235   -5532.0382    4.2481304    4.2481304    4.2481304   -5532.0382   -16404.416    -6284.553    6092.8544    1621.1928   -4354.0903    14173.234    76.664363 
   45600    499.08471   -107.71693   0.45158233   -107.26534   -15242.725    4.2500337    4.2500337    4.2500337   -15242.725   -21084.297    -5318.394   -19325.483    8186.5397    13236.367    14364.971    76.767453 
   45700    1027.0167   -108.18347   0.92926627   -107.25421    5676.0468    4.2428062    4.2428062    4.2428062    5676.0468    11053.886    26992.439   -21018.185    -249.3436    -548.9139    -9731.998    76.376471 
   45800    693.21049   -107.88877   0.62723142   -107.26154   -13605.252    4.2471285    4.2471285    4.2471285   -13605.252   -6532.3107   -9440.6349   -24842.809   -4775.4613   -9979.9623    6447.4467    76.610128 
   45900    446.58753   -107.66925   0.40408178   -107.26517     1626.595    4.2464576    4.2464576    4.2464576     1626.595   -1862.0073   -4597.4424    11339.235    9317.6518    11634.682    14826.927    76.573832 
   46000    1206.5587   -108.34766    1.0917196   -107.25594   -1618.4012    4.2494517    4.2494517    4.2494517   -1618.4012    -3993.741    6177.2955   -7038.7581   -1071.5822    -9907.427   -3917.1652     76.73592 
   46100    979.18828   -108.14421   0.88599013   -107.25822    740.80232    4.2475968    4.2475968    4.2475968    740.80232   -11792.318    5992.3955    8022.3298   -2975.5651   -8601.8751   -251.65721    76.635477 
   46200    1051.4459   -108.20973   0.95137033   -107.25836    3523.3497    4.2426324    4.2426324    4.2426324    3523.3497   -5238.7284   -5096.1078    20904.885    9367.4256    14002.844    22113.039    76.367087 
   46300    1194.7182   -108.33681    1.0810062   -107.25581   -2573.9481    4.2508849    4.2508849    4.2508849   -2573.9481   -15076.026    10495.471   -3141.2887   -2857.8362   -7862.4453   -373.20325    76.813587 
   46400    890.20082   -108.06243   0.80547241   -107.25695   -2848.9402    4.2490392    4.2490392    4.2490392   -2848.9402   -6477.3538     499.0061   -2568.4728   -2842.9673   -11584.823   -13405.146    76.713576 
   46500    711.54531   -107.90098   0.64382115   -107.25716    -469.8956    4.2448383    4.2448383    4.2448383    -469.8956     1763.931   -13649.744    10476.127     11924.72    11780.689     16418.69    76.486266 
   46600    703.36968    -107.8934   0.63642367   -107.25697    -15070.19     4.249088     4.249088     4.249088    -15070.19   -11964.003      9388.81   -42635.379    1660.3814   -13192.871   -6355.1076    76.716218 
   46700    740.27605   -107.92686   0.66981733   -107.25704   -8318.5326    4.2437141    4.2437141    4.2437141   -8318.5326    5058.2929    1637.7938   -31651.684   -1138.9196   -15973.599   -5475.3262    76.425511 
   46800      807.741   -107.99073   0.73086103   -107.25987   -6746.6803    4.2468312    4.2468312    4.2468312   -6746.6803   -3589.9766   -10565.609   -6084.4558     10939.85    13296.091    19774.394    76.594041 
   46900    958.83384   -108.12768   0.86757301   -107.26011   -8372.1164    4.2498196    4.2498196    4.2498196   -8372.1164   -20234.405    7461.2985   -12343.243    2088.8204    -24098.21    -4289.022    76.755852 
   47000    1154.9823    -108.3016    1.0450522   -107.25655   -945.94608    4.2452167    4.2452167    4.2452167   -945.94608   -11510.699     3653.419    5019.4421   -880.11037   -11113.797   -3486.3993    76.506723 
   47100    1034.4188   -108.19246    0.9359639   -107.25649   -5807.1641    4.2489024    4.2489024    4.2489024   -5807.1641    -11104.03   -11902.058    5584.5955    12766.155    11321.018    23152.089    76.706166 
   47200    811.16418   -107.99275    0.7339584   -107.25879   -9251.1798     4.247189     4.247189     4.247189   -9251.1798    -12049.47    13441.461    -29145.53   -2111.7468   -24640.283   -7434.1004    76.613403 
   47300    1018.8447   -108.17704   0.92187211   -107.25516   -3699.4055    4.2444478    4.2444478    4.2444478   -3699.4055    435.49599    7904.5797   -19438.292    1008.6581   -5479.2949   -8017.4777    76.465156 
   47400     644.5394   -107.84114    0.5831928   -107.25795   -12668.031    4.2519662    4.2519662    4.2519662   -12668.031    636.12076   -10382.147   -28258.068    10641.282    6502.9813     22880.24     76.87222 
   47500    604.67048   -107.80518   0.54711856   -107.25806   -12923.226    4.2442108    4.2442108    4.2442108   -12923.226   -5902.9384    17153.494   -50020.235   -2216.7925    -31593.96    1046.5245    76.452351 
   47600    1042.1527   -108.19652   0.94296162   -107.25356   -2806.7586    4.2468806    4.2468806    4.2468806   -2806.7586   -441.15111    2397.9512   -10377.076    198.42078   -7944.5962   -5949.2028    76.596718 
   47700    880.65519   -108.05515   0.79683532   -107.25831   -6682.2385    4.2489659    4.2489659    4.2489659   -6682.2385   -3640.9373   -11983.291   -4422.4871    4944.0623    3783.5917    14069.689    76.709605 
   47800    789.66923   -107.97751   0.71450931     -107.263    1744.6263    4.2408461    4.2408461    4.2408461    1744.6263   -5710.2241    17196.341   -6252.2383    2691.8059   -36320.938    11770.206    76.270667 
   47900    1327.2075   -108.45631    1.2008852   -107.25542    1992.8454    4.2526947    4.2526947    4.2526947    1992.8454   -10302.299   -429.17694    16710.012    344.56592   -2867.0941    2375.8651    76.911739 
   48000    914.67493   -108.08862   0.82761709     -107.261   -3812.1216    4.2469809    4.2469809    4.2469809   -3812.1216    7611.1411   -4166.9763    -14880.53   -1641.8092    7276.6385    10264.736    76.602144 
   48100    563.97617   -107.77485   0.51029749   -107.26455    117.97214     4.238653     4.238653     4.238653    117.97214    -6432.275    23947.663   -17161.471    8035.0408   -34410.062    6564.0537      76.1524 
   48200    1117.4546   -108.26881    1.0110964   -107.25771   -4771.1916     4.253912     4.253912     4.253912   -4771.1916    3784.4502    3662.7975   -21760.823     -5112.25   -3331.1726   -5635.2552      76.9778 
   48300    818.46406   -108.00076   0.74056348   -107.26019     8471.982      4.24321      4.24321      4.24321     8471.982    22849.656    9262.8467    -6696.557   -7523.8885   -7728.5652     9903.596    76.398278 
   48400    536.38494   -107.75098   0.48533237   -107.26564   -7398.7574     4.246649     4.246649     4.246649   -7398.7574   -19852.495    17217.529   -19561.307    5319.6634   -32364.746    5972.7224    76.584185 
   48500    1203.2458   -108.34185    1.0887221   -107.25313    -5527.566    4.2522012    4.2522012    4.2522012    -5527.566    -8473.045    4490.7399   -12600.393   -4316.0822    3478.5349   -10548.518    76.884967 
   48600    993.66102    -108.1541   0.89908537   -107.25501    14899.185    4.2374749    4.2374749    4.2374749    14899.185   -4354.8733    13834.733    35217.696   -2863.8935   -8897.9587     4041.408    76.088922 
   48700    811.34372   -107.99752   0.73412084   -107.26339   -17597.144    4.2516696    4.2516696    4.2516696   -17597.144   -38708.981    6744.9703    -20827.42    6872.0427   -29576.463    18635.567    76.856133 
   48800    1108.2647   -108.25783    1.0027812   -107.25505    2852.2105    4.2463728    4.2463728    4.2463728    2852.2105   -1442.0493    -2450.489     12449.17   -4010.6755    1606.4208   -3024.4442    76.569246 
   48900    805.80685   -107.98638   0.72911097   -107.25727    5026.0872    4.2395937    4.2395937    4.2395937    5026.0872   -178.76715   -2291.2619    17548.291   -9646.1829   -14020.785   -9540.0298    76.203111 
   49000    659.30575    -107.8545    0.5965537   -107.25794   -27626.755     4.257699     4.257699     4.257699   -27626.755    -27851.36    2761.1741   -57790.078    7247.4603   -28299.363    18771.057     77.18357 
   49100    926.13244   -108.09223   0.83798409   -107.25424    14313.712    4.2378074    4.2378074    4.2378074    14313.712    16300.454    17824.729    8815.9532   -8947.2076    5180.9326   -3846.3716    76.106834 
   49200    830.81612   -108.01244   0.75173989    -107.2607    5400.3256    4.2362699    4.2362699    4.2362699    5400.3256    5789.1915    19836.537   -9424.7514   -8452.6866   -15888.007   -13756.888    76.024027 
   49300    843.53993   -108.02234   0.76325266   -107.25908   -23087.854    4.2605293    4.2605293    4.2605293   -23087.854   -37488.502    17165.886   -48940.947    2619.4856   -27805.255    7211.8306    77.337594 
   49400    1261.1259   -108.39328    1.1410932   -107.25219    11707.215    4.2405454    4.2405454    4.2405454    11707.215    8120.0094    11324.903    15676.732   -7510.5042    6480.5534    6579.7688    76.254441 
   49500    916.47077    -108.0874   0.82924201   -107.25816    6224.3051    4.2364001    4.2364001    4.2364001    6224.3051   -3260.8694    16169.603    5764.1814   -5253.2924    -20727.11   -9012.7858    76.031037 
   49600    837.49412   -108.01655   0.75778228   -107.25877   -12146.684    4.2541779    4.2541779    4.2541779   -12146.684   -30305.785    22693.012    -28827.28    6826.4253   -23514.368    9825.3154    76.992237 
   49700    988.17823   -108.14509   0.89412443   -107.25096   -1595.6033    4.2503952    4.2503952    4.2503952   -1595.6033    13359.487   -18312.138    165.84136   -7414.4735     8871.397     5490.366    76.787042 
   49800    554.38182   -107.75686   0.50161632   -107.25524   -3910.1458    4.2415504    4.2415504    4.2415504   -3910.1458   -2426.4984    10875.828   -20179.767   -10019.667    -24700.52   -14703.183     76.30867 
   49900    872.65424   -108.04642   0.78959589   -107.25682   -1459.8879    4.2424957    4.2424957    4.2424957   -1459.8879   -965.14959    25470.902   -28885.417    10896.663   -16925.304     10986.69    76.359703 
   50000    1119.2948   -108.26833    1.0127614   -107.25557   -2657.6353    4.2527105    4.2527105    4.2527105   -2657.6353    13436.093   -11496.001    -9912.998   -1806.2439    11330.166    2557.9498    76.912592 
   50100    690.91238    -107.8891   0.62515204   -107.26395   -5863.5389     4.246952     4.246952     4.246952   -5863.5389   -20987.297    30291.517   -26894.837   -8416.0041   -28647.725   -16606.729    76.600583 
   50200    1184.6825    -108.3296    1.0719256   -107.25768    11511.346    4.2379872    4.2379872    4.2379872    11511.346   -8876.8386    30316.776    13094.101    1943.0199   -14741.405    5479.7417    76.116517 
   50300    1213.2629   -108.35326    1.0977858   -107.25547    366.96704    4.2522484    4.2522484    4.2522484    366.96704   -5868.6139    333.21025    6636.3048   -1976.8972    5263.4645    1362.2629    76.887522 
   50400    387.76362   -107.61746   0.35085667    -107.2666   -11652.089    4.2491087    4.2491087    4.2491087   -11652.089   -22178.635    17603.231   -30380.863   -6025.9283   -28703.343   -14687.915    76.717337 
   50500    1008.4713   -108.17135   0.91248604   -107.25887    9131.4726    4.2372057    4.2372057    4.2372057    9131.4726    12633.847    18821.007   -4060.4357   -6252.3674   -6917.5225   -6191.8073    76.074421 
   50600    1084.3875   -108.23767   0.98117656    -107.2565     7513.017    4.2486347    4.2486347    4.2486347     7513.017    10068.348    21233.406   -8762.7031    2679.6864    495.02796    3973.4524    76.691665 
   50700    456.37708   -107.67913   0.41293957   -107.26619   -12339.438    4.2514952    4.2514952    4.2514952   -12339.438    4796.0937    6346.8054   -48161.213    -5517.303   -29439.603   -6288.6159    76.846675 
   50800    1055.5044   -108.21452    0.9550426   -107.25948    8963.4737    4.2445798    4.2445798    4.2445798    8963.4737    23732.068    22967.174    -19808.82     4254.487    4739.8945   -6025.1246    76.472293 
   50900    1227.8215   -108.36594    1.1109587   -107.25499    14915.719    4.2432708    4.2432708    4.2432708    14915.719    7829.6068     35755.64    1161.9104    2388.2029    -4181.434    1929.6481    76.401564 
   51000    691.59863   -107.89166   0.62577297   -107.26589    -48.55009    4.2453005    4.2453005    4.2453005    -48.55009    848.33778    13416.768   -14410.756   -7898.6505   -28318.308   -1738.5242    76.511252 
   51100    971.72511   -108.14063    0.8792373   -107.26139   -33.921872    4.2500038    4.2500038    4.2500038   -33.921872   -8227.9891    15032.162   -6905.9389   -3703.7319    8641.0362   -9436.9344    76.765831 
   51200    1050.3748   -108.20537   0.95040115   -107.25497    13795.517    4.2435107    4.2435107    4.2435107    13795.517    17075.852    22935.863     1374.837    4760.2651    -3931.783    1613.7424    76.414522 
   51300    666.27878    -107.8629   0.60286304   -107.26004   -7622.6117     4.247728     4.247728     4.247728   -7622.6117   -130.59202   -221.76909   -22515.474   -11117.133   -27769.634   -6956.1691    76.642579 
   51400    874.69496   -108.04889   0.79144239   -107.25745   -673.33745    4.2482144    4.2482144    4.2482144   -673.33745    11243.209    6323.2493    -19586.47   -8108.5624    6735.5861    -8438.144    76.668906 
   51500     979.3452   -108.14047   0.88613212   -107.25433    21758.824    4.2372938    4.2372938    4.2372938    21758.824    44125.468    28624.754   -7473.7501    6382.2973   -6363.8097    9617.2089    76.079166 
   51600    793.13726   -107.98185   0.71764726    -107.2642   -8630.6853    4.2514213    4.2514213    4.2514213   -8630.6853   -7348.0815     -3206.13   -15337.844   -3196.8856   -22033.627     -5830.04    76.842668 
   51700    1008.5628   -108.16991   0.91256882   -107.25735    1796.7257    4.2502607    4.2502607    4.2502607    1796.7257   -807.38502    8838.6504   -2641.0884   -5675.1075    7209.0026   -7668.6378    76.779752 
   51800    1098.2704   -108.24589   0.99373818   -107.25215     18306.54     4.234093     4.234093     4.234093     18306.54    13327.118    24698.176    16894.325    1955.0084   -10562.118    16896.119    75.906887 
   51900    762.68998   -107.95021   0.69009792   -107.26011   -17890.635    4.2525524    4.2525524    4.2525524   -17890.635   -46596.042   -11232.865    4157.0032   -5115.3138    -19523.48    846.50176    76.904014 
   52000    917.38221   -108.08602    0.8300667   -107.25595    498.75708    4.2468024    4.2468024    4.2468024    498.75708   -6380.6829    8768.9048   -891.95063   -9535.6342    9278.2751   -10676.215    76.592484 
   52100    949.51269   -108.11335   0.85913904   -107.25421      7111.07     4.236972     4.236972     4.236972      7111.07    15546.479    4279.4744    1507.2565    5934.6595   -7448.7607     12264.43     76.06183 
   52200    508.63456   -107.72179   0.46022324   -107.26156   -19511.551     4.254677     4.254677     4.254677   -19511.551   -28474.882   -9856.8376   -20202.935   -7095.6521   -24377.298    1688.0335    77.019337 
   52300    1072.8985   -108.22452   0.97078107   -107.25374    5505.1524    4.2427729    4.2427729    4.2427729    5505.1524    12114.185    7734.0919   -3332.8197   -11491.994    4501.1799   -9257.5662    76.374673 
   52400    1063.1095   -108.21671   0.96192384   -107.25478    4609.6022    4.2400138    4.2400138    4.2400138    4609.6022    7405.6393    8640.1865   -2217.0192    15655.315   -9350.8957    9175.1948    76.225766 
   52500    650.82526   -107.85241   0.58888037   -107.26353     -15319.6    4.2513778    4.2513778    4.2513778     -15319.6   -27850.544   -3880.0902   -14228.166   -7706.3464   -25513.901    6790.8038    76.840311 
   52600    1364.1562   -108.48801    1.2343172   -107.25369      6448.35    4.2419985    4.2419985    4.2419985      6448.35    1168.9835   -2714.0837     20890.15   -20203.891    2914.8823    1612.1654    76.332858 
   52700    870.90118    -108.0466   0.78800969   -107.25859   -2680.0101    4.2469852    4.2469852    4.2469852   -2680.0101   -19957.161    1860.6092    10056.521     12920.31       -15231    9083.0034    76.602378 
   52800    561.56144   -107.77142   0.50811259   -107.26331   -19486.391    4.2445093    4.2445093    4.2445093   -19486.391   -32342.196   -18905.452   -7211.5244    -3208.046   -22929.564    3560.2304    76.468481 
   52900     1006.391   -108.16738   0.91060368   -107.25677    9638.4324    4.2413252    4.2413252    4.2413252    9638.4324    791.65114    15222.155    12901.491   -15535.382    10485.331   -6032.3421    76.296519 
   53000    699.63622   -107.89523   0.63304555   -107.26219   -11621.869    4.2497715    4.2497715    4.2497715   -11621.869   -13311.036    -774.4011    -20780.17    11677.398   -14001.475    4479.5782    76.753246 
   53100    612.20868   -107.81765   0.55393928   -107.26371   -5876.4613    4.2417076    4.2417076    4.2417076   -5876.4613    9598.5254    3147.1734   -30375.083    3602.2452    -22085.59    4709.0259    76.317159 
   53200    1243.8248   -108.37906    1.1254388   -107.25362    8854.9434    4.2478538    4.2478538    4.2478538    8854.9434    7876.0748    26536.159   -7847.4033   -13563.995    9286.2735   -3409.1843    76.649385 
   53300    1028.3891   -108.18987   0.93050808   -107.25936    -5661.156    4.2476654    4.2476654    4.2476654    -5661.156   -3125.3189    10149.376   -24007.525     2365.824   -22018.615    2109.6619    76.639191 
   53400    900.95404   -108.07698   0.81520215   -107.26178    16545.116    4.2385206    4.2385206    4.2385206    16545.116    20589.087    34766.164   -5719.9028    1522.1048   -20117.064    7535.1019    76.145266 
   53500    1387.2352    -108.5103    1.2551996    -107.2551     6542.705    4.2500632    4.2500632    4.2500632     6542.705   -2160.6295    11925.858    9862.8864    116.53402    9237.6547    103.96917    76.769048 
   53600    688.62726   -107.88554   0.62308442   -107.26246    3237.9087    4.2458138    4.2458138    4.2458138    3237.9087    20086.782    -2448.781   -7924.2747    4780.7183   -20318.177   -13072.836    76.539009 
   53700    563.26662   -107.76943   0.50965548   -107.25977    9232.7012    4.2427589    4.2427589    4.2427589    9232.7012    10419.876    20338.753   -3060.5254    4024.3057   -12362.622    3094.1531    76.373915 
   53800     1014.163   -108.16839   0.91763597   -107.25076    -77.78071    4.2487323    4.2487323    4.2487323    -77.78071    11024.459    -6233.151   -5024.6497    824.19119    8345.8105   -962.99583     76.69695 
   53900    469.23709   -107.68576   0.42457558   -107.26119    2078.5079    4.2427272    4.2427272    4.2427272    2078.5079    35590.986    2875.8457   -32231.308     4683.127   -23181.583   -20939.846    76.372206 
   54000    885.77624   -108.06317   0.80146896    -107.2617    653.74797    4.2445213    4.2445213    4.2445213    653.74797   -337.93867    21392.886   -19093.704    6652.6069   -11104.474     3568.098    76.469132 
   54100    1392.4104   -108.51512    1.2598822   -107.25524    1783.8721    4.2461909    4.2461909    4.2461909    1783.8721    19965.023   -2459.5716   -12153.835   -5912.1117    5158.8064   -2793.2064    76.559404 
   54200    848.78374   -108.03164   0.76799736   -107.26364   -1594.6772    4.2446261    4.2446261    4.2446261   -1594.6772     17685.39    16272.979   -38742.401   -671.74083   -24166.508    -22732.68    76.474795 
   54300    1114.7339   -108.26822    1.0086347   -107.25959   -7251.6375    4.2461971    4.2461971    4.2461971   -7251.6375   -25548.303    16838.005   -13044.615    11883.629   -5802.1665    942.24423    76.559738 
   54400    1095.2326   -108.24784   0.99098946   -107.25686   -509.26945    4.2428917    4.2428917    4.2428917   -509.26945    128.79514    2481.1084   -4137.7119    4978.6697    7381.6491   -5751.7007    76.381088 
   54500    494.05597   -107.71061   0.44703222   -107.26357    -9484.912    4.2448932    4.2448932    4.2448932    -9484.912    5431.1218   -1473.4703   -32412.388    -7201.391   -26929.646    -24062.84    76.489234 
   54600    779.32697   -107.96393   0.70515142   -107.25878   -12163.789    4.2481826    4.2481826    4.2481826   -12163.789   -21675.665   -5501.7659   -9313.9362     11883.24   -810.31559    3067.6851    76.667187 
   54700    797.16983    -107.9776   0.72129602    -107.2563    3251.9028     4.242656     4.242656     4.242656    3251.9028    11860.269    1767.7578   -3872.3183    8010.5306    11546.789    -8910.994     76.36836 
   54800    682.13586   -107.87927   0.61721086   -107.26206   -11676.968    4.2457579    4.2457579    4.2457579   -11676.968     16200.93   -9001.4094   -42230.424   -6838.8556   -23597.201   -24912.581    76.535983 
   54900     1090.157   -108.24299   0.98639699    -107.2566   -7732.1508    4.2501125    4.2501125    4.2501125   -7732.1508   -14490.662    4503.3062   -13209.097    7902.2284    2242.6144    8363.7388    76.771721 
   55000    1129.1768   -108.27807    1.0217029   -107.25637    1278.0689    4.2404872    4.2404872    4.2404872    1278.0689    3476.3841    726.72721   -368.90471    1357.7091    6426.3472   -12055.309    76.251305 
   55100    886.79952   -108.06433   0.80239484   -107.26193   -10661.543    4.2435342    4.2435342    4.2435342   -10661.543     3780.307   -6096.5093   -29668.425   -770.30734   -19360.386   -32378.786    76.415792 
   55200    1094.5047   -108.24714   0.99033086   -107.25681   -5612.8968    4.2505766    4.2505766    4.2505766   -5612.8968   -28022.287    14362.584   -3178.9864    7944.1223    518.54453    11287.936    76.796876 
   55300    937.58931   -108.10611   0.84835051   -107.25776   -10055.641    4.2420811    4.2420811    4.2420811   -10055.641   -13685.952   -12992.277   -3488.6947   -2471.1127    4939.8484   -6792.9696     76.33732 
   55400    454.10443    -107.6739   0.41088324   -107.26301    -7835.913     4.241827     4.241827     4.241827    -7835.913   -657.39366    6759.0799   -29609.425    -5711.183    -19451.87   -27545.727    76.323602 
   55500    896.25825   -108.06787    0.8109533   -107.25692   -8823.3578    4.2500463    4.2500463    4.2500463   -8823.3578   -13417.425   -983.18407   -12069.464    5755.3814    447.86131    6071.9645    76.768134 
   55600    821.73851    -108.0015   0.74352627   -107.25797   -448.03349      4.24379      4.24379      4.24379   -448.03349    8538.5486   -12022.997    2140.3481   -4078.4127    9429.8328   -9192.4292     76.42961 
   55700     639.4904   -107.83981   0.57862436   -107.26118    -2761.641    4.2448597    4.2448597    4.2448597    -2761.641    13926.176   -461.82309   -21749.275   -2666.4886   -19024.619   -26425.357     76.48742 
   55800    1239.1127   -108.37484    1.1211752   -107.25366   -7302.3847    4.2504055    4.2504055    4.2504055   -7302.3847   -5428.0887   -7852.1767   -8626.8888     4166.206    615.50196    9455.9121    76.787599 
   55900    1154.5415   -108.30239    1.0446534   -107.25773    5984.1692    4.2384994    4.2384994    4.2384994    5984.1692    3650.7098     6822.843    7478.9549   -5336.1324    9247.4022   -13726.481    76.144119 
   56000    857.75679   -108.04025   0.77611637   -107.26413    1013.2459    4.2423006    4.2423006    4.2423006    1013.2459    3758.3288     2386.976   -3105.5672    89.832376   -9945.9506   -27613.306     76.34917 
   56100     1215.797    -108.3557    1.1000787   -107.25562   -8935.0331    4.2542829    4.2542829    4.2542829   -8935.0331   -20171.509   -2270.9213   -4362.6691    2762.4403    1113.7392    24863.179    76.997939 
   56200    772.68313    -107.9566   0.69913994   -107.25746    6919.5223    4.2413757    4.2413757    4.2413757    6919.5223    5740.4359    9510.2102    5507.9207   -9493.7024   -171.90828   -10504.221    76.299243 
   56300    555.10492   -107.76223    0.5022706   -107.25996   -6770.9856    4.2382411    4.2382411    4.2382411   -6770.9856    11794.572   -11150.081   -20957.447    -919.4018   -9855.2202   -39543.461    76.130204 
   56400    829.15968   -108.00642    0.7502411   -107.25618   -8735.7722    4.2506334    4.2506334    4.2506334   -8735.7722   -11466.754    13412.161   -28152.724    973.79906   -2779.9346    20141.595    76.799953 
   56500    690.66522   -107.88284   0.62492841   -107.25791    -1310.806    4.2453429    4.2453429    4.2453429    -1310.806    6890.2637   -7025.9156    -3796.766   -7213.5058   -129.61754     -10240.4    76.513545 
   56600    771.16976   -107.95905   0.69777061   -107.26128   -8010.5728    4.2412247    4.2412247    4.2412247   -8010.5728     15889.28   -8245.3869   -31675.611   -1187.3623   -9909.2525   -41985.183    76.291093 
   56700    1215.4208   -108.35544    1.0997383    -107.2557    4194.8109    4.2458901    4.2458901    4.2458901    4194.8109   -7114.2849    31125.572   -11426.854   -3516.6139   -7985.3795    17023.992    76.543135 
   56800    1143.0188   -108.29433    1.0342274    -107.2601   -3014.1078     4.243847     4.243847     4.243847   -3014.1078    8358.1617   -7521.9169   -9878.5683   -2621.0836    1105.6278   -4778.8295    76.432694 
   56900    905.88961   -108.08287   0.81966796    -107.2632   -2166.9551    4.2462808    4.2462808    4.2462808   -2166.9551     3617.816    11978.678   -22097.359   -443.36313   -3053.4743   -34197.848    76.564266 
   57000    1278.1215    -108.4099    1.1564712   -107.25342    3219.8507    4.2457833    4.2457833    4.2457833    3219.8507    -13496.71    26787.017   -3630.7554   -77.920976   -2347.4323    11671.675    76.537361 
   57100    666.17001   -107.86413   0.60276462   -107.26136    1015.7435    4.2397463    4.2397463    4.2397463    1015.7435    11700.154    2490.9587   -11143.882    1086.6386    1439.2041   -22661.568    76.211344 
   57200    434.53106   -107.65957   0.39317284    -107.2664    -11635.53    4.2462069    4.2462069    4.2462069    -11635.53    657.77733    4463.3498   -40027.716   -8263.5518   -7084.3921   -31388.433    76.560271 
   57300    1005.4742   -108.16422   0.90977422   -107.25444   -9110.8406    4.2493765    4.2493765    4.2493765   -9110.8406     -18589.6    19214.565   -27957.487    5022.0774   -3418.5388    13535.119    76.731844 
   57400    593.66287   -107.79808   0.53715864   -107.26092   -6755.0304    4.2402992    4.2402992    4.2402992   -6755.0304    16428.245    3157.8577   -39851.194    3196.7324    4664.9472   -36328.485    76.241162 
   57500    780.46038   -107.97099   0.70617696   -107.26481   -7940.4712    4.2405461    4.2405461    4.2405461   -7940.4712    4688.8451   -6101.7949   -22408.464   -9387.1457   -10088.708   -23299.553     76.25448 
   57600    1365.8763    -108.4916    1.2358735   -107.25573   -6057.1774    4.2507623    4.2507623    4.2507623   -6057.1774   -31133.711     16071.05   -3108.8708    4867.2759   -7041.6293    14381.128    76.806942 
   57700    960.70648   -108.13211   0.86926741   -107.26284    -11436.98    4.2450079    4.2450079    4.2450079    -11436.98    6063.3017     -20246.2   -20128.043    6626.6964    4485.3811   -42297.814    76.495433 
   57800    1016.2869   -108.18125   0.91955776    -107.2617    4372.6783    4.2358984    4.2358984    4.2358984    4372.6783    8202.4612    6131.2229    -1215.649   -7814.4528   -5711.8346   -22802.363    76.004024 
   57900    1219.5624   -108.36141    1.1034857   -107.25792   -5714.1915    4.2474563    4.2474563    4.2474563   -5714.1915    -20371.77    6168.2284   -2939.0332    11182.053    3032.1323    12714.728    76.627871 
   58000     545.7485   -107.75787   0.49380471   -107.26406   -17885.179    4.2488051    4.2488051    4.2488051   -17885.179    7886.0114   -20195.384   -41346.165    5352.8514    4126.6219   -38731.366    76.700896 
   58100    701.07797   -107.89267   0.63435008   -107.25832    5530.8606    4.2380093    4.2380093    4.2380093    5530.8606    12210.449    18088.898   -13706.766   -11887.119   -8002.0453   -12935.353     76.11771 
   58200    927.83606   -108.09556   0.83952556   -107.25603   -3052.9163    4.2451506    4.2451506    4.2451506   -3052.9163   -12891.501    25170.328   -21437.576    9616.8737    2129.0414    7231.7449    76.503148 
   58300    500.99734   -107.71677   0.45331292   -107.26346   -14476.462    4.2474487    4.2474487    4.2474487   -14476.462   -2761.4139     3773.777   -44441.749    3650.6517    5192.8317   -39323.652    76.627457 
   58400    1050.4242   -108.20871   0.95044585   -107.25826   -917.15558    4.2412756    4.2412756    4.2412756   -917.15558   -5974.5059    14589.205   -11366.166   -5901.8656   -3657.1465   -8328.0239    76.293844 
   58500    1108.4428   -108.25959    1.0029424   -107.25665     10576.78     4.244387     4.244387     4.244387     10576.78   -9779.0571    40757.964    751.43332    2692.1984   -3663.5906    3410.5248     76.46187 
   58600    814.99468    -108.0005   0.73742431   -107.26308   -7016.4085    4.2449803    4.2449803    4.2449803   -7016.4085    2050.4783   -6081.3553   -17018.349    10619.661    6621.8589   -35097.649    76.493941 
   58700    1098.9755   -108.25424   0.99437613   -107.25986    5492.0568    4.2439801    4.2439801    4.2439801    5492.0568   -3454.8794    10409.288    9521.7619   -266.50291   -4172.6713    2409.2023    76.439884 
   58800    1138.8463   -108.28717    1.0304521   -107.25672     6010.103     4.244934     4.244934     4.244934     6010.103   -3098.4947    23043.929   -1915.1258    939.54194   -5062.7602    3169.0087    76.491436 
   58900    629.96999   -107.83396   0.57001009   -107.26395   -10710.156    4.2431164    4.2431164    4.2431164   -10710.156    20924.611   -37236.828   -15818.252    10910.314    6998.5682   -40359.414    76.393222 
   59000    906.11818   -108.08055   0.81987477   -107.26068    5882.6916    4.2436093    4.2436093    4.2436093    5882.6916    6056.1817    12438.003   -846.11034   -3788.7766   -7257.4647    2961.0286    76.419849 
   59100    1103.6713   -108.25524   0.99862497   -107.25661   -3276.0582     4.248238     4.248238     4.248238   -3276.0582   -5142.6236    11784.819    -16470.37    376.23853   -2155.4576    2692.6147    76.670185 
   59200    509.27002    -107.7259   0.46079821    -107.2651   -6951.7355    4.2405861    4.2405861    4.2405861   -6951.7355    10212.795    -14493.93   -16574.071    11396.599    7382.1515   -37325.624    76.256638 
   59300    886.73049   -108.06495   0.80233238   -107.26262   -686.96944    4.2442886    4.2442886    4.2442886   -686.96944   -17064.324    21356.177   -6352.7615    365.88918   -4967.0194   -1822.1758    76.456557 
   59400    1098.6528    -108.2498   0.99408416   -107.25571   -9549.4746    4.2513516    4.2513516    4.2513516   -9549.4746   -25535.397    3871.5313   -6984.5583   -3295.7387   -1432.9891    4392.3305     76.83889 
   59500    445.96901   -107.66708   0.40352213   -107.26355    2320.6733    4.2374404    4.2374404    4.2374404    2320.6733   -578.14522    1374.9552    6165.2099    16706.451     6477.994   -31173.785    76.087063 
   59600    1038.9873   -108.20401   0.94009757   -107.26391   -1795.0964    4.2452677    4.2452677    4.2452677   -1795.0964   -14822.292     5638.567    3798.4358    2868.4457   -7038.6083   -6218.6564     76.50948 
   59700    1334.7101   -108.46461    1.2076738   -107.25693    1767.2575    4.2491516    4.2491516    4.2491516    1767.2575    3997.2609    190.21908    1114.2924   -9136.3567   -3244.2367    1658.7026    76.719661 
   59800    653.37097   -107.85707   0.59118378   -107.26588    10895.502    4.2364528    4.2364528    4.2364528    10895.502    29470.974    3418.4249   -202.89134    15151.065    13691.917   -30472.275    76.033874 
   59900     1202.729   -108.35207    1.0882544   -107.26382   -7291.2204    4.2509286    4.2509286    4.2509286   -7291.2204   -1785.8533   -9233.5291   -10854.279    1153.3936     -4856.82   -2009.2889    76.815955 
   60000    1237.4316   -108.37737    1.1196542   -107.25771    13559.001    4.2444979    4.2444979    4.2444979    13559.001    9051.6337    31332.323    293.04588   -3574.9032   -4555.0139    1075.9523    76.467867 
   60100    457.53027   -107.68196     0.413983   -107.26798   -5678.8802    4.2369925    4.2369925    4.2369925   -5678.8802   -3570.2178   -2053.8713   -11412.552    12746.843    8887.9292   -31471.381    76.062936 
   60200     732.9199   -107.92738   0.66316133   -107.26422   -15264.416    4.2511149    4.2511149    4.2511149   -15264.416   -40141.997    8111.5517   -13762.802    -690.2791    77.821571   -10779.993    76.826054 
   60300    1002.2895     -108.163   0.90689263   -107.25611     7906.997    4.2421116    4.2421116    4.2421116     7906.997   -17074.906    36555.673     4240.224   -1534.7625    1343.0714    5286.5541    76.338965 
   60400    253.46999   -107.49796   0.22934497   -107.26862     -16172.7    4.2456546    4.2456546    4.2456546     -16172.7   -17566.888    -9200.991    -21750.22    9783.3982    7062.7857   -31161.801    76.530399 
   60500    914.83352   -108.09111   0.82776059   -107.26335   -2387.4606    4.2461108    4.2461108    4.2461108   -2387.4606   -7317.8511    16962.973   -16807.504    1313.7369    2967.3176   -13406.683    76.555069 
   60600     1466.447   -108.58331    1.3268721   -107.25644    9637.8503    4.2390334    4.2390334    4.2390334    9637.8503    17165.371    16389.216   -4641.0364    2638.2708    2591.8849    10271.563    76.172903 
   60700    630.26433   -107.84147   0.57027641   -107.27119    -13033.79    4.2495435    4.2495435    4.2495435    -13033.79    6603.2736   -10221.888   -35482.756    11008.128    10427.099   -29396.358    76.740892 
   60800    1274.7591   -108.41573    1.1534289   -107.26231    646.11557    4.2437309    4.2437309    4.2437309    646.11557    17259.689   -1860.3972   -13460.945    943.46813    -1115.435   -14934.925    76.426421 
   60900    1339.0641   -108.46859    1.2116134   -107.25698    9734.4622    4.2423461    4.2423461    4.2423461    9734.4622    5111.1635    19084.796    5007.4272   -5978.8011   -9990.8414    3757.9344    76.351627 
   61000    501.77466   -107.72215   0.45401625   -107.26814   -14001.883    4.2475257    4.2475257    4.2475257   -14001.883   -16667.222   -10669.227     -14669.2    10853.482     9441.024    -25819.51    76.631626 
   61100    849.65869   -108.03005   0.76878904   -107.26127   -1069.6723    4.2422322    4.2422322    4.2422322   -1069.6723   -3962.3749    1523.2131   -769.85515    8049.8957    3230.8406   -9527.7593    76.345478 
   61200    923.86734   -108.09306   0.83593458   -107.25712    6163.3985    4.2450753    4.2450753    4.2450753    6163.3985   -12556.889    25697.451     5349.633   -10807.123   -11686.814    6355.6877    76.499078 
   61300     559.3811   -107.76998   0.50613978   -107.26384     -13280.5    4.2456417    4.2456417    4.2456417     -13280.5   -871.74103   -14571.485   -24398.275    7397.3021    4172.3117   -33285.465    76.529699 
   61400    770.54227   -107.95844   0.69720284   -107.26124    4213.2724    4.2435667    4.2435667    4.2435667    4213.2724    15968.834    4512.9143   -7841.9306    6762.0392     3099.148   -10599.181    76.417546 
   61500    1115.3177   -108.26427    1.0091629   -107.25511   -611.27047    4.2467266    4.2467266    4.2467266   -611.27047   -2388.1037    13600.658   -13046.366   -12364.445   -10230.028    6091.2007    76.588383 
   61600    820.92719   -108.00403   0.74279217   -107.26124   -5033.6057    4.2419383    4.2419383    4.2419383   -5033.6057    31582.398   -12700.549   -33982.666    9961.8539    2613.9115   -32835.237     76.32961 
   61700    891.41356   -108.06878   0.80656972   -107.26221   -745.54999    4.2439151    4.2439151    4.2439151   -745.54999     20459.86   -6850.9563   -15845.554    4468.9668   -131.49318    -11480.27    76.436373 
   61800    1284.8604   -108.41882    1.1625687   -107.25625   -6352.5513     4.247411     4.247411     4.247411   -6352.5513   -12599.777   -1003.6442   -5454.2333    -7127.079   -13801.993    10569.864    76.625418 
   61900    881.82521   -108.05899   0.79789398   -107.26109    3222.7994    4.2427719    4.2427719    4.2427719    3222.7994    18225.893   -2612.0004    -5945.494    5627.6085    7641.5712   -21300.109    76.374616 
   62000    835.99103   -108.01737   0.75642225   -107.26095   -3575.9661    4.2443771    4.2443771    4.2443771   -3575.9661   -5908.9966   -4748.5903     -70.3115    5840.8115   -433.23967   -17206.589    76.461338 
   62100    1110.3359   -108.26206    1.0046553    -107.2574   -781.51186    4.2434891    4.2434891    4.2434891   -781.51186    -24901.94    22407.884    149.52102   -271.08221   -18602.328    171.18482    76.413355 
   62200      687.473   -107.88289   0.62204001   -107.26085     2883.242    4.2442121    4.2442121    4.2442121     2883.242    25836.778    9492.4478     -26679.5   -4414.5873    4181.0121   -28742.137    76.452419 
   62300    646.61655   -107.84529   0.58507224   -107.26021   -12711.259    4.2472217    4.2472217    4.2472217   -12711.259   -174.45251   -5119.5888   -32839.735    13719.391    3816.4055     -10736.6    76.615174 
   62400    908.28081    -108.0773   0.82183157   -107.25547    70.655023    4.2428966    4.2428966    4.2428966    70.655023   -8920.3308    29487.835   -20355.539    1326.6239   -15197.101    3181.0248     76.38135 
   62500    763.05493   -107.94832   0.69042814   -107.25789     3457.736    4.2435756    4.2435756    4.2435756     3457.736    34044.191    2678.3077   -26349.291   -7992.5405    1297.8785   -30080.174    76.418028 
   62600    954.11373   -108.12315   0.86330215   -107.25985   -13503.766    4.2461053    4.2461053    4.2461053   -13503.766   -7241.6168   -15430.149   -17839.532    14929.136    6817.7346   -1556.9764    76.554774 
   62700    1031.2931   -108.19213   0.93313564   -107.25899    2330.5319    4.2436671    4.2436671    4.2436671    2330.5319   -14524.527    22420.533   -904.40948    4998.4686    -12811.63    6951.8459    76.422975 
   62800    1119.6652   -108.27096    1.0130966   -107.25786   -2147.7357    4.2440308    4.2440308    4.2440308   -2147.7357    20845.466   -13361.529   -13927.145   -4459.3832   -2617.5249   -33367.552    76.442626 
   62900    1036.5521   -108.19608   0.93789412   -107.25818   -5416.5791     4.244902     4.244902     4.244902   -5416.5791    -11768.93    5061.3726   -9542.1802    6160.6355    3925.1417    -10772.79    76.489707 
   63000    783.43766   -107.96818   0.70887086   -107.25931    3168.5121    4.2430563    4.2430563    4.2430563    3168.5121   -20701.116    40242.451   -10035.798    11489.164   -4287.7111    283.38985    76.389978 
   63100    812.27303   -107.99341   0.73496171   -107.25845   -6355.7736    4.2453071    4.2453071    4.2453071   -6355.7736     19026.09   -6580.6788   -31512.732   -972.16674   -246.43121   -22562.861    76.511608 
   63200    783.19935   -107.96575   0.70865523   -107.25709   -2031.7841    4.2453006    4.2453006    4.2453006   -2031.7841   -3968.6464    23599.261   -25725.967   -1258.8335    6475.6121   -4777.5984    76.511258 
   63300    777.67627    -107.9615   0.70365783   -107.25785   -409.37002    4.2430876    4.2430876    4.2430876   -409.37002   -7932.7123    26125.186   -19420.584    11757.198    1790.6789   -15.904788    76.391669 
   63400    878.45457   -108.05408   0.79484416   -107.25924    2240.6536    4.2441068    4.2441068    4.2441068    2240.6536    41048.459   -22753.541   -11572.957   -8639.3172   -2123.3155   -19020.212    76.446732 
   63500     1055.462   -108.21318   0.95500419   -107.25817    9288.7303    4.2441675    4.2441675    4.2441675    9288.7303   -3427.5865    21320.991    9972.7868   -6450.8651    3941.8274    1776.0181    76.450012 
   63600     1050.262   -108.20814   0.95029917   -107.25784    2548.3125    4.2448785    4.2448785    4.2448785    2548.3125    64.524681    3112.3005    4468.1123    12730.415   -4791.2633   -4127.9726    76.488439 
   63700    821.17221   -108.00248   0.74301387   -107.25946    1810.0963    4.2450117    4.2450117    4.2450117    1810.0963    35151.697   -23062.471   -6658.9371   -6655.3256   -2132.6173   -27613.575    76.495637 
   63800    899.41683   -108.07137   0.81381125   -107.25755     9713.805    4.2407867    4.2407867    4.2407867     9713.805   -8018.5819    34149.227    3010.7702   -11587.271    7936.1832    631.48893    76.267463 
   63900    945.58554   -108.11296   0.85558567   -107.25738    1163.9826    4.2458707    4.2458707    4.2458707    1163.9826    9175.2995    10113.017   -15796.369    12475.928    1517.4491    293.51652    76.542086 
   64000    750.81608   -107.93946   0.67935417    -107.2601   -5417.3964    4.2472477    4.2472477    4.2472477   -5417.3964    14980.854   -6722.5836    -24510.46   -7490.7425   -2879.4121   -26140.234    76.616583 
   64100    956.62876   -108.12426   0.86557781   -107.25868    6747.1607    4.2400198    4.2400198    4.2400198    6747.1607   -1199.6316    20912.538    528.57603   -21880.452    6543.3587    -1369.258    76.226089 
   64200    1197.7679   -108.34062    1.0837656   -107.25686    2161.2743    4.2454032    4.2454032    4.2454032    2161.2743    19439.623     -6943.86   -6011.9405    8466.8442    9914.1405    3077.4188    76.516807 
   64300    804.60974   -107.98953    0.7280278   -107.26151    94.053413     4.245845     4.245845     4.245845    94.053413    20634.118   -13842.924   -6509.0342   -5133.1097   -3332.1708   -23717.485    76.540694 
   64400    841.73276   -108.02263   0.76161749   -107.26102    3128.0059    4.2420712    4.2420712    4.2420712    3128.0059    -1797.095   -5814.5203    16995.633   -22547.685    535.15169   -5376.6286    76.336784 
   64500    983.21769   -108.14504   0.88963603   -107.25541   -2117.7135    4.2466488    4.2466488    4.2466488   -2117.7135   -9030.9978   -2433.0613    5110.9187    3136.0944    5914.5944   -1090.0341    76.584174 
   64600    508.73594   -107.72092   0.46031497   -107.26061    -6037.639    4.2446534    4.2446534    4.2446534    -6037.639   -8786.1071    -3636.095   -5690.7148     -3221.33   -1551.1738   -30128.218    76.476271 
   64700    705.50786   -107.89944   0.63835833   -107.26108   -6779.8117    4.2444139    4.2444139    4.2444139   -6779.8117   -11836.627   -12666.852    4164.0433   -21356.794    2677.1282   -2248.8965    76.463324 
   64800    1085.1544   -108.23701   0.98187051   -107.25514    6228.0441    4.2446544    4.2446544    4.2446544    6228.0441   -127.56821    27203.128   -8391.4278   -1442.4339    579.20168   -6.4389725    76.476326 
   64900    912.79126   -108.08857   0.82591271   -107.26266   -6042.4989    4.2432921    4.2432921    4.2432921   -6042.4989    18398.867   -15386.963   -21139.401   -8323.8923   -2019.0767   -34140.042    76.402715 
   65000    1086.0187    -108.2455   0.98265256   -107.26285   -6906.4044    4.2457638    4.2457638    4.2457638   -6906.4044    5331.3589   -21928.145   -4122.4271   -22443.116    1002.2816   -4790.0683    76.536302 
   65100    1372.1931   -108.49794    1.2415891   -107.25635    3926.0516    4.2430317    4.2430317    4.2430317    3926.0516    12724.965    8192.6343   -9139.4444     4931.192    11053.359     5415.856    76.388647 
   65200    731.21054   -107.92554   0.66161466   -107.26393   -13782.241    4.2442598    4.2442598    4.2442598   -13782.241    19002.582   -34830.612   -25518.692   -10756.672    3077.0975   -33207.894    76.454997 
   65300     670.8029   -107.86883   0.60695656   -107.26187    -7607.012    4.2461746    4.2461746    4.2461746    -7607.012   -5081.5634   -15948.228   -1791.2443   -28024.803     -7696.81    -6688.848    76.558521 
   65400    1028.9772    -108.1858   0.93104015   -107.25476    1022.4001    4.2412309    4.2412309    4.2412309    1022.4001   -2790.4747    8822.8174   -2965.1423    7654.9019    7333.4235    5288.6971    76.291432 
   65500    357.34441   -107.58794   0.32333273   -107.26461   -17857.515     4.245851     4.245851     4.245851   -17857.515   -7644.0737   -29317.242   -16611.229   -9372.5006    3346.9961   -34302.408     76.54102 
   65600    652.19105     -107.854   0.59011617   -107.26388   -12740.332    4.2469278    4.2469278    4.2469278   -12740.332   -31949.278   -6908.8448    637.12742   -24610.618    -5715.913   -5941.6767    76.599269 
   65700    1362.2867   -108.48612    1.2326256    -107.2535    5055.4054    4.2418841    4.2418841    4.2418841    5055.4054    6094.4323    10374.436   -1302.6521    5710.7822   -3891.3645     3228.016    76.326681 
   65800     803.7135   -107.99052   0.72721686    -107.2633   -5169.8078    4.2455277    4.2455277    4.2455277   -5169.8078    23263.933   -21765.735   -17007.621   -6476.4713   -152.94882   -31211.303    76.523537 
   65900    1022.1983   -108.18763   0.92490648   -107.26272   -3842.5561     4.245729     4.245729     4.245729   -3842.5561    1916.3783   -3073.3731   -10370.674   -18496.702    199.56545   -4363.8136    76.534423 
   66000    1433.4168    -108.5512    1.2969857   -107.25422    5762.7688    4.2429467    4.2429467    4.2429467    5762.7688    12432.362    13265.183   -8409.2387     2885.949   -967.06534   -1023.1368    76.384056 
   66100    686.22605   -107.88452   0.62091176    -107.2636   -1640.8444    4.2442206    4.2442206    4.2442206   -1640.8444    14733.018   -10601.868   -9053.6832   -8050.8461    2639.0957   -23279.911    76.452879 
   66200    644.76084   -107.84575   0.58339316   -107.26236   -8043.0574    4.2457604    4.2457604    4.2457604   -8043.0574    -21838.34    7485.7027   -9776.5345   -19767.944   -11949.942   -6066.2614    76.536122 
   66300    989.23319   -108.15017   0.89507898   -107.25509   -1910.3484    4.2456622    4.2456622    4.2456622   -1910.3484   -21113.339    15830.032   -447.73762    7835.7572   -6541.3512   -44.190936    76.530809 
   66400    598.80562   -107.80295   0.54181191   -107.26113   -1871.2362    4.2424518    4.2424518    4.2424518   -1871.2362    4007.0814   -10808.099    1187.3091   -6983.4169    6276.9482   -21355.636    76.357333 
   66500    729.00636   -107.92244   0.65962027   -107.26281   -6996.4848    4.2439519    4.2439519    4.2439519   -6996.4848   -22561.093    1676.2437    -104.6057   -21943.317   -8087.5904   -7908.2186    76.438361 
   66600    1236.8966    -108.3754      1.11917   -107.25623    826.20726    4.2482899    4.2482899    4.2482899    826.20726   -11456.837    10878.108    3057.3515    9497.9818   -14617.602    6534.2874    76.672999 
   66700    1009.0746   -108.17287   0.91303192   -107.25984    1304.6399    4.2419629    4.2419629    4.2419629    1304.6399    25048.466   -8914.4168   -12220.129   -11176.305    4627.1762   -22016.847     76.33094 
   66800    816.85559   -108.00252    0.7391081   -107.26341   -3306.5525    4.2424597    4.2424597    4.2424597   -3306.5525    5310.9604    1727.6451   -16958.263   -22270.317     5802.327   -10386.926    76.357758 
   66900    1102.6159   -108.25399   0.99767006   -107.25632   -5285.3144     4.249388     4.249388     4.249388   -5285.3144   -4577.1452    10875.539   -22154.337    5868.4121   -14054.698    5997.1472    76.732467 
   67000    776.10226   -107.96108   0.70223364   -107.25884    3291.9484     4.242114     4.242114     4.242114    3291.9484    26493.114   -2274.8951   -14342.373   -5744.3512   -1841.9429   -16929.557    76.339097 
   67100    624.30129   -107.82701   0.56488093   -107.26213   -5913.6306     4.242784     4.242784     4.242784   -5913.6306   -14812.032   -6942.0039    4013.1436   -18883.646   -635.14318   -11360.766    76.375274 
   67200    1022.0633    -108.1817   0.92478439   -107.25692   -4328.4391    4.2488441    4.2488441    4.2488441   -4328.4391   -18593.765    10110.855   -4502.4071    1642.7674   -12935.799    5480.0928    76.703009 
   67300    966.95058   -108.13306   0.87491721   -107.25814    5500.3529    4.2424888    4.2424888    4.2424888    5500.3529    30589.996   -13560.005   -528.93223   -3746.9898    888.86742   -12482.287    76.359333 
   67400    892.80616   -108.06859   0.80782978   -107.26076   -3516.8246    4.2431215    4.2431215    4.2431215   -3516.8246    -11487.27   -19984.001    20920.797   -21784.874    -7160.559   -8675.0718    76.393501 
   67500    1114.1286   -108.26592     1.008087   -107.25784    1080.5677    4.2460506    4.2460506    4.2460506    1080.5677    11239.301    2633.6719    -10631.27    4270.5306   -13146.407    10723.786    76.551817 
   67600    876.93033   -108.05187   0.79346499   -107.25841    8317.9724    4.2443102    4.2443102    4.2443102    8317.9724    47653.997   -4414.4109   -18285.669   -2921.5784     7396.227   -13764.003    76.457722 
   67700    811.99914   -107.99329   0.73471389   -107.25857   -5405.5499    4.2452319    4.2452319    4.2452319   -5405.5499    142.16342   -11474.061   -4884.7525   -22306.279    330.59862   -10077.539    76.507543 
   67800    715.57409   -107.90595   0.64746647   -107.25849    4972.6049    4.2423356    4.2423356    4.2423356    4972.6049    29310.364    19061.039   -33453.588    6510.7051   -14365.478    11322.091    76.351059 
   67900    836.86562   -108.01691    0.7572136   -107.25969   -2857.2944    4.2456971    4.2456971    4.2456971   -2857.2944     18279.87   -7350.3275   -19501.425   -1698.8452     82.84707   -13136.941      76.5327 
   68000    979.17647   -108.14382   0.88597945   -107.25784   -955.25677    4.2474792    4.2474792    4.2474792   -955.25677   -6083.1471   -17059.317    20276.694   -18251.857     1903.261    -9901.541    76.629108 
   68100    880.15346   -108.05504   0.79638135   -107.25866    11507.388    4.2397884    4.2397884    4.2397884    11507.388    29266.676    8476.9772   -3221.4892    3069.7976   -14896.078    5475.7125    76.213613 
   68200    954.94445   -108.12594    0.8640538   -107.26189    -579.1245    4.2466038    4.2466038    4.2466038    -579.1245    1961.7962   -16883.611    13184.442    4957.2551   -5234.0554   -9887.1354    76.581739 
   68300    1214.2437   -108.35393    1.0986732   -107.25526    7373.1321    4.2471849    4.2471849    4.2471849    7373.1321    17146.877   -13895.671     18868.19   -3946.9314    2264.1176   -2916.1868    76.613183 
   68400    803.75709   -107.98667   0.72725631   -107.25941    7890.1552    4.2391168    4.2391168    4.2391168    7890.1552    38764.305    9024.0104    -24117.85    1706.5113   -8955.5231    12097.373    76.177402 
   68500    739.61947   -107.93265   0.66922324   -107.26343   -6906.5768    4.2481577    4.2481577    4.2481577   -6906.5768    5132.3379    -17951.59   -7900.4779    10618.193    2927.7287    -6302.839    76.665839 
   68600    1130.6949   -108.27817    1.0230765    -107.2551    13330.287    4.2430124    4.2430124    4.2430124    13330.287    38936.484   -2136.2998    3190.6756    4274.7169   -2151.3745     -3418.86    76.387607 
   68700    761.30728   -107.95052   0.68884683   -107.26167    4389.6608    4.2412142    4.2412142    4.2412142    4389.6608    18998.451    14741.476   -20570.946   -7451.6746   -19176.338    13214.766     76.29053 
   68800    702.54234   -107.89817   0.63567508   -107.26249   -16297.324    4.2527413    4.2527413    4.2527413   -16297.324   -25206.279   -15901.628   -7784.0651     13616.55    5291.4103   -2214.8711    76.914268 
   68900    1174.7591   -108.31689    1.0629467   -107.25395     12806.28    4.2381053    4.2381053    4.2381053     12806.28    11423.898    3378.7817     23616.16    7745.8393   -2441.5275   -4874.0706    76.122885 
   69000    713.62081   -107.90862    0.6456991   -107.26292    1359.8614    4.2426589    4.2426589    4.2426589    1359.8614   -12886.018     11463.56    5502.0422   -5289.0456   -12433.251     5294.113    76.368518 
   69100    821.61714   -108.00484   0.74341646   -107.26142    -16049.22    4.2530898    4.2530898    4.2530898    -16049.22   -26202.941    -18775.19   -3169.5281     9841.064    3756.6076    4799.2385    76.933175 
   69200    1265.5236   -108.39773    1.1450724   -107.25266    17617.402    4.2345067    4.2345067    4.2345067    17617.402    19532.921   -506.02957    33825.315    4498.0218     619.9468   -1480.2904    75.929138 
   69300    660.28336     -107.862   0.59743826   -107.26456   -10152.279    4.2478339    4.2478339    4.2478339   -10152.279   -11031.041    3924.3737   -23350.169   -4627.6055     -17237.7    2053.9502    76.648309 
   69400     866.3365   -108.04405   0.78387947   -107.26017   -14359.316    4.2491286    4.2491286    4.2491286   -14359.316   -2188.7351   -11582.733   -29306.481   -41.690734   -2413.5099    6687.3929    76.718413 
   69500    1101.7358   -108.24895   0.99687369   -107.25207    20414.101    4.2344394    4.2344394    4.2344394    20414.101    20955.582    10898.968    29387.753   -1769.2632     1.268132    -2616.535    75.925516 
   69600    510.55501   -107.72634   0.46196091   -107.26438   -23486.587    4.2524048    4.2524048    4.2524048   -23486.587   -33616.257    4174.4166   -41017.922   -4135.4334   -21931.971   -175.10112    76.896007 
   69700    796.69388    -107.9832   0.72086536   -107.26233   -604.61748    4.2435308    4.2435308    4.2435308   -604.61748   -9328.7287    11727.881   -4213.0043    2370.7921    3695.5085    7676.3767    76.415607 
   69800    1320.7269   -108.44814    1.1950215   -107.25312    16833.356    4.2385785    4.2385785    4.2385785    16833.356    5422.4051    23107.091     21970.57     4102.199    1156.8797    618.66328    76.148386 
   69900     697.1282   -107.89485   0.63077625   -107.26407   -19125.973    4.2535053    4.2535053    4.2535053   -19125.973   -31893.052    2945.5262   -28430.394   -6858.7023   -24071.896    3758.4449    76.955727 
   70000     1004.471   -108.16904   0.90886647   -107.26017    10477.344    4.2381674    4.2381674    4.2381674    10477.344    12670.957    9450.1921    9310.8825    2478.0671    6994.8781    9659.6765    76.126232 
   70100    1329.0017   -108.45805    1.2025087   -107.25554    7412.7554    4.2434969    4.2434969    4.2434969    7412.7554    15846.869    7455.6016   -1064.2048    2299.0816   -4365.8722   -7526.5013    76.413779 
   70200    472.52926   -107.69296   0.42755441   -107.26541   -18218.871    4.2509881    4.2509881    4.2509881   -18218.871   -1356.0278   -9377.1593   -43923.425    -6717.194   -24545.297   -2387.0448    76.819177 
   70300    754.33746   -107.94133   0.68254038   -107.25879    1314.3489    4.2380534    4.2380534    4.2380534    1314.3489    14796.531    6587.0731   -17440.557   -3259.8536     8426.739      7079.04    76.120086 
   70400    956.38889   -108.11993   0.86536077   -107.25457   -4503.8968    4.2481869    4.2481869    4.2481869   -4503.8968   -3280.7143   -3281.7262   -6949.2499     5372.236   -4044.2022   -4554.0738     76.66742 
   70500    537.05533   -107.74735   0.48593894   -107.26141   -7150.5146    4.2450908    4.2450908    4.2450908   -7150.5146   -3167.5104    -6689.528   -11594.505   -19.730679    -22434.24   -5032.2952    76.499912 
   70600    1089.9085   -108.24481    0.9861721   -107.25864   -489.95394    4.2417525    4.2417525    4.2417525   -489.95394   -10456.614   -3851.6923    12838.445   -4057.8865    10809.036    7439.8608    76.319579 
   70700    1215.4347   -108.35468    1.0997509   -107.25493   -5304.0566    4.2500765    4.2500765    4.2500765   -5304.0566   -19677.717   -8072.4021    11837.949     10854.33   -1905.7514   -2389.9384    76.769772 
   70800    852.99011    -108.0326   0.77180338   -107.26079    763.44621    4.2383239    4.2383239    4.2383239    763.44621    1285.8685    2029.4053   -1024.9352     3998.005   -25599.021   -7750.4808    76.134664 
   70900    1172.1198   -108.31929    1.0605586   -107.25873    -782.8559    4.2471476    4.2471476    4.2471476    -782.8559   -1669.3846   -2138.6677    1459.4846   -418.31752    6615.0544    4269.4012    76.611167 
   71000    959.67214   -108.12531   0.86833152   -107.25698   -2939.3702    4.2494872    4.2494872    4.2494872   -2939.3702   -4725.7519   -9166.4116     5074.053    14706.462   -1456.1313   -3577.0166    76.737843 
   71100    494.85373   -107.70787   0.44775405   -107.26012     2859.615    4.2350039    4.2350039    4.2350039     2859.615    12547.811    3284.7762   -7253.7426   -1105.3101   -23103.075   -3815.0719    75.955889 
   71200    896.60553    -108.0701   0.81126753   -107.25883     -10587.4    4.2508872    4.2508872    4.2508872     -10587.4   -1633.5434   -12095.797    -18032.86    1110.8314    3291.7271    3862.5889    76.813708 
   71300    859.61808   -108.03507    0.7778005   -107.25727    3590.9568    4.2456137    4.2456137    4.2456137    3590.9568    -10470.92   -2828.4854    24072.276    15242.137   -4446.6406   -4254.6279    76.528186 
   71400    490.19866   -107.70704   0.44354205    -107.2635    164.89525    4.2388377    4.2388377    4.2388377    164.89525   -15394.201    6373.7098    9515.1767    1630.4161   -16109.501   -5806.6093    76.162357 
   71500    1114.5442   -108.26588     1.008463   -107.25741   -8438.4915    4.2517468    4.2517468    4.2517468   -8438.4915   -14808.794   -13424.964    2918.2838    -347.1852    6772.7364   -1344.3005    76.860317 
   71600    1096.0908    -108.2468   0.99176602   -107.25503    13888.587    4.2405005    4.2405005    4.2405005    13888.587   -3016.8912    7382.5238    37300.128    10940.883   -7201.4354   -4469.8769    76.252021 
   71700    706.12387   -107.90362   0.63891572    -107.2647   -14329.761    4.2451174    4.2451174    4.2451174   -14329.761   -13230.386   -2306.7716   -27452.124    7059.8831   -15070.643   -6447.2246     76.50135 
   71800    1169.8676   -108.31593    1.0585208   -107.25741   -3217.2951    4.2475201    4.2475201    4.2475201   -3217.2951    18606.162    -12948.57   -15309.477   -5137.4616    4010.9052   -1838.5396    76.631324 
   71900    1124.5206   -108.27407    1.0174899   -107.25659    12868.297    4.2392664    4.2392664    4.2392664    12868.297    15772.955     9369.752    13462.185   -235.30738   -10058.138    -189.1665    76.185464 
   72000    636.93652   -107.83903   0.57631355   -107.26271   -22144.125    4.2513417    4.2513417    4.2513417   -22144.125   -9904.8129   -11866.388   -44661.175     1509.497    -18617.25   -6640.2998    76.838352 
   72100    913.55019   -108.08337   0.82659941   -107.25677    1794.2127    4.2415822    4.2415822    4.2415822    1794.2127    20402.192   -14970.809   -48.745106    -13907.75    1884.5131   -8609.4095    76.310386 
   72200     938.3058   -108.10628   0.84899881   -107.25728    165.91178    4.2394474    4.2394474    4.2394474    165.91178   -9406.1309    1171.8059    8732.0603   -3305.0939    2436.3865    4946.4531    76.195227 
   72300    505.33917   -107.71878    0.4572415   -107.26154   -24168.779    4.2533897    4.2533897    4.2533897   -24168.779   -21948.478   -19086.069   -31471.791    3590.5251   -17028.082   -8883.3559    76.949451 
   72400    884.81095   -108.05638   0.80059555   -107.25579    7057.3956    4.2394279    4.2394279    4.2394279    7057.3956    19295.033   -11668.235    13545.389   -12892.813     1435.952   -12019.676    76.194171 
   72500    1032.6867   -108.19073   0.93439667   -107.25633   -2582.2644    4.2425523    4.2425523    4.2425523   -2582.2644   -15423.995    3671.3269    4005.8747   -5561.8802   -4242.3702     7713.789    76.362759 
   72600    876.41604   -108.05191   0.79299965   -107.25892    -16292.36    4.2501636    4.2501636    4.2501636    -16292.36    10461.341   -13207.625   -46130.795     8381.636   -14745.328   -9065.7204    76.774489 
   72700    1206.2284   -108.34581    1.0914208   -107.25439      5924.32    4.2392409    4.2392409    4.2392409      5924.32    34554.122   -8906.2742   -7874.8879   -10717.854    1636.0761   -9718.5795    76.184092 
   72800    1114.5013   -108.26514    1.0084242   -107.25672   -6788.8878    4.2460585    4.2460585    4.2460585   -6788.8878   -1503.7918    -1568.842    -17294.03   -13067.139   -10706.561    5320.3618    76.552244 
   72900    697.93366   -107.89289   0.63150505   -107.26139   -6994.9906    4.2451289    4.2451289    4.2451289   -6994.9906    12295.609    2698.8345   -35979.415    1629.3865   -14840.829   -9064.5031    76.501977 
   73000    956.95175   -108.12179   0.86587005   -107.25592    3524.9744    4.2422619    4.2422619    4.2422619    3524.9744    8695.6233    3218.9208    -1339.621   -8543.1925    6894.4224   -8907.7425    76.347077 
   73100    728.23263   -107.91721   0.65892019   -107.25829   -10485.444    4.2468206    4.2468206    4.2468206   -10485.444     -26415.6    2129.0387   -7169.7713   -12400.034   -5845.2017      6847.42    76.593473 
   73200    518.77359   -107.73131   0.46939725   -107.26191    -5356.374    4.2407021    4.2407021    4.2407021    -5356.374   -7594.0667    11086.116   -19561.171    3414.1874   -15560.929   -7158.9353    76.262895 
   73300    1044.4831   -108.20091   0.94507027   -107.25584    108.32361    4.2486696    4.2486696    4.2486696    108.32361    974.29687   -9268.6908    8619.3647   -3752.3078    2208.5107   -9412.8165    76.693559 
   73400     1028.688   -108.18904    0.9307785   -107.25826   -1583.8936    4.2444703    4.2444703    4.2444703   -1583.8936    9355.0632   -1213.4138    -12893.33    -3431.976   -2297.6878    9779.5643    76.466373 
   73500    754.48929   -107.94496   0.68267776   -107.26228    10493.548    4.2384201    4.2384201    4.2384201    10493.548    39891.426    15373.057    -23783.84    6812.2613   -11804.633   -4964.1783    76.139846 
   73600     1313.364   -108.44227    1.1883593   -107.25391   -2787.9801    4.2510811    4.2510811    4.2510811   -2787.9801    19341.493    -9847.222   -17858.212    1536.9408      635.731   -4370.4919     76.82422 
   73700    927.68357   -108.09848   0.83938759   -107.25909    4161.0787    4.2395928    4.2395928    4.2395928    4161.0787      33938.4     9238.174   -30693.338   -5449.2683    -5958.087    12000.841    76.203064 
   73800    602.08304    -107.8087   0.54477739   -107.26392    1870.3798    4.2412102    4.2412102    4.2412102    1870.3798    6734.9849    23238.657   -24362.503   -2693.1897   -11969.919   -361.99292    76.290311 
   73900    1041.4852   -108.19605   0.94235772    -107.2537   -3063.6908    4.2514607    4.2514607    4.2514607   -3063.6908   -15640.423    -3140.466    9589.8171    13441.721    5641.3741   -3508.2497    76.844805 
   74000    745.69038   -107.93103   0.67471633   -107.25632    13290.092    4.2379777    4.2379777    4.2379777    13290.092    22673.202     18444.84   -1247.7652   -293.84436    -7396.022    8288.5477    76.116006 
   74100    688.35097   -107.88547   0.62283443   -107.26264   -7817.0115    4.2463042    4.2463042    4.2463042   -7817.0115   -24275.842    12836.143   -12011.335   -468.48288   -10682.355    5600.2405    76.565534 
   74200    1194.3391   -108.33564    1.0806631   -107.25498    8072.2798    4.2440757    4.2440757    4.2440757    8072.2798      12070.2    939.59479    11207.045    18862.841    8865.7074   -2599.5782    76.445047 
   74300    956.42951   -108.12526   0.86539752   -107.25987    5035.0098     4.240535     4.240535     4.240535    5035.0098     26278.28    8082.3106   -19255.561    2562.5551   -9244.9998    9603.4877    76.253884 
   74400    880.14262   -108.05602   0.79637154   -107.25965   -17404.954    4.2526758    4.2526758    4.2526758   -17404.954   -11791.745    564.04594   -40987.165    1042.2704   -13538.787    6918.2796    76.910713 
   74500    1184.1538   -108.32338    1.0714472   -107.25194    18587.081    4.2349409    4.2349409    4.2349409    18587.081      22898.6    20187.274    12675.368    7182.1252    5423.9225   -4554.3731    75.952496 
   74600    711.95552   -107.90621   0.64419232   -107.26202   -9397.1836    4.2442959    4.2442959    4.2442959   -9397.1836   -3228.6488   -406.73881   -24556.163    930.79208   -9173.2747    14531.558    76.456948 
   74700    563.17962   -107.76964   0.50957676   -107.26007   -24765.937     4.254699     4.254699     4.254699   -24765.937    -41473.42    767.36604   -33591.756   -3274.8387   -14878.717    7987.4414    77.020532 
   74800    1023.9231    -108.1756   0.92646718   -107.24913    19568.295    4.2312465    4.2312465    4.2312465    19568.295   -646.62565    26007.956    33343.555    4547.3116    3981.1306   -4794.8908    75.753899 
   74900    544.34967   -107.75475   0.49253902   -107.26221   -15159.338    4.2485504    4.2485504    4.2485504   -15159.338   -29028.219   -11342.844   -5106.9507    6136.2536   -4814.5978    13063.629    76.687099 
   75000    784.15924   -107.97011   0.70952376   -107.26059   -13418.904    4.2516239    4.2516239    4.2516239   -13418.904    -25186.54   -3372.6381   -11697.534   -5984.2185   -15764.645    8179.6209    76.853652 
   75100    1422.8242   -108.53637    1.2874013   -107.24897    27006.133     4.232051     4.232051     4.232051    27006.133    29813.193    21114.257    30090.948    3724.3973    5094.2108   -5519.8198    75.797113 
   75200    961.59337    -108.1313   0.87006989   -107.26123   -11954.622    4.2499719    4.2499719    4.2499719   -11954.622    4659.6005   -13129.849   -27393.618    7539.1939   -3305.8065    4194.8629    76.764103 
   75300    1012.5952   -108.17553   0.91621741   -107.25932   -4213.0417    4.2454009    4.2454009    4.2454009   -4213.0417    3648.2815    4266.3797   -20553.786   -5479.4701   -16290.329    4394.5009     76.51668 
   75400    1214.8373   -108.35088    1.0992103   -107.25167     12700.29    4.2387528    4.2387528    4.2387528     12700.29    8285.3926     18611.34    11204.136   -11804.518    4837.8088    -2847.399     76.15778 
   75500    604.29693   -107.80548   0.54678056    -107.2587   -19774.733    4.2520265    4.2520265    4.2520265   -19774.733   -31416.962   -5138.7666   -22768.471    3822.9465   -2759.9192    4685.8994    76.875487 
   75600    579.67222   -107.78101   0.52449961   -107.25651    5876.4825    4.2382472    4.2382472    4.2382472    5876.4825   -9243.5095    20310.472    6562.4852   -5744.1246   -15215.573     5348.545     76.13053 
   75700     752.0228   -107.93631   0.68044603   -107.25586    773.43894    4.2449553    4.2449553    4.2449553    773.43894   -24334.578    7935.1552     18719.74   -19339.826    8002.1341   -2432.9852    76.492592 
   75800    741.64166   -107.92827   0.67105296   -107.25722   -12341.887    4.2492807    4.2492807    4.2492807   -12341.887    -20296.25   -5105.5094   -11623.901    3305.3867    5543.3391    5077.2776    76.726655 
   75900    948.86137   -108.11516   0.85854971   -107.25661    15397.094    4.2344546    4.2344546    4.2344546    15397.094     21001.26    10420.319    14769.701   -8854.0703   -16672.485    6242.0527    75.926338 
   76000    1214.9608   -108.35696     1.099322   -107.25764   -4294.1485    4.2499449    4.2499449    4.2499449   -4294.1485   -3963.6935    -16979.41     8060.658   -19222.737     12805.87   -3194.9441     76.76264 
   76100    1191.1861   -108.33452    1.0778103   -107.25671     780.7987     4.245017     4.245017     4.245017     780.7987    17135.473   -1677.5078   -13115.569    7356.1941    8365.3704    1738.1214    76.495924 
   76200    982.15496   -108.14553   0.88867445   -107.25685    7503.8019    4.2366133    4.2366133    4.2366133    7503.8019    20198.277   -1586.0535    3899.1818   -19596.743    -14255.26    2809.9869    76.042515 
   76300    853.22354    -108.0287   0.77201459   -107.25669   -14999.998    4.2505224    4.2505224    4.2505224   -14999.998   -39123.295   -13190.168    7313.4704   -22483.636    7296.2865   -542.69647    76.793938 
   76400    748.17054   -107.93197   0.67696043   -107.25501    325.94013    4.2405851    4.2405851    4.2405851    325.94013    -6311.346    14466.826   -7177.6593    9808.2671    2890.4869    -2746.889    76.256586 
   76500     521.2304   -107.73061   0.47162022   -107.25899     -5511.64    4.2429993    4.2429993    4.2429993     -5511.64   -14858.887   -6790.3432    5114.3101   -18709.249   -11178.807    2077.3547    76.386897 
   76600    789.38522   -107.97277   0.71425233   -107.25851   -9894.0645    4.2466985    4.2466985    4.2466985   -9894.0645   -33028.214   -10020.191    13366.212    -22235.91    3043.9193    28.381909    76.586866 
   76700    1042.0117   -108.19896   0.94283406   -107.25613    12429.804    4.2370875    4.2370875    4.2370875    12429.804    30942.034    14497.458   -8150.0805    10657.423    4309.3886   -3092.1496    76.068054 
   76800    971.24394   -108.14047   0.87880193   -107.26167   -11840.348    4.2492318    4.2492318    4.2492318   -11840.348    4317.2896   -23449.284   -16389.049   -11886.869   -9337.4164    7735.2446    76.724004 
   76900    1084.6411   -108.23982   0.98140607   -107.25841    4629.4835    4.2446889    4.2446889    4.2446889    4629.4835    13365.803   -12690.288    13212.936   -16122.742    2993.9469    54.462015    76.478191 
   77000    1146.2991   -108.29211    1.0371955   -107.25492     14063.01    4.2381086    4.2381086    4.2381086     14063.01    31717.629     7491.624    2979.7778    6006.2427    10474.832    430.72789     76.12306 
   77100    708.76298   -107.89991   0.64130364    -107.2586   -16721.641    4.2506735    4.2506735    4.2506735   -16721.641   -28960.842    -16608.21   -4595.8727   -20853.347   -18912.446    4199.0637    76.802124 
   77200    710.57732    -107.8989   0.64294529   -107.25595    1048.1747    4.2404813    4.2404813    4.2404813    1048.1747   -12939.903   -2927.7878    19012.215   -11563.428    925.60708    17.458779    76.250984 
   77300    883.48493   -108.05471   0.79939573   -107.25531   -3087.2905    4.2402661    4.2402661    4.2402661   -3087.2905    -18676.17    6090.5558     3323.743    13554.129     11785.48   -3001.1638    76.239378 
   77400    706.41121   -107.89954   0.63917571   -107.26036   -14157.947    4.2491885    4.2491885    4.2491885   -14157.947   -13306.319   -10305.889   -18861.631   -18339.656   -25152.476    5147.9718    76.721661 
   77500    1028.2485   -108.18763   0.93038081   -107.25725    3857.8253    4.2414006    4.2414006    4.2414006    3857.8253    17745.411   -10718.552    4546.6178   -6000.3262   -579.50293    1507.3818    76.300588 
   77600    1170.6626   -108.31573    1.0592401   -107.25649   -5977.7796    4.2428736    4.2428736    4.2428736   -5977.7796    4753.8979   -6290.6024   -16396.634    23794.873    6510.5925   -3703.4046    76.380108 
   77700    881.81736   -108.05746   0.79788688   -107.25958   -9281.6324    4.2440134    4.2440134    4.2440134   -9281.6324    2441.4678   -1009.1974   -29277.168   -10364.458   -26196.725     5777.244    76.441683 
   77800    980.81384   -108.14463   0.88746098   -107.25717   -10473.467    4.2460845    4.2460845    4.2460845   -10473.467   -9233.5763   -16784.579   -5402.2468   -6961.9383    183.48932    1837.8009     76.55365 
   77900    747.02053   -107.93306   0.67591987   -107.25714   -8638.2539     4.244354     4.244354     4.244354   -8638.2539   -30842.283    -2864.135    7791.6565      17986.7    2997.4839   -1198.7188    76.460089 
   78000    591.58349   -107.79375   0.53527717   -107.25848    -534.0117    4.2390155    4.2390155    4.2390155    -534.0117   -17945.497    15166.698    1176.7636   -9513.1033   -21445.461    3708.4038    76.171938 
   78100    859.92487   -108.03529   0.77807809   -107.25721   -13606.809    4.2497717    4.2497717    4.2497717   -13606.809   -28799.665   -20313.967    8293.2042   -507.59991    2441.2539   -676.74803    76.753255 
   78200    945.60685   -108.11276   0.85560495   -107.25716   -7325.3677    4.2421252    4.2421252    4.2421252   -7325.3677   -22919.754   -6053.1089    6996.7603    17390.309   -2212.1661   -3994.8491      76.3397 
   78300    899.10986   -108.07411    0.8135335   -107.26057    4214.5914    4.2377122    4.2377122    4.2377122    4214.5914    21797.256    11593.401   -20746.883   -8785.8699   -29470.527    4970.1114    76.101705 
   78400    1381.0264     -108.505    1.2495817   -107.25542    -9086.354    4.2492369    4.2492369    4.2492369    -9086.354    12953.066   -23383.427   -16828.701    6564.3133    1172.3361    7172.1629    76.724283 
   78500    958.08137   -108.12565   0.86689216   -107.25876    4670.4543    4.2423767    4.2423767    4.2423767    4670.4543    21134.908   -4756.5751   -2366.9698    18999.238    -6125.804   -5286.8532    76.353276 
   78600    676.48216   -107.87395   0.61209528   -107.26185   -6123.2404    4.2417961    4.2417961    4.2417961   -6123.2404   -143.81505    16685.896   -34911.802   -6541.2385   -33919.489    3441.1122    76.321933 
   78700    1007.7594   -108.16748    0.9118419   -107.25564   -3347.7737    4.2414305    4.2414305    4.2414305   -3347.7737   -9606.2944    4697.4976   -5134.5243    3167.2731    4029.8667    5339.3567      76.3022 
   78800    525.28077   -107.73825   0.47528508   -107.26296   -6273.3413    4.2465034    4.2465034    4.2465034   -6273.3413    -13583.08    5327.1018   -10564.045    10598.466   -7979.7916   -5350.5704    76.576308 
   78900    472.24916    -107.6935   0.42730096    -107.2662   -19864.011    4.2493896    4.2493896    4.2493896   -19864.011   -43805.604    15530.159   -31316.587    3714.3761    -35542.38    1578.1872    76.732554 
   79000    1361.8203   -108.48483    1.2322036   -107.25263    22247.438    4.2293874    4.2293874    4.2293874    22247.438    32582.826    17140.206    17019.281   -3596.6884    10792.457   -98.723953    75.654091 
   79100    943.40179   -108.12035   0.85360976   -107.26674   -15889.782    4.2500811    4.2500811    4.2500811   -15889.782   -14366.015   -11633.592   -21669.738    10550.548   -17995.008   -4658.7222    76.770019 
   79200    820.05217   -108.01054   0.74200043   -107.26854   -22095.105    4.2505957    4.2505957    4.2505957   -22095.105   -22237.719    48.505964   -44096.102    10367.082   -30870.476    -4288.443    76.797909 
   79300    1543.7357   -108.64521    1.3968045    -107.2484    27060.563    4.2259415    4.2259415    4.2259415    27060.563    39478.252    19748.069    21955.367   -6481.5188    7155.8913    5777.3078    75.469319 
   79400    716.31643   -107.91204   0.64813816    -107.2639   -22086.895      4.25303      4.25303      4.25303   -22086.895   -26644.869   -9317.3396   -30298.476    6104.2053   -28027.296   -2267.1126    76.929929 
   79500    437.31524    -107.6592   0.39569202    -107.2635   -10432.189    4.2436826    4.2436826    4.2436826   -10432.189   -34248.019     17399.65   -14448.198    8773.3625    -22252.76    -8131.564    76.423807 
   79600    992.24562   -108.14898   0.89780469   -107.25117    11510.457    4.2339016    4.2339016    4.2339016    11510.457   -2451.4012    16617.123    20365.649   -7169.3948    9093.7737    2556.0305    75.896592 
   79700    550.30663   -107.75797   0.49792901   -107.26004   -29490.396    4.2519097    4.2519097    4.2519097   -29490.396   -56297.102    -2877.383   -29296.704     -5943.21     -27792.3   -1724.2177    76.869152 
   79800    754.19232   -107.94386   0.68240906   -107.26145    11831.891     4.234062     4.234062     4.234062    11831.891    20277.127    15968.474    -749.9269    10782.981   -17360.283   -3789.0669    75.905218 
   79900    1350.3684   -108.47912    1.2218417   -107.25727    3969.8185    4.2459623    4.2459623    4.2459623    3969.8185     15563.36   -13651.917    9998.0122   -10068.226    7718.0053   -4476.1464     76.54704 
   80000    984.39655   -108.15244   0.89070268   -107.26174   -14591.883    4.2484674    4.2484674    4.2484674   -14591.883   -11410.949   -7621.7897    -24742.91   -14892.454   -29466.523    316.80346    76.682605 
   80100    1033.1577   -108.19113   0.93482277   -107.25631    19977.135    4.2285266    4.2285266    4.2285266    19977.135    24946.664    15711.265    19273.475    15214.079   -17182.639   -6510.3289    75.607903 
   80200    1122.4544   -108.27155    1.0156203   -107.25593   -11403.748    4.2512548    4.2512548    4.2512548   -11403.748   -23956.343   -19988.191    9733.2901    -6006.798    11844.572   -5125.1267    76.833638 
   80300    591.96724     -107.797    0.5356244   -107.26138    -9779.859    4.2440682    4.2440682    4.2440682    -9779.859   -39297.923    7676.5221    2281.8242   -19265.428   -31488.825    4566.6868    76.444644 
   80400    709.39026    -107.8987   0.64187121   -107.25683    18509.537    4.2314102    4.2314102    4.2314102    18509.537    2573.1566    19801.477    33153.976    12204.465   -16886.485   -5129.4111    75.762692 
   80500    914.60137   -108.08207   0.82755054   -107.25452   -17194.107      4.25116      4.25116      4.25116   -17194.107   -32886.473   -19786.387    1090.5395   -1258.1864    9104.4954   -4628.3409      76.8285 
   80600    660.57991   -107.85773   0.59770659   -107.26002   -4302.2942    4.2390451    4.2390451    4.2390451   -4302.2942   -21593.164    18567.393   -9881.1114   -18586.788   -31834.938   -463.01443    76.173533 
   80700    1068.2826    -108.2258   0.96660451    -107.2592    6858.4217     4.240041     4.240041     4.240041    6858.4217    11172.955    3419.0618    5983.2487     10051.39   -11779.902    552.18403    76.227236 
   80800    1178.8167   -108.32321    1.0666182   -107.25659    -3610.745    4.2469158    4.2469158    4.2469158    -3610.745    14921.845   -14286.075   -11468.006   -1586.9055     8394.826   -8221.7198    76.598619 
   80900    760.06638   -107.94974   0.68772403   -107.26201    8272.0283    4.2344194    4.2344194    4.2344194    8272.0283    5760.2713    22051.741   -2995.9278   -13514.368   -28539.274   -2301.3978    75.924444 
   81000    1025.9198   -108.18691   0.92827377   -107.25863   -4352.8722    4.2490596    4.2490596    4.2490596   -4352.8722   -9159.8006    -2283.767   -1615.0492     10084.33   -9962.7293   -836.81006    76.714676 
   81100    976.15597   -108.14177   0.88324644   -107.25852   -1748.2887    4.2412349    4.2412349    4.2412349   -1748.2887   -12296.706    750.54642    6301.2936    -2272.371     2067.491    -8904.139    76.291642 
   81200    451.26353   -107.67234   0.40831272   -107.26402    1904.2493    4.2342576    4.2342576    4.2342576    1904.2493   -37703.054    29215.173    14200.629   -15285.358   -35727.188    2206.1129     75.91574 
   81300    1019.5582   -108.17844   0.92251765   -107.25592    -12438.67    4.2533188    4.2533188    4.2533188    -12438.67   -21842.025   -5857.3758   -9616.6079    3409.7641   -5135.2169    -159.0291    76.945603 
   81400    1081.1117   -108.23572   0.97821256    -107.2575        13478    4.2358682    4.2358682    4.2358682        13478    25901.349    8152.4926    6380.1569    1041.4816    847.56614   -5525.8255    76.002403 
   81500    630.43223   -107.83636   0.57042833   -107.26593   -4864.1685     4.237061     4.237061     4.237061   -4864.1685   -13394.317    15660.169   -16858.358   -17595.225   -37353.663   -6219.1464    76.066625 
   81600     1232.261   -108.37131    1.1149756   -107.25634    -15240.73     4.253035     4.253035     4.253035    -15240.73   -6644.3082   -5328.4147   -33749.467   -375.61292    6029.1077    1582.5956    76.930202 
   81700    1092.6208     -108.245   0.98862628   -107.25637    13759.114    4.2351701    4.2351701    4.2351701    13759.114    18453.744    20506.915    2316.6834    5362.5026    569.12888   -488.10051    75.964831 
   81800    523.26935   -107.73877    0.4734651   -107.26531   -14680.931    4.2408311    4.2408311    4.2408311   -14680.931   -34136.989    14518.038   -24423.842   -11469.643   -40847.246   -8535.4458    76.269855 
   81900    909.69116   -108.08122   0.82310768   -107.25811   -2972.7314    4.2470435    4.2470435    4.2470435   -2972.7314   -13572.036    4263.8969     389.9445   -3803.0826    7753.8575    3367.5004    76.605531 
   82000    976.61307   -108.13924   0.88366003   -107.25558    8226.8082    4.2368718    4.2368718    4.2368718    8226.8082   -8882.0056    18475.217    15087.214    1496.7395   -4860.3012   -1128.3237    76.056434 
   82100    484.75317   -107.70478   0.43861485   -107.26616   -22059.016    4.2455423    4.2455423    4.2455423   -22059.016   -48181.654    2149.0537   -20144.448   -9096.1809   -40953.942   -4194.1363    76.524329 
   82200    1102.4031   -108.25647   0.99747746   -107.25899   -524.64391    4.2422626    4.2422626    4.2422626   -524.64391   -9796.8509   -1072.8672    9295.7863   -9128.4751    7951.6641    1595.7991    76.347119 
   82300    1283.3321    -108.4186    1.1611858   -107.25742     10279.98    4.2385291    4.2385291    4.2385291     10279.98    20909.165    15310.009    -5379.235    2172.5111   -3510.1917   -5585.5829    76.145724 
   82400    710.93323   -107.90935   0.64326733   -107.26608   -18306.003    4.2461627    4.2461627    4.2461627   -18306.003   -20529.243    315.82912   -34704.594   -13898.945    -38595.31   -8902.9206     76.55788 
   82500     1072.527     -108.229   0.97044494   -107.25855    3046.2846    4.2416736    4.2416736    4.2416736    3046.2846    8877.2981    2374.0897    -2112.534   -11509.613    7159.2313    1270.8918    76.315322 
   82600     1028.934   -108.18697   0.93100111   -107.25597   -6468.7388    4.2436827    4.2436827    4.2436827   -6468.7388   -17904.944    17311.495   -18812.767    8631.6589   -6824.8903     3996.287    76.423816 
   82700    330.77106   -107.56381    0.2992886   -107.26452   -20215.008    4.2420472    4.2420472    4.2420472   -20215.008   -54727.903    9318.2687   -15235.389   -12262.673   -39595.511   -11828.372    76.335488 
   82800    891.61345   -108.06794   0.80675059   -107.26119     566.2474    4.2390412    4.2390412    4.2390412     566.2474   -19858.792   -5883.1873    27440.721   -12585.434     10270.89   -4167.9317    76.173326 
   82900    981.09709   -108.14403   0.88771727   -107.25631    -1450.304    4.2478855    4.2478855    4.2478855    -1450.304   -2947.2372    6962.8203   -8366.4952    4534.4037   -14096.607    4389.7976    76.651105 
   83000     680.0887   -107.87914   0.61535855   -107.26378   -9927.6505    4.2404716    4.2404716    4.2404716   -9927.6505   -25550.705    3740.9786   -7973.2251   -10234.567   -33216.476    -5374.798    76.250463 
   83100    1181.0472   -108.32761    1.0686364   -107.25898    7571.2073    4.2411032    4.2411032    4.2411032    7571.2073    9410.1081   -13630.304    26933.817    -12157.62     9180.652   -6387.7475    76.284538 
   83200    1315.5258   -108.44639    1.1903154   -107.25607   -4314.6539    4.2458367    4.2458367    4.2458367   -4314.6539    -5015.903    11411.561    -19339.62    2088.2294   -25604.032     1980.821     76.54025 
   83300    658.15236   -107.86016   0.59551009   -107.26465    6112.6677    4.2349921    4.2349921    4.2349921    6112.6677   -11029.059    19195.176    10171.887   -13122.284   -27809.084   -4308.5817    75.955253 
   83400     982.7475   -108.15035   0.88921059   -107.26114   -3662.7223    4.2477686    4.2477686    4.2477686   -3662.7223   -330.33235   -12586.452    1928.6176   -13831.113    7949.4989   -8499.6627    76.644773 
   83500    915.21307   -108.08452   0.82810402   -107.25641   -2361.0021     4.247482     4.247482     4.247482   -2361.0021   -11175.168    20452.439   -16360.277     8388.706   -14997.885    6044.5748    76.629262 
   83600    508.00451   -107.71777   0.45965316   -107.25812    5031.4414    4.2306329    4.2306329    4.2306329    5031.4414   -27072.041    20287.662    21878.703   -13522.658   -27301.748   -4695.7017    75.720945 
   83700    890.77899   -108.06724   0.80599555   -107.26125   -13364.646    4.2462711    4.2462711    4.2462711   -13364.646   -19899.489   -27653.364    7458.9139   -18061.476    11059.168   -9109.2576    76.563743 
   83800     1015.956   -108.17491   0.91925834   -107.25565    855.05038    4.2466347    4.2466347    4.2466347    855.05038    -3590.271    3790.6093    2364.8129    7698.8829   -6998.8289    3686.1735    76.583414 
   83900    801.89878   -107.98379   0.72557487   -107.25821    1515.3412    4.2371378    4.2371378    4.2371378    1515.3412    4569.4623   -4341.3027    4317.8639   -12054.894   -28336.108    141.62284     76.07076 
   84000    1043.0022   -108.20057   0.94373034   -107.25684   -6460.8649     4.245765     4.245765     4.245765   -6460.8649    15630.283   -28107.673   -6905.2046    -16598.01    8613.3888   -2848.5056    76.536368 
   84100    1083.7525   -108.23637     0.980602   -107.25577    4808.0982     4.239301     4.239301     4.239301    4808.0982    10263.472    21020.939   -16860.116    5541.1536   -12336.326   -4065.8409     76.18733 
   84200    691.51512   -107.88847   0.62569742   -107.26277   -2416.9371    4.2419258    4.2419258    4.2419258   -2416.9371   -9971.0732    8672.7572   -5952.4953   -11991.696   -18978.044    355.55669    76.328935 
   84300    1047.5991    -108.2041    0.9478897   -107.25621   -9035.8755     4.247987     4.247987     4.247987   -9035.8755    -10139.96   -10342.987    -6624.679   -14672.073    3572.7097    15.321805    76.656599 
   84400    878.73784   -108.05134   0.79510047   -107.25623     12612.53    4.2377486    4.2377486    4.2377486     12612.53    8312.2417    31517.843   -1992.4951    8132.8182   -9962.1679    3116.3275    76.103662 
   84500    717.19772    -107.9106   0.64893557   -107.26167   -8506.6019    4.2450606    4.2450606    4.2450606   -8506.6019   -23165.795    1825.2624   -4179.2735   -7393.3122   -15123.628   -2208.1096    76.498281 
   84600    1160.1053   -108.30384    1.0496877   -107.25415   -349.58836    4.2450284    4.2450284    4.2450284   -349.58836     11950.93   -23734.019    10734.325   -10243.975    3539.8727   -2935.7259    76.496541 
   84700    821.59423   -108.00283   0.74339573   -107.25944     3512.319    4.2392286    4.2392286    4.2392286     3512.319    4560.9635     2992.912    2983.0816    10529.349   -6448.0882   -511.84555     76.18343 
   84800    638.60177   -107.84002    0.5778203   -107.26219   -13766.001    4.2471461    4.2471461    4.2471461   -13766.001    -4681.034    -10360.47   -26256.499    13.717116   -17813.706    3352.6316    76.611083 
   84900    1206.7283   -108.34474    1.0918731   -107.25287    3831.8311    4.2404896    4.2404896    4.2404896    3831.8311    34941.665   -15914.344   -7531.8285   -5408.6679    7325.5683    215.23746    76.251433 
   85000    629.65098    -107.8322   0.56972144   -107.26248   -2439.4293    4.2415838    4.2415838    4.2415838   -2439.4293   -2704.2264    11692.427   -16306.489    8508.6503    -14731.91   -1928.6851    76.310472 
   85100    659.34021   -107.86169   0.59658488    -107.2651   -15404.458    4.2472494    4.2472494    4.2472494   -15404.458   -30679.936    18815.186   -34348.625    2945.3753    -14597.34    8256.2677    76.616675 
   85200    1317.2367   -108.44576    1.1918635    -107.2539    10979.715    4.2392787    4.2392787    4.2392787    10979.715    9072.8724    12844.018    11022.255    2372.1168    6554.2972    5791.3603    76.186126 
   85300    841.34037   -108.02504   0.76126245   -107.26378   -4598.5941    4.2428921    4.2428921    4.2428921   -4598.5941   -27275.413      22619.2     -9139.57    7642.6921   -17120.319   -1285.8951     76.38111 
   85400    844.94083   -108.02839   0.76452022   -107.26387   -3294.8228    4.2447544    4.2447544    4.2447544   -3294.8228   -7949.4572    20157.448   -22092.459   -1010.7361   -3762.1257   -2167.7545    76.481731 
   85500    1300.8615   -108.43057    1.1770469   -107.25352    5078.6704    4.2439393    4.2439393    4.2439393    5078.6704    20141.656   -15524.275    10618.629   -4846.4883    4106.5883    2778.6123    76.437679 
   85600    784.88631   -107.97135   0.71018163   -107.26117   -8028.3894    4.2417326    4.2417326    4.2417326   -8028.3894   -8306.3587   -7759.6706   -8019.1389    4324.1198   -15251.425    99.395711    76.318507 
   85700    688.18707   -107.88414   0.62268612   -107.26145   -863.50278    4.2410443    4.2410443    4.2410443   -863.50278    4401.7928    5634.3315   -12626.633    5196.7161    -3668.918   -262.66629    76.281359 
   85800    980.59534   -108.14305   0.88726327   -107.25578   -8046.3895    4.2483953    4.2483953    4.2483953   -8046.3895    1575.2671   -26693.427    978.99094   -14236.608    6005.9578    1042.6888    76.678704 
   85900    653.82188   -107.85181   0.59159178   -107.26022    889.13554    4.2383309    4.2383309    4.2383309    889.13554   -8295.6665    11065.301   -102.22807   -2849.8668   -14974.929    1519.7601    76.135043 
   86000    785.50778   -107.97118   0.71074395   -107.26044    8450.9649    4.2411456    4.2411456    4.2411456    8450.9649    1127.8626    27824.367    -3599.335    7374.1595   -7505.0262    1302.5623    76.286824 
   86100    1151.5587    -108.2976    1.0419545   -107.25565   -5768.1035    4.2494785    4.2494785    4.2494785   -5768.1035   -21568.297    180.69938     4083.287   -18496.689    8919.5318   -3347.6086     76.73737 
   86200    930.80728   -108.10042   0.84221399    -107.2582    12592.641     4.236204     4.236204     4.236204    12592.641   -17501.574    36567.081    18712.415   -9094.3098   -18037.454   -731.16822     76.02048 
   86300    1078.7285   -108.23508   0.97605625   -107.25902     6758.042      4.24296      4.24296      4.24296     6758.042    6024.4929    21270.656   -7021.0229    6054.9466   -13416.205    1126.0219    76.384776 
   86400    1046.1345   -108.20299   0.94656447   -107.25642   -1790.9778    4.2479483    4.2479483    4.2479483   -1790.9778   -2449.1088   -15212.815     12288.99   -18807.657    8001.2209    -160.2054    76.654504 
   86500    711.94937   -107.90172   0.64418675   -107.25753     9968.757    4.2372351    4.2372351    4.2372351     9968.757    6794.6185    7316.7097    15794.943   -9973.4651   -21358.394    698.78775       76.076 
   86600    832.01069   -108.00913   0.75282076   -107.25631   -6397.0801    4.2448426    4.2448426    4.2448426   -6397.0801    6507.5479   -11539.964   -14158.824    6970.5385   -17797.412    1557.3057    76.486496 
   86700    710.34408   -107.89898   0.64273425   -107.25624   -3711.6572    4.2441005    4.2441005    4.2441005   -3711.6572    -16063.37   -11387.408    16315.806   -25649.763    9225.3418   -2895.3165    76.446389 
   86800    754.62429   -107.94041   0.68279991   -107.25761   -1272.9383    4.2411026    4.2411026    4.2411026   -1272.9383   -19985.316    13064.499     3102.002   -11064.672   -15585.345   -1825.8266    76.284508 
   86900     1053.721    -108.2081   0.95342888   -107.25467   -6245.3755    4.2474548    4.2474548    4.2474548   -6245.3755   -10127.072    11507.141   -20116.196    7532.5608     -19929.4   -1109.6662     76.62779 
   87000    1092.3756   -108.24442    0.9884044   -107.25602    8290.4967    4.2370276    4.2370276    4.2370276    8290.4967   -6337.7631    14644.436    16564.817   -30830.118     11278.43    -4654.298    76.064825 
   87100    1069.5911   -108.22788    0.9677885    -107.2601     2362.946    4.2437633    4.2437633    4.2437633     2362.946    -5829.138    14962.405   -2044.4286   -8151.5573   -16239.239   -808.03879    76.428169 
   87200    1187.2024   -108.32927    1.0742057   -107.25507   -10532.594    4.2501797    4.2501797    4.2501797   -10532.594   -10209.634   -3984.3169   -17403.833    9357.4811   -24242.667   -463.28826    76.775364 
   87300    819.24228   -107.99769   0.74126763   -107.25642    16285.379    4.2323561    4.2323561    4.2323561    16285.379    22485.949   -10908.513      37278.7   -31846.981    6597.0451   -5397.1736     75.81351 
   87400    753.66979   -107.94172   0.68193627   -107.25978    -2196.067    4.2457262    4.2457262    4.2457262    -2196.067    1090.3099   -14292.598    6614.0875   -7111.5545   -15814.415   -954.94304     76.53427 
   87500    745.49861   -107.93072   0.67454281   -107.25618   -5473.3841    4.2477039    4.2477039    4.2477039   -5473.3841   -1414.5719   -18588.366    3582.7854    1731.0088   -20036.327    2074.3227    76.641273 
   87600    556.86882   -107.76014   0.50386661   -107.25628    12504.152    4.2332725    4.2332725    4.2332725    12504.152    8127.3863    -25123.66     54508.73   -29871.039    7038.2732   -2094.9988    75.862765 
   87700    849.24597   -108.02523    0.7684156   -107.25682    -11594.87    4.2489494    4.2489494    4.2489494    -11594.87   -25648.161   -10056.978    920.52855   -591.78888    -7643.908   -5123.4029    76.708709 
   87800    964.68247    -108.1294   0.87286497   -107.25654    1511.0345    4.2438341    4.2438341    4.2438341    1511.0345   -17199.044    16612.123    5120.0253   -4519.0572   -15183.416    1875.0786    76.431993 
   87900    1019.0255    -108.1794   0.92203572   -107.25737    13133.382    4.2363533    4.2363533    4.2363533    13133.382    7519.3366    648.19765    31232.611   -28728.961    5283.5098    5126.7195    76.028516 
   88000    1339.1594    -108.4665    1.2116995    -107.2548   -5414.4122    4.2482098    4.2482098    4.2482098   -5414.4122   -6409.5489     7628.017   -17461.705     7837.151   -5609.9115   -6559.4625    76.668661 
   88100    986.86182   -108.15185   0.89293331   -107.25891     2384.544    4.2397733    4.2397733    4.2397733     2384.544    6605.9624    2337.7333   -1790.0638   -7346.4733   -15500.118    906.80012    76.212797 
   88200     820.9634   -108.00325   0.74282493   -107.26042   -5520.1546    4.2431565    4.2431565    4.2431565   -5520.1546   -6491.8247   -35137.908    25069.269   -31100.975    2232.2804    5499.8182    76.395388 
   88300    1086.8306    -108.2365   0.98338714   -107.25312    -7701.382    4.2466994    4.2466994    4.2466994    -7701.382   -7242.6025   -16822.787    961.24295    5178.8926    -2843.975   -3524.2162    76.586914 
   88400    437.88478   -107.65692   0.39620736   -107.26071    9788.2418    4.2354292    4.2354292    4.2354292    9788.2418   -14885.711    13800.707     30449.73    -18697.12   -11959.383    580.49476    75.978776 
   88500    539.42504   -107.75314   0.48808311   -107.26505   -8997.5771    4.2481723    4.2481723    4.2481723   -8997.5771   -18147.814   -38767.899    29922.981   -26417.294   -1124.8412    2371.6881    76.666627 
   88600    1164.7585   -108.30942    1.0538979   -107.25552    6065.7174    4.2421127    4.2421127    4.2421127    6065.7174   -5263.2511    2754.4306    20705.973    8263.0144    4559.5004    3068.5591    76.339027 
   88700    672.41319   -107.87266   0.60841358   -107.26425    11561.567    4.2345144    4.2345144    4.2345144    11561.567   -23200.719    21604.143    36281.278   -23758.225   -6709.5286   -3650.6357    75.929553 
   88800    990.14886   -108.15983    0.8959075   -107.26392   -14644.835    4.2520108    4.2520108    4.2520108   -14644.835    -25133.93   -20760.693    1960.1177   -21231.532   -2874.4855    5971.8113    76.874637 
   88900    1476.6717   -108.59004    1.3361236   -107.25392    19656.217    4.2377206    4.2377206    4.2377206    19656.217    23529.942    19042.471    16396.237    14900.077    3719.7216    8216.8165    76.102154 
   89000    871.04254   -108.05235    0.7881376   -107.26421   -759.02825    4.2390736    4.2390736    4.2390736   -759.02825   -14104.392    1382.9315    10444.376   -31045.413   -6803.7357   -562.52909    76.175069 
   89100    872.90118   -108.05022   0.78981933    -107.2604   -18222.231    4.2493543    4.2493543    4.2493543   -18222.231   -15317.787    -34219.24   -5129.6659   -24967.429   -5380.9638    10131.752    76.730639 
   89200    1056.4093   -108.20925   0.95586135   -107.25339     11821.73    4.2345655    4.2345655    4.2345655     11821.73    15583.125    927.87228    18954.194    13867.253   -936.85267    5231.9794    75.932301 
   89300    524.94424   -107.73726   0.47498058   -107.26228   -17581.157    4.2469546    4.2469546    4.2469546   -17581.157   -45548.911   -20379.169    13184.611   -29120.888    -1439.246   -4146.6135    76.600719 
   89400    777.51591   -107.96129   0.70351273   -107.25778    -6748.534    4.2449931    4.2449931    4.2449931    -6748.534   -24890.658   -3886.1291    8531.1853   -15222.327   -3635.9373    2555.2422    76.494636 
   89500    968.38191   -108.12965    0.8762123   -107.25344     15405.74    4.2355992    4.2355992    4.2355992     15405.74    15024.284    9031.2642    22161.673    15861.516    2255.7742    6177.5682    75.987921 
   89600    760.39872   -107.94939   0.68802474   -107.26137   -15039.971    4.2484569    4.2484569    4.2484569   -15039.971   -31986.984   -26694.879     13561.95   -25056.929    2753.0486   -2116.2692    76.682039 
   89700    1136.5809   -108.28451    1.0284023    -107.2561    10507.283    4.2404491    4.2404491    4.2404491    10507.283    9549.9448    12984.782    8987.1227   -8179.1246    877.34755    942.96658    76.249249 
   89800    1054.5976   -108.21013   0.95422207   -107.25591    3739.5871    4.2420463    4.2420463    4.2420463    3739.5871    12913.463   -4222.3985    2527.6969     8388.687     576.7814    12822.429    76.335442 
   89900    632.97542   -107.83379   0.57272946   -107.26106   -13707.307    4.2484625    4.2484625    4.2484625   -13707.307   -26067.932   -24035.982    8981.9924   -26327.388    5497.2299    1777.1125     76.68234 
   90000     983.8022   -108.14303    0.8901649   -107.25286    19235.099    4.2367568    4.2367568    4.2367568    19235.099    11509.969    27156.213    19039.115   -3977.6682    1742.2028    1651.5652    76.050241 
   90100    773.57182   -107.95801   0.69994404   -107.25807   -2216.2543    4.2457889    4.2457889    4.2457889   -2216.2543    -5258.396   -17593.712    16203.345    12173.912   -5050.5174     11804.31     76.53766 
   90200    558.42988   -107.76679   0.50527909   -107.26151    -8239.194    4.2460849    4.2460849    4.2460849    -8239.194   -32523.037   -20204.531    28009.986   -17386.512    8386.1102    6268.0804    76.553669 
   90300    1179.0389   -108.32012    1.0668192    -107.2533    11417.394    4.2370533    4.2370533    4.2370533    11417.394    5452.1541    6319.4131    22480.615   -3933.0833     4323.046   -4771.9309    76.066209 
   90400    996.37371    -108.1602   0.90153987   -107.25866   -7337.5916    4.2461405    4.2461405    4.2461405   -7337.5916    -5879.906   -27552.871    11420.003    14177.648   -4312.4773    1859.3178    76.556676 
   90500    919.03158   -108.09084   0.83155909   -107.25928    -7279.123    4.2433385    4.2433385    4.2433385    -7279.123   -8630.2528   -21114.723    7907.6069   -13777.072    1185.2146     6391.013    76.405219 
   90600    1223.2383   -108.35985    1.1068117   -107.25304    3944.1931    4.2416476    4.2416476    4.2416476    3944.1931    24064.617   -36.987727    -12195.05    -7996.576    1226.5135   -12558.033    76.313916 
   90700    736.40198   -107.92488   0.66631198   -107.25856   -15269.561    4.2463481    4.2463481    4.2463481   -15269.561    9045.5547   -23688.534   -31165.705    11846.881   -709.33578   -2837.9689    76.567908 
   90800     666.3818    -107.8617   0.60295626   -107.25874   -4820.9177    4.2384125    4.2384125    4.2384125   -4820.9177   -84.422857   -1638.1491   -12740.181   -8877.8979    1044.0135    6084.2897    76.139437 
   90900    897.31421   -108.06709   0.81190875   -107.25519   -3025.9738    4.2437059    4.2437059    4.2437059   -3025.9738    10453.166    6020.5632    -25551.65   -2963.9673    2077.6373   -11937.513    76.425071 
   91000    518.87161   -107.73046   0.46948593   -107.26097   -13733.206    4.2473619    4.2473619    4.2473619   -13733.206   -3475.2897   -20652.995   -17071.332    5387.1428   -4368.3854    1144.7579     76.62276 
   91100    945.02411   -108.11291   0.85507768   -107.25783    9913.5457    4.2383998    4.2383998    4.2383998    9913.5457    5359.3239    -4680.445    29061.758   -4123.2152    2769.7004    6854.5709    76.138751 
   91200     1278.433   -108.41035    1.1567531   -107.25359    1781.7801    4.2451012    4.2451012    4.2451012    1781.7801    11988.602   -14592.678    7949.4169    2074.4266    89.343337   -9383.0934    76.500479 
   91300    838.04466   -108.02196   0.75828042   -107.26368   -3068.3949    4.2429268    4.2429268    4.2429268   -3068.3949    7579.8253   -23666.616    6881.6057    4180.1755   -7516.6404    615.77097    76.382985 
   91400    1266.6548   -108.40419    1.1460959   -107.25809    10211.711    4.2405793    4.2405793    4.2405793    10211.711     2045.124    10347.181    18242.829    4358.8489    -938.5031    4189.7846     76.25627 
   91500    1151.7423   -108.29911    1.0421206   -107.25699    143.71953    4.2465431    4.2465431    4.2465431    143.71953    11913.015    7194.5742    -18676.43   -1188.8212    1943.2798   -15674.589    76.578454 
   91600    440.37803   -107.66235   0.39846329   -107.26388   -7651.8471    4.2418832    4.2418832    4.2418832   -7651.8471    5847.8389    610.93504   -29414.315    7496.1184   -3132.0376   -2223.3509    76.326635 
   91700    912.86836   -108.08219   0.82598247   -107.25621    -3059.003    4.2419726    4.2419726    4.2419726    -3059.003   -2551.3493    11986.539   -18612.199    10508.456   -2791.6438    8162.5106    76.331461 
   91800    762.89681   -107.94761   0.69028507   -107.25733   -4454.8144    4.2440424    4.2440424    4.2440424   -4454.8144    7383.6785    10850.069   -31598.191   -7989.6719    4906.1126   -10736.218    76.443251 
   91900    391.72856   -107.61829   0.35444423   -107.26385   -9414.5468     4.243651     4.243651     4.243651   -9414.5468    910.18784   -6021.8039   -23132.024    7059.1878   -1506.3849    2634.8279    76.422102 
   92000    1187.3265   -108.33082     1.074318    -107.2565   -813.84781    4.2437534    4.2437534    4.2437534   -813.84781   -12885.257    3945.1962    6498.5173    8946.3181     602.2307    7442.4724    76.427636 
   92100    1038.9246   -108.19806   0.94004082   -107.25802    8843.4259    4.2403572    4.2403572    4.2403572    8843.4259   -1625.6007    20029.975    8125.9034   -9097.8145    6959.8272   -15318.236    76.244292 
   92200    826.62928   -108.01243   0.74795154   -107.26448   -1747.9248    4.2454824    4.2454824    4.2454824   -1747.9248      2237.54   -4206.1233   -3275.1911    8970.7945   -420.89458   -7380.5955    76.521086 
   92300    1401.0601   -108.52158    1.2677086   -107.25387     7083.966    4.2455334    4.2455334    4.2455334     7083.966   -7618.6613    17264.469     11606.09    2926.0519   -1111.8921    4145.1231    76.523844 
   92400    956.57757    -108.1255   0.86553149   -107.25997    3881.2528     4.239479     4.239479     4.239479    3881.2528    532.70812    8729.8741    2381.1761   -14559.933    5316.8905   -9595.9584    76.196928 
   92500    656.26104   -107.85695   0.59379878   -107.26315   -12721.243    4.2433941    4.2433941    4.2433941   -12721.243    7236.2776   -19270.144   -26129.863    7533.8746    -621.8052   -1490.1464    76.408225 
   92600    1046.0462   -108.20096   0.94648459   -107.25447   -6555.6797    4.2438076    4.2438076    4.2438076   -6555.6797   -4848.8168    2992.9844   -17811.207    2978.5307    1199.9414     7488.548    76.430564 
   92700    510.59704   -107.72324   0.46199893   -107.26124    -9508.433    4.2433016    4.2433016    4.2433016    -9508.433   -18221.055    10584.321   -20888.565   -16758.447    3697.4087   -6652.3941    76.403229 
   92800    550.80772   -107.76108    0.4983824    -107.2627   -7344.5062    4.2430826    4.2430826    4.2430826   -7344.5062   -602.37322    2034.2636   -23465.409    3141.7627    1503.2541   -11184.376    76.391398 
   92900     1113.453   -108.26244    1.0074757   -107.25497    4682.3088    4.2402699    4.2402699    4.2402699    4682.3088    -12434.17    23754.562    2726.5343     76.42564    634.35013   -1665.0299    76.239579 
   93000    764.92341   -107.95427   0.69211878   -107.26215   -4464.0809    4.2455158    4.2455158    4.2455158   -4464.0809   -32462.581    6495.5872    12574.751   -18364.515    1222.8279    -9080.362    76.522893 
   93100    1051.9662   -108.21146    0.9518411   -107.25962   -1060.9724    4.2448964    4.2448964    4.2448964   -1060.9724       3209.5   -16331.846    9939.4289    1350.9329    1393.2159   -12537.496    76.489406 
   93200    1282.8117   -108.41479     1.160715   -107.25407    14424.396    4.2389613    4.2389613    4.2389613    14424.396   -9.7738235    13075.238    30207.723    -6665.705   -9452.2872    5536.4873    76.169016 
   93300    877.74983   -108.05497   0.79420649   -107.26076    -6378.175     4.246808     4.246808     4.246808    -6378.175   -15732.181   -15286.012    11883.669       -20001   -1720.0674   -6762.8202    76.592787 
   93400    992.36928   -108.15557   0.89791658   -107.25766   -1628.3945    4.2416585    4.2416585    4.2416585   -1628.3945    22839.441   -13057.266   -14667.358    4052.5593    2264.1269   -23024.209    76.314507 
   93500    980.05459   -108.14252   0.88677399   -107.25575    585.64628    4.2385731    4.2385731    4.2385731    585.64628   -2294.4793    10763.162   -6711.7435   -4258.0216   -4503.3512    5701.6245    76.148092 
   93600    615.41708    -107.8164    0.5568423   -107.25955   -21155.112     4.248366     4.248366     4.248366   -21155.112   -30945.416   -15769.571   -16750.348    -17299.37    -4893.212   -6289.1335    76.677114 
   93700    739.23276   -107.92671   0.66887334   -107.25783   -2320.1154    4.2400452    4.2400452    4.2400452   -2320.1154    6256.9457   -6203.3299   -7013.9619    3060.7757    2903.5212    -31389.05    76.227462 
   93800    821.66283   -108.00019    0.7434578   -107.25673    5116.6334    4.2386044    4.2386044    4.2386044    5116.6334   -18860.072    16432.088    17777.885   -2606.8676   -3358.6143    81.599301    76.149778 
   93900    699.84494   -107.89371   0.63323441   -107.26047   -5966.0869    4.2460322    4.2460322    4.2460322   -5966.0869   -35251.214   -7210.6582    24563.612   -14382.331   -6921.9136   -56.805095     76.55082 
   94000    922.98236   -108.09286   0.83513384   -107.25772    3684.0302    4.2438267    4.2438267    4.2438267    3684.0302    4469.8624   -8928.6102    15510.839    1275.8635    2773.2175   -30177.079    76.431594 
   94100    1182.4875   -108.32514    1.0699396    -107.2552    3666.2254    4.2398414    4.2398414    4.2398414    3666.2254   -3740.9897   -5169.1718    19908.838   -5489.1475   -3951.0359   -1957.0938    76.216472 
   94200    1014.6088   -108.17694   0.91803941    -107.2589   -5080.8946    4.2422011    4.2422011    4.2422011   -5080.8946    693.41215   -25122.093    9185.9973   -13212.625   -9730.7369    -4988.131    76.343796 
   94300    1027.4172   -108.18799   0.92962864   -107.25836   -3536.1629    4.2444056    4.2444056    4.2444056   -3536.1629    25232.243    -24535.73   -11305.002    4474.7226     1670.588   -35007.473    76.462879 
   94400     1025.735   -108.18302   0.92810654   -107.25492    1967.1137    4.2432385    4.2432385    4.2432385    1967.1137   -3068.2865   -4808.4713    13778.099   -4322.6634    141.05582    3933.9925    76.399821 
   94500    683.83902   -107.87606   0.61875192    -107.2573    461.61342    4.2418477    4.2418477    4.2418477    461.61342   -13064.155   -10521.668    24970.663    -13714.74   -11072.846   -5604.7416    76.324717 
   94600     688.5189   -107.88149   0.62298637    -107.2585   -1076.3694    4.2408595    4.2408595    4.2408595   -1076.3694    1090.1136   -6049.1587     1729.937    3765.5733     2248.839   -33892.706    76.271391 
   94700    944.58559   -108.11031   0.85468089   -107.25563    1601.1695    4.2420894    4.2420894    4.2420894    1601.1695   -26426.006    4075.8734    27153.641   -1684.5174   -2051.1941    5798.1311    76.337764 
   94800    812.81737   -107.99454   0.73545424   -107.25909   -10214.671    4.2457061    4.2457061    4.2457061   -10214.671   -18181.528   -7233.6082   -5228.8753   -10001.133   -9307.9138   -6277.7178    76.533184 
   94900    960.07601   -108.12681   0.86869695   -107.25811    184.89197    4.2394499    4.2394499    4.2394499    184.89197    19740.005   -9672.2361   -9513.0929    1854.0613    239.40042   -31341.885    76.195358 
   95000    1083.6502   -108.23733   0.98050943   -107.25682     2496.738    4.2413509    4.2413509    4.2413509     2496.738   -2580.1733   -14239.681    24310.069   -3787.5276   -1723.6506    3919.3526    76.297904 
   95100    795.68477   -107.98074    0.7199523   -107.26079   -2783.3101    4.2454624    4.2454624    4.2454624   -2783.3101    1337.5465   -28265.958    18578.481   -6519.0211   -7266.6153   -211.94405    76.520006 
   95200    868.63417   -108.04425   0.78595845   -107.25829    6215.0796    4.2397587    4.2397587    4.2397587    6215.0796     25011.62   -24158.561    17792.181    2305.7136   -1946.8195    -25635.92    76.212013 
   95300    905.87255   -108.07743   0.81965252   -107.25777   -2252.5208     4.243892     4.243892     4.243892   -2252.5208   -11211.969   -17777.792    22232.199   -2292.6394    6447.6721    4106.3804    76.435122 
   95400    827.52757   -108.00817   0.74876433   -107.25941   -2234.4219    4.2427884    4.2427884    4.2427884   -2234.4219   -6887.1267     4411.995    -4228.134   -8316.8007   -4375.4561    2649.3389    76.375509 
   95500    1080.3947   -108.23333   0.97756382   -107.25576    7040.2777     4.238711     4.238711     4.238711    7040.2777    14251.745      13759.5   -6890.4121    7525.0925   -2866.4802   -23703.473    76.155526 
   95600    952.51664   -108.11888   0.86185707   -107.25703   -13469.601    4.2481931    4.2481931    4.2481931   -13469.601   -29576.411   -5061.9596   -5770.4315    7096.9794    8745.7283    2015.3618    76.667758 
   95700    891.93703   -108.06525   0.80704337    -107.2582   -1955.1609    4.2393245    4.2393245    4.2393245   -1955.1609   -3301.2551    906.05133   -3470.2789   -10561.853    543.86507    8279.6153    76.188596 
   95800    1106.4028   -108.25621    1.0010965   -107.25511    5689.5625    4.2382464    4.2382464    4.2382464    5689.5625     17868.29   -18632.607    17833.004    4802.1633   -6566.4964   -11534.123    76.130487 
   95900     646.5665   -107.84691   0.58502695   -107.26188   -10417.729    4.2473789    4.2473789    4.2473789   -10417.729   -15973.415   -44881.298    29601.526    7664.6237    9742.6124    390.24355    76.623682 
   96000     658.6008   -107.85792   0.59591584     -107.262    6229.1238    4.2397656    4.2397656    4.2397656    6229.1238    8471.5491   -20382.298    30598.121   -9747.1416    4718.2279    14090.534    76.212385 
   96100    1087.4038   -108.23854   0.98390584   -107.25463    7975.9368    4.2425323    4.2425323    4.2425323    7975.9368    20421.946   -14927.885    18433.749    1998.0473   -6185.8375   -837.72924    76.361679 
   96200    707.36326   -107.90174   0.64003714   -107.26171   -6965.6306    4.2433532    4.2433532    4.2433532   -6965.6306   -22747.074   -17573.539    19423.721    5709.1501      8004.43   -1969.7152    76.406015 
   96300     783.3044    -107.9719   0.70875029   -107.26315    776.28073    4.2381882    4.2381882    4.2381882    776.28073   -1671.9517    6196.9807   -2196.1868   -5681.1825    8388.9892    15512.404    76.127348 
   96400    1313.0907   -108.44319    1.1881121   -107.25508    1944.1771    4.2451369    4.2451369    4.2451369    1944.1771    3106.9903    3523.4257   -797.88482    5044.2771    -367.3221    2549.1886    76.502409 
   96500    896.22655   -108.07193   0.81092462     -107.261   -5926.6219    4.2435923    4.2435923    4.2435923   -5926.6219   -9938.0066   -14986.481    7144.6224    9402.0846    1343.1197    -3999.412    76.418933 
   96600    815.67358   -107.99948    0.7380386   -107.26145    415.61423    4.2384625    4.2384625    4.2384625    415.61423    17357.414   -12369.151   -3741.4201   -10999.231    10723.603    16601.954    76.142133 
   96700     1183.712   -108.32638    1.0710475   -107.25533    287.52599    4.2447598    4.2447598    4.2447598    287.52599    19286.492   -26559.959     8136.045    8267.9983    1003.1559    5529.8861    76.482022 
   96800     798.2492   -107.98364   0.72227265   -107.26137    2842.7136    4.2392192    4.2392192    4.2392192    2842.7136     8985.712    -37205.77    36748.199    11108.467   -3181.5462   -5059.7113     76.18292 
   96900    665.60982   -107.86595   0.60225775   -107.26369    4278.1317    4.2414367    4.2414367    4.2414367    4278.1317     14263.99   -30846.827    29417.232   -14960.033    11317.652    14578.524    76.302537 
   97000    1009.9605   -108.16952   0.91383345   -107.25569    4295.9138    4.2464724    4.2464724    4.2464724    4295.9138     7521.879   -12337.845    17703.708    7403.6115   -5578.8583    5658.0431    76.574634 
   97100    668.30732   -107.86448   0.60469851   -107.25978    15427.138    4.2358494    4.2358494    4.2358494    15427.138    7061.7828   -2795.8895     42015.52    3894.3029   -3310.5617     -5537.51    76.001391 
   97200     821.6659   -108.00477   0.74346057   -107.26131   -4570.0041    4.2438824    4.2438824    4.2438824   -4570.0041    -17269.39   -7795.0273    11354.405   -17154.046     8577.441    7567.8886    76.434604 
   97300    1143.9584    -108.2902    1.0350776   -107.25512    2563.0082     4.243998     4.243998     4.243998    2563.0082    5264.7458    814.81321    1609.4654    6453.0574   -2140.7788    4630.6944    76.440851 
   97400    764.76661   -107.95269    0.6919769   -107.26071    125.18081    4.2387957    4.2387957    4.2387957    125.18081    7615.4133   -20186.732    12946.861   -824.19473   -5327.7967   -4779.3937    76.160089 
   97500    993.36503   -108.15904   0.89881756   -107.26022   -11882.542    4.2453628    4.2453628    4.2453628   -11882.542    876.73828   -37517.847     993.4831   -17009.233    5548.2274    3997.0349     76.51462 
   97600    1263.3717   -108.39748    1.1431253   -107.25435    6625.0299     4.240222     4.240222     4.240222    6625.0299    32509.198   -12667.266    33.158224    9451.7554   -834.79246    3059.0867       76.237 
   97700    542.65151   -107.75618   0.49100249   -107.26518   -7773.7036    4.2415173    4.2415173    4.2415173   -7773.7036   -6106.0715   -38017.308    20802.269   -5143.7594    -11598.84   -5152.6481    76.306883 
   97800    832.73022   -108.01816    0.7534718   -107.26469   -10353.038    4.2453254    4.2453254    4.2453254   -10353.038    -19068.17   -44400.654    32409.711   -19432.846    2812.8448    2542.5069      76.5126 
   97900    1301.0713   -108.43094    1.1772366    -107.2537    6821.0118    4.2403354    4.2403354    4.2403354    6821.0118     7023.442   -4789.5369     18229.13     9328.408    -1478.322     794.1961    76.243112 
   98000    570.02444   -107.78268    0.5157701   -107.26691   -5236.4454    4.2419637    4.2419637    4.2419637   -5236.4454   -28375.594   -24464.794    37131.052   -12165.159   -7377.8034   -5942.3002    76.330979 
   98100    940.58635   -108.11654    0.8510623   -107.26548   -93.377367    4.2430977    4.2430977    4.2430977   -93.377367   -15998.185   -20071.081    35789.133   -19246.676   -2051.1067   -2812.2168    76.392212 
   98200    1396.6461   -108.51973    1.2637147   -107.25602    14226.836    4.2403188    4.2403188    4.2403188    14226.836    18512.794    5505.4176    18662.295    4465.9284   -535.84732    2701.9763    76.242218 
   98300      624.245   -107.83336      0.56483   -107.26853    209.47769    4.2420963    4.2420963    4.2420963    209.47769   -15908.993   -22871.483    39408.909   -14792.604   -7172.4293   -3866.5994     76.33814 
   98400    752.04471   -107.94349   0.68046586   -107.26303   -4636.6835    4.2435983    4.2435983    4.2435983   -4636.6835    8117.8551   -35655.959    13628.054    -9854.892   -3849.8574   -5362.6844    76.419256 
   98500    978.68097   -108.14119   0.88553111   -107.25566    1671.4993    4.2417508    4.2417508    4.2417508    1671.4993    28307.655   -21476.828   -1816.3289    3466.3822    8460.9998    7163.4739    76.319489 
   98600    428.75181   -107.65141   0.38794365   -107.26347   -10915.954      4.24257      4.24257      4.24257   -10915.954   -12098.592   -38253.753    17604.484   -21921.645   -3048.5534   -1698.5706    76.363715 
   98700     758.7471     -107.947   0.68653032   -107.26047   -1045.8587    4.2401181    4.2401181    4.2401181   -1045.8587    3455.2539   -20296.528    13703.698   -10272.582   -2686.8543   -602.73609    76.231396 
   98800    1059.5221   -108.21562   0.95867784   -107.25694   -6233.2304    4.2444987    4.2444987    4.2444987   -6233.2304   -730.24497   -6555.0934   -11414.353    3485.4787    11883.064    12920.871     76.46791 
   98900    769.03318    -107.9585   0.69583738   -107.26267   -13233.662    4.2448604    4.2448604    4.2448604   -13233.662   -29131.171   -23714.018    13144.202   -28886.543    4589.8376    2839.6245     76.48746 
   99000    1258.3992   -108.39746     1.138626   -107.25884    12971.609    4.2374593    4.2374593    4.2374593    12971.609    9988.5942   -2696.4236    31622.657     -6533.93   -7008.7415   -649.32528    76.088078 
   99100    1345.3992   -108.47533    1.2173455   -107.25799    3842.4022    4.2434018    4.2434018    4.2434018    3842.4022     1457.414    979.33595    9090.4567    7150.2194    9957.5044    8956.0411    76.408639 
   99200    740.81006   -107.93678   0.67030051   -107.26648   -2758.8242    4.2450712    4.2450712    4.2450712   -2758.8242   -17847.641   -24898.519    34469.688   -31201.661    10300.295    4914.1509    76.498854 
   99300    1271.2841   -108.40803    1.1502846   -107.25775    8384.8317    4.2411226    4.2411226    4.2411226    8384.8317    8120.3598   -12415.006    29449.142   -6266.4787    -8039.602   -2900.6323    76.285584 
   99400    1006.3648   -108.17126   0.91057999   -107.26068    5725.9576    4.2401365    4.2401365    4.2401365    5725.9576    6320.9384   -6917.2265    17774.161    1518.5855    6258.9157   -203.75553    76.232386 
   99500    339.91753   -107.57788   0.30756453   -107.27031   -13651.119    4.2428786    4.2428786    4.2428786   -13651.119    -25015.52   -29840.859    13903.021   -32852.516    14324.561    4992.8666    76.380379 
   99600    943.52409   -108.11289   0.85372043   -107.25917   -829.93834    4.2444236    4.2444236    4.2444236   -829.93834    5895.1636   -13937.145    5552.1663   -4183.8321   -2331.5216   -4091.4144    76.463851 
   99700    790.93975   -107.97553   0.71565891   -107.25987   -10992.445    4.2434594    4.2434594    4.2434594   -10992.445   -11835.174   -11670.649   -9471.5134   -3773.0665    4412.8828   -4132.4204    76.411753 
   99800    266.35972    -107.5085   0.24100787    -107.2675   -17207.123    4.2409244    4.2409244    4.2409244   -17207.123    -38042.24   -9825.5509   -3753.5785   -35023.852    16106.668    8248.0377     76.27489 
   99900    1101.2784   -108.25693   0.99645985   -107.26047    1437.9986    4.2420113    4.2420113    4.2420113    1437.9986   -418.38993    5545.8706   -813.48482    669.97438    735.24574   -1285.6275     76.33355 
  100000    1048.3419    -108.2092   0.94856181   -107.26064     1829.283    4.2443347    4.2443347    4.2443347     1829.283    6148.6523   -7080.2619    6419.4587   -5420.3414   -2291.5665   -7122.2001    76.459047 
Loop time of 24.2759 on 1 procs for 100000 steps with 8 atoms

Pair  time (%) = 8.05693 (33.1889)
Kspce time (%) = 5.7841 (23.8265)
Neigh time (%) = 0 (0)
Comm  time (%) = 1.13669 (4.68239)
Outpt time (%) = 0.0369854 (0.152354)
Other time (%) = 9.26124 (38.1499)

Nlocal:    8 ave 8 max 8 min
Histogram: 1 0 0 0 0 0 0 0 0 0
Nghost:    2189 ave 2189 max 2189 min
Histogram: 1 0 0 0 0 0 0 0 0 0
Neighs:    2472 ave 2472 max 2472 min
Histogram: 1 0 0 0 0 0 0 0 0 0

Total # of neighbors = 2472
Ave neighs/atom = 309
Neighbor list builds = 0
Dangerous builds = 0
unfix 20
unfix 21
print "seeds:7760779"
seeds:7760779
