LAMMPS (10 Feb 2015)
# ---- initialize simulations
clear
units metal
dimension 3
boundary p p p
atom_style charge
atom_modify map array
# ---- create atoms
read_data /Users/eugeneragasa/pyflamestk_git/pypospack/tests/tests_integration/workflow/WorkflowLammpsThermalExpansion/param_2632/MgO_NaCl_unit.npt.T1600/lammps.structure
  triclinic box = (0 0 0) to (4.2565 4.2565 4.2565) with tilt (0 0 0)
  1 by 1 by 1 MPI processor grid
  reading atoms ...
  8 atoms
# ---- define interatomic potential
include potential.mod
mass 1 24.305
mass 2 15.999

group Mg type 1
4 atoms in group Mg
group O type 2
4 atoms in group O

set group Mg charge 1.63285961235
  4 settings made for charge
set group O charge -1.63285961235
  4 settings made for charge

variable R_cut equal 10.0

pair_style buck/coul/long ${R_cut}
pair_style buck/coul/long 10
pair_coeff 1 1 0.0 0.5 0.0 ${R_cut}
pair_coeff 1 1 0.0 0.5 0.0 10
pair_coeff 1 2 1437.07173936 0.281984725072 0.0 ${R_cut}
pair_coeff 1 2 1437.07173936 0.281984725072 0.0 10
pair_coeff 2 2 17907.6681412 0.158842179647 12.0518239093 ${R_cut}
pair_coeff 2 2 17907.6681412 0.158842179647 12.0518239093 10

kspace_style pppm 1.0e-5

neighbor 1.0 bin
neigh_modify every 1 delay 0 check yes
# ---- define settings
compute eng all pe/atom
compute eatoms all reduce sum c_eng
# ---- run minimization
reset_timestep 0
fix 1 all box/relax iso 0.0 vmax 0.001
thermo 10
thermo_style custom step pe lx ly lz xy xz yz press pxx pyy pzz pxy pxz pyz c_eatoms
min_style cg
minimize 1e-25 1e-25 5000 10000
PPPM initialization ...
  G vector (1/distance) = 0.352629
  grid = 8 8 8
  stencil order = 5
  estimated absolute RMS force accuracy = 3.86465e-05
  estimated relative force accuracy = 2.68385e-06
  using double precision FFTs
  3d grid and FFT values/proc = 3375 512
Neighbor list info ...
  1 neighbor list requests
  update every 1 steps, delay 0 steps, check yes
  master list distance cutoff = 11
Memory usage per processor = 4.06549 Mbytes
Step PotEng Lx Ly Lz Xy Xz Yz Press Pxx Pyy Pzz Pxy Pxz Pyz eatoms 
       0   -108.26668       4.2565       4.2565       4.2565            0            0            0     68174.25     68174.25     68174.25     68174.25 -1.8708973e-11 1.9918278e-11 -1.4539535e-10   -108.26668 
      10   -108.32672     4.299065     4.299065     4.299065            0            0            0    15974.818    15974.818    15974.818    15974.818 2.7247293e-10 7.4247233e-11 1.7340321e-10   -108.32672 
      14   -108.33064    4.3118345    4.3118345    4.3118345            0            0            0    1605.1095    1605.1095    1605.1095    1605.1095 -5.9694499e-11 -6.7982128e-11 4.9253128e-12   -108.33064 
Loop time of 0.015254 on 1 procs for 14 steps with 8 atoms

Minimization stats:
  Stopping criterion = linesearch alpha is zero
  Energy initial, next-to-last, final = 
        -108.266678614      -108.33063925      -108.33063925
  Force two-norm initial, final = 9.8444 0.23785
  Force max component initial, final = 9.8444 0.237844
  Final line search alpha, max atom move = 1.28309e-07 3.05176e-08
  Iterations, force evaluations = 14 44

Pair  time (%) = 0.0040834 (26.7693)
Kspce time (%) = 0.00239396 (15.694)
Neigh time (%) = 0 (0)
Comm  time (%) = 0.000464439 (3.0447)
Outpt time (%) = 1.21593e-05 (0.0797124)
Other time (%) = 0.00830007 (54.4123)

Nlocal:    8 ave 8 max 8 min
Histogram: 1 0 0 0 0 0 0 0 0 0
Nghost:    2189 ave 2189 max 2189 min
Histogram: 1 0 0 0 0 0 0 0 0 0
Neighs:    2344 ave 2344 max 2344 min
Histogram: 1 0 0 0 0 0 0 0 0 0

Total # of neighbors = 2344
Ave neighs/atom = 293
Neighbor list builds = 0
Dangerous builds = 0
unfix 1
# ---- define output variables ----
variable natoms equal "count(all)"
variable tot_energy equal "c_eatoms"
variable length_x equal "lx"
variable length_y equal "ly"
variable length_z equal "lz"
variable tilt_xy equal "xy"
variable tilt_xz equal "xz"
variable tilt_yz equal "yz"
variable tot_press equal "press"
variable press_xx equal "pxx"
variable press_yy equal "pyy"
variable press_zz equal "pzz"
variable press_xy equal "pxy"
variable press_xz equal "pxz"
variable press_yz equal "pyz"

# ---- output ----
print "pypospack:output_section:begin"
pypospack:output_section:begin
print "tot_energy = ${tot_energy}"
tot_energy = -108.330639250266
print "num_atoms = ${natoms}"
num_atoms = 8
print "xx = ${length_x}"
xx = 4.3118345
print "yy = ${length_y}"
yy = 4.3118345
print "zz = ${length_z}"
zz = 4.3118345
print "xy = ${tilt_xy}"
xy = 0
print "xz = ${tilt_xz}"
xz = 0
print "yz = ${tilt_yz}"
yz = 0
print "tot_press = ${tot_press}"
tot_press = 1605.10951764203
print "pxx = ${press_xx}"
pxx = 1605.10951764176
print "pyy = ${press_yy}"
pyy = 1605.10951764198
print "pzz = ${press_zz}"
pzz = 1605.10951764233
print "pxy = ${press_xy}"
pxy = -5.96944985898881e-11
print "pxz = ${press_xz}"
pxz = -6.79821282837662e-11
print "pyz = ${press_yz}"
pyz = 4.92531279854496e-12
print "pypospack:output_section:done"
pypospack:output_section:done
print "pypospack:lammps_sim:done"
pypospack:lammps_sim:done
#------------------------------------------------------------------------------
# RUN THERMOSTAT
# running using an NPT Nose-Hoover style thermostat
#------------------------------------------------------------------------------
variable tempdamp equal 0.1
variable pressdamp equal 1.0
# set initial velocities
velocity all create 1600 4755905 mom yes dist gaussian loop all
# fix for Nose-Hoover style thermostat
fix 20 all npt temp 1600 1600 0.1 aniso 0.0 0.0 1.0 drag 1.0 couple xyz
variable boxx equal lx
variable boxy equal ly
variable boxz equal lz
variable boxp equal press
variable boxt equal temp
# calculate averages every 10000 steps
reset_timestep 0
fix 21 all ave/time 10 10 100 v_boxx v_boxy v_boxz v_boxp v_boxt file lattice.out
thermo_style custom step temp pe ke etotal press lx ly lz press pxx pyy pzz pxy pxz pyz vol
thermo_modify flush yes
thermo 100
run 100000
PPPM initialization ...
  G vector (1/distance) = 0.352078
  grid = 8 8 8
  stencil order = 5
  estimated absolute RMS force accuracy = 3.96373e-05
  estimated relative force accuracy = 2.75266e-06
  using double precision FFTs
  3d grid and FFT values/proc = 3375 512
Memory usage per processor = 3.06549 Mbytes
Step Temp PotEng KinEng TotEng Press Lx Ly Lz Press Pxx Pyy Pzz Pxy Pxz Pyz Volume 
       0         1600   -108.33065    1.4477136   -106.88293    20892.813    4.3118345    4.3118345    4.3118345    20892.813    24940.112    21865.687     15872.64    211.57356    5083.6769   -6923.7164    80.165268 
     100    640.22574   -107.27294    0.5792897   -106.69366    16159.987    4.3441836    4.3441836    4.3441836    16159.987    13197.111   -9227.3929    44510.243   -897.93239    4692.2852   -3344.5504    81.983135 
     200    822.72863   -107.04742   0.74442216   -106.30299   -32977.275    4.3886282    4.3886282    4.3886282   -32977.275   -36692.218   -65255.871    3016.2638    3522.3552   -2113.8771   -2953.8305    84.525229 
     300    1183.7308   -107.01759    1.0710645   -105.94652    7463.2771    4.3859903    4.3859903    4.3859903    7463.2771   -33980.003   -9754.9301    66124.764   -1902.9097   -5837.2125    4366.5836    84.372902 
     400     1920.186   -107.40506    1.7374246   -105.66763    3762.4598    4.3658929    4.3658929    4.3658929    3762.4598   -12236.231    7163.8879    16359.722   -3659.0566    2332.1161    19376.943    83.218378 
     500    1465.4825   -106.83145    1.3259994   -105.50545    37332.617    4.3696793    4.3696793    4.3696793    37332.617   -22886.965    78494.103    56390.712    10905.309   -3622.1205   -1835.1721    83.435078 
     600    1175.3564    -106.4892    1.0634872   -105.42571   -21710.407    4.3961216    4.3961216    4.3961216   -21710.407   -31335.723   -66946.879    33151.382   -6310.2573   -4207.7796   -9156.6667    84.958939 
     700    1632.5534   -106.84479    1.4771686   -105.36762   -29803.407    4.4043273    4.4043273    4.4043273   -29803.407   -29083.807   -45000.486   -15325.929    437.72307     9429.086   -9654.0968    85.435579 
     800    2151.3132    -107.2957    1.9465534   -105.34914    13338.974     4.376018     4.376018     4.376018    13338.974   -22713.926    6363.3046    56367.544    9372.5272    -6769.856   -15301.183    83.798703 
     900    1069.0732   -106.35005   0.96731994   -105.38273    6841.4779    4.3676757    4.3676757    4.3676757    6841.4779   -38433.423    2648.2759     56309.58    1544.8631     32195.77   -8111.2852    83.320365 
    1000    1422.4023   -106.69457    1.2870195   -105.40755   -32226.015    4.3849484    4.3849484    4.3849484   -32226.015   -37513.124   -62821.058    3656.1363    708.45632    18.544485    273.21005    84.312788 
    1100    1915.1402   -107.12373    1.7328591   -105.39087   -8855.8925    4.3977247    4.3977247    4.3977247   -8855.8925    -48590.19   -10840.489    32863.002    16875.028   -6044.3548   -24489.561     85.05192 
    1200    1665.3567   -106.87518    1.5068497   -105.36833    507.38529    4.3906911    4.3906911    4.3906911    507.38529   -29447.463    9358.1129    21611.506    19034.729    25403.686   -5951.5447    84.644483 
    1300    1150.0297   -106.39998     1.040571   -105.35941    18893.146    4.3773991    4.3773991    4.3773991    18893.146    24215.903    -52461.36    84924.895     -355.692   -7761.5369    9695.9421    83.878072 
    1400    2064.7243   -107.24516     1.868206   -105.37695    -16045.21    4.3779307    4.3779307    4.3779307    -16045.21   -22336.833    -13328.89   -12469.909   -11583.563    19062.099   -6213.1043    83.908631 
    1500    1891.9574   -107.10939    1.7118829   -105.39751    13248.324    4.3810784    4.3810784    4.3810784    13248.324    7505.7074    -8355.461    40594.724    1060.8205    10153.888   -6102.3589    84.089753 
    1600    1579.7999   -106.81752    1.4294362   -105.38808   -754.48756    4.3834929    4.3834929    4.3834929   -754.48756   -3737.9227   -35397.662    36872.122    5530.5186   -17223.951    191.01485    84.228858 
    1700    1013.7248   -106.30376   0.91723946   -105.38653   -16747.081    4.3800597    4.3800597    4.3800597   -16747.081    -37287.61   -51351.018    38397.385    6954.1107    15719.911   -14790.546    84.031106 
    1800    1670.8997   -106.89459    1.5118651   -105.38273     33188.09    4.3666624    4.3666624    4.3666624     33188.09    81829.477   -6115.6164    23850.408   -9056.2294   -1430.2299   -3034.5026    83.262383 
    1900    2440.6785   -107.60411    2.2083772   -105.39574   -7356.4522    4.3810764    4.3810764    4.3810764   -7356.4522    26103.976     -12434.4   -35738.933    10896.795   -24111.401     762.3868    84.089637 
    2000    1456.3628   -106.70725    1.3177477    -105.3895   -17401.501    4.3847765    4.3847765    4.3847765   -17401.501     1778.921   -55040.573    1057.1482    10009.619    7922.2936   -8197.7922    84.302874 
    2100    935.55484    -106.2232   0.84650968   -105.37669    26122.018    4.3706115    4.3706115    4.3706115    26122.018    54481.735    10129.776    13754.544   -13462.469    -1650.213    1984.2573    83.488489 
    2200    2242.4207   -107.40863    2.0289894   -105.37964    3255.5271    4.3773778    4.3773778    4.3773778    3255.5271    23629.232    12208.678   -26071.329    16660.225   -10637.342    -463.4411    83.876848 
    2300    1972.5364   -107.16105    1.7847924   -105.37626   -1808.6332    4.3860645    4.3860645    4.3860645   -1808.6332    30548.439   -30498.298     -5476.04    5690.5281    13859.425    7758.8601    84.377186 
    2400    812.38456   -106.11848   0.73506262   -105.38341   -11335.462    4.3825069    4.3825069    4.3825069   -11335.462    2294.3434   -33703.568   -2597.1603   -2219.8594   -22977.744    9091.5206    84.172036 
    2500    1733.6349   -106.95328    1.5686292   -105.38465     12900.89    4.3651302    4.3651302    4.3651302     12900.89    53225.275   -29978.086     15455.48    7369.5027   -3594.1961   -7771.3478    83.174772 
    2600    2190.6911   -107.38418    1.9821833     -105.402    5355.1117    4.3672591    4.3672591    4.3672591    5355.1117    18610.669   -23779.392    21234.058    -13925.51    2949.5135    6823.4503    83.296522 
    2700    1356.0896   -106.64132    1.2270183    -105.4143    12887.352    4.3802254    4.3802254    4.3802254    12887.352     75871.09   -23450.357   -13758.677    3640.7298   -24926.279    11266.056    84.040647 
    2800    1705.9257   -106.93613    1.5435575   -105.39258   -23858.116    4.3794227    4.3794227    4.3794227   -23858.116   -27309.537    -56067.29    11802.479   -838.90939    1848.3875   -6012.0426    83.994451 
    2900    1476.0863   -106.74426    1.3355939   -105.40867     3060.844    4.3721526    4.3721526    4.3721526     3060.844    24034.274   -30897.405    16045.663    4050.1953    3946.5525    -3946.554    83.576836 
    3000    1862.2138   -107.10844    1.6849702   -105.42347    20288.816    4.3754258    4.3754258    4.3754258    20288.816    97541.355   -3672.4653    -33002.44    2926.2144   -21365.135    10256.027    83.764684 
    3100    1752.5189   -106.99834    1.5857159   -105.41263   -2894.7088    4.3794437    4.3794437    4.3794437   -2894.7088    52108.915   -58498.864   -2294.1775   -9034.8023    615.25948    874.82605    83.995657 
    3200    1032.2382   -106.34451   0.93399086   -105.41052   -6109.5783    4.3833747    4.3833747    4.3833747   -6109.5783    70101.118   -52290.249   -36139.604   -14348.965    -4667.881   -9902.6813    84.222046 
    3300    1946.0533   -107.16397    1.7608299   -105.40314   -5548.2492    4.3773209    4.3773209    4.3773209   -5548.2492    18062.425   -6467.3613   -28239.811   -15858.125    -17491.88    9019.6472    83.873576 
    3400    1897.5528   -107.12345    1.7169457    -105.4065    28769.589    4.3633946    4.3633946    4.3633946    28769.589    79987.531   -2609.0237    8930.2583    10925.827    -6276.971    8219.1371    83.075598 
    3500    995.27418   -106.34729   0.90054499   -105.44674   -19248.721    4.3845247    4.3845247    4.3845247   -19248.721     60249.02   -64304.962   -53690.222    3866.2671   -27108.409    1693.1527    84.288351 
    3600    1882.6356   -107.12927    1.7034482   -105.42582   -25102.161    4.3885658    4.3885658    4.3885658   -25102.161     19227.29     -64940.1   -29593.673    26858.841    621.34908   -1880.2091    84.521627 
    3700    1646.0895   -106.90414    1.4894164   -105.41473    25032.951    4.3770487    4.3770487    4.3770487    25032.951    42015.264    16414.425    16669.165   -10195.945     2092.779   -4168.3647    83.857928 
    3800    1515.9116   -106.77795    1.3716287   -105.40632   -19177.053    4.3830077    4.3830077    4.3830077   -19177.053    10297.239   -46968.155   -20860.244   -16861.357   -17308.662    6382.6534    84.200894 
    3900    1408.4188   -106.67416    1.2743669   -105.39979    9130.1405    4.3913828    4.3913828    4.3913828    9130.1405    123132.92   -71097.048   -24645.452   -3954.5736    -4021.205   -4470.8693    84.684494 
    4000    1979.8505    -107.1886    1.7914104   -105.39718   -7643.8298    4.3855258    4.3855258    4.3855258   -7643.8298    7788.6214   -26673.898    -4046.213   -20026.224   -10357.435   -8395.6624    84.346099 
    4100    1718.2769   -106.95281    1.5547331   -105.39808   -9119.0664    4.3831697    4.3831697    4.3831697   -9119.0664    20237.518   -26756.638   -20838.079     8043.723   -17066.143    577.06073    84.210233 
    4200    948.63063   -106.24681   0.85834093   -105.38847    12939.907    4.3920785    4.3920785    4.3920785    12939.907    133905.95   -83709.188   -11377.035    6840.7224   -13282.535     4193.671    84.724748 
    4300    1446.3411   -106.70769    1.3086798   -105.39901   -4445.8913    4.3913227    4.3913227    4.3913227   -4445.8913    17266.518   -32867.443     2263.252    16744.011   -19801.228   -7408.5422    84.681016 
    4400     2165.245   -107.34664    1.9591591   -105.38748    262.65058     4.373674     4.373674     4.373674    262.65058    7512.1087     3910.184   -10634.341   -9187.4481    31104.797   -546.45508    83.664116 
    4500    1003.5496   -106.30058   0.90803276   -105.39255    3312.6338    4.3734324    4.3734324    4.3734324    3312.6338    54015.662   -46735.169    2657.4085   -2415.3611   -15148.614   -9776.7499    83.650255 
    4600    1242.0418    -106.5202    1.1238256   -105.39637   -15117.193    4.3799055    4.3799055    4.3799055   -15117.193   -28425.583   -53965.019    37039.023   -9242.1346   -12885.609    4179.1981    84.022236 
    4700    1867.4618   -107.08708    1.6897187   -105.39736    9821.3037    4.3814617    4.3814617    4.3814617    9821.3037    57021.635     4170.701   -31728.425   -4248.8772    32305.075   -12564.125    84.111826 
    4800    2079.3218    -107.2726    1.8814141   -105.39118   -7659.0549    4.3843554    4.3843554    4.3843554   -7659.0549    33507.833   -14334.696   -42150.302    16978.794   -6976.4178   -17844.345    84.278591 
    4900    1323.1154   -106.58104    1.1971826   -105.38386    18138.652    4.3700447    4.3700447    4.3700447    18138.652    78049.618   -19135.293   -4498.3707   -1152.6384    2861.3589    3108.9823    83.456014 
    5000    982.01611   -106.29081   0.88854881   -105.40227    3465.9481    4.3829754    4.3829754    4.3829754    3465.9481     12256.06    5643.0467   -7501.2625    2849.1478    13909.354   -9462.5954    84.199034 
    5100    2262.5933   -107.43491     2.047242   -105.38767   -13084.111    4.3863954    4.3863954    4.3863954   -13084.111    9138.9704   -26890.417   -21500.887    23108.921   -13772.863   -3283.2557    84.396285 
    5200    1690.6972   -106.91113    1.5297783   -105.38135    26536.647    4.3750923    4.3750923    4.3750923    26536.647    76741.504    29145.251   -26276.815   -58.426886    22478.544   -11347.889    83.745534 
    5300     1547.539   -106.79152    1.4002458   -105.39127   -16049.316    4.3885685    4.3885685    4.3885685   -16049.316    -7534.378   -29506.728   -11106.842   -3757.8163    260.08071   -1285.4926     84.52178 
    5400    1234.0826   -106.49556    1.1166238   -105.37894     30706.87    4.3872785    4.3872785    4.3872785     30706.87    70077.691    29158.253    -7115.334    5009.8906   -1259.8364   -3489.5157    84.447267 
    5500    1606.9267   -106.85151    1.4539811   -105.39752   -14956.458    4.3861244    4.3861244    4.3861244   -14956.458    -3057.706   -1787.3765    -40024.29   -4439.5354    5082.4576   -5056.7773    84.380645 
    5600    1938.2708   -107.15242    1.7537882   -105.39864     7990.039    4.3855337    4.3855337    4.3855337     7990.039     23393.38    15094.994   -14518.257    -9092.586    7625.9391   -7186.4674    84.346558 
    5700    1514.7029   -106.77257     1.370535   -105.40204   -15132.358    4.3957875    4.3957875    4.3957875   -15132.358   -13742.842   -15563.031   -16091.202   -4705.5322    19374.853    5107.7965     84.93957 
    5800    1699.3354   -106.94085    1.5375944   -105.40325    3701.0686    4.3850611    4.3850611    4.3850611    3701.0686    26328.909   -9616.2736   -5609.4298   -23035.613   -24090.664   -1077.9126    84.319291 
    5900    1731.8792   -106.99403    1.5670407   -105.42699   -2660.1034    4.3791677    4.3791677    4.3791677   -2660.1034   -4974.2148   -2723.5612   -282.53427   -20.505118    11304.739    -7838.705    83.979777 
    6000     1454.658   -106.76326    1.3162052   -105.44705    11643.223    4.3840337    4.3840337    4.3840337    11643.223    112486.87   -55641.905    -21915.29   -27119.829    7699.2792    156.73772     84.26004 
    6100    1528.3252   -106.85138    1.3828608   -105.46852   -980.47927    4.4018652    4.4018652    4.4018652   -980.47927    90125.473   -64913.245   -28153.666   -7863.1388    1139.8558    1219.8207    85.292378 
    6200    1146.4986   -106.49336     1.037376   -105.45598    237.81007     4.396765     4.396765     4.396765    237.81007    85845.309   -26787.168   -58344.711    12002.157   -2431.0266    19552.865    84.996248 
    6300    1375.1883   -106.68938    1.2442992   -105.44509    24760.782     4.362035     4.362035     4.362035    24760.782    104055.96    -34950.57    5176.9575    -27368.54   -1097.2025   -1829.7026    82.997961 
    6400    1454.4128   -106.82333    1.3159833   -105.50734   -25873.331    4.3759488    4.3759488    4.3759488   -25873.331    5224.6267   -65480.891   -17363.729   -7444.9987    1009.4617    7807.6719    83.794726 
    6500    1659.3192   -106.99854    1.5013869   -105.49715   -5638.5896    4.3930722    4.3930722    4.3930722   -5638.5896    79414.802    -38562.64   -57767.932    4608.3132    1627.4549    9051.8329    84.782269 
    6600    1831.2289   -107.13486    1.6569344   -105.47793   -13117.042    4.3948726    4.3948726    4.3948726   -13117.042    7350.8932   -24122.527   -22579.492    -19536.28    16936.561    2779.8995    84.886548 
    6700    1753.0481   -107.06399    1.5861947    -105.4778    -28827.18     4.392063     4.392063     4.392063    -28827.18     16079.89   -71092.683   -31468.749    13182.242   -14694.297    4826.6102     84.72385 
    6800    1226.1201   -106.56411    1.1094193   -105.45469    46693.074    4.3645192    4.3645192    4.3645192    46693.074    160841.72   -21041.272    278.77594    -12200.43    2329.4868   -11689.268    83.139849 
    6900    1262.6595   -106.60824    1.1424808   -105.46576    16742.538    4.3683142    4.3683142    4.3683142    16742.538    20291.192    26775.426    3160.9961   -12223.643    8555.2015   -3117.6698    83.356909 
    7000    1279.3143   -106.61384    1.1575504   -105.45629    30001.303    4.3887678    4.3887678    4.3887678    30001.303     110764.2   -21681.594    921.29829    18354.372   -24968.235    -1365.387    84.533299 
    7100    1998.3559   -107.23711    1.8081544   -105.42896   -17016.307    4.4037688    4.4037688    4.4037688   -17016.307    12976.029    -62708.61   -1316.3411   -6797.1384   -5630.6153   -11717.874    85.403082 
    7200    1888.2145   -107.11195    1.7084962   -105.40345    -15729.49    4.3855749    4.3855749    4.3855749    -15729.49   -37530.516    31288.489   -40946.444   -2381.4767   -14803.782   -3486.3235    84.348936 
    7300    1779.8751   -107.02978    1.6104684   -105.41931   -8249.1235    4.3713739    4.3713739    4.3713739   -8249.1235   -27866.613    16339.248   -13220.005   -13776.219   -5636.3325   -11321.473    83.532192 
    7400    1313.6071   -106.63035    1.1885793   -105.44177    39854.799    4.3869472    4.3869472    4.3869472    39854.799    64409.056    64763.041   -9607.7014    2560.3357   -9516.3979   -1147.9472    84.428142 
    7500    1141.9771   -106.45944    1.0332848   -105.42615   -2911.5067    4.4096032    4.4096032    4.4096032   -2911.5067    32271.328    10826.103   -51831.951     -299.276   -16361.198    1565.6276    85.742972 
    7600    1938.9463   -107.13692    1.7543994   -105.38252   -14970.936    4.3940482    4.3940482    4.3940482   -14970.936   -31136.439    32484.289    -46260.66    3618.9358    5333.6721    -3290.401    84.838787 
    7700    1429.3066   -106.67822    1.2932666   -105.38496    17111.032    4.3704948    4.3704948    4.3704948    17111.032     2017.887     38731.13     10584.08   -19097.031    426.58229    3771.0307    83.481804 
    7800    1600.2884   -106.85893    1.4479745   -105.41096    1342.6549    4.3763088    4.3763088    4.3763088    1342.6549    22949.138   -23580.957    4659.7834    16497.867   -7898.7439    3263.5187    83.815409 
    7900    1900.6883   -107.13274    1.7197827   -105.41295    6841.4163    4.3884243    4.3884243    4.3884243    6841.4163   -12081.237    11271.801    21333.685   -8596.0965    -20460.69    8612.5038    84.513452 
    8000    948.30784   -106.26263   0.85804886   -105.40459    307.08401     4.407452     4.407452     4.407452    307.08401    7063.0906   -11036.909    4895.0701    7049.7049   -1489.7437   -5544.6613    85.617548 
    8100     2029.082   -107.20619     1.835956   -105.37023   -39648.343    4.3943878    4.3943878    4.3943878   -39648.343   -32415.366   -56974.986   -29554.677    18829.976   -3858.5552    8923.3908    84.858457 
    8200    1721.8102   -106.91761    1.5579301   -105.35968    30006.857     4.372614     4.372614     4.372614    30006.857    45757.984    14678.306    29584.282    544.39823   -7583.4363    5344.7959      83.6033 
    8300    1554.3613   -106.79629    1.4064188   -105.38987   -31026.557    4.3805391    4.3805391    4.3805391   -31026.557   -39742.808   -32128.244   -21208.618    20358.009   -1808.9908   -8298.9058    84.058705 
    8400    1355.4604   -106.63136    1.2264491   -105.40491   -25521.058     4.383566     4.383566     4.383566   -25521.058   -38341.522    -16708.09   -21513.562    4994.0365    3982.6173    2433.7531    84.233074 
    8500    1506.3529   -106.77619    1.3629798   -105.41321    31437.851    4.3830666    4.3830666    4.3830666    31437.851      81206.5   -18151.979    31259.033    4800.8176     9208.875    5011.0823    84.204288 
    8600    1689.3448   -106.95023    1.5285546   -105.42167   -34260.976    4.4032498    4.4032498    4.4032498   -34260.976   -46325.083   -41656.621   -14801.224    17179.331     4652.198   -16872.225    85.372886 
    8700    1862.1995   -107.06989    1.6849573   -105.38493    18058.183    4.3905858    4.3905858    4.3905858    18058.183    31681.982   -19562.291    42054.859    11376.809    10872.732   -6803.3916    84.638391 
    8800    1399.2877   -106.65048     1.266105   -105.38437   -27609.986    4.3929239    4.3929239    4.3929239   -27609.986   -31817.561       -27670   -23342.398    13441.226   -5846.0656   -7124.7146    84.773683 
    8900    1276.2504   -106.52979    1.1547782   -105.37501   -22872.845    4.3966095    4.3966095    4.3966095   -22872.845   -12369.484   -38483.348   -17765.704   -3199.5009    12.531422   -15548.704    84.987229 
    9000    2478.2363   -107.61202    2.2423603   -105.36966   -1776.8877    4.3845505    4.3845505    4.3845505   -1776.8877    6933.6725   -16657.708    4393.3719    7147.3891    -8937.373   -721.09728    84.289841 
    9100     1715.577   -106.95634    1.5522901   -105.40405   -25574.202     4.398014     4.398014     4.398014   -25574.202    2091.7469    -42351.37   -36462.984    4499.6557   -183.33795   -4778.4799    85.068704 
    9200    1256.7198   -106.52935    1.1371065   -105.39225    10786.184     4.405294     4.405294     4.405294    10786.184    26944.946     -24725.9    30139.505     -10600.3    1205.0129    1062.8401    85.491843 
    9300      1969.14   -107.15494    1.7817192   -105.37322   -8844.2575    4.4014279    4.4014279    4.4014279   -8844.2575   -34590.195   -49626.223    57683.646   -1547.0532    2376.4742    3911.0243    85.266962 
    9400      2098.53   -107.27813     1.898794   -105.37934   -17362.314    4.3926005    4.3926005    4.3926005   -17362.314    27965.709   -49389.386   -30663.265    3032.5817    11172.703    10874.398    84.754957 
    9500    1027.2164   -106.32762   0.92944697   -105.39817    39320.842    4.3987705    4.3987705    4.3987705    39320.842    55899.694   -12124.363    74187.194    14932.092     3504.045   -9826.8002    85.112612 
    9600    873.86404    -106.2111   0.79069055   -105.42041   -173.10421    4.4116305    4.4116305    4.4116305   -173.10421    58516.167   -45993.228   -13042.252   -2760.2688    -14969.22    25087.385    85.861285 
    9700     1800.201   -107.05493    1.6288597   -105.42607   -17579.662    4.3977261    4.3977261    4.3977261   -17579.662   -14420.604   -16318.655   -21999.727   -4800.9643     3818.691    14638.312    85.052001 
    9800    1955.0464   -107.20905    1.7689671   -105.44008    9754.0048    4.3762213    4.3762213    4.3762213    9754.0048    36786.886   -10380.533    2855.6607    11955.796   -3474.1292   -11990.803    83.810384 
    9900    1649.0206    -106.9882    1.4920685   -105.49613   -3950.8267    4.3989886    4.3989886    4.3989886   -3950.8267    73432.015   -55660.683   -29623.813   -6514.9856    9806.7787   -2646.6471    85.125271 
   10000     1676.026    -106.9919    1.5165035    -105.4754   -36906.477    4.4160695    4.4160695    4.4160695   -36906.477   -52942.127   -56554.706   -1222.5981    8723.6214   -13886.228   -2004.3442    86.120728 
   10100    2067.4215   -107.31228    1.8706465   -105.44164   -29855.285    4.4034423    4.4034423    4.4034423   -29855.285   -33100.804   -46080.422   -10384.627     1012.413   -2661.8241   -10704.567    85.384087 
   10200    1942.4197   -107.18445    1.7575422   -105.42691    16450.716    4.3793009    4.3793009    4.3793009    16450.716   -12543.596    5480.3565    56415.386   -10413.347    11364.529   -22705.506    83.987446 
   10300    1927.1311   -107.18791    1.7437087    -105.4442   -19636.878    4.3771997    4.3771997    4.3771997   -19636.878    1434.6671   -15518.375   -44826.925    17126.784   -15625.823    19635.162    83.866611 
   10400     1610.176   -106.92251    1.4569211   -105.46559   -8702.6867    4.3943991    4.3943991    4.3943991   -8702.6867   -8140.8845   -35942.626     17975.45   -3771.2736    9937.8834   -2459.5583    84.859116 
   10500    1086.4628   -106.42991   0.98305436   -105.44686    9302.9469    4.4043208    4.4043208    4.4043208    9302.9469    68196.027   -19195.048   -21092.138    12242.267   -2852.0415   -17409.308    85.435197 
   10600     1312.181   -106.62346     1.187289   -105.43617   -19459.991    4.3946571    4.3946571    4.3946571   -19459.991    34635.912    -28869.43   -64146.456   -6076.8043   -6436.3251    15422.616    84.874059 
   10700    1870.0883   -107.10519    1.6920952    -105.4131    42274.231    4.3595978    4.3595978    4.3595978    42274.231    49118.223    48944.882    28759.589    2594.8683     10027.53    5372.8438    82.858923 
   10800    1405.5249   -106.74577    1.2717484   -105.47402    8407.7297    4.3809537    4.3809537    4.3809537    8407.7297    55210.778   -12740.139   -17247.451    17207.712   -13722.857    8653.3387     84.08257 
   10900     2276.212   -107.49582    2.0595645   -105.43625   -53167.222    4.4168442    4.4168442    4.4168442   -53167.222     -62135.4   -41480.007   -55886.257   -1334.2461   -3676.6602    14123.172    86.166061 
   11000    1103.8256   -106.38988   0.99876461   -105.39111   -6360.0372    4.4073134    4.4073134    4.4073134   -6360.0372    7367.5446    17947.753   -44395.409    6891.0586   -11760.865    9000.6062    85.609471 
   11100    2149.4258   -107.30649    1.9448456   -105.36165   -17179.369    4.3792486    4.3792486    4.3792486   -17179.369   -835.89363   -39456.959   -11245.255    17196.791   -9403.0924    15781.381    83.984432 
   11200    2005.9986   -107.20563    1.8150697   -105.39056    -8135.198    4.3801245    4.3801245    4.3801245    -8135.198   -16743.642    7893.8011   -15555.753    7583.4205   -1420.9955    13945.435    84.034836 
   11300    1487.6746   -106.76317    1.3460792   -105.41709   -5012.7366    4.4062427    4.4062427    4.4062427   -5012.7366    12519.748    6688.9194   -34246.877    4204.4825   -8759.3994    10709.732    85.547093 
   11400    1457.2813    -106.7094    1.3185788   -105.39082   -2561.9643    4.4150243    4.4150243    4.4150243   -2561.9643    29464.822   -32404.265   -4746.4499    3479.7653    4868.6402     4744.696    86.059594 
   11500    1647.9577   -106.86581    1.4911068   -105.37471   -11911.837    4.3883657    4.3883657    4.3883657   -11911.837   -26819.712   -33029.197    24113.398     50.98351   -17192.622    21608.781    84.510066 
   11600     1811.661   -107.02624     1.639229   -105.38701    26798.146    4.3773183    4.3773183    4.3773183    26798.146   -14525.247    47201.941    47717.744     4669.911    2570.0203    9756.3413    83.873424 
   11700    1365.3099   -106.64872    1.2353611   -105.41336   -1494.3758    4.3996014    4.3996014    4.3996014   -1494.3758    21240.088    -26741.57    1018.3549   -14846.244    1779.9114    11481.952    85.160854 
   11800    1465.9548   -106.73702    1.3264267   -105.41059   -8357.2013    4.4055793    4.4055793    4.4055793   -8357.2013    53561.143   -34817.378   -43815.369    22872.759   -7036.5417    24308.108    85.508459 
   11900     1559.378   -106.81648     1.410958   -105.40552    33502.847    4.3799479    4.3799479    4.3799479    33502.847    53744.514    28892.043    17871.985   -15084.775    583.77163    -3163.401    84.024673 
   12000    1466.5435   -106.75888    1.3269594   -105.43192    10357.922     4.381686     4.381686     4.381686    10357.922    45880.024    -4035.683   -10770.575    15364.303   -10131.748    21370.334    84.124744 
   12100    1559.2413   -106.83322    1.4108343   -105.42238   -17468.421    4.4018512    4.4018512    4.4018512   -17468.421    -37499.59   -34986.792    20081.119    4381.2204   -6587.4195    11898.781    85.291563 
   12200    1524.3463    -106.7648    1.3792606   -105.38553    18352.303    4.4008453    4.4008453    4.4008453    18352.303    26125.924    15755.161    13175.825    19198.287   -12729.119    7527.2912    85.233102 
   12300    1798.0178   -106.97606    1.6268843   -105.34917   -8822.3304    4.3958629    4.3958629    4.3958629   -8822.3304    4263.4661     12290.88   -43021.337    5014.6083    -3455.026   -7275.0115    84.943946 
   12400    1513.7459   -106.71847    1.3696691    -105.3488    19122.868    4.3767912    4.3767912    4.3767912    19122.868    11624.323    19187.912     26556.37    -9501.431   -5814.6209    12454.118    83.843131 
   12500    1567.8317   -106.80214     1.418607   -105.38353    22935.028    4.3789631    4.3789631    4.3789631    22935.028    26597.428    5994.2463     36213.41    6461.5416    -452.0004    12432.975    83.968008 
   12600    2042.7971   -107.23621    1.8483657   -105.38784   -4329.3951    4.3945089    4.3945089    4.3945089   -4329.3951    8643.9139    8402.0539   -30034.153   -8800.4427   -447.27589   -9964.2448    84.865477 
   12700    1735.3699   -106.93907    1.5701992   -105.36887   -22569.462    4.3996806    4.3996806    4.3996806   -22569.462   -50530.506    11836.773   -29014.652    9851.9601   -5316.1749   -7707.9188    85.165449 
   12800    1163.1013   -106.40609    1.0523985    -105.3537   -11770.432    4.3949724    4.3949724    4.3949724   -11770.432   -38080.142   -4622.4211    7391.2663    6245.0907     6769.699    10759.351    84.892332 
   12900    2025.5495   -107.18202    1.8327598   -105.34926    -3961.983    4.3801895    4.3801895    4.3801895    -3961.983    23394.884   -5659.5337   -29621.299    -862.8184    3550.8531    12174.147    84.038577 
   13000     1843.679   -107.03667    1.6681995   -105.36847   -2711.2677    4.3825302    4.3825302    4.3825302   -2711.2677    41087.845   -6363.6433   -42858.004    24099.911   -4844.0726    -7716.925    84.173375 
   13100    1015.0367   -106.30405   0.91842654   -105.38562   -22036.983    4.4020532    4.4020532    4.4020532   -22036.983   -46439.119    16072.599   -35744.428   -2946.9655   -3386.5159   -5759.3709    85.303306 
   13200    1838.7116   -107.02797    1.6637049   -105.36427   -27141.978    4.4041951    4.4041951    4.4041951   -27141.978   -7407.6091   -29242.343   -44775.982   -1215.7965   -13095.331    20103.135    85.427885 
   13300     1663.796   -106.87293    1.5054376   -105.36749    6391.6313    4.3842349    4.3842349    4.3842349    6391.6313    38502.591    20363.097   -39690.794    224.14198     15562.29   -8519.3532    84.271641 
   13400    1547.6924   -106.77469    1.4003846    -105.3743    14094.303    4.3731208    4.3731208    4.3731208    14094.303    31386.057    43054.807   -32157.956   -11105.082   -6512.7639    -3006.165    83.632375 
   13500    1686.3179   -106.92527    1.5258159   -105.39945    -21748.14    4.3975342    4.3975342    4.3975342    -21748.14   -22509.287   -1740.1693   -40994.965    10936.362    6092.0625    8868.8058    85.040864 
   13600     1555.078   -106.79107    1.4070673     -105.384   -27297.376    4.4104014    4.4104014    4.4104014   -27297.376   -829.53466   -39301.946   -41760.647    801.97535    13309.142   -4536.6257    85.789541 
   13700    1239.5549   -106.47511    1.1215753   -105.35354    18905.197    4.3909754    4.3909754    4.3909754    18905.197    33475.677    46392.092   -23152.177    3344.2121   -16941.955    2626.1418    84.660925 
   13800    1445.1383   -106.66535    1.3075915   -105.35776    10768.598    4.3851438    4.3851438    4.3851438    10768.598   -1684.3304    40887.608   -6897.4833    -2526.279    9519.2304    6435.8975    84.324061 
   13900    1759.3933   -106.97221    1.5919361   -105.38027   -8831.6679    4.3985715    4.3985715    4.3985715   -8831.6679    31925.233    -32007.46   -26412.777   -7755.8377    1148.7745    11743.603    85.101061 
   14000    1717.1166   -106.93986    1.5536832   -105.38618   -27729.886    4.4053703    4.4053703    4.4053703   -27729.886   -39229.203    18365.423   -62325.878   -23184.758    18228.263    -9650.281    85.496286 
   14100    1345.0688   -106.59225    1.2170465    -105.3752    36501.348    4.4004313    4.4004313    4.4004313    36501.348    80530.258    23935.444    5038.3424    11367.738    12932.019    9575.8525    85.209054 
   14200     1788.536   -106.98661     1.618305    -105.3683   -21539.353    4.4054902    4.4054902    4.4054902   -21539.353   -10416.926   -40396.353   -13804.781   -5193.6638    10542.193    5674.1929    85.503272 
   14300    1290.4885   -106.53238    1.1676611   -105.36471    3025.1309    4.4044189    4.4044189    4.4044189    3025.1309    2384.7172    46874.228   -40183.553   -3624.7358    5896.5269   -15295.312    85.440907 
   14400    1783.1918   -106.97308    1.6134694   -105.35961    19016.322    4.3893776    4.3893776    4.3893776    19016.322     51804.68    18063.331   -12819.044   -13732.174    1075.2491    -418.1134    84.568542 
   14500    1375.1784   -106.63049    1.2442903    -105.3862   -10261.349    4.3990772    4.3990772    4.3990772   -10261.349    34974.324   -33212.307   -32546.062   -3434.5846    13493.231   -1921.0065    85.130417 
   14600    1629.3733   -106.85844    1.4742912   -105.38415    -1686.777    4.4084407    4.4084407    4.4084407    -1686.777     32024.25   -24428.467   -12656.114    17094.084   -14124.092     1790.015    85.675176 
   14700    1759.3969   -106.96041    1.5919393   -105.36848   -18009.831    4.4186918    4.4186918    4.4186918   -18009.831   -34546.566     12756.56   -32239.487    8601.7319    5036.5906   -4515.1148    86.274239 
   14800    1558.6666   -106.75844    1.4103143   -105.34813   -3911.6787    4.4108613    4.4108613    4.4108613   -3911.6787    70978.593   -35900.581   -46813.048   -18293.668   -4661.5612    3862.6715    85.816384 
   14900    1631.7735   -106.81851    1.4764629   -105.34205    2934.1367    4.3918747    4.3918747    4.3918747    2934.1367   -3990.8116    4609.6508     8183.571   -14926.734   -4803.8425   -4784.7782    84.712952 
   15000    1507.0485   -106.75612    1.3636092   -105.39251    3408.0805    4.3997675    4.3997675    4.3997675    3408.0805    33069.873   -23264.828      419.197    6779.5255    3438.6834    575.07499    85.170495 
   15100    1601.8838   -106.85302    1.4494181   -105.40361   -20717.998    4.4216665    4.4216665    4.4216665   -20717.998    -19266.99    13402.728   -56289.732    716.55874   -604.77204     13763.81    86.448598 
   15200    1395.3094   -106.64903    1.2625053   -105.38653    20479.945     4.403912     4.403912     4.403912    20479.945    108245.17   -3886.6808   -42918.653   -3751.8011    19085.591   -2452.1061    85.411409 
   15300    1229.7523   -106.49159    1.1127058   -105.37888    23238.905    4.3811706    4.3811706    4.3811706    23238.905    20585.583    47898.614    1232.5172    8432.1569    1440.5315    19866.954     84.09506 
   15400    1692.9252   -106.95736    1.5317943   -105.42557     18712.05    4.3911071    4.3911071    4.3911071     18712.05    60532.077   -3903.9043   -492.02173    10901.698    -17184.34     -14818.8    84.668545 
   15500    2087.1257   -107.32755    1.8884752   -105.43908   -57960.675    4.4268645    4.4268645    4.4268645   -57960.675   -27162.382   -61697.051   -85022.593    -21338.11    10343.635     13173.59    86.753835 
   15600    1907.2161   -107.12864    1.7256892   -105.40295   -24417.351    4.4215618    4.4215618    4.4215618   -24417.351   -27443.452    17460.101   -63268.702    6079.6671    6941.3557    7609.8656    86.442459 
   15700    1644.1022   -106.88006    1.4876182   -105.39244    4937.1144    4.4014067    4.4014067    4.4014067    4937.1144    28116.917    -1789.589   -11515.984   -10080.667    1138.1313    4394.0955    85.265727 
   15800    1407.4053   -106.68169    1.2734499   -105.40824    20077.125    4.4021242    4.4021242    4.4021242    20077.125    120090.32    -38419.12   -21439.823   -978.82087    9668.8654    14062.486    85.307436 
   15900    1350.6089   -106.63453    1.2220593   -105.41248    10587.751    4.4127909    4.4127909    4.4127909    10587.751    41732.644   -28862.556    18893.165   -3817.9184   -12670.092    2217.3026    85.929056 
   16000    1971.1461   -107.17697    1.7835344   -105.39343   -30334.998    4.4215505    4.4215505    4.4215505   -30334.998     -30527.9   -4314.0327   -56163.061    3684.8999    19424.425   -1020.1474    86.441794 
   16100    2095.6174   -107.28315    1.8961587   -105.38699   -16970.209     4.417876     4.417876     4.417876   -16970.209   -22741.831   -9711.6054   -18457.189   -984.82789    5521.5432   -20735.165    86.226459 
   16200    1228.7942   -106.49174    1.1118388    -105.3799    19406.254    4.4052191    4.4052191    4.4052191    19406.254    83094.593    7714.4704   -32590.302   -13498.877    1908.8076     13335.14    85.487486 
   16300    1843.7563   -107.05932    1.6682694   -105.39105   -18889.263    4.4117918    4.4117918    4.4117918   -18889.263   -9062.2823    7542.6098   -55148.117    20492.706     6719.118    5302.9143    85.870707 
   16400    2191.5701   -107.37809    1.9829787   -105.39512   -39498.738    4.4279433    4.4279433    4.4279433   -39498.738   -35652.918   -53253.246   -29590.051   -15311.427    6174.6929   -15114.031    86.817276 
   16500    1096.4309   -106.37086   0.99207373   -105.37878   -8892.6964    4.4320347    4.4320347    4.4320347   -8892.6964    33579.647   -34264.381   -25993.356    17923.635    -38411.23   -10556.235    87.058153 
   16600    844.99051   -106.12744   0.76456517   -105.36288     49080.12    4.4067787    4.4067787    4.4067787     49080.12    80103.687    50471.198    16665.474   -2872.9421    20104.117    -22122.68    85.578313 
   16700    1942.0738   -107.14427    1.7572292   -105.38704   -5094.2482    4.3956789    4.3956789    4.3956789   -5094.2482    33645.232   -42177.306   -6750.6705   -8872.8149   -22500.219    4185.0476    84.933275 
   16800    1873.9541   -107.12204    1.6955931   -105.42645   -38601.957    4.4111597    4.4111597    4.4111597   -38601.957   -64861.245   -52804.803    1860.1756     6897.476    24223.935   -8722.8314    85.833802 
   16900    1683.1377   -106.93607    1.5229383   -105.41313    7193.1621    4.4022014    4.4022014    4.4022014    7193.1621    15072.677    18084.485   -11577.675    15576.643   -11133.961   -67.297583    85.311922 
   17000    1533.2182   -106.80463     1.387288   -105.41735    29097.163    4.3950936    4.3950936    4.3950936    29097.163    49340.037    25667.633     12283.82    9145.1223   -14312.967    -5426.999    84.899354 
   17100    1897.4143   -107.13317    1.7168203   -105.41635   -36154.174    4.4231035    4.4231035    4.4231035   -36154.174   -18479.671   -64788.212    -25194.64   -6540.4063   -5770.9965   -8749.5101    86.532907 
   17200    1905.0445   -107.08631    1.7237243   -105.36259   -45497.798    4.4317628    4.4317628    4.4317628   -45497.798   -55268.443   -15637.105   -65587.846   -17315.716    9929.7081   -9341.8898    87.042135 
   17300    1677.8668   -106.84317    1.5181691     -105.325   -18936.818    4.4077679    4.4077679    4.4077679   -18936.818    24674.507   -23009.879   -58475.081    12472.711    15284.054   -18138.468    85.635959 
   17400    1772.6486   -106.94907    1.6039297   -105.34514     16319.89    4.3936023    4.3936023    4.3936023     16319.89   -10641.696    64796.335    -5194.968    -5581.188    -3119.331   -1747.9972    84.812959 
   17500     1414.029   -106.67278    1.2794432   -105.39334    17056.244    4.4011591    4.4011591    4.4011591    17056.244   -6197.6482    56614.254    752.12543    21027.264     3644.383   -1520.9176    85.251336 
   17600    1525.9257   -106.78327    1.3806896   -105.40258    6708.1887    4.4151833    4.4151833    4.4151833    6708.1887    39570.703    26595.421   -46041.558   -30039.379    10969.255   -4981.1681    86.068895 
   17700      1944.74   -107.14897    1.7596416   -105.38932   -29301.606     4.412086     4.412086     4.412086   -29301.606   -57598.669    11576.245   -41882.395    5437.0896   -4442.3773    11653.338    85.887887 
   17800    1015.8216   -106.32419   0.91913677   -105.40505    11894.294    4.3884288    4.3884288    4.3884288    11894.294     29550.53    15483.309   -9350.9579    25408.704    6003.6965   -7788.6514    84.513711 
   17900    1479.0491   -106.75079    1.3382747   -105.41252    38530.524    4.3648946    4.3648946    4.3648946    38530.524    20296.109       101851   -6555.5359   -2654.4828    4947.5688    4507.3933    83.161305 
   18000    1390.5572   -106.72165    1.2582053   -105.46344   -10500.693    4.3930037    4.3930037    4.3930037   -10500.693    -3995.107   -12976.937   -14530.034    14194.949    5778.2399    1506.4462    84.778298 
   18100     1854.756    -107.0989    1.6782222   -105.42068   -17483.369     4.421005     4.421005     4.421005   -17483.369   -16760.054    19988.482   -55678.535    670.57757    9017.4174   -15986.063    86.409803 
   18200    1660.6722   -106.87629    1.5026111   -105.37367   -47941.645     4.410403     4.410403     4.410403   -47941.645    -39864.51   -50252.642   -53707.783    19787.339   -28767.251    5931.8928    85.789634 
   18300    1275.6297   -106.49376    1.1542166   -105.33954    11470.279    4.3727546    4.3727546    4.3727546    11470.279    68975.096   -11442.026   -23122.234    12443.334    11745.412   -2126.9511    83.611364 
   18400    1839.3251   -107.03878      1.66426   -105.37452    2147.8038    4.3788426    4.3788426    4.3788426    2147.8038   -28788.131    28037.622    7193.9204     8142.823   -9046.8091   -12646.308    83.961076 
   18500    1794.5754   -107.02467    1.6237695   -105.40091   -43540.907    4.4129981    4.4129981    4.4129981   -43540.907   -42661.441   -64215.707   -23745.573     26849.41   -21195.874   -3665.1288    85.941164 
   18600    1193.1305   -106.45376    1.0795695   -105.37419    16021.345    4.4093023    4.4093023    4.4093023    16021.345    8270.0236    47492.874   -7698.8619    -6554.218    9105.5028   -333.97346    85.725423 
   18700    1752.7339    -106.9646    1.5859104   -105.37869   -13769.824    4.3894559    4.3894559    4.3894559   -13769.824     17622.36   -8664.0602   -50267.772    12519.101   -16178.267   -8980.9669    84.573062 
   18800    2075.9728   -107.26162    1.8783839   -105.38323    23125.381    4.3664213    4.3664213    4.3664213    23125.381    40202.082    9628.3585    19545.702    -454.0461    6537.6648   -2583.2535    83.248597 
   18900    1054.3252   -106.39773   0.95397558   -105.44376    45311.359    4.3917339    4.3917339    4.3917339    45311.359    90341.025     61389.35   -15796.299    -5919.801    5622.2379    2068.8594    84.704808 
   19000    1466.3994   -106.72672     1.326829   -105.39989    -18997.79    4.4315112    4.4315112    4.4315112    -18997.79    30272.069   -37188.486   -50076.952    2798.8444    46.702935   -1042.9688    87.027311 
   19100    1730.0943   -106.93334    1.5654257   -105.36792   -44786.681    4.4078313    4.4078313    4.4078313   -44786.681   -38741.419    -23241.37   -72377.252    2225.3654    22512.201   -13960.569    85.639649 
   19200    1903.8769    -107.0632    1.7226679   -105.34053    57001.935    4.3472265    4.3472265    4.3472265    57001.935    115116.13    49364.296    6525.3757   -13817.812   -27.560791    11017.476     82.15553 
   19300    1263.7152   -106.54972     1.143436   -105.40629    24147.793    4.3595816    4.3595816    4.3595816    24147.793     30965.46    54227.487   -12749.568   -3593.9125    19398.827   -7382.7074    82.857999 
   19400    1732.4721   -106.97364    1.5675772   -105.40606   -30363.108    4.4091558    4.4091558    4.4091558   -30363.108   -1813.3217   -38526.185   -50749.819   -10492.957      10203.5    -4976.059    85.716874 
   19500    1685.6544   -106.89096    1.5252156   -105.36574   -20459.528     4.413707     4.413707     4.413707   -20459.528   -58013.586    58717.474   -62082.472   -26064.637    13557.651   -4867.4992    85.982583 
   19600     1279.562   -106.50906    1.1577746   -105.35129    5820.4926    4.3773382    4.3773382    4.3773382    5820.4926   -3915.8854    40582.208   -19204.845    983.93898    7507.3339   -13872.375    83.874572 
   19700    1816.0025   -106.99727    1.6431572   -105.35411    27854.602    4.3578636    4.3578636    4.3578636    27854.602    6599.8897    37505.914    39458.003    1727.2801   -2907.9805    14166.177    82.760079 
   19800    1369.8647   -106.64735    1.2394824   -105.40787   -13144.406    4.3900594    4.3900594    4.3900594   -13144.406   -10088.141   -33867.058    4521.9826    10109.103    17702.357    -8539.644    84.607955 
   19900    1687.1797   -106.89451    1.5265957   -105.36792    -26896.33     4.417302     4.417302     4.417302    -26896.33   -38331.674   -18530.924   -23826.394    9281.5651   -12441.621    20927.105    86.192857 
   20000    1126.1587   -106.36641    1.0189721   -105.34744    4679.2922    4.4021083    4.4021083    4.4021083    4679.2922   -16788.994    58679.749   -27852.878    1860.9482    6656.4098    14140.817    85.306509 
   20100    2023.8744   -107.15197    1.8312441   -105.32073    29810.859    4.3729962    4.3729962    4.3729962    29810.859    -2507.884    88392.583     3547.878    21016.517   -5569.2175   -1722.5558    83.625226 
   20200    1226.6402   -106.47876    1.1098898   -105.36887   -4228.4293    4.3880852    4.3880852    4.3880852   -4228.4293   -31677.425    19210.662   -218.52504    -11920.88    15441.308    27904.387    84.493863 
   20300    904.65581   -106.19603   0.81855159   -105.37748    2820.4739    4.3981161    4.3981161    4.3981161    2820.4739   -24100.297    2537.0263    30024.693   -20388.772     5762.572    14403.837    85.074633 
   20400    2040.3557   -107.20259    1.8461567   -105.35643    5931.5241    4.3892159    4.3892159    4.3892159    5931.5241   -17472.057    25691.664    9574.9654    3718.5181   -4252.9058    5101.1452    84.559193 
   20500    1371.2751   -106.61731    1.2407585   -105.37656    6094.8024    4.3885593    4.3885593    4.3885593    6094.8024   -37409.479    8416.9842    47276.902   -5073.9439    35927.174    7410.7582    84.521249 
   20600    1901.9415   -107.08271    1.7209167   -105.36179     3827.148    4.3909103    4.3909103    4.3909103     3827.148   -4871.7773    1292.1354    15061.086    1759.4814   -862.23096    3567.4127    84.657157 
   20700    1314.3627   -106.55565     1.189263   -105.36638    1274.1829    4.3837486    4.3837486    4.3837486    1274.1829    1944.9976    42350.191    -40472.64   -1977.6293     18861.44   -11450.166    84.243598 
   20800    1919.5528   -107.11122    1.7368518   -105.37437    3775.6393    4.3884565    4.3884565    4.3884565    3775.6393    24197.271    2588.3281   -15458.681   -9893.5519    154.00545     6655.902    84.515311 
   20900    1714.4636   -106.92032    1.5512827   -105.36903   -19103.187    4.4007604    4.4007604    4.4007604   -19103.187   -39273.272    25692.646   -43728.936    8511.8362     13747.75   -6735.4422     85.22817 
   21000    1206.2557   -106.45997    1.0914455   -105.36852   -4368.3999    4.3864056    4.3864056    4.3864056   -4368.3999   -8268.6347    7324.9115   -12161.476   -6173.2973    24113.344     5960.504    84.396872 
   21100    1860.2381    -107.0589    1.6831825   -105.37571   -7276.5185     4.377817     4.377817     4.377817   -7276.5185   -2546.1873    4258.8891   -23542.257    11603.583   -9300.7066   -10415.014    83.902094 
   21200    1198.4814   -106.48451    1.0844112    -105.4001    49661.388    4.3820522    4.3820522    4.3820522    49661.388    23269.005    119876.81     5838.349   -1492.0474    14424.606   -15634.105    84.145839 
   21300    1918.9264   -107.14748    1.7362849   -105.41119   -33407.207    4.4044652    4.4044652    4.4044652   -33407.207   -30183.839   -24146.116   -45891.667   -8253.7307   -2482.9294   -13428.279      85.4436 
   21400     1697.985   -106.91662    1.5363725   -105.38025   -37174.275    4.4127595    4.4127595    4.4127595   -37174.275   -48709.133   -16422.034   -46391.658    11370.491    24581.756    704.30837    85.927225 
   21500    1394.3585   -106.63626    1.2616449   -105.37461     45480.05    4.3832334    4.3832334    4.3832334     45480.05     21882.07     94630.15    19927.929    -10952.94    5966.3634     16958.33    84.213899 
   21600       1529.6   -106.77507    1.3840143   -105.39106    21598.147    4.3734451    4.3734451    4.3734451    21598.147   -14055.571    96113.724   -17263.714   -2545.1946    15452.693   -28036.737     83.65098 
   21700    1780.7951   -107.02417    1.6113008   -105.41287   -8901.3052     4.401446     4.401446     4.401446   -8901.3052   -32064.375   -14548.692    19909.152    450.17905    15757.805    16138.476     85.26801 
   21800    1486.2117   -106.75041    1.3447556   -105.40565   -903.78056    4.4041341    4.4041341    4.4041341   -903.78056   -4332.9516     14181.59    -12559.98   -419.39602    2603.1663   -8026.2905    85.424334 
   21900      1822.06   -107.03584    1.6486382    -105.3872   -527.07966    4.3950838    4.3950838    4.3950838   -527.07966   -47412.168    41228.053    4602.8764   -6609.7908    25177.914   -6850.8074    84.898789 
   22000    1330.1649   -106.57723    1.2035611   -105.37367    24386.377    4.3915188    4.3915188    4.3915188    24386.377    30448.311    12880.504    29830.315   -12894.154    9416.7433   -1145.0231    84.692361 
   22100    1416.7833   -106.65803    1.2819353    -105.3761   -19430.002    4.3978434    4.3978434    4.3978434   -19430.002   -28398.862    9076.4934   -38967.637    8517.8332     18021.27    -16839.46    85.058808 
   22200    2070.7856   -107.23882    1.8736903   -105.36513   -9865.6421    4.4102194    4.4102194    4.4102194   -9865.6421   -33837.162   -10533.237    14773.473   -3365.2543     4160.455    4697.3178    85.778923 
   22300    1385.2587   -106.61524    1.2534112   -105.36183   -13588.591    4.4031507    4.4031507    4.4031507   -13588.591    3170.5073     20357.36   -64293.641   -9937.9128    3666.5912   -10421.482    85.367125 
   22400    1449.5513    -106.6737    1.3115844   -105.36211   -3288.5872    4.3875171    4.3875171    4.3875171   -3288.5872    15910.428   -16015.583   -9760.6066    13180.625    24616.629   -1948.1129    84.461048 
   22500    1844.2648   -107.04021    1.6687296   -105.37148   -831.87817    4.3878879    4.3878879    4.3878879   -831.87817   -37805.365    5616.0982    29693.633   -13819.478    2401.3461    2774.5197    84.482465 
   22600    1626.8722   -106.85274    1.4720282   -105.38072   -13498.211    4.3980755    4.3980755    4.3980755   -13498.211   -8656.1202   -2866.0258   -28972.486   -16047.393    20243.366   -9513.8299    85.072276 
   22700    1796.2246   -106.99571    1.6252618   -105.37045    5748.7434    4.3971338    4.3971338    4.3971338    5748.7434    21488.849   -40980.411    36737.792    18681.341   -258.68437   -5068.8578    85.017638 
   22800    1446.4304   -106.68576    1.3087606     -105.377   -2799.7043    4.3962219    4.3962219    4.3962219   -2799.7043   -19461.142    1115.4547    9946.5741    5590.1174    207.19329   -19556.953    84.964755 
   22900    1578.4862   -106.80269    1.4282475   -105.37444    8163.2679    4.3963202    4.3963202    4.3963202    8163.2679   -4820.1396     8662.139    20647.804   -7632.1133    15953.878   -5954.3476    84.970456 
   23000    1504.2495   -106.72896    1.3610766   -105.36788    22257.513    4.3959799    4.3959799    4.3959799    22257.513    184.33136    13282.905    53305.303    28486.197   -15981.528   -16743.049    84.950725 
   23100    1367.5721   -106.60665     1.237408   -105.36925   -17839.378     4.396927     4.396927     4.396927   -17839.378   -35686.373    21237.671   -39069.431    5456.2064    14772.964   -9161.6445    85.005642 
   23200    1639.1598   -106.85288    1.4831463   -105.36973    6481.4815    4.3876572    4.3876572    4.3876572    6481.4815   -33087.534    54002.022   -1470.0433     12709.54   -16586.364   -12037.229    84.469139 
   23300    1476.6704   -106.73152    1.3361224    -105.3954    10849.442    4.3943901    4.3943901    4.3943901    10849.442   -35510.905    57192.141    10867.089   -8583.1011    7114.0672   -13798.631    84.858594 
   23400    1809.6818   -107.03057    1.6374381   -105.39313   -25160.271    4.4138402    4.4138402    4.4138402   -25160.271   -41904.524    6957.9099   -40534.198    9468.7214   -491.17845    -1028.484    85.990369 
   23500    1224.8556   -106.47646    1.1082751   -105.36819     3290.256    4.4107415    4.4107415    4.4107415     3290.256   -37575.738    72940.435    -25493.93    16175.411   -8662.9262      2479.82     85.80939 
   23600     1316.878   -106.56642    1.1915389   -105.37488   -98.803465    4.3928318    4.3928318    4.3928318   -98.803465   -50768.999     83108.06   -32635.471   -19622.497    11564.719   -11430.052     84.76835 
   23700    2036.9831    -107.2444    1.8431051    -105.4013   -3331.4769    4.3787243    4.3787243    4.3787243   -3331.4769   -23894.324    10700.113    3199.7806    24807.553    -9975.081    6921.1533     83.95427 
   23800    1428.5498   -106.73125    1.2925819   -105.43867    80.444326    4.3906575    4.3906575    4.3906575    80.444326    1905.9892     8928.691   -10593.347   -13567.333    7795.7326   -12214.396    84.642539 
   23900    1554.0459   -106.82386    1.4061334   -105.41773     -7078.76    4.4104806    4.4104806    4.4104806     -7078.76   -47593.141    61361.932   -35005.071    4967.6257   -18095.506    712.85098    85.794164 
   24000    2128.6972   -107.30113    1.9260899   -105.37504   -34204.609    4.4100416    4.4100416    4.4100416   -34204.609   -49557.468   -19995.711   -33060.648    4481.5026    17707.775   -1943.1511    85.768548 
   24100    1268.9948   -106.50289    1.1482132   -105.35468    12828.514    4.3846073    4.3846073    4.3846073    12828.514     18491.62    52310.614   -32316.694   -7593.0018   -3915.6161   -11733.962    84.293116 
   24200    1842.2096   -107.03986    1.6668699   -105.37299    11121.285    4.3867495    4.3867495    4.3867495    11121.285   -24297.939    27301.515    30360.278    16438.687    15454.397    6415.4175    84.416724 
   24300    1359.7752   -106.61959    1.2303532   -105.38924   -3697.9946    4.4055418    4.4055418    4.4055418   -3697.9946   -15825.465    76233.306   -71501.825   -6451.1248   -9601.5246   -3060.9198    85.506275 
   24400     2015.873   -107.19838    1.8240043   -105.37438   -38448.707    4.4109705    4.4109705    4.4109705   -38448.707   -16562.252   -28338.545   -70445.322    17398.567   -13154.184   -3924.9575    85.822758 
   24500    1432.6527   -106.66216    1.2962943   -105.36586    27257.705     4.378839     4.378839     4.378839    27257.705   -4484.9651    47110.539    39147.542    31105.276   -5661.6914   -477.62838    83.960872 
   24600    1083.3503   -106.35783    0.9802381   -105.37759    22528.691    4.3666188    4.3666188    4.3666188    22528.691    27155.142    76244.558   -35813.628   -12034.823   -18719.675   -13534.442    83.259891 
   24700    1977.6799   -107.18831    1.7894464   -105.39886   -17030.747     4.389535     4.389535     4.389535   -17030.747   -34069.051   -14791.873   -2231.3178    15435.289   -9341.3799   -12906.171     84.57764 
   24800    1412.2745   -106.67011    1.2778557   -105.39225    11589.367    4.4043663    4.4043663    4.4043663    11589.367   -3197.7281    57893.866   -19928.037   -8286.7261   -7479.2735   -15101.272    85.437845 
   24900    1652.2921   -106.85236    1.4950286   -105.35733   -29753.028    4.3978637    4.3978637    4.3978637   -29753.028   -4570.4512   -59689.168   -24999.463   -34685.681   -9850.9558   -835.74544    85.059983 
   25000    1536.3188   -106.74536    1.3900935   -105.35527    26682.368    4.3651877    4.3651877    4.3651877    26682.368    66949.029    17955.624   -4857.5482    25759.642   -6272.8702   -8166.9509    83.178058 
   25100    1306.6603   -106.60407    1.1822937   -105.42178    28636.544    4.3783856    4.3783856    4.3783856    28636.544    19795.467    49835.606    16278.559   -4905.2043    1155.5388   -12794.708    83.934794 
   25200    1999.4451   -107.22007      1.80914   -105.41093   -27497.114    4.4146088    4.4146088    4.4146088   -27497.114    -2212.676   -53966.633   -26312.032   -10277.452   -9960.5655    3622.9262    86.035299 
   25300    1076.3906    -106.3577   0.97394083   -105.38376    -23762.23       4.4054       4.4054       4.4054    -23762.23    12982.568   -8528.0771   -75741.181    1633.2883   -2707.8603   -23291.503    85.498019 
   25400    1918.2517   -107.09003    1.7356745   -105.35436    1545.4853    4.3676451    4.3676451    4.3676451    1545.4853   -9731.1316    37891.522   -23523.934   -16866.948   -10856.921   -1596.8075    83.318611 
   25500    1611.1604   -106.86145    1.4578118   -105.40364    24161.121    4.3716521    4.3716521    4.3716521    24161.121    50240.494    25264.194   -3021.3261   -4556.6778    14298.893   -7468.0669    83.548139 
   25600    1381.6872   -106.67979    1.2501796   -105.42961   -2487.0488    4.4114133    4.4114133    4.4114133   -2487.0488    18714.715    29677.831   -55853.692    631.01969   -16507.599     3062.129    85.848608 
   25700    1275.3731   -106.51918    1.1539844    -105.3652    -6289.621    4.4214481    4.4214481    4.4214481    -6289.621    37363.291   -44648.999   -11583.155    7242.6878   -8197.9226        15525    86.435788 
   25800    1695.4446   -106.86703    1.5340739   -105.33296   -29822.554    4.3862665    4.3862665    4.3862665   -29822.554   -38243.641   -37526.481   -13697.538    20521.674    1666.5122   -29060.559    84.388846 
   25900    1408.7672   -106.62991    1.2746822   -105.35523    50777.787    4.3691987    4.3691987    4.3691987    50777.787    94071.768    58720.496   -458.90301   -15757.411   -9531.2613    24176.871    83.407555 
   26000    1637.8888   -106.88321    1.4819962   -105.40121   -18453.532    4.4018556    4.4018556    4.4018556   -18453.532    -16341.05   -43498.415    4478.8694    7847.5654   -10292.935    1116.3319     85.29182 
   26100    1077.8012   -106.35347   0.97521718   -105.37825   -21340.572    4.4143411    4.4143411    4.4143411   -21340.572   -8148.6421   -18386.929   -37486.143   -1410.0846    -28515.72   -20147.541    86.019652 
   26200    2009.3646   -107.15848    1.8181153   -105.34036   -5994.0008    4.3920156    4.3920156    4.3920156   -5994.0008   -13851.195    12229.248   -16360.056   -10492.044    -1467.067    18457.665     84.72111 
   26300    1485.7133   -106.69749    1.3443046   -105.35319    19068.239    4.3760278    4.3760278    4.3760278    19068.239    10969.556    55648.018   -9412.8566     1762.832   -11043.866   -19875.467    83.799267 
   26400    1716.3149   -106.94446    1.5529578   -105.39151   -16638.249    4.3947848    4.3947848    4.3947848   -16638.249   -27399.821   -5281.6588   -17233.266    12444.057    3437.5755     8543.556    84.881459 
   26500    1129.3259   -106.40828    1.0218378   -105.38645    3983.5203      4.40429      4.40429      4.40429    3983.5203   -32320.639     54335.32   -10064.121   -3459.6152   -1323.4456    -7824.217    85.433407 
   26600     1423.264   -106.67388    1.2877991   -105.38608   -10682.623    4.3967316    4.3967316    4.3967316   -10682.623   -8397.3421    10646.577   -34297.104    23170.762   -8699.1464   -18266.841    84.994313 
   26700    2203.0209   -107.37159    1.9933396   -105.37825    3180.0902    4.3616331    4.3616331    4.3616331    3180.0902   -17104.048    49331.702   -22687.383   -8675.2578    37287.739    1422.9177    82.975023 
   26800    861.79296   -106.17938   0.77976838   -105.39961    48921.633    4.3498221    4.3498221    4.3498221    48921.633    48433.118    79865.232     18466.55   -3990.5283   -25975.881   -19919.726    82.302779 
   26900    1670.8587   -106.93114     1.511828   -105.41931   -29965.777    4.3923022    4.3923022    4.3923022   -29965.777    -30273.56   -4700.6613   -54923.112   -7145.6318    15827.394   -20114.419    84.737694 
   27000    1721.9408    -106.9363    1.5580482   -105.37826   -367.03773    4.3949095    4.3949095    4.3949095   -367.03773    -29231.71    94416.969   -66286.373   -5162.4835   -3420.3157   -7196.4363    84.888687 
   27100    1541.3319    -106.7576    1.3946295   -105.36297   -13473.476    4.3745982    4.3745982    4.3745982   -13473.476   -25557.867    39058.174   -53920.735    7712.3833    8765.1878   -28282.391    83.717164 
   27200    2025.5871   -107.19541    1.8327938   -105.36261   -3668.3961    4.3680998    4.3680998    4.3680998   -3668.3961   -68839.106    68223.891   -10389.974   -496.66023   -1795.3486    12011.545    83.344637 
   27300    1476.8021    -106.7342    1.3362416   -105.39796   -11742.446     4.388503     4.388503     4.388503   -11742.446   -25831.062    9894.6317   -19290.909    14320.038   -15349.302   -5600.3526    84.517997 
   27400     1307.266   -106.56835    1.1828418    -105.3855    19789.265    4.3880656    4.3880656    4.3880656    19789.265    14432.456    73211.413   -28276.073    12803.374    764.69594    14584.949    84.492729 
   27500    1509.5717   -106.76223    1.3658922   -105.39634   -9305.2951    4.3939979    4.3939979    4.3939979   -9305.2951   -32739.506    11259.986   -6436.3649   -17748.178   -12343.146     -12551.9    84.835875 
   27600    1641.9673   -106.86965    1.4856865   -105.38396    -10976.29    4.3924245    4.3924245    4.3924245    -10976.29   -26623.742   -12256.155    5951.0265   -1790.1402    3882.9587   -8512.2012     84.74477 
   27700    1508.0216   -106.73715    1.3644896   -105.37266    27297.233    4.3657132    4.3657132    4.3657132    27297.233    40656.552    23177.162    18057.986   -25597.989    4895.2654   -1561.0779    83.208098 
   27800    1764.5269   -106.99329     1.596581   -105.39671     2076.726    4.3773035    4.3773035    4.3773035     2076.726    527.25058   -24610.662    30313.589   -19222.305    3040.9648    -12803.28    83.872577 
   27900    1356.8903   -106.61944    1.2277428    -105.3917    16446.651    4.3975622    4.3975622    4.3975622    16446.651     88.13189    50231.173    -979.3534      4089.08    5550.3992    2440.5668    85.042492 
   28000    1567.7346   -106.79552    1.4185192     -105.377    3855.7126     4.398882     4.398882     4.398882    3855.7126    31749.334   -10711.654   -9470.5427   -36005.365   -8837.1295   -6532.2437    85.119081 
   28100    1937.6906    -107.1119    1.7532632   -105.35864    7765.9926     4.381518     4.381518     4.381518    7765.9926    27730.104    2999.7655   -7431.8915    25775.605    16970.711   -12565.465     84.11507 
   28200    1437.0929   -106.67047    1.3003119   -105.37016   -5557.1051    4.3678602    4.3678602    4.3678602   -5557.1051    1024.5946   -4525.8418   -13170.068   -14897.027   -1025.3227    10255.156    83.330923 
   28300    1592.0632   -106.84802    1.4405322   -105.40749   -9142.1453    4.3813803    4.3813803    4.3813803   -9142.1453   -4321.7299   -29976.681    6871.9749   -6713.9012   -16722.782   -8572.3679    84.107137 
   28400    1670.6747   -106.91328    1.5116616   -105.40161   -3339.5148    4.4009194    4.4009194    4.4009194   -3339.5148   -21787.919    4590.4233    7178.9517    9795.5602    11381.898    780.32824    85.237411 
   28500    1386.4966   -106.63413    1.2545312    -105.3796   -10299.754     4.385248     4.385248     4.385248   -10299.754    32928.107   -39644.697   -24182.672   -33048.106    710.19827    9058.2996    84.330073 
   28600    1861.0428   -107.05097    1.6839106   -105.36706    32008.949    4.3669292    4.3669292    4.3669292    32008.949   -1191.1684    71078.119    26139.897    19318.085   -6029.7491   -5519.9105    83.277647 
   28700    1375.0832   -106.64051    1.2442042   -105.39631    4218.3414    4.3796882    4.3796882    4.3796882    4218.3414    23005.541   -26488.348    16137.832   -17002.122     3.622859   -3145.0626    84.009726 
   28800    1563.6653    -106.8155    1.4148372   -105.40066   -8228.3157    4.4027021    4.4027021    4.4027021   -8228.3157   -5573.4405   -13377.722    -5733.785   -12299.904   -13305.819    11982.817    85.341035 
   28900    2068.1463   -107.22963    1.8713022   -105.35832   -17410.316    4.4006771    4.4006771    4.4006771   -17410.316   -27912.241   -10543.694   -13775.013    -746.8357   -63.989155    5795.3388    85.223332 
   29000    1066.8889   -106.32505   0.96534347    -105.3597    795.31657    4.3778767    4.3778767    4.3778767    795.31657   -17475.655   -45360.388    65221.993    -30048.86   -10781.537     7190.338    83.905527 
   29100    1735.9221   -106.94616    1.5706988   -105.37546    45909.272    4.3738144    4.3738144    4.3738144    45909.272    37660.106    790.73337    99276.978    4366.2565   -19961.882   -7499.1492    83.672174 
   29200    1861.3996   -107.08247    1.6842335   -105.39823    -19406.15    4.3940113    4.3940113    4.3940113    -19406.15   -26795.869   -61116.131    29693.549   -29341.763   -579.44325    12357.953     84.83665 
   29300    1574.2736   -106.80599    1.4244358   -105.38156   -9857.9705    4.3959241    4.3959241    4.3959241   -9857.9705   -31444.136   -28904.749    30774.973   -6724.8865   -16207.982   -140.17541     84.94749 
   29400    1672.8458   -106.88271    1.5136261   -105.36909   -12966.985    4.4043318    4.4043318    4.4043318   -12966.985    11853.288   -21566.644     -29187.6    2765.7735    2927.3303   -2607.7662    85.435839 
   29500    871.50653   -106.16074   0.78855743   -105.37218   -11243.946    4.4091433    4.4091433    4.4091433   -11243.946    12008.336   -32370.426    -13369.75   -819.90204   -18479.828    24910.479    85.716148 
   29600    1964.4736    -107.1147     1.777497    -105.3372    11224.385    4.3848611    4.3848611    4.3848611    11224.385   -2885.5591    -5184.014    41742.727    1906.2667    14424.711    10031.791    84.307755 
   29700    1455.6571   -106.67918    1.3171091   -105.36208   -14816.559    4.3837111    4.3837111    4.3837111   -14816.559   -688.39268   -41348.966   -2412.3193   -13994.328    1849.0606    2671.4345     84.24144 
   29800    1073.9745   -106.35288   0.97175473   -105.38113     3419.516    4.3954895    4.3954895    4.3954895     3419.516    4820.1723   -37039.749    42478.124    9001.3374    -25748.55   -5788.2403    84.922298 
   29900    2156.6787   -107.32986    1.9514082   -105.37846   -26437.424     4.396344     4.396344     4.396344   -26437.424   -59820.394   -50776.015    31284.139   -19318.907    17893.237    12605.985    84.971836 
   30000    1567.4993   -106.80087    1.4183063   -105.38256    3557.1589    4.3841618    4.3841618    4.3841618    3557.1589   -27727.684   -11080.025    49479.185    9762.0421   -12049.111    8356.8279    84.267426 
   30100    1616.0666   -106.86213     1.462251   -105.39988   -29433.189    4.3765101    4.3765101    4.3765101   -29433.189   -57981.582   -32545.787    2227.8037   -11769.662   -4293.7233    5990.6151    83.826975 
   30200    1512.4934   -106.77801    1.3685358   -105.40947    3954.8596    4.3834374    4.3834374    4.3834374    3954.8596   -47704.806    30242.637    29326.748   -12696.951    12667.543    1628.2217    84.225662 
   30300    1814.6519   -107.04491    1.6419351   -105.40297   -24549.446    4.3976392    4.3976392    4.3976392   -24549.446    -57835.53    -25874.48    10061.671   -9892.9201   -24663.674    10046.819    85.046957 
   30400    1812.8772   -107.01725    1.6403294   -105.37692   -14094.699    4.4000626    4.4000626    4.4000626   -14094.699   -73928.826    11918.353    19726.376   -17730.626    10112.564    3811.6207    85.187639 
   30500    1300.7536   -106.54973    1.1769491   -105.37278   -9751.5266    4.3992204    4.3992204    4.3992204   -9751.5266   -69942.461   -46580.493    87268.374   -2556.1176   -25514.568   -1527.5679    85.138726 
   30600    2055.2049   -107.22675    1.8595926   -105.36716   -25871.966    4.3944219    4.3944219    4.3944219   -25871.966   -44528.819   -42226.346    9139.2681   -13286.868     -26402.4     6155.124    84.860437 
   30700    1833.9919   -107.02166    1.6594344   -105.36222    7451.4612    4.3889384    4.3889384    4.3889384    7451.4612   -25147.924   -6476.6438    53978.952   -2368.2421    -5681.866    -10742.74    84.543156 
   30800    1485.4397   -106.72777    1.3440571   -105.38371   -15709.658    4.3945364    4.3945364    4.3945364   -15709.658   -68816.929   -7656.4051    29344.359   -15241.012   -26512.101    -652.5344     84.86707 
   30900    2023.8244    -107.2165    1.8311989    -105.3853   -4260.8529    4.4092795    4.4092795    4.4092795   -4260.8529   -23086.767   -304.75345    10608.961     343.1646    13892.799   -14170.768    85.724093 
   31000    1697.0557   -106.90858    1.5355317   -105.37305   -5763.2279    4.3917524    4.3917524    4.3917524   -5763.2279    -61337.81    22584.853    21463.273   -26135.041    7536.8315    -23484.69    84.705879 
   31100    1288.8494    -106.5162     1.166178   -105.35003    52805.972    4.3721229    4.3721229    4.3721229    52805.972   -12007.237    81408.723    89016.431   -120.07156   -16027.204    19845.129    83.575135 
   31200    1321.9889   -106.58615    1.1961633   -105.38999   -24114.756    4.4071775    4.4071775    4.4071775   -24114.756   -28208.287   -19922.493   -24213.487   -34951.952    21121.651    2762.8838    85.601551 
   31300    1611.0843   -106.80789    1.4577429   -105.35014    3257.8986    4.4128437    4.4128437    4.4128437    3257.8986    12878.529    1164.0044   -4268.8374   -22958.083   -8109.5505   -8075.8968    85.932141 
   31400    1377.5452   -106.57369    1.2464318   -105.32725    13536.693     4.406695     4.406695     4.406695    13536.693     8509.899     6296.096    25804.084   -15047.033   -4711.1056    575.50278    85.573439 
   31500    1596.9872   -106.76711    1.4449875   -105.32212   -20773.749    4.4078207    4.4078207    4.4078207   -20773.749    3207.2387   -11564.768   -53963.718   -22837.199    4450.6199   -5559.4398    85.639032 
   31600    2024.8104   -107.15629     1.832091    -105.3242    29723.542    4.3844424    4.3844424    4.3844424    29723.542    37378.591    8585.1907    43206.844   -16512.718    3504.3657     1912.479    84.283607 
   31700     1485.292   -106.72842    1.3439234    -105.3845   -10484.759    4.3851807    4.3851807    4.3851807   -10484.759   -56346.575    21132.085    3760.2139   -18617.548   -2304.6783    6820.5938    84.326189 
   31800     1886.875   -107.08516    1.7072841   -105.37787     5511.336    4.3957945    4.3957945    4.3957945     5511.336    20472.153    36131.286   -40069.431    18628.089   -4454.3635   -4057.7307    84.939977 
   31900    1896.2259   -107.08254    1.7157451   -105.36679   -14596.032     4.395207     4.395207     4.395207   -14596.032   -34179.473   -8390.2504   -1218.3734   -27084.038   -5742.3675    9209.7551    84.905924 
   32000    1208.3963   -106.46671    1.0933824   -105.37333    22948.632    4.3993297    4.3993297    4.3993297    22948.632   -47338.441    97790.159    18394.178     5799.782    3262.8972      4968.65    85.145073 
   32100    2138.6857    -107.2865    1.9351278   -105.35137   -29520.637    4.4017777    4.4017777    4.4017777   -29520.637   -45959.777    7758.1172   -50360.252    2250.9092   -3121.0496     12407.31    85.287292 
   32200     1576.621   -106.79914    1.4265598   -105.37258    -28556.42    4.3810781    4.3810781    4.3810781    -28556.42   -56594.514    2184.9579   -31259.703   -22441.792    18515.904   -4385.3819    84.089735 
   32300    1553.1725   -106.79144    1.4053432   -105.38609    39079.038    4.3658413    4.3658413    4.3658413    39079.038   -11456.117    67647.893    61045.337   -335.82558    2467.9127   -14319.775    83.215423 
   32400    2124.2659   -107.33761    1.9220804   -105.41553   -34491.634    4.3913343    4.3913343    4.3913343   -34491.634    -52814.28   -19173.388   -31487.235   -21745.057    3622.5943   -192.24145    84.681688 
   32500    1123.9332   -106.40188    1.0169584   -105.38492   -26289.013    4.4112066    4.4112066    4.4112066   -26289.013   -62791.778   -24590.348     8515.087    1511.4041    12054.595    4963.2035    85.836536 
   32600    2388.6009   -107.48867    2.1612563   -105.32741   -8702.9146    4.3882727    4.3882727    4.3882727   -8702.9146   -43501.649    13167.576    4225.3286    5733.7389     -10213.8   -23917.336    84.504692 
   32700    1044.6808   -106.29584    0.9452491   -105.35059    3425.4101    4.3712128    4.3712128    4.3712128    3425.4101   -45074.732      22905.1    32445.863   -26995.386    13440.222    11099.484    83.522957 
   32800    1808.4556   -107.01944    1.6363286   -105.38311   -7270.8327      4.37671      4.37671      4.37671   -7270.8327   -31854.764   -18530.262    28572.528    29485.858   -4926.1054   -8186.3471    83.838463 
   32900    1816.1457   -107.04363    1.6432868   -105.40034   -16195.207    4.3984947    4.3984947    4.3984947   -16195.207   -53521.016    2799.1956    2136.1996   -15432.626   -17698.572     803.7083      85.0966 
   33000    1724.2492   -106.93662    1.5601369   -105.37649   -11716.181     4.402343     4.402343     4.402343   -11716.181   -61332.467   -15682.955     41866.88    13643.998    3696.7191    12351.862    85.320152 
   33100    2108.4792   -107.26688    1.9077963   -105.35909   -32076.878    4.3891685    4.3891685    4.3891685   -32076.878   -53283.856    11606.057   -54552.836    3729.1186   -38950.576    7253.6065    84.556453 
   33200    1528.6252   -106.75768    1.3831322   -105.37454   -7917.0751    4.3797205    4.3797205    4.3797205   -7917.0751    -51540.15    8161.4766    19627.448    13926.756    11160.318    9429.8727    84.011588 
   33300    1728.2885   -106.95425    1.5637918   -105.39046   -9460.4067    4.3902701    4.3902701    4.3902701   -9460.4067   -54493.612    838.89159      25273.5     1194.575   -21285.783    -4596.353    84.620135 
   33400    1331.6729   -106.58908    1.2049256   -105.38415   -13302.427    4.3994309    4.3994309    4.3994309   -13302.427   -56891.133    5678.5469    11305.304   -2590.2952   -21889.825   -4668.8319    85.150951 
   33500    1689.2099   -106.88442    1.5284326   -105.35599    -8268.393     4.387925     4.387925     4.387925    -8268.393   -30269.164   -36122.806    41586.791    30981.858   -7362.4009    20305.412    84.484604 
   33600    1127.8393   -106.40106    1.0204927   -105.38057    20777.205    4.3851664    4.3851664    4.3851664    20777.205    -16131.94    64815.417    13648.138    6775.1347   -16519.528    11443.233    84.325365 
   33700    1607.6885   -106.83729    1.4546703   -105.38262    275.59929    4.3994821    4.3994821    4.3994821    275.59929   -16395.812    24363.404   -7140.7944    29698.405    3558.3846    11173.276    85.153922 
   33800    1197.8102   -106.45136    1.0838038   -105.36756    27103.506    4.4056033    4.4056033    4.4056033    27103.506    38183.083    71348.787   -28221.351    19385.828   -18876.292    13803.084    85.509856 
   33900    1398.2698   -106.60848    1.2651839    -105.3433    1259.4453    4.4052879    4.4052879    4.4052879    1259.4453    -21662.48    63857.047    -38416.23    24093.645     11304.78    12619.894    85.491493 
   34000    1241.7416   -106.46529    1.1235539   -105.34174    31121.678     4.386191     4.386191     4.386191    31121.678    461.38242    116015.95   -23112.303    13947.602   -11987.447    20277.712    84.384486 
   34100    1661.5094   -106.86668    1.5033686   -105.36331    37534.471    4.3900036    4.3900036    4.3900036    37534.471    33958.863    51018.718    27625.831    552.86233    -16877.19    33685.086    84.604729 
   34200    1064.8561   -106.34942   0.96350414   -105.38591   -8549.2596    4.4265909    4.4265909    4.4265909   -8549.2596    -53795.25   -7092.8943    35240.366    9707.6235   -21582.378    21230.089    86.737749 
   34300    1401.7265   -106.58332    1.2683116   -105.31501   -679.81288    4.4419836    4.4419836    4.4419836   -679.81288   -22264.654    -35286.85    55512.065    15049.579   -5727.1271    17737.129    87.645749 
   34400    1399.5587   -106.52558    1.2663501   -105.25923    18627.619    4.4240236    4.4240236    4.4240236    18627.619   -43781.102   -9681.0968    109345.06   -388.90269   -12713.297   -15793.561     86.58692 
   34500    1178.9648   -106.34814    1.0667522   -105.28139   -2372.2303    4.4016759    4.4016759    4.4016759   -2372.2303   -31505.264   -5433.8824    29822.456   -2170.4541   -21034.824    16829.663    85.281375 
   34600    2153.4583   -107.26281    1.9484943   -105.31431    4972.9718    4.3816934    4.3816934    4.3816934    4972.9718     15489.76   -40380.786    39809.942    1023.1404   -11460.763    10265.933    84.125172 
   34700    1849.9784   -107.05942    1.6738993   -105.38552   -13145.933    4.3881296    4.3881296    4.3881296   -13145.933   -5444.1755   -53230.067    19236.445    6752.8777   -26212.153   -17263.518    84.496423 
   34800    1581.7687   -106.83249    1.4312176   -105.40127   -34561.377     4.405929     4.405929     4.405929   -34561.377   -52604.809   -48324.308   -2755.0152   -2686.3988    9734.6191    23137.076    85.528823 
   34900    1613.7735   -106.84616    1.4601761   -105.38598    9504.3659    4.4161651    4.4161651    4.4161651    9504.3659    13206.985   -51408.786    66714.898    6376.5144    31718.976   -7506.0561    86.126325 
   35000    1564.6458   -106.79767    1.4157244   -105.38195   -19692.601     4.392903     4.392903     4.392903   -19692.601   -27239.222   -26419.064   -5419.5178   -4547.0244    5232.5952   -5803.3126    84.772472 
   35100     1463.921   -106.68448    1.3245865    -105.3599    44186.799    4.3635294    4.3635294    4.3635294    44186.799    10997.775    43434.403    78128.219      5046.21    9250.5249    6588.2953    83.083298 
   35200    1490.9814   -106.76135    1.3490713   -105.41228    21286.244      4.40099      4.40099      4.40099    21286.244    64622.107    -51509.96    50746.584   -6594.6643    2819.9032   -17044.099    85.241511 
   35300     1533.494   -106.76122    1.3875376   -105.37369   -68126.589    4.4221364    4.4221364    4.4221364   -68126.589   -59922.469   -69613.338   -74843.959   -14278.742    7637.2708   -1236.4241    86.476161 
   35400    2167.8519    -107.2904     1.961518   -105.32888    -5856.156    4.3864761    4.3864761    4.3864761    -5856.156    27201.364   -31396.605   -13373.227   -414.29823    -3352.044    8012.7166    84.400944 
   35500    1186.2857   -106.43265    1.0733763   -105.35928    28491.384    4.3811571    4.3811571    4.3811571    28491.384      29163.7   -26464.096    82774.548   -8913.5344     1730.212    3074.1246    84.094285 
   35600    2010.7434   -107.21281    1.8193629   -105.39345   -41165.596    4.3953715    4.3953715    4.3953715   -41165.596   -71434.731    -6674.323   -45387.734    6560.3585    385.09622   -4601.6164    84.915458 
   35700    1878.0987   -107.10249    1.6993432   -105.40314     3315.971    4.4113942    4.4113942    4.4113942     3315.971    13037.439   -55265.846    52176.319    -3021.345   -13155.037    3016.1813    85.847491 
   35800    1388.5923    -106.6389    1.2564275   -105.38247   -36152.329    4.4159816    4.4159816    4.4159816   -36152.329   -39172.958   -31836.513   -37447.518    997.12984    27180.759    3005.3241     86.11559 
   35900    910.37029   -106.19516   0.82372217   -105.37144     19524.05    4.3776453    4.3776453    4.3776453     19524.05    108595.94   -9701.3372   -40322.449    18975.129    15515.617   -11691.667    83.892224 
   36000    1582.2195   -106.82529    1.4316254   -105.39367    57323.942    4.3726761    4.3726761    4.3726761    57323.942    24790.089    75031.187    72150.549    13672.811    9997.5279   -23113.471    83.606865 
   36100     1233.712   -106.54689    1.1162886   -105.43061   -3955.0795    4.4196543    4.4196543    4.4196543   -3955.0795   -23509.194   -15755.328    27399.283    19416.902    16589.897    -6498.509     86.33063 
   36200    1858.0944   -107.02512    1.6812429   -105.34388   -38305.698    4.4379844    4.4379844    4.4379844   -38305.698   -45474.189   -62795.392   -6647.5127    741.79744   -5477.6822   -956.40181    87.409232 
   36300    1864.9651   -106.97605    1.6874596   -105.28859   -18801.285    4.4178113    4.4178113    4.4178113   -18801.285   -22616.495    8357.4173   -42144.777    7745.2713    16653.185    9415.0245    86.222676 
   36400    1725.5376   -106.84063    1.5613027   -105.27933    8426.2683    4.3932108    4.3932108    4.3932108    8426.2683    32495.192    23848.931   -31065.317    19698.385   -9956.3813    3579.1175    84.790292 
   36500    1755.1092   -106.92782    1.5880597   -105.33976    18275.539    4.3976126    4.3976126    4.3976126    18275.539    41906.333    5316.7057     7603.579    2673.6906    22554.533    19145.614    85.045415 
   36600    1573.1234    -106.8042    1.4233951    -105.3808   -36996.013    4.4089472    4.4089472    4.4089472   -36996.013    -66399.95    1421.6683   -46009.758    12738.087   -13327.143   -285.84765    85.704712 
   36700    1681.1262   -106.88876    1.5211183   -105.36764    12309.973    4.3933642    4.3933642    4.3933642    12309.973    65224.845   -51061.124    22766.198    12233.653   -16555.443    8185.0725    84.799172 
   36800    1727.1038   -106.94893    1.5627198   -105.38621     86.60227    4.3995826    4.3995826    4.3995826     86.60227   -1688.6498    3739.7027   -1791.2461   -11221.381    -10990.83   -5750.8413    85.159758 
   36900    1354.1708   -106.60544    1.2252822   -105.38016    -18287.75     4.426698     4.426698     4.426698    -18287.75   -10193.475   -43846.908   -822.86724    11480.927   -24216.093    3794.6891    86.744047 
   37000    1409.2203   -106.60419    1.2750921    -105.3291    23188.011    4.4206695    4.4206695    4.4206695    23188.011    46517.109   -5290.7532    28337.676   -6923.0147    315.81104   -3302.3212     86.39013 
   37100    1547.5857   -106.71499    1.4002881    -105.3147   -2256.8806    4.3983037    4.3983037    4.3983037   -2256.8806   -37771.135   -30429.789    61430.283    8183.6252     -17464.8   -8437.8118    85.085515 
   37200    2143.9452   -107.28486    1.9398867   -105.34497   -22807.115    4.4018125    4.4018125    4.4018125   -22807.115     -60341.4   -36796.885     28716.94    9813.4068    7290.6673     25970.95    85.289316 
   37300    1516.3846   -106.74427    1.3720566   -105.37221    5012.5227    4.4258748    4.4258748    4.4258748    5012.5227    43277.281   -5800.7991   -22438.914   -18314.523    5488.7151    -3954.732    86.695661 
   37400    1380.8133   -106.59077    1.2493889   -105.34138   -11971.527    4.4484569    4.4484569    4.4484569   -11971.527    10074.774   -19037.931   -26951.425   -9545.0195   -4165.0334    8941.8109    88.029486 
   37500    1574.1868   -106.73044    1.4243573   -105.30609   -31059.993    4.4222479    4.4222479    4.4222479   -31059.993   -2097.5059   -43171.134    -47911.34    -21273.04    10276.359   -28941.012    86.482702 
   37600    1743.1417   -106.87165    1.5772313   -105.29442    20231.903    4.3606058    4.3606058    4.3606058    20231.903    43400.651   -14076.734    31371.792    3027.4036     1729.603    17583.443     82.91641 
   37700    1721.6398   -106.92821    1.5577758   -105.37043    25698.677    4.3624945    4.3624945    4.3624945    25698.677    38515.518   -6672.0342    45252.547   -2160.7551     7923.702   -21483.193    83.024194 
   37800    1793.1119   -107.02551    1.6224453   -105.40307   -20081.622    4.4131936    4.4131936    4.4131936   -20081.622    52968.773   -70922.052   -42291.587    6392.2513   -1412.3049    11556.328    85.952586 
   37900    1453.4855   -106.69369    1.3151442   -105.37855   -33013.769    4.4166508    4.4166508    4.4166508   -33013.769   -45943.556    -71042.73    17944.979      3007.78    10944.925   -8895.6327    86.154741 
   38000    1502.2712   -106.71896    1.3592865   -105.35968    20393.381    4.3829326    4.3829326    4.3829326    20393.381    61112.451   -26171.813    26239.505   -273.54596   -5382.2434    5067.8364    84.196564 
   38100    1618.9623   -106.83978    1.4648711   -105.37491     19566.34    4.3743353    4.3743353    4.3743353     19566.34    106031.77   -33347.894   -13984.854   -287.00431   -6598.2355    27232.177    83.702071 
   38200    1185.5673   -106.50566    1.0727262   -105.43293    18871.937    4.3925981    4.3925981    4.3925981    18871.937    87026.819    3066.7498   -33477.758    17949.876    103.36726   -9792.2852    84.754823 
   38300    1879.9239   -107.12486    1.7009946   -105.42387   -18531.456    4.4074524    4.4074524    4.4074524   -18531.456   -16639.778   -46834.129    7879.5381   -7348.0555    9276.6386    29027.628     85.61757 
   38400    1844.6797   -107.07556    1.6691049   -105.40645     8466.448    4.3821091    4.3821091    4.3821091     8466.448    69359.807   -33459.137   -10501.326   -163.15505   -311.86765   -1858.5213    84.149115 
   38500    1400.6878   -106.67321    1.2673718   -105.40584    23843.084    4.3543644    4.3543644    4.3543644    23843.084    7763.3003    25465.367    38300.585   -673.54149    7317.8914    13177.367    82.560881 
   38600    1714.2095   -107.01503    1.5510527   -105.46398   -2069.5386    4.3808859    4.3808859    4.3808859   -2069.5386    20307.611    1094.5214   -27610.748   -3615.2246    16318.906    11224.833    84.078667 
   38700    1911.0312   -107.16447    1.7291412   -105.43533   -1449.1361    4.4111433    4.4111433    4.4111433   -1449.1361    12333.024   -14175.832   -2504.6002    10479.288   -8471.6593   -3413.4495    85.832841 
   38800    1272.3591   -106.53851    1.1512573   -105.38725   -46928.444    4.4268417    4.4268417    4.4268417   -46928.444   -8728.5897   -42073.596   -89983.146   -13367.091    407.14942    17682.263    86.752494 
   38900    1652.1797   -106.85402    1.4949269   -105.35909   -8692.5452    4.3944203    4.3944203    4.3944203   -8692.5452   -25858.899    6246.7343   -6465.4705   -25014.458   -6814.8572   -14155.348    84.860342 
   39000    1656.7925   -106.85674    1.4991007   -105.35764    10632.541    4.3537562    4.3537562    4.3537562    10632.541    26315.504    1471.2033    4110.9157    13337.826    10788.361    14373.118    82.526288 
   39100    1632.4142   -106.90106    1.4770427   -105.42401   -8236.6281    4.3660513    4.3660513    4.3660513   -8236.6281   -397.50496     2391.242   -26703.621    7108.5335   -605.45619    8341.0793    83.227435 
   39200    1365.7242   -106.67355     1.235736   -105.43781   -11938.923    4.4171606    4.4171606    4.4171606   -11938.923   -9909.8661   -38729.472    12822.569    483.24926   -2827.4966   -9452.8713    86.184579 
   39300    1261.1228   -106.51754    1.1410905   -105.37645   -46715.084    4.4234181    4.4234181    4.4234181   -46715.084   -72451.591   -19060.492   -48633.169   -4105.5085    36742.894    22209.927    86.551375 
   39400    1114.3574   -106.35874     1.008294   -105.35044    19366.458    4.3505328    4.3505328    4.3505328    19366.458    40607.135    59688.445   -42196.207   -4495.8791    99.394854    -8635.349    82.343124 
   39500    1714.1255   -106.92597    1.5509767   -105.37499    38862.823    4.3371016    4.3371016    4.3371016    38862.823    38006.655    12195.056    66386.757   -5100.6147   -7200.4857   -10196.681    81.582835 
   39600    1626.1719   -106.89144    1.4713945   -105.42005   -7396.4489    4.3857906    4.3857906    4.3857906   -7396.4489   -40227.704    34831.317    -16792.96   -11894.054    12759.896    12732.183    84.361381 
   39700     1114.101   -106.40863     1.008062   -105.40057   -16223.268    4.4120593    4.4120593    4.4120593   -16223.268   -62696.307    4846.5239    9179.9792    13678.232   -18191.644   -12672.185    85.886327 
   39800    1896.7073   -107.07134    1.7161806   -105.35516   -26015.441     4.408336     4.408336     4.408336   -26015.441   -31718.092   -67954.729    21626.499    968.44166    9567.1451    3151.6477    85.669071 
   39900    1844.4271   -107.04199    1.6688764   -105.37312    7860.2986    4.3576898    4.3576898    4.3576898    7860.2986    -34766.79    55412.663    2935.0222   -10558.589   -34619.679    4642.0324    82.750176 
   40000    1145.9764   -106.42079    1.0369035   -105.38389    59984.183    4.3314319    4.3314319    4.3314319    59984.183    68360.584    40120.762    71471.203    2720.6564   -3354.6473   -34703.816    81.263305 
   40100      2034.74   -107.26649    1.8410755   -105.42542    3561.9624    4.3854805    4.3854805    4.3854805    3561.9624   -8040.1225    1487.3936    17238.616   -18273.016   -12521.758     10673.39    84.343489 
   40200    1348.5537   -106.60013    1.2201997   -105.37993   -16887.372    4.4115479    4.4115479    4.4115479   -16887.372   -3167.8676   -46732.741   -761.50656   -6954.3172   -10313.407   -32997.629    85.856463 
   40300    1744.2616   -106.91892    1.5782446   -105.34068   -20323.587    4.3899879    4.3899879    4.3899879   -20323.587   -21638.657   -18394.151   -20937.955   -6435.4605    8760.0098   -458.71778    84.603822 
   40400    1730.1326     -106.911    1.5654603   -105.34554    27726.922    4.3730494    4.3730494    4.3730494    27726.922    43292.471    -15299.77    55188.064    1282.2132    18193.887     5021.178    83.628278 
   40500    1612.2476   -106.84558    1.4587955   -105.38678   -4180.2467    4.3711785    4.3711785    4.3711785   -4180.2467   -1900.8704   -53698.432    43058.562   -8195.0342   -3560.3102   -45405.855    83.520988 
   40600    1140.3552   -106.45193    1.0318174   -105.42012    7871.4132    4.3826417    4.3826417    4.3826417    7871.4132    16424.841   -4078.2327    11267.631    10033.485    17096.553    42263.148    84.179801 
   40700    1917.9197   -107.12764    1.7353741   -105.39226    11537.621    4.3883286    4.3883286    4.3883286    11537.621   -17147.939     4478.076    47282.727   -8104.2695    22669.318   -5629.5429    84.507921 
   40800    1174.7339    -106.4566     1.062924   -105.39368    -15394.19     4.388497     4.388497     4.388497    -15394.19    3766.7742   -13059.931   -36889.414    4927.1815   -7208.8591    13869.571    84.517651 
   40900    1429.1333   -106.67279    1.2931099   -105.37968   -10562.279    4.3716221    4.3716221    4.3716221   -10562.279   -13206.917    21186.836   -39666.755   -14291.745    14989.397     31091.99    83.546417 
   41000    2030.2772   -107.21094    1.8370375    -105.3739    37653.184    4.3625857    4.3625857    4.3625857    37653.184    62278.429    17770.096    32911.028    14729.592    7083.2442   -1782.1543    83.029402 
   41100    1073.4357   -106.39274   0.97126715   -105.42147   -11617.081    4.3891398    4.3891398    4.3891398   -11617.081    32058.618   -1692.9643   -65216.896   -10970.958   -10783.897    26877.476    84.554793 
   41200    1721.0741   -106.95654    1.5572641   -105.39928   -21194.363    4.3955556    4.3955556    4.3955556   -21194.363    -22484.72    11895.776   -52994.143    3400.7246    4177.8872   -15898.526    84.926131 
   41300    1933.2072   -107.12596    1.7492065   -105.37675    16687.306    4.3736137    4.3736137    4.3736137    16687.306    53184.396   -17586.769    14464.289    11879.114   -2537.6842    22148.016    83.660656 
   41400     1148.138   -106.44409    1.0388594   -105.40523   -8091.5687     4.372526     4.372526     4.372526   -8091.5687   -2804.1708    24334.554   -45805.089    8683.4938    22436.454   -7150.9997    83.598252 
   41500    1624.4893   -106.87563     1.469872   -105.40576   -9832.4626    4.3827237    4.3827237    4.3827237   -9832.4626    10979.918   -22837.965   -17639.341   -4730.1745    18670.686   -5936.5666    84.184525 
   41600    1991.1239   -107.19308    1.8016107   -105.39147   -8350.7292    4.3977027    4.3977027    4.3977027   -8350.7292    6931.1381   -38149.046    6165.7198    7867.5723    13146.661    15518.767    85.050642 
   41700    1081.8495   -106.36009   0.97888012   -105.38121   -57465.244     4.406531     4.406531     4.406531   -57465.244   -36294.945   -54630.146   -81470.641    -4983.742    21856.746   -32389.718    85.563885 
   41800    1990.3031   -107.17027    1.8008681    -105.3694    9866.5285    4.3651643    4.3651643    4.3651643    9866.5285    49649.841   -18636.345   -1413.9104    2911.4215   -15379.629   -10249.208    83.176716 
   41900    1919.6397    -107.1175    1.7369303   -105.38057    15133.293    4.3471866    4.3471866    4.3471866    15133.293   -13140.386    36077.363    22462.903    -96.41806    16080.554    7447.6799     82.15327 
   42000    887.92719   -106.24095   0.80341518   -105.43753   -3251.0321    4.3833266    4.3833266    4.3833266   -3251.0321    58181.635   -6753.5556   -61181.176   -4907.1812    1021.1347   -19790.293    84.219273 
   42100    2098.0938   -107.29806    1.8983994   -105.39966   -35164.496    4.3961155    4.3961155    4.3961155   -35164.496   -17739.203     -71265.4   -16488.885   -6399.1162   -22807.063    26697.007    84.958587 
   42200    1804.6984   -107.02584    1.6329291   -105.39291   -3860.8429    4.3803212    4.3803212    4.3803212   -3860.8429    22145.243   -52109.261     18381.49    171.68291     26807.01   -33491.381    84.046162 
   42300    931.12325   -106.26061   0.84249988   -105.41811    4847.3602    4.3562978    4.3562978    4.3562978    4847.3602    118451.71   -50401.565   -53508.064   -15364.861    -948.9073    29160.588    82.670906 
   42400    1694.8709   -106.99185    1.5335548    -105.4583    32257.633    4.3675857    4.3675857    4.3675857    32257.633     52280.27   -20943.113    65435.741    12582.462   -1816.8745    8250.8844    83.315213 
   42500    2234.1581   -107.45825    2.0215132   -105.43674   -40132.889    4.3981507    4.3981507    4.3981507   -40132.889    -19916.91   -67532.426   -32949.331    6432.2324   -11830.793     4337.037    85.076638 
   42600     742.3349   -106.09463   0.67168022   -105.42295    13860.886    4.3879653    4.3879653    4.3879653    13860.886    77351.943   -46865.372    11096.086    4777.8663    744.70005    32937.915    84.486932 
   42700    1916.7069   -107.12922    1.7342767   -105.39495    18266.691    4.3699155    4.3699155    4.3699155    18266.691    37032.435   -19103.496    36871.134    4642.9158   -12997.723   -18613.371     83.44861 
   42800    2123.5903   -107.33026    1.9214691   -105.40879   -6497.5101    4.3670928    4.3670928    4.3670928   -6497.5101    11945.555    -37488.14    6050.0548    909.92058   -1020.0512    40822.554    83.287006 
   42900     1245.514   -106.56678    1.1269673   -105.43981   -17021.761    4.3843325    4.3843325    4.3843325   -17021.761   -6075.7621    7409.4511   -52398.972    2101.6498    441.59383   -5876.6955    84.277269 
   43000    1333.8545   -106.62576    1.2068996   -105.41886    23979.139    4.3911019    4.3911019    4.3911019    23979.139    88412.055   -15130.775   -1343.8646    -13061.27    3141.2508   -1981.0492    84.668245 
   43100    1787.1278   -107.01842    1.6170308   -105.40139   -19649.072    4.3945927    4.3945927    4.3945927   -19649.072    12374.825   -32029.737   -39292.302   -13423.238   -1249.1054   -406.75075    84.870332 
   43200    1464.8375   -106.72518    1.3254158   -105.39976    -39385.66    4.3843346    4.3843346    4.3843346    -39385.66   -66572.652    6010.2304   -57594.557   -8366.0948    23253.359   -6729.5531    84.277391 
   43300    1930.1638   -107.13108    1.7464528   -105.38462    23177.361    4.3687777    4.3687777    4.3687777    23177.361    67855.228   -19875.041    21551.897    240.37603   -12180.436        21308    83.383448 
   43400     843.2443   -106.18718   0.76298516   -105.42419   -6402.4287    4.3745297    4.3745297    4.3745297   -6402.4287    43685.628    -11140.36   -51752.554   -9967.4407    30869.514   -6513.8362     83.71323 
   43500    1575.6831   -106.85843    1.4257112   -105.43272   -21625.443    4.3758085    4.3758085    4.3758085   -21625.443   -7869.7335   -1464.1803   -55542.415    9404.5551    1659.9572    4085.1716    83.786667 
   43600    2075.7113   -107.29774    1.8781472    -105.4196   -605.37565    4.3818064    4.3818064    4.3818064   -605.37565    17453.595   -46406.791    27137.069    4583.2048    -11852.94    16775.493     84.13168 
   43700    1313.6337    -106.6069    1.1886034    -105.4183   -2304.2636    4.3879233    4.3879233    4.3879233   -2304.2636    44127.001   -11505.195   -39534.598    -2713.104    16283.493   -2277.7949    84.484509 
   43800     1493.564   -106.75752    1.3514081   -105.40611   -18006.232    4.3828096    4.3828096    4.3828096   -18006.232    25348.336   -39404.058   -39962.975    6536.1766   -5292.1359    14415.855    84.189476 
   43900    2169.5622   -107.34447    1.9630655   -105.38141    12995.172    4.3866808    4.3866808    4.3866808    12995.172    38239.038   -41041.405    41787.883   -3188.1171    16439.139   -13462.766     84.41276 
   44000    1461.1365   -106.71253     1.322067   -105.39046   -27773.141    4.3919149    4.3919149    4.3919149   -27773.141    33264.585   -46946.099    -69637.91    9524.0378    10132.309    19338.801    84.715281 
   44100    1497.8606   -106.74023    1.3552957   -105.38494   -8934.7953    4.3783459    4.3783459    4.3783459   -8934.7953    51975.173   -38473.566   -40305.993   -826.61634     3395.087    -34764.34    83.932508 
   44200    2062.5628   -107.24965    1.8662501    -105.3834    25621.392    4.3773382    4.3773382    4.3773382    25621.392    74441.526    -25619.76    28042.409     7675.231    20414.206    13311.519    83.874571 
   44300    972.24039    -106.2812   0.87970353    -105.4015    19139.535    4.3885506    4.3885506    4.3885506    19139.535    25144.183   -24223.699    56498.122    147.44886    -5726.143   -33612.725    84.520747 
   44400    1726.6109   -106.95434    1.5622738   -105.39207   -20524.461    4.4016368    4.4016368    4.4016368   -20524.461   -37579.167   -35661.747    11667.531    12127.762    6529.3495   -4853.3391      85.2791 
   44500    2012.2419   -107.19452    1.8207187    -105.3738   -1596.3921    4.3942423    4.3942423    4.3942423   -1596.3921   -10717.653   -40668.069    46596.545    634.45083   -767.40718    13050.889    84.850029 
   44600    1635.7687   -106.85456    1.4800779   -105.37448    10091.291    4.3620869    4.3620869    4.3620869    10091.291    23386.404   -19159.149    26046.619     3082.404   -4030.3814   -12338.639    83.000929 
   44700    1058.5005   -106.38533   0.95775346   -105.42757   -8148.5444    4.3684566    4.3684566    4.3684566   -8148.5444   -36198.668   -18062.908    29815.942   -475.36666    13994.019    19637.928    83.365059 
   44800      2186.48   -107.40557    1.9783731    -105.4272   -13611.914     4.393942     4.393942     4.393942   -13611.914   -20716.136   -46524.688    26405.083    6514.7372     2418.811   -2641.2733    84.832637 
   44900    1292.2354   -106.57707    1.1692417   -105.40783   -34157.512    4.4064158    4.4064158    4.4064158   -34157.512   -66196.746   -3297.1932   -32978.598    14673.248   -27856.886   -5503.0218    85.557175 
   45000    1254.3004   -106.50595    1.1349174   -105.37104   -7661.9462     4.375987     4.375987     4.375987   -7661.9462   -14101.968    1177.8192    -10061.69   -2319.6151    12325.652    19861.053     83.79692 
   45100    2301.3642   -107.44112    2.0823227   -105.35879    26390.397    4.3654861    4.3654861    4.3654861    26390.397    -7566.856   -15972.386    102710.43    12704.464   -9910.1172     5401.207    83.195114 
   45200    1163.8744   -106.44752     1.053098   -105.39442   -21938.801    4.3948255    4.3948255    4.3948255   -21938.801   -48237.274    3542.3424   -21121.472    1869.7917   -551.38376    5880.1001     84.88382 
   45300    1465.6048    -106.6824      1.32611   -105.35629    7049.3268    4.3962528    4.3962528    4.3962528    7049.3268   -21327.447   -40828.282     83303.71    5971.6229    22394.493    2455.9699    84.966546 
   45400     2081.784   -107.23901    1.8836419   -105.35537   -26159.617     4.390224     4.390224     4.390224   -26159.617   -6173.4722   -62171.259   -10134.122    1637.2196   -14102.353    560.40351    84.617468 
   45500    1541.1882   -106.78958    1.3944994   -105.39508   -17944.604    4.3692852    4.3692852    4.3692852   -17944.604   -5736.4434   -35055.597   -13041.772   -2255.3219   -924.64989    6688.5906     83.41251 
   45600    1043.0214   -106.36879   0.94374768   -105.42505    34866.649    4.3579336    4.3579336    4.3579336    34866.649    40649.149   -30367.622    94318.421    22822.323   -3151.6226   -25074.632    82.764069 
   45700    2241.2692   -107.44297    2.0279475   -105.41502   -11954.966    4.3815282    4.3815282    4.3815282   -11954.966   -12001.181   -42733.776    18870.059   -8181.3824    20054.628    22777.204    84.115656 
   45800    813.31153    -106.1481   0.73590136    -105.4122   -5551.2972    4.3914448    4.3914448    4.3914448   -5551.2972    19114.532     -40518.2    4749.7768    11708.388      6453.78   -27588.675    84.688078 
   45900    1937.7281    -107.1401    1.7532971   -105.38681   -24009.752    4.3829572    4.3829572    4.3829572   -24009.752   -38477.672   -51396.413    17844.829    7990.3175   -9500.5562    10828.368    84.197985 
   46000    1522.1642   -106.76486    1.3772862   -105.38758    27057.772    4.3724603    4.3724603    4.3724603    27057.772    81404.519   -47488.238    47257.035   -13380.553   -5031.9547   -7317.6356    83.594483 
   46100    1107.8323   -106.41395    1.0023899   -105.41156    4890.1019     4.364575     4.364575     4.364575    4890.1019    50434.098   -54379.838    18616.046    19858.588    2960.1328    -26233.06    83.143039 
   46200    1704.9823    -106.9604    1.5427038   -105.41769    5366.4517    4.3851408    4.3851408    4.3851408    5366.4517    21646.104   -22994.646    17447.897   -6383.7959   -10290.652    23701.978    84.323889 
   46300    1876.7737   -107.09611    1.6981443   -105.39796   -20778.015    4.3884286    4.3884286    4.3884286   -20778.015   -503.99037   -65808.767    3978.7116    6000.6657    16463.877   -13016.431    84.513702 
   46400    1343.7032    -106.6082    1.2158109   -105.39239   -374.91231    4.3637669    4.3637669    4.3637669   -374.91231   -10822.067    -24313.62    34010.949    22662.977   -15671.184    6027.2893    83.096863 
   46500     1740.233   -106.96906    1.5745993   -105.39446    21612.498    4.3666887    4.3666887    4.3666887    21612.498    70374.592    -2309.908   -3227.1901   -8623.8256     894.6725    6197.7642     83.26389 
   46600    1686.7246   -106.93527    1.5261839   -105.40909    5744.6226    4.3810636    4.3810636    4.3810636    5744.6226   -7953.8155   -43212.472    68400.155    29406.791   -8940.4902    1064.3153      84.0889 
   46700    1440.1516   -106.71762    1.3030795   -105.41454   -10576.207    4.3991859    4.3991859    4.3991859   -10576.207    29429.708   -52120.423   -9037.9049   -10209.742    4255.1177    -1623.877    85.136726 
   46800    1738.5518   -106.96981    1.5730782   -105.39673     -18406.1    4.3901703    4.3901703    4.3901703     -18406.1   -15851.242   -61340.137    21973.078    34757.305   -4694.0024   -1041.2235    84.614364 
   46900    2331.9303   -107.48227    2.1099795   -105.37229     9348.855    4.3563163    4.3563163    4.3563163     9348.855    28546.328    -24876.95    24377.187    6987.6644    12566.802    3031.4851    82.671958 
   47000    1129.6449    -106.4195    1.0221264   -105.39737    33085.892    4.3511443    4.3511443    4.3511443    33085.892     61633.86   -13739.038    51362.855    10683.853   -20425.107    10042.254    82.377853 
   47100    1190.2734   -106.52482    1.0769844   -105.44783   -3594.4793    4.3825992    4.3825992    4.3825992   -3594.4793    12537.712   -52677.919    29356.769    35484.918     20493.12    7384.3491    84.177354 
   47200     2318.142   -107.50439    2.0975036   -105.40688   -5309.3756    4.3891641    4.3891641    4.3891641   -5309.3756    20408.855   -34191.908   -2145.0737   -3904.8794   -6081.3103   -112.82293    84.556197 
   47300     1089.922   -106.39641   0.98618429   -105.41023   -1650.7863    4.3718972    4.3718972    4.3718972   -1650.7863    21832.751   -39888.586    13103.476    40077.163   -9042.9721    4628.7574     83.56219 
   47400    1773.1416    -107.0055    1.6043758   -105.40112    35592.438    4.3648083    4.3648083    4.3648083    35592.438    67040.117   -4478.6783    44215.874     -17843.7     5354.945    4002.5455    83.156368 
   47500    1712.8602   -106.96122    1.5498319   -105.41139    14162.605    4.3701778    4.3701778    4.3701778    14162.605    43925.117    -10266.68    8829.3788    26392.084    10576.327   -6298.6852    83.463642 
   47600    1301.4687   -106.60007    1.1775962   -105.42248   -23038.731    4.3792974    4.3792974    4.3792974   -23038.731   -24243.455    1665.3149   -46538.053    22446.458    1127.4171   -942.29028    83.987244 
   47700    1528.4497   -106.78761    1.3829734   -105.40464    12878.266    4.3777018    4.3777018    4.3777018    12878.266    58755.493   -16887.325    -3233.369    -16064.78   -8352.3711   -6058.2103    83.895472 
   47800    1486.7574   -106.75821    1.3452493   -105.41296   -10080.306    4.3648431    4.3648431    4.3648431   -10080.306   -412.09254   -62242.634     32413.81     56460.32    163.80067    8617.8847    83.158358 
   47900    1922.0093   -107.15888    1.7390744    -105.4198   -13772.658    4.3585848    4.3585848    4.3585848   -13772.658    4112.0952    1335.1363   -46765.207   -12307.576    9311.0083   -2020.1498    82.801177 
   48000    1527.6167   -106.81796    1.3822197   -105.43574   -20021.387    4.3676046    4.3676046    4.3676046   -20021.387   -16322.832   -50470.605     6729.277     1010.164    -6594.243   -11458.885    83.316295 
   48100    1671.8733   -106.94913    1.5127461   -105.43638    -4005.468    4.3673933    4.3673933    4.3673933    -4005.468    22015.811   -41421.083    7388.8683    19184.706   -6600.1605    877.05949    83.304203 
   48200    1751.2428   -107.00008    1.5845613   -105.41552    3895.9808    4.3741039    4.3741039    4.3741039    3895.9808    57682.418   -33384.015   -12610.461   -5455.3825    1331.9785    -1832.632     83.68879 
   48300    1629.9785   -106.87213    1.4748388   -105.39729   -34698.503    4.3753204    4.3753204    4.3753204   -34698.503   -29820.049   -73062.134   -1213.3273    24814.883    3448.2313    3047.4054    83.758632 
   48400    1351.8557   -106.60412    1.2231874   -105.38093     39821.03    4.3586221    4.3586221    4.3586221     39821.03    91225.096    17059.714    11178.281     444.5857   -20538.801   -6486.2506    82.803298 
   48500    1778.0022   -106.98857    1.6087737   -105.37979    3967.6345    4.3594505    4.3594505    4.3594505    3967.6345   -8046.0088   -14073.591    34022.503   -2660.5158    14734.638   -11203.758    82.850523 
   48600    835.72574   -106.15605   0.75618221   -105.39987   -11593.641    4.3807579    4.3807579    4.3807579   -11593.641    3190.5349   -37175.109   -796.34811    11974.243    -7839.099    2958.5731    84.071296 
   48700    2409.8899   -107.54277     2.180519   -105.36225   -39250.916    4.3860681    4.3860681    4.3860681   -39250.916   -9692.9134   -34469.231   -73590.604    4486.4768   -7929.6699    6885.1105    84.377396 
   48800    1126.5088   -106.39458    1.0192888   -105.37529   -9581.5949    4.3701187    4.3701187    4.3701187   -9581.5949   -13374.344   -55345.863    39975.422    19992.393    6626.2976    6293.0899    83.460255 
   48900    1427.7346    -106.6756    1.2918443   -105.38376    21444.407    4.3522183    4.3522183    4.3522183    21444.407    108013.12     -20399.4   -23280.504   -618.27585   -27928.931    7538.1124    82.438868 
   49000    1857.2669   -107.09872    1.6804942   -105.41822    6859.2764    4.3668851    4.3668851    4.3668851    6859.2764    40261.522   -33141.203     13457.51    9149.7492   -1064.5218    8047.6802    83.275124 
   49100    1499.6677   -106.77893    1.3569309   -105.42199   -22382.021    4.3884519    4.3884519    4.3884519   -22382.021    2013.1944    -83295.25    14135.994    6712.0639    12700.538     6500.004    84.515045 
   49200     2369.259   -107.51414    2.1437553   -105.37039   -12344.496    4.3845751    4.3845751    4.3845751   -12344.496    1828.1014   -54636.048     15774.46    2109.5715      2992.61    783.22918    84.291258 
   49300     998.4188   -106.27764   0.90339031   -105.37425   -18292.647    4.3717608    4.3717608    4.3717608   -18292.647   -30599.975   -64006.065      39728.1   -555.66077   -1165.9194    2145.1633     83.55437 
   49400    1828.0143   -107.02246    1.6540257   -105.36843     18128.76    4.3677998    4.3677998    4.3677998     18128.76    71316.073   -31086.341    14156.548   -7061.3764   -5073.5883   -1684.8398    83.327464 
   49500    1925.8084    -107.1281    1.7425119   -105.38559   -7207.1344    4.3759043    4.3759043    4.3759043   -7207.1344    17297.367   -73179.632    34260.861    10246.696   -12981.904   -9055.9133    83.792171 
   49600    747.43944   -106.06738   0.67629891   -105.39108   -13719.521    4.3827218    4.3827218    4.3827218   -13719.521    4895.7213   -89242.917    43188.632   -635.56724    -1549.152   -1446.5014     84.18442 
   49700    2109.8372   -107.27874     1.909025   -105.36972    11244.602    4.3701875    4.3701875    4.3701875    11244.602    52372.467   -13803.972   -4834.6876   -1994.7935    3109.7049    8208.0508    83.464198 
   49800    1411.8155   -106.67998    1.2774403   -105.40254   -4392.1786    4.3493478    4.3493478    4.3493478   -4392.1786   -13905.323   -61510.671    62239.458    3969.0545   -303.57924   -7685.9323    82.275858 
   49900    1658.9963   -106.91414    1.5010947   -105.41304    10938.891     4.354065     4.354065     4.354065    10938.891    55606.033   -23981.815    1192.4545    4407.1927    2854.5728    1813.7129    82.543852 
   50000    1744.9511   -106.98006    1.5788684   -105.40119   -3273.2458    4.3693161    4.3693161    4.3693161   -3273.2458     69073.71   -56908.029   -21985.419   -522.15722   -9815.4368    10882.564    83.414279 
   50100    1353.4561   -106.63508    1.2246355   -105.41045   -28309.082    4.3686184    4.3686184    4.3686184   -28309.082   -60195.541   -52789.704    28057.998    1873.5407   -3208.0992   -3194.0836    83.374327 
   50200    2005.4775   -107.21218    1.8145982   -105.39758   -1980.9295    4.3502726    4.3502726    4.3502726   -1980.9295    63691.901   -45958.123   -23676.567    6701.9579    10392.885    22399.758    82.328352 
   50300    1422.5108   -106.69503    1.2871177   -105.40791   -10011.726    4.3385003    4.3385003    4.3385003   -10011.726   -9759.4122   -26260.208    5984.4427    10137.391     242.7049    6014.4397    81.661789 
   50400    1406.0614   -106.70155    1.2722339   -105.42932   -9031.4224    4.3542308    4.3542308    4.3542308   -9031.4224   -43107.613   -50267.463    66280.809    7922.2093    655.85518   -4015.8268    82.553278 
   50500    2057.6112   -107.26567    1.8617698    -105.4039   -13834.463    4.3735694    4.3735694    4.3735694   -13834.463    33551.364   -36525.504    -38529.25    4035.3923   -4754.9518    12905.129    83.658113 
   50600    960.95922      -106.28    0.8694961   -105.41051   -6749.2801    4.3678071    4.3678071    4.3678071   -6749.2801    19457.947   -65182.361    25476.573    3187.3522     685.1283   -11526.792    83.327885 
   50700    1831.4151   -107.04438    1.6571029   -105.38727    25423.071    4.3541894    4.3541894    4.3541894    25423.071    11207.914   -3171.3806    68232.681   -5345.0962   -9467.0281   -4585.2122    82.550923 
   50800     1528.424   -106.78177    1.3829502   -105.39882    24073.078    4.3521424    4.3521424    4.3521424    24073.078    40986.599    -16108.64    47341.274    5315.1636   -635.55128    -9591.023    82.434552 
   50900    1033.4692   -106.36265   0.93510466   -105.42754   -23547.286    4.3643634    4.3643634    4.3643634   -23547.286   -40353.941   -87174.184    56886.266   -3374.5397    117.58509   -13832.185    83.130942 
   51000    1994.2876   -107.19881    1.8044733   -105.39434    14553.816    4.3730193    4.3730193    4.3730193    14553.816    37221.696    -34332.01    40771.761    4017.0497   -4550.4442    19687.819    83.626548 
   51100    1494.4102   -106.74616    1.3521737   -105.39399   -8291.6866    4.3636031    4.3636031    4.3636031   -8291.6866   -40876.563   -22983.427     38984.93   -4771.2903    1981.4086   -10979.684    83.087506 
   51200    1516.0801   -106.75984    1.3717811   -105.38806    2203.1892    4.3468538    4.3468538    4.3468538    2203.1892   -9795.1505   -49514.894    65919.612   -9083.3267   -9343.9832    8129.2731      82.1344 
   51300     2009.989   -107.21233    1.8186803   -105.39365   -13049.087    4.3538937    4.3538937    4.3538937   -13049.087    10710.763    -41459.75   -8398.2754    7962.3332    6446.2693    17936.524    82.534106 
   51400    1583.0818   -106.83678    1.4324057   -105.40437   -21384.845     4.372658     4.372658     4.372658   -21384.845   -61666.183   -52056.907    49568.554   -9211.0487   -5856.4508   -5575.0034    83.605824 
   51500    1735.3271   -106.96071    1.5701604   -105.39055   -5402.0381    4.3646167    4.3646167    4.3646167   -5402.0381     4180.831   -28048.992    7662.0464    361.60217    14298.133    21989.769    83.145422 
   51600    983.54537   -106.28059   0.88993252   -105.39066    12698.134    4.3430032    4.3430032    4.3430032    12698.134   -11162.971   -29884.512    79141.886    -5971.571   -14693.143    -20701.86    81.916323 
   51700    2123.2358   -107.31753    1.9211484   -105.39639    15127.241    4.3490925    4.3490925    4.3490925    15127.241    22109.137   -17095.855     40368.44    5959.1755    4768.0927    6922.9181    82.261367 
   51800    1735.7475   -106.96853    1.5705408   -105.39799   -2026.2977    4.3707356    4.3707356    4.3707356   -2026.2977   -14490.227   -40433.114    48844.448   -2625.1951    6651.4265    7369.6727    83.495603 
   51900    1112.3277   -106.39216    1.0064574    -105.3857   -39822.294    4.3819805    4.3819805    4.3819805   -39822.294   -50941.631   -69316.222    790.97139   -51.944281    7668.1894   -19223.454    84.141706 
   52000    2258.5866   -107.39996    2.0436166   -105.35634    10312.319    4.3682041    4.3682041    4.3682041    10312.319    9809.2755   -8341.2717    29468.954   -10399.257   -9248.7564    3566.8849    83.350606 
   52100    1675.5843   -106.89982    1.5161039   -105.38371   -7862.2405    4.3430953    4.3430953    4.3430953   -7862.2405   -27956.648   -8632.4582    13002.385    4545.8576    776.05402   -4319.5038    81.921535 
   52200    1419.5259   -106.69073    1.2844169   -105.40631    35743.871    4.3398293    4.3398293    4.3398293    35743.871    64575.148    7684.7432    34971.722    874.11947   -5172.2383   -1823.0095     81.73686 
   52300    1670.4353   -106.92476     1.511445   -105.41332   -25904.141    4.3669941    4.3669941    4.3669941   -25904.141    -40847.91   -55485.333     18620.82   -8483.9186    8763.2893    21665.474    83.281362 
   52400    1644.6762   -106.89738    1.4881376   -105.40924   -11557.785    4.3604442    4.3604442    4.3604442   -11557.785    -51662.58   -39277.153    56266.378     19385.12    3938.1816   -11101.584    82.907194 
   52500      1537.17   -106.79292    1.3908638   -105.40206    18248.925    4.3469639    4.3469639    4.3469639    18248.925    67207.301   -36789.397    24328.872   -10729.477    -8533.337      25849.6    82.140644 
   52600    1655.6793   -106.90853    1.4980934   -105.41043   -22128.988    4.3570228    4.3570228    4.3570228   -22128.988   -33773.663   -54257.369    21644.067    4783.2181    20573.431    3130.4905    82.712184 
   52700    1516.4241   -106.77898    1.3720924   -105.40689    3707.9143    4.3502446    4.3502446    4.3502446    3707.9143   -35721.155    -32482.92    79327.817    16994.358   -9305.4913    7579.7823    82.326764 
   52800    1501.6472   -106.77435    1.3587219   -105.41563    12012.956    4.3536784    4.3536784    4.3536784    12012.956    46255.031   -18727.143    8510.9793   -7831.9444    3038.1578    8657.4721    82.521865 
   52900    1521.3758    -106.7884    1.3765728   -105.41183   -23302.789    4.3680959    4.3680959    4.3680959   -23302.789   -22297.119   -67339.001    19727.754    14518.969     17265.34   -12588.142    83.344415 
   53000    1636.8586   -106.88233    1.4810641   -105.40126    15648.436    4.3491961    4.3491961    4.3491961    15648.436   -16649.529    15093.447    48501.391    1222.6615   -8132.0515    7231.9545    82.267246 
   53100    1763.9908   -107.00648     1.596096   -105.41038   -11905.633    4.3466244    4.3466244    4.3466244   -11905.633    43268.375   -44282.543   -34702.731    3503.7873    6690.4481   -18686.128    82.121399 
   53200    1112.7085   -106.43402    1.0068021   -105.42722   -11310.807    4.3573507    4.3573507    4.3573507   -11310.807   -22953.692   -41950.076    30971.347    3939.4744    5162.6048    10211.068    82.730862 
   53300    1969.3134   -107.20275    1.7818762   -105.42088    5275.9158    4.3567501    4.3567501    4.3567501    5275.9158     47539.62    -26910.49   -4801.3831   -4747.2575    4627.4657   -3123.4369    82.696656 
   53400    1732.6923   -106.98476    1.5677764   -105.41699   -9382.0132    4.3676483    4.3676483    4.3676483   -9382.0132    23023.073   -2760.1655   -48408.948    -1105.665   -4887.5531   -5502.9955    83.318793 
   53500    1742.8445   -106.99004    1.5769624   -105.41308   -6453.7537    4.3507428    4.3507428    4.3507428   -6453.7537    25286.051   -53546.584    8899.2723   -11226.871    6921.4468    7438.1133    82.355048 
   53600    1466.6543   -106.74146    1.3270596    -105.4144    21446.319    4.3423874    4.3423874    4.3423874    21446.319    31959.856    46807.577   -14428.476    10079.096   -9756.7361   -1768.1681    81.881482 
   53700    1857.6603   -107.09657    1.6808501   -105.41572   -11938.343    4.3615978    4.3615978    4.3615978   -11938.343    24652.746   -11354.057   -49113.719   -1390.2346    13311.363   -3397.8075    82.973007 
   53800    2080.1133   -107.28606    1.8821302   -105.40393   -9688.6269    4.3685299    4.3685299    4.3685299   -9688.6269    13205.509   -20641.779    -21629.61    21671.262    -4657.567    2647.4497    83.369259 
   53900    830.27978    -106.1664   0.75125459   -105.41515   -27569.617     4.368932     4.368932     4.368932   -27569.617    -31222.02     25028.15   -76514.982     11682.77    -6601.798   -13518.211    83.392279 
   54000     2278.407   -107.44045    2.0615506   -105.37889    10735.822    4.3534757    4.3534757    4.3534757    10735.822    46604.719   -17092.114    2694.8609    5341.7366    29715.473   -654.47446    82.510338 
   54100    1439.5506   -106.69891    1.3025356   -105.39637     1048.446    4.3565885    4.3565885    4.3565885     1048.446     65295.98   -46455.794   -15694.848     8491.746   -32477.475   -2702.2593    82.687453 
   54200    1043.2989   -106.35236   0.94399879   -105.40836   -12564.669    4.3672415    4.3672415    4.3672415   -12564.669      8500.53   -7642.9789   -38551.559   -4948.2756    7694.0928   -12221.424    83.295517 
   54300    2023.6652   -107.21852    1.8310548   -105.38747      8072.12    4.3686451    4.3686451    4.3686451      8072.12    56909.398    -33555.32    862.28283   -11102.511   -1877.5691    12040.379    83.375854 
   54400    1372.0821    -106.6297    1.2414888   -105.38821    1333.8942    4.3792123    4.3792123    4.3792123    1333.8942    24905.222   -17412.471   -3491.0675    1574.7621    -31681.63   -30072.949    83.982346 
   54500    1336.4687   -106.57377     1.209265    -105.3645     6973.166    4.3763233    4.3763233    4.3763233     6973.166     8156.681   -6276.9391    19039.756   -24519.199   -4268.9467   -1945.9487    83.816245 
   54600    1458.6586   -106.67664     1.319825   -105.35682    4310.7627    4.3718565    4.3718565    4.3718565    4310.7627    48751.917   -29581.002   -6238.6267   -11137.857   -7523.2596   -7094.7229    83.559858 
   54700    1708.9016    -106.9093    1.5462501   -105.36305    12882.379    4.3659019    4.3659019    4.3659019    12882.379     -16217.3    9201.7731    45662.664    -742.3349   -19157.885   -21374.901     83.21889 
   54800    1746.5446   -106.95444    1.5803102   -105.37413    6948.5071    4.3596242    4.3596242    4.3596242    6948.5071   -6470.3343    9583.8525    17732.003   -23374.327   -2868.1647   -6039.6069    82.860425 
   54900    590.07818   -105.94672   0.53391514    -105.4128   -9603.8699    4.3682523    4.3682523    4.3682523   -9603.8699    23193.443    2954.0078   -54959.061   -5720.4547   -11815.272   -23497.398    83.353364 
   55000    2114.6775   -107.30694    1.9134046   -105.39353    20705.633    4.3579625    4.3579625    4.3579625    20705.633   -14268.063    36316.364    40068.598   -6046.8443   -13884.532   -10091.426    82.765712 
   55100    1450.6577    -106.7165    1.3125855   -105.40392    44033.744    4.3483766    4.3483766    4.3483766    44033.744    44859.867    44362.166    42879.199   -9766.0056   -7579.0774   -40959.009    82.220754 
   55200    1374.4184   -106.65217    1.2436027   -105.40857    -18680.03    4.3808607    4.3808607    4.3808607    -18680.03   -23416.933   -60469.749    27846.593    8829.7555   -13066.395   -4923.3621    84.077216 
   55300    2096.0395   -107.25661    1.8965406   -105.36007   -4759.1261    4.3837997    4.3837997    4.3837997   -4759.1261   -36318.394    4720.2792    17320.736   -3948.9279     31463.78    -16496.47    84.246546 
   55400    1083.8956   -106.33959   0.98073154   -105.35885    19753.603    4.3593074    4.3593074    4.3593074    19753.603    16115.461   -5210.9194    48356.267    2917.0272   -6765.1251   -20814.934    82.842364 
   55500    1596.6133   -106.81315    1.4446493   -105.36851   -16044.872    4.3539732    4.3539732    4.3539732   -16044.872   -5713.6489   -27475.783   -14945.185    26999.171     21273.17    27109.329    82.538627 
   55600    2064.2508   -107.25306    1.8677775   -105.38528    27352.792    4.3488075    4.3488075    4.3488075    27352.792    39931.376    19094.871    23032.131   -1009.8686    14531.604   -10116.182    82.245198 
   55700    1376.2519   -106.67124    1.2452616   -105.42598   -37426.687    4.3733294    4.3733294    4.3733294   -37426.687   -21847.619   -56543.012   -33889.428    21810.496    -22034.52    14824.609    83.644344 
   55800    1086.2056   -106.40229   0.98282164   -105.41947   -37291.782    4.3689796    4.3689796    4.3689796   -37291.782   -28959.346   -28725.093   -54190.907    9320.8703    24980.061    26122.793     83.39501 
   55900     2410.138   -107.56126    2.1807436   -105.38052    23707.312    4.3418191    4.3418191    4.3418191    23707.312     16621.99    957.87727     53542.07    1958.3945   -13374.659   -9650.5884    81.849337 
   56000     1238.244   -106.53461    1.1203892   -105.41422   -14652.132    4.3593877    4.3593877    4.3593877   -14652.132   -22733.081   -25267.305    4043.9903    5192.9272    4159.4153    20228.825    82.846941 
   56100     1077.465   -106.38227     0.974913   -105.40735    8823.5968    4.3720287    4.3720287    4.3720287    8823.5968   -6530.6514    -37337.34    70338.782   -11201.297    20013.882   -3413.4347    83.569732 
   56200    2043.1255   -107.23695    1.8486629   -105.38829    3572.3969     4.368213     4.368213     4.368213    3572.3969   -3708.2179   -41100.719    55526.128    5662.7263   -19359.325   -18939.989    83.351119 
   56300    1698.2771   -106.93471    1.5366368   -105.39808   -13086.878    4.3601869    4.3601869    4.3601869   -13086.878   -22514.069   -38551.748    21805.184   -9533.5827      27198.1     8232.985    82.892515 
   56400    1590.4453   -106.84672    1.4390683   -105.40765   -189.48492    4.3512004    4.3512004    4.3512004   -189.48492    38666.301   -50445.652    11210.896     5842.627    13693.241   -24276.775    82.381037 
   56500    1516.5031   -106.78639    1.3721639   -105.41423    16704.128    4.3571003    4.3571003    4.3571003    16704.128   -29959.014   -33843.259    113914.66   -11815.748   -15195.077   -3892.9248    82.716598 
   56600    1378.1006    -106.6614    1.2469344   -105.41446    -13467.71    4.3738433    4.3738433    4.3738433    -13467.71    -33481.12   -16897.019    9975.0088    495.62814    26798.048   -8131.2277    83.673831 
   56700    1636.0612   -106.88615    1.4803425   -105.40581   -21705.026    4.3654567    4.3654567    4.3654567   -21705.026    12070.944    -56161.81   -21024.211   -3101.7482    588.65288   -20816.734    83.193436 
   56800    1640.9334   -106.88037     1.484751   -105.39561    7799.6369    4.3502937    4.3502937    4.3502937    7799.6369    5051.1116    -6711.165    25058.964     -4948.74   -7637.8978    4482.4479    82.329549 
   56900    1542.7901   -106.81367    1.3959489   -105.41772   -13174.427    4.3663017    4.3663017    4.3663017   -13174.427   -21524.195   -2710.1457    -15288.94    2852.4311    25967.696   -18220.258    83.241752 
   57000    2132.7571   -107.33021    1.9297634   -105.40045    9354.3364    4.3699373    4.3699373    4.3699373    9354.3364    40973.436   -18425.135    5514.7076    2065.0132   -10459.651   -4939.4694    83.449863 
   57100    921.86504   -106.23819   0.83412286   -105.40407    6327.9739    4.3776545    4.3776545    4.3776545    6327.9739   -24510.457   -10088.168    53582.546   -1714.8097    28560.303    13534.355    83.892756 
   57200    1551.2302   -106.79672    1.4035856   -105.39313   -39970.819    4.3831725    4.3831725    4.3831725   -39970.819   -21091.023   -53600.113    -45221.32    10163.991   -4375.5016   -17070.353     84.21039 
   57300    2319.5019   -107.46884     2.098734   -105.37011    7329.4155    4.3595097    4.3595097    4.3595097    7329.4155    14814.221   -13398.284     20572.31    14330.137    1834.0539     4665.394      82.8539 
   57400    1435.3193   -106.68898    1.2987071   -105.39028   -11530.879    4.3556233    4.3556233    4.3556233   -11530.879   -23184.757   -8018.4889   -3389.3902   -1449.0626    36759.681   -5249.3819    82.632507 
   57500    1463.3913   -106.73004    1.3241072   -105.40593   -25516.708    4.3736081    4.3736081    4.3736081   -25516.708   -6538.7702   -62313.802   -7697.5519    16521.675   -26631.511   -7835.4858    83.660334 
   57600    1945.8338   -107.15823    1.7606313    -105.3976    19855.006    4.3640696    4.3640696    4.3640696    19855.006    19393.713    20072.403    20098.902    16280.067    28701.786    8805.3503    83.114155 
   57700    1779.2077   -107.01989    1.6098645   -105.41003    1812.4381    4.3542545    4.3542545    4.3542545    1812.4381    31158.404    2657.8148   -28378.904   -7276.1073    16067.791   -13053.557    82.554629 
   57800    974.45422   -106.31012   0.88170666   -105.42841    5833.3896    4.3578115    4.3578115    4.3578115    5833.3896    31744.244   -22075.806    7831.7306    19265.195   -38177.042   -949.87309     82.75711 
   57900    1977.3806   -107.20431    1.7891755   -105.41513    15018.058    4.3644758    4.3644758    4.3644758    15018.058    71750.526   -23565.159   -3131.1923    5244.5334    23555.179     4084.511    83.137366 
   58000    1747.6748   -106.99037    1.5813329   -105.40904   -33588.187    4.3786913    4.3786913    4.3786913   -33588.187   -34392.039   -38124.091   -28248.431   -2406.8075   -5286.7303    -5323.755    83.952377 
   58100     1117.831   -106.42171     1.011437   -105.41027   -19589.702    4.3621584    4.3621584    4.3621584   -19589.702   -25521.098   -48155.038     14907.03    11575.676   -16648.297    12356.893    83.005005 
   58200    1707.6623    -106.9446    1.5451287   -105.39947    48232.759    4.3469665    4.3469665    4.3469665    48232.759    108435.69   -23532.613      59795.2   -12943.435    15785.796    15964.836    82.140788 
   58300    1981.2185   -107.20268    1.7926482   -105.41004   -9257.8312    4.3655689    4.3655689    4.3655689   -9257.8312   -7424.5694   -58114.112    37765.188    14099.877   -1376.2378   -3149.2384     83.19985 
   58400    1057.5919   -106.37037   0.95693136   -105.41344     7003.007     4.370904     4.370904     4.370904     7003.007    45717.355   -58270.963    33562.629    -1880.479    1904.7219    15099.158    83.505253 
   58500    1759.8045   -107.00052    1.5923081   -105.40822   -15141.918    4.3662929    4.3662929    4.3662929   -15141.918    32756.784   -31768.609    -46413.93   -4111.7033    2321.4466   -23411.479    83.241251 
   58600    1815.8323   -107.04568    1.6430033   -105.40268    21591.996    4.3451511    4.3451511    4.3451511    21591.996    2108.9295   -15681.746    78348.804    4014.6236   -32279.855   -12566.584    82.037924 
   58700    1428.5732   -106.71728     1.292603   -105.42468    8834.5567    4.3476639    4.3476639    4.3476639    8834.5567    17145.756   -46760.207    56118.121   -2818.7326    5614.3038    1932.2518    82.180331 
   58800    1168.3266   -106.48018    1.0571264   -105.42305   -13351.578    4.3748411    4.3748411    4.3748411   -13351.578    10890.101   -43647.711    -7297.122   -1505.2426   -21928.275   -23429.805     83.73111 
   58900    1813.5019   -107.03631    1.6408946   -105.39542   -14926.845    4.3731023    4.3731023    4.3731023   -14926.845   -56495.384   -4015.2829    15730.131    -12487.77    -16858.12   -677.86932    83.631311 
   59000    1816.6751   -107.03088    1.6437658   -105.38712   -4988.2025    4.3492029    4.3492029    4.3492029   -4988.2025    16454.324   -35394.972    3976.0407   -9848.9698     3268.119   -25339.823    82.267631 
   59100    1323.0096   -106.60165    1.1970869   -105.40456    8926.8495    4.3420502    4.3420502    4.3420502    8926.8495    1372.1803    -13055.82    38464.188    4358.6191   -21763.589    12815.557    81.862411 
   59200    1342.7277   -106.65136    1.2149282   -105.43643   -27467.146    4.3617643    4.3617643    4.3617643   -27467.146   -69727.012    -5736.512    -6937.915   -16398.451     24631.49    7243.0619    82.982515 
   59300    2054.3704   -107.27271    1.8588375   -105.41387    23378.342    4.3626184    4.3626184    4.3626184    23378.342    -13109.73    3387.7731    79856.982   -1003.6542    6165.6828   -8811.7557    83.031269 
   59400    1442.7189   -106.72488    1.3054023   -105.41948   -34129.165    4.3676284    4.3676284    4.3676284   -34129.165   -40885.629   -26886.266   -34615.599    5452.1082     3150.372    20616.437    83.317655 
   59500    998.85027   -106.32026   0.90378072   -105.41648   -35594.791    4.3615194    4.3615194    4.3615194   -35594.791    -63479.14   -10712.094   -32593.139   -5050.4347    32743.551   -5343.8159    82.968537 
   59600     2179.297   -107.36682    1.9718737   -105.39495    19061.602    4.3498437    4.3498437    4.3498437    19061.602    10549.466   -26221.544    72856.883    15949.406   -10975.106   -924.47552    82.304005 
   59700    1557.5393   -106.82393    1.4092943   -105.41463     -16342.7    4.3645471    4.3645471    4.3645471     -16342.7   -38965.263    12021.329   -22084.165    89.171993    25590.628   -3790.0592    83.141441 
   59800    1347.9333   -106.62972    1.2196384   -105.41008    1808.6268    4.3682711    4.3682711    4.3682711    1808.6268   -37602.801   -21272.342    64301.023    12057.283    5175.1148   -9034.6025    83.354441 
   59900    2040.7564   -107.23803    1.8465193   -105.39151   -20444.066    4.3661555    4.3661555    4.3661555   -20444.066   -10633.388   -66780.607    16081.798    12596.205   -2945.9164   -3826.0619    83.233394 
   60000    1502.1981   -106.74576    1.3592204   -105.38654    31335.439    4.3540888    4.3540888    4.3540888    31335.439   -19892.472     34489.16    79409.629   -7581.1543    12278.069    4299.3036    82.545206 
   60100    1558.4599   -106.81843    1.4101272    -105.4083   -22913.753     4.360279     4.360279     4.360279   -22913.753   -36814.528   -42797.093    10870.361    27111.707   -12802.769    -24103.65    82.897766 
   60200    2210.5202   -107.39376    2.0001251   -105.39364    -26097.89    4.3721714    4.3721714    4.3721714    -26097.89   -30773.591   -35262.627   -12257.454    9971.2749    5059.5573    21636.139    83.577914 
   60300    1470.9674   -106.71653    1.3309622   -105.38556    15251.764    4.3654763    4.3654763    4.3654763    15251.764    8492.8853    8950.2895    28312.118   -5680.4621   -5963.8387   -4363.0283    83.194554 
   60400    1511.3736   -106.75961    1.3675226   -105.39209   -14025.498    4.3713227    4.3713227    4.3713227   -14025.498   -8396.2688    -18955.52   -14724.705    24160.094   -9569.7656   -6388.6197    83.529255 
   60500    2320.2874   -107.46546    2.0994448   -105.36602   -5105.4016    4.3693262    4.3693262    4.3693262   -5105.4016   -2247.9645    5733.1284   -18801.369    6850.5374    2885.5592    28488.641    83.414859 
   60600    1219.6849    -106.4794    1.1035965    -105.3758    10950.679    4.3638203    4.3638203    4.3638203    10950.679    7297.3656    41631.503   -16076.831   -2824.5856    1673.5002   -21756.524    83.099911 
   60700    1615.3991   -106.84292     1.461647   -105.38127    7497.0717     4.374299     4.374299     4.374299    7497.0717    25616.225   -8472.3418    5347.3319    17919.043    8888.7313    24359.966    83.699988 
   60800    1748.8181   -106.96104    1.5823674   -105.37868     -7723.06    4.3776858    4.3776858    4.3776858     -7723.06   -15122.045    31485.922   -39533.058   -17265.469   -2986.5149   -13585.306    83.894551 
   60900    922.88994   -106.23384   0.83505021   -105.39879   -28016.269     4.364578     4.364578     4.364578   -28016.269   -26046.677   -32083.661    -25918.47    47939.342   -5903.5879   -25149.973    83.143207 
   61000    2346.6561   -107.49308    2.1233037   -105.36978    39098.451    4.3334449    4.3334449    4.3334449    39098.451    27017.602    57002.547    33275.205    5333.4756    19485.731    12342.412    81.376657 
   61100    1314.4538   -106.60968    1.1893454   -105.42033   -12393.737    4.3562799    4.3562799    4.3562799   -12393.737    10499.987   -33180.836   -14500.361    4802.3247   -11819.303   -37296.359    82.669883 
   61200      1266.25   -106.54037    1.1457296   -105.39464   -49216.318    4.3857921    4.3857921    4.3857921   -49216.318   -88539.154   -15750.338    -43359.46    39563.901    8887.2332   -6944.2053    84.361466 
   61300    2042.0277   -107.21634    1.8476696   -105.36867    23472.048    4.3660516    4.3660516    4.3660516    23472.048   -3067.7967      96854.6   -23370.659   -14138.435   -688.44843     4524.555     83.22745 
   61400    1215.1029   -106.48672    1.0994506   -105.38727    6300.6036    4.3608353    4.3608353    4.3608353    6300.6036   -50749.851    35227.223    34424.439    39305.787    9881.7398   -19319.555    82.929499 
   61500    1725.7061   -106.94688    1.5614551   -105.38542   -1622.8327    4.3644652    4.3644652    4.3644652   -1622.8327   -49262.098    54342.219    -9948.619    13748.829    17130.086    13740.026    83.136762 
   61600    1739.5382   -106.95331    1.5739707   -105.37934   -22870.755    4.3718174    4.3718174    4.3718174   -22870.755   -23351.608   -20966.861   -24293.795    11736.255   -6863.9821   -5425.0909    83.557615 
   61700    1375.1968   -106.63022    1.2443069   -105.38592   -32003.358    4.3674807    4.3674807    4.3674807   -32003.358   -75417.172    4779.2214   -25372.124    44872.493    31221.857   -7575.2349    83.309203 
   61800    2186.3939   -107.35079    1.9782951   -105.37249    1576.0811    4.3631847    4.3631847    4.3631847    1576.0811    3207.7942    5092.1953   -3571.7462   -8849.3492   -512.80034    15239.201    83.063609 
   61900    1393.0357   -106.64512     1.260448   -105.38467   -17800.397    4.3633849    4.3633849    4.3633849   -17800.397   -25166.361   -15890.368   -12344.461    35529.587    11021.469   -9383.7506    83.075044 
   62000    1608.9983   -106.84499    1.4558554   -105.38914   -1759.3427    4.3595488    4.3595488    4.3595488   -1759.3427   -40546.846     37564.19   -2295.3724    21116.587     9136.103    7266.8735    82.856127 
   62100     1949.225   -107.15301    1.7636998   -105.38931    7121.8533    4.3576068    4.3576068    4.3576068    7121.8533    47598.465   -6852.9662   -19379.939   -13698.081     4843.225    10158.583    82.745451 
   62200     983.2607    -106.2935   0.88967494   -105.40383    13770.262    4.3556701    4.3556701    4.3556701    13770.262   -4366.9579    16350.145    29327.599    40429.618    9938.9619    -28292.78    82.635174 
   62300    1993.5144   -107.19139    1.8037738   -105.38762   -3786.4619    4.3687828    4.3687828    4.3687828   -3786.4619    -15337.87   -3309.5798    7288.0637   -9716.4417    783.24402    6996.9894     83.38374 
   62400    1752.3812    -106.9792    1.5855914   -105.39361   -2994.6256    4.3605903    4.3605903    4.3605903   -2994.6256   -351.21733   -32484.282    23851.623    15508.948    5091.1345   -4805.2258    82.915523 
   62500    1387.0511   -106.65419     1.255033   -105.39915     1742.358    4.3510807    4.3510807    4.3510807     1742.358   -26632.332   -15164.065    47023.471    21766.158    21196.154   -20572.081    82.374241 
   62600    2180.8066   -107.35927    1.9732396   -105.38603    355.33545    4.3578245    4.3578245    4.3578245    355.33545   -10622.896   -4199.4407    15888.343    -3233.211   -1002.7548     10847.89    82.757853 
   62700    1128.2612    -106.4234    1.0208744   -105.40252    -8885.504    4.3634097    4.3634097    4.3634097    -8885.504    5087.6818   -63183.252    31439.059    46451.793    6645.7065   -15814.704    83.076462 
   62800    2123.9587   -107.30231    1.9218025   -105.38051    6893.1462    4.3736862    4.3736862    4.3736862    6893.1462    32450.633   -3519.7872   -8251.4076   -17978.923    8735.2603   -1459.7431    83.664816 
   62900    1700.4888    -106.9121     1.538638   -105.37347   -15869.933    4.3724848    4.3724848    4.3724848   -15869.933   -14227.026   -18391.041   -14991.732     40833.04   -15877.824    3319.8711    83.595889 
   63000    1099.0447   -106.38185   0.99443871   -105.38741   -6345.3538    4.3608637    4.3608637    4.3608637   -6345.3538   -635.04902    20309.551   -38710.564    5863.3827    22148.446   -14074.684    82.931123 
   63100    2003.8759    -107.2019     1.813149   -105.38875    15538.738    4.3499478    4.3499478    4.3499478    15538.738    28621.266    31935.166   -13940.217   -25761.955   -9572.0845    18262.194    82.309911 
   63200    1366.8119   -106.64441    1.2367201   -105.40769    33717.403    4.3467807    4.3467807    4.3467807    33717.403    53510.506     39924.61    7717.0932    23783.193    12907.891    1083.6621     82.13026 
   63300     976.1084   -106.30788   0.88320339   -105.42468   -5479.8858     4.369818     4.369818     4.369818   -5479.8858     12029.43   -5793.6534   -22675.433   -11707.162    11445.769   -9847.3143    83.443029 
   63400    2063.3151   -107.24984    1.8669309   -105.38291    4419.9923    4.3748269    4.3748269    4.3748269    4419.9923    15442.614   -8621.3465    6438.7091   -18821.945    3833.3634    2342.3559    83.730293 
   63500    1296.9411   -106.56251    1.1734995   -105.38901    2783.2778    4.3592948    4.3592948    4.3592948    2783.2778     442.5174      17983.8   -10076.484    16869.217    31114.023   -10898.298    82.841649 
   63600    1503.4731   -106.74871    1.3603741   -105.38834   -9282.7064    4.3517868    4.3517868    4.3517868   -9282.7064    16137.282   -34975.768   -9009.6332   -6129.0282   -4014.7172     4955.871    82.414348 
   63700    2033.5351   -107.23516    1.8399853   -105.39518    4762.7199    4.3521855    4.3521855    4.3521855    4762.7199    14041.711   -24141.674    24388.123   -20215.093    10700.066    5026.9851    82.437001 
   63800    1664.4418   -106.91418    1.5060219   -105.40816    -2788.071    4.3587535    4.3587535    4.3587535    -2788.071    33607.254   -28883.053   -13088.415    29451.152    13851.931   -7423.4798    82.810792 
   63900    1425.4323   -106.68375    1.2897611   -105.39399   -46258.212    4.3798033    4.3798033    4.3798033   -46258.212    -24554.67   -74707.697   -39512.271   -17467.121   -2528.5994    19684.648    84.016354 
   64000    2122.1645   -107.28527     1.920179   -105.36509   -33535.817    4.3772147    4.3772147    4.3772147   -33535.817   -12647.088   -47392.744   -40567.618   -4003.4752     14338.67   -11312.116     83.86747 
   64100    1729.0692   -106.93032    1.5644982   -105.36582    -1630.634    4.3496395    4.3496395    4.3496395    -1630.634    7627.2453    10856.719   -23375.866     9723.006    16943.224     9857.079    82.292415 
   64200    1777.7831   -106.98962    1.6085755   -105.38104   -23390.737    4.3441363    4.3441363    4.3441363   -23390.737   -37162.703   -28325.226   -4684.2827   -27337.046   -16049.853    19636.742    81.980458 
   64300    1880.4515   -107.09523     1.701472   -105.39376   -13291.552    4.3708034    4.3708034    4.3708034   -13291.552   -2395.1978    9497.5065   -46976.966    16705.491     24104.06   -8811.9419    83.499487 
   64400    1133.9334   -106.41465    1.0260067   -105.38865   -26211.659    4.3878498    4.3878498    4.3878498   -26211.659   -50490.049   -5596.6224   -22548.306   -16522.847   -349.13775    24299.183    84.480263 
   64500    1916.3428   -107.12047    1.7339472   -105.38653   -6443.7795    4.3557224    4.3557224    4.3557224   -6443.7795   -14592.895   -5520.7471     782.3034   -8116.1131   -37472.139    -4810.734     82.63815 
   64600    1785.8499   -106.99629    1.6158746   -105.38042    47372.404    4.3177987    4.3177987    4.3177987    47372.404    84422.511    27701.204    29993.497    10090.915    26931.148    12990.829    80.498385 
   64700    1042.2275   -106.38626   0.94302935   -105.44323    21506.677    4.3450971    4.3450971    4.3450971    21506.677    42191.347     30231.13   -7902.4449   -26948.797   -28023.351    2623.2969    82.034865 
   64800     1972.745   -107.17646    1.7849811   -105.39148   -27150.205    4.3934463    4.3934463    4.3934463   -27150.205   -36837.718   -26063.765   -18549.133    2648.3428   -29180.429   -9188.6216    84.803931 
   64900    1439.6265    -106.6752    1.3026043    -105.3726    -9922.179    4.3745147    4.3745147    4.3745147    -9922.179    -55741.84   -34619.249    60594.552   -12354.792    19637.548    14092.875     83.71237 
   65000    1198.6094   -106.44749     1.084527   -105.36296   -4095.4564    4.3392793    4.3392793    4.3392793   -4095.4564   -18530.597    19574.856   -13330.629   -18924.036   -50806.026   -13377.667    81.705789 
   65100    2474.0009   -107.61162     2.238528   -105.37309    27050.597    4.3355607    4.3355607    4.3355607    27050.597    22058.434    85.948645     59007.41    1521.3654    13065.066   -26946.925    81.495908 
   65200    1411.9737   -106.69851    1.2775835   -105.42093    -11544.77    4.3578107    4.3578107    4.3578107    -11544.77   -61498.432   -9107.6401    35971.761   -22609.204   -13685.693    15097.976    82.757063 
   65300    1221.2464   -106.51845    1.1050094   -105.41344   -36485.967    4.3790842    4.3790842    4.3790842   -36485.967    -14401.63   -30970.324   -64085.946   -160.37667   -12071.175   -17066.651    83.974973 
   65400    2206.1911   -107.38144    1.9962081   -105.38523   -7524.3431    4.3608854    4.3608854    4.3608854   -7524.3431   -13785.416   -34816.161    26028.549   -3713.1732    8929.9321   -18363.616    82.932362 
   65500    1550.2526   -106.78448    1.4027012   -105.38178    1037.2611    4.3403121    4.3403121    4.3403121    1037.2611   -48050.554    545.33879    50616.998   -38751.311   -30323.249   -2930.1077    81.764141 
   65600    1747.5462   -106.96636    1.5812166   -105.38514   -4064.2355    4.3534156    4.3534156    4.3534156   -4064.2355     34448.82   -39317.474   -7324.0531     15586.26    7839.2613   -28724.642    82.506921 
   65700     1420.799   -106.67211    1.2855688   -105.38655   -24809.617    4.3722491    4.3722491    4.3722491   -24809.617   -39702.843   -43629.899    8903.8893   -24947.453   -28281.917   -982.49679     83.58237 
   65800    1781.4417    -106.9888    1.6118859   -105.37691   -19084.497    4.3698797    4.3698797    4.3698797   -19084.497    -14013.37   -34030.045   -9210.0766   -17034.918   -14465.513   -9802.4004    83.446559 
   65900    1908.0485   -107.10246    1.7264424   -105.37602    5687.5729    4.3463731    4.3463731    4.3463731    5687.5729    53993.688   -30880.829   -6050.1406    7544.6123    1213.8642   -18180.258    82.107154 
   66000    996.72633   -106.29879   0.90185893   -105.39693    9671.0878    4.3433379    4.3433379    4.3433379    9671.0878   -11131.318   -28655.574    68800.155   -36594.386   -34876.232    10499.665    81.935266 
   66100    1947.4691   -107.15043    1.7621109   -105.38832   -5980.4162    4.3731798    4.3731798    4.3731798   -5980.4162    50910.571   -38012.631   -30839.189     14756.87    5148.0221   -18653.512     83.63576 
   66200    1597.4827   -106.82631    1.4454359   -105.38088   -32753.798    4.3765896    4.3765896    4.3765896   -32753.798   -32521.828    -38042.17   -27697.396   -18993.956   -28331.431    8242.9038    83.831545 
   66300    1413.7913   -106.66031    1.2792281   -105.38108     5.623345    4.3585902    4.3585902    4.3585902     5.623345    26284.697   -46264.952    19997.126   -9393.5576   -17301.209   -3831.1311     82.80148 
   66400    2140.1699    -107.3142    1.9364707   -105.37772    23728.323    4.3371025    4.3371025    4.3371025    23728.323    61854.892    390.95547    8939.1213    5436.9553    7229.5988   -11906.386    81.582886 
   66500    825.76171   -106.16395   0.74716655   -105.41678    22027.312    4.3307549    4.3307549    4.3307549    22027.312    12255.756    497.59114    53328.588    -38141.56    -29138.07    7910.4446    81.225205 
   66600    2379.1787   -107.56077    2.1527309   -105.40804   -422.10069    4.3729997    4.3729997    4.3729997   -422.10069    12285.229   -23707.049    10155.517    6810.9024    221.14833    559.29169    83.625425 
   66700    1391.5182   -106.66296    1.2590749   -105.40389   -24182.719    4.3701771    4.3701771    4.3701771   -24182.719   -22808.593   -21186.443   -28553.122   -26022.194    -2584.609    4495.6037    83.463599 
   66800    1041.1391   -106.32277   0.94204454   -105.38073    36052.141    4.3356872    4.3356872    4.3356872    36052.141     26349.91    38589.411    43217.102   -29214.659   -31443.869    2635.4594    81.503046 
   66900    2150.6495   -107.32425    1.9459529    -105.3783    14182.495    4.3473396    4.3473396    4.3473396    14182.495    12156.318   -5090.5068    35481.673     3116.015    9670.9036    9436.3559    82.161942 
   67000    1044.7687   -106.33952   0.94532864   -105.39419   -802.99418     4.362563     4.362563     4.362563   -802.99418   -20795.115    12514.345    5871.7868   -48926.078   -30006.167   -6019.8984    83.028108 
   67100    2054.2784   -107.22257    1.8587543   -105.36381    12298.331    4.3708581    4.3708581    4.3708581    12298.331    -10714.37    24092.432    23516.929    15087.799   -2189.9626    1385.2238    83.502621 
   67200    999.16006   -106.28664   0.90406102   -105.38258    -27028.93    4.3627852    4.3627852    4.3627852    -27028.93   -60998.465   -51165.925    31077.599   -23870.725   -5990.9874   -2193.1939    83.040793 
   67300    1614.3043   -106.83551    1.4606565   -105.37486    48319.845    4.3406152    4.3406152    4.3406152    48319.845    12670.303    69627.734    62661.499   -7735.2156   -28514.183    3055.8211    81.781273 
   67400    1751.9042   -106.97841    1.5851597   -105.39325    9916.5453    4.3487029    4.3487029    4.3487029    9916.5453   -27629.291   -26521.494    83900.421    16690.801   -3428.4928    -244.4909    82.239264 
   67500    1096.9519    -106.3896   0.99254516   -105.39706   -5293.4472      4.36543      4.36543      4.36543   -5293.4472    11917.281   -29044.072    1246.4491   -35556.933    -24416.17   -885.89552    83.191907 
   67600    1899.0895   -107.08566    1.7183361   -105.36733    12679.586    4.3652219    4.3652219    4.3652219    12679.586    983.43553     4114.535    32940.789    30986.881   -13929.751   -953.27099    83.180011 
   67700    1216.8108   -106.47668     1.100996   -105.37568    421.61047    4.3615443    4.3615443    4.3615443    421.61047   -11518.984   -34502.634    47286.449   -24499.114   -12278.659   -5111.3671    82.969954 
   67800    2122.8181   -107.28494    1.9207704   -105.36417    12416.131    4.3499904    4.3499904    4.3499904    12416.131    55910.512   -9404.2492   -9257.8695     7743.231   -17832.033   -7352.5104    82.312331 
   67900    1076.5504    -106.3666   0.97408546   -105.39251    23072.792    4.3433335    4.3433335    4.3433335    23072.792   -7151.8615   -14952.859    91323.098    582.35244    3045.0487   -12032.602    81.935015 
   68000    1503.2719   -106.75751     1.360192   -105.39732    3389.6652    4.3561974    4.3561974    4.3561974    3389.6652   -19851.462    -44319.37    74339.828   -34212.983   -18019.293    2610.1878    82.665185 
   68100    2015.4636   -107.20019    1.8236338   -105.37655   -5576.6597    4.3645879    4.3645879    4.3645879   -5576.6597    29177.637   -52002.284    6094.6689    23580.586   -1235.3181   -22711.585    83.143772 
   68200    942.84928   -106.24665   0.85310984   -105.39354   -11249.268    4.3588438    4.3588438    4.3588438   -11249.268   -37675.349   -66915.095    70842.641   -32517.571    10536.163    3098.9984    82.815939 
   68300    2134.6385   -107.31003    1.9314658   -105.37857    17157.252    4.3418862    4.3418862    4.3418862    17157.252    77021.761    -23775.59   -1774.4131    -2435.605   -18237.437    9484.7731    81.853134 
   68400    1203.3619    -106.4961    1.0888271   -105.40728   -15973.829    4.3431806    4.3431806    4.3431806   -15973.829   -17965.524   -57887.338    27931.375   -10501.192    25548.318   -8290.5547    81.926359 
   68500    1373.3086    -106.6601    1.2425985   -105.41751   -21447.969    4.3586663    4.3586663    4.3586663   -21447.969   -14745.432   -70079.244    20480.768   -17517.985   -5757.7174    13937.263    82.805822 
   68600    2031.7037   -107.23678    1.8383282   -105.39845    17830.331    4.3630518    4.3630518    4.3630518    17830.331    34659.105   -23399.258    42231.146    9590.0387   -18208.883    13520.188    83.056019 
   68700    1184.7175   -106.47536    1.0719573    -105.4034   -14175.036    4.3643232    4.3643232    4.3643232   -14175.036   -12887.779   -68965.703    39328.375   -4551.2283   -1869.2785    1335.9258    83.128649 
   68800    1397.0401   -106.65437    1.2640712    -105.3903    13421.932    4.3565143    4.3565143    4.3565143    13421.932    41398.699   -47604.326    46471.423    11281.235   -29403.348    24007.083     82.68323 
   68900     1743.095   -106.96129     1.577189    -105.3841     4994.644    4.3608364    4.3608364    4.3608364     4994.644    42267.978   -36806.347    9522.3016   -5562.0545    -24593.78   -14447.793    82.929565 
   69000    1608.3883   -106.83922    1.4553036   -105.38392    -3092.569    4.3640586    4.3640586    4.3640586    -3092.569     19607.74   -63154.631    34269.184   -3317.9608    9380.6828    19976.497    83.113528 
   69100    1622.2916   -106.85023    1.4678835   -105.38235   -13649.951     4.367129     4.367129     4.367129   -13649.951    41829.186   -30433.268   -52345.772    6983.6388   -41321.068   -24919.425     83.28908 
   69200    1550.0609   -106.78477    1.4025277   -105.38224   -4576.5143    4.3570329    4.3570329    4.3570329   -4576.5143    13615.297   -23017.069   -4327.7708   -18881.041    23349.697   -429.52893    82.712763 
   69300    1781.1196    -106.9939    1.6115945   -105.38231    17313.712    4.3374029    4.3374029    4.3374029    17313.712    45454.123   -3265.8835    9752.8957   -4330.6943   -9702.5884   -4639.6733    81.599836 
   69400    1108.5013   -106.42047    1.0029953   -105.41747   -1625.4037    4.3525753    4.3525753    4.3525753   -1625.4037    38856.516   -12258.741   -31473.986    8045.0711   -38404.497   -25414.538    82.459157 
   69500    2160.2949   -107.34735    1.9546802   -105.39267   -12677.924    4.3662948    4.3662948    4.3662948   -12677.924    -822.6296   -32506.103   -4705.0376   -9651.8676    42196.154    258.38574    83.241357 
   69600    1199.9389   -106.48722    1.0857299   -105.40149     -24067.8    4.3599954    4.3599954    4.3599954     -24067.8   -46920.221    40679.356   -65962.535   -5410.8374   -65725.025   -13100.955    82.881596 
   69700    1919.0222   -107.12633    1.7363716   -105.38996     2085.055    4.3512519    4.3512519    4.3512519     2085.055      27999.2    2791.6117   -24535.647    16745.385   -1684.1976   -10145.229    82.383964 
   69800    1754.4084   -106.97667    1.5874256   -105.38924   -17070.466    4.3590465    4.3590465    4.3590465   -17070.466   -29911.493      24748.5   -46048.405   -742.06166   -30376.093   -780.41299    82.827491 
   69900    1490.3664   -106.72579    1.3485149   -105.37727   -17250.167    4.3719578    4.3719578    4.3719578   -17250.167    1231.8436    13014.235   -65996.579   -4257.7481   -43360.179   -18361.492    83.565669 
   70000    1890.0501   -107.06655     1.710157   -105.35639   -7144.9077    4.3578268    4.3578268    4.3578268   -7144.9077    8628.2789    6100.9519   -36163.954    19773.083     1418.413    2273.4179    82.757981 
   70100    1588.3188   -106.80551    1.4371442   -105.36837   -4354.1815    4.3494723    4.3494723    4.3494723   -4354.1815   -15128.257    52379.482    -50313.77   -15022.994   -59952.018   -13623.375    82.282925 
   70200    1891.9233    -107.0783     1.711852   -105.36645   -8182.8904    4.3658622    4.3658622    4.3658622   -8182.8904     3555.172    10186.061   -38289.904    18970.406    14403.648   -23445.317    83.216621 
   70300    1400.0152   -106.63232    1.2667632   -105.36556   -10967.695    4.3703775    4.3703775    4.3703775   -10967.695   -44488.306    71405.318   -59820.099    2117.4424    -46980.67    3172.6554    83.475084 
   70400    1829.7417   -107.01273    1.6555887   -105.35714    6241.6618    4.3663122    4.3663122    4.3663122    6241.6618    1153.6318    56733.987   -39162.633   -9768.5787    12676.843   -25047.053    83.242354 
   70500    748.26208    -106.0695   0.67704326   -105.39245    -14540.57    4.3500979    4.3500979    4.3500979    -14540.57   -52575.971    70194.161   -61239.899    12596.522   -58998.686   -17756.701    82.318432 
   70600    2405.9766   -107.55356    2.1769782   -105.37658    27207.366    4.3349373    4.3349373    4.3349373    27207.366    17858.006     36127.23    27636.863    -4590.737    8011.5189    1674.8675     81.46076 
   70700    972.31287   -106.29516   0.87976912   -105.41539   -16615.327    4.3666127    4.3666127    4.3666127   -16615.327   -60102.986    38565.891   -28308.884   -2040.8458   -50455.319   -12994.387    83.259542 
   70800    1573.7269   -106.79714    1.4239411    -105.3732    -29030.05    4.3742645    4.3742645    4.3742645    -29030.05   -50071.029   -8405.4307    -28613.69    20389.829   -36211.984   -4947.3306    83.698009 
   70900    2084.3588   -107.24814    1.8859716   -105.36217    18494.957    4.3427446    4.3427446    4.3427446    18494.957    45300.865    4140.6008     6043.404   -9180.2827   -148.26775    13933.259    81.901691 
   71000    1298.5791   -106.55638    1.1749816    -105.3814   -17078.247    4.3368685    4.3368685    4.3368685   -17078.247   -37370.953    24296.772   -38160.559    8187.0327   -69639.813   -21837.848    81.569681 
   71100    1866.9165   -107.07518    1.6892253   -105.38595    24134.378    4.3453436    4.3453436    4.3453436    24134.378    54374.532   -3513.6306    21542.234    3518.2689    17693.886   -758.14126    82.048823 
   71200    1039.9417   -106.34725   0.94096107   -105.40628   -39581.533    4.3731433    4.3731433    4.3731433   -39581.533   -39539.739   -9460.3116    -69744.55    4149.3667   -53504.274    24996.706    83.633667 
   71300    2141.6431   -107.30722    1.9378037   -105.36942   -11268.018    4.3662423    4.3662423    4.3662423   -11268.018   -18189.436   -34457.436    18842.818    6544.2616   -6142.3799    -20156.36    83.238359 
   71400    1352.7662   -106.59832    1.2240113   -105.37431    9340.3255    4.3323481    4.3323481    4.3323481    9340.3255    29131.612    23738.777   -24849.412   -273.63668   -19332.051    26540.595    81.314881 
   71500    1347.5966   -106.61718    1.2193337   -105.39784    4944.0841    4.3389221    4.3389221    4.3389221    4944.0841   -10566.249    5031.4407     20367.06    722.89113   -44022.988    19720.654    81.685612 
   71600    2335.6936   -107.50326    2.1133846   -105.38988   -3847.7079    4.3581187    4.3581187    4.3581187   -3847.7079    11339.451   -20188.938   -2693.6365   -9231.0516     16143.35    1765.2935    82.774616 
   71700    740.57198   -106.07669   0.67008509   -105.40661   -14068.729    4.3629418    4.3629418    4.3629418   -14068.729   -18934.252    6825.0658   -30097.002    1094.2251   -44965.952     19773.46    83.049735 
   71800    2179.9198   -107.35833    1.9724372   -105.38589    11262.864    4.3487365    4.3487365    4.3487365    11262.864    11703.947   -1782.0663    23866.711   -11381.259    9369.2214   -4229.9848    82.241172 
   71900    1639.7737   -106.88195    1.4837017   -105.39825    12965.063    4.3379643    4.3379643    4.3379643    12965.063    4080.2535    12500.411    22314.524    -725.4071   -26042.521   -11444.588    81.631524 
   72000    1384.7732    -106.6648    1.2529718   -105.41182    17058.689    4.3452056    4.3452056    4.3452056    17058.689    7880.9382    21358.554    21936.576   -6322.8207   -24451.934    11566.179    82.041009 
   72100    1926.0561   -107.14782     1.742736   -105.40508   -16227.817    4.3640506    4.3640506    4.3640506   -16227.817    16174.093   -29640.351   -35217.193    -11496.38    3805.4337    -45891.51     83.11307 
   72200    1504.1533   -106.76651    1.3609895   -105.40552   -11352.008    4.3627458    4.3627458    4.3627458   -11352.008    -14910.07   -8676.9791   -10468.974     8127.066   -45380.927    23442.509    83.038545 
   72300    1695.1113   -106.92749    1.5337723   -105.39372    1279.4487    4.3457299    4.3457299    4.3457299    1279.4487    23987.203   -26415.227    6266.3706   -12697.641    -1439.838    -26337.55    82.070708 
   72400    1572.3812   -106.81314    1.4227236   -105.39041     10651.58    4.3483749    4.3483749    4.3483749     10651.58    11679.443   -11414.306    31689.605   -961.87169   -9291.4288   -32125.492    82.220655 
   72500    1397.1958   -106.65698    1.2642122   -105.39277   -23403.163    4.3635658    4.3635658    4.3635658   -23403.163   -13521.238   -14810.259   -41877.992   -6399.8579   -30821.383    14827.179    83.085375 
   72600    1607.2247   -106.82793    1.4542507   -105.37368   -16388.315     4.376789     4.376789     4.376789   -16388.315    22520.557   -55884.987   -15800.516   -11045.667    14403.027   -51729.296    83.843005 
   72700    1769.2317   -106.95621     1.600838   -105.35537   -25843.225    4.3680376    4.3680376    4.3680376   -25843.225   -38306.071    2888.2301   -42111.833    7186.0197   -36836.747    15932.188    83.341076 
   72800    1286.5289   -106.53113    1.1640784   -105.36705    8310.4059    4.3513411    4.3513411    4.3513411    8310.4059    9796.8394   -24643.118    39777.496   -7967.8388    -1178.678   -6814.5022    82.389027 
   72900    1835.0821   -107.03401    1.6604208   -105.37359    29951.126    4.3415373    4.3415373    4.3415373    29951.126    721.64991    3128.7333    86002.996    11263.733    11893.125   -12492.613    81.833402 
   73000    1339.0568   -106.62329    1.2116068   -105.41168   -9646.9488    4.3585706    4.3585706    4.3585706   -9646.9488   -36187.244    17006.156   -9759.7582    10820.892    -28345.23    31632.179    82.800363 
   73100    2185.9798   -107.36693    1.9779205   -105.38901    8573.1838    4.3698214    4.3698214    4.3698214    8573.1838   -25549.211    17323.784    33944.979    2261.6198    11583.079    3284.7688    83.443219 
   73200    1362.2905   -106.62406     1.232629   -105.39143    2921.2999    4.3572483    4.3572483    4.3572483    2921.2999    -22248.26   -10726.253    41738.412    10186.152    -18825.53    -1088.103    82.725029 
   73300     1356.209   -106.62024    1.2271264   -105.39312   -368.16288    4.3461175    4.3461175    4.3461175   -368.16288    22796.292   -23512.006    -388.7741    -1180.905    -3543.007    40155.927    82.092672 
   73400     2175.347   -107.35208    1.9682997   -105.38379    25015.159     4.346042     4.346042     4.346042    25015.159   -22575.546    22054.978    75566.044    646.71542    247.39832   -17301.772    82.088396 
   73500    1189.6285    -106.4853    1.0764009    -105.4089   -27968.018    4.3696484    4.3696484    4.3696484   -27968.018   -7845.0502   -23856.528   -52202.475    6384.1825   -38173.603    15950.116    83.433309 
   73600    1646.2375   -106.86868    1.4895503   -105.37913   -7480.7416    4.3721249    4.3721249    4.3721249   -7480.7416   -14489.457    -41207.28    33254.512   -9381.1892    83.291851    1983.5079    83.575248 
   73700    1499.4015   -106.72596      1.35669   -105.36927   -12718.576    4.3613689    4.3613689    4.3613689   -12718.576   -11017.704   -34793.089    7655.0663    8178.9166   -21783.334   -9700.2954    82.959945 
   73800    1623.4915   -106.83268    1.4689692   -105.36371   -4575.8501    4.3637163    4.3637163    4.3637163   -4575.8501    31957.518   -2377.0431   -43308.025   -11951.685   -18462.732    25624.444    83.093975 
   73900    1434.0252   -106.66476    1.2975362   -105.36722    15979.388    4.3523273    4.3523273    4.3523273    15979.388    9930.2915   -21739.016    59746.889   -16759.228    9089.4338   -24640.834    82.445063 
   74000    1753.0107     -106.962    1.5861609   -105.37583    1350.7378    4.3598215    4.3598215    4.3598215    1350.7378    12502.161   -19703.978    11254.031     16133.88   -22753.468    6040.1236    82.871676 
   74100    1573.0869    -106.7967    1.4233621   -105.37334   -17420.628    4.3715954    4.3715954    4.3715954   -17420.628   -2394.6114   -36596.796   -13270.477   -37733.026    8285.2616   -14954.441    83.544886 
   74200    1606.8535   -106.81628    1.4539148   -105.36237   -8524.7493     4.356659     4.356659     4.356659   -8524.7493   -32376.036   -1974.7465    8776.5352    5435.3222   -10375.486   -32406.642    82.691469 
   74300    1870.1391   -107.05543    1.6921412   -105.36329    28160.251    4.3531152    4.3531152    4.3531152    28160.251     36846.87    5033.6733    42600.209   -4978.3438   -4908.0759    6902.7774    82.489843 
   74400    1084.5586   -106.36397   0.98133142   -105.38264   -17542.895    4.3603698    4.3603698    4.3603698   -17542.895    12727.985   -31296.763   -34059.908   -35014.665    1282.6973   -28157.226     82.90295 
   74500    2137.0753    -107.3023    1.9336707   -105.36863    14334.331    4.3540975    4.3540975    4.3540975    14334.331    16391.589    25823.222    788.18078    23882.616   -19216.275    -7242.417    82.545698 
   74600    999.13463   -106.29211   0.90403801   -105.38807   -1509.6595    4.3656098    4.3656098    4.3656098   -1509.6595    38656.419   -66573.151    23387.754   -37728.628   -9304.3006    -13607.25    83.202187 
   74700    1868.9373   -107.06117    1.6910537   -105.37011   -14524.449    4.3674934    4.3674934    4.3674934   -14524.449   -13916.411   -19052.703   -10604.232    11672.985   -4901.9542   -21884.471    83.309932 
   74800    1201.8981   -106.45767    1.0875026   -105.37017     26947.39    4.3527367    4.3527367    4.3527367     26947.39    100350.04    -41157.86    21649.986   -12137.266    2826.0275    3360.8141    82.468331 
   74900    1644.2761   -106.86982    1.4877756   -105.38205   -29422.774    4.3619984    4.3619984    4.3619984   -29422.774   -2674.9371   -58411.651   -27181.735   -23111.854    1138.9614   -12100.736    82.995877 
   75000    1837.8121   -107.03734     1.662891   -105.37445    21234.357    4.3507233    4.3507233    4.3507233    21234.357    64826.215   -13878.113    12754.968    21826.923    2627.8254   -1974.3006    82.353942 
   75100    1161.9412    -106.4541    1.0513488   -105.40276   -1063.0191    4.3546538    4.3546538    4.3546538   -1063.0191    46508.441   -70517.647    20820.149   -25619.236    -6873.577    574.44282     82.57734 
   75200    2089.0995   -107.27308    1.8902611   -105.38282    4296.9991    4.3633641    4.3633641    4.3633641    4296.9991     17424.94   -17326.092    12792.149    7000.3237    16801.163   -6010.2638    83.073854 
   75300    1264.5239   -106.52798    1.1441678   -105.38381   -18952.697    4.3663281    4.3663281    4.3663281   -18952.697   -20012.348   -49633.162    12787.419    14755.448    12640.146   -2972.1671    83.243265 
   75400    2102.2917   -107.25872    1.9021977   -105.35653    9559.8131    4.3562066    4.3562066    4.3562066    9559.8131    7187.3297    8738.4796     12753.63   -27193.249   -2378.8775   -6718.0189    82.665709 
   75500    1105.3029    -106.3784    1.0001012    -105.3783    7078.9612    4.3547006    4.3547006    4.3547006    7078.9612    7409.1873    -19392.82    33220.517    45792.184    13917.675    9363.4486    82.580007 
   75600    2556.6666    -107.6687    2.3133257   -105.35537   -4861.8839    4.3741763    4.3741763    4.3741763   -4861.8839   -14449.969    11916.338   -12052.021   -19515.273     -2867.93   -3389.3521    83.692946 
   75700     753.1108   -106.05271   0.68143047   -105.37128   -386.80456    4.3661542    4.3661542    4.3661542   -386.80456   -27363.774    21558.569    4644.7914    45215.492   -1555.7785   -2200.6132    83.233319 
   75800    1953.2116   -107.12031    1.7673069     -105.353     12387.81    4.3490949    4.3490949    4.3490949     12387.81    29683.576    42.518984    7437.3338    16079.867     2451.087    14182.796    82.261505 
   75900    1499.1438   -106.72519    1.3564568   -105.36874    1473.3124    4.3569352    4.3569352    4.3569352    1473.3124    9996.9736    -4747.983   -829.05352    4709.8357   -13787.788   -4644.1877    82.707196 
   76000    1384.0057   -106.63586    1.2522775   -105.38359   -21087.644    4.3624731    4.3624731    4.3624731   -21087.644   -19925.852   -21114.295   -22222.787     52841.23    1428.7173    8611.9431    83.022974 
   76100    2164.3549   -107.32836    1.9583538   -105.37001    18323.524    4.3546456    4.3546456    4.3546456    18323.524    38279.848    10128.365    6562.3585   -37310.757   -14309.212     8839.844    82.576875 
   76200    1206.7838   -106.48234    1.0919234   -105.39041   -1286.4071    4.3563804    4.3563804    4.3563804   -1286.4071   -10921.288   -31874.489    38936.556    36119.439   -7506.8134    2410.1868    82.675607 
   76300    1995.0433   -107.17984    1.8051571   -105.37468   -9825.3797    4.3585108    4.3585108    4.3585108   -9825.3797    19048.892   -46821.709   -1703.3223     -7015.67     -4658.63    9432.4482    82.796959 
   76400     1373.894   -106.63023    1.2431281    -105.3871    1968.0166    4.3501242    4.3501242    4.3501242    1968.0166   -17137.114    22233.763    807.40029   -25990.943   -26212.941    5164.1609    82.319923 
   76500    1622.1002   -106.85282    1.4677103   -105.38511     15166.86    4.3520154    4.3520154    4.3520154     15166.86    23942.177   -4180.7426    25739.146    51565.517   -1735.7768     8085.967    82.427338 
   76600    1713.0747   -106.93296     1.550026   -105.38293   -30390.239    4.3561849    4.3561849    4.3561849   -30390.239   -42022.537   -44180.781   -4967.3985     -57014.3   -7943.6021    18562.649    82.664475 
   76700    1560.8175   -106.79368    1.4122604   -105.38142   -7975.3262     4.361232     4.361232     4.361232   -7975.3262   -26508.937    11304.889     -8721.93    28423.586   -19118.048    2283.5819    82.952137 
   76800    1526.8348   -106.75689    1.3815122   -105.37538   -24393.716    4.3659718    4.3659718    4.3659718   -24393.716   -43907.846   -56605.806    27332.504   -34430.734   -5284.3384    4456.6704    83.222889 
   76900    1459.8302   -106.69465    1.3208851   -105.37376   -971.22627    4.3506749    4.3506749    4.3506749   -971.22627    610.67282   -4858.6604    1334.3088   -47811.489   -13010.479    13848.703    82.351194 
   77000    1950.7236   -107.13548    1.7650557   -105.37042    2527.7327    4.3520939    4.3520939    4.3520939    2527.7327    15376.684   -11388.908    3595.4218    14773.879   -14133.083   -2360.4013    82.431797 
   77100    1044.2854   -106.33575    0.9448914   -105.39086   -20160.647    4.3600126    4.3600126    4.3600126   -20160.647   -12687.603   -65948.852    18154.513   -65941.102    -2900.228    17644.144    82.882576 
   77200    2031.7937   -107.21288    1.8384097   -105.37447    13949.199    4.3584537    4.3584537    4.3584537    13949.199    6064.3713    56341.886   -20558.659    13308.226   -15420.512    -13707.85    82.793702 
   77300     1565.166   -106.80919     1.416195   -105.39299   -40812.391    4.3662328    4.3662328    4.3662328   -40812.391    -63803.43   -54012.661   -4621.0809   -54021.971    2151.1156    10834.091    83.237816 
   77400    1738.4461   -106.96405    1.5729825   -105.39107   -16102.459    4.3483598    4.3483598    4.3483598   -16102.459   -9240.6646   -33756.402   -5310.3097   -20264.546    3780.8723     11971.49    82.219799 
   77500    1648.0507   -106.87598    1.4911909   -105.38479    53566.604    4.3379369    4.3379369    4.3379369    53566.604    58994.212    80379.796    21325.804    8089.4433   -12831.124   -22628.381    81.629977 
   77600    1305.1522   -106.58329    1.1809291   -105.40236    -13291.69    4.3674822    4.3674822    4.3674822    -13291.69    8734.7618   -46000.076   -2609.7558   -46562.365    21309.443    7103.0875    83.309288 
   77700    1564.1386   -106.79019    1.4152655   -105.37492     2815.209    4.3702982    4.3702982    4.3702982     2815.209    77212.172   -7016.2727   -61750.272    25723.641   -6213.5253   -11429.547    83.470539 
   77800    1520.2389    -106.7466    1.3755441   -105.37105   -25077.932       4.3649       4.3649       4.3649   -25077.932   -44872.257   -32254.164    1892.6235   -45926.603   -5277.2542   -4693.5067     83.16161 
   77900     1765.157   -106.96338    1.5971512   -105.36623   -15830.842    4.3573395    4.3573395    4.3573395   -15830.842    21028.445   -20163.902   -48357.068   -4666.4845    38274.115    1712.6014    82.730225 
   78000    1774.7938   -106.97494    1.6058707   -105.36907   -2524.2805    4.3433378    4.3433378    4.3433378   -2524.2805    6488.4697   -18150.285     4088.974   -24964.726   -5685.5012    -14199.54    81.935256 
   78100    1657.1358     -106.895    1.4994113   -105.39558   -14874.943    4.3455758    4.3455758    4.3455758   -14874.943   -21477.742   -16977.103   -6169.9838   -52114.966    16211.983     14782.22    82.061981 
   78200    1481.2404   -106.74531    1.3402575   -105.40505    52.457705    4.3673146    4.3673146    4.3673146    52.457705    70865.668   -14632.281   -56076.014    9329.2441    23196.968   -12409.378    83.299698 
   78300    1596.2608   -106.82282    1.4443304   -105.37849   -18028.631    4.3762019    4.3762019    4.3762019   -18028.631   -2785.5185   -60805.679    9505.3037   -56334.273   -13705.028   -5193.6715    83.809267 
   78400    1812.4432     -107.005    1.6399367   -105.36507    9910.5648    4.3524093    4.3524093    4.3524093    9910.5648    42721.153    11975.226   -24964.684    5304.5408    18314.428    30299.328    82.449723 
   78500    1699.9364     -106.913    1.5381381   -105.37487   -7220.6934    4.3416626    4.3416626    4.3416626   -7220.6934    7232.2765   -25652.583   -3241.7737   -45830.382    20808.681   -8004.9152     81.84049 
   78600    1261.2741   -106.54969    1.1412273   -105.40847   -163.74712    4.3470362    4.3470362    4.3470362   -163.74712    22046.706   -23851.385    1313.4371   -25162.942    -19252.04    18877.013    82.144742 
   78700    1888.7343   -107.11589    1.7089665   -105.40692    2224.7347    4.3598345    4.3598345    4.3598345    2224.7347    44892.207   -20343.871   -17874.131    8518.8738    26773.611     17563.32    82.872419 
   78800    1480.5848   -106.74649    1.3396642   -105.40683   -15270.583    4.3595697    4.3595697    4.3595697   -15270.583   -17080.262   -62498.215    33766.727    -57812.28   -10276.088    -3318.686     82.85732 
   78900    1552.5042   -106.80598    1.4047384   -105.40125    10418.919    4.3468422    4.3468422    4.3468422    10418.919    62687.327   -6970.7828   -24459.786    19836.364   -17917.225    38451.981    82.133743 
   79000    1763.7398   -106.99644    1.5958689   -105.40057   -2803.4048    4.3455708    4.3455708    4.3455708   -2803.4048   -16866.083   -13279.808    21735.677   -16717.835    451.53284   -7532.5779    82.061695 
   79100    1526.1385   -106.78768    1.3808822    -105.4068    7892.0321    4.3562048    4.3562048    4.3562048    7892.0321    31660.346   -17920.858    9936.6079   -25732.028   -6033.0431    9010.8287    82.665608 
   79200    1529.1873   -106.78289    1.3836408   -105.39924   -13830.231    4.3704073    4.3704073    4.3704073   -13830.231    1065.3836   -27839.436   -14716.642    24141.532   -19567.353    20559.237    83.476788 
   79300     1130.559   -106.42094    1.0229535   -105.39799   -883.63801    4.3574784    4.3574784    4.3574784   -883.63801   -36010.196    8791.5917    24567.691    -30803.17    3283.6773   -6546.3822    82.738137 
   79400    1977.7586   -107.17181    1.7895175   -105.38229    27711.049      4.33559      4.33559      4.33559    27711.049    35279.172    44410.066    3443.9098    11128.982    10614.459    17304.298     81.49756 
   79500    1695.3885   -106.92991    1.5340231   -105.39589    7744.4245    4.3483343    4.3483343    4.3483343    7744.4245   -6122.7344    -3270.861    32626.869   -16495.014   -15017.051    211.40236    82.218353 
   79600    1147.7274   -106.43931    1.0384878   -105.40082   -34738.583    4.3753941    4.3753941    4.3753941   -34738.583   -36950.446   -20524.246   -46741.058   -21853.016    26961.739    8826.2775    83.762868 
   79700    1954.6178   -107.14628    1.7685793    -105.3777   -20406.676    4.3707966    4.3707966    4.3707966   -20406.676   -14684.352   -15244.302   -31291.374   -3511.7762   -5987.9528    8163.2248    83.499097 
   79800    1760.8662   -106.96562    1.5932687   -105.37235   -2451.3587     4.346408     4.346408     4.346408   -2451.3587   -12816.151   -41670.384    47132.459   -41495.227   -1279.6054   -11078.058    82.109134 
   79900    1371.8461   -106.62788    1.2412752   -105.38661    1797.7765    4.3394129    4.3394129    4.3394129    1797.7765    46546.906   -4295.1907   -36858.385    10215.508    24392.949    30517.604    81.713333 
   80000    1504.4745   -106.76037    1.3612801   -105.39909   -18317.998    4.3548124    4.3548124    4.3548124   -18317.998   -13887.616   -26025.784   -15040.593   -56206.896   -6537.0511   -5994.5271    82.586368 
   80100    1607.3166   -106.84756    1.4543339   -105.39323   -19333.205    4.3713657    4.3713657    4.3713657   -19333.205    1613.1222   -32730.243   -26882.493   -1269.4709    3072.4283    2114.4015    83.531722 
   80200    1777.7584   -106.98548    1.6085531   -105.37693   -20632.468     4.370295     4.370295     4.370295   -20632.468   -6448.4961    -11735.09   -43713.817   -9981.0885     14911.47    11510.909    83.470355 
   80300    1766.4979   -106.95895    1.5983644   -105.36058    10079.132    4.3574492    4.3574492    4.3574492    10079.132   -4837.5669   -7520.9187    42595.882   -30870.677   -7315.7743    -9011.475    82.736473 
   80400    1292.6241    -106.5438    1.1695934   -105.37421   -20374.334     4.358079     4.358079     4.358079   -20374.334   -29255.777    610.50505   -32477.729     19718.69    17925.315    19076.935     82.77235 
   80500    2210.8541   -107.37926    2.0004272   -105.37883    9463.6712    4.3553049    4.3553049    4.3553049    9463.6712   -32267.049    42088.395    18569.667     -10150.4    8350.0063   -8876.6681    82.614387 
   80600    1665.6593   -106.90444    1.5071235   -105.39732    11605.588    4.3605401    4.3605401    4.3605401    11605.588    11527.276    33931.107   -10641.619    2145.2793    1042.5119    21087.783    82.912659 
   80700    915.39331    -106.2261    0.8282671   -105.39784   -32040.387    4.3700624    4.3700624    4.3700624   -32040.387   -20158.912   -27648.125   -48314.124    23321.447    23518.872    4839.0272     83.45703 
   80800    2451.5623     -107.593    2.2182251   -105.37477   -4207.3009    4.3518681    4.3518681    4.3518681   -4207.3009   -17634.112    16084.338   -11072.129   -13268.549   -3056.3034   -2248.0628    82.418968 
   80900    1552.1717   -106.79918    1.4044376   -105.39474    4775.2876    4.3392922    4.3392922    4.3392922    4775.2876    11536.933    22703.761   -19914.832     12531.21     7443.023    30946.609    81.706513 
   81000    1173.4273   -106.47873    1.0617417   -105.41699   -19601.199    4.3506482    4.3506482    4.3506482   -19601.199   -28615.245   -12617.364   -17570.987    5393.5362    30671.812   -22435.393    82.349676 
   81100    2117.7612   -107.31828    1.9161948   -105.40209   -16126.833    4.3647393    4.3647393    4.3647393   -16126.833   -19066.482   -25264.852   -4049.1636    -24863.86   -7489.5325    1513.0658    83.152429 
   81200    1679.2132   -106.91396    1.5193873   -105.39457   -24108.304    4.3671281    4.3671281    4.3671281   -24108.304   -34714.543    17628.947   -55239.315    26012.538    23437.039    9186.4666     83.28903 
   81300    883.44131   -106.20744   0.79935627   -105.40808   -9432.0811    4.3467898    4.3467898    4.3467898   -9432.0811   -33938.414    11273.336   -5631.1655    -33275.33    15979.009   -4394.6233    82.130773 
   81400    2330.9829    -107.5082    2.1091223   -105.39908    35691.702    4.3335666    4.3335666    4.3335666    35691.702    49242.602    29484.908    28347.597   -7780.3341   -16359.572   -6242.4909    81.383513 
   81500    1920.3045   -107.16167    1.7375319   -105.42413    1729.8656    4.3538568    4.3538568    4.3538568    1729.8656   -22159.461    26851.919    497.13885   -10815.415     13879.63     3048.229     82.53201 
   81600    855.91532   -106.20865   0.77445017    -105.4342   -13900.096     4.362001     4.362001     4.362001   -13900.096   -31013.593    1734.6781   -12421.373   -34663.844    439.50561   -15287.055    82.996022 
   81700    1689.8106   -106.93994    1.5289762   -105.41096    13020.037    4.3596967    4.3596967    4.3596967    13020.037    35471.759    23007.492   -19419.139    11893.134   -13384.047    14909.233    82.864559 
   81800    1920.7067   -107.13904    1.7378958   -105.40115     19896.57    4.3538235    4.3538235    4.3538235     19896.57       -12892    37962.206    34619.504   -28318.694     5582.318   -3226.4943    82.530118 
   81900    1214.5726   -106.50599    1.0989708   -105.40702    6482.7955    4.3492482    4.3492482    4.3492482    6482.7955    42803.997    12882.995   -36238.605   -15437.801   -7722.5726   -27183.936    82.270205 
   82000    1239.4727   -106.53502    1.1215009   -105.41352   -14361.187    4.3634965    4.3634965    4.3634965   -14361.187   -21661.774   -32551.824    11130.037    26547.991   -4338.3261    26890.383    83.081418 
   82100    2362.2739   -107.52243    2.1374351   -105.38499   -6358.0022    4.3676964    4.3676964    4.3676964   -6358.0022   -12739.856     4200.346   -10534.497   -13940.708   -5175.0052     -29954.3    83.321549 
   82200      972.628   -106.28021   0.88005425   -105.40016   -21640.435    4.3553242    4.3553242    4.3553242   -21640.435    42535.115   -45167.527   -62288.894    14526.815   -5881.1587    21769.625    82.615485 
   82300    1652.7074   -106.88986    1.4954044   -105.39446    12604.896    4.3490117    4.3490117    4.3490117    12604.896    -7630.874     25696.23    19749.331   -155.32853    4433.8177    16886.769    82.256784 
   82400    1948.4647   -107.16178    1.7630118   -105.39877   -2364.7104    4.3484998    4.3484998    4.3484998   -2364.7104   -32394.587    30360.152   -5059.6969   -31765.185   -5216.3512    969.61879    82.227742 
   82500    1481.9461   -106.75293     1.340896   -105.41203   -2693.4655     4.347563     4.347563     4.347563   -2693.4655    15392.276    -2487.731   -20984.942     25345.57   -13318.675    19897.888    82.174608 
   82600    1168.5475    -106.4792    1.0573263   -105.42187   -6487.1305    4.3601505    4.3601505    4.3601505   -6487.1305   -50113.743   -23215.206    53867.557   -53534.851   -2285.8523   -6892.5554    82.890438 
   82700    2101.3954   -107.30025    1.9013867   -105.39886    1629.6616    4.3569994    4.3569994    4.3569994    1629.6616   -8142.6665    27242.578   -14210.926    -3371.285    -16574.42     1416.575    82.710856 
   82800    1373.3013   -106.64673    1.2425918   -105.40413    362.70698    4.3479708    4.3479708    4.3479708    362.70698   -33462.933    15208.578    19342.476   -25828.457   -1709.2604     7318.287    82.197736 
   82900    974.68056    -106.2941   0.88191145   -105.41219   -10528.511    4.3597416    4.3597416    4.3597416   -10528.511   -28067.324   -54774.164    51255.955   -24439.374   -15721.034   -3800.5632     82.86712 
   83000    2026.8419   -107.22194    1.8339291   -105.38801    20807.724    4.3564371    4.3564371    4.3564371    20807.724    10775.467    44646.028    7001.6782    5711.3646   -17674.052    15189.732    82.678837 
   83100    1981.5225   -107.18875    1.7929232   -105.39582   -21102.973     4.355471     4.355471     4.355471   -21102.973   -51183.142   -36213.591    24087.813   -39082.086    10503.474    3826.9322    82.623843 
   83200    925.02111   -106.24731   0.83697854   -105.41033   -12570.108    4.3503965    4.3503965    4.3503965   -12570.108    22950.394   -40174.497    -20486.22    29716.998    -9950.681   -5212.1023    82.335387 
   83300     1805.014   -107.04007    1.6332146   -105.40686    23322.553     4.341349     4.341349     4.341349    23322.553    45324.576    17579.247    7063.8366   -641.45073    -17643.93    5582.1706    81.822756 
   83400    1952.2962   -107.18616    1.7664786   -105.41968    -9534.823    4.3575021    4.3575021    4.3575021    -9534.823   -10933.236   -20233.561    2562.3283   -1561.5539    17638.468    1789.7209    82.739488 
   83500    836.19844   -106.18251   0.75660992    -105.4259   -9988.0206    4.3601438    4.3601438    4.3601438   -9988.0206    2165.3203   -47230.565    15101.182    21308.143   -20653.516   -3140.0232    82.890058 
   83600    2145.8649   -107.32474    1.9416237   -105.38311    19189.267    4.3655809    4.3655809    4.3655809    19189.267   -8529.1266    59465.841    6631.0883    -13963.12   -592.91553   -6664.3034    83.200536 
   83700    1399.0429   -106.66208    1.2658834    -105.3962   -35667.066     4.360048     4.360048     4.360048   -35667.066   -54477.396    -27062.75   -25461.052    30880.652   -9169.6389     10803.73    82.884592 
   83800    1313.6559   -106.57958    1.1886235   -105.39096    28362.649    4.3365858    4.3365858    4.3365858    28362.649   -12616.113     58976.96    38727.099   -8459.9864    1469.2498   -9726.4369    81.553728 
   83900    1737.9775   -106.97625    1.5725586   -105.40369    5515.4111    4.3458026    4.3458026    4.3458026    5515.4111   -42520.766    9970.8306    49096.169   -65571.002    4761.9017   -3196.0183    82.074828 
   84000    1912.9937   -107.13333    1.7309169   -105.40241    2239.5241    4.3587645    4.3587645    4.3587645    2239.5241   -35880.389    37165.579    5433.3821    23999.483   -19834.981   -14037.573    82.811415 
   84100    788.02546   -106.12397   0.71302199   -105.41095   -22932.739    4.3728513    4.3728513    4.3728513   -22932.739   -64348.155   -52193.503    47743.439   -57722.493    7096.3107   -7663.1551    83.616915 
   84200    2340.6375   -107.49355     2.117858   -105.37569   -496.14779    4.3575058    4.3575058    4.3575058   -496.14779   -9797.0539    41623.274   -33314.663    16759.744   -8593.8929    1589.4932    82.739698 
   84300    1358.4489   -106.61911    1.2291531   -105.38995    14081.217    4.3371878    4.3371878    4.3371878    14081.217   -21598.523    32207.882    31634.291   -51755.361   -3634.0744   -9603.5421    81.587699 
   84400     1657.045   -106.90371    1.4993291   -105.40438    7356.7916    4.3414198    4.3414198    4.3414198    7356.7916    15085.104   -15655.161    22640.432    2987.9019    -1134.179   -1671.3064     81.82676 
   84500    1504.2275   -106.77525    1.3610566    -105.4142     4963.333    4.3613421    4.3613421    4.3613421     4963.333    1594.8169    50637.959   -37342.777     10016.66   -16898.369     6453.619    82.958418 
   84600     2039.459   -107.23772    1.8453453   -105.39237   -9570.1869     4.372246     4.372246     4.372246   -9570.1869   -25129.091   -6947.5108    3366.0414   -24288.208    2573.2969    640.00998    83.582196 
   84700    988.44163   -106.29745   0.89436276   -105.40308    3545.2902    4.3522732    4.3522732    4.3522732    3545.2902    5346.1466    37904.688   -32614.964    31294.835   -9982.1765   -772.88611    82.441987 
   84800    1827.1185   -107.04784    1.6532152   -105.39462    12265.276    4.3435942    4.3435942    4.3435942    12265.276   -2745.0872    41587.725   -2046.8097     8429.716   -28852.103    15256.628    81.949768 
   84900    1881.0677   -107.09983    1.7020296    -105.3978    9401.7768    4.3535671    4.3535671    4.3535671    9401.7768   -25421.282    37916.312    15710.301   -6284.1644    19087.679   -8521.6542    82.515537 
   85000    959.37048   -106.28628   0.86805858   -105.41823   -26307.216    4.3635798    4.3635798    4.3635798   -26307.216   -27968.515   -33460.217   -17492.915     31579.68   -21824.206    14701.908    83.086178 
   85100    1949.9233   -107.15638    1.7643316   -105.39205    20570.154    4.3580082    4.3580082    4.3580082    20570.154   -5303.4865     7660.814    59353.135   -19852.744   -1339.8301    5358.1539    82.768315 
   85200    1601.4803   -106.84612    1.4490531   -105.39706   -5825.1616    4.3515178    4.3515178    4.3515178   -5825.1616   -15087.654    12383.057   -14770.888    15866.252    10557.271     253.4288    82.399069 
   85300    1069.4761   -106.36867   0.96768441   -105.40098    15837.877    4.3492041    4.3492041    4.3492041    15837.877    26068.727   -1060.5778    22505.483    1592.1976    -20646.42   -29.738884    82.267705 
   85400    1741.4546   -106.97316    1.5757047   -105.39746    10417.962    4.3509864    4.3509864    4.3509864    10417.962    4238.9711    15065.295     11949.62    -47149.13    18317.838    7497.4104    82.368885 
   85500    1914.9445    -107.1321     1.732682   -105.39942    -11443.69    4.3650952    4.3650952    4.3650952    -11443.69   -20547.699   -12164.986    -1618.386    35209.275    -8080.537   -5153.5787     83.17277 
   85600    1198.4984   -106.48339    1.0844266   -105.39896   -9400.3876    4.3592432    4.3592432    4.3592432   -9400.3876   -18683.179   -53740.315    44222.331    -44335.46   -15032.113   -13953.379    82.838705 
   85700    2109.5111   -107.29201      1.90873   -105.38328    11414.314    4.3438921    4.3438921    4.3438921    11414.314    17322.292    12633.614    4287.0351    7054.1988    20278.527     11136.87     81.96663 
   85800    1486.9869   -106.75733     1.345457   -105.41187   -19032.721    4.3465287    4.3465287    4.3465287   -19032.721   -32786.548   -31262.173    6950.5578    -10583.94   -239.29593   -5527.8887    82.115973 
   85900    1187.3782   -106.49523    1.0743648   -105.42086    7593.4877    4.3493008    4.3493008    4.3493008    7593.4877    29659.392   -46351.683    39472.755   -25020.573   -9991.3013   -10523.421    82.273192 
   86000    2163.1268   -107.36741    1.9572426   -105.41017   -21695.427    4.3639609    4.3639609    4.3639609   -21695.427   -15612.872   -35901.616   -13571.792     10391.35    17718.412    31617.115    83.107949 
   86100    1520.8063   -106.77533    1.3760575   -105.39927   -16762.214    4.3672098    4.3672098    4.3672098   -16762.214   -22549.898   -39190.504     11453.76    -30523.32   -1986.6582   -13814.983    83.293703 
   86200    1030.3004   -106.32601   0.93223746   -105.39378    12789.458    4.3486233    4.3486233    4.3486233    12789.458    14021.823   -31118.388    55464.937    11142.408   -14357.857    32195.525    82.234747 
   86300    2101.3135    -107.2912    1.9013126   -105.38988    931.09907    4.3450923    4.3450923    4.3450923    931.09907   -5664.1534    1894.3032    6563.1475   -9009.2687    14501.418    10185.395     82.03459 
   86400    1382.3775   -106.65362    1.2508042   -105.40281    25952.524    4.3511156    4.3511156    4.3511156    25952.524    13847.934   -11154.072    75163.709   -13518.146   -895.24606    17778.311    82.376223 
   86500    1498.6596   -106.76333    1.3560187   -105.40731   -20090.857    4.3660939    4.3660939    4.3660939   -20090.857   -4013.5402    511.74523   -56770.776    21331.104   -18451.461    41564.764     83.22987 
   86600    2126.7861   -107.31092    1.9243608   -105.38656    12326.181    4.3668046    4.3668046    4.3668046    12326.181   -23634.651    22527.381    38085.812    2587.3082    20665.844   -16452.021    83.270523 
   86700    1130.0285    -106.4277    1.0224735   -105.40522   -12123.713    4.3577253    4.3577253    4.3577253   -12123.713    -1598.516   -19061.319   -15711.303    4113.9882    -9963.327    56757.077    82.752199 
   86800    1931.6758   -107.13931    1.7478208   -105.39149    21309.626    4.3503725    4.3503725    4.3503725    21309.626   -8812.2521    25734.632    47006.499    13494.137   -21402.763   -5518.3632    82.334021 
   86900    1752.4362    -106.9855    1.5856411   -105.39986    3426.2777    4.3518756    4.3518756    4.3518756    3426.2777    12805.915   -5821.7997    3294.7177    1824.5146    33946.385     17622.39    82.419392 
   87000    840.93687   -106.17915   0.76089736   -105.41825   -23923.327    4.3614815    4.3614815    4.3614815   -23923.327   -31808.421    12.029071    -39973.59    17253.305   -37664.506    41195.764     82.96637 
   87100    2522.4123   -107.68075    2.2823316   -105.39842    841.14443    4.3511777    4.3511777    4.3511777    841.14443   -31014.067    12022.949    21514.551   -6275.6505    4709.2378   -14219.406    82.379748 
   87200    1484.6846   -106.76177    1.3433738    -105.4184   -2089.7987    4.3439141    4.3439141    4.3439141   -2089.7987     1716.074   -1817.3706   -6168.0996    10596.656    9421.7079    50827.648    81.967876 
   87300    1273.5872   -106.57276    1.1523684   -105.42039    5573.2634    4.3550884    4.3550884    4.3550884    5573.2634   -31058.339    15368.978    32409.151    5892.4472   -40969.791    6472.0782    82.602067 
   87400    1628.2096   -106.86879    1.4732382   -105.39555    6928.1819    4.3678647    4.3678647    4.3678647    6928.1819    -16247.58    20236.778    16795.348   -16651.965    720.89539    6379.5165    83.331179 
   87500    1494.4405   -106.74148    1.3522012   -105.38928    5978.5799    4.3550713    4.3550713    4.3550713    5978.5799   -14443.282    -11183.86    43562.882    26764.607   -15556.697    34167.876    82.601097 
   87600    1516.0597   -106.76341    1.3717627   -105.39165     5804.054    4.3541577    4.3541577    4.3541577     5804.054   -40932.811    4103.5499    54241.423   -27954.254   -34389.497    3269.4008    82.549121 
   87700    1767.8256   -106.98686    1.5995657   -105.38729    8665.2628    4.3536238    4.3536238    4.3536238    8665.2628    18134.072   -22867.301    30729.017    3037.2352    749.41806    30374.487    82.518759 
   87800    1357.9748   -106.63055    1.2287242   -105.40183   -12985.699    4.3603168    4.3603168    4.3603168   -12985.699   -5959.3191   -21940.961   -11056.817    6019.4836    -28658.23    14657.396    82.899926 
   87900    1825.4261   -107.03501    1.6516839   -105.38333   -6537.9922    4.3701359    4.3701359    4.3701359   -6537.9922   -3096.8686    13394.959   -29912.067   -7043.9739   -9827.6759    1031.1761     83.46124 
   88000     1624.529   -106.84067     1.469908   -105.37076    10235.822    4.3640084    4.3640084    4.3640084    10235.822    68101.084   -22794.231   -14599.386    24149.601    1826.0591    27961.436     83.11066 
   88100    1709.5815   -106.90493    1.5468653   -105.35806    4464.7713    4.3631949    4.3631949    4.3631949    4464.7713   -28411.836   -3694.9152    45501.065   -5802.5246   -27885.011   -5181.8099    83.064192 
   88200    1658.1601   -106.86612    1.5003381   -105.36579   -23696.674    4.3658055    4.3658055    4.3658055   -23696.674    5654.6366   -28899.843   -47844.817    419.36979    39224.468     40334.26    83.213378 
   88300    2041.9391   -107.21101    1.8475894   -105.36342   -22042.009     4.367752     4.367752     4.367752   -22042.009   -19532.573   -33189.014   -13404.441    4773.4011    7493.1617   -18421.382     83.32473 
   88400     2073.498   -107.23687    1.8761445   -105.36073   -31659.678    4.3734791    4.3734791    4.3734791   -31659.678    11182.094   -51386.763   -54774.366   -2502.7143    15462.479    37660.006     83.65293 
   88500    1417.0177   -106.65361    1.2821474   -105.37146   -43207.915    4.3609545    4.3609545    4.3609545   -43207.915   -24669.975   -40795.675   -64158.095    9178.1721    41454.813    716.51507    82.936303 
   88600    1885.2413   -107.07214    1.7058059   -105.36634    16361.602     4.345623     4.345623     4.345623    16361.602    71262.344   -25304.437    3126.8996    2822.3806    3856.2404    9527.2643    82.064656 
   88700    1504.4625   -106.75014    1.3612692   -105.38887   -12534.534    4.3491989    4.3491989    4.3491989   -12534.534    32503.158   -30399.598   -39707.163   -5615.5602    7635.3052    53995.797    82.267408 
   88800    1496.4471   -106.74661    1.3540168   -105.39259    26664.571    4.3505305    4.3505305    4.3505305    26664.571    53438.986    14363.037     12191.69     7827.054    27844.742   -29951.079    82.342995 
   88900    1646.9808   -106.88569    1.4902228   -105.39547   -3364.4996     4.371534     4.371534     4.371534   -3364.4996    44627.302   -33344.571    -21376.23    7388.0766   -22867.128    49770.834    83.541367 
   89000    1300.0191   -106.56138    1.1762846   -105.38509    12054.746    4.3630416    4.3630416    4.3630416    12054.746    27114.219    25103.976   -16053.957    6926.2875    27028.681   -15151.444    83.055438 
   89100    1539.2269   -106.77113    1.3927248   -105.37841    9068.7361     4.347643     4.347643     4.347643    9068.7361     33166.47    771.23849   -6731.5007    7201.9161    5838.4304    2496.7085    82.179144 
   89200    2074.9205   -107.25337    1.8774317   -105.37594   -1712.8351    4.3544207    4.3544207    4.3544207   -1712.8351   -4134.7403    14315.996   -15319.761   -15779.131    14208.316    16163.017    82.564085 
   89300    1196.8366   -106.47415    1.0829229   -105.39123    8251.3786    4.3512165    4.3512165    4.3512165    8251.3786   -1642.2025    56906.025   -30509.686    10418.592    37226.669   -19684.061    82.381953 
   89400    2126.9775   -107.30522    1.9245339   -105.38069   -5075.0806    4.3676071    4.3676071    4.3676071   -5075.0806   -13178.208   -1566.3338   -480.70031   -4754.9278   -10154.794    6427.1933     83.31644 
   89500    1190.7134   -106.46917    1.0773825   -105.39178   -52881.349    4.3651971    4.3651971    4.3651971   -52881.349   -96695.725     12510.39   -74458.713     -24301.1    70909.847   -11973.262    83.178593 
   89600    1775.2285   -106.97656    1.6062641    -105.3703    32026.728    4.3345464    4.3345464    4.3345464    32026.728    56563.215    29577.749    9939.2199    8600.8887   -22327.774    -23538.71    81.438726 
   89700    1699.9483   -106.92449    1.5381489   -105.38634    7232.2255    4.3523422    4.3523422    4.3523422    7232.2255   -27447.411    13284.417     35859.67    6342.2388     34094.54     4449.765    82.445906 
   89800    983.75374   -106.28157   0.89012105   -105.39145   -33983.942    4.3681764    4.3681764    4.3681764   -33983.942   -70946.739   -11167.557   -19837.529   -18450.144    32720.129   -24350.584     83.34902 
   89900    2251.7139   -107.40133     2.037398   -105.36394   -10714.271    4.3718843    4.3718843    4.3718843   -10714.271    -20486.46   -10153.729   -1502.6228    9732.3379   -1964.6106   -6375.6089    83.561454 
   90000    1190.0242   -106.45989    1.0767589   -105.38314   -30271.141    4.3641139    4.3641139    4.3641139   -30271.141   -39651.533    12022.738    -63184.63    372.33334    52956.565   -525.53217    83.116688 
   90100    1899.1936   -107.08035    1.7184303   -105.36192    20505.652    4.3295346    4.3295346    4.3295346    20505.652    20754.122     28722.63    12040.203   -8269.2209   -20976.479    -28803.16    81.156562 
   90200    1214.6235   -106.49397    1.0990169   -105.39496   -7685.9523    4.3450996    4.3450996    4.3450996   -7685.9523   -10342.632     9453.001   -22168.226    18641.571    39561.379    27241.848    82.035003 
   90300    1348.3713    -106.6023    1.2200347   -105.38227   -14528.057     4.369043     4.369043     4.369043   -14528.057   -32203.307    4428.6074   -15809.471   -4118.3799    7858.6424   -21796.375    83.398635 
   90400    1918.4007   -107.09521    1.7358093    -105.3594    9840.7054     4.358293     4.358293     4.358293    9840.7054   -1235.3118    25033.037    5724.3916    16057.415    209.57445   -4379.4332    82.784544 
   90500    1042.2514   -106.32265   0.94305101    -105.3796   -23855.445    4.3558566    4.3558566    4.3558566   -23855.445   -32409.871    15245.662   -54402.128   -3805.6878    49951.374    25846.676     82.64579 
   90600    2394.1128   -107.52814    2.1662436   -105.36189    35838.687    4.3406669    4.3406669    4.3406669    35838.687   -2615.2221    48269.214    61862.068    5126.6281    -19183.41   -20216.674    81.784195 
   90700    783.87989    -106.1133   0.70927099   -105.40403   -3193.2711    4.3473651    4.3473651    4.3473651   -3193.2711   -17423.862    28977.228   -21133.179    16649.481    64032.583    24288.518    82.163387 
   90800    2010.4251   -107.20074    1.8190749   -105.38167   -6084.6222    4.3634628    4.3634628    4.3634628   -6084.6222    10233.349   -19560.952   -8926.2638   -5551.3686   -2883.7442    9690.3766    83.079494 
   90900    1524.7348   -106.76845    1.3796121   -105.38883    4486.6893    4.3505229    4.3505229    4.3505229    4486.6893   -6037.2689    46615.427    -27118.09    12885.498    23462.712   -18072.547    82.342562 
   91000    1224.3362     -106.513    1.1078052    -105.4052   -18196.542    4.3455839    4.3455839    4.3455839   -18196.542   -13898.902   -20408.661   -20282.064    12723.179    43275.282    39359.236    82.062437 
   91100    2378.9206   -107.53676    2.1524973   -105.38426    20682.035    4.3458128    4.3458128    4.3458128    20682.035    32730.566    7843.3059    21472.233   -2473.5949   -24393.163   -8622.9035    82.075406 
   91200    604.24504   -105.96191   0.54673361   -105.41517   -11775.635    4.3562232    4.3562232    4.3562232   -11775.635   -25363.357    8265.4438   -18228.991    20133.029    38933.039    57.825021    82.666656 
   91300    2263.6888   -107.42846    2.0482332   -105.38023   -17630.229     4.366547     4.366547     4.366547   -17630.229   -8774.7339   -42536.286   -1579.6654    5979.2736   -4789.4498    17856.231    83.255785 
   91400    1346.0433   -106.61358    1.2179283   -105.39565   -954.97246    4.3480209    4.3480209    4.3480209   -954.97246   -7626.3342     24078.41   -19316.993     4541.559   -124.67937   -12907.802    82.200575 
   91500    1476.1315   -106.71925    1.3356348   -105.38362    13171.402    4.3320995    4.3320995    4.3320995    13171.402   -6052.3906    32162.264    13404.332    17965.998    52320.827    3429.1943    81.300882 
   91600    1797.0153    -107.0131    1.6259772   -105.38712   -18910.677     4.352539     4.352539     4.352539   -18910.677   -9836.8816    -24708.17   -22186.979   -15232.837   -35459.184   -12912.456    82.457091 
   91700    1022.4791   -106.32164   0.92516054   -105.39648   -23191.057    4.3646413    4.3646413    4.3646413   -23191.057   -34237.585   -4073.8731   -31261.713    16965.021     42141.58    5706.6249    83.146826 
   91800    2485.6756   -107.61024    2.2490915   -105.36115    16273.018     4.356727     4.356727     4.356727    16273.018   -4780.7363    15688.587    37911.202   -16254.754    -14645.88   -2094.6354     82.69534 
   91900    1018.5822   -106.30537   0.92163458   -105.38373   -15291.734    4.3504426    4.3504426    4.3504426   -15291.734   -16804.412   -2843.4407   -26227.351   -533.47152    19195.141   -27756.112    82.338001 
   92000    1490.1735     -106.731    1.3483403   -105.38266    29685.115    4.3468836    4.3468836    4.3468836    29685.115    31678.651    42887.429    14489.264    3385.7071    19387.325    13255.234    82.136091 
   92100    1841.4783   -107.05437    1.6662083   -105.38816    -4771.114    4.3541336    4.3541336    4.3541336    -4771.114   -19790.954   -19085.235    24562.847   -13281.306   -13174.417   -4041.4867    82.547752 
   92200    1465.2171   -106.71931    1.3257593   -105.39355   -5387.6686    4.3536436    4.3536436    4.3536436   -5387.6686   -5552.4578    20991.846   -31602.394   -1914.4415     33383.83    -11097.35    82.519885 
   92300    1693.7349   -106.91926    1.5325269   -105.38673     33721.42    4.3369018    4.3369018    4.3369018     33721.42    62191.693     15429.79    23542.778    4742.1681   -8632.0557    41754.724    81.571558 
   92400    1545.6182   -106.79501    1.3985078    -105.3965   -2029.2713    4.3516379    4.3516379    4.3516379   -2029.2713   -11856.403   -3768.6964    9537.2855   -6121.4911    21846.555    -15482.52    82.405891 
   92500    1631.0626    -106.8532    1.4758197   -105.37738   -1541.2337    4.3635905    4.3635905    4.3635905   -1541.2337    57320.427   -33858.708   -28085.421    4059.7837    15682.298    31822.236    83.086784 
   92600    1753.0541   -106.94134    1.5862002   -105.35514    4272.0025    4.3655075    4.3655075    4.3655075    4272.0025    1658.6531    716.57918    10440.775   -6038.3013   -4047.3953    1589.1677     83.19634 
   92700    1310.1402   -106.54616    1.1854424   -105.36072   -6783.8883    4.3645615    4.3645615    4.3645615   -6783.8883    10162.188   -18052.779   -12461.074   -5037.1203    23282.796    24780.331    83.142262 
   92800    1622.7538   -106.82546    1.4683018   -105.35715    21992.174    4.3462044    4.3462044    4.3462044    21992.174    67596.509    14490.751   -16110.737    17396.265    -2354.184    35160.992    82.097597 
   92900    1320.8339   -106.58425    1.1951183   -105.38913   -10279.735    4.3444304    4.3444304    4.3444304   -10279.735   -51664.702    16841.124    3984.3733    -1123.212    7453.5753   -16392.529    81.997105 
   93000    2131.8853    -107.3173    1.9289746   -105.38832    6064.3179    4.3648752    4.3648752    4.3648752    6064.3179    24543.706    28219.828    -34570.58    2637.8062    137.07621    23384.491    83.160193 
   93100    1043.9187   -106.32916    0.9445596    -105.3846   -34718.907     4.385426     4.385426     4.385426   -34718.907   -45192.968   -19279.182   -39684.572    9502.6023   -3420.1224   -14946.029     84.34034 
   93200    2054.0813   -107.21528    1.8585759    -105.3567   -18562.583     4.370119     4.370119     4.370119   -18562.583    7612.2252   -49880.443   -13419.532   -14457.916    5173.3626   -5501.0102    83.460273 
   93300    1681.6887   -106.88625    1.5216272   -105.36462    1826.0075    4.3413606    4.3413606    4.3413606    1826.0075   -26660.028    41882.857   -9744.8065    9918.4243   -16281.893    10783.321    81.823412 
   93400    1352.1334   -106.61165    1.2234387   -105.38821    774.89454      4.33293      4.33293      4.33293    774.89454   -6776.4314    7021.1638    2079.9512    2523.3406    12027.568   -13217.199    81.347652 
   93500    1861.8074    -107.0885    1.6846024    -105.4039    651.49847    4.3590575    4.3590575    4.3590575    651.49847    -21709.09    35652.741   -11989.156   -5790.3101    -13291.23   -6502.2355    82.828117 
   93600     1059.654   -106.34739   0.95879724    -105.3886   -35435.727     4.388867     4.388867     4.388867   -35435.727    -81408.49    118.70362   -25017.396    18947.104   -4858.1314    8231.4726    84.539031 
   93700    2130.4239   -107.27567    1.9276524   -105.34802   -1324.3537    4.3628578    4.3628578    4.3628578   -1324.3537   -3329.2604   -32039.893    31396.092   -9988.9442    10535.446   -22809.802    83.044939 
   93800    1113.9685   -106.35772    1.0079421   -105.34978   -6401.4913    4.3327146    4.3327146    4.3327146   -6401.4913   -40841.164     23159.91   -1523.2202      13978.3   -30178.981    6673.7808     81.33552 
   93900    1608.1732   -106.83841    1.4551089    -105.3833    5293.9638    4.3398681    4.3398681    4.3398681    5293.9638   -21350.965    17051.575    20181.282    11335.311    27767.069    2401.2099     81.73905 
   94000    2247.3885   -107.43072    2.0334843   -105.39724   -12347.842     4.356783     4.356783     4.356783   -12347.842   -40083.055   -3393.8798    6433.4078   -15386.846   -35519.216   -1362.7371    82.698531 
   94100    1067.9712   -106.37937   0.96632277   -105.41305   -49738.457    4.3697464    4.3697464    4.3697464   -49738.457    -70188.95    -10600.92   -68425.502    21539.917   -2432.5501   -4893.0575    83.438927 
   94200    1973.2553   -107.17291    1.7854428   -105.38746    719.93615    4.3457065    4.3457065    4.3457065    719.93615     13.57969   -12746.045    14892.274   -12259.614    9566.0295    16140.644    82.069382 
   94300    1431.8715      -106.68    1.2955874   -105.38442    2857.6666    4.3393245    4.3393245    4.3393245    2857.6666   -30675.942    10655.169    28593.773   -5779.4975   -20243.396   -2874.7119    81.708341 
   94400    1920.2804   -107.12374      1.73751   -105.38623   -25235.324    4.3579885    4.3579885    4.3579885   -25235.324   -16704.807   -27508.399   -31492.765    26016.149     13999.79    16821.967    82.767197 
   94500    1618.5626    -106.8553    1.4645094   -105.39079    4283.6484    4.3511234    4.3511234    4.3511234    4283.6484   -23603.208   -8403.5615    44857.715   -37502.894   -5601.8769    17652.122    82.376664 
   94600    1244.6928   -106.52867    1.1262242   -105.40244    6726.5631    4.3516787    4.3516787    4.3516787    6726.5631   -10172.205   -149.72928    30501.623     45904.04    -2666.896   -14641.065    82.408206 
   94700    2063.3664   -107.25664    1.8669773   -105.38967    888.65841    4.3537888    4.3537888    4.3537888    888.65841    -3063.183    7921.3654   -2192.2071   -20597.228   -1957.2735    11636.013    82.528142 
   94800    1045.6013    -106.3558   0.94608202   -105.40972    21013.777    4.3388725    4.3388725    4.3388725    21013.777    -9408.002    6897.0714    65552.262    -6812.936   -146.22301   -1155.0046    81.682808 
   94900    1942.6466   -107.15831    1.7577475   -105.40056    31337.998      4.34958      4.34958      4.34958    31337.998    25353.053    28047.783    40613.157     37158.59   -10662.786   -10406.822    82.289037 
   95000    1640.9054   -106.87501    1.4847257   -105.39028   -14632.703    4.3684151    4.3684151    4.3684151   -14632.703   -40811.298   -4735.7671    1648.9556   -36505.453   -6763.5058    718.53775    83.362684 
   95100    1297.9283   -106.55764    1.1743928   -105.38324   -12716.641    4.3536326    4.3536326    4.3536326   -12716.641   -16111.239   -34622.424    12583.739    52495.033    625.21781    1783.3816    82.519259 
   95200    1680.5524   -106.89233    1.5205992   -105.37173    29621.544    4.3423143    4.3423143    4.3423143    29621.544    31147.289    24463.912    33253.432   -28035.689   -4822.5954   -28232.028    81.877345 
   95300     1532.425    -106.7776    1.3865704   -105.39103   -19068.164    4.3549801    4.3549801    4.3549801   -19068.164   -60969.928   -31108.314    34873.749    27227.068   -8764.9621    3126.6109    82.595905 
   95400    1755.9201   -106.97453    1.5887934   -105.38574    11964.092    4.3484009    4.3484009    4.3484009    11964.092    24827.912   -12355.555    23419.918    20803.533   -11333.154   -12510.465    82.222131 
   95500    1406.8227   -106.66501    1.2729228   -105.39209   -12782.942    4.3645635    4.3645635    4.3645635   -12782.942   -9947.2323   -17438.216   -10963.378   -3917.7881    1729.8029   -15149.103     83.14238 
   95600    1375.6886   -106.62692    1.2447519   -105.38217   -40076.828    4.3720554    4.3720554    4.3720554   -40076.828    -54095.18   -69591.085    3455.7825    68193.338   -5368.8384    2976.3473    83.571261 
   95700    2358.8752   -107.49951    2.1343599   -105.36515    17023.351    4.3358704    4.3358704    4.3358704    17023.351    43287.293    7776.0766    6.6833731   -17876.821    2858.2699   -30780.061    81.513373 
   95800     714.3486   -106.04623   0.64635763   -105.39987   -702.05613    4.3340231    4.3340231    4.3340231   -702.05613   -44683.591   -4281.0574     46858.48    50437.594   -3430.4013    521.89187    81.409234 
   95900    2188.9111   -107.36978    1.9805727   -105.38921    -23291.79    4.3590013    4.3590013    4.3590013    -23291.79   -1766.9719   -36844.854   -31263.544    7793.8644   -1069.9977    11415.493    82.824914 
   96000    1461.6146   -106.71663    1.3224996   -105.39413    9377.3231    4.3603321    4.3603321    4.3603321    9377.3231   -10514.201     22809.89     15836.28    14559.413    10748.439   -3085.1499    82.900795 
   96100     1555.449   -106.79478    1.4074029   -105.38738   -34214.796     4.362908     4.362908     4.362908   -34214.796   -45494.143   -71166.584    14016.337     32145.36   -8473.0049    10799.831    83.047808 
   96200    1575.8126   -106.81409    1.4258284   -105.38826    2916.0781    4.3423979    4.3423979    4.3423979    2916.0781    13578.839    34837.535    -39668.14   -11741.198    21283.291    28891.208    81.882076 
   96300    1468.6479   -106.72518    1.3288635   -105.39632    31981.989    4.3271082    4.3271082    4.3271082    31981.989   -19187.544    57752.602    57380.908    51569.214   -3187.1282   -13810.621    81.020189 
   96400     2313.206   -107.48868    2.0930374   -105.39564   -10494.386    4.3650519    4.3650519    4.3650519   -10494.386   -15321.007   -311.29334   -15850.859   -12029.619    5317.0378    25350.425    83.170295 
   96500    868.41329   -106.18183   0.78575859   -105.39607   -32075.692    4.3675592    4.3675592    4.3675592   -32075.692   -85301.613   -7156.6436   -3768.8193    34971.712    19547.206    8405.5376    83.313698 
   96600    1808.3277   -107.00435    1.6362129   -105.36814    41867.063    4.3453019    4.3453019    4.3453019    41867.063    5182.1509     81551.13    38867.909    19934.889   -9124.5851   -3281.5601    82.046463 
   96700    1643.0868   -106.86831    1.4866994   -105.38161   -5821.6354    4.3541467    4.3541467    4.3541467   -5821.6354   -32691.213   -13834.959    29061.266    9183.6091    16411.733    14800.426    82.548496 
   96800    1313.3263   -106.57347    1.1883252   -105.38514   -22910.404    4.3570342    4.3570342    4.3570342   -22910.404    -53776.09   -9418.5365   -5536.5843     35495.21   -3034.9796    10427.873    82.712838 
   96900    2005.9341   -107.18753    1.8150113   -105.37252   -6124.0196    4.3587811    4.3587811    4.3587811   -6124.0196    4677.6113   -42820.973    19771.302   -12467.134   -818.15079   -19660.152     82.81236 
   97000    1025.8685   -106.31281   0.92822736   -105.38458   -22145.883    4.3639668    4.3639668    4.3639668   -22145.883   -72637.743   -47279.748    53479.841    55363.224    13586.169    7788.1435    83.108284 
   97100    2031.6684   -107.20792    1.8382963   -105.36962    4366.8015    4.3477032    4.3477032    4.3477032    4366.8015    56377.074   -33144.024   -10132.645   -12188.746    -6580.305   -19227.386    82.182559 
   97200    1497.5992   -106.74244    1.3550593   -105.38738   -11990.662    4.3465756    4.3465756    4.3465756   -11990.662   -35808.643   -45656.946    45493.604    32247.879    7472.8286   -6459.2873    82.118635 
   97300    1223.5595   -106.50223    1.1071024   -105.39513   -10421.603    4.3582807    4.3582807    4.3582807   -10421.603   -7002.8713   -64180.277    39918.339    27138.144     16683.29    -990.0304    82.783843 
   97400    2343.2219   -107.49917    2.1201964   -105.37897   -4532.4936    4.3564014    4.3564014    4.3564014   -4532.4936     35023.73   -29896.707   -18724.504   -1287.9468   -4930.0287   -9949.4087      82.6768 
   97500    668.16961   -106.01832    0.6045739   -105.41375   -26613.204    4.3556857    4.3556857    4.3556857   -26613.204   -40806.699   -65108.207    26075.294    45421.466    11493.666    19828.756    82.636058 
   97600    2197.6365     -107.379    1.9884677   -105.39054    21217.129    4.3459277    4.3459277    4.3459277    21217.129    29276.413   -10234.375    44609.349   -16721.922    12629.105     4250.157    82.081915 
   97700    1332.2797   -106.61912    1.2054747   -105.41365    -4545.643    4.3595742    4.3595742    4.3595742    -4545.643   -25215.031   -17021.863    28599.965    33739.626   -19442.875    6071.0426    82.857574 
   97800    1273.3153   -106.56008    1.1521224   -105.40795   -18078.591    4.3612727    4.3612727    4.3612727   -18078.591   -32058.444   -40817.897    18640.567   -13228.911    32087.877    13189.372    82.954457 
   97900    1974.7813   -107.17515    1.7868236   -105.38832    21155.532    4.3510396    4.3510396    4.3510396    21155.532    53314.202   -24836.214    34988.608    5972.4202   -11013.198   -4898.0817    82.371906 
   98000    1299.7288   -106.57246    1.1760219   -105.39644   -15855.036    4.3607278    4.3607278    4.3607278   -15855.036   -27864.139   -30058.755    10357.787    21276.206    4663.2248    12000.525    82.923369 
   98100    1642.5593   -106.86596    1.4862222   -105.37974    9588.0387    4.3512388    4.3512388    4.3512388    9588.0387    22489.316   -25444.896    31719.696   -19259.254    26611.748    -3288.794    82.383221 
   98200    1747.0727   -106.96708    1.5807881   -105.38629    21.548677    4.3605451    4.3605451    4.3605451    21.548677    11422.371   -24045.998    12688.273    18972.752   -24562.181   -11416.376    82.912946 
   98300    1427.0559   -106.67236    1.2912302   -105.38113   -4282.1676    4.3694425    4.3694425    4.3694425   -4282.1676    325.84722   -40804.064    27631.714   -3752.0841    12933.508    9292.0894    83.421515 
   98400    1553.3961   -106.79189    1.4055454   -105.38635   -12329.009     4.358974     4.358974     4.358974   -12329.009    26161.293   -70414.846    7266.5248    3165.0948    34.249567   -50038.441    82.823358 
   98500    1967.4118   -107.16408    1.7801556   -105.38392     -5361.69    4.3587659    4.3587659    4.3587659     -5361.69   -18197.044   -51872.684    53984.658   -6348.8389    8565.3651    13193.085    82.811494 
   98600    1290.0838   -106.56242    1.1672949   -105.39513   -25732.456    4.3584729    4.3584729    4.3584729   -25732.456   -10899.949   -66502.171    204.75233   -16547.254    31189.683    -38421.93    82.794797 
   98700    2155.0076   -107.34424    1.9498962   -105.39434   -15739.413     4.358631     4.358631     4.358631   -15739.413    32713.565   -55781.877   -24149.929    6769.1211    1960.2442    6910.7052    82.803811 
   98800    1627.7951   -106.87358    1.4728633   -105.40072    2767.3914    4.3557021    4.3557021    4.3557021    2767.3914   -10215.011   -56533.889    75051.074   -25598.337    5980.4383   -11929.052    82.636995 
   98900    1201.8053   -106.49929    1.0874187   -105.41187    -13831.45    4.3568403    4.3568403    4.3568403    -13831.45    9674.8002   -46838.523   -4330.6257    4730.1747    22874.905   -17016.829    82.701792 
   99000    1909.8061    -107.1286    1.7280327   -105.40057    19768.605    4.3553802    4.3553802    4.3553802    19768.605    29052.218   -32081.267    62334.865   -10381.667   -8748.5657    33429.765    82.618672 
   99100    1564.8771   -106.82414    1.4159337    -105.4082    -10518.11    4.3525135    4.3525135    4.3525135    -10518.11    21821.667   -26497.418   -26878.579   -13538.998   -14147.241   -38952.979    82.455642 
   99200    1327.6801    -106.6125    1.2013128   -105.41119   -18302.196    4.3559496    4.3559496    4.3559496   -18302.196    57218.996   -70575.475   -41550.109    2380.7094    22431.806    31096.473     82.65108 
   99300    2072.5868   -107.26372    1.8753201    -105.3884    11464.619    4.3559461    4.3559461    4.3559461    11464.619    13147.841   -6239.2172    27485.233   -1080.8663   -25735.463   -1934.8723    82.650882 
   99400    1070.0543   -106.36534   0.96820761   -105.39713    3547.7001    4.3647848    4.3647848    4.3647848    3547.7001    41917.861   -33978.955    2704.1943   -8595.4251    12188.072    -3849.955    83.155026 
   99500    1778.3464   -106.97853    1.6090852   -105.36945   -3258.0781    4.3751388    4.3751388    4.3751388   -3258.0781    8068.5108   -42527.709    24684.963    10415.194   -980.60896    6254.3663    83.748208 
   99600    1276.5215   -106.51811    1.1550235   -105.36308    -8460.713    4.3652976    4.3652976    4.3652976    -8460.713   -48290.353   -13834.481    36742.695   -634.59682   -30434.035   -333.50915    83.184336 
   99700    1805.9044   -106.98926    1.6340203   -105.35524    20693.279    4.3431833    4.3431833    4.3431833    20693.279    25564.393    11414.417    25101.026    9624.5729    25850.985    11825.457    81.926516 
   99800    1419.9721   -106.66323    1.2848206   -105.37841    5958.0049    4.3482164    4.3482164    4.3482164    5958.0049   -36292.455    52930.947    1235.5228    12441.611   -62502.796    9486.2829    82.211665 
   99900    1847.0388   -107.05324    1.6712396     -105.382   -12158.463    4.3754551    4.3754551    4.3754551   -12158.463   -18373.272    34803.357   -52905.472   -7812.0987    28516.888    11582.653     83.76637 
  100000    1196.6761   -106.46743    1.0827777   -105.38465     -19827.8    4.3705799    4.3705799    4.3705799     -19827.8    -36547.45    33762.793   -56698.744    14223.703   -51403.001    15031.058     83.48668 
Loop time of 21.6467 on 1 procs for 100000 steps with 8 atoms

Pair  time (%) = 6.62298 (30.5958)
Kspce time (%) = 5.26958 (24.3435)
Neigh time (%) = 0.167706 (0.774741)
Comm  time (%) = 0.981992 (4.53645)
Outpt time (%) = 0.0220442 (0.101836)
Other time (%) = 8.58241 (39.6476)

Nlocal:    8 ave 8 max 8 min
Histogram: 1 0 0 0 0 0 0 0 0 0
Nghost:    1834 ave 1834 max 1834 min
Histogram: 1 0 0 0 0 0 0 0 0 0
Neighs:    2110 ave 2110 max 2110 min
Histogram: 1 0 0 0 0 0 0 0 0 0

Total # of neighbors = 2110
Ave neighs/atom = 263.75
Neighbor list builds = 2103
Dangerous builds = 0
unfix 20
unfix 21
print "seeds:4755905"
seeds:4755905
