LAMMPS (10 Feb 2015)
# ---- initialize simulations
clear
units metal
dimension 3
boundary p p p
atom_style charge
atom_modify map array
# ---- create atoms
read_data /Users/eugeneragasa/pyflamestk_git/pypospack/tests/tests_integration/workflow/WorkflowLammpsThermalExpansion/param_5861/MgO_NaCl_unit.npt.T1200/lammps.structure
  triclinic box = (0 0 0) to (4.2565 4.2565 4.2565) with tilt (0 0 0)
  1 by 1 by 1 MPI processor grid
  reading atoms ...
  8 atoms
# ---- define interatomic potential
include potential.mod
mass 1 24.305
mass 2 15.999

group Mg type 1
4 atoms in group Mg
group O type 2
4 atoms in group O

set group Mg charge 1.63577302612
  4 settings made for charge
set group O charge -1.63577302612
  4 settings made for charge

variable R_cut equal 10.0

pair_style buck/coul/long ${R_cut}
pair_style buck/coul/long 10
pair_coeff 1 1 0.0 0.5 0.0 ${R_cut}
pair_coeff 1 1 0.0 0.5 0.0 10
pair_coeff 1 2 1558.72850733 0.278190610155 0.0 ${R_cut}
pair_coeff 1 2 1558.72850733 0.278190610155 0.0 10
pair_coeff 2 2 26609.5495557 0.148782776904 9.00084075824 ${R_cut}
pair_coeff 2 2 26609.5495557 0.148782776904 9.00084075824 10

kspace_style pppm 1.0e-5

neighbor 1.0 bin
neigh_modify every 1 delay 0 check yes
# ---- define settings
compute eng all pe/atom
compute eatoms all reduce sum c_eng
# ---- run minimization
reset_timestep 0
fix 1 all box/relax iso 0.0 vmax 0.001
thermo 10
thermo_style custom step pe lx ly lz xy xz yz press pxx pyy pzz pxy pxz pyz c_eatoms
min_style cg
minimize 1e-25 1e-25 5000 10000
PPPM initialization ...
  G vector (1/distance) = 0.352653
  grid = 8 8 8
  stencil order = 5
  estimated absolute RMS force accuracy = 3.87471e-05
  estimated relative force accuracy = 2.69083e-06
  using double precision FFTs
  3d grid and FFT values/proc = 3375 512
Neighbor list info ...
  1 neighbor list requests
  update every 1 steps, delay 0 steps, check yes
  master list distance cutoff = 11
Memory usage per processor = 4.06549 Mbytes
Step PotEng Lx Ly Lz Xy Xz Yz Press Pxx Pyy Pzz Pxy Pxz Pyz eatoms 
       0   -109.00108       4.2565       4.2565       4.2565            0            0            0    61252.417    61252.417    61252.417    61252.417 -3.6848803e-11 -3.3369169e-11 3.6549969e-10   -109.00108 
      10    -109.0509     4.299065     4.299065     4.299065            0            0            0    8703.9294    8703.9294    8703.9294    8703.9294 1.5032756e-10 -1.0327816e-11 -1.1009458e-10    -109.0509 
      15   -109.05203    4.3066964    4.3066964    4.3066964            0            0            0 0.0034250328 0.0034250327  0.003425033 0.0034250328 -1.8553982e-10 4.3823803e-11 -1.4551403e-10   -109.05203 
Loop time of 0.00742912 on 1 procs for 15 steps with 8 atoms

Minimization stats:
  Stopping criterion = linesearch alpha is zero
  Energy initial, next-to-last, final = 
        -109.001077098     -109.052033723     -109.052033723
  Force two-norm initial, final = 8.84488 3.43431e-05
  Force max component initial, final = 8.84488 7.26821e-06
  Final line search alpha, max atom move = 0.5 3.63411e-06
  Iterations, force evaluations = 15 22

Pair  time (%) = 0.0020051 (26.9897)
Kspce time (%) = 0.0012002 (16.1553)
Neigh time (%) = 0 (0)
Comm  time (%) = 0.000227451 (3.06162)
Outpt time (%) = 1.19209e-05 (0.160462)
Other time (%) = 0.00398445 (53.6329)

Nlocal:    8 ave 8 max 8 min
Histogram: 1 0 0 0 0 0 0 0 0 0
Nghost:    2189 ave 2189 max 2189 min
Histogram: 1 0 0 0 0 0 0 0 0 0
Neighs:    2344 ave 2344 max 2344 min
Histogram: 1 0 0 0 0 0 0 0 0 0

Total # of neighbors = 2344
Ave neighs/atom = 293
Neighbor list builds = 0
Dangerous builds = 0
unfix 1
# ---- define output variables ----
variable natoms equal "count(all)"
variable tot_energy equal "c_eatoms"
variable length_x equal "lx"
variable length_y equal "ly"
variable length_z equal "lz"
variable tilt_xy equal "xy"
variable tilt_xz equal "xz"
variable tilt_yz equal "yz"
variable tot_press equal "press"
variable press_xx equal "pxx"
variable press_yy equal "pyy"
variable press_zz equal "pzz"
variable press_xy equal "pxy"
variable press_xz equal "pxz"
variable press_yz equal "pyz"

# ---- output ----
print "pypospack:output_section:begin"
pypospack:output_section:begin
print "tot_energy = ${tot_energy}"
tot_energy = -109.052033723467
print "num_atoms = ${natoms}"
num_atoms = 8
print "xx = ${length_x}"
xx = 4.30669636930156
print "yy = ${length_y}"
yy = 4.30669636930156
print "zz = ${length_z}"
zz = 4.30669636930156
print "xy = ${tilt_xy}"
xy = 0
print "xz = ${tilt_xz}"
xz = 0
print "yz = ${tilt_yz}"
yz = 0
print "tot_press = ${tot_press}"
tot_press = 0.00342503281246904
print "pxx = ${press_xx}"
pxx = 0.00342503266517326
print "pyy = ${press_yy}"
pyy = 0.00342503296687446
print "pzz = ${press_zz}"
pzz = 0.00342503280535941
print "pxy = ${press_xy}"
pxy = -1.85539817051957e-10
print "pxz = ${press_xz}"
pxz = 4.38238030577261e-11
print "pyz = ${press_yz}"
pyz = -1.45514027090344e-10
print "pypospack:output_section:done"
pypospack:output_section:done
print "pypospack:lammps_sim:done"
pypospack:lammps_sim:done
#------------------------------------------------------------------------------
# RUN THERMOSTAT
# running using an NPT Nose-Hoover style thermostat
#------------------------------------------------------------------------------
variable tempdamp equal 0.1
variable pressdamp equal 1.0
# set initial velocities
velocity all create 1200 6119565 mom yes dist gaussian loop all
# fix for Nose-Hoover style thermostat
fix 20 all npt temp 1200 1200 0.1 aniso 0.0 0.0 1.0 drag 1.0 couple xyz
variable boxx equal lx
variable boxy equal ly
variable boxz equal lz
variable boxp equal press
variable boxt equal temp
# calculate averages every 10000 steps
reset_timestep 0
fix 21 all ave/time 10 10 100 v_boxx v_boxy v_boxz v_boxp v_boxt file lattice.out
thermo_style custom step temp pe ke etotal press lx ly lz press pxx pyy pzz pxy pxz pyz vol
thermo_modify flush yes
thermo 100
run 100000
PPPM initialization ...
  G vector (1/distance) = 0.352152
  grid = 8 8 8
  stencil order = 5
  estimated absolute RMS force accuracy = 3.96483e-05
  estimated relative force accuracy = 2.75342e-06
  using double precision FFTs
  3d grid and FFT values/proc = 3375 512
Memory usage per processor = 3.06549 Mbytes
Step Temp PotEng KinEng TotEng Press Lx Ly Lz Press Pxx Pyy Pzz Pxy Pxz Pyz Volume 
       0         1200   -109.05204    1.0857852   -107.96626     14517.33    4.3066964    4.3066964    4.3066964     14517.33    8801.9704    20913.161    13836.859    3979.6875   -680.31676    1287.8964    79.879026 
     100    388.78346   -108.18242   0.35177945   -107.83064    5007.8975    4.3355748    4.3355748    4.3355748    5007.8975   -10815.439    40265.521   -14426.389   -2244.8248    833.83776   -7536.8908    81.496704 
     200    793.75903    -108.2396   0.71820985   -107.52139   -37360.914    4.3598267    4.3598267    4.3598267   -37360.914    -51110.28   -19202.748   -41769.714    4644.0918    6668.2571   -12211.152    82.871975 
     300     1063.121   -108.22637   0.96193419   -107.26443    25737.068    4.3417825    4.3417825    4.3417825    25737.068    772.75818    64411.609    12026.837   -1410.8924   -791.60886    5887.8533    81.847271 
     400     818.6801   -107.81062   0.74075896   -107.06986   -18901.887    4.3530971    4.3530971    4.3530971   -18901.887    -7480.403   -6245.0165   -42980.242    4471.0383    1473.1151   -32373.305    82.488812 
     500    1473.4282   -108.25762    1.3331888   -106.92444     -9652.48     4.359652     4.359652     4.359652     -9652.48   -21821.589   -530.55882    -6605.292    11541.275    11972.818    4672.9371    82.862013 
     600    1155.8247   -107.91094    1.0458145   -106.86513    1177.5733      4.36824      4.36824      4.36824    1177.5733    9864.5701    31264.362   -37596.213   -3718.7023    1217.3487   -16537.128    83.352662 
     700    598.64176   -107.38442   0.54166365   -106.84276   -32329.713    4.3726995    4.3726995    4.3726995   -32329.713   -36744.547   -56753.436   -3491.1563    2149.2106    1886.5319   -37770.817    83.608206 
     800    1496.4791   -108.17177    1.3540457   -106.81772    10042.972    4.3464502    4.3464502    4.3464502    10042.972   -12671.073    36142.833    6657.1571    214.90461    -196.8509    5333.8101    82.111525 
     900    1153.3337    -107.8988    1.0435606   -106.85524   -12163.957    4.3649514    4.3649514    4.3649514   -12163.957    -24451.99   -22629.267    10589.386   -3815.8649   -234.23445   -5922.7302    83.164548 
    1000    1136.7392    -107.8786    1.0285455   -106.85005   -18801.401    4.3696004    4.3696004    4.3696004   -18801.401   -28180.095    6876.5798   -35100.686   -1289.0988   -5824.0894    3219.1296    83.430563 
    1100    1225.0166   -107.94838    1.1084208   -106.83996   -6639.7455     4.360323     4.360323     4.360323   -6639.7455   -53170.119   -5743.1112    38993.993    1555.0649   -18679.823   -1595.8396    82.900278 
    1200    1407.2667   -108.12118    1.2733245   -106.84785   -21620.789    4.3593864    4.3593864    4.3593864   -21620.789   -24248.717   -21759.816   -18853.833    441.25006    1164.6643   -9881.9102    82.846871 
    1300    915.00806   -107.68785   0.82791853   -106.85993    41772.546    4.3490078    4.3490078    4.3490078    41772.546    5558.6553    61666.777    58092.207    2026.1741   -6512.4661    -18238.18    82.256566 
    1400    1711.3967   -108.41142    1.5485077   -106.86291   -10805.054    4.3683485    4.3683485    4.3683485   -10805.054   -32258.199    1458.0626   -1615.0263   -3773.5541   -14000.965    9350.3138    83.358875 
    1500    725.66792   -107.50828   0.65659958   -106.85168    35295.033    4.3670266    4.3670266    4.3670266    35295.033    7950.4758    71257.281    26677.343    7205.9261    7163.7815   -14997.574    83.283222 
    1600    1390.2873   -108.10225    1.2579611   -106.84429   -19681.229    4.3576959    4.3576959    4.3576959   -19681.229   -55270.054   -5333.2349    1559.6013   -4931.5341   -12724.295   -1649.2316    82.750528 
    1700    1234.3341   -107.96857    1.1168514   -106.85172    26542.923    4.3574614    4.3574614    4.3574614    26542.923    5573.7898    53210.211    20844.766    7463.4388    4709.6444   -8770.8038    82.737166 
    1800    1220.7609   -107.96232    1.1045701   -106.85775   -14669.732    4.3756589    4.3756589    4.3756589   -14669.732   -41941.962    -3020.679    953.44529   -8195.3382   -23956.001   -7047.9853    83.778078 
    1900    1259.8573    -107.9766    1.1399454   -106.83665   -8771.7518    4.3714263    4.3714263    4.3714263   -8771.7518   -57622.715    31482.065   -174.60614    2615.7875   -5589.4945    19289.837    83.535194 
    2000    933.53663   -107.68016   0.84468356   -106.83547    21409.061    4.3541537    4.3541537    4.3541537    21409.061   -19024.586    36482.754    46769.016    4885.0191   -8996.1517   -5087.9691    82.548894 
    2100    1190.2515   -107.93507    1.0769646   -106.85811   -4137.0249    4.3560584    4.3560584    4.3560584   -4137.0249    -32112.03   -7706.4212    27407.377   -7715.4637    -17344.21   -8718.6567    82.657274 
    2200    1726.8552   -108.42319    1.5624948    -106.8607    1703.1868    4.3593299    4.3593299    4.3593299    1703.1868   -26168.999    33583.048   -2304.4888    6916.1118    7141.0845   -4563.1292    82.843644 
    2300    1075.3131   -107.84527   0.97296592    -106.8723   -3841.4218    4.3603309    4.3603309    4.3603309   -3841.4218   -26535.401   -20787.339    35798.474    90.352186   -3377.8445    -13744.62    82.900727 
    2400    685.58783    -107.4936   0.62033428   -106.87327    98.891463    4.3562446    4.3562446    4.3562446    98.891463   -33849.862    9280.1011    24866.435   -12152.784    -9096.833    2382.6611    82.667872 
    2500    1796.2423    -108.4832    1.6252777   -106.85792   -6353.4474    4.3553572    4.3553572    4.3553572   -6353.4474   -30967.368    23970.297   -12063.271    16683.156    5259.0004    4045.5017    82.617367 
    2600    685.24316   -107.48506   0.62002241   -106.86504   -16242.644    4.3749356    4.3749356    4.3749356   -16242.644   -11460.928   -41061.596     3794.593   -7660.0579   -19191.349   -11046.387    83.736535 
    2700    1547.2479   -108.24609    1.3999824   -106.84611   -17219.021    4.3525215    4.3525215    4.3525215   -17219.021   -26883.096   -3057.4568   -21716.511   -3483.4823    2283.6332    5285.2238    82.456095 
    2800    1247.2424   -107.97273    1.1285311    -106.8442    16769.024    4.3438962    4.3438962    4.3438962    16769.024   -24293.035    41182.784    33417.324   -1068.4007   -1609.9111   -3262.4549    81.966862 
    2900    704.57852   -107.49577   0.63751745   -106.85825   -41541.301    4.3795801    4.3795801    4.3795801   -41541.301   -30127.447   -52232.268   -42264.189   -12425.131   -22195.613   -21531.994     84.00351 
    3000    1550.8859   -108.23971    1.4032741   -106.83644    8571.1781    4.3521118    4.3521118    4.3521118    8571.1781    12251.571    25230.698   -11768.735   -7906.8084    1114.6271   -3583.7471    82.432817 
    3100    950.46639   -107.71303   0.86000196   -106.85302     27796.32    4.3444826    4.3444826    4.3444826     27796.32    36521.993    24219.897    22647.071   -8917.8852   -18281.577    741.64442    82.000065 
    3200    1127.2852   -107.87635    1.0199913   -106.85636    -32205.43    4.3703434    4.3703434    4.3703434    -32205.43   -40870.343   -25004.747     -30741.2   -21783.488   -1172.8762    -17837.42    83.473126 
    3300    1167.6949   -107.90263    1.0565549   -106.84608    6150.6993    4.3601679    4.3601679    4.3601679    6150.6993   -20980.492    18239.626    21192.963    7018.1451    962.08866    12801.352    82.891434 
    3400     1342.603   -108.06458    1.2148154   -106.84977   -25177.606    4.3561681    4.3561681    4.3561681   -25177.606   -11248.557   -38369.202   -25915.059   -6582.5435   -7856.2322   -10489.409     82.66352 
    3500    1079.1501     -107.835   0.97643766   -106.85857    11790.817    4.3515227    4.3515227    4.3515227    11790.817    13530.941    7293.4793     14548.03   -3942.4015   -1430.9616   -12934.656    82.399343 
    3600    1192.0935   -107.94401    1.0786312   -106.86538     6776.132    4.3605136    4.3605136    4.3605136     6776.132    28295.036   -20154.315    12187.675    12460.231    6716.2284    10338.702    82.911152 
    3700    1138.5005   -107.89496    1.0301392   -106.86482    -24887.88    4.3654127    4.3654127    4.3654127    -24887.88   -7932.9387    -10250.74    -56479.96   -10749.365   -13601.355   -27682.406    83.190921 
    3800    1039.0081   -107.79641   0.94011634    -106.8563    28242.555       4.3499       4.3499       4.3499    28242.555    3251.6781    9200.7198    72275.267     5494.118   -2582.0839    6503.6911    82.307197 
    3900     1565.778   -108.27526    1.4167489   -106.85851   -22339.818    4.3630584    4.3630584    4.3630584   -22339.818   -22816.001   -31706.828   -12496.624   -3079.1549   -9133.8607   -20204.069    83.056397 
    4000     826.4109   -107.60398   0.74775395   -106.85622    9073.0581    4.3612095    4.3612095    4.3612095    9073.0581    26724.633   -19756.951    20251.492   -5986.0585   -10687.251   -6745.1091    82.950849 
    4100    1366.2387   -108.08504    1.2362015   -106.84884    2880.7845    4.3597687    4.3597687    4.3597687    2880.7845   -7684.6986   -2722.3266    19049.379   -4577.7518   -4488.0146    1156.2826    82.868667 
    4200    1299.3363   -108.02949    1.1756668   -106.85382   -19225.214    4.3659887    4.3659887    4.3659887   -19225.214    10763.681   -40409.168   -28030.154   -1598.8041   -419.74265   -12887.168    83.223852 
    4300    902.49952   -107.67995   0.81660054   -106.86335    11341.457    4.3510304    4.3510304    4.3510304    11341.457    1239.6075   -13527.072    46311.836   -7748.8565   -7927.8952    13084.682    82.371385 
    4400    1637.2725   -108.34853    1.4814385   -106.86709   -3447.4449    4.3579084    4.3579084    4.3579084   -3447.4449     -25946.8   -2917.9146     18522.38    10699.738    9175.9455   -3334.7899    82.762632 
    4500    926.46624   -107.70338   0.83828613   -106.86509   -25368.259     4.376651     4.376651     4.376651   -25368.259    3112.7127    -45419.92   -33797.569    -10077.28   -22710.258   -7288.0747    83.835073 
    4600    1222.5446   -107.96365    1.1061841   -106.85747   -9886.8483     4.347475     4.347475     4.347475   -9886.8483   -24004.583   -7249.3548    1593.3932     11094.41    11926.461    3494.0407     82.16962 
    4700    1198.6667    -107.9418    1.0845788   -106.85722    36971.686    4.3438537    4.3438537    4.3438537    36971.686    73625.873    11606.613     25682.57    1546.3703   -11586.439   -16028.384    81.964456 
    4800    1272.7531   -108.01469    1.1516137   -106.86307   -23025.683    4.3709703    4.3709703    4.3709703   -23025.683   -16299.849   -41607.428   -11169.771   -7451.8264    5971.2132    -4923.617    83.509056 
    4900    1086.6468   -107.83159   0.98322083   -106.84837    5782.2361    4.3691902    4.3691902    4.3691902    5782.2361    9211.3344   -7186.5656    15321.939   -2377.7358   -15391.622   -234.03748    83.407066 
    5000    1210.9105   -107.93514    1.0956573   -106.83948    10775.891    4.3598346    4.3598346    4.3598346    10775.891    19585.784    23158.995   -10417.108   -6034.6968    -3593.684   -4640.1382    82.872424 
    5100      1115.85   -107.85438    1.0096445   -106.84473   -6408.8262     4.358773     4.358773     4.358773   -6408.8262    9140.3936    2058.1532   -30425.025   -11923.031   -7929.2848   -6946.7297      82.8119 
    5200    1210.1237   -107.94181    1.0949454   -106.84686    8831.2509    4.3703271    4.3703271    4.3703271    8831.2509    16124.687    5194.8538    5174.2125    8800.3689   -6095.6676    12919.815    83.472193 
    5300    1282.1673   -107.99307    1.1601319   -106.83293   -17933.379    4.3720473    4.3720473    4.3720473   -17933.379   -5564.2604   -27026.058   -21209.818   -2401.5619   -9288.4523    -343.4463    83.570801 
    5400    1020.0796   -107.75291   0.92298942   -106.82992    -905.1862    4.3508184    4.3508184    4.3508184    -905.1862     44877.39   -19964.685   -27628.263   -2203.7551   -4838.5016    490.05456    82.359341 
    5500    1210.1126   -107.93597    1.0949353   -106.84104    21935.984    4.3539556    4.3539556    4.3539556    21935.984   -9683.4842    21823.548    53667.888     13829.94    -4392.072    7576.1928    82.537627 
    5600    1201.5876   -107.93743    1.0872217   -106.85021   -8161.6697    4.3710491    4.3710491    4.3710491   -8161.6697    35247.996   -39621.305   -20111.699   -8083.3374    10873.931   -4181.9245     83.51357 
    5700    1379.6328    -108.0982    1.2483208   -106.84988   -778.43132    4.3592244    4.3592244    4.3592244   -778.43132   -19010.048   -19635.999    36310.753    5336.4321   -6454.9846    10349.709     82.83763 
    5800    996.20857   -107.75449   0.90139045    -106.8531     21312.84    4.3498928    4.3498928    4.3498928     21312.84    47711.904    32916.452   -16689.836    -3402.983     9936.587   -600.53884     82.30679 
    5900    1161.6109   -107.91288      1.05105   -106.86183   -13099.606     4.359609     4.359609     4.359609   -13099.606   -9698.6654   -21176.684   -8423.4702    -11040.13    1704.3383   -5863.1642     82.85956 
    6000    970.48714   -107.73186   0.87811715   -106.85374    18262.712    4.3705339    4.3705339    4.3705339    18262.712    16561.185    4021.2201    34205.731   -1905.3094   -3618.6106    8356.1056    83.484042 
    6100    1590.1312   -108.28026    1.4387842   -106.84148   -20411.375    4.3659656    4.3659656    4.3659656   -20411.375   -44555.552   -10783.746   -5894.8273   -5689.3463    6774.5095   -4285.8141    83.222533 
    6200    1256.0064    -107.9797     1.136461   -106.84324     9701.734    4.3472299    4.3472299    4.3472299     9701.734    26287.304   -18672.188    21490.086   -716.73622    1107.7396    11773.456    82.155724 
    6300    1069.3179   -107.82712    0.9675413   -106.85958   -16491.482    4.3594918    4.3594918    4.3594918   -16491.482   -6639.6554      1253.35   -44088.139   -1234.6062    15014.936    22738.233    82.852876 
    6400    1170.1182   -107.91323    1.0587476   -106.85448   -21090.823    4.3619427    4.3619427    4.3619427   -21090.823   -36890.681    -12209.71   -14172.077    1810.2165    6280.5431   -5827.7264    82.992694 
    6500    1157.0798   -107.90063    1.0469501   -106.85368    7889.4757    4.3561881    4.3561881    4.3561881    7889.4757    22643.054   -14357.715    15383.088   -1880.8891   -8412.8587    6632.5337    82.664657 
    6600    1161.8926   -107.90423    1.0513049   -106.85292    733.95799    4.3640601    4.3640601    4.3640601    733.95799   -44949.427    52369.876   -5218.5743   -467.41692   -1036.8298   -13263.352    83.113614 
    6700    1149.8675   -107.88507    1.0404242   -106.84465   -9363.4311    4.3639056    4.3639056    4.3639056   -9363.4311    13734.653    -5581.336   -36243.611    -9491.103   -2809.5617    11947.939    83.104785 
    6800    1059.3743   -107.80001   0.95854414   -106.84147   -5687.0171    4.3592387    4.3592387    4.3592387   -5687.0171   -17533.491    51525.144   -51052.705    2856.3648    1345.5541    17160.949    82.838449 
    6900    1171.0973   -107.90831    1.0596335   -106.84868   -9878.0451    4.3607752    4.3607752    4.3607752   -9878.0451   -1828.6755   -12375.576   -15429.883   -11340.041    3699.1932    9304.0139    82.926071 
    7000    1505.9785   -108.21235     1.362641   -106.84971   -7888.5279    4.3668622    4.3668622    4.3668622   -7888.5279   -31659.823    28776.144   -20781.904    168.25749    829.60341    4489.0586    83.273816 
    7100    1085.8459   -107.83356   0.98249619   -106.85106   -6073.2212    4.3626569    4.3626569    4.3626569   -6073.2212   -16120.987    23372.075   -25470.752   -5081.2212    11181.506   -4257.5954    83.033467 
    7200    1116.0925   -107.84698    1.0098639   -106.83711    18551.728    4.3494537    4.3494537    4.3494537    18551.728    -7944.479    64140.199   -540.53469    8147.6087    2877.9639   -18361.416    82.281866 
    7300    1005.2182   -107.75727   0.90954259   -106.84773    2823.4873    4.3700769    4.3700769    4.3700769    2823.4873    9078.8144    2059.0603   -2667.4129     1740.178     16546.56    3810.7951    83.457856 
    7400     1292.989   -108.00146    1.1699236   -106.83153   -8617.3951    4.3703415    4.3703415    4.3703415   -8617.3951   -12177.601   -30529.237    16854.652   -1495.3392    31257.378   -16156.982    83.473017 
    7500    963.11284   -107.70279   0.87144474   -106.83134    25016.541    4.3614082    4.3614082    4.3614082    25016.541     70989.55    4282.9965   -222.92278    10259.922     4874.022   -3945.8983    82.962191 
    7600    1318.0471   -108.02308    1.1925967   -106.83049   -14539.726     4.364158     4.364158     4.364158   -14539.726   -3956.5291   -6798.2119   -32864.438    499.64745    29589.592     7689.572    83.119206 
    7700    1063.4748   -107.79707   0.96225434   -106.83482   -670.65681    4.3631296    4.3631296    4.3631296   -670.65681    24154.704   -11847.528   -14319.146   -9498.8488    -7475.039   -13639.359     83.06046 
    7800     1100.589   -107.83568   0.99583603   -106.83985   -18503.079    4.3758568    4.3758568    4.3758568   -18503.079   -19544.503   -10748.552   -25216.183   -5971.3536    1271.1244    10383.582    83.789442 
    7900    1262.2407   -107.97533    1.1421019   -106.83322   -10679.798    4.3632407    4.3632407    4.3632407   -10679.798    -15572.47   -3157.9733   -13308.951   -1286.7547    26050.398   -4244.5428    83.066809 
    8000    1179.7287   -107.89511    1.0674433   -106.82767    10472.484    4.3480076    4.3480076    4.3480076    10472.484    34916.114    19088.488   -22587.148   -16743.935   -13967.564    1896.0972    82.199826 
    8100    1108.2845   -107.84509    1.0027991   -106.84229   -30459.385    4.3708812    4.3708812    4.3708812   -30459.385   -23385.556   -13686.577   -54306.022   -450.27413    25815.847    16095.416    83.503947 
    8200    1550.2042   -108.22881    1.4026574   -106.82615   -17748.082    4.3672237    4.3672237    4.3672237   -17748.082   -25642.522   -7104.8885   -20496.836   -667.62053    11539.178   -7478.5051      83.2945 
    8300    1077.4741   -107.80627   0.97492118   -106.83135    12822.114    4.3557465    4.3557465    4.3557465    12822.114     3405.126    40657.558   -5596.3423   -18563.346   -12075.669    7149.4454    82.639519 
    8400    1268.0033   -107.98921     1.147316    -106.8419   -14378.206    4.3646837    4.3646837    4.3646837   -14378.206   -35317.349    12054.518   -19871.786   -1402.0765    22021.349   -2446.7753    83.149248 
    8500    1154.9318   -107.88731    1.0450066   -106.84231   -1193.7139    4.3680802    4.3680802    4.3680802   -1193.7139   -14215.225      15301.2   -4667.1165   -13409.893   -11577.513    -749.9988    83.343517 
    8600     1032.489   -107.77824   0.93421778   -106.84402   -11030.876    4.3585276    4.3585276    4.3585276   -11030.876   -43359.734    27997.455   -17730.349    5114.9442    14726.634   -13180.824    82.797917 
    8700    1329.1964    -108.0533    1.2026848   -106.85062    11078.613     4.352289     4.352289     4.352289    11078.613   -10526.322    37002.469    6759.6937    1416.7846    21848.425    24295.806    82.442886 
    8800    1215.3512   -107.95734    1.0996753   -106.85766   -9088.5094    4.3760281    4.3760281    4.3760281   -9088.5094   -3886.1403    9592.6013   -32971.989   -6042.5586   -4794.7742   -3869.0095    83.799284 
    8900      817.334   -107.57827   0.73954098   -106.83873   -20591.806    4.3827691    4.3827691    4.3827691   -20591.806   -35735.705    43242.165   -69281.878   -15326.915    18814.935    6309.9391    84.187144 
    9000      1363.21    -108.0568    1.2334611   -106.82334    33796.237    4.3471217    4.3471217    4.3471217    33796.237        23903    64460.108    13025.604   -5873.4788   -7887.4111    2448.7137    82.149589 
    9100    1334.0181   -108.05582    1.2070476   -106.84877    3034.6022    4.3540609    4.3540609    4.3540609    3034.6022    12582.106    12960.216   -16438.516    2216.1812    5453.6186   -10699.363    82.543615 
    9200      1311.54   -108.03872    1.1867089   -106.85201   -30976.064    4.3886229    4.3886229    4.3886229   -30976.064   -39959.898   -37863.835    -15104.46    12968.547   -2476.8413   -3128.5497    84.524924 
    9300    1533.3173   -108.21502    1.3873777   -106.82764    -23932.47    4.3801068    4.3801068    4.3801068    -23932.47   -21852.348    -24362.04   -25583.021    15821.672   -6756.0911    -5974.631    84.033822 
    9400    1335.2188   -108.03133    1.2081341    -106.8232    4300.4972    4.3481166    4.3481166    4.3481166    4300.4972    5124.0051    20334.969   -12557.482   -2889.5645    13435.586   -11409.432    82.206006 
    9500    1033.6192    -107.7838    0.9352404   -106.84856    26933.173    4.3593987    4.3593987    4.3593987    26933.173    19828.213    56433.761    4537.5452   -5024.9377    4039.2686    14111.988    82.847568 
    9600    949.22134   -107.70372   0.85887541   -106.84485   -4742.8309    4.3839009    4.3839009    4.3839009   -4742.8309    21621.595    2352.4784   -38202.566   -14126.409    18607.708    9494.0636     84.25238 
    9700    945.84168   -107.68632   0.85581743    -106.8305    25853.818    4.3642098    4.3642098    4.3642098    25853.818    22115.622    37358.317    18087.516   -7591.8465    14469.078    5022.4897    83.122165 
    9800    1367.7297   -108.07452    1.2375506   -106.83697    2044.3027    4.3542312    4.3542312    4.3542312    2044.3027    9931.2262   -32017.218      28218.9    9179.9167     3481.228    14684.515    82.553302 
    9900    1139.5762   -107.87865    1.0311125   -106.84754    7294.8969    4.3614984    4.3614984    4.3614984    7294.8969   -10212.547    32512.048   -414.81055    2495.9792    11766.862   -6349.3559    82.967335 
   10000    1499.3293   -108.20287    1.3566246   -106.84625   -37110.183    4.3760272    4.3760272    4.3760272   -37110.183   -43901.688   -41431.267   -25997.592    1233.4858   -6111.7316   -867.36109     83.79923 
   10100    1104.6869   -107.83772   0.99954391   -106.83818   -1953.2736     4.368123     4.368123     4.368123   -1953.2736    11784.379   -15247.772   -2396.4269     10871.34   -4920.7343   -2545.3715    83.345963 
   10200    1488.6481   -108.17181    1.3469601   -106.82485    7257.2241    4.3531887    4.3531887    4.3531887    7257.2241    25001.357    17750.241   -20979.925   -12535.606    3094.7609    -13589.94    82.494023 
   10300    1195.1248     -107.927    1.0813741   -106.84563   -7241.4936    4.3727374    4.3727374    4.3727374   -7241.4936   -1332.9473   -39373.858    18982.324    14218.212    12206.015   -1566.2826     83.61038 
   10400    1230.2694   -107.95126    1.1131736   -106.83809   -12794.293    4.3701283    4.3701283    4.3701283   -12794.293   -28253.126    11509.917   -21639.671    4628.2664    21081.152   -3069.3619    83.460803 
   10500    899.89871   -107.64283   0.81424727   -106.82858    26505.533    4.3468984    4.3468984    4.3468984    26505.533   -4662.0792    34192.956    49985.722    4483.1167    8452.3866   -730.79933    82.136932 
   10600    1342.5359   -108.05424    1.2147547   -106.83948   -14621.115    4.3694985    4.3694985    4.3694985   -14621.115    -52730.02   -35618.945    44485.619    9302.5879    10759.926     524.3399    83.424726 
   10700    1117.3156   -107.84455    1.0109706   -106.83358    18381.548    4.3637886    4.3637886    4.3637886    18381.548   -27837.853    46252.143    36730.354   -1143.2767    15680.799   -816.35069    83.098101 
   10800    1245.8495    -107.9685    1.1272708   -106.84123   -8859.6606    4.3588582    4.3588582    4.3588582   -8859.6606   -59932.596   -2696.9615    36050.576    9708.2342   -2515.5379    3062.5688    82.816758 
   10900    1354.1607   -108.06286    1.2252731   -106.83759   -8012.9868    4.3670947    4.3670947    4.3670947   -8012.9868   -11258.289    25956.814   -38737.485    4960.8868   -8574.9044    3663.2271    83.287118 
   11000    1283.2649   -107.99508     1.161125   -106.83396   -11817.603    4.3653689    4.3653689    4.3653689   -11817.603   -30812.277   -13400.146    8759.6134   -4474.1595   -136.46543    1687.3927    83.188416 
   11100     1363.705   -108.06233     1.233909   -106.82842    -8779.103    4.3694194    4.3694194    4.3694194    -8779.103   -17382.889    13381.212   -22335.632   -3648.9334   -7082.1688    10922.727    83.420192 
   11200    1184.0333   -107.89455    1.0713382   -106.82321    13866.229    4.3595016    4.3595016    4.3595016    13866.229   -2516.0458    14973.416    29141.317    1632.7071   -1891.4578    249.49124    82.853439 
   11300    1268.4814   -107.98591    1.1477486   -106.83816    -2170.008     4.354179     4.354179     4.354179    -2170.008   -22794.413   -12356.632    28641.021   -142.46599    7126.3039    5047.8427    82.550335 
   11400    1177.4073   -107.91156    1.0653428   -106.84622    15950.002    4.3609667    4.3609667    4.3609667    15950.002   -8675.7159    32270.465    24255.257    3890.0579   -8047.6977   -21778.799    82.936997 
   11500    997.61308   -107.74739   0.90266128   -106.84472   -5528.0078    4.3694584    4.3694584    4.3694584   -5528.0078   -13046.173   -53810.961    50273.111   -6629.8295    6983.7541   -1795.4739    83.422426 
   11600    1496.3999   -108.18925    1.3539741   -106.83528   -16328.107    4.3610179    4.3610179    4.3610179   -16328.107   -32875.244   -21403.011    5293.9328    4969.9912    1923.5302     4634.724    82.939922 
   11700    1080.9236   -107.81876   0.97804239   -106.84072    35097.136    4.3446966    4.3446966    4.3446966    35097.136    17102.973     13060.12    75128.313    1367.6884   -8510.1082    -3501.335     82.01218 
   11800    1053.7052   -107.81587   0.95341462   -106.86246    3466.6251    4.3627976    4.3627976    4.3627976    3466.6251    7757.6345   -29247.376    31889.616    11221.847   -1252.6163    6703.1106    83.041505 
   11900    1612.4144   -108.30201    1.4589464   -106.84306   -17873.022    4.3724639    4.3724639    4.3724639   -17873.022   -16384.343   -23335.363    -13899.36   -1248.0239    -14988.89   -1146.4969    83.594694 
   12000    738.39187   -107.51227   0.66811248   -106.84416    1861.7191      4.35548      4.35548      4.35548    1861.7191   -9735.9785   -12108.131    27429.267      10673.1      1545.76   -4571.7738    82.624352 
   12100    1598.3497   -108.28408    1.4462204   -106.83786     17059.91    4.3435688    4.3435688    4.3435688     17059.91   -2903.0413    40850.473    13232.299    4601.2493   -8644.6785    1999.9006    81.948329 
   12200    1174.2991   -107.92175    1.0625305   -106.85922   -13423.921    4.3644247    4.3644247    4.3644247   -13423.921   -41198.463   -28728.274    29654.974   -6567.5404   -5369.0399    11112.228     83.13445 
   12300    1152.2191   -107.89354    1.0425521   -106.85098    -7660.769    4.3662745    4.3662745    4.3662745    -7660.769   -10888.954   -11908.036   -185.31661    6658.2338   -1486.2486   -4571.6939    83.240197 
   12400     1435.101   -108.13548    1.2985095   -106.83697   -6866.2103    4.3651968    4.3651968    4.3651968   -6866.2103   -32910.191    9606.2641    2705.2959   -1463.8514    9929.9155    10929.708    83.178577 
   12500    921.17299   -107.67416   0.83349668   -106.84067    4027.1093    4.3602967    4.3602967    4.3602967    4027.1093   -18160.912    -15820.44     46062.68    3847.2859    -6580.613    9743.6605    82.898779 
   12600    1416.8589   -108.12051    1.2820037   -106.83851    22654.717    4.3521554    4.3521554    4.3521554    22654.717   -10108.465    49119.054    28953.563    9037.5865   -760.67105    5833.1645    82.435294 
   12700    1324.6572   -108.05519    1.1985777   -106.85661    1376.2799    4.3665092    4.3665092    4.3665092    1376.2799   -15740.708   -5927.1971    25796.745    6183.4397    23266.735   -8876.9513    83.253622 
   12800     1240.079   -107.97203    1.1220495   -106.84998   -2465.0034    4.3709942    4.3709942    4.3709942   -2465.0034   -19292.727    36638.857    -24741.14    4428.3699   -12806.089    -398.3372    83.510422 
   12900     1100.389   -107.84099    0.9956551   -106.84533     3693.968    4.3652731    4.3652731    4.3652731     3693.968    7732.5064   -2979.1988    6328.5965    8222.7686    27757.305   -9356.7556    83.182937 
   13000     1438.834   -108.14154    1.3018872   -106.83965    5605.9915    4.3625474    4.3625474    4.3625474    5605.9915    18807.662   -17764.844    15775.156   -5480.4852    4922.6178   -294.60699    83.027215 
   13100    1460.5929   -108.15916    1.3215752   -106.83759   -12480.442    4.3698953    4.3698953    4.3698953   -12480.442   -5.2942083   -21936.218   -15499.815    1703.6306    16512.633    5140.6904    83.447453 
   13200    798.62207   -107.55608   0.72261003   -106.83347    9581.0129    4.3737154    4.3737154    4.3737154    9581.0129    40455.139   -43727.062    32014.962    3238.9452    27020.468   -6606.1489    83.666492 
   13300    1673.9482    -108.3435    1.5146235   -106.82887   -19975.212    4.3608248    4.3608248    4.3608248   -19975.212    12902.766    -41041.41   -31786.991   -7833.2141    -3219.448    2136.8367    82.928901 
   13400    1074.9774   -107.82747   0.97266216   -106.85481    17178.137    4.3548181    4.3548181    4.3548181    17178.137    26137.941    3256.9201    22139.551    8191.0225    11699.351   -2169.2244    82.586688 
   13500     1292.577   -108.04005    1.1695509    -106.8705   -14532.492    4.3742446    4.3742446    4.3742446   -14532.492    31836.673   -38022.954   -37411.194    2977.7021    4987.1172    2783.4142    83.696865 
   13600    1292.8545   -108.02742     1.169802   -106.85762    -16228.79    4.3745837    4.3745837    4.3745837    -16228.79    17983.518   -31338.062   -35331.827    8317.2404   -875.97401    3839.9387    83.716335 
   13700    1002.9185   -107.75327   0.90746176   -106.84581     15320.64    4.3553136    4.3553136    4.3553136     15320.64    41719.949    13500.432   -9258.4626   -10943.675    22281.409    618.18045    82.614884 
   13800    1484.8907    -108.1906    1.3435603   -106.84704   -6379.1017    4.3645694    4.3645694    4.3645694   -6379.1017    14052.568   -15736.096   -17453.776   -5614.6127   -39.644623   -3395.7004    83.142715 
   13900    869.41498   -107.63708   0.78666494   -106.85042   -9174.3913    4.3744109    4.3744109    4.3744109   -9174.3913   -5989.2428   -17357.412   -4176.5194    15863.679    12560.496    2609.2023    83.706411 
   14000    1291.8165    -108.0146    1.1688627   -106.84574    13954.148    4.3605408    4.3605408    4.3605408    13954.148    56078.653   -10463.422    -3752.786    3962.1668    7809.4642    6794.4794      82.9127 
   14100    1168.9141    -107.9196    1.0576581   -106.86194   -11273.514    4.3689335    4.3689335    4.3689335   -11273.514   -583.55967   -45976.692    12739.709    4241.8533   -8729.3745     591.4412    83.392369 
   14200    1016.6741   -107.77839   0.91990811   -106.85848    15187.958    4.3640541    4.3640541    4.3640541    15187.958    51789.059    7835.2825   -14060.469      1182.85    31875.337     2754.142    83.113271 
   14300     1308.507    -108.0374    1.1839646   -106.85343   -5236.6638    4.3729714    4.3729714    4.3729714   -5236.6638    46214.359   -38570.847   -23353.503    6860.0155   -1808.8021    1348.6933    83.623803 
   14400    1371.8329   -108.08273    1.2412632   -106.84147   -27856.849    4.3727012    4.3727012    4.3727012   -27856.849   -28602.409   -52325.012   -2643.1279    3977.3385    9434.4351   -5610.2165    83.608301 
   14500    910.11608   -107.66844   0.82349215   -106.84494    29084.505    4.3500162    4.3500162    4.3500162    29084.505    55376.671    15101.435    16775.409    8890.7968    31456.955   -130.51159    82.313792 
   14600    1260.0072   -108.00507     1.140081   -106.86499   -6846.0697     4.364601     4.364601     4.364601   -6846.0697   -20763.829    88.265147    137.35498     678.4909   -12671.189   -19413.406     83.14452 
   14700    1061.5686   -107.81635   0.96052955   -106.85582   -33768.162    4.3895813    4.3895813    4.3895813   -33768.162   -29371.103   -31010.206   -40923.176   -4252.9804     25988.23    6422.5792    84.580312 
   14800    1333.6164   -108.04214    1.2066842   -106.83545    807.45863    4.3621319    4.3621319    4.3621319    807.45863   -8175.3282     4555.266    6042.4381   -5054.4577   -13808.307     8529.893    83.003495 
   14900    1381.4632    -108.0835     1.249977   -106.83352    12514.222    4.3464255    4.3464255    4.3464255    12514.222    9145.9262    4908.1373    23488.602    2034.8027    8477.0548   -4048.6019    82.110124 
   15000    910.06169   -107.69112   0.82344294   -106.86768    7294.0868    4.3687904    4.3687904    4.3687904    7294.0868    32485.391   -3623.6592   -6979.4713   -1533.3799    19227.161    8840.5361    83.384175 
   15100    1348.9767   -108.06817    1.2205825   -106.84759   -9707.8334    4.3835714    4.3835714    4.3835714   -9707.8334    -6887.525   -11209.841   -11026.134    -7666.115    3720.0262    622.41436    84.233387 
   15200    926.97533   -107.67435   0.83874676   -106.83561    11287.474    4.3668759    4.3668759    4.3668759    11287.474    46139.515   -11394.425   -882.66847    5316.4897    10966.182    3757.0059    83.274597 
   15300     1461.916   -108.16737    1.3227723    -106.8446   -16442.977    4.3459493    4.3459493    4.3459493   -16442.977   -26499.921    -14118.07   -8710.9412   -17216.225    23583.446   -3556.1161    82.083144 
   15400    1115.0461    -107.8815    1.0089172   -106.87258    14443.106    4.3532342    4.3532342    4.3532342    14443.106   -2981.2745    5003.1613    41307.433    4648.9789   -11443.191    1707.4859     82.49661 
   15500    994.34623   -107.77016   0.89970537   -106.87046   -19264.916    4.3748875    4.3748875    4.3748875   -19264.916   -3881.1971   -18525.069   -35388.482     832.3053     17285.03    9061.5169    83.733772 
   15600    1343.1429    -108.0624    1.2153039    -106.8471   -5094.2369    4.3584247    4.3584247    4.3584247   -5094.2369   -40227.732   -14302.257    39247.278   -6810.8124   -13699.915    -4569.345    82.792049 
   15700    1031.1824   -107.77875   0.93303554   -106.84572    22941.273    4.3510481    4.3510481    4.3510481    22941.273    53414.453    34413.518   -19004.151    4558.2034    3513.2978   -1521.5763     82.37239 
   15800    1390.0574   -108.11131    1.2577531   -106.85356   -13124.282    4.3606468    4.3606468    4.3606468   -13124.282   -34958.121   -7422.5884    3007.8644   -7768.6421    3657.0313   -10636.092    82.918749 
   15900    978.03366   -107.74148    0.8849454   -106.85653   -9912.0297    4.3825152    4.3825152    4.3825152   -9912.0297    1939.8583   -8855.8666   -22820.081   -6072.0911     4580.463   -4070.4369    84.172516 
   16000    1525.5856    -108.2234    1.3803819   -106.84302    -21151.27    4.3618633    4.3618633    4.3618633    -21151.27    2214.6443    -22675.42   -42993.035   -7830.3433    8820.3448    9920.2915    82.988163 
   16100    1230.0775   -107.95699        1.113   -106.84399    26983.415    4.3426642    4.3426642    4.3426642    26983.415   -16293.611    65474.377    31769.478   -16790.374    4232.7894    5312.6549    81.897141 
   16200    1025.7052   -107.79004   0.92807966   -106.86196   -504.70624    4.3689799    4.3689799    4.3689799   -504.70624    30906.835   -16621.685   -15799.269   -3443.5227    -317.6715     10070.79    83.395026 
   16300    853.26042   -107.62681   0.77204796   -106.85476    6350.9415    4.3637889    4.3637889    4.3637889    6350.9415    -25973.78    55997.532   -10970.928   -5836.8397     18885.28    18574.674    83.098118 
   16400     1010.491   -107.76889   0.91431353   -106.85458   -2621.9224     4.357757     4.357757     4.357757   -2621.9224   -30403.532   -22278.305     44816.07   -24401.941   -14526.267   -1135.1572    82.754005 
   16500    1476.1235   -108.18292    1.3356276   -106.84729     5806.116     4.356174     4.356174     4.356174     5806.116    26053.573   -14451.604    5816.3795    339.91791    9489.1088   -2924.1534    82.663855 
   16600    1084.3508   -107.83534   0.98114335   -106.85419   -17127.276     4.375307     4.375307     4.375307   -17127.276   -46057.045   -27715.048    22390.265    -23068.39   -470.44128    2723.1052    83.757867 
   16700    1166.1958    -107.8888    1.0551984    -106.8336   -18850.096     4.374434     4.374434     4.374434   -18850.096   -7682.9589    -23528.69    -25338.64   -3563.1611   -8189.0477   -13177.419    83.707737 
   16800    999.31065   -107.71986   0.90419728   -106.81567    23658.104    4.3431573    4.3431573    4.3431573    23658.104    16068.176     56291.71   -1385.5748   -17622.984   -2738.5389   -9529.8034     81.92504 
   16900    1214.8568   -107.94991    1.0992279   -106.85068   -4587.7159     4.361016     4.361016     4.361016   -4587.7159   -12041.954   -21700.085    19978.892   -14990.475    242.33435    12584.005    82.939812 
   17000      1301.79   -108.02108    1.1778869   -106.84319   -9414.9135    4.3718392    4.3718392    4.3718392   -9414.9135    4353.2663    13207.229   -45805.236       1997.6   -3033.9602     -18065.7    83.558865 
   17100    1068.7697   -107.80497   0.96704532   -106.83792    8367.8784    4.3538651    4.3538651    4.3538651    8367.8784    9252.6881    17468.127   -1617.1797   -11842.343    5497.4091    13649.156    82.532484 
   17200    1260.4341   -107.98473    1.1404673   -106.84426   -5810.5067    4.3671008    4.3671008    4.3671008   -5810.5067    8918.8859   -6977.4137   -19372.992   -4857.0007    2363.0654   -16724.234    83.287465 
   17300    1015.6278   -107.76209   0.91896141   -106.84312    1515.3481    4.3685546    4.3685546    4.3685546    1515.3481    23558.997    5479.4524   -24492.405   -8770.4853   -11024.022   -18365.117     83.37067 
   17400    1145.3487   -107.88277    1.0363356   -106.84644   -265.00499    4.3587643    4.3587643    4.3587643   -265.00499   -23197.865   -15467.524    37870.373   -17703.504    14827.624    -6766.341    82.811406 
   17500     1235.339   -107.95547    1.1177607   -106.83771    6219.6024    4.3703423    4.3703423    4.3703423    6219.6024   -12660.833    18722.721    12596.918    5504.7671   -12559.331   -8425.5344    83.473067 
   17600     828.3452   -107.58127   0.74950414   -106.83176   -648.55566    4.3732682    4.3732682    4.3732682   -648.55566    2569.0174    3304.4757   -7819.1601    -12896.93    1234.6026    13482.339    83.640828 
   17700    1157.3562    -107.8759    1.0472002    -106.8287    6350.4161    4.3652401    4.3652401    4.3652401    6350.4161   -43768.788    79634.474   -16814.438   -11853.492    4430.0149    6126.1289    83.181053 
   17800    1466.5382   -108.16334    1.3269546   -106.83639   -19739.327    4.3734413    4.3734413    4.3734413   -19739.327   -33679.385   -25454.383   -84.214917    2586.8779   -2456.9642    2726.8507    83.650764 
   17900    733.45261   -107.51326   0.66364334   -106.84961   -4100.1033     4.363525     4.363525     4.363525   -4100.1033   -23320.316     8785.555    2234.4514   -27646.639    4335.5226    -4555.612    83.083043 
   18000    1685.9759   -108.36471    1.5255064   -106.83921    10916.204    4.3556522    4.3556522    4.3556522    10916.204   -3822.6714    23034.995    13536.288     4966.969    1669.6884   -1563.2128    82.634153 
   18100    665.31503   -107.46352   0.60199102   -106.86153    5367.7568    4.3738657    4.3738657    4.3738657    5367.7568   -50348.741    52800.008    13652.003   -10453.338    5586.9086    13045.119    83.675116 
   18200    1231.3375   -107.97059    1.1141401   -106.85645   -10753.367    4.3694659    4.3694659    4.3694659   -10753.367   -52716.291    49188.466   -28732.274    -2271.584     5856.898    2598.8257     83.42286 
   18300     1560.843   -108.26506    1.4122835   -106.85278   -13439.874    4.3754762    4.3754762    4.3754762   -13439.874   -34399.673   -14683.573    8763.6232    5576.2141   -11892.625    8699.6145    83.767583 
   18400    822.02711    -107.6091    0.7437874   -106.86531   -4864.2291    4.3715309    4.3715309    4.3715309   -4864.2291   -51669.287    74959.018   -37882.419   -23468.873    9411.0508    1117.0275    83.541188 
   18500    1114.4944   -107.86672     1.008418    -106.8583    32283.493    4.3663125    4.3663125    4.3663125    32283.493   -20051.796    95111.497    21790.778   -8981.1096   -1884.0465   -7182.9226     83.24237 
   18600    1591.5651   -108.29698    1.4400816   -106.85689   -29407.242    4.3780601    4.3780601    4.3780601   -29407.242   -47154.344    1716.8581   -42784.241    -19836.24    2003.3982   -22400.684    83.916075 
   18700    1110.8817   -107.86332    1.0051491   -106.85817   -23350.898    4.3676346    4.3676346    4.3676346   -23350.898   -47721.878   -17250.979   -5079.8364   -21920.446    627.00192    1912.8986    83.318013 
   18800    1299.4063   -108.02992    1.1757301   -106.85419      33577.9    4.3547625    4.3547625    4.3547625      33577.9   -4861.9131    100283.62    5311.9919    14057.903   -10235.132    1964.3571    82.583529 
   18900    830.92456   -107.62038   0.75183801   -106.86854    15651.287    4.3770295    4.3770295    4.3770295    15651.287   -20895.328    66998.354    850.83396    7551.6269    -3133.051    15063.412    83.856825 
   19000    1342.4488   -108.06593    1.2146759   -106.85126   -30238.874    4.3847509    4.3847509    4.3847509   -30238.874   -17842.058   -43576.798   -29297.765   -8817.4261   -16118.013   -5285.0368    84.301396 
   19100         1407   -108.10922    1.2730832   -106.83613     18855.03    4.3671727    4.3671727    4.3671727     18855.03    17207.241     22625.65    16732.199   -620.78719   -2190.1906   -8469.1418    83.291581 
   19200    833.65213   -107.59783   0.75430596   -106.84353    20925.175     4.362072     4.362072     4.362072    20925.175   -15757.584    51997.138     26535.97   -22891.959   -16833.232   -12696.979    83.000076 
   19300    826.56363   -107.59347   0.74789214   -106.84558    21215.464    4.3860367    4.3860367    4.3860367    21215.464    49291.177    56144.728   -41789.512   -16877.017   -10742.891   -7063.0131    84.375583 
   19400    1536.6493   -108.21824    1.3903926   -106.82785   -14662.699    4.3808493    4.3808493    4.3808493   -14662.699   -17699.838    13306.487   -39594.746    -5739.425   -2498.0298   -11203.743    84.076562 
   19500    676.16044   -107.43912   0.61180417   -106.82732    21159.586    4.3446169    4.3446169    4.3446169    21159.586    27059.801    29876.404    6542.5535   -18363.718   -8769.6896   -14936.855    82.007669 
   19600    1637.5919   -108.32455    1.4817275   -106.84282    6955.6648    4.3541607    4.3541607    4.3541607    6955.6648   -7323.6995    3303.8618    24886.832     10912.19   -7786.0944    -11595.51    82.549291 
   19700    990.70288   -107.74988   0.89640879   -106.85347   -12391.271    4.3890078    4.3890078    4.3890078   -12391.271    3448.2243   -56624.796    16002.759    -6894.747    2134.2945     4678.464    84.547167 
   19800    1172.8974   -107.90423    1.0612622   -106.84296   -27922.546    4.3734442    4.3734442    4.3734442   -27922.546   -18715.092   -35350.653   -29701.895   -10558.871    7697.9876   -5003.2226    83.650931 
   19900    1505.1498    -108.1811    1.3618912   -106.81921    49466.619    4.3295695    4.3295695    4.3295695    49466.619    53565.392    21939.361    72895.103    8062.1064   -11.853896    3831.7155    81.158528 
   20000    1184.2294   -107.93851    1.0715156   -106.86699   -14019.446    4.3607754    4.3607754    4.3607754   -14019.446    4148.6358   -48121.293    1914.3198   -30775.458   -9819.1263   -2366.9647    82.926085 
   20100    1005.5107   -107.75859   0.90980722   -106.84879    -31932.33     4.384106     4.384106     4.384106    -31932.33   -40639.157    -30834.82   -24323.013   -93.107395    7488.9554    437.89747    84.264206 
   20200    1385.1805   -108.08771    1.2533404   -106.83437    6806.0392    4.3540155    4.3540155    4.3540155    6806.0392   -1594.7281   -5061.9956    27074.841   -6742.5369    10929.251    5957.2042    82.541038 
   20300    1114.8572   -107.85497    1.0087462   -106.84622    12910.328    4.3510345    4.3510345    4.3510345    12910.328    63551.564   -33310.498    8489.9186   -5324.4897   -2750.0395     4383.148    82.371614 
   20400     1191.854   -107.93396    1.0784145   -106.85555   -12952.182    4.3700201    4.3700201    4.3700201   -12952.182    1401.7784   -27490.639   -12767.687     1967.371   -1927.7484     2644.082    83.454602 
   20500    1314.0312   -108.03373    1.1889631   -106.84476   -13664.796    4.3694486    4.3694486    4.3694486   -13664.796    1397.3073    -41509.04   -882.65492   -2590.6009    1061.3534   -3273.1759    83.421864 
   20600     1445.307    -108.1461    1.3077441   -106.83836   -9333.3455    4.3561403    4.3561403    4.3561403   -9333.3455   -17824.553   -38913.292    28737.809     -2416.37   -5959.5027     16690.82    82.661937 
   20700    757.43809   -107.54705    0.6853459   -106.86171    25908.819    4.3592759    4.3592759    4.3592759    25908.819    78764.889   -28118.923    27080.491    225.76515    8966.2369   -11842.242    82.840569 
   20800    1206.3034   -107.95907    1.0914887   -106.86758   -21968.336    4.3699676    4.3699676    4.3699676   -21968.336    3784.4473   -40290.175    -29399.28   -9475.6244    8249.7364    6808.2463    83.451598 
   20900    1351.8954   -108.07462    1.2232233    -106.8514    4775.0319    4.3674856    4.3674856    4.3674856    4775.0319    13974.104   -32025.959    32376.951    1042.6325   -29824.052    4073.6392    83.309483 
   21000    1241.5446   -107.96829    1.1233756   -106.84492   -5683.3967    4.3580219    4.3580219    4.3580219   -5683.3967   -20541.223   -19023.156    22514.188   -17871.386    23336.378   -5341.3156    82.769098 
   21100     985.6824   -107.74146   0.89186615   -106.84959    14414.362    4.3629406    4.3629406    4.3629406    14414.362   -2415.6468   -33210.484    78869.218   -6301.9086    13467.841    10797.281    83.049669 
   21200    1565.6448   -108.25621    1.4166284   -106.83958   -15500.228    4.3782175    4.3782175    4.3782175   -15500.228     3859.393   -20821.047    -29539.03    -8213.901    15656.579   -1955.7806    83.925124 
   21300    841.74962   -107.59998   0.76163274   -106.83834   -693.19449     4.372195     4.372195     4.372195   -693.19449    21609.051   -27063.813    3375.1787   -18554.187    10707.296    7432.1558    83.579267 
   21400    1567.3389   -108.24579    1.4181612   -106.82763   -5841.6989    4.3594262    4.3594262    4.3594262   -5841.6989    1343.8339   -30582.527    11713.597   -3620.9483   -4894.2722    8132.0211    82.849138 
   21500    1132.3477    -107.8612     1.024572   -106.83663    33794.207    4.3419123    4.3419123    4.3419123    33794.207    47011.054   -8072.9596    62444.528   -10514.879    8062.0026   -9832.3427    81.854607 
   21600    931.40159    -107.7107   0.84275173   -106.86795   -10784.104     4.364951     4.364951     4.364951   -10784.104   -17404.785   -33030.718    18083.191   -1458.4241    11428.492    15799.455    83.164526 
   21700    1547.2902   -108.25115    1.4000207   -106.85113   -19845.006    4.3714766    4.3714766    4.3714766   -19845.006    968.83079   -40429.134   -20074.715    8339.5806   -10911.174   -8532.2912    83.538078 
   21800     1021.857   -107.77024   0.92459773   -106.84564    311.43254    4.3548104    4.3548104    4.3548104    311.43254     14888.57   -24318.611    10364.338    -12113.91    5212.0234     2552.703     82.58625 
   21900    1131.5334   -107.87251    1.0238352   -106.84867   -9035.5716    4.3518416    4.3518416    4.3518416   -9035.5716      27586.6   -42081.469   -12611.846    4067.6283    10435.248    5135.2797     82.41746 
   22000    1124.3885   -107.87199    1.0173704   -106.85462    8613.3284    4.3527426    4.3527426    4.3527426    8613.3284    14114.437   -9716.3076    21441.856    1350.1355   -9596.5294   -847.07373    82.468666 
   22100    1119.6847   -107.87441    1.0131142    -106.8613    -21199.35    4.3749729    4.3749729    4.3749729    -21199.35    5947.7752   -45696.274   -23849.552   -2760.2465    8004.7545    5158.9939    83.738678 
   22200    1224.7341   -107.95903    1.1081652   -106.85086   -10530.186    4.3605953    4.3605953    4.3605953   -10530.186    27844.511   -54811.608   -4623.4625    2571.0177   -1020.0467    2991.3938    82.915808 
   22300    1249.4664   -107.98061    1.1305434   -106.85007   -5364.2297    4.3393688    4.3393688    4.3393688   -5364.2297    6773.5179   -23198.136    331.92867   -8928.7214   -33811.057   -3605.3788    81.710844 
   22400    1106.3382   -107.87441     1.001038   -106.87337     1783.045    4.3574166    4.3574166    4.3574166     1783.045    64854.169   -42823.911   -16681.123    5500.6229    1400.7815    24208.579    82.734615 
   22500    1320.3182   -108.06566    1.1946517   -106.87101   -36213.232    4.3753804    4.3753804    4.3753804   -36213.232    -30284.09   -47591.313   -30764.294   -418.33391    2226.4122    -16975.95    83.762081 
   22600    705.76544   -107.50831    0.6385914   -106.86972    4232.8038    4.3563903    4.3563903    4.3563903    4232.8038    75515.724   -55257.783   -7559.5288   -1317.3093   -15974.158    24338.939     82.67617 
   22700     1862.855   -108.54132    1.6855504   -106.85577   -3512.0817    4.3430253    4.3430253    4.3430253   -3512.0817    19961.589   -17236.612   -13261.222   -7703.8356    9090.5504   -4276.4399    81.917573 
   22800    791.15285   -107.59817   0.71585172   -106.88232    21981.259    4.3569832    4.3569832    4.3569832    21981.259     85660.53   -33883.135    14166.383   -4343.9545   -8583.1339    653.68383     82.70993 
   22900    1270.2608   -108.02299    1.1493587   -106.87363   -48470.398    4.3782759    4.3782759    4.3782759   -48470.398   -50061.329   -58578.582   -36771.284   -11468.488   -15439.699    18421.239    83.928481 
   23000    1270.0217   -107.99823    1.1491423   -106.84909    23766.779    4.3597089    4.3597089    4.3597089    23766.779    47417.615   -21281.993    45164.715    7558.1643    3921.6699    -8552.856    82.865257 
   23100    970.11674   -107.73537   0.87778201   -106.85759   -11050.914    4.3477097    4.3477097    4.3477097   -11050.914    16018.617   -34996.485   -14174.873     -7149.71   -9706.1948    10871.373    82.182927 
   23200    1179.4692   -107.94192    1.0672086   -106.87472     6075.436     4.359729     4.359729     4.359729     6075.436    29139.185   -23583.815    12670.937    16256.947   -7563.8251    1907.4354    82.866401 
   23300    1651.9359   -108.36185    1.4947063   -106.86714   -26039.446     4.374988     4.374988     4.374988   -26039.446    2098.7699   -55058.438    -25158.67    429.89398    3791.5052     532.4266    83.739547 
   23400    819.91976   -107.60152   0.74188063   -106.85964   -15964.865    4.3693775    4.3693775    4.3693775   -15964.865   -16555.053   -30942.979   -396.56429   -19553.428   -16408.595    14345.419    83.417795 
   23500     1551.705   -108.24765    1.4040153   -106.84364    3406.1898    4.3534651    4.3534651    4.3534651    3406.1898    35646.698   -855.56864   -24572.559    2888.2312    5712.0276   -3681.9459    82.509734 
   23600    887.89265   -107.66413   0.80338393   -106.86075    39042.503    4.3548609    4.3548609    4.3548609    39042.503      42422.1    59306.418    15398.991   -20566.241   -533.55438    6785.1163    82.589123 
   23700    947.36532   -107.72271   0.85719605   -106.86551   -23457.739    4.3828914    4.3828914    4.3828914   -23457.739   -29884.556   -8955.4326    -31533.23   -2905.4876   -7450.2488    10250.169    84.194192 
   23800    1421.0977   -108.11935    1.2858391   -106.83352    5894.4705    4.3714094    4.3714094    4.3714094    5894.4705   -321.04912    45628.867   -27624.406   -13846.061    6657.0455    761.21781    83.534222 
   23900    1050.6819   -107.78442   0.95067907   -106.83374   -224.84619    4.3465161    4.3465161    4.3465161   -224.84619   -19259.011    27328.336   -8743.8633   -1516.0991   -16072.605    28982.392    82.115264 
   24000    1611.0018    -108.3125    1.4576683   -106.85483   -8704.7476    4.3599903    4.3599903    4.3599903   -8704.7476     -24165.9    9123.3217   -11071.665    14899.889    1805.8156    1907.3779    82.881301 
   24100    1144.0291   -107.88626    1.0351416   -106.85111   -23421.681    4.3855656    4.3855656    4.3855656   -23421.681   -46900.072    12800.838   -36165.809    6449.4107     687.7108    7582.4629    84.348395 
   24200    1324.2845   -108.04238    1.1982404   -106.84414   -15088.375    4.3478148    4.3478148    4.3478148   -15088.375    -30600.18    10965.581   -25630.527    8644.2674   -20185.031    4951.7483    82.188889 
   24300    1243.3052   -107.96993    1.1249687   -106.84496    35215.484    4.3376573    4.3376573    4.3376573    35215.484    13535.124    56274.839     35836.49   -3271.4069    8982.0275    471.52223    81.614195 
   24400    1126.4949   -107.87432    1.0192762   -106.85504   -11092.229    4.3717401    4.3717401    4.3717401   -11092.229   -22237.072     35490.57   -46530.187   -436.71887   -10739.576   -6898.2159    83.553186 
   24500    1046.1814   -107.80004   0.94660691   -106.85343   -1083.2955    4.3688082    4.3688082    4.3688082   -1083.2955     47730.59   -23655.675   -27324.802    -24653.19   -6311.1512    5617.0977    83.385192 
   24600    969.59619   -107.72795   0.87731101   -106.85064     17399.62    4.3484117    4.3484117    4.3484117     17399.62    20655.009    16463.595    15080.255    10630.214   -2880.0636   -2151.3452    82.222742 
   24700    1406.3146   -108.12872     1.272463   -106.85626   -2573.1892    4.3554176    4.3554176    4.3554176   -2573.1892    17205.241   -8414.4249   -16510.384    1984.7787   -23500.393      -4763.6    82.620801 
   24800    1114.0393   -107.85133    1.0080062   -106.84332   -23141.699    4.3852058    4.3852058    4.3852058   -23141.699   -49290.092   -25580.271    5445.2654    3668.2224    2308.4191    10918.211    84.327641 
   24900    1627.9875   -108.29643    1.4730373   -106.82339   -22887.877    4.3619541    4.3619541    4.3619541   -22887.877   -31721.238   -19956.792   -16985.601      21766.6   -15607.675   -8671.0421    82.993345 
   25000    1194.8288   -107.90615    1.0811062   -106.82505     22899.96    4.3430671    4.3430671    4.3430671     22899.96     21344.28    2310.5361    45045.062   -8312.4307   -3381.9852    1067.7937    81.919939 
   25100    1089.1076   -107.83713   0.98544745   -106.85168    14628.347    4.3533745    4.3533745    4.3533745    14628.347    25584.604    26755.341   -8454.9037    3587.8602    5702.5299    7251.4424    82.504587 
   25200    1095.8817   -107.84901   0.99157683   -106.85744    9603.2215    4.3759368    4.3759368    4.3759368    9603.2215    30522.585   -6936.6767    5223.7567    14275.374   -15110.619   -12339.876     83.79404 
   25300    1593.8189   -108.28734    1.4421208   -106.84522   -32092.157    4.3661843    4.3661843    4.3661843   -32092.157   -44073.888    -30484.03   -21718.554   -20932.832    2192.3877    12471.576    83.235037 
   25400    857.26594   -107.61666   0.77567223   -106.84099    37604.517    4.3335514    4.3335514    4.3335514    37604.517    33602.309    20284.546    58926.695    11258.265     1997.496   -7649.3282    81.382658 
   25500     1661.196   -108.36573     1.503085   -106.86265    -7151.789    4.3571588    4.3571588    4.3571588    -7151.789    35502.692   -31272.032   -25686.027    9934.8337   -4194.5262    4401.3552    82.719932 
   25600    729.77533   -107.52213   0.66031606   -106.86182   -4138.4092    4.3792117    4.3792117    4.3792117   -4138.4092   -13497.726   -14220.318    15302.817     416.4343    23432.107    5628.5272    83.982312 
   25700    1387.6742   -108.10123    1.2555968   -106.84563    -19341.66    4.3556944    4.3556944    4.3556944    -19341.66   -35358.785   -19587.112    -3079.083    23556.281    5651.7005   -4531.5607    82.636555 
   25800    1257.0803   -107.97734    1.1374327   -106.83991    30123.247    4.3399957    4.3399957    4.3399957    30123.247    37569.951   -2419.8137    55219.603   -3991.0181    4568.5563    4880.1237     81.74626 
   25900    1135.0838   -107.89534    1.0270476    -106.8683    -31457.26     4.358628     4.358628     4.358628    -31457.26   -45279.827    -41868.73   -7223.2244    6624.3498    14010.193   -3820.4429    82.803635 
   26000    1279.3222   -108.02242    1.1575576   -106.86486   -9171.8885    4.3655379    4.3655379    4.3655379   -9171.8885    5893.4335   -28626.517   -4782.5819    19681.135   -466.42792   -22884.053    83.198077 
   26100    1311.7907      -108.04    1.1869358   -106.85306    29734.322    4.3435594    4.3435594    4.3435594    29734.322    19130.935    32751.658    37320.373   -2969.2243   -7606.6186    3440.0468    81.947801 
   26200    780.48737   -107.57584   0.70620137   -106.86963   -14210.986    4.3567661    4.3567661    4.3567661   -14210.986   -36781.668       -16042    10190.711    29190.746    11316.116   -9580.1847    82.697568 
   26300     1479.354   -108.18989    1.3385506   -106.85134   -18154.188    4.3667697    4.3667697    4.3667697   -18154.188   -14021.455   -4060.0071   -36381.102   -208.25593   -5764.2219   -11007.694    83.268526 
   26400    1316.2975   -108.03736    1.1910136   -106.84635    8461.6302    4.3546579    4.3546579    4.3546579    8461.6302    -30906.03    59924.954   -3634.0334    1512.6984   -53.492501    10287.477    82.577577 
   26500    1233.7998   -107.97226     1.116368   -106.85589   -12342.292    4.3503344    4.3503344    4.3503344   -12342.292   -32875.344    5112.1957   -9263.7272   -4082.6527    11807.157   -20842.941    82.331857 
   26600    1292.9112    -108.0317    1.1698532   -106.86184   -13813.504    4.3616596    4.3616596    4.3616596   -13813.504   -13482.477    17528.519   -45486.555   -1580.7466   -13349.767   -7031.5252    82.976539 
   26700    1440.6878   -108.15467    1.3035646    -106.8511    18920.602    4.3519642    4.3519642    4.3519642    18920.602    -19798.33    68529.583    8030.5523    4891.6901    10836.149    3771.2247    82.424426 
   26800    872.37064   -107.65049   0.78933929   -106.86115    8554.0711    4.3588378    4.3588378    4.3588378    8554.0711    10784.209    27426.315   -12548.311     18111.81   -4196.0214   -19477.355    82.815597 
   26900    1335.1001    -108.0539    1.2080266   -106.84587   -16027.024    4.3695343    4.3695343    4.3695343   -16027.024   -2254.6979   -10.777087   -45815.596    1387.6825   -11284.754    1933.8267    83.426777 
   27000    1388.8786      -108.09    1.2566866   -106.83332    9108.6692    4.3527594    4.3527594    4.3527594    9108.6692     16354.41    1669.2541    9302.3431     11714.24    9048.4123    10037.748    82.469619 
   27100    805.42062   -107.58966    0.7287615    -106.8609   -5942.0075    4.3445554    4.3445554    4.3445554   -5942.0075   -2486.7926    3898.4476   -19237.678   -6685.8389    -19814.08   -28303.612    82.004183 
   27200    1018.4142   -107.79918   0.92148258    -106.8777    39904.542      4.33915      4.33915      4.33915    39904.542    1466.7768    92814.371    25432.477   -6174.4191    4754.5236    27370.354     81.69848 
   27300    1610.0633   -108.33663    1.4568191   -106.87981   -17844.896    4.3628006    4.3628006    4.3628006   -17844.896   -23692.147   -9315.5958   -20526.946   -1760.3645    1718.5428   -12223.743    83.041674 
   27400    1248.0815   -107.98967    1.1292903   -106.86038   -10643.643    4.3549506    4.3549506    4.3549506   -10643.643   -19045.525    22425.089   -35310.493   -2267.7573   -16246.167   -20627.854    82.594228 
   27500    1267.7972   -107.99682    1.1471296   -106.84969   -3741.9831    4.3433042    4.3433042    4.3433042   -3741.9831   -16673.552    15252.231   -9804.6289   -12685.352    14142.144    4218.0315    81.933359 
   27600    1220.9089   -107.96476     1.104704   -106.86005   -2174.6713     4.349508     4.349508     4.349508   -2174.6713     -37984.3    48981.328   -17521.042    5443.8663    3536.0335   -1016.9579    82.284951 
   27700    1360.1715   -108.09442    1.2307118   -106.86371    4495.3242    4.3510231    4.3510231    4.3510231    4495.3242      4781.03    26303.697   -17598.754   -3312.7118   -11251.524   -10895.588    82.370968 
   27800    856.95197   -107.64219   0.77538815    -106.8668    -14923.09    4.3642916    4.3642916    4.3642916    -14923.09   -23223.402   -13725.733   -7820.1367   -4379.4648    12925.438    15560.195     83.12684 
   27900    1238.9515   -107.97321    1.1210294   -106.85219   -11851.743     4.350875     4.350875     4.350875   -11851.743   -8526.8255    7044.5106   -34072.913    11917.743   -10483.749   -1327.7142    82.362559 
   28000    1261.2697   -107.98875    1.1412233   -106.84752    12692.217    4.3432115    4.3432115    4.3432115    12692.217    4387.8118    12705.477    20983.361   -8373.8812   -5137.9744   -3740.3211    81.928108 
   28100    1144.0818   -107.89236    1.0351892   -106.85718   -24366.082     4.354046     4.354046     4.354046   -24366.082   -26541.493    -13454.61   -33102.144    8315.0714    20025.981    8651.0083     82.54277 
   28200    861.84401   -107.64018   0.77981457   -106.86036    10772.125    4.3513944    4.3513944    4.3513944    10772.125   -16270.915    37062.917    11524.373     5333.745   -23597.107    9252.4115    82.392054 
   28300    1536.1992   -108.24657    1.3899853   -106.85658    4390.9017     4.351246     4.351246     4.351246    4390.9017   -5421.3617    22620.766   -4026.6993   -768.75829     4116.113   -6028.0535    82.383625 
   28400    783.86499   -107.57345   0.70925752   -106.86419    6857.0461    4.3564889    4.3564889    4.3564889    6857.0461   -28886.628    31560.666    17897.101    3146.6822    2100.0853    8016.9989    82.681782 
   28500    1362.1135   -108.08504    1.2324689   -106.85257    2912.5904    4.3529999    4.3529999    4.3529999    2912.5904   -16125.355    41412.083   -16548.957   -726.31574   -11137.034   -6687.0164    82.483289 
   28600    1384.1638   -108.10048    1.2524205   -106.84806    14041.783    4.3461166    4.3461166    4.3461166    14041.783    10749.224    6390.3664    24985.757   -4630.4577    2391.5464   -3050.7468    82.092622 
   28700    620.25067   -107.42248   0.56121584   -106.86126   -5449.4964    4.3554513    4.3554513    4.3554513   -5449.4964   -35894.548    36160.475   -16614.416     5422.645    1220.9584    9013.1816    82.622717 
   28800    1609.6818   -108.31014    1.4564739   -106.85366   -16621.684    4.3538687    4.3538687    4.3538687   -16621.684   -3016.8107   -18145.557   -28702.683    -385.1706    -3206.809   -6542.7866    82.532687 
   28900    854.20299   -107.63483   0.77290082   -106.86193    22099.518    4.3501813    4.3501813    4.3501813    22099.518   -10092.836    45991.156    30400.234   -7920.5699    1973.9777   -8150.4228    82.323168 
   29000    1383.8072   -108.11066    1.2520978   -106.85856   -16419.104    4.3506648    4.3506648    4.3506648   -16419.104    -33522.05    8994.3144   -24729.576    5374.5317   -3933.5353    1243.3099     82.35062 
   29100    957.43743   -107.72228    0.8663095   -106.85597    17071.282    4.3526637    4.3526637    4.3526637    17071.282    17072.583    1945.9562    32195.307    4522.9799   -1738.4138   -29990.887    82.464177 
   29200    1192.1148   -107.92872    1.0786505   -106.85006   -21078.167    4.3543646    4.3543646    4.3543646   -21078.167   -21956.569   -9859.7025   -31418.231    4718.6237    -1496.993    6507.6954    82.560889 
   29300    1044.5113   -107.79485   0.94509574   -106.84975    489.67456     4.354219     4.354219     4.354219    489.67456   -24207.844    5779.1821    19897.685    7210.6011   -7778.7765   -9366.7321    82.552608 
   29400    1420.1851   -108.12866    1.2850133   -106.84365   -4984.1059    4.3501349    4.3501349    4.3501349   -4984.1059    4155.8892   -11327.445   -7780.7616    1104.4076   -1593.0317   -22718.505     82.32053 
   29500    1066.9471   -107.81445   0.96539616   -106.84905   -13802.873    4.3542168    4.3542168    4.3542168   -13802.873   -19051.801   -9690.4422   -12666.375    3104.3002   -2581.5572    22447.374    82.552487 
   29600    845.54171     -107.614   0.76506391   -106.84894   -499.15403    4.3584086    4.3584086    4.3584086   -499.15403   -23297.961   -24221.079    46021.578    3348.4789    5224.2067   -28149.035    82.791135 
   29700    1498.8648   -108.20368    1.3562044   -106.84747   -3462.9865    4.3437218    4.3437218    4.3437218   -3462.9865    4060.6739   -23791.149    9341.5157   -3289.1501    4534.5764   -4556.1098    81.956992 
   29800    1294.2781   -108.02998      1.17109   -106.85889     748.0414    4.3449172    4.3449172    4.3449172     748.0414   -31956.637    1106.3671    33094.394     2376.456    1145.2434    14633.669    82.024673 
   29900    843.19122    -107.6242   0.76293713   -106.86126   -33398.335     4.359955     4.359955     4.359955   -33398.335    -9334.243   -57020.235   -33840.527   -2632.5915   -2647.2775   -50817.829    82.879288 
   30000    1663.6587   -108.34441    1.5053133    -106.8391   -12675.591    4.3416404    4.3416404    4.3416404   -12675.591   -15284.316   -31605.047    8862.5902    1076.7415    6912.6287    -1327.289    81.839232 
   30100    913.74505   -107.68084   0.82677572   -106.85406   -12014.169    4.3482047    4.3482047    4.3482047   -12014.169    -19424.32   -30856.593    14238.405    817.99929   -5049.7148   -6801.6303    82.211001 
   30200    1141.0253   -107.88909    1.0324236   -106.85666   -10352.711    4.3477529    4.3477529    4.3477529   -10352.711   -19435.564   -27044.366    15421.797   -3425.6494   -359.97217   -47728.891     82.18538 
   30300    1792.2259    -108.4751    1.6216437   -106.85346   -17034.568    4.3537943    4.3537943    4.3537943   -17034.568   -39110.231   -32185.728    20192.254    2292.8292    5754.6123    11111.638    82.528454 
   30400    703.85536   -107.50038   0.63686312   -106.86352    508.02697    4.3527425    4.3527425    4.3527425    508.02697   -22643.542   -29481.381    53649.004   -1524.8504   -3943.8902   -28651.463     82.46866 
   30500    1440.5328   -108.16225    1.3034244   -106.85883   -695.55463     4.349354     4.349354     4.349354   -695.55463   -23831.916   -1229.3787    22974.631    314.27156    9324.3451   -9291.6721    82.276208 
   30600    1369.4877   -108.09378    1.2391413   -106.85464   -8539.3701    4.3546982    4.3546982    4.3546982   -8539.3701   -45364.203    -17368.57    37114.663    1872.6593    744.99639   -3488.9052    82.579868 
   30700    884.42942   -107.65901   0.80025033   -106.85876    5530.3846     4.355758     4.355758     4.355758    5530.3846   -12417.245   -1046.0743    30054.473    3644.7855   -3599.0907   -24051.676    82.640173 
   30800     1821.292   -108.49242    1.6479432   -106.84448   -22495.959     4.359277     4.359277     4.359277   -22495.959   -37140.284   -12144.639   -18202.953    2365.3767    6434.9772   -623.15352    82.840629 
   30900     681.8678   -107.47618   0.61696831   -106.85921   -16714.131    4.3520281    4.3520281    4.3520281   -16714.131   -27886.789   -35689.248    13433.643    7143.6092   -3863.4875   -24961.156     82.42806 
   31000    1275.7198   -108.01186    1.1542981   -106.85756    16983.593    4.3405627    4.3405627    4.3405627    16983.593    8413.5961   -10350.432    52887.616    4265.8078     7288.962   -29934.777    81.778304 
   31100    1578.4695   -108.29397    1.4282324   -106.86574   -6278.4882    4.3571037    4.3571037    4.3571037   -6278.4882   -29294.029   -9322.3594    19780.923   -4318.4798    1108.6372    14797.257    82.716792 
   31200    1007.3645   -107.78825   0.91148457   -106.87676   -33695.677    4.3639222    4.3639222    4.3639222   -33695.677   -10563.926   -60546.053   -29977.052    10565.863    6579.1885   -43390.307    83.105733 
   31300     1251.473   -107.99583    1.1323591   -106.86347    34737.535    4.3480235    4.3480235    4.3480235    34737.535    13202.799    15889.858    75119.948   -8075.4092   -11153.693    11864.357    82.200722 
   31400    1088.1301   -107.85611   0.98456299   -106.87155    5806.9734    4.3477195    4.3477195    4.3477195    5806.9734   -862.89669   -17438.025    35721.842    2623.6175    1048.8952    -26838.32    82.183485 
   31500    1008.7265   -107.78437   0.91271697   -106.87165   -11697.123    4.3650389    4.3650389    4.3650389   -11697.123    3678.9887   -24311.527   -14458.832   -1019.0731   -16249.444   -35280.702    83.169549 
   31600    1308.4513    -108.0317    1.1839142   -106.84778   -6446.3226    4.3769955    4.3769955    4.3769955   -6446.3226    5699.1587    -20281.18   -4756.9464   -12576.416   -11865.479     14341.12    83.854874 
   31700    847.86762   -107.60966   0.76716844   -106.84249   -15420.706    4.3535187    4.3535187    4.3535187   -15420.706     41303.58   -53413.643   -34152.057    6524.1941    5337.4861   -49104.625    82.512782 
   31800    1335.8174    -108.0326    1.2086757   -106.82393    39653.914    4.3333125    4.3333125    4.3333125    39653.914    39829.533     35486.91    43645.298   -5530.7149   -14198.112    15501.825    81.369199 
   31900    1218.2561   -107.95388    1.1023038   -106.85158   -23137.613    4.3651639    4.3651639    4.3651639   -23137.613    4598.5206   -54207.207   -19804.154    1082.3649    4136.7982    -25417.98    83.176696 
   32000    1019.9025   -107.76177   0.92282925   -106.83894   -4206.6783    4.3692624    4.3692624    4.3692624   -4206.6783    15428.165   -35691.692     7643.492    2448.7888    2031.5923   -16381.972    83.411204 
   32100    1419.6988   -108.11016    1.2845733   -106.82558    5151.9616    4.3537253    4.3537253    4.3537253    5151.9616    1769.1022   -1556.1212    15242.904    6837.8096   -9091.7411    9087.9818    82.524529 
   32200    1251.9602   -107.96583    1.1327999   -106.83303    2077.0854    4.3463733    4.3463733    4.3463733    2077.0854    26722.819   -23311.442    2819.8791    623.39401   -1076.5222   -35999.182    82.107169 
   32300    1274.2162    -107.9992    1.1529376   -106.84626    6565.9628    4.3574984    4.3574984    4.3574984    6565.9628    10076.485   -22598.628    32220.031     17124.88    5271.9736    6437.1701    82.739275 
   32400    1292.3014   -108.01625    1.1693015   -106.84695   -17334.351     4.367202     4.367202     4.367202   -17334.351   -17517.861   -21716.771   -12768.423     727.8592   -13328.261   -13064.706    83.293257 
   32500    1352.4859     -108.063    1.2237577   -106.83925    22471.702    4.3448881    4.3448881    4.3448881    22471.702    49939.467   -22341.234    39816.872    14472.027    15529.814   -14623.834    82.023026 
   32600    1105.9797   -107.85575    1.0007137   -106.85503    2810.1188    4.3457114    4.3457114    4.3457114    2810.1188    -4663.687   -8954.6723    22048.716    8023.0354   -5335.9296    8031.8814    82.069664 
   32700    1281.9384   -108.01266    1.1599248   -106.85274   -2534.3022    4.3601449    4.3601449    4.3601449   -2534.3022    14404.676   -13310.317   -8697.2662   -6876.8625   -19247.352   -13786.009    82.890123 
   32800    1170.5818   -107.90501     1.059167   -106.84585   -24209.368    4.3680162    4.3680162    4.3680162   -24209.368   -1815.8078   -46016.235   -24796.061    17801.828    17564.727   -3183.0334     83.33985 
   32900    1081.1306   -107.83025   0.97822966   -106.85202    1838.6217    4.3447649    4.3447649    4.3447649    1838.6217    1431.3108    7616.1584   -3531.6041   -3735.7018   -32291.709    9029.2393     82.01605 
   33000    1688.4496   -108.37551    1.5277447   -106.84777    17048.943    4.3355049    4.3355049    4.3355049    17048.943    23981.082    15082.158    12083.589    6173.4715     13091.09   -16222.187    81.492763 
   33100    529.67008   -107.34745   0.47925662   -106.86819   -34495.375    4.3707996    4.3707996    4.3707996   -34495.375   -59137.695   -34239.569    -10108.86    10378.402    2275.6795    22023.723    83.499273 
   33200    1552.8366    -108.2484    1.4050392   -106.84336   -5760.4687    4.3498229    4.3498229    4.3498229   -5760.4687    9061.2828   -22263.446   -4079.2432   -7102.6883   -10808.281   -3648.9615    82.302822 
   33300    918.18212     -107.678   0.83079048   -106.84721    2311.3726    4.3478732    4.3478732    4.3478732    2311.3726   -8859.2202   -6730.2628    22523.601    14038.286     13862.28    188.34684    82.192203 
   33400    1299.3591    -108.0325    1.1756874   -106.85682   -24591.447    4.3536292    4.3536292    4.3536292   -24591.447   -14339.051   -25552.175   -33883.115    7345.6645    10092.309    3003.0618    82.519066 
   33500    1424.0683   -108.14529    1.2885269   -106.85676    13921.788    4.3578181    4.3578181    4.3578181    13921.788    6861.7026    -4486.034    39389.696    677.83326   -13062.623   -4363.9819    82.757487 
   33600    718.42773   -107.51265    0.6500485    -106.8626    -46662.51    4.3664956    4.3664956    4.3664956    -46662.51   -52966.347   -63243.727   -23777.456    24231.919    17428.595     5613.006    83.252842 
   33700    1434.9775   -108.13828    1.2983978   -106.83988    28634.378    4.3294268    4.3294268    4.3294268    28634.378    32253.046       1501.5    52148.588    5161.7865   -2962.0729   -3935.1633      81.1505 
   33800    1170.1796   -107.93088    1.0588031   -106.87208   -2666.5731    4.3574534    4.3574534    4.3574534   -2666.5731     20211.69   -45706.917    17495.508    2655.6534    2267.0311   -3214.6192    82.736712 
   33900     1254.834   -107.98616    1.1354002   -106.85076   -37687.972     4.365332     4.365332     4.365332   -37687.972   -47825.824   -61235.897   -4002.1949    18103.367    22205.731    6262.9497    83.186307 
   34000    1254.7257   -107.96547    1.1353022   -106.83016    30114.245    4.3371755    4.3371755    4.3371755    30114.245    50395.794   -6059.8628    46006.803   -9789.1975    -3374.697   -9415.0471    81.587002 
   34100    1246.7702   -107.98454    1.1281039   -106.85644   -20462.373    4.3562135    4.3562135    4.3562135   -20462.373    6002.9883   -47255.181   -20134.925    8767.9339   -1663.2859    -1393.432    82.666106 
   34200    1210.7658   -107.95177    1.0955263   -106.85625    -4650.497     4.367188     4.367188     4.367188    -4650.497   -32453.851   -8104.1926    26606.553    515.74743    8213.4638   -4414.2328    83.292455 
   34300    1230.9689   -107.97025    1.1138065   -106.85644   -2069.3389    4.3552465    4.3552465    4.3552465   -2069.3389    34114.303   -43766.468    3444.1482   -983.68116    5905.8296   -16600.315    82.611065 
   34400    1170.8665   -107.91292    1.0594246    -106.8535    25819.731    4.3366778    4.3366778    4.3366778    25819.731    22443.346    14818.887     40196.96    1172.1033    3523.0294   -2183.2896    81.558919 
   34500    1284.3316   -108.02638    1.1620902   -106.86429   -8385.2032    4.3599871    4.3599871    4.3599871   -8385.2032    502.66107   -27234.551    1576.2807   -2832.4917    9640.3939   -1829.1875    82.881122 
   34600    1178.3047   -107.91659    1.0661549   -106.85043   -15739.677    4.3656351    4.3656351    4.3656351   -15739.677    12465.092   -45539.528   -14144.596    -25.73872   -16262.966   -16536.439    83.203633 
   34700    1258.9563   -107.97612    1.1391301   -106.83699    16626.457    4.3473648    4.3473648    4.3473648    16626.457    10020.024   -4915.8759    44775.224    3207.9463    17226.522    11562.776    82.163372 
   34800    1239.8926   -107.96908    1.1218809    -106.8472   -26075.852    4.3605784    4.3605784    4.3605784   -26075.852   -11202.096   -35834.814   -31190.645   -10476.754    13521.695   -26097.994    82.914847 
   34900    1034.2976   -107.77958   0.93585421   -106.84372    16338.321    4.3474812    4.3474812    4.3474812    16338.321    51187.976   -16319.326    14146.314    11416.154    7046.2461     -10608.2    82.169974 
   35000    1149.6041   -107.89607     1.040186   -106.85589    941.50707    4.3585524    4.3585524    4.3585524    941.50707   -3472.5352    17044.111   -10747.055    1692.4782        19704   -5194.0393    82.799327 
   35100    1150.6601   -107.88276    1.0411415   -106.84162   -28099.628     4.374354     4.374354     4.374354   -28099.628    32184.952   -63903.644   -52580.193    5566.4873    173.81283   -31268.108    83.703147 
   35200    1031.0573   -107.76322   0.93292232    -106.8303    32152.837    4.3404492    4.3404492    4.3404492    32152.837    5121.2453    50003.381    41333.885    17250.174    23278.569    19235.834    81.771889 
   35300    1356.1937   -108.07927    1.2271125   -106.85216   -3798.2106    4.3473433    4.3473433    4.3473433   -3798.2106   -13851.048   -9729.0909    12185.508   -4597.8081    16297.282   -29649.554    82.162155 
   35400    1233.4608   -107.97104    1.1160612   -106.85498   -6711.3808     4.367553     4.367553     4.367553   -6711.3808   -26318.197   -24065.451    30249.505    11194.229   -1988.2224   -7324.7755    83.313343 
   35500    877.59513   -107.64423   0.79406652   -106.85016    15976.521    4.3598452    4.3598452    4.3598452    15976.521    7389.4884    37609.293    2930.7818    -4333.057    11276.083    9472.5062    82.873026 
   35600    1376.9989   -108.08893    1.2459375   -106.84299    -21322.73    4.3599639    4.3599639    4.3599639    -21322.73    -34077.32   -13783.159    -16107.71   -12135.357   -1748.8645   -12659.643    82.879798 
   35700    1180.8972   -107.90815    1.0685006   -106.83965    11111.449    4.3471316    4.3471316    4.3471316    11111.449    24654.406    23050.091   -14370.149    23934.697   -5581.1904    4016.9921     82.15015 
   35800    1224.9893   -107.95884    1.1083961   -106.85044   -14884.263    4.3627931    4.3627931    4.3627931   -14884.263   -10497.484   -6812.4677   -27342.838   -23081.441    9048.6882   -2762.5579    83.041244 
   35900    1252.0079   -107.98002     1.132843   -106.84717     -26794.1     4.365119     4.365119     4.365119     -26794.1   -7822.1432   -35416.855   -37143.302    4356.6236   -10404.933   -20087.429    83.174127 
   36000    1009.8228   -107.76281   0.91370886   -106.84911    28641.379    4.3289885    4.3289885    4.3289885    28641.379    43077.817    53810.342   -10964.023    15735.994    5325.7484    9957.5387    81.125856 
   36100    1215.8997   -107.97639    1.1001716   -106.87622   -4449.7711    4.3529614    4.3529614    4.3529614   -4449.7711    7410.2379   -2647.3336   -18112.218   -12515.012    14098.429   -22890.274    82.481099 
   36200     1019.833   -107.78044   0.92276633   -106.85768   -5626.5078    4.3707502    4.3707502    4.3707502   -5626.5078    27422.638   -12009.926   -32292.235    5459.3442   -6733.5334    4718.3874     83.49644 
   36300    1265.8373   -107.98692    1.1453562   -106.84156   -20866.363    4.3637067    4.3637067    4.3637067   -20866.363   -61248.585    12850.116   -14200.619   -1957.9697    20076.902   -7974.7659    83.093427 
   36400    1400.6483   -108.09685    1.2673361   -106.82952    4307.1028    4.3554611    4.3554611    4.3554611    4307.1028    39477.538   -13369.186   -13187.044   -2733.1516    -1367.849    -3294.428    82.623277 
   36500    840.41528   -107.60424   0.76042541   -106.84381     14312.85    4.3440799    4.3440799    4.3440799     14312.85   -21535.911    13496.486    50977.974    9313.2731    9908.8792    19416.811    81.977264 
   36600    1588.9614   -108.29128    1.4377257   -106.85355   -32549.712    4.3645418    4.3645418    4.3645418   -32549.712   -42582.254   -32089.142   -22977.739   -8201.3701      8174.45     -6796.59    83.141137 
   36700    1341.9849   -108.05526    1.2142561     -106.841    9104.4112    4.3612195    4.3612195    4.3612195    9104.4112    12018.225   -15039.602    30334.611    1798.8071     11516.44    15814.488    82.951422 
   36800     770.3434   -107.54341    0.6970229   -106.84639    5003.5639    4.3524783    4.3524783    4.3524783    5003.5639   -32736.694    9741.9593    38005.427    11766.159     16305.65    2927.5016    82.453644 
   36900     1705.739   -108.38577    1.5433885   -106.84238   -1387.3413    4.3585042    4.3585042    4.3585042   -1387.3413   -34711.299   -17409.169    47958.444   -4390.5765   -7651.2289    675.23365    82.796581 
   37000    926.01475   -107.69756    0.8378776   -106.85969    16132.936    4.3503697    4.3503697    4.3503697    16132.936   -20510.207    18097.137    50811.878    13456.159    12896.168   -13333.213    82.333866 
   37100    806.92336   -107.60219   0.73012121   -106.87207    299.11878    4.3584971    4.3584971    4.3584971    299.11878   -32697.271    36692.815   -3098.1878     2856.263     -11554.4     14346.33    82.796177 
   37200     1350.322   -108.07087    1.2217997   -106.84907    6138.4419    4.3624726    4.3624726    4.3624726    6138.4419   -41850.516    33139.819    27126.022   -1107.7927  -0.77185802   -673.47598    83.022947 
   37300    883.68819   -107.65327   0.79957964   -106.85369   -21729.472    4.3622712    4.3622712    4.3622712   -21729.472   -70561.493    16511.188   -11138.111    13738.027    24209.268     11166.55    83.011446 
   37400    1117.2564   -107.86338    1.0109171   -106.85246   -11.520285    4.3533229    4.3533229    4.3533229   -11.520285   -25983.233   -7215.9933    33164.666   -12271.141   -3808.7393   -13210.618     82.50165 
   37500    1254.4208   -107.99323    1.1350263   -106.85821    2997.5036    4.3373997    4.3373997    4.3373997    2997.5036   -15659.824    10215.999    14436.335   -12419.143    10335.422   -2475.0197    81.599659 
   37600    1062.2475   -107.83273   0.96114384   -106.87159    4142.8861    4.3526888    4.3526888    4.3526888    4142.8861   -38498.085    17139.687    33787.056    3142.5452    9728.0559    4819.6221    82.465608 
   37700    1184.4697   -107.92246    1.0717331   -106.85073   -27120.263    4.3733939    4.3733939    4.3733939   -27120.263   -63143.664   -11968.383   -6248.7432   -31909.641    -7980.692   -5054.4228     83.64804 
   37800    1230.4781   -107.95703    1.1133624   -106.84366   -8391.0562    4.3458091    4.3458091    4.3458091   -8391.0562   -46504.378   -3671.5604     25002.77    1852.0956    17964.045    1258.1741    82.075197 
   37900    1212.6995   -107.94715     1.097276   -106.84988    20657.984    4.3419857    4.3419857    4.3419857    20657.984   -10356.927    44299.215    28031.665   -5736.9392    6308.1426   -16210.401    81.858763 
   38000    1355.0272   -108.07535    1.2260571    -106.8493    -19294.78    4.3646796    4.3646796    4.3646796    -19294.78   -48798.479   -37009.818    27923.959   -18206.758   -3226.7713    18344.839    83.149016 
   38100    956.02162   -107.71395   0.86502845   -106.84892   -2188.9142    4.3582022    4.3582022    4.3582022   -2188.9142     -53792.7    9479.0411    37746.916    23509.326    20394.216     33.17043    82.779372 
   38200    1452.0362   -108.15917    1.3138329   -106.84534   -6073.4216    4.3536305    4.3536305    4.3536305   -6073.4216   -40967.395    9083.0376    13664.093   -28208.745   -1241.9213    12987.682    82.519142 
   38300    1184.9581   -107.92331     1.072175   -106.85114   -8741.2833    4.3567269    4.3567269    4.3567269   -8741.2833   -41735.688   -6310.0006    21821.839    13018.066    7143.8214   -14370.886    82.695337 
   38400    1169.6951   -107.90104    1.0583647   -106.84268    8005.5381    4.3532302    4.3532302    4.3532302    8005.5381   -36071.232    53594.842    6493.0044     2041.557     17645.55   -3232.8714     82.49638 
   38500    1190.4048   -107.92313    1.0771033   -106.84603    2620.5823    4.3616527    4.3616527    4.3616527    2620.5823   -37452.313   -14443.462    59757.522   -23318.421   -11318.071    2404.4158    82.976145 
   38600    1186.2617   -107.91776    1.0733545    -106.8444    -3398.099    4.3575463    4.3575463    4.3575463    -3398.099   -6792.1638    26707.554   -30109.688    27893.448    17688.154   -2276.9797    82.742001 
   38700    1345.9235   -108.06079    1.2178198   -106.84297    15126.522    4.3407659    4.3407659    4.3407659    15126.522   -10561.602    42093.686    13847.481    -15865.18    3523.8373    12662.555    81.789788 
   38800    1217.6695   -107.95624    1.1017729   -106.85446    13344.763    4.3546958    4.3546958    4.3546958    13344.763    4531.7826    29455.326    6047.1796   -12383.432   -1475.2857   -6264.8794    82.579733 
   38900    1156.7578   -107.89367    1.0466588   -106.84701   -17918.403    4.3669348    4.3669348    4.3669348   -17918.403   -29849.843    1751.6832   -25657.049    24734.139    23010.381   -1321.9607    83.277971 
   39000    1327.0445   -108.03647    1.2007377   -106.83574    18166.295    4.3475545    4.3475545    4.3475545    18166.295   -18103.719    28154.385    44448.219   -18419.817   -12482.816   -5560.7789    82.174128 
   39100    1326.1477    -108.0433    1.1999263   -106.84337    9079.1687    4.3507772    4.3507772    4.3507772    9079.1687   -3035.7105    31881.675   -1608.4586    10375.232    9792.9637   -4447.7928    82.357003 
   39200    1024.7067   -107.77571   0.92717617   -106.84853   -22.972147    4.3610624    4.3610624    4.3610624   -22.972147   -27345.024    6034.4876     21241.62    16354.117    11091.151   -1860.9604    82.942459 
   39300    1223.9785   -107.95036    1.1074814   -106.84287    18011.776    4.3514617    4.3514617    4.3514617    18011.776   -23338.975    58341.393    19032.911   -24448.885   -6298.3563    7284.4336    82.395879 
   39400    1215.4359    -107.9499     1.099752   -106.85015    3451.6513    4.3542316    4.3542316    4.3542316    3451.6513      17999.8    8121.3384   -15766.185    5575.0073    19340.687   -2957.2993    82.553325 
   39500    1271.8244    -107.9948    1.1507734   -106.84403     16296.42    4.3655192    4.3655192    4.3655192     16296.42   -27474.243    67271.211    9092.2917   -1351.1636    3425.8304   -1951.7204     83.19701 
   39600    1335.8394   -108.04493    1.2086955   -106.83623   -6634.3066    4.3623524    4.3623524    4.3623524   -6634.3066   -685.76941    7045.8189   -26262.969    1309.7963    6015.0026   -8291.5481    83.016083 
   39700    1014.8996   -107.75295   0.91830247   -106.83464    7834.1008    4.3505304    4.3505304    4.3505304    7834.1008    21884.759    22011.297   -20393.754    14314.836    15560.903    8159.4042     82.34299 
   39800    1564.5832   -108.24718    1.4156678   -106.83151    18218.066    4.3535592    4.3535592    4.3535592    18218.066    -11982.35    63380.512    3256.0346    1710.8223   -7435.7088   -2686.3819    82.515086 
   39900    1093.7048      -107.83   0.98960706    -106.8404    -25209.15    4.3673687    4.3673687    4.3673687    -25209.15    13554.821   -22109.074   -67073.196    13139.127    3892.7038   -6310.2033    83.302792 
   40000    1368.0932   -108.07637    1.2378795   -106.83849   -9311.2684    4.3577895    4.3577895    4.3577895   -9311.2684   -15131.093   -9785.7964   -3016.9158    29612.293    -3548.633    15748.905    82.755859 
   40100    1498.6974   -108.19703    1.3560529   -106.84098    15246.637    4.3476999    4.3476999    4.3476999    15246.637   -1200.3352    15702.796    31237.451   -12858.171    2170.2657   -1032.9153    82.182371 
   40200    794.17758   -107.58113   0.71858857   -106.86254   -28450.025    4.3587984    4.3587984    4.3587984   -28450.025   -39179.075   -28300.988   -17870.012    21878.025    12459.918    6568.7648     82.81335 
   40300    1119.0316   -107.86826    1.0125233   -106.85573     12221.03    4.3566605    4.3566605    4.3566605     12221.03    6520.5425    -2297.771    32440.318    9340.0354    1040.2245    18268.067    82.691555 
   40400    1826.3122   -108.50303    1.6524857   -106.85054    497.52231    4.3458931    4.3458931    4.3458931    497.52231    23468.925    -14185.93   -7790.4288   -14776.408    13122.258   -8929.0905    82.079956 
   40500     428.7885   -107.26455   0.38797685   -106.87657      7399.33    4.3506251    4.3506251    4.3506251      7399.33    -4485.434   -8808.0062     35491.43     35291.74    875.92458    20174.833    82.348364 
   40600    1513.9799    -108.2368    1.3698808   -106.86692   -16497.367    4.3582966    4.3582966    4.3582966   -16497.367    2545.8593   -33333.509   -18704.451   -21730.804   -5009.6267   -4518.2456    82.784752 
   40700    1470.8213   -108.18577      1.33083   -106.85494   -13817.251    4.3555374    4.3555374    4.3555374   -13817.251   -18691.363   -27190.968    4430.5796    15166.351    1653.2114    -949.8723    82.627617 
   40800    769.93689   -107.55297   0.69665508   -106.85631    3703.8698    4.3468874    4.3468874    4.3468874    3703.8698     27196.51   -29381.312    13296.411    12626.895    4833.3532    20055.778    82.136309 
   40900    1222.0294   -107.96317    1.1057178   -106.85745   -16389.829    4.3527726    4.3527726    4.3527726   -16389.829   -32411.598    5504.8493   -22262.739   -19442.077   -13627.032    -12371.45    82.470366 
   41000    1394.5667   -108.11208    1.2618333   -106.85025    13673.679    4.3525254    4.3525254    4.3525254    13673.679    49518.853   -22821.463    14323.648    19530.628   -2266.2636    4585.7167    82.456322 
   41100    1084.2381   -107.83872   0.98104139   -106.85768   -25736.431     4.359782     4.359782     4.359782   -25736.431   -11632.936   -15917.085   -49659.273   -7748.2988    3491.6226    5042.2104    82.869426 
   41200    765.39677   -107.55206   0.69254709   -106.85951    22.287619    4.3504366    4.3504366    4.3504366    22.287619    6111.8204   -3983.3915   -2061.5661    -13199.39   -24520.631   -10016.648     82.33766 
   41300    1835.7213      -108.51    1.6609992     -106.849    10627.493    4.3447601    4.3447601    4.3447601    10627.493    21038.276   -13170.038     24014.24    11615.039    6712.3518    4444.2874    82.015775 
   41400    1028.8182   -107.80217   0.93089634   -106.87127    -26108.98    4.3571999    4.3571999    4.3571999    -26108.98   -31327.775    -23630.46   -23368.706   -18898.142   -7917.1488    6902.9422    82.722272 
   41500    673.17985   -107.48065   0.60910728   -106.87154    24889.822    4.3478162    4.3478162    4.3478162    24889.822    80821.984   -3615.9771   -2536.5399    -9466.307    1541.8028   -9115.6938    82.188966 
   41600     2017.924   -108.67626      1.82586    -106.8504   -19368.222    4.3584821    4.3584821    4.3584821   -19368.222   -547.76838   -30364.952   -27191.946    6271.2921    8732.4245    7306.7288    82.795322 
   41700    512.53373   -107.33247   0.46375129   -106.86872     9113.083    4.3431607    4.3431607    4.3431607     9113.083    42971.831   -16152.979    520.39748   -23849.173   -4659.2814   -8413.9541    81.925236 
   41800    1273.7306   -108.02071    1.1524982   -106.86821    2909.2915    4.3397688    4.3397688    4.3397688    2909.2915    18994.412   -466.03855   -9800.4991    1692.3956   -6091.5459    609.46406     81.73344 
   41900    1542.2341   -108.25294    1.3954458    -106.8575   -8685.8316    4.3617096    4.3617096    4.3617096   -8685.8316    10629.938   -34968.919   -1718.5142    7085.4503   -429.86264   -4154.9927    82.979391 
   42000    869.01138   -107.64251   0.78629976   -106.85622   -9894.0336     4.355904     4.355904     4.355904   -9894.0336   -25047.829    3739.8815   -8374.1535   -33246.209   -10572.626    -5081.407    82.648485 
   42100    1152.9024   -107.88697    1.0431703    -106.8438     1450.926    4.3453932    4.3453932    4.3453932     1450.926    18780.496   -21984.318    7556.5998    5157.7131   -11546.274    4536.6898    82.051637 
   42200    1337.9907   -108.05789    1.2106421   -106.84724   -14678.996    4.3508508    4.3508508    4.3508508   -14678.996    -16345.89   -18296.511   -9394.5864    7133.9308    -3959.346    9205.7939     82.36118 
   42300    953.16282   -107.71957   0.86244175   -106.85713   -4563.9752    4.3547563    4.3547563    4.3547563   -4563.9752   -27647.803    25693.887   -11738.009   -19715.435    -19093.92   -4949.1508    82.583171 
   42400     1514.993    -108.2222    1.3707975    -106.8514   -15346.423     4.353016     4.353016     4.353016   -15346.423   -26938.803    7.5979479   -19108.063    32819.506   -9652.2347    11156.924    82.484206 
   42500    903.72732   -107.67493   0.81771147   -106.85722     18886.81    4.3521648    4.3521648    4.3521648     18886.81    12220.136    60863.922   -16423.628   -6342.1315   -5297.5167     2210.355    82.435825 
   42600    1276.2573   -108.01409    1.1547844    -106.8593   -34556.217    4.3536951    4.3536951    4.3536951   -34556.217   -61966.908   -16966.442   -24735.301    -17675.61   -25211.798   -2280.1374    82.522813 
   42700    1165.8118   -107.91046     1.054851   -106.85561     26053.16    4.3327368    4.3327368    4.3327368     26053.16      13428.2    54365.202    10366.077    26425.664    2127.9571   -5112.2119    81.336772 
   42800    967.34927   -107.75157   0.87527794   -106.87629   -7273.3649    4.3532967    4.3532967    4.3532967   -7273.3649   -20639.941    27154.858   -28335.012   -25898.602   -17513.066    6912.6243    82.500161 
   42900     1356.935   -108.08621    1.2277833   -106.85843   -26435.872     4.362353     4.362353     4.362353   -26435.872   -50251.613    4157.5266   -33213.529   -7442.4574   -8229.7565   -12465.202    83.016115 
   43000    1087.7274   -107.83757    0.9841986   -106.85337    23480.538    4.3357048    4.3357048    4.3357048    23480.538     5066.912    36985.454    28389.248    26416.141    6526.3555    3456.0809    81.504038 
   43100     1110.372   -107.87203    1.0046879   -106.86735   -11036.871    4.3396692    4.3396692    4.3396692   -11036.871       -45680    8617.9411    3951.4441   -29665.603   -20114.875   -4246.7308    81.727812 
   43200    1323.9233   -108.06585    1.1979136   -106.86793   -10138.003    4.3599022    4.3599022    4.3599022   -10138.003   -9969.7996   -18710.076    -1734.134    13021.544    6306.2074    11224.899    82.876277 
   43300    1314.6533   -108.04603     1.189526    -106.8565   -3629.3969    4.3540457    4.3540457    4.3540457   -3629.3969     -30521.1    10546.923    9085.9859    12657.119   -715.04535    7460.5995    82.542756 
   43400    958.68653   -107.72467   0.86743972   -106.85723   -9145.4461    4.3427417    4.3427417    4.3427417   -9145.4461   -25966.022   -1908.8402    438.52404   -36171.282   -22697.628     5083.796    81.901526 
   43500    1555.5518   -108.26106     1.407496   -106.85356    17685.973    4.3439718    4.3439718    4.3439718    17685.973   -5791.6701    39136.707    19712.882    14605.433    9315.6448    5163.0871    81.971143 
   43600    1067.3218   -107.83179    0.9657352   -106.86606   -11836.966      4.35642      4.35642      4.35642   -11836.966   -41167.296   -25852.132    31508.529   -24777.519   -12096.361   -10624.246    82.677861 
   43700    1022.2326    -107.7882   0.92493753   -106.86327   -25933.689    4.3563887    4.3563887    4.3563887   -25933.689   -57360.239   -9449.6479   -10991.182   -20773.204   -10283.869    1082.9096    82.676077 
   43800    1466.6207   -108.16737    1.3270293   -106.84034    30310.596    4.3483744    4.3483744    4.3483744    30310.596    14589.389   -1483.4735    77825.872     4106.911      6101.44   -8317.5016    82.220629 
   43900    901.61241   -107.67503   0.81579786   -106.85923   -37405.193    4.3489304    4.3489304    4.3489304   -37405.193    -61580.87   -29840.062   -20794.648   -34731.957   -20331.538   -3938.0732    82.252174 
   44000    960.58413   -107.73103    0.8691567   -106.86187    23214.766    4.3423346    4.3423346    4.3423346    23214.766   -2163.9701    33462.223    38346.044    2885.1109   -2550.2229    5537.2399    81.878495 
   44100    1851.2409   -108.53057    1.6750417   -106.85552   -11895.771    4.3501686    4.3501686    4.3501686   -11895.771   -26142.402   -27397.502    17852.589   -16237.643    7577.4608   -8932.9735    82.322446 
   44200    549.45496    -107.3595    0.4971584   -106.86234    4435.2019    4.3573904    4.3573904    4.3573904    4435.2019   -10377.805    10017.441     13665.97   -18229.246   -18707.909     3321.471    82.733122 
   44300    1570.3919   -108.26259    1.4209236   -106.84167   -4660.9335    4.3531903    4.3531903    4.3531903   -4660.9335   -28708.007   -5166.0115    19891.218    778.32896    16352.994    5366.7518    82.494116 
   44400    980.96256   -107.73149   0.88759554   -106.84389    20212.794    4.3443211    4.3443211    4.3443211    20212.794    3260.2327    9772.7842    47605.367   -26360.401   -4928.3647    -11268.69     81.99092 
   44500    1213.0444   -107.94933    1.0975881   -106.85174   -4649.4308    4.3503338    4.3503338    4.3503338   -4649.4308   -27221.991    12304.182    969.51683   -6880.4632   -22800.202    7019.8634    82.331828 
   44600    1358.3284   -108.07499    1.2290441   -106.84594    10852.069    4.3569811    4.3569811    4.3569811    10852.069   -12162.992    7797.8769    36921.321   -5422.5454    2044.9651   -11097.772    82.709813 
   44700    1117.6819   -107.85782     1.011302   -106.84651   -6755.6896    4.3495069    4.3495069    4.3495069   -6755.6896    -20328.07    -13619.83    13680.831   -13126.015   -27694.929   -762.71654    82.284889 
   44800    1281.7027   -108.00832    1.1597115   -106.84861    228.08822    4.3501763    4.3501763    4.3501763    228.08822   -16815.595     42317.23    -24817.37    780.49448   -24443.896   -1093.6308    82.322886 
   44900    1197.0548   -107.94233    1.0831203   -106.85921    10198.139    4.3464638    4.3464638    4.3464638    10198.139    1323.8137   -19640.673    48911.275   -8878.1256    4994.9101    13766.204    82.112296 
   45000    1062.2563   -107.82938   0.96115184   -106.86823   -6260.8541    4.3570043    4.3570043    4.3570043   -6260.8541    -14037.68     6555.024   -11299.907   -2815.4654   -44686.599   -8908.9985    82.711132 
   45100    1638.3543    -108.3248    1.4824174   -106.84238   -903.64222    4.3659267    4.3659267    4.3659267   -903.64222    -5399.273   -14452.896    17141.242    8342.2161    14574.501    10465.249    83.220311 
   45200    915.31207   -107.67796    0.8281936   -106.84977      25425.6    4.3321179    4.3321179    4.3321179      25425.6    1660.2488    19369.297    55247.253   -19206.558   -19828.619    -3815.207    81.301918 
   45300     1312.971   -108.05941    1.1880037    -106.8714   -6848.7471    4.3478236    4.3478236    4.3478236   -6848.7471   -12928.275    14817.674    -22435.64    3995.4383   -15805.942   -2881.1025    82.189389 
   45400    1819.1152   -108.48687    1.6459736   -106.84089    -16537.18    4.3692931    4.3692931    4.3692931    -16537.18   -7946.8017    -41532.13   -132.60888   -6732.7058    17387.177    1079.0534    83.412963 
   45500    751.30122   -107.52136   0.67979313   -106.84157    21752.999    4.3443785    4.3443785    4.3443785    21752.999   -32.175423    17073.417    48217.754   -13639.268   -41249.058   -3328.0143    81.994168 
   45600    1401.3774   -108.11558    1.2679957   -106.84758    6701.8882    4.3503044    4.3503044    4.3503044    6701.8882    40078.908    -20346.62    373.37666    4063.0978    8797.2771    -5880.042    82.330158 
   45700    1437.6621   -108.15278    1.3008269   -106.85195    13905.534    4.3481307    4.3481307    4.3481307    13905.534   -1549.8481    18505.763    24760.687   -9103.6816   -22817.431   -4119.2333    82.206803 
   45800    798.39966   -107.59115   0.72240879   -106.86874     5702.032    4.3593286    4.3593286    4.3593286     5702.032   -11044.959    2043.3091    26107.746   -6954.9257   -29822.669   -6313.4167    82.843576 
   45900    1493.2597   -108.19259    1.3511327   -106.84146   -9235.0476    4.3648063    4.3648063    4.3648063   -9235.0476   -30194.214   -4621.9521    7111.0237    5763.7984    10406.946   -8864.2936    83.156258 
   46000     996.0286   -107.74477   0.90122761   -106.84354    15916.116    4.3381377    4.3381377    4.3381377    15916.116   -5086.1376    11394.106    41440.378   -6844.2272   -27628.985    1102.9408    81.641319 
   46100    1268.0768   -108.00191    1.1473825   -106.85452    -2173.792    4.3469687    4.3469687    4.3469687    -2173.792   -28148.814   -2590.2395    24217.678    1109.5301   -5410.1253    1366.5298    82.140914 
   46200    1262.3441   -107.99926    1.1421954   -106.85707    4795.1882    4.3612252    4.3612252    4.3612252    4795.1882    -30436.41   -21470.997    66292.971    4628.7112    16762.824    3031.7753    82.951749 
   46300    988.13469   -107.76225   0.89408503   -106.86817   -23320.436    4.3547086    4.3547086    4.3547086   -23320.436   -68500.949    3451.0184   -4911.3769   -6647.7627   -39791.096    6343.4574    82.580462 
   46400    1572.0195   -108.28352    1.4223962   -106.86112    19846.018    4.3375449    4.3375449    4.3375449    19846.018   -8202.2163   -22388.671     90128.94    10689.254    2165.4034   -997.97898    81.607853 
   46500    901.23626   -107.69845   0.81545751     -106.883    19445.215    4.3457062    4.3457062    4.3457062    19445.215   -33709.493    590.75254    91454.387   -6834.9792   -9208.6434    16668.874    82.069367 
   46600    950.53695   -107.74095   0.86006581   -106.88089   -23889.443    4.3690495    4.3690495    4.3690495   -23889.443    -63286.69    2496.1773   -10877.816   -2159.4021    -17567.21    13839.173    83.399012 
   46700     1774.634   -108.46189    1.6057261   -106.85617    10508.308    4.3542793    4.3542793    4.3542793    10508.308   -20342.645   -11897.671    63765.239    3198.9272    5399.9894    4671.9124     82.55604 
   46800    684.22232   -107.48121   0.61909873   -106.86211    29817.439    4.3252046    4.3252046    4.3252046    29817.439   -43953.884    59969.916    73436.285   -5898.5426   -37855.063   -1210.2815    80.913312 
   46900    1287.0947   -108.03817    1.1645904   -106.87358    2264.2442    4.3527362    4.3527362    4.3527362    2264.2442   -9173.3917   -7275.2822    23241.406    4205.0052    4033.4501    15037.627    82.468302 
   47000    1281.8363   -108.00888    1.1598324   -106.84904   -4364.1326    4.3687932    4.3687932    4.3687932   -4364.1326    -39459.26   -3227.4936    29594.356   -9754.3392   -7682.1551   -7431.2934    83.384336 
   47100      937.652   -107.69765   0.84840723   -106.84925   -5048.3215    4.3468455    4.3468455    4.3468455   -5048.3215   -49216.423    8684.3364    25387.122   -2134.5774   -37238.178    10166.897     82.13393 
   47200    1482.7158   -108.18124    1.3415924   -106.83964    24735.379    4.3413774    4.3413774    4.3413774    24735.379    4514.8572    26635.166    43056.113   -2332.9068     25565.53   -2129.8023    81.824364 
   47300    1053.3498   -107.80654   0.95309303   -106.85344   -23794.248    4.3567353    4.3567353    4.3567353   -23794.248   -46742.734   -10907.554   -13732.458   -2836.9906   -41135.153   -12981.722    82.695811 
   47400    1290.2808   -108.01703    1.1674732   -106.84956    -4956.867    4.3531049    4.3531049    4.3531049    -4956.867   -31559.891    21941.994    -5252.703   -7021.5754   -10369.591    2660.7751     82.48926 
   47500    1518.0332   -108.22114    1.3735483   -106.84759   -3505.4875    4.3489773    4.3489773    4.3489773   -3505.4875   -27173.937    4066.2259    12591.249   -3758.6079   -4277.5661   -3601.8877    82.254835 
   47600    620.71539   -107.43618   0.56163633   -106.87454   -11960.953    4.3483401    4.3483401    4.3483401   -11960.953    -51956.38   -30013.489     46087.01   -10696.884   -41752.494    -3210.825     82.21868 
   47700    1593.5229   -108.31619     1.441853   -106.87433    18334.706    4.3519636    4.3519636    4.3519636    18334.706   -5430.8242    2475.7474    57959.196   -1117.4624        13738    5226.7188    82.424392 
   47800     1096.868    -107.8723   0.99246921   -106.87983    -12461.25    4.3592292    4.3592292    4.3592292    -12461.25   -45084.915   -24477.238    32178.402   -6583.1745   -12948.348    9003.0155    82.837908 
   47900    791.47296   -107.58627   0.71614137   -106.87013    10775.614    4.3447194    4.3447194    4.3447194    10775.614   -28536.048   -13763.238    74626.127   -7356.5815   -32963.486   -13651.205    82.013471 
   48000     1721.594   -108.41572    1.5577344   -106.85799    8805.0297    4.3542039    4.3542039    4.3542039    8805.0297    3393.5587   -17173.714    40195.244   -2233.9367    5782.5166    2371.1029    82.551751 
   48100    819.17924   -107.60367   0.74121059   -106.86246    7759.2275    4.3580373    4.3580373    4.3580373    7759.2275   -37422.199   -12780.139    73480.021   -18122.198   -30170.759    4136.2254    82.769974 
   48200     1079.763   -107.83132   0.97699222   -106.85433    1203.6032    4.3609632    4.3609632    4.3609632    1203.6032    -354.8052   -9844.5397    13810.154    3974.7376   -2008.2603    5764.0693    82.936801 
   48300    1397.8464   -108.10948    1.2648008   -106.84468    1109.7235    4.3496426    4.3496426    4.3496426    1109.7235    1892.1656    -40601.03    42038.035   -6337.2379    596.75248    10608.339    82.292586 
   48400     748.2006   -107.54111   0.67698762   -106.86412   -1479.5331    4.3406232    4.3406232    4.3406232   -1479.5331   -29267.366    5499.6519    19329.115   -630.13896    -46176.15   -3312.8323    81.781724 
   48500    1674.1115   -108.38181    1.5147713   -106.86704   -6083.8444    4.3510934    4.3510934    4.3510934   -6083.8444    -11664.47   -23674.409    17087.346    4296.3145    1517.7895   -5580.0748    82.374959 
   48600    1044.5724   -107.81228   0.94515106   -106.86713   -11317.699    4.3651748    4.3651748    4.3651748   -11317.699   -30069.611   -25254.513    21371.026     -4524.58   -2361.9293    2733.7968    83.177319 
   48700    1130.6967   -107.87912    1.0230781   -106.85604   -11995.144    4.3477875    4.3477875    4.3477875   -11995.144   -27783.425   -3796.9139   -4405.0929    6793.2222   -36311.143    3287.8795    82.187342 
   48800    1340.3135   -108.05902    1.2127438   -106.84627     36243.77    4.3332934    4.3332934    4.3332934     36243.77    18252.559    25032.404    65446.347   -5041.1334     31264.87   -5560.9138    81.368122 
   48900    1124.9272   -107.88449    1.0178577   -106.86663   -14390.392    4.3537704    4.3537704    4.3537704   -14390.392   -15065.713   -22840.296   -5265.1665   -49.928059   -34612.028    5056.4291    82.527095 
   49000    1178.5232   -107.92484    1.0663526   -106.85849   -3794.9365    4.3670143    4.3670143    4.3670143   -3794.9365   -47560.695    -23590.02    59765.906    7308.7743   -1862.5216   -1097.0241    83.282515 
   49100    1571.0881   -108.27052    1.4215535   -106.84897   -6598.4135    4.3514722    4.3514722    4.3514722   -6598.4135     715.5293    727.48838   -21238.258   -12537.139     7171.611   -2097.9589    82.396475 
   49200    472.46943   -107.29321   0.42750027   -106.86571     15118.18    4.3347823    4.3347823    4.3347823     15118.18   -32481.549    1084.5805    76751.508    17487.609   -37002.115    8070.1541    81.452025 
   49300    1819.6344   -108.51172    1.6464435   -106.86527   -5554.9647    4.3444036    4.3444036    4.3444036   -5554.9647   -20178.036   -17600.796    21113.938   -2682.9776    -6186.159   -4403.6719    81.995592 
   49400    1073.8634   -107.84223   0.97165415   -106.87057    3780.9046    4.3622175    4.3622175    4.3622175    3780.9046   -19267.352   -19607.039    50217.105    2897.6754   -12643.001    1355.7521     83.00838 
   49500    942.73533   -107.72261   0.85300674   -106.86961   -26444.282    4.3550304    4.3550304    4.3550304   -26444.282   -53188.507    -28604.13    2459.7908    16625.451   -38904.786    1652.6488    82.598771 
   49600    1501.1758   -108.20876    1.3582954   -106.85047     41963.52    4.3342092    4.3342092    4.3342092     41963.52    58816.068   -1009.6935    68084.185   -5939.5339    29052.708   -6536.5453     81.41972 
   49700    1034.3554   -107.80987   0.93590648   -106.87396   -2246.2812    4.3422283    4.3422283    4.3422283   -2246.2812    -39926.47    10769.963    22417.663     10988.66    -33052.33   -4753.1372    81.872484 
   49800    993.90291   -107.77626   0.89930424   -106.87696   -24783.757    4.3619755    4.3619755    4.3619755   -24783.757    1218.4963   -43569.065   -32000.703     13648.68   -2056.1658    7403.8327    82.994566 
   49900    1397.1899   -108.11637    1.2642068   -106.85216   -8076.4255    4.3616503    4.3616503    4.3616503   -8076.4255   -32224.315   -39894.952    47889.991   -4620.3949    587.59076    1584.7632    82.976008 
   50000    992.22641   -107.75173    0.8977873   -106.85394   -11306.914     4.339234     4.339234     4.339234   -11306.914   -46981.274   -8007.0401    21067.572    12875.489   -42724.905   -948.73823    81.703228 
   50100    1607.9905   -108.31973    1.4549436   -106.86479   -13126.737    4.3418238    4.3418238    4.3418238   -13126.737   -15126.295   -22688.587   -1565.3281    4307.6149    79.478615    12951.514    81.849605 
   50200    1138.4929   -107.91288    1.0301323   -106.88275   -777.16537    4.3556944    4.3556944    4.3556944   -777.16537   -30066.443   -22882.908    50617.854    753.87765   -15564.665   -841.14987    82.636558 
   50300    945.54421   -107.74082   0.85554827   -106.88527   -27126.098     4.356315     4.356315     4.356315   -27126.098   -62671.785   -22611.138    3904.6296    11857.284   -35046.632    3341.7725    82.671883 
   50400    1628.4638    -108.3328    1.4734683   -106.85933    24710.197     4.332762     4.332762     4.332762    24710.197    7712.3686   -14742.985    81161.206   -5617.5943    27468.708   -1363.1854    81.338187 
   50500    786.12433   -107.58751   0.71130181   -106.87621   -11972.938    4.3482959    4.3482959    4.3482959   -11972.938   -36443.166   -14557.048    15081.401    11330.705   -38017.676    10471.369    82.216177 
   50600    1207.8741   -107.95566    1.0929099   -106.86275    14418.865    4.3491113    4.3491113    4.3491113    14418.865   -17664.346   -1071.9522    61992.893    6123.1664   -5734.0533    3663.0314    82.262434 
   50700    1524.3357   -108.23645     1.379251    -106.8572   -11465.778    4.3578396    4.3578396    4.3578396   -11465.778   -30745.659    -43375.09    39723.414   -2873.7629    5044.9632    2754.1584    82.758711 
   50800    818.38355    -107.6079   0.74049063   -106.86741   -12828.161    4.3455344    4.3455344    4.3455344   -12828.161   -31569.714   -23933.264    17018.495    10977.549   -36618.271    491.53328    82.059633 
   50900      1395.82   -108.12231    1.2629673   -106.85934    40769.112    4.3370345    4.3370345    4.3370345    40769.112    14917.618    10568.388     96821.33     3184.185    2797.1716   -1563.5996    81.579047 
   51000    1479.9884   -108.20427    1.3391246   -106.86514   -24691.693     4.359415     4.359415     4.359415   -24691.693   -35674.469   -38527.525    126.91434   -2428.4787    9187.0096    3953.9077    82.848496 
   51100    773.69283   -107.57754   0.70005353   -106.87749   -5933.4359    4.3474075    4.3474075    4.3474075   -5933.4359   -28946.104   -16978.588    28124.385    5058.9048    -28294.14   -8545.9205    82.165795 
   51200    1546.9264   -108.26622    1.3996915   -106.86653    12348.666    4.3440641    4.3440641    4.3440641    12348.666    29834.639   -15160.815    22372.174     6140.644   -4752.2686    5896.8267    81.976369 
   51300    1254.5503   -108.00764    1.1351435    -106.8725     9812.168    4.3400536    4.3400536    4.3400536     9812.168      8737.01   -21869.325    42568.819     5423.686   -9799.2113    -6081.143    81.749535 
   51400    817.74659   -107.61983    0.7399143   -106.87991   -25166.089    4.3574767    4.3574767    4.3574767   -25166.089    -13089.06   -36802.319    -25606.89    -3055.622    -31353.03   -9888.9282    82.738036 
   51500    1692.8312   -108.38735    1.5317093   -106.85564   -1152.7036    4.3502158    4.3502158    4.3502158   -1152.7036    12743.287   -21769.398         5568    -2123.338    4348.2135    2069.9757    82.325125 
   51600    994.72265   -107.76101   0.90004596   -106.86097    26509.793    4.3309815    4.3309815    4.3309815    26509.793    47260.888   -9615.8978     41884.39    8986.5125   -14260.283   -2648.0708    81.237956 
   51700    978.86564    -107.7645    0.8856982    -106.8788   -33495.625     4.352449     4.352449     4.352449   -33495.625   -39032.224    -30883.03   -30571.623   -10630.111   -27128.954   -8675.3338    82.451975 
   51800    1416.2856   -108.15249    1.2814849   -106.87101    12609.029    4.3567951    4.3567951    4.3567951    12609.029    2538.5241   -40627.452    75916.015   -10762.332    17047.209   -1426.6019    82.699219 
   51900    1541.6775   -108.26949    1.3949422   -106.87455    4387.4715    4.3410357    4.3410357    4.3410357    4387.4715    897.55485   -552.45677    12817.317    6069.0687   -21548.407   -8600.5929     81.80504 
   52000    750.22833   -107.56199   0.67882236   -106.88317   -1697.7708    4.3441637    4.3441637    4.3441637   -1697.7708   -27634.852   -34340.319    56881.858   -13663.843   -9664.4795    2150.3658    81.982005 
   52100     1609.273   -108.32335     1.456104   -106.86725   -2292.3732    4.3475776    4.3475776    4.3475776   -2292.3732    -2980.475   -7208.6527    3312.0079     2546.452    16600.249    2639.8125    82.175437 
   52200    1107.7595   -107.87377    1.0023241   -106.87145    4988.2114    4.3462485    4.3462485    4.3462485    4988.2114   -12123.196   -14442.703    41530.533    2098.9069   -27343.434   -2956.1878    82.100097 
   52300    948.86499   -107.73331   0.85855298   -106.87475   -10063.037    4.3473843    4.3473843    4.3473843   -10063.037   -12724.453    -26714.09    9249.4341   -8375.2698    3689.8977    7336.4529    82.164475 
   52400    1434.8628   -108.16088     1.298294   -106.86259   -5370.7359    4.3521542    4.3521542    4.3521542   -5370.7359   -3462.9801   -20797.781    8148.5537    15306.404    1010.2221   -6661.6677    82.435222 
   52500     1278.436   -108.01772    1.1567557   -106.86097     624.2423    4.3503339    4.3503339    4.3503339     624.2423    1767.4195    5.1088987    100.19847   -3315.4688   -35914.445    4.0177579    82.331829 
   52600    1097.0613   -107.85462   0.99264415   -106.86197   -8979.7346    4.3367451    4.3367451    4.3367451   -8979.7346   -20879.578   -24863.177    18803.552    5250.1362     13084.06     1188.198    81.562718 
   52700    986.89497   -107.76716    0.8929633   -106.87419    13013.817     4.342559     4.342559     4.342559    13013.817    23704.761    7180.1763    8156.5137    16040.483    10568.768   -5656.3882    81.891189 
   52800    1643.4849    -108.3498    1.4870597   -106.86275   -12992.508    4.3630951    4.3630951    4.3630951   -12992.508     13422.09   -31826.708   -20572.906   -8117.3467    157.91553    3762.9823    83.058493 
   52900    902.93609   -107.68437   0.81699555   -106.86738   -4501.7044    4.3510922    4.3510922    4.3510922   -4501.7044    1688.5993   -31020.361    15826.648    5858.0133    8998.2736   -4012.8821    82.374894 
   53000    1385.2836   -108.11659    1.2534337   -106.86316    3445.3024    4.3355799    4.3355799    4.3355799    3445.3024    32657.071   -8633.7554   -13687.408     10061.74     9510.545    -7062.426    81.496993 
   53100    1309.6458   -108.05941    1.1849951   -106.87442    35304.379    4.3443787    4.3443787    4.3443787    35304.379    77454.888   -17203.949    45662.198   -5461.3814    2462.6828    -3331.469    81.994181 
   53200    914.33557   -107.71605   0.82731004   -106.88874   -30073.787    4.3622581    4.3622581    4.3622581   -30073.787   -15607.429   -55593.248   -19020.683    21026.716    19613.922   -3521.5533    83.010698 
   53300    1121.3312   -107.88679    1.0146041   -106.87218    1233.3798    4.3554064    4.3554064    4.3554064    1233.3798    19673.747   -15437.684   -535.92326   -6461.7973    14346.043   -4163.5713    82.620163 
   53400    1644.6195   -108.34165    1.4880862   -106.85357    23581.193     4.333649     4.333649     4.333649    23581.193    69808.565   -9762.0438    10697.059    10398.795   -12803.955   -1288.8785    81.388155 
   53500    759.83409   -107.56429   0.68751385   -106.87678   -16371.295    4.3472251    4.3472251    4.3472251   -16371.295   -23684.662   -40033.479    14604.255     16621.03    24974.961    359.59493    82.155452 
   53600    1116.9018   -107.88207    1.0105962   -106.87147   -13320.742    4.3594005    4.3594005    4.3594005   -13320.742    7121.1488   -33314.911   -13768.463   -9390.8723   -9633.5939   -2318.1758     82.84767 
   53700    1462.1311   -108.18681     1.322967   -106.86384    14307.322    4.3486522    4.3486522    4.3486522    14307.322    28147.112   -25724.972    40499.826    17845.399   -5862.5534    -4756.786    82.236389 
   53800    1264.5361   -108.01917    1.1441789   -106.87499   -1994.6073    4.3301753    4.3301753    4.3301753   -1994.6073   -15582.602   -18775.918    28374.698    2502.7945    32178.384    7657.0935    81.192599 
   53900    684.26613   -107.51965   0.61913837   -106.90052    6554.8897    4.3442006    4.3442006    4.3442006    6554.8897    57531.837   -46334.165    8466.9966   -8567.1557   -5504.4484   -12204.025    81.984096 
   54000    1689.7764   -108.40229    1.5289452   -106.87335   -18264.095    4.3626338    4.3626338    4.3626338   -18264.095   -17918.894    -35722.35    -1151.042   -733.24981    19624.129   -11067.411    83.032147 
   54100     1238.241   -107.99118    1.1203865   -106.87079    7462.4673    4.3399407    4.3399407    4.3399407    7462.4673    305.46847   -19115.837     41197.77   -5272.8937    6975.6813   -60.681334    81.743153 
   54200    618.13181   -107.44045   0.55929866   -106.88115    7014.4269    4.3356159    4.3356159    4.3356159    7014.4269    15066.299   -53193.314    59170.295   -12485.719   -4516.4412    -10832.99     81.49902 
   54300    1381.3318   -108.13539     1.249858   -106.88554    -1020.283    4.3455331    4.3455331    4.3455331    -1020.283   -5121.4749   -15679.029    17739.655    1445.3765   -1223.7143   -3135.8848    82.059562 
   54400    1450.0059   -108.19462    1.3119958   -106.88262    2721.0243    4.3535603    4.3535603    4.3535603    2721.0243    -20269.42   -14423.977     42856.47   -6676.7971    16506.243   -3980.9202    82.515151 
   54500    897.65208   -107.69464   0.81221447   -106.88242     8354.827    4.3505086    4.3505086    4.3505086     8354.827    2816.1784   -54697.733    76946.036   -28.523247     -11373.4   -6560.5204     82.34175 
   54600    1242.1018   -108.00007    1.1238798   -106.87619    2700.6211    4.3459676    4.3459676    4.3459676    2700.6211    -8106.247   -18246.509    34454.619   -2877.5469     18354.01    5960.0995     82.08418 
   54700    1521.8005   -108.24535    1.3769571   -106.86839    22654.795    4.3449112    4.3449112    4.3449112    22654.795    4385.6862   -18902.367    82481.066   -3802.7233    1512.5195    5117.4125    82.024336 
   54800    1126.3736   -107.89623    1.0191665   -106.87706    1901.5876    4.3488078    4.3488078    4.3488078    1901.5876   -7900.4987   -35210.966    48816.228    2790.9696    3296.1569   -2591.4115    82.245215 
   54900    952.37721   -107.74453   0.86173092    -106.8828   -15535.998    4.3543533    4.3543533    4.3543533   -15535.998    16439.958   -41826.396   -21221.556   -4722.9561    12541.733    1282.7912    82.560247 
   55000    1491.5244    -108.2162    1.3495626   -106.86663    16655.907     4.351497     4.351497     4.351497    16655.907    3370.0829   -9604.4251    56202.064   -3807.6025   -2681.2579    539.51216    82.397886 
   55100     1343.139   -108.08604    1.2153004   -106.87074    249.98048    4.3417921    4.3417921    4.3417921    249.98048    6938.0128   -25276.322    19088.251    2161.2784    4396.0494   -906.90745     81.84781 
   55200    915.51966   -107.70951   0.82838143   -106.88113   -14860.962    4.3488138    4.3488138    4.3488138   -14860.962    7970.4536   -27701.069   -24852.272   -3340.6405    19512.559    9354.1039    82.245556 
   55300     1232.612   -107.99017    1.1152933   -106.87487   -4230.9995    4.3497659    4.3497659    4.3497659   -4230.9995   -36651.913   -3023.1006    26982.015    1822.2382   -15656.576    3934.7414    82.299584 
   55400    1155.7933   -107.91422     1.045786   -106.86844    22732.748     4.340264     4.340264     4.340264    22732.748    8708.1548   -11225.538    70715.628    4866.6989    -6882.212   -128.87338    81.761425 
   55500    1307.0087   -108.05336     1.182609   -106.87075   -15232.414    4.3510167    4.3510167    4.3510167   -15232.414   -14524.033   -24424.644   -6748.5631   -3167.2277    8124.6639    13400.181    82.370603 
   55600    1181.8587    -107.9386    1.0693706   -106.86923     -11950.9    4.3594342    4.3594342    4.3594342     -11950.9   -39163.755   -23775.821    27086.876    8919.4626   -37391.941     -12551.1    82.849594 
   55700    1485.9981   -108.20633    1.3445624   -106.86177    4697.3509    4.3473064    4.3473064    4.3473064    4697.3509    100.39217   -28618.428    42610.089    1604.4917    4431.9732    10180.777    82.160059 
   55800    1085.3274   -107.84868   0.98202708   -106.86665    1055.0049    4.3348691    4.3348691    4.3348691    1055.0049    8434.8942    2304.3954   -7574.2748    5026.4024   -9418.0997    4631.5747    81.456913 
   55900    765.79443   -107.57306    0.6929069   -106.88015   -9744.3973    4.3511842    4.3511842    4.3511842   -9744.3973   -44621.935   -4738.8621    20127.605     7014.137   -35731.139   -12237.671    82.380115 
   56000    1826.2012   -108.51126    1.6523852   -106.85887    6887.1571    4.3533346    4.3533346    4.3533346    6887.1571    1610.9588   -16992.126    36042.638    1357.3543    19336.996    7993.4581    82.502316 
   56100    1022.9887   -107.79969   0.92562172   -106.87407   -12065.519    4.3451689    4.3451689    4.3451689   -12065.519   -48852.698    2315.5087    10340.632    4080.2324   -42091.819   -927.72126     82.03893 
   56200    750.02237   -107.55968     0.678636   -106.88105    969.31645    4.3481477    4.3481477    4.3481477    969.31645   -25554.407   -1329.0694    29791.426    5943.4111   -239.02874   -991.89594    82.207771 
   56300    1944.2161   -108.62389    1.7591676   -106.86472   -7529.1863    4.3486928    4.3486928    4.3486928   -7529.1863   -17360.437   -17284.617    12057.495   -3073.7998    8039.8807    10637.411    82.238692 
   56400    757.07685   -107.55908   0.68501905   -106.87406    17337.134    4.3498925    4.3498925    4.3498925    17337.134   -16473.495    -4664.989    73149.885    9520.8665   -33900.526   -7476.0433    82.306772 
   56500    1194.2621   -107.94589    1.0805935   -106.86529   -23968.736    4.3501153    4.3501153    4.3501153   -23968.736   -41616.592   -34859.942    4570.3243    11590.691    23127.887    5341.9922    82.319423 
   56600    1742.3544   -108.43153    1.5765189   -106.85501    4506.5679    4.3440597    4.3440597    4.3440597    4506.5679    9673.6034   -15598.043    19444.143   -9509.6992   -8875.8901    6500.6442    81.976121 
   56700    940.77225   -107.72076   0.85123051   -106.86953    -19985.16    4.3643675    4.3643675    4.3643675    -19985.16   -53073.701   -13059.704     6177.924    15727.761   -15126.969   -12848.921    83.131179 
   56800    825.69838    -107.6095   0.74710925   -106.86239   -12966.453    4.3566953    4.3566953    4.3566953   -12966.453   -21528.651   -38085.476    20714.768    1698.5516    31273.905    6273.2936    82.693538 
   56900    1709.8348   -108.40151    1.5470944   -106.85441    9712.8614    4.3293658    4.3293658    4.3293658    9712.8614    5290.4408   -12789.677    36637.821   -7480.7481   -11550.168    20781.769    81.147068 
   57000    1168.5911   -107.93492    1.0573658   -106.87756    17518.388    4.3438282    4.3438282    4.3438282    17518.388   -7080.1633    13099.438    46535.888    17133.005    3567.3968   -15171.759    81.963013 
   57100     564.2306   -107.39275   0.51052771   -106.88222   -26120.788    4.3645103    4.3645103    4.3645103   -26120.788   -42797.072   -40099.916    4534.6244    -7029.308     16233.99    32803.871    83.139337 
   57200    1457.9131   -108.18168    1.3191504   -106.86253    8448.2588    4.3507904    4.3507904    4.3507904    8448.2588    -467.5749   -3177.8074    28990.159     9796.563   -17169.096    9757.5698    82.357754 
   57300    1128.0528   -107.88071    1.0206859   -106.86003    17772.144     4.351695     4.351695     4.351695    17772.144    15197.483    849.57268    37269.377    7865.4879    11842.061    8960.7287    82.409132 
   57400     623.2188   -107.42659   0.56390147   -106.86269   -9174.7384    4.3532409    4.3532409    4.3532409   -9174.7384    46621.637   -23746.348   -50399.504    7187.5789    10395.786    20700.786    82.496988 
   57500    1480.1856   -108.18395    1.3393031   -106.84464    6613.3596    4.3623097    4.3623097    4.3623097    6613.3596    8579.1187   -11905.926    23166.886    10525.263    3542.5172   -7478.3243    83.013644 
   57600    905.11196   -107.66133   0.81896433   -106.84236     -2641.89    4.3647536    4.3647536    4.3647536     -2641.89     28277.27   -16910.555   -19292.384    8444.7243    14739.024    25274.526    83.153242 
   57700    901.76348    -107.6531   0.81593455   -106.83717    7390.2231    4.3378031    4.3378031    4.3378031    7390.2231    34983.194    9102.0954    -21914.62   -4351.4277    1150.8334    6434.0441    81.622426 
   57800    1740.2759   -108.41987    1.5746382   -106.84523   -14257.474     4.350177     4.350177     4.350177   -14257.474   -5064.3798   -27473.009   -10235.034    9181.8067   -18869.422   -13311.203    82.322924 
   57900    906.07069   -107.67083    0.8198318     -106.851   -14137.723    4.3692294    4.3692294    4.3692294   -14137.723   -11843.383    -38400.05    7830.2658   -12845.652    16242.178    32193.972    83.409312 
   58000       1374.3   -108.08212    1.2434955   -106.83863   -23792.012    4.3579704    4.3579704    4.3579704   -23792.012   -24915.363   -15075.881   -31384.794   -4850.3284   -7188.4374   -14519.461    82.766163 
   58100    1597.1371   -108.27721    1.4451232   -106.83208   -2443.8863    4.3438216    4.3438216    4.3438216   -2443.8863   -3056.2883   -22920.579    18645.208    -3069.793   -6073.7465    3939.3835    81.962639 
   58200    714.35509    -107.5026    0.6463635   -106.85623    15499.688     4.347797     4.347797     4.347797    15499.688     43456.69     1727.211    1315.1641   -7085.5042    17756.265    34147.963    82.187882 
   58300    1453.4724   -108.17291    1.3151323   -106.85778   -22117.272    4.3599945    4.3599945    4.3599945   -22117.272   -17593.835   -18902.701    -29855.28   -3769.4931   -4620.1696   -15750.985     82.88154 
   58400    1119.6429   -107.86335    1.0130764   -106.85027    16622.307    4.3531752    4.3531752    4.3531752    16622.307    51975.904    2197.9408   -4306.9234    12927.116   -6284.3923    475.01239    82.493255 
   58500    944.03363   -107.70158   0.85418147    -106.8474    11858.412     4.345838     4.345838     4.345838    11858.412    9848.1365    7748.1205     17978.98   -9140.5318    21347.745    11238.117    82.076834 
   58600    1411.9381   -108.12583    1.2775513   -106.84828     6783.855    4.3501439    4.3501439    4.3501439     6783.855    15359.225   -11536.842    16529.182    249.96237   -7031.1588   -25889.135    82.321045 
   58700    1079.7498    -107.8272   0.97698035   -106.85022    5055.6877    4.3607904    4.3607904    4.3607904    5055.6877    29688.354   -27965.377    13444.086   -5324.6037    18229.799    11497.523    82.926938 
   58800    980.54078   -107.73566    0.8872139   -106.84845    -3842.022     4.354883     4.354883     4.354883    -3842.022   -21899.005   -21632.032    32004.972   -20207.858    8627.2032    3609.4154    82.590379 
   58900    1743.6355     -108.417     1.577678   -106.83933   -15640.969    4.3446026    4.3446026    4.3446026   -15640.969   -7852.5976   -26815.073   -12255.238     8732.949   -8225.1785   -11692.907    82.006858 
   59000    1025.7286    -107.7865   0.92810082    -106.8584    6067.1676    4.3420741    4.3420741    4.3420741    6067.1676    11381.173   -16146.359    22966.689   -26862.906    732.03629    10401.511    81.863762 
   59100     1103.049   -107.86403   0.99806194   -106.86597    -21376.91    4.3579872    4.3579872    4.3579872    -21376.91   -17988.387   -39749.631   -6392.7138    717.48719    13465.555    1356.4826    82.767121 
   59200    1393.5559   -108.11278    1.2609187   -106.85186   -27598.076    4.3573855    4.3573855    4.3573855   -27598.076   -29538.397   -54470.678    1214.8462    14257.971    -10840.38    -23561.47    82.732845 
   59300    968.61065   -107.72521   0.87641927   -106.84879    927.57239    4.3476608    4.3476608    4.3476608    927.57239    17093.195   -37242.213    22931.735    -27429.12    9574.0485    24580.709    82.180155 
   59400    1251.5515   -107.97804    1.1324301   -106.84561   -7116.8565    4.3454765    4.3454765    4.3454765   -7116.8565    2775.4977   -5233.1061   -18892.961    11841.529   -2801.9494   -12072.738    82.056356 
   59500    1026.9723   -107.78813    0.9292261    -106.8589   -1292.6883    4.3479662    4.3479662    4.3479662   -1292.6883   -16644.243   -34778.217    47544.395    3247.3131   -17138.733    -16267.29    82.197476 
   59600    1098.5497   -107.85323   0.99399085   -106.85924    12603.244    4.3525011    4.3525011    4.3525011    12603.244    35687.897   -19846.344    21968.181   -18016.969    5717.5971    7751.1577    82.454939 
   59700    1194.4134    -107.9373    1.0807304   -106.85657    1385.7957    4.3532412    4.3532412    4.3532412    1385.7957   -16078.268    26268.336   -6032.6815    9605.6418   -7652.8454   -8876.8389    82.497008 
   59800    1241.8234   -107.97208    1.1236279   -106.84845   -22936.467    4.3548364    4.3548364    4.3548364   -22936.467   -43264.511   -17121.503    -8423.385   -4208.8802   -4470.1103   -7092.5258    82.587733 
   59900     1372.778    -108.0803    1.2421184   -106.83818    4487.0093    4.3504846    4.3504846    4.3504846    4487.0093    17195.371    9073.6696   -12808.012    -4832.874     4852.086    37141.154    82.340388 
   60000    1191.8475   -107.92003    1.0784087   -106.84162   -18274.441    4.3605192    4.3605192    4.3605192   -18274.441   -24866.784   -21654.053   -8302.4854    2772.4541    425.26152   -8726.0163    82.911467 
   60100    1170.3465   -107.89746    1.0589541    -106.8385   -9829.2926    4.3499089    4.3499089    4.3499089   -9829.2926    461.75483   -39054.671    9105.0389   -2880.7972   -182.50041    11170.763    82.307702 
   60200    1462.0102   -108.15571    1.3228576   -106.83286    15704.134    4.3451675    4.3451675    4.3451675    15704.134        22615   -8925.9964    33423.397    1442.5769   -2418.0737     27184.51    82.038852 
   60300    1366.2523   -108.08056    1.2362138   -106.84435   -26611.118    4.3620747    4.3620747    4.3620747   -26611.118   -30867.909   -26101.908   -22863.535    3396.8183   -21886.661   -16002.306    83.000229 
   60400    811.51667    -107.5839   0.73427734   -106.84962    1695.9428    4.3593269    4.3593269    4.3593269    1695.9428    33816.982   -29673.427    944.27409   -2484.3875   -18939.601    30452.105    82.843477 
   60500    1956.4834    -108.6037    1.7702673   -106.83343   -4289.2591    4.3528188    4.3528188    4.3528188   -4289.2591    11618.995   -1799.0251   -22687.747     12448.67    -3363.355   -14398.623    82.472995 
   60600    678.51395   -107.46705   0.61393368   -106.85312    32133.896    4.3359528    4.3359528    4.3359528    32133.896    66909.366   -8091.7506    37584.072   -4687.1499   -16183.137    13733.783    81.518023 
   60700    1053.8796   -107.82442   0.95357245   -106.87085   -5925.6273    4.3480199    4.3480199    4.3480199   -5925.6273   -4096.3069   -23264.748     9584.173    2573.4254    5053.8452     20631.91    82.200522 
   60800    1625.7884     -108.322    1.4710475   -106.85095    6219.3612    4.3591243    4.3591243    4.3591243    6219.3612    14001.422   -6045.2385      10701.9    5125.2612   -2339.2778   -12834.704    82.831925 
   60900    801.14161   -107.58546   0.72488976   -106.86057   -1458.0305    4.3495704    4.3495704    4.3495704   -1458.0305    57041.584   -39979.757   -21435.918   -18959.821   -18119.633     35074.62    82.288492 
   61000    1388.1808   -108.11047    1.2560551   -106.85441   -1690.2428    4.3405756    4.3405756    4.3405756   -1690.2428    5411.6119     -13714.1    3231.7602    437.77862    2947.2238   -1863.4022    81.779033 
   61100    1458.1874   -108.17988    1.3193986   -106.86048    12311.463    4.3467455    4.3467455    4.3467455    12311.463    55925.247   -12787.302   -6203.5561    5573.9189   -8281.2227    19342.746    82.128261 
   61200    1010.9012   -107.77792   0.91468465   -106.86323   -45635.813    4.3703823    4.3703823    4.3703823   -45635.813   -51680.575   -63099.722   -22127.143   -4645.5288    1876.1707    23504.888    83.475357 
   61300    1651.9531   -108.33806    1.4947219   -106.84334   -13903.567    4.3492591    4.3492591    4.3492591   -13903.567   -25753.673    -23901.86    7944.8316    12495.947    10505.951    613.96045    82.270823 
   61400    1379.1823   -108.08583    1.2479131   -106.83791    11363.264    4.3413219    4.3413219    4.3413219    11363.264     8227.371   -11923.652    37786.074   -536.84364   -8303.0466    21252.448    81.821224 
   61500    1081.2836   -107.82719   0.97836814   -106.84882   -35423.085     4.361219     4.361219     4.361219   -35423.085   -38025.463   -60858.889   -7384.9023   -3915.2083   -7957.6607    7988.3975    82.951394 
   61600    1189.3353   -107.91587    1.0761356   -106.83974    12961.625    4.3532637    4.3532637    4.3532637    12961.625     3024.011   -1633.3191    37494.185    17367.172   -8857.5654   -15016.712    82.498288 
   61700    1228.9151   -107.95666    1.1119482   -106.84471      11998.9    4.3502089    4.3502089    4.3502089      11998.9     38259.91    5532.0964   -7795.3054   -13777.937   -22756.849    686.85535    82.324736 
   61800    1018.6315   -107.77777   0.92167916   -106.85609    9908.1608    4.3454077    4.3454077    4.3454077    9908.1608    25087.576    11301.357   -6664.4513   -283.73501   -12484.204   -6671.2257    82.052456 
   61900    1071.5107   -107.83091   0.96952542   -106.86139    19701.968    4.3454272    4.3454272    4.3454272    19701.968    28747.529    15990.916    14367.459    10192.024     -6105.29   -21446.581    82.053564 
   62000    1664.5003   -108.35729    1.5060748   -106.85121    1470.4203    4.3549527    4.3549527    4.3549527    1470.4203    -10215.07    11363.529    3262.8023   -16023.602   -21686.142    3392.4057    82.594348 
   62100     1008.925   -107.77491   0.91289651   -106.86201   -9427.7475    4.3469329    4.3469329    4.3469329   -9427.7475    9306.2184   -19895.798   -17693.662     489.8033    13724.753    -24273.92    82.138885 
   62200    1007.6042   -107.77809   0.91170143   -106.86639    14619.641    4.3348847    4.3348847    4.3348847    14619.641    33499.192    3871.9464    6487.7847    13266.005   -15801.864   -12237.871    81.457797 
   62300    1563.3257   -108.28162    1.4145299   -106.86709    6499.1589    4.3471034    4.3471034    4.3471034    6499.1589     30465.43    1258.0277   -12225.981   -10281.063   -3324.6632    12570.395    82.148553 
   62400    973.02517   -107.74569   0.88041362   -106.86527   -29209.034    4.3587359    4.3587359    4.3587359   -29209.034   -14531.715   -37729.082   -35366.306    14145.239    4697.8588   -26930.149    82.809788 
   62500    1309.0195   -108.04176    1.1844284   -106.85733   -9672.2871    4.3362389    4.3362389    4.3362389   -9672.2871    4252.5195   -20145.042   -13124.338    3669.0397   -2828.6921     12766.17    81.534161 
   62600    1224.5599   -107.97346    1.1080075   -106.86546    18826.821    4.3376016    4.3376016    4.3376016    18826.821    45298.085    16934.465   -5752.0873    7265.4321   -988.34737    17282.571    81.611054 
   62700    1352.3736   -108.08527    1.2236561   -106.86162   -44984.463    4.3617449    4.3617449    4.3617449   -44984.463   -32771.251   -60089.867   -42092.272     827.8965    8958.3711   -21717.328    82.981403 
   62800    757.08895   -107.54321      0.68503   -106.85818   -8606.0817    4.3510418    4.3510418    4.3510418   -8606.0817    37427.195   -25284.059   -37961.381    947.75108   -6370.0804     34308.17     82.37203 
   62900    1693.9761   -108.37671    1.5327451   -106.84396    11528.466    4.3316575    4.3316575    4.3316575    11528.466      2489.58    33918.455   -1822.6368     3660.351    4174.8605   -730.73082    81.276001 
   63000     1082.737   -107.84742   0.97968321   -106.86773    6859.1163     4.339248     4.339248     4.339248    6859.1163     49902.09   -8678.7154   -20646.026    10129.317    6007.2163    2366.7821     81.70402 
   63100    651.71621   -107.47203   0.58968652   -106.88235    16193.437    4.3537459    4.3537459    4.3537459    16193.437    43387.786    43236.097   -38043.573   -13647.067   -9168.8842    30166.148    82.525702 
   63200    1877.1062   -108.55663    1.6984451   -106.85818   -5156.5946    4.3596817    4.3596817    4.3596817   -5156.5946    15073.677   -10115.465   -20427.997   -540.51776   -399.78699   -13909.939    82.863705 
   63300    845.23463   -107.62411   0.76478605   -106.85932    34355.273    4.3385967    4.3385967    4.3385967    34355.273    79045.988     36084.88   -12065.048    24980.456      749.668    34404.748    81.667232 
   63400    1146.0882   -107.89711    1.0370047    -106.8601   -15763.823    4.3460436    4.3460436    4.3460436   -15763.823   -12714.932    -6830.098    -27746.44   -17071.464   -21761.462   -6160.2585    82.088485 
   63500    1158.1932    -107.9027    1.0479575   -106.85474    20401.529    4.3488267    4.3488267    4.3488267    20401.529    61740.355    3328.6199   -3864.3886    9184.3383   -1363.7999    3017.0366     82.24629 
   63600    1243.5336   -107.98141    1.1251754   -106.85623   -4934.0377    4.3513216    4.3513216    4.3513216   -4934.0377    8446.2781    10543.169    -33791.56    10037.631   -10325.041      28164.8    82.387923 
   63700    1082.2856   -107.83358   0.97927478   -106.85431   -9065.6108     4.352084     4.352084     4.352084   -9065.6108    16337.355   -11885.632   -31648.556    -15014.83   -13436.905   -14466.356    82.431234 
   63800    1449.4516   -108.15652    1.3114943   -106.84502    17027.769    4.3445892    4.3445892    4.3445892    17027.769     46456.72    12647.463   -8020.8762   -1969.4754    7392.2093    6025.1036    82.006097 
   63900    1067.1918   -107.81566   0.96561761   -106.85005    1093.6543    4.3527787    4.3527787    4.3527787    1093.6543    22274.512    17707.193   -36700.742    5643.0966   -18734.988    12233.661    82.470716 
   64000    1201.0803   -107.92894    1.0867627   -106.84218     -6839.47    4.3587067    4.3587067    4.3587067     -6839.47     29276.35   -22415.379   -27379.382   -20850.118   -1042.9394   -20459.118    82.808121 
   64100    1541.3539   -108.23459    1.3946494   -106.83994   -14855.959    4.3527205    4.3527205    4.3527205   -14855.959   -25251.686    10041.784   -29357.974   -1684.2528   -306.75718    4173.5775    82.467408 
   64200    830.31727   -107.60938   0.75128851   -106.85809   -7665.9448    4.3438618    4.3438618    4.3438618   -7665.9448    6435.7826    6586.5728    -36020.19    13564.305   -25282.378   -2297.0587    81.964918 
   64300    1613.6079   -108.31035    1.4600263   -106.85033   -14482.757    4.3481416    4.3481416    4.3481416   -14482.757   -4671.3693   -4677.9312   -34098.971   -2314.1352    18589.437    -14640.77    82.207421 
   64400    1055.2912   -107.80226    0.9548497   -106.84741   -28257.116    4.3680727    4.3680727    4.3680727   -28257.116   -23167.455    -10478.12   -51125.773    10954.411   -28420.303    15398.056    83.343084 
   64500    1276.1667    -107.9955    1.1547024    -106.8408   -22860.794    4.3475184    4.3475184    4.3475184   -22860.794   -21323.374   -23258.206   -24000.802    5307.4225   -8026.4958   -2997.1895    82.172083 
   64600    1405.2796   -108.11827    1.2715265   -106.84674    18402.256    4.3377791    4.3377791    4.3377791    18402.256    19412.922   -11590.967    47384.812   -4565.0022   -5226.1614   -5446.5229    81.621073 
   64700    921.75848   -107.70005   0.83402644   -106.86602   -1561.5325    4.3531576    4.3531576    4.3531576   -1561.5325    -42124.56    1164.8187    36275.144    8984.7484   -40551.919    6446.0616    82.492253 
   64800    1305.4982   -108.03913    1.1812422   -106.85789   -17620.584    4.3667671    4.3667671    4.3667671   -17620.584   -11009.081   -42965.568     1112.899   -3367.5224    5471.7379   -10644.598    83.268377 
   64900    1361.4688   -108.08561    1.2318856   -106.85373    -18561.96    4.3553129    4.3553129    4.3553129    -18561.96    8244.5063   -14307.799   -49622.586     2376.545   -15997.285    -5108.019    82.614846 
   65000    1087.2658   -107.83382   0.98378098   -106.85003    26668.824    4.3240145    4.3240145    4.3240145    26668.824    22175.122    21516.136    36315.213    5742.0851   -25346.741    5103.9894    80.846535 
   65100     1188.624   -107.95039    1.0754919    -106.8749    7252.3584    4.3498157    4.3498157    4.3498157    7252.3584    18266.177   -20052.861    23543.759   -8568.0882   -2177.6687   -8259.6015    82.302412 
   65200    1280.5714    -108.0166    1.1586879   -106.85792   -11249.395    4.3633497    4.3633497    4.3633497   -11249.395    11275.217   -17186.711   -27836.692    656.37236   -31695.113   -5577.1666    83.073031 
   65300    1030.3503   -107.78706   0.93228264   -106.85478    15486.716     4.339243     4.339243     4.339243    15486.716    45873.218   -11460.098    12047.027    11082.834   -21429.716    5886.5739    81.703734 
   65400    1289.0235   -108.02809    1.1663355   -106.86176   -6497.9438    4.3446809    4.3446809    4.3446809   -6497.9438     9365.158   -41231.004    12372.015   -6179.0578    11298.238   -2527.1981     82.01129 
   65500    1567.5528   -108.27737    1.4183548   -106.85901   -4394.6954    4.3562993    4.3562993    4.3562993   -4394.6954    1942.1683   -2923.3441    -12202.91    2020.8855   -20706.084    4492.8696     82.67099 
   65600    1050.5501   -107.81143   0.95055979   -106.86087    8011.3085    4.3598397    4.3598397    4.3598397    8011.3085    11519.045   -27888.449     40403.33   -4835.9192    3108.9967   -6470.6919    82.872715 
   65700     1215.685   -107.95805    1.0999774   -106.85808   -2883.8657    4.3459372    4.3459372    4.3459372   -2883.8657   -3990.0664   -10847.215    6185.6844   -2385.5997   -10588.208   -3516.3496    82.082457 
   65800    1307.1997   -108.03649    1.1827818   -106.85371    33771.544    4.3362498    4.3362498    4.3362498    33771.544    28122.104    17192.173    56000.354    2516.6133   -36152.352   -4324.3123    81.534774 
   65900     1022.143   -107.79317   0.92485646   -106.86831    9656.3685      4.35367      4.35367      4.35367    9656.3685    11251.966   -23154.617    40871.756   -10940.866   -2920.8124   -14442.662    82.521385 
   66000    895.04248   -107.68478   0.80985325   -106.87493   -5111.2306    4.3528075    4.3528075    4.3528075   -5111.2306   -5130.5868   -10387.376    184.27118    3689.9721   -21081.766    -8530.473    82.472351 
   66100    1519.0437   -108.23489    1.3744626   -106.86043    8905.8894    4.3397562    4.3397562    4.3397562    8905.8894    7281.0378    10078.051    9358.5793   -5759.9825   -7274.6234    13407.212    81.732728 
   66200    1204.6791   -107.95453     1.090019   -106.86451    15251.656    4.3454306    4.3454306    4.3454306    15251.656   -9198.9485    16576.488    38377.429   -8649.5725    6995.3066   -12486.413    82.053752 
   66300    891.89695   -107.67773   0.80700711   -106.87072   -31143.381    4.3666564    4.3666564    4.3666564   -31143.381   -40721.573   -15964.371   -36744.197    10054.376   -43308.793    11331.744    83.262041 
   66400    1739.1772   -108.42604    1.5736441   -106.85239   -2724.4069    4.3475281    4.3475281    4.3475281   -2724.4069   -11427.093    5433.5527   -2179.6808   -10858.665   -10803.774   -5135.5326    82.172629 
   66500    958.64986   -107.72514   0.86740654   -106.85774     40222.62    4.3273234    4.3273234    4.3273234     40222.62    57216.674    15218.805     48232.38    8136.6636    2258.9876   -15910.538    81.032281 
   66600    919.93978   -107.71303   0.83238085   -106.88064   -9187.6672    4.3573334    4.3573334    4.3573334   -9187.6672   -12753.092   -18431.203    3621.2939    9827.4712   -29798.553    2516.9849    82.729874 
   66700    1431.0961   -108.13819    1.2948859    -106.8433    14428.818    4.3686481    4.3686481    4.3686481    14428.818    11371.805   -7886.7552    39801.405    3277.4811    20029.301    -11626.46    83.376028 
   66800    1083.4949   -107.82005   0.98036896   -106.83968   -8749.4868    4.3493473    4.3493473    4.3493473   -8749.4868   -16641.238    15064.094   -24671.316    11203.672   -38440.034   -10772.635    82.275827 
   66900    1269.7065   -107.99244    1.1488572   -106.84358   -3837.3004    4.3398902    4.3398902    4.3398902   -3837.3004   -21629.248    11695.909   -1578.5621    20814.264   -21685.214      9189.03    81.740298 
   67000    1577.8044   -108.27713    1.4276306    -106.8495    8355.5931    4.3510466    4.3510466    4.3510466    8355.5931    14544.501    5623.9334    4898.3449    5034.8325   -247.00763   -6502.0381    82.372303 
   67100    838.94443   -107.62087   0.75909455   -106.86178   -32792.667    4.3601701    4.3601701    4.3601701   -32792.667   -55397.356    -20969.83   -22010.815     517.0663   -35242.715    1230.3211    82.891554 
   67200    1172.0175   -107.91482    1.0604661   -106.85436    17260.907    4.3486706    4.3486706    4.3486706    17260.907    3941.4366   -10771.262    58612.546    12081.309    8291.9231    27197.839    82.237432 
   67300    1549.4649    -108.2523    1.4019884   -106.85031      15921.3    4.3394224    4.3394224    4.3394224      15921.3    30384.781    25513.482    -8134.365   -12665.215    349.39843    -13426.16    81.713869 
   67400    718.37539   -107.51869   0.65000115   -106.86869   -19618.904    4.3529057    4.3529057    4.3529057   -19618.904   -17932.424   -13640.863   -27283.426    8551.5031   -34097.317    10128.404    82.477935 
   67500    1601.3706   -108.29769    1.4489538   -106.84873   -12814.728    4.3595929    4.3595929    4.3595929   -12814.728    17075.968   -37915.061   -17605.092   -674.20497    4527.3796    8645.7734     82.85864 
   67600     1113.805   -107.85473    1.0077942   -106.84694    3226.0734    4.3527552    4.3527552    4.3527552    3226.0734    -29155.68    30883.348    7950.5515    4511.9655   -24397.006   -15440.772    82.469379 
   67700    681.79958   -107.47325   0.61690659   -106.85634   -12692.155    4.3464297    4.3464297    4.3464297   -12692.155   -21485.833   -22780.674    6190.0415     11493.43   -22868.158    22206.012    82.110363 
   67800    1642.8512   -108.33677    1.4864862   -106.85028    15027.403    4.3414476    4.3414476    4.3414476    15027.403    37319.391    1072.4214    6690.3974    7594.0162    16512.779      11835.6    81.828332 
   67900    1091.7537   -107.85511   0.98784172   -106.86726   -18896.638    4.3582354    4.3582354    4.3582354   -18896.638   -33104.228    23201.376   -46787.061    7586.0725    -42492.77    961.44832    82.781262 
   68000    800.39767   -107.58206   0.72421664   -106.85785   -18966.282    4.3583145    4.3583145    4.3583145   -18966.282   -9777.9696    -34258.24   -12862.638    1629.2382   -24849.262     35321.95    82.785774 
   68100    1553.0452   -108.24174    1.4052279   -106.83651    24644.817    4.3406543    4.3406543    4.3406543    24644.817    -10753.86    8588.9977    76099.314   -5020.9571    3813.2271   -8391.2949    81.783483 
   68200    792.02188   -107.57699   0.71663804   -106.86035   -7284.3352    4.3540462    4.3540462    4.3540462   -7284.3352     -27573.8    2465.6986    3255.0961     7364.828   -44607.589    17344.432    82.542783 
   68300    1334.7088   -108.05705    1.2076726   -106.84938   -6387.0428    4.3621139    4.3621139    4.3621139   -6387.0428    19515.335   -7922.1375   -30754.326    -2393.472    12999.302    21863.523    83.002468 
   68400    1448.0027   -108.15633    1.3101833   -106.84615   -12675.003    4.3568772    4.3568772    4.3568772   -12675.003   -36488.716    6741.4637   -8277.7576   -1734.0423   -11961.181   -10494.089    82.703892 
   68500    698.65651   -107.48726   0.63215909    -106.8551    7759.5992    4.3365102    4.3365102    4.3365102    7759.5992   -3549.9351    3356.4707    23472.262    5365.2346   -17573.725    37751.623    81.549466 
   68600    1506.0559    -108.2191     1.362711   -106.85639    16299.973    4.3412781    4.3412781    4.3412781    16299.973    18155.794   -6903.4492    37647.576    -3521.438    7250.9377   -2578.4771    81.818746 
   68700    1383.4114   -108.11202    1.2517397   -106.86028   -22172.761    4.3626637    4.3626637    4.3626637   -22172.761    -32504.97   -12506.552   -21506.762   -4467.2401   -21988.704     8532.269    83.033858 
   68800    883.92831   -107.65199   0.79979691    -106.8522   -23080.415    4.3607088    4.3607088    4.3607088   -23080.415   -12116.527   -22293.692   -34831.024   -3165.2189   -14511.933    39658.065    82.922282 
   68900    1697.7888    -108.3725     1.536195    -106.8363     26022.27    4.3392761    4.3392761    4.3392761     26022.27    949.87257    25471.819    51645.117   -3058.2742   -5425.2996   -21322.911    81.705605 
   69000    752.84865   -107.54245   0.68119328   -106.86125    13931.469     4.343543     4.343543     4.343543    13931.469    2291.3267   -9632.0581    49135.138   -908.32466   -23233.683    18972.816     81.94687 
   69100    1161.1786   -107.91059    1.0506588   -106.85993   -25756.531    4.3654691    4.3654691    4.3654691   -25756.531   -31897.608   -27420.057   -17951.928    9234.6329    7155.7928     15665.12    83.194143 
   69200    1631.8757   -108.32094    1.4765554   -106.84438    10067.044     4.348257     4.348257     4.348257    10067.044    14167.821     16393.28   -359.97007   -1734.0064    6984.8966   -8909.4819    82.213968 
   69300    938.00134   -107.70206   0.84872333   -106.85334   -11468.662    4.3379999    4.3379999    4.3379999   -11468.662    3219.0582   -23950.118   -13674.927   -1447.9932   -18819.417    43368.135    81.633536 
   69400    1199.9904   -107.94234    1.0857765   -106.85656    11789.926    4.3530446    4.3530446    4.3530446    11789.926   -5524.5887   -8517.3267    49411.695    7283.8414    8519.3825     4294.472    82.485831 
   69500    1148.6471   -107.88995      1.03932   -106.85063   -12888.752    4.3632272    4.3632272    4.3632272   -12888.752   -34975.522   -12718.855    9028.1213   -6956.3965    3156.3159    32864.755    83.066038 
   69600    1123.3066   -107.86002    1.0163914   -106.84363   -11016.332     4.348339     4.348339     4.348339   -11016.332    7504.0117   -9370.8064   -31182.202    5530.2391   -12434.196    31024.769     82.21862 
   69700    1479.2393   -108.18372    1.3384468   -106.84528     14771.61    4.3383005    4.3383005    4.3383005     14771.61   -18803.343    15052.692     48065.48   -3569.0526    28179.508   -18698.079    81.650507 
   69800     882.7836   -107.66089   0.79876115   -106.86213    25157.456     4.343201     4.343201     4.343201    25157.456     22323.05    22909.415    30239.902   -465.48878   -7390.2247    15364.767    81.927514 
   69900    1155.5355   -107.91159    1.0455528   -106.86604   -12586.992    4.3647735    4.3647735    4.3647735   -12586.992   -20676.447   -31302.957    14218.427   -3693.0627    2678.4423    11061.702    83.154383 
   70000    1589.1086   -108.28722    1.4378588   -106.84936   -11228.881    4.3560694    4.3560694    4.3560694   -11228.881    -36765.42   -5440.2105     8518.988   -8703.0293     21358.89   -6086.7544      82.6579 
   70100    1199.8562   -107.92933    1.0856551   -106.84367    25135.422    4.3328969    4.3328969    4.3328969    25135.422    29981.464    2865.9228    42558.879    2538.6746   -8708.2967    38406.555    81.345787 
   70200    971.17936   -107.74239   0.87874349   -106.86365    10306.351    4.3499228    4.3499228    4.3499228    10306.351   -15280.984    -29963.31    76163.346   -10949.144    23348.414    3251.2348    82.308494 
   70300    1399.5302   -108.12349    1.2663243   -106.85717    -23610.93    4.3582933    4.3582933    4.3582933    -23610.93   -22378.279   -9601.5208   -38852.989    2006.8206    23295.054    2221.3129    82.784562 
   70400    1334.5856    -108.0628    1.2075611   -106.85524   -9686.5007    4.3424015    4.3424015    4.3424015   -9686.5007    11974.992   -35007.703   -6026.7912   -12037.285   -10006.741    24354.025    81.882281 
   70500    936.37488   -107.71142   0.84725167   -106.86417    22451.326    4.3386213    4.3386213    4.3386213    22451.326   -11068.133   -6942.0779     85364.19   -6938.7352     20803.84   -23691.509    81.668625 
   70600    1148.7868   -107.90619    1.0394465   -106.86674    6508.9237    4.3460287    4.3460287    4.3460287    6508.9237    -22305.44    1783.3958    40048.815      5169.44    9986.5501   -1046.3638    82.087641 
   70700    1292.3982   -108.02717    1.1693891   -106.85778   -18883.646    4.3639159    4.3639159    4.3639159   -18883.646   -5870.0467   -47704.101   -3076.7905   -21233.086   -1823.9258    22555.115    83.105374 
   70800    1395.3394   -108.11809    1.2625324   -106.85556   -18866.987    4.3524847    4.3524847    4.3524847   -18866.987   -36291.609   -17720.772   -2588.5786    7999.3389    25349.263   -15369.911    82.454007 
   70900    919.44911   -107.68315   0.83193688   -106.85121    42300.514    4.3172561    4.3172561    4.3172561    42300.514    37056.655    3678.4378    86166.448   -14361.422    11838.177    31356.673    80.468043 
   71000    1191.3825   -107.95061    1.0779879   -106.87262    5866.0618     4.345228     4.345228     4.345228    5866.0618   -13880.383   -16096.223    47574.792   -16789.809   -14942.099     13130.18     82.04228 
   71100    1590.2443   -108.29494    1.4388865   -106.85605   -17464.413    4.3600846    4.3600846    4.3600846   -17464.413    -23561.69   -29738.419    906.87064    6703.5431    25150.111   -2409.4659    82.886683 
   71200    863.43238   -107.63842   0.78125176   -106.85716   -7372.1066    4.3382964    4.3382964    4.3382964   -7372.1066    13791.961     -33555.8   -2352.4815   -25834.034   -3812.4605    32126.772    81.650279 
   71300    1332.9816   -108.05344    1.2061098   -106.84733    11802.721     4.341972     4.341972     4.341972    11802.721     5129.723    11585.071     18693.37   -2489.4696    5832.5247    -8463.345    81.857983 
   71400    1143.5289   -107.88846     1.034689   -106.85377   -25212.995    4.3503512    4.3503512    4.3503512   -25212.995   -32949.945   -45610.857    2921.8178   -8803.9772     19202.28    16325.216    82.332813 
   71500    939.03202   -107.70439    0.8496559   -106.85474   -5429.2575    4.3467338    4.3467338    4.3467338   -5429.2575   -16247.835   -18523.344    18483.407   -22264.555   -8617.5793    29769.649    82.127598 
   71600    1505.9932    -108.2092    1.3626543   -106.84655   -388.08555    4.3536519    4.3536519    4.3536519   -388.08555   -33114.704    9096.9342    22853.513    5877.6053    3490.9916   -11065.617     82.52036 
   71700    982.65801   -107.74678   0.88912962   -106.85765   -8934.2523     4.337641     4.337641     4.337641   -8934.2523    2033.4161   -30292.879    1456.7056   -20493.269    8677.0886    32820.367    81.613277 
   71800    1294.6201   -108.02601    1.1713994   -106.85461    26504.165    4.3405264    4.3405264    4.3405264    26504.165   -14721.462    31045.908    63188.049   -7680.9995   -7361.6679    1192.5781    81.776255 
   71900    1394.2345   -108.11107    1.2615326   -106.84954    -25989.92    4.3600445    4.3600445    4.3600445    -25989.92   -24616.527    -26429.99   -26923.245    286.31942    4810.6436    3408.2767    82.884396 
   72000    851.19948   -107.61965   0.77018318   -106.84946    3585.9787    4.3385119    4.3385119    4.3385119    3585.9787    16790.723   -27117.825    21085.037   -14838.321    10118.308    43302.174    81.662446 
   72100    1779.8757    -108.4573    1.6104689   -106.84683    2993.4604    4.3439404    4.3439404    4.3439404    2993.4604   -24122.636    25055.836    8047.1807    6240.2351   -4577.7069   -6783.3515    81.969365 
   72200    893.52566   -107.67263   0.80848079   -106.86415    5045.1311    4.3471526    4.3471526    4.3471526    5045.1311   -1028.3468   -18899.788    35063.528      -1420.2    5656.7126    25456.873    82.151342 
   72300    895.49235   -107.67996    0.8102603    -106.8697    5267.0007    4.3404108    4.3404108    4.3404108    5267.0007    14596.007    12020.335    -10815.34   -6002.6671    14992.021    26256.044    81.769721 
   72400    1844.9497   -108.52272    1.6693493   -106.85337   -289.35585    4.3412921    4.3412921    4.3412921   -289.35585   -20389.177    13902.218    5618.8908    4298.9356   -24251.753   -15046.609    81.819537 
   72500    723.34812   -107.52564   0.65450058   -106.87114   -67.803949    4.3334588    4.3334588    4.3334588   -67.803949    5570.3314   -2539.4466   -3234.2967   -5965.7264    6746.9529    45385.035    81.377436 
   72600    1108.3327   -107.87523    1.0028427   -106.87239   -3136.9415    4.3466192    4.3466192    4.3466192   -3136.9415   -4660.1665   -14217.103    9466.4453   -7117.4804    4567.9639    2360.2254    82.121105 
   72700     1565.279   -108.27173    1.4162973   -106.85543   -21537.989    4.3525079    4.3525079    4.3525079   -21537.989   -15473.411   -30475.552   -18665.003    16832.052   -9496.7231   -6706.1834    82.455322 
   72800    927.86166   -107.69877   0.83954873   -106.85922    9150.5476    4.3284538    4.3284538    4.3284538    9150.5476    29868.481    12.232573   -2429.0711   -17228.828    17170.229     43091.79    81.095801 
   72900     1322.564   -108.05648    1.1966837   -106.85979    3824.5493    4.3406067    4.3406067    4.3406067    3824.5493    10223.023   -27850.588    29101.213    14669.036    2549.5764   -18874.622    81.780792 
   73000    1344.5669   -108.07569    1.2165924    -106.8591   -9517.6205    4.3453778    4.3453778    4.3453778   -9517.6205   -15087.162   -25118.286    11652.586     13325.84   -7807.2265    27245.129    82.050764 
   73100    741.59401   -107.54017   0.67100985   -106.86916    15762.098    4.3426869    4.3426869    4.3426869    15762.098    43444.326   -28693.786    32535.755   -22926.632   -229.12936    30006.378    81.898425 
   73200    1642.5119   -108.34264    1.4861793   -106.85646   -8610.4412    4.3534018    4.3534018    4.3534018   -8610.4412   -10461.766    -23542.68    8173.1221    18029.243    8095.3746   -3680.6307     82.50614 
   73300    1211.5244   -107.95032    1.0962128   -106.85411    12087.136    4.3420401    4.3420401    4.3420401    12087.136    43593.467   -20185.456    12853.398   -4063.4811   -2453.0261    25023.204    81.861839 
   73400    1226.5751   -107.96702    1.1098309   -106.85719     -13000.5    4.3460661    4.3460661    4.3460661     -13000.5    -18061.57    -27096.59    6156.6592   -14540.893    11436.677    2095.3624    82.089762 
   73500    1425.9228   -108.13574    1.2902049   -106.84553    20128.072    4.3418316    4.3418316    4.3418316    20128.072    17276.986   -1961.1347    45068.364     7963.847    4232.2641    3484.2287    81.850048 
   73600    788.89075   -107.57338   0.71380493   -106.85957    941.58843    4.3510401    4.3510401    4.3510401    941.58843    48735.284   -31872.318   -14038.201   -24078.003   -14031.526    12606.413     82.37193 
   73700     1155.154   -107.89118    1.0452077   -106.84597    1255.1516    4.3553001    4.3553001    4.3553001    1255.1516    16568.116   -23317.753    10515.093   -19128.626    1220.0549    -10293.21    82.614113 
   73800    1415.2375   -108.12285    1.2805367   -106.84231     15164.75    4.3316964    4.3316964    4.3316964     15164.75    55116.581     11522.46   -21144.791   -2779.3495   -2254.5713     11130.47    81.278192 
   73900    922.00263   -107.70213   0.83424736   -106.86788   -7405.5067     4.337225     4.337225     4.337225   -7405.5067   -10124.587   -21919.114    9827.1808   -34392.084   -9333.1215     3187.486    81.589801 
   74000    1447.9087    -108.1735    1.3100983    -106.8634   -21060.185     4.346446     4.346446     4.346446   -21060.185   -42231.134     6744.439   -27693.859    7577.6672   -3758.8414   -4899.6923    82.111289 
   74100    1025.1143   -107.79017   0.92754495   -106.86263    -15365.89    4.3568997    4.3568997    4.3568997    -15365.89    4969.5257   -21472.996   -29594.199    5343.0334    14972.533    11502.743    82.705178 
   74200     1406.095   -108.12294    1.2722643   -106.85068   -25011.358    4.3453075    4.3453075    4.3453075   -25011.358   -38810.315   -25287.513   -10936.247   -26118.809   -17056.793   -5735.2266    82.046783 
   74300    1100.3383   -107.84512   0.99560921   -106.84951    26280.488     4.321533     4.321533     4.321533    26280.488    28204.036     20447.76    30189.669    15347.166   -3850.0688    5202.2535    80.707429 
   74400    1255.5352     -108.006    1.1360347   -106.86996   -17379.042    4.3488882    4.3488882    4.3488882   -17379.042   -14242.988   -20505.435   -17388.703   -1917.3225    15877.647    11233.244    82.249776 
   74500    1121.7911   -107.86842    1.0150202    -106.8534    6443.4193    4.3567728    4.3567728    4.3567728    6443.4193   -1250.5274    12194.477    8386.3086   -17991.347   -34137.678   -560.25734    82.697952 
   74600    1027.0866    -107.7753   0.92932955   -106.84597    1412.4372    4.3480727    4.3480727    4.3480727    1412.4372    11634.164    13686.707    -21083.56    12261.492      15448.1    7030.1725    82.203515 
   74700    1209.6681   -107.93716    1.0945331   -106.84263    2181.4709     4.340187     4.340187     4.340187    2181.4709   -11185.565    23719.074   -5989.0964   -1655.8244   -2903.4249    7502.4768    81.757069 
   74800     1143.024   -107.89043    1.0342321    -106.8562    36538.008    4.3360453    4.3360453    4.3360453    36538.008    9241.1832    50400.522    49972.319   -10195.857   -35768.799    421.66606    81.523238 
   74900    1228.1498   -107.97839    1.1112558   -106.86713   -22045.273    4.3572856    4.3572856    4.3572856   -22045.273   -38798.369   -16150.204   -11187.247    22598.078    21333.928     4218.581    82.727151 
   75000    1118.9073   -107.87003    1.0124108   -106.85762    13564.018    4.3427224    4.3427224    4.3427224    13564.018   -15275.616    661.77337    55305.897     10390.22   -18498.292    3774.2227    81.900437 
   75100    1446.6395   -108.16359    1.3089498   -106.85464    8304.1768     4.345553     4.345553     4.345553    8304.1768    11912.805   -412.57233    13412.297   -8033.0949   -6998.4105   -7990.6931    82.060686 
   75200    1213.8125   -107.95133    1.0982831   -106.85304   -2518.8979    4.3504058    4.3504058    4.3504058   -2518.8979   -28633.393   -36862.759    57939.458     21883.59    17243.071   -5984.8755    82.335914 
   75300    1321.3769   -108.04891    1.1956096    -106.8533    6929.0455    4.3383258    4.3383258    4.3383258    6929.0455    19168.803    14030.644    -12412.31   -9471.3523   -17127.827    9200.3266    81.651937 
   75400    1080.8802   -107.83901   0.97800311     -106.861   -8770.0791    4.3478739    4.3478739    4.3478739   -8770.0791   -24209.419   -34274.831    32174.013   -9744.9084    3376.1327    2095.6375    82.192243 
   75500    1344.2774   -108.07418    1.2163305   -106.85785   -9538.2262    4.3422509    4.3422509    4.3422509   -9538.2262   -39873.954    4564.7637     6694.512    19838.453    9340.3823    5191.7342    81.873763 
   75600    1128.0751   -107.88438     1.020706   -106.86367    8576.9356    4.3455565    4.3455565    4.3455565    8576.9356   -2104.9046    869.67343    26966.038   -17032.679   -9207.6464    -652.7892    82.060886 
   75700    983.16206   -107.75381    0.8895857   -106.86422   -25810.088    4.3511519    4.3511519    4.3511519   -25810.088   -33951.813   -47437.101      3958.65    5247.1591    1153.1473   -5973.4086     82.37828 
   75800    1172.0535   -107.92136    1.0604986   -106.86086    3681.2411    4.3410948    4.3410948    4.3410948    3681.2411   -11166.362   -11810.066    34020.151    18060.019    24182.623   -3923.9885    81.808385 
   75900    1395.9318   -108.12234    1.2630685   -106.85927    13495.765    4.3417835    4.3417835    4.3417835    13495.765    15142.178    6573.9901    18771.127   -14821.383   -3468.5883   -2520.1767    81.847325 
   76000    884.12138   -107.66981    0.7999716   -106.86983    11484.176    4.3416023    4.3416023    4.3416023    11484.176    1129.7815   -34235.307    67558.055    20735.391    4181.9539   -1320.7099    81.837079 
   76100    1454.2858   -108.18286    1.3158684   -106.86699   -28577.259    4.3528929    4.3528929    4.3528929   -28577.259   -23421.351   -37547.549   -24762.878    6528.5056    19398.804   -1430.6918    82.477208 
   76200    1307.8977   -108.04863    1.1834133   -106.86522     16361.23    4.3424345    4.3424345    4.3424345     16361.23    20956.222   -15770.575    43898.043   -3954.4901   -15321.957    15684.571    81.884145 
   76300    992.93541   -107.77224   0.89842883   -106.87381    -2510.357     4.339185     4.339185     4.339185    -2510.357   -34489.153   -35250.538     62208.62    23336.637    6799.4286   -2666.2367    81.700459 
   76400    1156.0463   -107.91081     1.046015    -106.8648   -21420.128    4.3522094    4.3522094    4.3522094   -21420.128   -15829.759   -42818.355   -5612.2702   -4622.7447    31308.981     2752.415    82.438361 
   76500    1690.6656   -108.38482    1.5297498   -106.85507   -22454.807    4.3468215    4.3468215    4.3468215   -22454.807   -18899.513   -38248.395   -10216.512    12858.858   -14895.493    872.53734     82.13257 
   76600    785.02903   -107.58302   0.71031077    -106.8727    5213.7441    4.3415002    4.3415002    4.3415002    5213.7441   -29262.635   -14406.713     59310.58    7074.4939    17476.243   -18886.161    81.831305 
   76700    1175.6007   -107.93721    1.0637082    -106.8735    5025.0261    4.3384645    4.3384645    4.3384645    5025.0261   -2136.2233   -10505.681    27716.983   -3412.6583    20502.894    7621.9827     81.65977 
   76800    1469.1324   -108.20237    1.3293019   -106.87307   -285.34155    4.3529181    4.3529181    4.3529181   -285.34155    338.99561   -24130.775    22935.755    7752.9758     -16383.7   -2309.4266    82.478642 
   76900    1063.4704   -107.83062   0.96225036   -106.86837   -22431.876    4.3587558    4.3587558    4.3587558   -22431.876   -38337.301    686.05708   -29644.383   -6112.3041     27455.82    10495.876    82.810921 
   77000    1157.5152   -107.89936     1.047344   -106.85202    19925.199    4.3428026    4.3428026    4.3428026    19925.199    20509.106   -17215.784    56482.275    4407.2741    16678.605    9343.9894    81.904972 
   77100    1341.2417   -108.06485    1.2135837   -106.85127    3702.5428    4.3461916    4.3461916    4.3461916    3702.5428   -21077.839   -22627.156    54812.623   -7300.9282    -4847.836     7296.434    82.096872 
   77200    966.62875   -107.74479   0.87462601   -106.87017   -16145.084    4.3434437    4.3434437    4.3434437   -16145.084   -38554.316    8216.9648   -18097.903   -5296.0722    15225.905    6215.9052    81.941253 
   77300    1440.4036     -108.177    1.3033074   -106.87369   -1134.3495    4.3475683    4.3475683    4.3475683   -1134.3495     10097.59    -30066.02    16565.381    5838.2417    -2683.096   -3151.1626    82.174909 
   77400    1238.6385   -107.98878    1.1207461   -106.86803   -3171.9685    4.3588471    4.3588471    4.3588471   -3171.9685   -23026.069   -33713.913    47224.077   -13047.145    -9301.571    -2863.075    82.816122 
   77500    833.74384   -107.62746   0.75438895   -106.87307   -13861.235    4.3440023    4.3440023    4.3440023   -13861.235   -36642.104   -8149.2618    3207.6607   -4829.3097    19553.208   -6958.9112    81.972872 
   77600    1289.1341   -108.03728    1.1664357   -106.87085    16572.695    4.3331962    4.3331962    4.3331962    16572.695    33690.634   -14750.411    30777.862    14049.253   -6850.0725    8673.0687    81.362643 
   77700    1581.5569   -108.30223    1.4310259   -106.87121    495.51901    4.3527842    4.3527842    4.3527842    495.51901   -13311.807   -30650.745    45449.109   -6200.2924    1200.3322   -1094.1009    82.471031 
   77800    570.35854   -107.39794   0.51607239   -106.88186    17109.318    4.3483425    4.3483425    4.3483425    17109.318   -11001.956   -23825.594    86155.504    10987.976    11810.047    10223.044     82.21882 
   77900    1201.1118   -107.97039    1.0867912    -106.8836   -10545.822    4.3376732    4.3376732    4.3376732   -10545.822    3893.2218   -33031.262   -2499.4257   -1017.8347   -1125.6038    10612.465    81.615093 
   78000    1583.2329   -108.31206    1.4325424   -106.87952    12175.029    4.3345033    4.3345033    4.3345033    12175.029    19851.027    -15954.79    32628.848     -690.431   -8500.5729   -9606.4444    81.436296 
   78100    780.87961   -107.59738   0.70655628   -106.89082    17999.976    4.3504684    4.3504684    4.3504684    17999.976   -21150.775   -19893.776     95044.48    7461.6271     18372.27    2550.3635    82.339467 
   78200    1072.3733   -107.83953   0.97030589   -106.86922   -23890.937    4.3637013    4.3637013    4.3637013   -23890.937   -21752.064   -56906.776    6986.0304   -17335.467    -5978.019    2544.7934    83.093118 
   78300    1509.8229   -108.21784    1.3661195   -106.85172    5732.6146    4.3354172    4.3354172    4.3354172    5732.6146    4993.9297   -24237.999    36441.913    8183.1449    13741.041   -17030.553    81.487816 
   78400    1228.3499   -107.97356    1.1114368   -106.86212    15011.117    4.3371194    4.3371194    4.3371194    15011.117   -28120.177   -5534.8015    78688.328   -6396.2546    25364.499    9998.6626    81.583841 
   78500    901.55164   -107.68579   0.81574287   -106.87005   -3885.0646    4.3621845    4.3621845    4.3621845   -3885.0646   -13209.277   -45276.886    46830.969   -9972.0439   -2092.7206   -2154.3641    83.006498 
   78600    1117.5396   -107.86661    1.0111733   -106.85543   -23218.725    4.3570709    4.3570709    4.3570709   -23218.725   -2495.1986   -38028.099   -29132.879    4870.5039    16084.106   -21958.626    82.714925 
   78700     1475.766   -108.17674    1.3353041   -106.84143    7102.1807    4.3328051    4.3328051    4.3328051    7102.1807   -1174.7607    4302.3146    18178.988   -13484.912    12699.892    4654.6504    81.340616 
   78800    1107.2411   -107.86418     1.001855   -106.86233    11912.428    4.3374817    4.3374817    4.3374817    11912.428    31265.368   -37358.112    41830.028   -1269.9409   -19642.194   -22669.186    81.604285 
   78900    962.83353   -107.74509   0.87119201   -106.87389    2143.3854    4.3482309    4.3482309    4.3482309    2143.3854   -12109.318   -38594.454    57133.929   -1189.4563    20785.362   -3836.5421    82.212491 
   79000    1409.4164   -108.13507    1.2752696    -106.8598   -21342.426    4.3615852    4.3615852    4.3615852   -21342.426   -32964.991   -29066.418   -1995.8689   -10782.454    5610.6551   -5296.6146    82.972289 
   79100    1465.6995    -108.1813    1.3261957   -106.85511   -3688.5274    4.3395591    4.3395591    4.3395591   -3688.5274    18449.365   -14409.636   -15105.311    4069.9414      4565.11    -19576.04    81.721594 
   79200     789.2258   -107.57811   0.71410809     -106.864   -5033.0278    4.3330671    4.3330671    4.3330671   -5033.0278   -40890.405   -7131.6535    32922.975   -11460.036    21566.545    3797.8531    81.355372 
   79300    1553.4262   -108.26407    1.4055727    -106.8585   -9929.2278    4.3548159    4.3548159    4.3548159   -9929.2278   -23531.429   -21204.003    14947.749   -191.10648    2063.3475    11942.422    82.586567 
   79400    1057.4791   -107.80951   0.95682929   -106.85268   -937.35971    4.3532706    4.3532706    4.3532706   -937.35971    -11236.02   -8439.2161    16863.157   -4976.2635   -2694.1841   -20841.506    82.498678 
   79500    638.48639   -107.43325    0.5777159   -106.85554    -29436.63    4.3435272    4.3435272    4.3435272    -29436.63   -38955.201   -28942.981   -20411.709   -10174.822    11359.131    17787.755    81.945977 
   79600    1716.2334   -108.39665     1.552884   -106.84376    20028.533    4.3285297    4.3285297    4.3285297    20028.533    20313.167    13552.436    26219.996    7094.7885   -8641.1437    12004.801    81.100066 
   79700     1116.377   -107.88052    1.0101214    -106.8704   -12393.425    4.3457522    4.3457522    4.3457522   -12393.425   -26957.681    2570.0062   -12792.601   -11154.538    14177.189   -9004.5965    82.071972 
   79800    822.77347   -107.61241   0.74446272   -106.86795   -25754.528    4.3571526    4.3571526    4.3571526   -25754.528   -10718.745   -38348.516   -28196.322   -3120.7484    12697.394    19780.298    82.719581 
   79900    1268.4561   -107.99963    1.1477257    -106.8519    23763.636    4.3414117    4.3414117    4.3414117    23763.636    8870.8219    20358.305    42061.782    10231.279   -44.083504   -7097.8728    81.826298 
   80000    1315.9448   -108.04847    1.1906945   -106.85778    4678.7155    4.3328585    4.3328585    4.3328585    4678.7155    -24629.69   -19375.053    58040.889   -10843.269    20709.481     2138.116    81.343625 
   80100    977.73638   -107.75633   0.88467643   -106.87165    3430.8381    4.3386166    4.3386166    4.3386166    3430.8381      16553.8   -19552.736     13291.45    -3706.668   -1966.6695    34443.831     81.66836 
   80200    1425.8477   -108.15521    1.2901369   -106.86507   -18273.685    4.3478995    4.3478995    4.3478995   -18273.685    2788.5844   -35208.026   -22401.614   -1998.8309    9413.9448   -5832.4418    82.193693 
   80300    1267.3008   -108.00636    1.1466804   -106.85968    4677.6862    4.3414316    4.3414316    4.3414316    4677.6862   -24247.833   -6109.1308    44390.023   -8037.9981     12581.83    6729.1481    81.827426 
   80400     965.1508   -107.73616   0.87328873   -106.86288    8566.9513    4.3376537    4.3376537    4.3376537    8566.9513    14797.486    9168.4745    1734.8933   -2924.8365   -5592.9354    10181.734    81.613996 
   80500     1166.642   -107.92417    1.0556022   -106.86857     3931.745    4.3355831    4.3355831    4.3355831     3931.745     19987.36   -24376.924      16184.8   -8671.2362    4053.9008   -27207.784    81.497171 
   80600     1317.492   -108.05887    1.1920944   -106.86677    12703.185    4.3459077    4.3459077    4.3459077    12703.185   -10502.226    11713.777    36898.004   -1531.4154    4649.9565    12264.908    82.080783 
   80700    1344.0548    -108.0785     1.216129   -106.86237   -36052.274    4.3506746    4.3506746    4.3506746   -36052.274    5859.5066   -57729.753   -56286.574    2842.4333   -11043.093   -14712.314    82.351174 
   80800    855.16831   -107.63445   0.77377426   -106.86067    29724.523    4.3255241    4.3255241    4.3255241    29724.523    34050.501    14241.896     40881.17   -7576.7408    7625.7005   -14755.654    80.931243 
   80900    1438.0312   -108.16812    1.3011608   -106.86696     6062.669    4.3346473    4.3346473    4.3346473     6062.669   -6093.7471   -1317.5429    25599.297    2973.9222   -6805.9743   -3566.7483    81.444415 
   81000    1205.0139   -107.95877    1.0903219   -106.86845   -7050.2704    4.3494106    4.3494106    4.3494106   -7050.2704     16078.38   -36166.588   -1062.6031     1904.942    255.04296   -18675.499     82.27942 
   81100    944.93424   -107.72462   0.85499636   -106.86963    18588.282    4.3387814    4.3387814    4.3387814    18588.282    2864.9959    13377.274    39522.575      677.892     4308.349    9037.9688    81.677664 
   81200    1302.0342   -108.04876    1.1781079   -106.87065   -1254.5161    4.3384793    4.3384793    4.3384793   -1254.5161   -15266.995   -4084.5901    15588.037    5388.4818   -4617.1124    5001.1532    81.660602 
   81300    1369.1904   -108.10679    1.2388723   -106.86792    12281.315    4.3356646    4.3356646    4.3356646    12281.315    27719.686    3395.1232    5729.1368    2418.4431    9630.3152   -13867.595    81.501769 
   81400    830.71455   -107.62749   0.75164798   -106.87584   -8762.6701    4.3461061    4.3461061    4.3461061   -8762.6701   -2315.5749   -28560.285     4587.849    574.86122    -766.5006    7040.2387    82.092027 
   81500    1589.2141   -108.29831    1.4379543   -106.86036   -15953.038    4.3517731    4.3517731    4.3517731   -15953.038   -32302.856   -17178.637    1622.3805    10041.814    10802.896   -8128.0601     82.41357 
   81600    1757.0167   -108.44435    1.5897857   -106.85456    10390.747    4.3307147    4.3307147    4.3307147    10390.747    20956.306    7561.3008    2654.6325   -8358.7815    2751.1657   -5006.0286    81.222946 
   81700    653.67063   -107.47335   0.59145493   -106.88189   -19367.159    4.3371338    4.3371338    4.3371338   -19367.159   -15834.014   -25863.025   -16404.439    12189.365    10636.773    6949.9131    81.584653 
   81800    1459.1379   -108.18681    1.3202586   -106.86655   -10609.574    4.3554665    4.3554665    4.3554665   -10609.574   -16928.498    -20301.55    5401.3243    201.57286    6861.0569   -749.50154    82.623583 
   81900    1296.6847   -108.02238    1.1732676   -106.84911   -3259.3252    4.3530348    4.3530348    4.3530348   -3259.3252   -9230.1173   -8563.3684      8015.51    1626.4626   -20290.766    9159.5927    82.485274 
   82000    724.24959   -107.50351   0.65531625   -106.84819     13064.64    4.3382633    4.3382633    4.3382633     13064.64     3256.781   -28184.203    64121.342    12111.131    4179.3559     4976.286    81.648408 
   82100    1381.2378   -108.09766    1.2497729   -106.84788     19179.13    4.3367024    4.3367024    4.3367024     19179.13    42193.539   -29791.528    45135.379   -2794.9662   -17346.462   -10760.696    81.560308 
   82200    1255.8672   -107.99845     1.136335   -106.86211    18089.646    4.3449024    4.3449024    4.3449024    18089.646    35708.532    16175.259    2385.1479     -1892.57   -15196.602    1822.2959    82.023834 
   82300    1047.4964   -107.81747   0.94779675   -106.86967   -35305.299    4.3528887    4.3528887    4.3528887   -35305.299    548.16331   -70221.712   -36242.349    9214.5715    9904.2985   -7028.5055    82.476967 
   82400    1215.2896   -107.95691    1.0996196   -106.85729    1639.5269    4.3348322    4.3348322    4.3348322    1639.5269    31272.138   -8069.3416   -18284.216   -10550.419    -10223.82   -11110.154    81.454834 
   82500    1448.2705   -108.16891    1.3104256   -106.85849    3044.0218    4.3396636    4.3396636    4.3396636    3044.0218   -32517.247    3071.1538    38578.159    9196.7359    4428.2161    689.92979    81.727496 
   82600    1027.1169   -107.79999   0.92935699   -106.87064   -32921.273     4.346238     4.346238     4.346238   -32921.273    -25751.78   -54113.386   -18898.654    6236.6839    14387.642   -15098.166    82.099499 
   82700    1181.6346   -107.93694    1.0691678   -106.86778    21445.151    4.3420624    4.3420624    4.3420624    21445.151    1651.3675   -15740.146     78424.23     370.7564   -19823.668    597.34108      81.8631 
   82800    1655.7353   -108.35806    1.4981441   -106.85992   -25934.201    4.3524225    4.3524225    4.3524225   -25934.201   -42732.136   -19043.323   -16027.144   -160.27386    8486.0858   -7820.3077    82.450468 
   82900     921.7196   -107.69359   0.83399127    -106.8596    21645.428     4.332858     4.332858     4.332858    21645.428    7666.5977     -32487.4    89757.087    5964.1796    3152.0961   -17756.605    81.343597 
   83000    1199.1712   -107.95796    1.0850353   -106.87292   -16325.845    4.3407777    4.3407777    4.3407777   -16325.845   -20184.269    -18512.44   -10280.827   -4205.8688    2144.9591    34218.721    81.790456 
   83100    1549.6038   -108.26916    1.4021141   -106.86704   -3702.6931    4.3426888    4.3426888    4.3426888   -3702.6931   -28926.398    -11304.27    29122.589   -1951.6675    30033.667   -5246.1843    81.898536 
   83200    1127.6129   -107.88997    1.0202879   -106.86969   -15951.721    4.3527752    4.3527752    4.3527752   -15951.721   -12325.713   -30521.184   -5008.2677   -1747.8978    2112.4661    2642.8096    82.470516 
   83300    859.00722   -107.64617   0.77724779   -106.86892   -16486.982    4.3435731    4.3435731    4.3435731   -16486.982   -18580.857   -49521.831    18641.741   -12896.177    4692.4727    23384.393    81.948573 
   83400    1536.7423   -108.24645    1.3904767   -106.85597    10373.348    4.3296955    4.3296955    4.3296955    10373.348    13247.354    11495.916    6376.7754   -3042.8016    13423.373   -11888.898    81.165612 
   83500    1194.2764   -107.94353    1.0806064   -106.86293   -6583.6578    4.3461027    4.3461027    4.3461027   -6583.6578    23360.629   -35207.416   -7904.1863   -9445.7593   -10445.962    26306.421    82.091835 
   83600    760.14823   -107.55652   0.68779809   -106.86872   -2748.5441    4.3438895    4.3438895    4.3438895   -2748.5441    52119.501   -49152.893    -11212.24   -8558.5218    17151.752    10765.731    81.966483 
   83700    1615.3649   -108.32709    1.4616161   -106.86547   -9134.4157    4.3478983    4.3478983    4.3478983   -9134.4157   -5286.2533   -5776.5986   -16340.395     10807.55    15730.219   -3622.5556    82.193623 
   83800    1580.6397   -108.29729     1.430196   -106.86709    12798.758    4.3348462    4.3348462    4.3348462    12798.758    54973.317    -17993.73    1416.6851    7909.2368     1671.537    14377.713    81.455625 
   83900    673.14295   -107.49595   0.60907389   -106.88687    -2473.727    4.3357818    4.3357818    4.3357818    -2473.727    7044.0663   -11989.847   -2475.3998   -20570.721    18996.843   -6653.8134    81.508377 
   84000    1173.9326   -107.93406    1.0621989   -106.87186    124.08705    4.3587517    4.3587517    4.3587517    124.08705    29747.374   -9553.3336    -19821.78    4658.0445    6455.6795   -5905.2624    82.810689 
   84100    1406.5558   -108.13112    1.2726812   -106.85844   -7418.1232    4.3487964    4.3487964    4.3487964   -7418.1232    12860.271   -18794.232   -16320.409   -22233.221   -12681.752    6080.5618     82.24457 
   84200    435.97173   -107.26403   0.39447638   -106.86955   -9586.7387    4.3313637    4.3313637    4.3313637   -9586.7387   -22048.062   -11288.476    4576.3225   -1459.5597    31067.642   -22376.252    81.259465 
   84300    1590.2503   -108.31056    1.4388919   -106.87166    12323.926    4.3333813    4.3333813    4.3333813    12323.926    24494.196     2950.601    9526.9812     12021.74    766.01118   -10378.009    81.373072 
   84400    1583.9416    -108.3119    1.4331836   -106.87872   -6968.7896    4.3513109    4.3513109    4.3513109   -6968.7896    7593.2445   -17798.407   -10701.207    2215.8648    1683.2709    626.10588    82.387313 
   84500    667.61314   -107.48698    0.6040704   -106.88291    5108.1453    4.3415535    4.3415535    4.3415535    5108.1453    45755.027   -17995.128   -12435.463   -3212.2071     18387.91   -20000.713    81.834319 
   84600    1496.3225   -108.21971     1.353904    -106.8658   -4291.5059    4.3316936    4.3316936    4.3316936   -4291.5059    26570.622   -35622.824   -3822.3159    10192.559   -6143.2062    11443.451    81.278032 
   84700    1403.9336   -108.13809    1.2703087   -106.86778   -434.39842    4.3377536    4.3377536    4.3377536   -434.39842    5607.6767    5879.8348   -12790.707   -4829.6393     4924.962    1079.1467    81.619633 
   84800    1181.7389   -107.93839    1.0692622   -106.86913   -21424.719    4.3485635    4.3485635    4.3485635   -21424.719   -5281.5814   -34198.695    -24793.88    5848.1476    4099.3043   -7273.1193    82.231353 
   84900    1001.7967   -107.77653   0.90644668   -106.87008   -10676.499     4.342589     4.342589     4.342589   -10676.499    26119.539   -53764.507   -4384.5295     11152.24   -6039.3678    23845.053    81.892887 
   85000    1323.0465   -108.06045    1.1971203   -106.86333    25964.129    4.3328324    4.3328324    4.3328324    25964.129    36614.995    35396.851    5880.5414    6934.7882     16977.39   -7881.0114    81.342153 
   85100    1413.4395   -108.14548    1.2789098   -106.86657   -1777.8277    4.3410917    4.3410917    4.3410917   -1777.8277    8672.5627   -12084.984   -1921.0617    14695.529    10918.592      1619.32    81.808209 
   85200    509.71388    -107.3403   0.46119983    -106.8791    -3210.396    4.3396831    4.3396831    4.3396831    -3210.396    -2977.081   -7989.9049     1335.798    8066.0094   -3535.9968    13450.589    81.728597 
   85300     1448.534   -108.18298     1.310664   -106.87232    885.30281    4.3416284    4.3416284    4.3416284    885.30281    3560.2742    5582.9019   -6487.2676   -15453.531    30206.556   -3490.6748    81.838555 
   85400    1616.9067   -108.33072    1.4630112   -106.86771    6155.7229    4.3372273    4.3372273    4.3372273    6155.7229    33934.297   -18724.983    3257.8556      14592.2   -11238.197   -2513.6991    81.589928 
   85500    626.01002   -107.44688   0.56642702   -106.88045   -987.65962    4.3360528    4.3360528    4.3360528   -987.65962    1315.9606   -8448.3669    4169.4275   -3752.1689    12159.109    13592.286    81.523663 
   85600     1363.549   -108.10649    1.2337678   -106.87273   -11686.849    4.3439612    4.3439612    4.3439612   -11686.849    7496.8584   -4079.0292   -38478.377   -4517.4447    14662.039   -18933.893    81.970543 
   85700    1445.2265   -108.17305    1.3076713   -106.86538    11468.642    4.3362607    4.3362607    4.3362607    11468.642   -11843.794    27789.452    18460.267    7994.7218    -18305.92   -3934.2657    81.535389 
   85800    704.71729   -107.51141   0.63764302   -106.87376   -18480.997    4.3404994    4.3404994    4.3404994   -18480.997   -31884.816   -1387.3102   -22170.863    1150.0031    32340.177   -656.45958    81.774725 
   85900     1136.251   -107.89775    1.0281038   -106.86965    -8956.484    4.3398548    4.3398548    4.3398548    -8956.484    30936.959   -32857.795   -24948.616   -6978.0074   -9008.4904   -28626.084      81.7383 
   86000    1888.2955   -108.56439    1.7085694   -106.85582    252.97564    4.3398996    4.3398996    4.3398996    252.97564    12982.456   -15266.615    3043.0865     5206.128    10262.344    6054.1014     81.74083 
   86100    891.52237   -107.67827   0.80666817    -106.8716   -22175.551    4.3437789    4.3437789    4.3437789   -22175.551   -7332.6178   -35582.122   -23611.912   -2941.4656    25133.723    -16321.78    81.960221 
   86200    912.34106   -107.69624   0.82550537   -106.87074    4258.0452    4.3357708    4.3357708    4.3357708    4258.0452    60187.087   -31862.294   -15550.657   -2031.4277   -2318.2067   -18599.002    81.507758 
   86300    1677.8675   -108.37475    1.5181698   -106.85658    8878.4398    4.3437433    4.3437433    4.3437433    8878.4398   -20149.473    28624.732     18160.06    8260.0093    19835.023    3415.5501     81.95821 
   86400    691.21703   -107.49531    0.6254277   -106.86988   -6851.2521    4.3493933    4.3493933    4.3493933   -6851.2521    4922.0063   -11169.306   -14306.456   -6173.9225    3969.2409   -35593.889     82.27844 
   86500    1063.8176   -107.82038   0.96256455   -106.85782    4100.5109    4.3375774    4.3375774    4.3375774    4100.5109    19882.535   -19266.312     11685.31    10256.842    5634.0441    2471.3816    81.609689 
   86600    1457.7599   -108.16965    1.3190118   -106.85064    19407.148    4.3389931    4.3389931    4.3389931    19407.148    36177.201      5069.46    16974.785    11430.006    3627.3881    -3411.683     81.68962 
   86700    1396.0402   -108.12292    1.2631665   -106.85975   -20690.112    4.3448953    4.3448953    4.3448953   -20690.112    4048.1609   -48275.455   -17843.043   -1837.1411    3903.6182   -25701.051    82.023436 
   86800    1010.4589   -107.77835   0.91428442   -106.86406   -1943.4839    4.3398594    4.3398594    4.3398594   -1943.4839    12644.912   -32582.067    14106.703    3749.2412    2710.5494    31462.878    81.738559 
   86900    1353.7195   -108.08019    1.2248738   -106.85531    1603.7497    4.3389738    4.3389738    4.3389738    1603.7497    19290.888   -8630.9444   -5848.6948    12059.706    213.58928   -11876.051     81.68853 
   87000    1097.4841   -107.85279   0.99302669   -106.85976    4731.0544    4.3449833    4.3449833    4.3449833    4731.0544    6783.0535    -3477.161    10887.271   -3743.6246    5280.7279   -19386.802    82.028418 
   87100    918.35869   -107.69853   0.83095024   -106.86758   -1218.5133    4.3405418    4.3405418    4.3405418   -1218.5133    22012.981   -33365.959    7697.4383    7968.1344    -7489.182    32307.437    81.777126 
   87200    1426.0273   -108.14886    1.2902994   -106.85856    16290.398    4.3300237    4.3300237    4.3300237    16290.398    5904.8289    8254.0889    34712.277    8300.7671   -7484.2179   -16516.677    81.184073 
   87300    1283.4905   -108.02628    1.1613292   -106.86495   -2389.5337    4.3446313    4.3446313    4.3446313   -2389.5337    40330.709    -25697.21     -21802.1   -5456.9733    5551.7305    14456.462    82.008483 
   87400    1221.1481   -107.96567    1.1049205   -106.86075   -28702.953    4.3458327    4.3458327    4.3458327   -28702.953   -5104.1989   -58106.428   -22898.234    17869.965   -13508.084     24377.93    82.076534 
   87500    1025.8229   -107.78708   0.92818611   -106.85889    14854.547    4.3281787    4.3281787    4.3281787    14854.547    25865.687    13426.311    5271.6438   -4254.3447    5330.2783   -8731.6294    81.080338 
   87600     1338.162   -108.07471    1.2107971   -106.86391   -5925.3573    4.3366063    4.3366063    4.3366063   -5925.3573    15726.137   -14816.853   -18685.356   -390.15418   -3238.4959    24526.263    81.554887 
   87700    1298.2341   -108.03302    1.1746695   -106.85835      5686.41    4.3471962    4.3471962    4.3471962      5686.41    23357.098   -12755.884    6458.0166    12025.093   -1505.7563   -2529.3481    82.153812 
   87800    827.80512   -107.61805   0.74901547   -106.86903   -17569.851    4.3412851    4.3412851    4.3412851   -17569.851   -40965.264     16403.17    -28147.46   -15698.312    4572.4165   -5684.8971    81.819143 
   87900    1150.4465   -107.90528    1.0409481   -106.86434    10420.054    4.3292863    4.3292863    4.3292863    10420.054     40808.58     7944.528   -17492.947   -812.12272    3916.0477    24430.474    81.142603 
   88000    1580.2708   -108.29288    1.4298622   -106.86302    4408.1377    4.3369922    4.3369922    4.3369922    4408.1377      16326.8    20239.874   -23342.261   -1983.8249    5996.6546   -8096.1819    81.576662 
   88100    734.06423   -107.53723   0.66419674   -106.87303   -22719.895    4.3481724    4.3481724    4.3481724   -22719.895    2612.0395   -9967.1736    -60804.55   -502.11298   -4796.4857    9710.6899    82.209172 
   88200     1422.382   -108.14864    1.2870012   -106.86164    10882.084    4.3335908    4.3335908    4.3335908    10882.084    49835.652   -12150.071   -5039.3273   -3160.9502    8838.9005    20202.015    81.384878 
   88300    1498.9947   -108.21542    1.3563219    -106.8591    4767.8834    4.3344472    4.3344472    4.3344472    4767.8834    28686.725    13659.648   -28042.722    6620.5735   -14003.823    -8701.788    81.433135 
   88400    932.84366    -107.7104   0.84405655   -106.86634    9266.0212    4.3400109    4.3400109    4.3400109    9266.0212    43535.633    7195.9739   -22933.543   -8689.8736    3216.0307    15358.891    81.747122 
   88500    1371.1847   -108.10563    1.2406767   -106.86496    -7092.907    4.3470094    4.3470094    4.3470094    -7092.907    4039.2296   -21604.781   -3713.1696    18483.528   -1369.1187    2146.0178    82.143225 
   88600    1174.4328   -107.92635    1.0626515    -106.8637    12318.041    4.3385887    4.3385887    4.3385887    12318.041    21831.306     36349.81   -21226.992    5563.3002   -271.42369   -6862.6362    81.666781 
   88700    1111.4592   -107.87029    1.0056716   -106.86461    9332.2358    4.3244326    4.3244326    4.3244326    9332.2358    12362.976    22665.739   -7032.0079    -4930.994     3468.032    16004.056    80.869992 
   88800    1133.0466    -107.8983    1.0252044    -106.8731    -13262.26    4.3398984    4.3398984    4.3398984    -13262.26    4704.3072     -35467.3    -9023.789    11163.645   -1331.6698   -9012.6595    81.740762 
   88900    1363.3235   -108.09759    1.2335638   -106.86402   -21133.327    4.3514236    4.3514236    4.3514236   -21133.327    -11347.03       -13111   -38941.951   -7526.3615    384.50813     6972.584    82.393714 
   89000    1172.4719   -107.92202    1.0608772   -106.86114   -4689.3001    4.3392932    4.3392932    4.3392932   -4689.3001    314.83565    15938.381   -30321.117    7670.7103    7659.6361    23395.428    81.706571 
   89100    1130.3204   -107.88155    1.0227376   -106.85882    8396.4438    4.3307449    4.3307449    4.3307449    8396.4438   -7734.1353     15904.87    17018.596    15646.765    1322.6073   -10910.415     81.22464 
   89200    1141.3899    -107.8993    1.0327535   -106.86655   -17032.747    4.3449958    4.3449958    4.3449958   -17032.747     2278.308   -1965.7666   -51410.782   -2046.8654    14135.336     25587.59    82.029124 
   89300    1322.6117   -108.05497    1.1967269   -106.85825   -6455.6619    4.3459815    4.3459815    4.3459815   -6455.6619    14386.775   -30947.215   -2806.5454    3516.8832    8258.3324    10593.296    82.084968 
   89400    1374.4422   -108.10051    1.2436241   -106.85688   -6660.3563    4.3368732    4.3368732    4.3368732   -6660.3563    11188.828   -31164.579   -5.3180951    15277.948   -4925.0163   -22925.384    81.569948 
   89500    922.29551    -107.7029   0.83451236   -106.86839   -6449.7587    4.3367149    4.3367149    4.3367149   -6449.7587    20572.232   -24136.103   -15785.404    -5721.677    7629.6238    41775.525    81.561013 
   89600    1798.2842   -108.47873    1.6271254   -106.85161    3434.1377    4.3473432    4.3473432    4.3473432    3434.1377   -6169.2739    23828.392   -7356.7051    11933.301   -11469.179   -11917.926    82.162145 
   89700    695.00123   -107.48473   0.62885172   -106.85588   -23694.341    4.3581136    4.3581136    4.3581136   -23694.341    3578.0463    -36502.76    -38158.31    9458.1964    4074.7355    14296.288    82.774322 
   89800    906.47751   -107.67151    0.8201999   -106.85131    3409.5802     4.337175     4.337175     4.337175    3409.5802    5126.6921   -4344.6145     9446.663   -6899.5443   -4538.8433    36991.252    81.586973 
   89900    1532.4378   -108.22646    1.3865819   -106.83988    40252.671    4.3281567    4.3281567    4.3281567    40252.671    17473.557    12988.481    90295.974     5182.258   -2627.9768    5087.3011    81.079104 
   90000    559.50505   -107.37914   0.50625192   -106.87289   -16972.923    4.3534489    4.3534489    4.3534489   -16972.923    21678.658   -70783.008   -1814.4197    1318.1717   -6121.3283      34082.9    82.508814 
   90100    1377.1784   -108.09443    1.2460999   -106.84833   -16634.148    4.3572447    4.3572447    4.3572447   -16634.148   -1189.6599   -51446.602    2733.8188   -6933.7911   -3705.7093   -5783.0347    82.724824 
   90200    1474.6123   -108.17944    1.3342602   -106.84518    8277.9237    4.3343118    4.3343118    4.3343118    8277.9237    60766.872   -32165.123   -3767.9777    15758.062   -5395.8929    17260.949    81.425506 
   90300      1081.93   -107.83535   0.97895297    -106.8564    7812.5105    4.3224339    4.3224339    4.3224339    7812.5105    65092.851   -41942.395    287.07567   -16609.304     7388.614        10395     80.75791 
   90400    1082.5481   -107.85514   0.97951228   -106.87563   -7055.0975    4.3466817    4.3466817    4.3466817   -7055.0975    -18384.69   -51233.639    48453.036   -791.07707   -3847.7702   -11344.664    82.124647 
   90500    1377.9342    -108.1024    1.2467839   -106.85561   -26819.134    4.3645958    4.3645958    4.3645958   -26819.134    2588.2479   -63304.041   -19741.608    9974.2244   -582.41472    27218.129    83.144225 
   90600    1225.4718   -107.96564    1.1088326    -106.8568    23971.504    4.3286892    4.3286892    4.3286892    23971.504    70440.305   -8262.0242     9736.231   -10126.717    1289.8284   -3297.5035    81.109029 
   90700    730.36384   -107.52623   0.66084855   -106.86538    23741.616    4.3231398    4.3231398    4.3231398    23741.616    28001.391   -5403.9568    48627.413    34489.089   -4209.7383    5697.4727    80.797484 
   90800    1534.4844   -108.24567    1.3884338   -106.85723   -5976.7531     4.353436     4.353436     4.353436   -5976.7531    17647.842   -12747.723   -22830.378    6449.3488   -1795.3824    10066.193     82.50808 
   90900    928.41769   -107.70411   0.84005183   -106.86406   -16257.513    4.3503379    4.3503379    4.3503379   -16257.513   -23087.531    -16235.89   -9449.1193   -168.52308    3806.6692   -17884.876    82.332058 
   91000    1096.3608   -107.85107   0.99201029   -106.85906   -10450.916    4.3290994    4.3290994    4.3290994   -10450.916    -41597.25   -47214.312    57458.815    2276.9031     211.4202    4353.9148    81.132093 
   91100    1578.0472   -108.27813    1.4278503   -106.85028    17163.791    4.3366603    4.3366603    4.3366603    17163.791    34285.767    37195.287   -19989.682   -2012.8844    477.24884   -17056.381    81.557932 
   91200    905.72234   -107.68355   0.81951661   -106.86403    -15425.51    4.3510241    4.3510241    4.3510241    -15425.51    3250.0039   -26405.794   -23120.741     23850.23    928.95173   -21917.719    82.371024 
   91300    857.99756   -107.63629   0.77633422   -106.85995    8471.8175    4.3425991    4.3425991    4.3425991    8471.8175    25830.698   -14044.363    13629.118    3378.4093     6316.303    770.26565    81.893459 
   91400    1712.0337   -108.39779    1.5490841   -106.84871    13023.366    4.3311957    4.3311957    4.3311957    13023.366    52861.866    -11301.16   -2490.6071   -5663.2719    3216.0682   -13392.373    81.250008 
   91500    1146.1172   -107.90338    1.0370309   -106.86635   -14518.036    4.3421903    4.3421903    4.3421903   -14518.036    -23195.97   -29567.382    9209.2443    20983.478    5302.0763   -9625.6091    81.870334 
   91600    1172.7289   -107.92374    1.0611098   -106.86263   -30226.306     4.348873     4.348873     4.348873   -30226.306   -29566.826   -38956.604   -22155.488   -21193.729    528.61987    4563.3783    82.248913 
   91700    1534.1894   -108.23434    1.3881668   -106.84617    15850.802    4.3331975    4.3331975    4.3331975    15850.802    41484.745    14371.011   -8303.3508      19155.5   -2561.6113   -7642.0008    81.362717 
   91800    709.28346    -107.4998   0.64177458   -106.85803   -3320.7366    4.3432708    4.3432708    4.3432708   -3320.7366   -12699.434    -33483.15    36220.374    23093.615   -1309.1142   -1216.7771    81.931467 
   91900    1246.0707   -107.97578     1.127471   -106.84831   -8319.2182    4.3436673    4.3436673    4.3436673   -8319.2182    900.40265   -21997.109   -3860.9485   -32913.268   -13504.175    4935.1405    81.953905 
   92000    1433.8175   -108.13928    1.2973482   -106.84193    5203.1205    4.3374854    4.3374854    4.3374854    5203.1205    8825.5007    10752.276   -3968.4151    29937.127   -3339.0468    1572.6609    81.604493 
   92100     897.3219   -107.66544   0.81191571   -106.85352   -36270.146    4.3450098    4.3450098    4.3450098   -36270.146   -58345.046    -66823.48    16358.087   -19783.584   -3296.4331    2003.7243    82.029917 
   92200    1413.6798   -108.12438    1.2791272   -106.84525    12599.801    4.3399409    4.3399409    4.3399409    12599.801    11648.315    21686.593    4464.4951    -14177.39   -347.01516    6339.1767    81.743163 
   92300    1265.3285   -107.99529    1.1448958   -106.85039    3384.3295    4.3387707    4.3387707    4.3387707    3384.3295    20318.928   -39767.426    29601.487    23865.198   -2335.0598    481.27448    81.677059 
   92400    640.06791   -107.44244    0.5791469    -106.8633   -1039.1758    4.3427625    4.3427625    4.3427625   -1039.1758    19118.805   -44739.597    22503.265   -39993.381    10544.207    4458.2538    81.902702 
   92500    1914.4201   -108.57396    1.7322075   -106.84176   -911.18624    4.3467649    4.3467649    4.3467649   -911.18624    35912.796   -22406.814    -16239.54    5037.4253    3075.5509   -2102.1827    82.129364 
   92600    1037.0571   -107.79829   0.93835109   -106.85994   -20863.517    4.3420991    4.3420991    4.3420991   -20863.517   -29065.328   -47239.023      13713.8   -22196.954    10191.559     724.4957    81.865174 
   92700    995.49618   -107.76661   0.90074586   -106.86587    578.49395      4.33677      4.33677      4.33677    578.49395    35734.246   -46015.627    12016.863     -26253.2   -542.52863    8050.7194    81.564125 
   92800    1560.6984   -108.26306    1.4121527    -106.8509    24748.128    4.3430254    4.3430254    4.3430254    24748.128    83664.929    2288.6586   -11709.204    15041.509   -4234.5696   -9091.6239    81.917581 
   92900    941.27227   -107.71685   0.85168293   -106.86516   -21517.741    4.3449196    4.3449196    4.3449196   -21517.741   -14027.365   -67223.153    16697.295   -35027.684   -3752.0038    6646.7782    82.024808 
   93000    1341.0193   -108.06984    1.2133824   -106.85646   -7424.0419    4.3387136    4.3387136    4.3387136   -7424.0419    3049.7631   -21395.382   -3926.5068   -4447.1194   -9223.2599    3485.2321    81.673838 
   93100     1423.673   -108.13874    1.2881692   -106.85057   -619.54548    4.3460937    4.3460937    4.3460937   -619.54548    44565.794    -44713.91   -1710.5202    -21823.82   -1869.1625   -8920.1211    82.091324 
   93200    816.89345   -107.59154   0.73914236    -106.8524   -15182.045    4.3544649    4.3544649    4.3544649   -15182.045    14234.261   -67869.387    8088.9916   -27303.401   -1492.3587    5922.7182    82.566597 
   93300     1185.721   -107.91464    1.0728653   -106.84178    17495.124    4.3309951    4.3309951    4.3309951    17495.124    63577.485   -31382.205     20290.09    25867.599    10936.335    -15472.28    81.238723 
   93400    1497.2929   -108.20364    1.3547821   -106.84885    -5975.775    4.3374172    4.3374172    4.3374172    -5975.775    2645.0374   -22525.214    1952.8517   -24826.929    1012.7002   -3037.2435    81.600644 
   93500    1121.1199   -107.87048    1.0144129   -106.85606   -22245.669    4.3481658    4.3481658    4.3481658   -22245.669   -27281.986   -57219.039    17764.018    7514.9387    -1481.239   -4631.4597    82.208794 
   93600     1072.793   -107.83095   0.97068561   -106.86026    20646.944    4.3376417    4.3376417    4.3376417    20646.944    77132.257   -31770.962    16579.537      15261.8    8908.9456   -16176.134    81.613316 
   93700    1452.8238   -108.16872    1.3145455   -106.85418    27102.937     4.342432     4.342432     4.342432    27102.937    70827.565   -6764.9546    17246.201   -21778.144   -3813.7773    6647.8101    81.884006 
   93800     953.4411   -107.73393   0.86269354   -106.87124   -9972.3359    4.3383266    4.3383266    4.3383266   -9972.3359    19896.085   -61161.111    11348.018    27855.302    3788.7151   -19454.149    81.651983 
   93900    1031.1687   -107.80934   0.93302313   -106.87631    290.16043    4.3379848    4.3379848    4.3379848    290.16043    18179.053   -28641.964    11333.393    7322.5549   -5985.6883    3865.7737    81.632684 
   94000    1741.6893   -108.44132    1.5759171    -106.8654    5372.5714    4.3431793    4.3431793    4.3431793    5372.5714     52387.09   -28340.381   -7928.9946   -802.11055   -7269.0345    2512.7436    81.926289 
   94100    502.74895   -107.33799   0.45489781    -106.8831    5726.8317    4.3432754    4.3432754    4.3432754    5726.8317    82182.127   -52005.447   -12996.185    26181.092    2438.5544   -12900.832    81.931725 
   94200    1447.2374    -108.1759    1.3094908   -106.86641   -4908.6201     4.345078     4.345078     4.345078   -4908.6201    18069.534   -37768.773    4973.3788    -12587.11   -381.78379    17314.267    82.033783 
   94300    1590.3811   -108.29565    1.4390102   -106.85664   -7803.0001    4.3447987    4.3447987    4.3447987   -7803.0001    2120.3857   -21719.816   -3809.5698   -15676.905   -5287.8967   -6919.7969    82.017965 
   94400    1023.0181   -107.78483   0.92564825   -106.85918    9238.9121    4.3396074    4.3396074    4.3396074    9238.9121    33348.089   -27330.064    21698.712    34485.119    11630.222    4871.4196    81.724323 
   94500    1109.1307   -107.85778    1.0035648   -106.85422    3287.2775    4.3508218    4.3508218    4.3508218    3287.2775    22354.616   -42773.063     30280.28   -36485.461    2643.0772    6479.8567    82.359536 
   94600    1143.9644   -107.88546     1.035083   -106.85038    17017.448    4.3413472    4.3413472    4.3413472    17017.448    51996.189   -15388.084     14444.24    2962.3374    3891.7323   -9866.7977    81.822653 
   94700     1236.432   -107.97098    1.1187496   -106.85223   -3257.2176    4.3287896    4.3287896    4.3287896   -3257.2176    964.25695   -26566.322    15830.412     5542.258    8999.8729    10383.483    81.114676 
   94800     1005.129   -107.77745    0.9094618   -106.86799   -18549.887     4.341094     4.341094     4.341094   -18549.887   -32517.095   -43520.452    20387.886   -60888.367   -101.99977   -1341.4918    81.808339 
   94900    1720.8095   -108.41143    1.5570246    -106.8544    7614.1073    4.3445477    4.3445477    4.3445477    7614.1073    70153.779   -31674.632   -15636.826    19652.882   -2420.9765   -474.27446    82.003752 
   95000     544.1843    -107.3634   0.49238939   -106.87101    -17860.52    4.3486805    4.3486805    4.3486805    -17860.52   -4338.6505   -63992.652    14749.744   -41912.196   -1306.8822    5446.5783    82.237992 
   95100    1595.2708   -108.29747    1.4434346   -106.85404   -9329.9299    4.3345363    4.3345363    4.3345363   -9329.9299   -5770.6965   -33821.281    11602.188   -17042.373    14518.996   -2644.3409    81.438158 
   95200    1399.2582   -108.11948    1.2660782   -106.85341    4110.4547    4.3385182    4.3385182    4.3385182    4110.4547    20919.522   -9770.8327    1182.6744   -5593.6653   -3019.5357    8368.6021    81.662802 
   95300    538.78036   -107.35011   0.48749979   -106.86261   -7760.2858    4.3475693    4.3475693    4.3475693   -7760.2858    7407.0727   -63982.316    33294.386   -57568.691    4783.6948    2888.6558    82.174966 
   95400    1725.3064    -108.4031    1.5610934   -106.84201    5315.1205    4.3439836    4.3439836    4.3439836    5315.1205    28906.783   -14201.135    1239.7133    20091.071    6285.1703   -1058.2337    81.971813 
   95500    988.92242   -107.74879   0.89479779   -106.85399    4187.4095    4.3343413    4.3343413    4.3343413    4187.4095   -12618.783   -17823.475    43004.486   -49765.901   -22515.468    7802.8393    81.427168 
   95600    1355.3674   -108.07786    1.2263649   -106.85149   -24557.953    4.3440897    4.3440897    4.3440897   -24557.953   -41572.779   -38831.768    6730.6898   -15917.257    13795.628    5318.7701    81.977819 
   95700    1341.7761   -108.05775    1.2140672   -106.84368    4656.7937    4.3440804    4.3440804    4.3440804    4656.7937   -13562.022    13106.311    14426.092    16310.609   -8834.4593   -6318.2696    81.977291 
   95800    906.24605   -107.67221   0.81999047   -106.85222   -10464.217    4.3376013    4.3376013    4.3376013   -10464.217   -14774.371   -45865.539     29247.26    -57203.68   -6861.0215    11204.558    81.611036 
   95900    1208.1852   -107.93836    1.0931914   -106.84517    17459.984    4.3419428    4.3419428    4.3419428    17459.984    27519.634    692.73646    24167.582    24609.217    12735.331   -1699.6826    81.856333 
   96000    1255.3924   -107.98292    1.1359055   -106.84702   -22084.543     4.345651     4.345651     4.345651   -22084.543   -31024.568   -40888.708     5659.646   -36882.697   -17694.949    1333.1193    82.066238 
   96100    1002.5828   -107.75573   0.90715795   -106.84857    1668.3495    4.3404607    4.3404607    4.3404607    1668.3495   -20505.328     8261.169    17249.207   -28355.037    3761.8099     16180.07    81.772541 
   96200    1559.7676   -108.25436    1.4113105   -106.84305   -12703.229     4.336599     4.336599     4.336599   -12703.229   -16607.454   -10500.231   -11002.001    15798.212    4856.5771    811.30113    81.554474 
   96300    807.75248   -107.58183   0.73087142   -106.85095    96.711981    4.3453978    4.3453978    4.3453978    96.711981   -22727.063   -283.59628    23300.795   -43363.133   -11137.179    3187.2063    82.051898 
   96400    1291.5516   -108.00506     1.168623   -106.83644    -13078.37    4.3509804    4.3509804    4.3509804    -13078.37    9635.9695   -20617.065   -28254.013    9448.4607    6677.1391     18396.04    82.368542 
   96500    1318.1016   -108.03083    1.1926461   -106.83818   -3536.9886    4.3391146    4.3391146    4.3391146   -3536.9886    1682.9483   -15175.084    2881.1703   -14905.567    274.21703   -14078.059    81.696482 
   96600    1123.0906   -107.86261    1.0161959   -106.84641    8405.7349    4.3276177    4.3276177    4.3276177    8405.7349    8645.4888    2516.9297    14054.786   -28752.232   -9841.3116    15013.777    81.048811 
   96700    1257.3762    -107.9944    1.1377004    -106.8567   -8170.9923    4.3398145    4.3398145    4.3398145   -8170.9923    9776.9471    1232.5067   -35522.431    10429.604    18419.531    17228.503    81.736023 
   96800    1146.5772   -107.89243    1.0374472   -106.85499   -13950.448    4.3514705    4.3514705    4.3514705   -13950.448   -36292.251   -15211.285    9652.1925   -20843.438   -6564.1651   -8358.9891     82.39638 
   96900    930.92225    -107.6943   0.84231801   -106.85199    2441.6357    4.3394071    4.3394071    4.3394071    2441.6357    40105.537    -14559.68    -18220.95   -12288.115   -252.84109    31933.455    81.713007 
   97000    1534.3489   -108.23142    1.3883112   -106.84311    3595.1715    4.3307199    4.3307199    4.3307199    3595.1715    2059.5074    6867.2737    1858.7334    11135.956    7261.1069    -349.9928    81.223234 
   97100    1118.5458   -107.86344    1.0120837   -106.85136   -6542.6041    4.3406313    4.3406313    4.3406313   -6542.6041   -6735.8365   -17288.209    4396.2333   -41457.839   -1734.1301    8205.8498     81.78218 
   97200    1016.3467   -107.77421   0.91961184   -106.85459   -15678.628    4.3470096    4.3470096    4.3470096   -15678.628    2611.5024   -17292.563   -32354.824   -4032.7755    3746.4913    35491.899    82.143232 
   97300    1390.9088    -108.0996    1.2585235   -106.84108    -6079.653    4.3423421    4.3423421    4.3423421    -6079.653    -19290.88    19822.547   -18770.626   -9351.0365    21853.853   -11521.131    81.878919 
   97400    955.35919   -107.71045   0.86442907   -106.84602    3699.4694    4.3362032    4.3362032    4.3362032    3699.4694    360.44004   -9370.6403    20108.609   -30569.149   -3067.0743    37008.843    81.532145 
   97500    1290.0357   -108.01117    1.1672514   -106.84392    6654.6037    4.3448774    4.3448774    4.3448774    6654.6037    23922.047    24982.792   -28941.028    3094.2731    21161.039    20620.349    82.022418 
   97600    1283.7738   -108.00133    1.1615855   -106.83975     162.7442    4.3485049    4.3485049    4.3485049     162.7442   -15931.459   -20481.744    36901.436   -23771.798     19875.02    2939.0018    82.228034 
   97700    958.33462   -107.71086   0.86712131   -106.84374     9527.352    4.3384571    4.3384571    4.3384571     9527.352     34352.19   -21286.873    15516.739   -5420.4505    3472.6659    42873.089    81.659348 
   97800    1254.3116   -107.97365    1.1349275   -106.83872    13724.086    4.3386256    4.3386256    4.3386256    13724.086    6370.9096    11585.209    23216.141   -6335.0798    32766.825   -10625.745    81.668867 
   97900    912.32964   -107.67616   0.82549503   -106.85066   -19357.896     4.348408     4.348408     4.348408   -19357.896   -614.22477   -41700.436   -15759.028   -10747.525    1642.4301    36786.828    82.222534 
   98000    1490.4149   -108.19199    1.3485587   -106.84343   -16032.789    4.3385286    4.3385286    4.3385286   -16032.789    9501.8322   -18644.061   -38956.138   -1459.8838   -9589.3085      22059.8    81.663385 
   98100    1106.1651   -107.84471    1.0008815   -106.84383     20648.24    4.3332141    4.3332141    4.3332141     20648.24     28082.64    17269.707    16592.371   -5765.3383    18776.522   -6649.2091    81.363652 
   98200     1095.128   -107.83798   0.99089481   -106.84708   -38698.511    4.3571731    4.3571731    4.3571731   -38698.511   -16161.999   -59997.859   -39935.676   -1839.0472   -18463.032    36158.413    82.720746 
   98300    1376.0483   -108.08003    1.2450775   -106.83495    585.53135    4.3434176    4.3434176    4.3434176    585.53135   -4403.5977    14501.858   -8341.6658    4114.1608    318.52198   -5551.0757    81.939773 
   98400    1022.7654   -107.76378   0.92541961   -106.83836    7076.3412    4.3276954    4.3276954    4.3276954    7076.3412    36579.666   -27803.576    12452.934   -5187.0258    8184.1206    24386.721    81.053177 
   98500    1499.1181    -108.1963    1.3564336   -106.83987   -9112.5669    4.3422237    4.3422237    4.3422237   -9112.5669     943.7847   -4534.8272   -23746.658    3612.6533   -14989.817    11356.986    81.872224 
   98600    1010.7629   -107.75905   0.91455952   -106.84449   -6589.0512    4.3529232    4.3529232    4.3529232   -6589.0512   -11121.243   -16746.407    8100.4959    10729.651    -1002.627   -1605.4229    82.478927 
   98700    1194.7593   -107.91726    1.0810433   -106.83622   -6334.6078    4.3467158    4.3467158    4.3467158   -6334.6078    5269.9784   -24098.206   -175.59542   -6833.2257    418.59593    21657.743    82.126581 
   98800    1215.5994   -107.93718    1.0998999   -106.83728    5980.2904    4.3285438    4.3285438    4.3285438    5980.2904    871.87607     12262.34    4806.6553    12925.949   -31382.338    -2058.053    81.100858 
   98900    1113.3668   -107.86055    1.0073977   -106.85316    2559.7873    4.3371651    4.3371651    4.3371651    2559.7873    13983.663   -21928.568    15624.267   -4875.7076    886.60698    10574.781    81.586417 
   99000    1442.4246   -108.14878    1.3051361   -106.84364   -5850.5684    4.3519384    4.3519384    4.3519384   -5850.5684    234.89405   -14791.842   -2994.7575    3435.2044    8444.7872    12391.188    82.422961 
   99100    574.74995   -107.37049   0.52004584   -106.85045    7911.2493    4.3383668    4.3383668    4.3383668    7911.2493    7595.2459   -14630.293    30768.795    6408.0759   -20066.071   -1186.8663     81.65425 
   99200     1530.303   -108.23021    1.3846503   -106.84556    12310.731    4.3328401    4.3328401    4.3328401    12310.731    5978.7678   -17939.472    48892.897   -9792.9709     15811.79    1598.3964    81.342587 
   99300     1339.948   -108.06896    1.2124131   -106.85655   -1165.3372      4.34235      4.34235      4.34235   -1165.3372    537.93966   -459.39043   -3574.5609    6244.5887   -21434.429    977.02717    81.879369 
   99400    815.00998   -107.60268   0.73743816   -106.86525   -22650.957    4.3566823    4.3566823    4.3566823   -22650.957   -53228.185   -41562.333    26837.645    7465.1979   -18091.649   -8146.6367    82.692798 
   99500     1919.081   -108.58153    1.7364248    -106.8451    11588.259    4.3322022    4.3322022    4.3322022    11588.259    18534.541   -13806.633    30036.869   -1120.7218     106.9958    7565.5383    81.306664 
   99600    419.08013   -107.23991   0.37919251   -106.86071    26191.656    4.3225409    4.3225409    4.3225409    26191.656   -11191.805   -1982.7086    91749.481    11869.684   -11569.254   -4175.5152    80.763911 
   99700    1781.6548   -108.45504    1.6120787   -106.84296   -27271.108    4.3557424    4.3557424    4.3557424   -27271.108   -20010.715   -46085.599   -15717.011    5336.2125    -10435.37   -1517.6719    82.639289 
   99800    1094.1802   -107.83376   0.99003727   -106.84372      3042.42    4.3454848    4.3454848    4.3454848      3042.42    -24643.21   -22901.701    56672.171   -7888.3829    2141.6711    6025.0584    82.056826 
   99900     1074.733   -107.81586   0.97244101   -106.84342    7329.8032    4.3311207    4.3311207    4.3311207    7329.8032   -29577.644   -10557.278    62124.332    8689.0567   -16624.595    -3089.858    81.245791 
  100000    1641.7439   -108.32857    1.4854844   -106.84309   -4604.5053     4.342203     4.342203     4.342203   -4604.5053   -10052.098   -48650.283    44888.865   -15706.648    15358.709    -3341.523    81.871052 
Loop time of 21.8311 on 1 procs for 100000 steps with 8 atoms

Pair  time (%) = 6.70905 (30.7316)
Kspce time (%) = 5.29831 (24.2695)
Neigh time (%) = 0.0629482 (0.288342)
Comm  time (%) = 1.03348 (4.73399)
Outpt time (%) = 0.0238872 (0.109418)
Other time (%) = 8.70343 (39.8671)

Nlocal:    8 ave 8 max 8 min
Histogram: 1 0 0 0 0 0 0 0 0 0
Nghost:    2189 ave 2189 max 2189 min
Histogram: 1 0 0 0 0 0 0 0 0 0
Neighs:    2161 ave 2161 max 2161 min
Histogram: 1 0 0 0 0 0 0 0 0 0

Total # of neighbors = 2161
Ave neighs/atom = 270.125
Neighbor list builds = 752
Dangerous builds = 0
unfix 20
unfix 21
print "seeds:6119565"
seeds:6119565
