LAMMPS (10 Feb 2015)
# ---- initialize simulations
clear
units metal
dimension 3
boundary p p p
atom_style charge
atom_modify map array
# ---- create atoms
read_data /Users/eugeneragasa/pyflamestk_git/pypospack/tests/tests_integration/workflow/WorkflowLammpsThermalExpansion/param_4927/MgO_NaCl_unit.npt.T1000/lammps.structure
  triclinic box = (0 0 0) to (4.2565 4.2565 4.2565) with tilt (0 0 0)
  1 by 1 by 1 MPI processor grid
  reading atoms ...
  8 atoms
# ---- define interatomic potential
include potential.mod
mass 1 24.305
mass 2 15.999

group Mg type 1
4 atoms in group Mg
group O type 2
4 atoms in group O

set group Mg charge 1.66679564584
  4 settings made for charge
set group O charge -1.66679564584
  4 settings made for charge

variable R_cut equal 10.0

pair_style buck/coul/long ${R_cut}
pair_style buck/coul/long 10
pair_coeff 1 1 0.0 0.5 0.0 ${R_cut}
pair_coeff 1 1 0.0 0.5 0.0 10
pair_coeff 1 2 1241.53975785 0.290586946924 0.0 ${R_cut}
pair_coeff 1 2 1241.53975785 0.290586946924 0.0 10
pair_coeff 2 2 7336.97641517 0.111647641293 25.3936876208 ${R_cut}
pair_coeff 2 2 7336.97641517 0.111647641293 25.3936876208 10

kspace_style pppm 1.0e-5

neighbor 1.0 bin
neigh_modify every 1 delay 0 check yes
# ---- define settings
compute eng all pe/atom
compute eatoms all reduce sum c_eng
# ---- run minimization
reset_timestep 0
fix 1 all box/relax iso 0.0 vmax 0.001
thermo 10
thermo_style custom step pe lx ly lz xy xz yz press pxx pyy pzz pxy pxz pyz c_eatoms
min_style cg
minimize 1e-25 1e-25 5000 10000
PPPM initialization ...
  G vector (1/distance) = 0.352901
  grid = 8 8 8
  stencil order = 5
  estimated absolute RMS force accuracy = 3.98348e-05
  estimated relative force accuracy = 2.76637e-06
  using double precision FFTs
  3d grid and FFT values/proc = 3375 512
Neighbor list info ...
  1 neighbor list requests
  update every 1 steps, delay 0 steps, check yes
  master list distance cutoff = 11
Memory usage per processor = 4.06549 Mbytes
Step PotEng Lx Ly Lz Xy Xz Yz Press Pxx Pyy Pzz Pxy Pxz Pyz eatoms 
       0    -112.5899       4.2565       4.2565       4.2565            0            0            0    58061.201    58061.201    58061.201    58061.201 6.8070985e-11 -1.221979e-10 1.2952011e-11    -112.5899 
      10   -112.63526     4.299065     4.299065     4.299065            0            0            0    6762.9013    6762.9013    6762.9013    6762.9013 -3.6532134e-11 6.5076144e-11 2.4224675e-10   -112.63526 
      13     -112.636    4.3051131    4.3051131    4.3051131            0            0            0   -6.5125139   -6.5125139   -6.5125139   -6.5125139 2.4815902e-11 -1.1583773e-10 3.0521581e-11     -112.636 
Loop time of 0.010293 on 1 procs for 13 steps with 8 atoms

Minimization stats:
  Stopping criterion = linesearch alpha is zero
  Energy initial, next-to-last, final = 
        -112.589903458     -112.636003249     -112.636003249
  Force two-norm initial, final = 8.38407 0.00186563
  Force max component initial, final = 8.38407 0.000962014
  Final line search alpha, max atom move = 0.00390625 3.75787e-06
  Iterations, force evaluations = 13 30

Pair  time (%) = 0.00285339 (27.7217)
Kspce time (%) = 0.00164247 (15.9571)
Neigh time (%) = 0 (0)
Comm  time (%) = 0.000347614 (3.37719)
Outpt time (%) = 1.09673e-05 (0.106551)
Other time (%) = 0.00543857 (52.8375)

Nlocal:    8 ave 8 max 8 min
Histogram: 1 0 0 0 0 0 0 0 0 0
Nghost:    2189 ave 2189 max 2189 min
Histogram: 1 0 0 0 0 0 0 0 0 0
Neighs:    2344 ave 2344 max 2344 min
Histogram: 1 0 0 0 0 0 0 0 0 0

Total # of neighbors = 2344
Ave neighs/atom = 293
Neighbor list builds = 0
Dangerous builds = 0
unfix 1
# ---- define output variables ----
variable natoms equal "count(all)"
variable tot_energy equal "c_eatoms"
variable length_x equal "lx"
variable length_y equal "ly"
variable length_z equal "lz"
variable tilt_xy equal "xy"
variable tilt_xz equal "xz"
variable tilt_yz equal "yz"
variable tot_press equal "press"
variable press_xx equal "pxx"
variable press_yy equal "pyy"
variable press_zz equal "pzz"
variable press_xy equal "pxy"
variable press_xz equal "pxz"
variable press_yz equal "pyz"

# ---- output ----
print "pypospack:output_section:begin"
pypospack:output_section:begin
print "tot_energy = ${tot_energy}"
tot_energy = -112.63600324896
print "num_atoms = ${natoms}"
num_atoms = 8
print "xx = ${length_x}"
xx = 4.30511307073731
print "yy = ${length_y}"
yy = 4.30511307073731
print "zz = ${length_z}"
zz = 4.30511307073731
print "xy = ${tilt_xy}"
xy = 0
print "xz = ${tilt_xz}"
xz = 0
print "yz = ${tilt_yz}"
yz = 0
print "tot_press = ${tot_press}"
tot_press = -6.51251387968517
print "pxx = ${press_xx}"
pxx = -6.51251387980119
print "pyy = ${press_yy}"
pyy = -6.51251387961014
print "pzz = ${press_zz}"
pzz = -6.51251387964418
print "pxy = ${press_xy}"
pxy = 2.48159019880152e-11
print "pxz = ${press_xz}"
pxz = -1.15837732664817e-10
print "pyz = ${press_yz}"
pyz = 3.05215812050655e-11
print "pypospack:output_section:done"
pypospack:output_section:done
print "pypospack:lammps_sim:done"
pypospack:lammps_sim:done
#------------------------------------------------------------------------------
# RUN THERMOSTAT
# running using an NPT Nose-Hoover style thermostat
#------------------------------------------------------------------------------
variable tempdamp equal 0.1
variable pressdamp equal 1.0
# set initial velocities
velocity all create 1000 4707365 mom yes dist gaussian loop all
# fix for Nose-Hoover style thermostat
fix 20 all npt temp 1000 1000 0.1 aniso 0.0 0.0 1.0 drag 1.0 couple xyz
variable boxx equal lx
variable boxy equal ly
variable boxz equal lz
variable boxp equal press
variable boxt equal temp
# calculate averages every 10000 steps
reset_timestep 0
fix 21 all ave/time 10 10 100 v_boxx v_boxy v_boxz v_boxp v_boxt file lattice.out
thermo_style custom step temp pe ke etotal press lx ly lz press pxx pyy pzz pxy pxz pyz vol
thermo_modify flush yes
thermo 100
run 100000
PPPM initialization ...
  G vector (1/distance) = 0.352409
  grid = 8 8 8
  stencil order = 5
  estimated absolute RMS force accuracy = 4.075e-05
  estimated relative force accuracy = 2.82993e-06
  using double precision FFTs
  3d grid and FFT values/proc = 3375 512
Memory usage per processor = 3.06549 Mbytes
Step Temp PotEng KinEng TotEng Press Lx Ly Lz Press Pxx Pyy Pzz Pxy Pxz Pyz Volume 
       0         1000   -112.63601   0.90482102   -111.73119    12104.349    4.3051131    4.3051131    4.3051131    12104.349    6505.3608    14351.444    15456.242   -405.48691    1979.1078    5796.3544    79.790959 
     100    352.24631   -111.93249   0.31871987   -111.61377   -265.44711    4.3299232    4.3299232    4.3299232   -265.44711   -15676.108    14843.884    35.883192    1220.9182   -4162.9141   -7483.5646    81.178416 
     200    676.18352   -111.96798   0.61182506   -111.35615   -23423.542    4.3437035    4.3437035    4.3437035   -23423.542   -26470.613   -20889.748   -22910.266   -7077.4663    2638.7601   -13925.752    81.955958 
     300    868.28543   -111.93446    0.7856429   -111.14882    26652.425     4.326273     4.326273     4.326273    26652.425    8483.8391    45475.563    25997.872     5408.777   -6486.2482     4889.576    80.973288 
     400     581.2048   -111.51317   0.52588632   -110.98728   -12828.599    4.3394032    4.3394032    4.3394032   -12828.599   -14500.456   -3433.0753   -20552.265   -6787.0347   -2186.0289   -17088.971    81.712786 
     500    1090.0822   -111.85932   0.98632932   -110.87299   -28563.189     4.352316     4.352316     4.352316   -28563.189    -25231.09   -25740.751   -34717.726    -4455.357   -3397.2321    -10868.19    82.444417 
     600    1285.8544    -111.9767     1.163468   -110.81323    19115.626    4.3440358    4.3440358    4.3440358    19115.626   -3622.1245    14829.058    46139.944    3473.3981    197.67585    3818.2208    81.974765 
     700    1008.4153   -111.72311   0.91243539   -110.81067   -29373.326    4.3492213    4.3492213    4.3492213   -29373.326   -15946.956   -36362.377   -35810.645   -8520.0241    -4737.618    -21938.67    82.268676 
     800    779.36705     -111.517   0.70518768   -110.81181    9912.5436    4.3385501    4.3385501    4.3385501    9912.5436    1457.2682    18983.032    9297.3306    1535.6892   -683.57132   -7568.5337    81.664604 
     900    997.46377   -111.71987   0.90252618   -110.81734   -8133.9491    4.3496689    4.3496689    4.3496689   -8133.9491    8510.5471   -7380.7113   -25531.683   -4454.6808   -3051.7935    1958.3935    82.294083 
    1000    722.62921   -111.47673    0.6538501   -110.82288   -26081.745    4.3533735    4.3533735    4.3533735   -26081.745   -10564.492   -19445.721    -48235.02   -2458.8461   -7554.8735   -26162.985    82.504529 
    1100    1232.2443   -111.92818    1.1149605   -110.81322    21101.153    4.3243339    4.3243339    4.3243339    21101.153    9975.9814    9826.8298    43500.649   -2061.9101    -2473.739    6821.3979    80.864456 
    1200    1324.4439   -112.02619    1.1983847    -110.8278    2953.7952     4.342383     4.342383     4.342383    2953.7952    19959.806   -10392.738   -705.68153    174.54632    2108.8106   -5875.2115    81.881231 
    1300    626.79444   -111.38291   0.56713678   -110.81577   -15820.345    4.3645381    4.3645381    4.3645381   -15820.345    -16375.08    -34610.19    3524.2362   -5031.8633   -4987.5552   -11029.517    83.140927 
    1400      1070.51   -111.76975   0.96861996   -110.80113   -5579.3637    4.3326305    4.3326305    4.3326305   -5579.3637    7658.8439    12823.584   -37220.518    2687.6113   -8276.4496     2605.348    81.330786 
    1500    796.45744   -111.52911   0.72065143   -110.80846    21820.909    4.3342727    4.3342727    4.3342727    21820.909    69779.989   -1075.2815   -3241.9816     2881.535     5966.222   -1553.3141    81.423297 
    1600    1213.0208   -111.90623    1.0975667   -110.80866   -36402.889    4.3615019    4.3615019    4.3615019   -36402.889   -30846.726   -46459.838   -31902.104    -3803.942   -13035.681   -7502.0936    82.967538 
    1700    1009.2597   -111.71955    0.9131994   -110.80635    21036.667    4.3374618    4.3374618    4.3374618    21036.667    48065.009    8709.4864    6335.5065    3286.0576    1811.2923    5190.8024     81.60316 
    1800    1155.5211   -111.85336    1.0455398   -110.80782   -13806.375    4.3382017    4.3382017    4.3382017   -13806.375    10884.431   -27372.008   -24931.546   -4531.9142    14744.919   -7966.2663    81.644927 
    1900    567.08028   -111.32677   0.51310616   -110.81366    7146.2675    4.3475197    4.3475197    4.3475197    7146.2675    11175.094   -19414.802    29678.511   -5778.9859   -16175.267    -1094.597    82.172155 
    2000    1126.6774   -111.83093    1.0194414   -110.81149   -6563.5143    4.3459964    4.3459964    4.3459964   -6563.5143     8855.509    4449.0479     -32995.1    2035.0128    16955.379    10097.208    82.085811 
    2100    790.57452   -111.53098   0.71532844   -110.81565   -369.05196    4.3443403    4.3443403    4.3443403   -369.05196    5228.8956   -29125.981    22789.929   -11951.816    2833.3636   -13029.166    81.992005 
    2200    1301.0397    -111.9914     1.177208    -110.8142   -10896.489    4.3365255    4.3365255    4.3365255   -10896.489   -11633.946   -22251.016    1195.4964   -10223.139   -8941.7173   -1975.4887    81.550328 
    2300    838.87729   -111.57964    0.7590338    -110.8206    9860.8327    4.3476757    4.3476757    4.3476757    9860.8327    35654.173   -8134.3499    2062.6746    2357.3893   -785.64619     516.0393    82.180999 
    2400    959.54847   -111.68658   0.86821962   -110.81836   -26018.491    4.3521549    4.3521549    4.3521549   -26018.491   -9386.7188   -41533.342   -27135.413   -17898.802    7136.5209   -8443.1232    82.435262 
    2500    924.03052   -111.64614   0.83608223   -110.81006    35316.749    4.3232929    4.3232929    4.3232929    35316.749    65889.023    2388.6181    37672.605   -5657.9871   -12096.174   -826.94883    80.806068 
    2600    786.64903   -111.53942   0.71177658   -110.82765   -14810.094    4.3517169    4.3517169    4.3517169   -14810.094   -3680.5403   -10908.278   -29841.464    -3666.029    11850.812   -4712.0561    82.410379 
    2700    1184.0381   -111.88461    1.0713426   -110.81326   -27457.018    4.3502105    4.3502105    4.3502105   -27457.018   -23269.616   -37841.707    -21259.73    -17565.01    19708.327   -6858.3213    82.324824 
    2800    946.51064   -111.66167   0.85642272   -110.80524    36903.811    4.3243972    4.3243972    4.3243972    36903.811    81704.526   -6538.3916    35545.298     228.3504   -4025.8432    3225.2561    80.868008 
    2900    1303.2198   -112.00121    1.1791807   -110.82203   -29728.981    4.3469043    4.3469043    4.3469043   -29728.981    -19967.51   -24426.722   -44792.712    3861.1557    12060.514   -2183.4222    82.137263 
    3000    698.61066   -111.45744   0.63211761   -110.82532    21089.712    4.3491236    4.3491236    4.3491236    21089.712    64524.052    -35026.13    33771.213   -11696.139    5271.2766    4211.5413    82.263137 
    3100    1163.5196   -111.87583     1.052777   -110.82306    -4512.203    4.3381558    4.3381558    4.3381558    -4512.203    14443.486   -7737.5463   -20242.549    4392.9854    4134.8866    3857.3262    81.642337 
    3200    886.50839   -111.63188   0.80213142   -110.82975   -3271.4282    4.3369137    4.3369137    4.3369137   -3271.4282    5185.3727   -11851.146   -3148.5115   -4519.9791    9360.3527   -1182.9241    81.572233 
    3300    959.49501   -111.68984   0.86817125   -110.82167    5761.9545    4.3507594    4.3507594    4.3507594    5761.9545    44261.528   -24855.222    -2120.442    -12299.61     6735.456    6218.9456    82.355989 
    3400    1283.3021   -111.97675    1.1611587   -110.81559   -4227.3536    4.3438424    4.3438424    4.3438424   -4227.3536    8077.0209   -20307.908   -451.17335    1791.5538    4361.1879   -5593.2062    81.963819 
    3500     853.1712   -111.59554   0.77196723   -110.82358    12805.357    4.3339497    4.3339497    4.3339497    12805.357    29193.127   -3374.0747    12597.018   -6721.0273    6986.4922    56.264137    81.405095 
    3600    980.05577   -111.71183   0.88677505   -110.82505   -15027.816    4.3539901    4.3539901    4.3539901   -15027.816    12644.884   -37402.866   -20325.465   -7989.4223   -993.79063    511.92637    82.539592 
    3700    1042.8618   -111.76074   0.94360328   -110.81713   -9622.9596      4.34039      4.34039      4.34039   -9622.9596    -7836.809   -18029.325    -3002.745    16739.798    5316.8845   -1665.3142    81.768546 
    3800     796.4182   -111.53942   0.72061592    -110.8188    11022.391    4.3308177    4.3308177    4.3308177    11022.391    69233.731   -12812.942   -23353.616   -8767.5363     12410.13   -1067.2227     81.22874 
    3900    1154.1314   -111.86687    1.0442823   -110.82259   -14091.304    4.3556554    4.3556554    4.3556554   -14091.304   -2642.8114   -41909.545     2278.445     3054.286   -2367.6705    5696.0926    82.634333 
    4000    1421.5231   -112.10134     1.286224   -110.81511   -1409.9389    4.3397415    4.3397415    4.3397415   -1409.9389    27388.525   -7590.9297   -24027.412   -1774.6101    10995.879      3863.97    81.731896 
    4100    480.33381   -111.25922   0.43461613    -110.8246    10064.154    4.3399666    4.3399666    4.3399666    10064.154    21714.223   -10026.681    18504.919    118.92026    4200.1756   -714.56862    81.744618 
    4200    1084.7259   -111.79773    0.9814828   -110.81625   -29642.748    4.3493684    4.3493684    4.3493684   -29642.748   -16841.994   -36389.213   -35697.036   -6909.8255   -12202.284    9665.9797    82.277028 
    4300    980.22807    -111.6979   0.88693096   -110.81097    28239.393    4.3379428    4.3379428    4.3379428    28239.393    67884.733    557.59311    16275.853    4688.5523    9065.6138    -1797.481    81.630316 
    4400    1113.3752    -111.8286    1.0074053   -110.82119    -26350.35    4.3493473    4.3493473    4.3493473    -26350.35   -11037.146   -28873.437   -39140.469   -7034.2062   -7412.7489    451.30974     82.27583 
    4500    827.91432   -111.56924   0.74911427   -110.82012   -1808.6567    4.3424973    4.3424973    4.3424973   -1808.6567    17098.853   -21849.994   -674.82996    352.34751    -13494.93     7386.499      81.8877 
    4600    1292.3988   -111.98386    1.1693896   -110.81447    5650.5996    4.3387133    4.3387133    4.3387133    5650.5996    25285.022   -1553.1253   -6780.0981    12007.521    495.57339   -2216.6934    81.673816 
    4700    629.45393   -111.39293   0.56954315   -110.82339   -16814.702      4.35758      4.35758      4.35758   -16814.702    -10594.66   -34012.159   -5837.2866   -12190.933   -4259.5398   -4715.2904    82.743922 
    4800      945.878   -111.67325   0.85585029    -110.8174   -144.37247    4.3426295    4.3426295    4.3426295   -144.37247    29158.591   -16691.651   -12900.057    11708.413   -6428.1364    2784.6284    81.895177 
    4900    1583.5676   -112.25079    1.4328453   -110.81795    1200.6199    4.3319481    4.3319481    4.3319481    1200.6199    107.57593   -5951.8154    9446.0991    2087.0464    13870.736   -352.49493    81.292363 
    5000    789.61417   -111.54384   0.71445949   -110.82938    11730.872    4.3451058    4.3451058    4.3451058    11730.872    49845.979   -13080.521   -1572.8432   -2597.0112   -2848.5688   -2494.0131    82.035355 
    5100    1046.5361   -111.76459   0.94692788   -110.81766    -28315.19    4.3591286    4.3591286    4.3591286    -28315.19   -22982.392   -18615.102   -43348.076   -3269.6654   -7071.5971    6756.5646    82.832169 
    5200    823.38291   -111.55121   0.74501416   -110.80619    15135.423    4.3415862    4.3415862    4.3415862    15135.423    10359.756    13427.239    21619.274    5798.1099    9337.2479   -8166.2179    81.836167 
    5300    928.32754   -111.64214   0.83997027   -110.80216    24198.006    4.3295478    4.3295478    4.3295478    24198.006    58734.794    8654.0565    5205.1662   -10936.098   -16557.696    2253.3395    81.157306 
    5400    987.47507   -111.71282    0.8934882   -110.81933   -10283.671     4.353153     4.353153     4.353153   -10283.671   -31612.539   -2023.2607    2784.7884    7891.9324   -3952.7533    2822.0624    82.491995 
    5500    982.45829   -111.70164   0.88894891    -110.8127    4402.4942    4.3433636    4.3433636    4.3433636    4402.4942    16911.933    3569.0339   -7273.4848    8033.0394    6936.9691   -6303.9876    81.936716 
    5600    999.30679   -111.71224   0.90419378   -110.80805    6062.6255    4.3325704    4.3325704    4.3325704    6062.6255    11895.426    3917.0905    2375.3601   -1413.0898    702.54862    4085.6392    81.327397 
    5700    887.59795   -111.61737   0.80311728   -110.81425    -28316.15    4.3542007    4.3542007    4.3542007    -28316.15   -32148.869     -12302.9   -40496.683    11410.777    1176.1498    -3931.697    82.551571 
    5800    512.11505    -111.2784   0.46337246   -110.81503    15067.447    4.3389363    4.3389363    4.3389363    15067.447    8479.6305    7785.6319    28937.079    8969.1079    5612.4629    7129.3988    81.686413 
    5900    1388.9425   -112.07382    1.2567444   -110.81707    1662.3693    4.3365229    4.3365229    4.3365229    1662.3693    29031.281   -5430.5633    -18613.61   -784.40885    8491.6864    4288.9307    81.550182 
    6000    1030.2896    -111.7545    0.9322277   -110.82227   -6636.1386    4.3553567    4.3553567    4.3553567   -6636.1386   -12557.094   -6321.6499   -1029.6722    3539.5079    15948.448   -3028.2254    82.617337 
    6100    1000.6275   -111.71638   0.90538875   -110.81099   -12671.558    4.3438192    4.3438192    4.3438192   -12671.558    17469.295   -16600.055   -38883.916    4826.1471    5868.7439    797.09991    81.962505 
    6200    1103.4244   -111.80472   0.99840155   -110.80631   -15913.574    4.3473009    4.3473009    4.3473009   -15913.574    4985.9542   -27007.053   -25719.623   -11524.327   -7537.0105    5066.6126     82.15975 
    6300    1083.8411    -111.7813   0.98068217   -110.80062   -18099.983    4.3525843    4.3525843    4.3525843   -18099.983   -19826.252   -20171.592   -14302.105   -3856.2115    12042.617   -2166.1526    82.459667 
    6400    807.80034   -111.53327   0.73091472   -110.80236    9960.1645    4.3422312    4.3422312    4.3422312    9960.1645    253.21105    11411.421    18215.861   -718.12751   -1294.4092    596.02174    81.872646 
    6500    1514.1806   -112.17276    1.3700624    -110.8027   -15112.155    4.3517989    4.3517989    4.3517989   -15112.155   -18343.306   -10828.006   -16165.152   -9851.1827   -13968.228    8965.2807    82.415038 
    6600    1090.9652   -111.78824   0.98712828   -110.80111    2148.7892    4.3491358    4.3491358    4.3491358    2148.7892   -24366.819    5313.5235    25499.663   -7753.5315     8998.673    3004.8746    82.263828 
    6700      827.119   -111.55414   0.74839465   -110.80574   -6023.9668    4.3392723    4.3392723    4.3392723   -6023.9668   -5774.2504    32608.962   -44906.612    3526.6292   -9166.2131    8139.8924    81.705392 
    6800     1053.696   -111.76395   0.95340628   -110.81055   -11384.616    4.3481838    4.3481838    4.3481838   -11384.616   -14739.162    5185.9123   -24600.599   -6235.2662   -6422.6915    1743.5332    82.209817 
    6900    979.87509   -111.69473   0.88661157   -110.80812    4068.2804    4.3444566    4.3444566    4.3444566    4068.2804    2513.1071    27241.146   -17549.412    8989.6296     4315.151    2514.2168    81.998588 
    7000    844.56316   -111.57777    0.7641785   -110.81359   -1161.2925    4.3371138    4.3371138    4.3371138   -1161.2925    11041.007   -14718.462    193.57825   -20.521463   -1847.0887    7656.4923    81.583523 
    7100    1250.6049   -111.94607    1.1315736    -110.8145   -5146.9008    4.3453392    4.3453392    4.3453392   -5146.9008   -11619.979    10113.388   -13934.111    4754.3712   -1423.7238   -7042.4266    82.048577 
    7200     1192.106   -111.88711    1.0786426   -110.80847     8440.261    4.3437033    4.3437033    4.3437033     8440.261    4934.7077    1538.9034    18847.172    10422.398    16.185172    11459.981    81.955942 
    7300    727.04045      -111.47   0.65784148   -110.81216   -1993.5782    4.3379763    4.3379763    4.3379763   -1993.5782    34812.206    1988.8365   -42781.777   -8195.6685   -5922.8287    10693.642    81.632206 
    7400    790.98583   -111.53216    0.7157006   -110.81645   -5676.6975    4.3472995    4.3472995    4.3472995   -5676.6975   -10501.877    12098.653   -18626.869    12682.449   -5927.6289   -6036.9995    82.159669 
    7500    1192.8025   -111.88866    1.0792727   -110.80939     8820.694    4.3386447    4.3386447    4.3386447     8820.694    24007.716    13634.647   -11180.282   -8135.9682    2291.3856    5706.0642    81.669945 
    7600    936.19056   -111.66298   0.84708489   -110.81589    2345.4357    4.3368248    4.3368248    4.3368248    2345.4357    22466.675   -3909.7864   -11520.581   -1126.3895   -15831.817    14578.266    81.567214 
    7700    1074.4045   -111.79002   0.97214381   -110.81787   -29849.835    4.3543214    4.3543214    4.3543214   -29849.835   -34057.371   -9358.4816   -46133.652   -2368.8229   -3188.5865   -8590.4846    82.558433 
    7800    1095.3865   -111.80052   0.99112868   -110.80939    23283.168    4.3305352    4.3305352    4.3305352    23283.168    26012.478    33630.477     10206.55   -5252.2787    6739.0448   -155.43597    81.212844 
    7900    1105.8955   -111.81603    1.0006375   -110.81539   -5264.3684    4.3345848    4.3345848    4.3345848   -5264.3684     8784.694   -8546.3006   -16031.499    8664.7827   -13380.818    6349.2067    81.440893 
    8000     644.1214   -111.39841   0.58281458    -110.8156   -29248.227    4.3588834    4.3588834    4.3588834   -29248.227   -36489.894   -3002.2784   -48252.507     822.0925    3111.5092    -9049.881    82.818196 
    8100    1301.9514   -111.98252     1.178033   -110.80449    9410.6667     4.328374     4.328374     4.328374    9410.6667    8119.2224   -860.37303    20973.151    14109.461    5768.2584   -620.42154    81.091313 
    8200    1083.4857   -111.79875   0.98036063   -110.81839    7015.3019    4.3301244    4.3301244    4.3301244    7015.3019    23974.589     15833.94   -18762.624   -4301.6994    -6956.744    731.59819    81.189735 
    8300    626.48347   -111.38928   0.56685541   -110.82243   -17147.777    4.3562058    4.3562058    4.3562058   -17147.777   -15791.439    9740.5769   -45392.469     5264.311    13651.112   -7973.3488    82.665668 
    8400     1165.104   -111.86262    1.0542106   -110.80841   -8651.1212    4.3463411    4.3463411    4.3463411   -8651.1212   -5093.9604    7261.0929   -28120.496   -4848.3705   -1325.2085    4436.1763    82.105345 
    8500    838.39089   -111.56255    0.7585937   -110.80396    24697.259    4.3336071    4.3336071    4.3336071    24697.259    21695.752    30439.725    21956.299   -3840.9352   -320.82716   -5534.2229    81.385792 
    8600    1108.4227   -111.81399    1.0029242   -110.81107   -19781.112    4.3408977    4.3408977    4.3408977   -19781.112   -21638.354   -3650.7602   -34054.223   -1614.2916     15652.24   -2238.3298    81.797242 
    8700    883.09269   -111.61378   0.79904082   -110.81474    9529.9434      4.35212      4.35212      4.35212    9529.9434   -1051.2056    10129.036    19511.999    1727.9839   -8294.7271    -6816.078    82.433279 
    8800    1129.2703   -111.82832    1.0217875   -110.80653   -4110.0684    4.3445515    4.3445515    4.3445515   -4110.0684    9958.8191   -2010.5839    -20278.44    2309.7612    9339.5423   -9228.8869    82.003963 
    8900    589.80725   -111.34208   0.53366999   -110.80841    4724.5759    4.3366563    4.3366563    4.3366563    4724.5759   -5911.7685     31910.14   -11824.644    2703.6128    9082.2603     1588.859    81.557708 
    9000    1148.9452   -111.84895    1.0395898   -110.80936   -11283.963    4.3470885    4.3470885    4.3470885   -11283.963   -15885.169    6064.7716   -24031.492    3206.0058   -3541.7908   -5744.1635    82.147707 
    9100    1147.9221     -111.846     1.038664   -110.80733    5176.0003    4.3473669    4.3473669    4.3473669    5176.0003   -170.08696   -7864.9918     23563.08   -5369.3368   -3119.2781   -1672.6675    82.163489 
    9200    833.06864   -111.57256   0.75377801   -110.81878   -3368.0626    4.3436849    4.3436849    4.3436849   -3368.0626    -29230.14    21899.489   -2773.5372     357.4925     3264.838   -3649.6832    81.954905 
    9300    1051.5892   -111.77277       0.9515   -110.82127   -4826.2272    4.3394917    4.3394917    4.3394917   -4826.2272   -21190.345   -9746.7733    16458.437   -5720.4272   -11187.943    1503.1637    81.717783 
    9400      1018.04   -111.73911   0.92114403   -110.81797    12442.275    4.3373286    4.3373286    4.3373286    12442.275     23088.51    30043.154   -15804.838   -1946.2098   -2358.3529   -4333.0761    81.595646 
    9500    894.52246   -111.63428   0.80938272   -110.82489   -33878.671    4.3559382    4.3559382    4.3559382   -33878.671   -45858.589   -26353.027   -29424.398    12789.202     4530.331   -2466.3354    82.650433 
    9600    1027.9844   -111.74425    0.9301419   -110.81411    1288.8444    4.3410377    4.3410377    4.3410377    1288.8444   -17220.161   -2145.1679    23231.862    7745.6737    -7536.108   -1112.4615    81.805157 
    9700    1348.2946   -112.02756    1.2199653   -110.80759    14491.154    4.3340191    4.3340191    4.3340191    14491.154    22922.537     16817.86    3733.0651    3558.6813    15924.499   -3702.4074    81.409008 
    9800    997.71534   -111.71902   0.90275381   -110.81627   -20515.293    4.3521827    4.3521827    4.3521827   -20515.293    -29438.57   -44277.308        12170    4339.9652   -4715.9039    3558.9069    82.436844 
    9900     782.8146   -111.51862    0.7083071   -110.81031     14149.72    4.3394372    4.3394372    4.3394372     14149.72    4019.0342    27162.686     11267.44     -156.821   -4994.9571   -1213.2805    81.714706 
   10000    1035.6269   -111.74363   0.93705701   -110.80658    3077.2814    4.3486605    4.3486605    4.3486605    3077.2814    29800.581    12389.815   -32958.551   -3619.0012    12315.483   -1081.5161    82.236857 
   10100    994.51421   -111.70618   0.89985736   -110.80632   -16029.697    4.3491499    4.3491499    4.3491499   -16029.697   -16426.787   -18124.741   -13537.563    2518.3642   -10071.441    2936.0104    82.264628 
   10200    873.72839   -111.59944   0.79056781   -110.80887    23662.456     4.326157     4.326157     4.326157    23662.456    27500.819    30331.479    13155.071    -9015.837   -1784.7909    2247.0589    80.966772 
   10300    1268.8631   -111.97021     1.148094   -110.82211   -14094.747    4.3482534    4.3482534    4.3482534   -14094.747   -1713.9256       -23563   -17007.317    937.23036    1272.3485    -3997.912    82.213763 
   10400    983.94273   -111.70876   0.89029206   -110.81847    2758.5821    4.3476104    4.3476104    4.3476104    2758.5821     7283.285   -33628.054    34620.516    2703.2882   -4807.8704    6241.5082    82.177298 
   10500    893.32719   -111.62487   0.80830122   -110.81657    2088.8892    4.3360887    4.3360887    4.3360887    2088.8892    11840.207    18129.771   -23703.311    1262.0529   -10428.797   -608.95105    81.525687 
   10600    1051.0688   -111.76714   0.95102912   -110.81611   -8311.2785    4.3442225    4.3442225    4.3442225   -8311.2785   -3661.2308   -12888.013   -8384.5918    5319.9081    1882.1424   -638.15778    81.985338 
   10700    1181.3546   -111.88108    1.0689144   -110.81216    1845.0187    4.3439552    4.3439552    4.3439552    1845.0187    19604.965    -12115.89   -1954.0181    6287.1742    4186.4083    6810.9019    81.970201 
   10800    763.24554    -111.5046    0.6906006     -110.814    2866.4301    4.3468192    4.3468192    4.3468192    2866.4301    -700.5216   -971.67094    10271.483   -1331.2917   -4822.2574     3926.126    82.132443 
   10900    1289.7549    -111.9734    1.1669974   -110.80641   -5790.4021     4.340134     4.340134     4.340134   -5790.4021    6922.9258   -9992.5805   -14301.552   -946.01057    11642.849    655.62357    81.754075 
   11000    1106.3818   -111.80867    1.0010775   -110.80759    16386.326     4.336865     4.336865     4.336865    16386.326    26556.917     -9832.59    32434.652    8980.1634   -4868.0321   -1471.7778    81.569484 
   11100    741.55297   -111.48279   0.67097271   -110.81182   -20661.124    4.3548267    4.3548267    4.3548267   -20661.124   -16362.706    9860.6356   -55481.303   -7751.3206    11608.295    2682.2827     82.58718 
   11200    895.27994   -111.61485   0.81006811   -110.80478   -2330.8069    4.3408689    4.3408689    4.3408689   -2330.8069   -13549.443    16576.299   -10019.276   -10.757109   -324.15508    4281.0812    81.795615 
   11300    1225.9963   -111.91132    1.1093072   -110.80201     23190.37    4.3276522    4.3276522    4.3276522     23190.37     47189.99    7571.6978    14809.422    729.08575   -2747.5358    1216.5541    81.050754 
   11400    747.28593   -111.49313   0.67616001   -110.81697   -10363.123    4.3572579    4.3572579    4.3572579   -10363.123    -23582.15   -837.32075   -6669.8986    253.06943    2195.3475    8356.3817    82.725576 
   11500    1073.8934    -111.7782   0.97168134   -110.80652    1355.1671    4.3508323    4.3508323    4.3508323    1355.1671    32886.671    652.22876   -29473.399    5492.1448   -12207.828    1735.9793     82.36013 
   11600    989.74729   -111.69885   0.89554415    -110.8033    26898.935    4.3280554    4.3280554    4.3280554    26898.935    45661.907   -8223.9438    43258.841   -2817.4001    290.83616    3991.8466    81.073407 
   11700    857.03318   -111.59454   0.77546163   -110.81908   -18458.105    4.3416894    4.3416894    4.3416894   -18458.105   -11238.715   -7127.4787   -37008.122   -5883.7989    3327.7938     8268.683    81.842001 
   11800    870.43164   -111.60627   0.78758484   -110.81868    -9819.318    4.3590905    4.3590905    4.3590905    -9819.318    783.12246   -5769.9206   -24471.156   -5600.4072   -3739.0917    2114.2543    82.829999 
   11900    1411.1109   -112.08685    1.2768028   -110.81005   -11134.383     4.345089     4.345089     4.345089   -11134.383    5867.6023   -23366.164   -15904.586   -471.49737     8038.475    4562.1005    82.034403 
   12000    762.06517   -111.50155   0.68953258   -110.81202    27708.321    4.3265553    4.3265553    4.3265553    27708.321    62041.625    7267.5968     13815.74   -16300.637      6905.68    367.35045    80.989138 
   12100    1108.6717   -111.82549    1.0031495   -110.82234   -18935.969    4.3556953    4.3556953    4.3556953   -18935.969    13215.731   -20334.091   -49689.547    2450.7973   -6685.9822   -1038.0647    82.636606 
   12200    1082.2891   -111.78387   0.97927793   -110.80459   -4435.7002    4.3546364    4.3546364    4.3546364   -4435.7002    12296.286   -24247.355   -1356.0319   -1662.6512   -4630.7993    1336.2152     82.57635 
   12300    864.92851   -111.58395   0.78260549   -110.80135    6717.8873    4.3327856    4.3327856    4.3327856    6717.8873    3780.3167    7665.3427    8708.0024     1327.354    5057.8339   -700.75305    81.339518 
   12400    918.10744   -111.64372   0.83072291     -110.813   -13177.199    4.3470231    4.3470231    4.3470231   -13177.199   -8134.7096    -9387.134   -22009.752    6082.5311   -3768.9555   -4320.1013    82.143999 
   12500    1161.5108   -111.85695    1.0509594   -110.80599    10938.223    4.3524492    4.3524492    4.3524492    10938.223     64216.87   -24781.226   -6620.9761    3342.9199   -2028.6074    2043.3584    82.451987 
   12600    923.91821   -111.64484   0.83598061   -110.80886   -5386.4477    4.3481918    4.3481918    4.3481918   -5386.4477    25183.638   -7127.8256   -34215.156    5254.0072    3086.9069    1166.5482    82.210272 
   12700    715.78649   -111.45399   0.64765866   -110.80633   -3426.8841    4.3457917    4.3457917    4.3457917   -3426.8841    15272.397    4130.3688   -29683.418    3594.0743   -4179.3863   -8758.5411    82.074211 
   12800    1265.3102   -111.94903    1.1448793   -110.80415    13818.242    4.3391573    4.3391573    4.3391573    13818.242    21753.041     11602.41    8099.2758    3846.9934    5782.1523    204.23331    81.698895 
   12900    859.28673   -111.60063   0.77750069   -110.82313   -16906.274    4.3445612    4.3445612    4.3445612   -16906.274   -22329.457   -790.39671   -27598.967   -7572.2407   -11329.156   -4067.8702    82.004515 
   13000    903.40763   -111.64304   0.81742221   -110.82562    9516.3916    4.3426294    4.3426294    4.3426294    9516.3916    26166.358   -6581.3897    8964.2067   -4690.5801   -4469.1748    476.33168     81.89517 
   13100    1451.8294   -112.12491    1.3136457   -110.81126    6385.2425       4.3471       4.3471       4.3471    6385.2425    27670.498    9742.7662   -18257.537   -1721.1668    2128.0982    4899.3083    82.148358 
   13200    605.25744   -111.36354   0.54764965   -110.81589    290.61136      4.34011      4.34011      4.34011    290.61136   -10514.639    24552.121   -13165.648    -1041.915   -14107.204   -9676.9695     81.75272 
   13300    881.15345    -111.6119   0.79728616   -110.81461    -3088.561    4.3436949    4.3436949    4.3436949    -3088.561    18612.907   -13319.162   -14559.428    327.25481    3984.9565    3483.5241     81.95547 
   13400     1098.604   -111.79916   0.99404001   -110.80512    16595.881    4.3480107    4.3480107    4.3480107    16595.881    15882.887   -103.31859    34008.074    874.11907     2861.944    5278.4574    82.200002 
   13500    987.27033   -111.70307   0.89330294   -110.80977   -781.62663    4.3403605    4.3403605    4.3403605   -781.62663   -9392.4041    13269.902   -6222.3774    3951.8659   -13041.773   -7336.9031    81.766878 
   13600    1202.5079   -111.90021    1.0880544   -110.81216   -2553.2079    4.3487569    4.3487569    4.3487569   -2553.2079    12537.295   -18989.069   -1207.8499     12575.05    5255.4741    5890.3386    82.242328 
   13700    1482.1277   -112.14183    1.3410603   -110.80077   -5697.9685    4.3468849    4.3468849    4.3468849   -5697.9685   -9191.5533    -4660.963    -3241.389    5995.4822   -8925.0536   -3018.3654    82.136165 
   13800    649.62709   -111.39704   0.58779624   -110.80925   -1323.5637    4.3426944    4.3426944    4.3426944   -1323.5637   -8993.3014    13740.092   -8717.4814    4039.0631   -8413.3253   -15228.284    81.898848 
   13900    1003.4655   -111.71765   0.90795669    -110.8097   -10770.327    4.3501254    4.3501254    4.3501254   -10770.327   -18580.994   -22863.958    9133.9713    6872.6566    4407.8954     846.3606    82.319993 
   14000    1111.8029   -111.80836    1.0059826   -110.80238    25312.304    4.3429786    4.3429786    4.3429786    25312.304    16465.057   -3452.3254    62924.182    4130.0958    -1890.248   -975.14561    81.914933 
   14100    1025.7531   -111.73659     0.928123   -110.80846   -4250.2266    4.3451454    4.3451454    4.3451454   -4250.2266    1392.9744   -13123.854   -1019.8003    3477.1445   -1875.6524   -9238.7114      82.0376 
   14200    1138.3263     -111.838    1.0299815   -110.80802   -4643.3015    4.3483658    4.3483658    4.3483658   -4643.3015   -1522.6728   -26442.629    14035.398    1866.7058    10431.845    11808.307    82.220143 
   14300    1036.6284   -111.75202   0.93796314   -110.81406    1505.7524    4.3394106    4.3394106    4.3394106    1505.7524    7092.0189   -11647.083    9072.3211    4056.7082    -931.4754    13590.773    81.713201 
   14400    823.77132   -111.57182    0.7453656   -110.82646    4999.8459    4.3393464    4.3393464    4.3393464    4999.8459   -4663.8868   -1682.0876    21345.512    3396.9206   -10633.643   -15866.022    81.709575 
   14500    1004.8617   -111.73288   0.90921997   -110.82366   -17826.676    4.3610727    4.3610727    4.3610727   -17826.676   -17712.584   -44795.281    9027.8356    4757.2011    1273.7792    9788.8351    82.943044 
   14600    1376.4315    -112.0606    1.2454242   -110.81517    6945.8273    4.3323617    4.3323617    4.3323617    6945.8273    14525.476   -14858.809    21170.815   -1850.1343   -4061.0294    2503.4042    81.315647 
   14700    719.92692   -111.47271   0.65140501   -110.82131    20541.237    4.3261668    4.3261668    4.3261668    20541.237    4639.8653   -12103.744    69087.591    5090.8317   -4659.0035   -6031.2331    80.967322 
   14800    1221.5089   -111.92626    1.1052469   -110.82101   -37667.372    4.3623167    4.3623167    4.3623167   -37667.372   -47889.509    -39780.99   -25331.616    5748.1214    7002.2603    11411.504    83.014046 
   14900    1128.8178   -111.83519    1.0213781   -110.81381     22496.78    4.3404916    4.3404916    4.3404916     22496.78    5821.0001   -9424.3267    71093.667   -1202.1551   -9893.5752   -8536.2745    81.774289 
   15000    877.40551   -111.61208   0.79389494   -110.81819    5285.0141    4.3254565    4.3254565    4.3254565    5285.0141    10340.407     1158.984    4355.6511    6924.4994    1620.2475   -8555.7074    80.927449 
   15100     766.6629   -111.52648    0.6936927   -110.83279    7188.4878    4.3469188    4.3469188    4.3469188    7188.4878   -16561.393   -10655.077    48781.933     -2765.15   -239.95145    11559.791    82.138086 
   15200    1444.5402   -112.12378    1.3070503   -110.81673    -25704.42    4.3553781    4.3553781    4.3553781    -25704.42   -22814.483   -29421.007   -24877.769   -4365.2636     4184.352   -1188.6118    82.618552 
   15300    666.24348   -111.42428   0.60283111   -110.82145    19633.329    4.3289511    4.3289511    4.3289511    19633.329    4448.1395   -6154.0004    60605.847    7787.1633   -10555.379   -18703.259    81.123755 
   15400     1065.082   -111.79682    0.9637086   -110.83311    4890.1518    4.3366726    4.3366726    4.3366726    4890.1518   -8248.7936    13934.811     8984.438   -6279.6232    8882.9415     6573.105    81.558625 
   15500     1096.225   -111.81366    0.9918874   -110.82177   -6366.1659    4.3567395    4.3567395    4.3567395   -6366.1659   -19261.947   -19166.268    19329.717   -1353.1314   -4914.4979    11657.043    82.696051 
   15600    913.07603   -111.64359   0.82617038   -110.81742    3902.2925    4.3351783    4.3351783    4.3351783    3902.2925   -6724.9742    16376.088    2055.7631     3429.537   -1378.8877   -5428.1848    81.474348 
   15700    664.05077   -111.42891   0.60084709   -110.82807    2742.1444    4.3381369    4.3381369    4.3381369    2742.1444   -11629.259   -574.10571    20429.798   -3299.7549    9366.3012    5890.1383    81.641273 
   15800    1223.5363   -111.92508    1.1070814     -110.818    7579.6321    4.3459299    4.3459299    4.3459299    7579.6321   -8119.1204    19026.573    11831.443    4927.6348    7789.1925    472.52854     82.08204 
   15900    1064.1188   -111.78369   0.96283706   -110.82085    2967.5819    4.3446784    4.3446784    4.3446784    2967.5819     -13963.7    20891.859    1974.5863   -2580.6601     292.5367   -4683.0583    82.011149 
   16000    968.59535   -111.69088   0.87640543   -110.81448    4647.0782    4.3451456    4.3451456    4.3451456    4647.0782   -10987.491    8195.3521    16733.374   -6848.7745    8195.9161    9367.0536    82.037609 
   16100    1337.6865   -112.01302    1.2103668   -110.80266   -2006.0372    4.3428605    4.3428605    4.3428605   -2006.0372    945.07862   -11533.653    4570.4627    4638.7429   -11370.746   -7263.8059    81.908247 
   16200    718.05514   -111.45661   0.64971138    -110.8069   -16253.838    4.3462205    4.3462205    4.3462205   -16253.838   -21265.565   -23066.995   -4428.9545    -1639.328    7187.1945   -1803.5046     82.09851 
   16300    943.23549   -111.66389   0.85345929   -110.81043   -5671.9321    4.3444883    4.3444883    4.3444883   -5671.9321   -8787.0401   -11583.753    3354.9968    1385.9242    6760.6913    13952.207    82.000385 
   16400    1626.9899   -112.27643    1.4721346   -110.80429   -5724.7462    4.3473386    4.3473386    4.3473386   -5724.7462   -7761.3137   -6522.2928   -2890.6321   -787.15264   -2529.6597   -9135.3168    82.161889 
   16500    674.41969   -111.43123   0.61022911     -110.821   -2238.6931    4.3467305    4.3467305    4.3467305   -2238.6931   -40790.581    9357.6982    24716.803    3898.8174     3057.802    521.41266    82.127413 
   16600    1037.2698   -111.75984    0.9385435    -110.8213   -8073.6056    4.3363851    4.3363851    4.3363851   -8073.6056   -12268.169    10807.313   -22759.961   -2133.9935    12739.813    15785.898    81.542409 
   16700    1178.5077   -111.88083    1.0663386   -110.81449    4666.0956    4.3422079    4.3422079    4.3422079    4666.0956    5363.4188   -6036.3523     14671.22    8126.6281   -8995.0538   -8621.1869     81.87133 
   16800    713.49947    -111.4622   0.64558931   -110.81661   -14777.872    4.3532998    4.3532998    4.3532998   -14777.872   -20001.646   -5611.2321   -18720.739   -4389.8844    9556.9558    2283.6934     82.50034 
   16900    978.38202   -111.69235   0.88526062   -110.80709    12188.773    4.3393324    4.3393324    4.3393324    12188.773    26399.541    5958.1398    4208.6385    1247.4715    7833.3612    3247.2307    81.708783 
   17000    1171.1675    -111.8631    1.0596969    -110.8034    13580.328    4.3426361    4.3426361    4.3426361    13580.328   -9764.8575     19413.01     31092.83   -630.06483   -5207.6979   -10902.885    81.895554 
   17100    798.91879   -111.53533   0.72287851   -110.81245   -7358.9855    4.3445059    4.3445059    4.3445059   -7358.9855   -13171.482    25620.114   -34525.588   -11905.212    22425.742   -7400.4848    82.001383 
   17200    590.74519   -111.34997   0.53451866   -110.81545    24502.039    4.3382055    4.3382055    4.3382055    24502.039    9531.5962    15390.012     48584.51    794.15415    1766.6746    9548.5999    81.645146 
   17300    1372.5374    -112.0566    1.2419007    -110.8147   -10567.545    4.3487762    4.3487762    4.3487762   -10567.545   -16976.739   -1952.0103   -12773.886   -5609.8722    5620.3541   -1626.8417    82.243423 
   17400    716.30713   -111.46737   0.64812975   -110.81925    15305.661    4.3388729    4.3388729    4.3388729    15305.661   -5193.3715    36858.647    14251.708   -3439.0643    12407.719    240.33425    81.682831 
   17500    743.75716   -111.49233   0.67296711   -110.81937    11783.232    4.3381697    4.3381697    4.3381697    11783.232   -2640.5138    9406.0669    28584.144   -1847.1447   -6402.5755    17589.117    81.643125 
   17600    1155.5538   -111.85463    1.0455694   -110.80906   -11567.785    4.3524935    4.3524935    4.3524935   -11567.785    -39792.72     8450.134   -3360.7699    1345.0935   -3346.8731    1912.6232    82.454509 
   17700    976.56647   -111.69175   0.88361786   -110.80813    5533.9702    4.3353594    4.3353594    4.3353594    5533.9702   -4642.1743   -6425.8744    27669.959   -252.52993    7975.9719    3423.7147    81.484561 
   17800     1027.067   -111.74455   0.92931182   -110.81524    2331.9088    4.3329402    4.3329402    4.3329402    2331.9088    15302.473   -19939.532    11632.785    10417.141   -13412.083    4537.5939    81.348228 
   17900    1332.1846   -112.01677    1.2053886   -110.81139   -8808.2894    4.3532021    4.3532021    4.3532021   -8808.2894   -14724.168   -22751.598    11050.898    6696.8459    3028.3378   -3915.2077    82.494787 
   18000     880.1936   -111.60691   0.79641766   -110.81049   -15699.464    4.3428715    4.3428715    4.3428715   -15699.464   -23443.244   -19268.219   -4386.9278    5622.6613    2105.2093    360.04238    81.908873 
   18100    694.51691   -111.43584    0.6284135   -110.80743    6859.9742    4.3316706    4.3316706    4.3316706    6859.9742   -8284.3961   -6354.9625    35219.281    11440.229   -11665.333    5718.8895    81.276738 
   18200    1426.5806   -112.09871    1.2908001   -110.80791    3411.8617    4.3459338    4.3459338    4.3459338    3411.8617   -6836.2012   -6334.2402    23406.027   -434.12208    6240.2387   -2853.8012    82.082261 
   18300     1148.238   -111.85814    1.0389499   -110.81919    -19133.42    4.3462965    4.3462965    4.3462965    -19133.42   -14107.097   -29559.892   -13733.271    11715.994     -3824.23    7522.8192    82.102813 
   18400    604.88151   -111.37077    0.5473095   -110.82346    17013.293     4.339533     4.339533     4.339533    17013.293   -4010.4663    8673.4091    46376.937    4860.4378   -11088.962    -2204.328    81.720121 
   18500    1318.5787   -112.00583    1.1930777   -110.81275   -4452.6884    4.3446865    4.3446865    4.3446865   -4452.6884   -27439.161     9380.432    4700.6636   -10646.083   -5196.1079    6691.3942    82.011611 
   18600    511.93664   -111.28647   0.46321103   -110.82326    5903.7713    4.3422197    4.3422197    4.3422197    5903.7713     -13903.7     19617.03    11997.984    13608.213   -5696.8751    7047.9033    81.871998 
   18700    845.99727    -111.5917   0.76547611   -110.82622    16946.317    4.3410204    4.3410204    4.3410204    16946.317     4042.794    19760.048    27036.108   -8584.3594   -13849.778    1454.6367    81.804175 
   18800    1537.1543   -112.20671    1.3908495   -110.81586   -4077.7195    4.3453817    4.3453817    4.3453817   -4077.7195    -6889.065    10746.683   -16090.777    1404.8649    20997.208   -568.77595    82.050984 
   18900    694.66008   -111.44315   0.62854304   -110.81461    11038.961    4.3374451    4.3374451    4.3374451    11038.961   -13047.317    4618.3212    41545.877    11004.913   -12070.623    2001.1776     81.60222 
   19000    1007.7933   -111.72119   0.91187259   -110.80932   -11926.189    4.3435324    4.3435324    4.3435324   -11926.189   -16147.592   -1443.7521   -18187.223   -6026.5387    9850.4909   -5523.7795    81.946269 
   19100    1070.4144   -111.77315   0.96853343   -110.80461    166.14761    4.3488876    4.3488876    4.3488876    166.14761   -17708.865    1305.4085    16901.899     7006.523    2438.8759   -3401.2831    82.249744 
   19200     1213.604   -111.90354    1.0980944   -110.80544   -5499.8221    4.3370548    4.3370548    4.3370548   -5499.8221   -5082.3331   -13276.858    1859.7246    1884.9818   -17244.615   -2027.3023    81.580194 
   19300    931.72566   -111.65384   0.84304496   -110.81079    11001.561    4.3405123    4.3405123    4.3405123    11001.561    14492.589    7148.4349    11363.659    4448.7573     17662.29    6329.2175    81.775457 
   19400    1309.3173   -111.98961    1.1846978   -110.80491   -9113.6273    4.3528351    4.3528351    4.3528351   -9113.6273   -23659.316   -4117.0342    435.46795    44.044604   -3335.9118   -2761.1853     82.47392 
   19500     738.2227   -111.47828   0.66795941   -110.81032    10006.387    4.3382768    4.3382768    4.3382768    10006.387   -15701.073    37456.378    8263.8569    446.36588   -2755.8405     5804.776    81.649169 
   19600    805.88234   -111.54492   0.72917928   -110.81574    14163.163     4.335027     4.335027     4.335027    14163.163   -8513.6476    31125.938    19877.198   -10603.271    18245.492    7362.0996     81.46582 
   19700    1354.0716   -112.03816    1.2251924   -110.81296   -3575.9659     4.354427     4.354427     4.354427   -3575.9659   -4455.5608    20571.982   -26844.319   -2999.7281   -8555.2074   -2473.2881    82.564443 
   19800    575.81179   -111.34416   0.52100661   -110.82316    12257.246     4.343129     4.343129     4.343129    12257.246    -1848.183    14845.216    23774.706   -6709.2019    2106.3615   -12837.523    81.923444 
   19900    818.26066   -111.56026   0.74037944   -110.81988    3754.8673    4.3368369    4.3368369    4.3368369    3754.8673   -11440.974    25349.655   -2644.0797    -9763.754    15744.199   -3273.4092    81.567896 
   20000    1233.8974   -111.92574    1.1164563   -110.80929    13272.323    4.3410415    4.3410415    4.3410415    13272.323     -2148.27    24603.476    17361.763    2431.8057   -13459.231   -8589.2656    81.805371 
   20100    671.41241   -111.42281   0.60750806    -110.8153    5969.9233    4.3437273    4.3437273    4.3437273    5969.9233    2922.8268    23248.992    -8262.049   -12930.991    13438.806    2784.5509    81.957305 
   20200    1103.4487   -111.80791   0.99842356   -110.80949    -13398.54    4.3472416    4.3472416    4.3472416    -13398.54    -15356.06    -8334.995   -16504.565   -5336.8509    11756.084    2105.3817    82.156385 
   20300    1150.5553    -111.8431    1.0410466   -110.80205    21389.193    4.3331269    4.3331269    4.3331269    21389.193    25528.399    3456.8211     35182.36    2416.4479    1091.1948   -5769.6289    81.358741 
   20400    801.00362   -111.54341   0.72476491   -110.81864   -17318.177    4.3387012    4.3387012    4.3387012   -17318.177   -24346.188   -12395.205   -15213.137   -6068.9268    15644.974    8914.9451    81.673133 
   20500    932.38853   -111.66373   0.84364474   -110.82009   -17849.465    4.3489242    4.3489242    4.3489242   -17849.465   -33259.866    -26228.73    5940.2016   -3691.6727    8038.9001   -3848.2422    82.251818 
   20600    1635.6619   -112.28715    1.4799813   -110.80716   -90.266851    4.3352364    4.3352364    4.3352364   -90.266851    7533.4354   -4029.3687   -3774.8673    15531.805   -1215.5844   -6202.6007    81.477624 
   20700    967.35407   -111.68958   0.87528229   -110.81429   -20324.815    4.3474112    4.3474112    4.3474112   -20324.815   -26984.532   -27667.606   -6322.3061   -8534.4879    8947.1091     3421.493    82.166005 
   20800    829.98692   -111.56038   0.75098961   -110.80939   -9647.7394    4.3421411    4.3421411    4.3421411   -9647.7394   -21702.912   -11851.312    4611.0053    488.96372   -854.39429   -5493.5756    81.867552 
   20900     1034.455   -111.73761   0.93599663   -110.80162    16009.305    4.3313766    4.3313766    4.3313766    16009.305    41639.129   -8264.7083    14653.495    4838.1418   -2730.3453   -2559.4523    81.260192 
   21000    764.10033    -111.5034   0.69137403   -110.81203   -12432.115    4.3476943    4.3476943    4.3476943   -12432.115   -16884.611   -23405.448    2993.7138   -20851.881    -2181.317    411.29055    82.182053 
   21100    1141.2952   -111.84408    1.0326679   -110.81141    -1264.598    4.3407447    4.3407447    4.3407447    -1264.598    18488.628    237.63988   -22520.062   -1080.4759   -5718.1269   -14620.339     81.78859 
   21200    1221.8079   -111.91286    1.1055175   -110.80734    17052.176    4.3351535    4.3351535    4.3351535    17052.176     19170.16   -2332.1259    34318.493   -3605.6609    6017.0892    8672.7435    81.472951 
   21300    873.66117   -111.60509   0.79050699   -110.81458   -5977.7081    4.3394392    4.3394392    4.3394392   -5977.7081    4648.3217   -5558.0324   -17023.414   -11696.762   -1939.5747    -4465.475     81.71482 
   21400    637.94203   -111.39347   0.57722336   -110.81625    9966.0503    4.3385163    4.3385163    4.3385163    9966.0503    8773.5887   -5427.6013    26552.164    90.259217   -6529.0722    -15832.29    81.662693 
   21500     1239.812   -111.93092    1.1218079   -110.80911    4579.3791    4.3409496    4.3409496    4.3409496    4579.3791     22964.94   -1822.6893    -7404.113    1770.1792    5807.3842    6983.0909    81.800177 
   21600     957.8564   -111.68059    0.8666886   -110.81391    14116.912    4.3341789    4.3341789    4.3341789    14116.912    16726.219    22077.835    3546.6827   -728.94249     3092.514   -1821.4945    81.418014 
   21700    986.07054   -111.71016   0.89221735   -110.81795    2904.3548    4.3392516    4.3392516    4.3392516    2904.3548    24131.555    -5847.676   -9570.8149    4253.0012     -5802.79   -3238.7845    81.704223 
   21800    1123.0235   -111.82494    1.0161353    -110.8088    5310.5791    4.3425709    4.3425709    4.3425709    5310.5791   -6565.5188    2164.8064     20332.45    4296.1199    4023.4825    9836.2646    81.891866 
   21900    897.04492    -111.6195    0.8116651   -110.80784    6611.0293    4.3314979    4.3314979    4.3314979    6611.0293    27551.991    -8142.143    423.24037    1109.3273   -6783.5315   -6703.1545    81.267017 
   22000    850.43881   -111.58629   0.76949491   -110.81679   -11830.729    4.3453511    4.3453511    4.3453511   -11830.729   -24983.038   -25042.738     14533.59    12744.382   -8751.5869   -4560.0456    82.049248 
   22100    1459.6905   -112.12759    1.3207587   -110.80684    2092.2538    4.3380611    4.3380611    4.3380611    2092.2538     3881.489    18709.509   -16314.236    5765.8523    536.88693    5423.2124    81.636994 
   22200    1146.9042   -111.84808    1.0377431   -110.81034    8813.7108    4.3269389    4.3269389    4.3269389    8813.7108    9586.8005    7634.2012    9220.1307    830.56675   -4125.3658   -13264.867    81.010682 
   22300    824.13044   -111.56722   0.74569054   -110.82153   -20922.193    4.3452552    4.3452552    4.3452552   -20922.193   -30462.035   -17573.931   -14730.614    15381.366   -8739.0708   -5451.7791    82.043819 
   22400    963.21141   -111.68139   0.87153392   -110.80985    5268.4663    4.3413168    4.3413168    4.3413168    5268.4663    46.415369   -7159.9443    22918.928    1550.1264    2684.8791    -2704.792    81.820937 
   22500    1058.6141   -111.76612   0.95785631   -110.80826   -1682.5192     4.335991     4.335991     4.335991   -1682.5192   -7130.2802     -10128.8    12211.523   -509.27179    2746.2808   -11977.892    81.520178 
   22600    873.12641   -111.60289   0.79002313   -110.81287   -5955.1815    4.3405234    4.3405234    4.3405234   -5955.1815   -27028.224    9597.1272   -434.44811     10422.62   -2776.5936    9034.3455    81.776081 
   22700    1113.9743   -111.81822    1.0079474   -110.81027    6440.6183    4.3347778    4.3347778    4.3347778    6440.6183    1455.8546    19140.817   -1274.8162   -8300.2716    3060.6944     1946.403    81.451767 
   22800    1118.0695   -111.82597    1.0116528   -110.81432   -8861.5241    4.3390416    4.3390416    4.3390416   -8861.5241    14155.733   -18324.693   -22415.612   -3855.4225   -12116.782   -16330.829     81.69236 
   22900    647.05629   -111.40028   0.58547013   -110.81481    14513.648     4.337066     4.337066     4.337066    14513.648   -1421.3253     8272.257    36690.014    3286.2058   -3181.9228    9501.1136    81.580826 
   23000    1003.5573   -111.71924   0.90803978    -110.8112   -2345.2698    4.3388351    4.3388351    4.3388351   -2345.2698    29285.655     -29519.8   -6801.6647   -7250.3253   -860.37903   -7574.6422    81.680697 
   23100    1033.9844    -111.7443    0.9355708   -110.80873    6832.7106    4.3437396    4.3437396    4.3437396    6832.7106    16066.032   -30352.492    34784.591    2995.2819   -9328.0413    -8235.175    81.958001 
   23200    1070.9098   -111.77704   0.96898169   -110.80806    1897.9107    4.3370063    4.3370063    4.3370063    1897.9107   -4477.0003     12885.28   -2714.5476    15715.381    2745.6361    9811.6229    81.577458 
   23300    886.61442   -111.61258   0.80222736   -110.81035    3692.5868    4.3347337    4.3347337    4.3347337    3692.5868    7219.2154   -4663.4786    8522.0235    -8613.591    320.00867   -12804.098    81.449284 
   23400    1199.4344   -111.89531    1.0852735   -110.81004       -15876    4.3419381    4.3419381    4.3419381       -15876   -8592.0782   -26165.228   -12870.695    14086.211    4915.1008   -700.35003    81.856067 
   23500    680.90868   -111.42637   0.61610048   -110.81027    18221.947    4.3358778    4.3358778    4.3358778    18221.947   -6686.9243    20976.859    40375.907    11319.568    1730.0272    5612.0197    81.513795 
   23600     1129.451   -111.82982     1.021951   -110.80787   -11366.077    4.3437648    4.3437648    4.3437648   -11366.077   -7543.6081   -20054.834   -6499.7898   -10490.391      12362.2   -15247.084    81.959423 
   23700      1393.86    -112.0604    1.2611939    -110.7992   -10646.612    4.3454731    4.3454731    4.3454731   -10646.612   -23153.365   -12608.687    3822.2158    13082.677    5038.1249    9920.9425    82.056163 
   23800    1078.9401   -111.77418   0.97624763   -110.79793    15827.229    4.3255614    4.3255614    4.3255614    15827.229     2591.611    24738.203    20151.873   -4691.3931   -2343.3476   -9444.6531    80.933336 
   23900    892.58211   -111.62017   0.80762705   -110.81255   -7042.9338    4.3451913    4.3451913    4.3451913   -7042.9338    7685.7264   -18453.833   -10360.694   -3642.5551    8509.3863   -15872.954    82.040198 
   24000    1180.0899   -111.86763    1.0677702   -110.79986    -20828.22    4.3498408    4.3498408    4.3498408    -20828.22   -20410.686   -48917.624    6843.6501     11655.07   -2777.3388    9328.5704    82.303839 
   24100    729.86315    -111.4555   0.66039552   -110.79511    37127.629    4.3234377    4.3234377    4.3234377    37127.629     63740.88    16848.382    30793.625   -6576.3879     -12198.5   -12214.343    80.814191 
   24200    966.52722    -111.6799   0.87453414   -110.80537    9374.0965    4.3445347    4.3445347    4.3445347    9374.0965    17175.003    10252.536    694.75049   -6864.1005    107.56443   -14099.977    82.003012 
   24300    1147.3775   -111.83207    1.0381713    -110.7939   -8472.4541    4.3540862    4.3540862    4.3540862   -8472.4541    8141.2235   -27175.873   -6382.7126    829.66681   -7058.0053    794.82148    82.545056 
   24400    800.97292   -111.51842   0.72473713   -110.79368    19719.195    4.3241844    4.3241844    4.3241844    19719.195    28975.149   -2935.7254    33118.161   -11805.408   -14478.254   -17357.229    80.856066 
   24500    902.29216   -111.62042   0.81641291   -110.80401    7477.8757    4.3342299    4.3342299    4.3342299    7477.8757   -1191.7309    10768.207    12857.151    3940.0108    4901.9298   -3717.6019    81.420885 
   24600      1031.63   -111.73539   0.93344052   -110.80195   -16381.442    4.3537758    4.3537758    4.3537758   -16381.442   -23460.313   -33875.237    8191.2242    276.25987    269.80965   -9206.3722    82.527406 
   24700     839.6171   -111.55879   0.75970319   -110.79909    4598.9131    4.3375241    4.3375241    4.3375241    4598.9131   -16007.843    22330.148    7474.4339   -11093.436   -5216.7529   -19158.794    81.606678 
   24800    1229.2023   -111.90833    1.1122081   -110.79612    -2015.792    4.3311227    4.3311227    4.3311227    -2015.792   -23410.392     25871.78   -8508.7642    19382.295    21658.843    8569.7297    81.245903 
   24900    1182.1093   -111.87081    1.0695973   -110.80122   -17310.428    4.3477699    4.3477699    4.3477699   -17310.428   -22575.997   -26171.115   -3184.1714   -442.61977   -1719.1808   -2271.0275    82.186343 
   25000     1111.181   -111.80471    1.0054199   -110.79929    -15980.07    4.3459816    4.3459816    4.3459816    -15980.07   -20675.894    567.15295   -27831.468   -4191.2485    11180.911   -1865.6863    82.084973 
   25100    1105.9768   -111.79785    1.0007111   -110.79714   -11227.728    4.3345822    4.3345822    4.3345822   -11227.728   -25446.662   -24776.592     16540.07    21148.765    13060.922    8624.5358    81.440744 
   25200    1092.8674   -111.78994   0.98884942   -110.80109   -13552.309    4.3396749    4.3396749    4.3396749   -13552.309   -27436.176   -11625.249   -1595.5032   -4338.3255    953.54402   -7359.6778    81.728134 
   25300    1115.1586   -111.80925     1.009019   -110.80023   -16605.914    4.3496673    4.3496673    4.3496673   -16605.914   -36676.654   -963.91349   -12177.176    8720.2927    15955.798   -4682.9225    82.293991 
   25400    1020.4098   -111.72307   0.92328824   -110.79978    1153.7711    4.3362672    4.3362672    4.3362672    1153.7711   -24927.102   -13452.354     41840.77    3657.4416    7864.4584   -3941.1788    81.535759 
   25500    1059.2675   -111.76298    0.9584475   -110.80453    15966.344     4.331043     4.331043     4.331043    15966.344    1299.4347    16764.149    29835.447   -9142.7544    478.75804   -18497.606    81.241414 
   25600     785.3956   -111.51926   0.71064244   -110.80861   -5743.7264    4.3519572    4.3519572    4.3519572   -5743.7264   -41120.698   -2117.5673    26007.086    8674.2166    10337.948   -10652.613     82.42403 
   25700    836.20341   -111.55619   0.75661442   -110.79958   -13298.595    4.3457284    4.3457284    4.3457284   -13298.595   -40106.419    554.86061   -344.22605   -8164.5402    251.71611   -6165.8758    82.070627 
   25800    1198.7897   -111.87655    1.0846901   -110.79186    19661.182    4.3246748    4.3246748    4.3246748    19661.182    78.323693    35535.231    23369.992   -5347.2772     1859.156   -8494.7178     80.88358 
   25900    946.04602   -111.66266   0.85600232   -110.80665   -9443.5816    4.3447132    4.3447132    4.3447132   -9443.5816   -32683.062   -202.00314    4554.3202    6607.8225    12666.186     12761.99     82.01312 
   26000     1037.734   -111.74769   0.93896352   -110.80873    -11648.62    4.3362804    4.3362804    4.3362804    -11648.62    -23218.98   -25472.663    13745.783   -16887.406   -6142.4984    6464.2446    81.536504 
   26100    1063.9397   -111.76515   0.96267496   -110.80248    19684.711    4.3221359    4.3221359    4.3221359    19684.711   -2589.7932    5354.8001    56289.125   -253.69405    5160.3003   -7731.0946    80.741207 
   26200    763.90024   -111.50481   0.69119299   -110.81362   -36951.904    4.3525098    4.3525098    4.3525098   -36951.904   -63760.351   -40127.756   -6967.6059    6157.0952    18335.294    5542.7962    82.455431 
   26300    1143.0449   -111.84176    1.0342511   -110.80751   -6026.5498    4.3349343    4.3349343    4.3349343   -6026.5498   -21747.247   -17154.905    20822.503   -21946.322   -11669.422    7327.3184    81.460591 
   26400    1402.5903   -112.06812    1.2690932   -110.79903    20222.944    4.3149547    4.3149547    4.3149547    20222.944    4537.9844    51414.302    4716.5452    8829.7251    18014.861   -4913.8409    80.339428 
   26500    642.99141   -111.40442   0.58179214   -110.82263   -23187.463    4.3473738    4.3473738    4.3473738   -23187.463   -43650.922   -21940.392   -3971.0739   -3776.6128    2215.7809    15141.656    82.163884 
   26600    888.49494   -111.60929   0.80392889   -110.80536   -6066.7446    4.3453098    4.3453098    4.3453098   -6066.7446   -26572.689   -15624.503    23996.958   -17532.763     350.1699    18582.224    82.046908 
   26700    982.65914   -111.68633   0.88913064    -110.7972    8737.3396    4.3313372    4.3313372    4.3313372    8737.3396   -28611.374    6414.6485    48408.744    8820.3282     3818.292    1097.1311    81.257975 
   26800    748.52242   -111.48548   0.67727881    -110.8082   -16440.881    4.3399842    4.3399842    4.3399842   -16440.881   -42330.861   -47725.502    40733.718   -14574.478    8325.7273    8882.3978    81.745613 
   26900     1421.992   -112.08954    1.2866483   -110.80289   -1220.1991    4.3361816    4.3361816    4.3361816   -1220.1991    2697.0994     -21891.2    15533.503   -11277.798   -4825.8332    961.44878     81.53093 
   27000    1155.0166   -111.85366    1.0450833   -110.80858   -22027.118    4.3428481    4.3428481    4.3428481   -22027.118   -21415.196    -20457.26   -24208.899    782.14532    19776.822   -2181.3385    81.907545 
   27100    783.72527   -111.51815   0.70913109   -110.80902   -22234.378    4.3390796    4.3390796    4.3390796   -22234.378   -22615.997   -45714.524    1627.3881   -15015.226   -1856.1521   -916.19923    81.694504 
   27200    990.18907   -111.69878   0.89594388   -110.80283    17252.119      4.33217      4.33217      4.33217    17252.119    4912.1363    332.03604    46512.185    2960.8148   -7736.1541    1605.6788    81.304856 
   27300    962.27667   -111.67994   0.87068815   -110.80925   -11189.395    4.3450287    4.3450287    4.3450287   -11189.395   -34315.648   -18147.226     18894.69     1672.679    12573.825    6594.8594    82.030988 
   27400    1011.8083   -111.72221   0.91550542    -110.8067    4056.5733     4.340414     4.340414     4.340414    4056.5733   -22297.941   -9192.1543    43659.815   -11388.001   -4702.6777    13131.406    81.769902 
   27500    1015.5372   -111.72398   0.91887942    -110.8051    11853.149    4.3325765    4.3325765    4.3325765    11853.149    2451.5292    36895.941   -3788.0223    6530.3459   -6955.3891    5804.9525    81.327744 
   27600    699.42796   -111.44612   0.63285711   -110.81327   -12156.323    4.3416105    4.3416105    4.3416105   -12156.323   -35503.733    2554.0619   -3519.2981   -6145.1195    4556.0679    2548.3452    81.837545 
   27700    1110.4999   -111.81219    1.0048036   -110.80739   -10082.092    4.3397163    4.3397163    4.3397163   -10082.092   -23856.191   -8436.3332    2046.2495   -12617.477   -7658.8559    6048.3532    81.730476 
   27800    838.92482   -111.56954   0.75907681   -110.81046    1182.9799    4.3293939    4.3293939    4.3293939    1182.9799   -1219.1921    24180.768   -19412.636    3010.0711   -11819.014    -17465.68     81.14865 
   27900    1137.1658   -111.84115    1.0289315   -110.81222   -11936.836    4.3333763    4.3333763    4.3333763   -11936.836   -23925.542   -23157.343    11272.377   -9080.3478    12680.769    2804.5163    81.372789 
   28000    1190.0361   -111.88416    1.0767696   -110.80739   -11768.671    4.3466364    4.3466364    4.3466364   -11768.671   -34845.945    22992.008   -23452.077    1261.2288   -15566.897    902.02283    82.122081 
   28100    799.34578    -111.5369   0.72326486   -110.81364    840.13428    4.3297514    4.3297514    4.3297514    840.13428   -8011.9957    40035.383   -29502.985    99.643452   -2806.1051   -3662.0718    81.168753 
   28200    993.67248   -111.71492   0.89909574   -110.81582    4939.6944    4.3229589    4.3229589    4.3229589    4939.6944    2736.9885    5908.5785    6173.5162   -12455.468    8145.4942   -5322.7981    80.787341 
   28300    982.41233   -111.70412   0.88890732   -110.81521   -22385.079    4.3532993    4.3532993    4.3532993   -22385.079   -37148.123    8442.6221   -38449.737    1783.7437   -20612.147   -4248.1194    82.500309 
   28400    1047.1939   -111.75613   0.94752308   -110.80861   -2549.7056    4.3330672    4.3330672    4.3330672   -2549.7056    20663.361   -18674.467   -9638.0111   -4525.1246    1284.3763   -10053.197    81.355377 
   28500    919.30168   -111.63527   0.83180348   -110.80346    15646.308    4.3145478    4.3145478    4.3145478    15646.308    9133.9842    31506.102    6298.8391   -17519.927   -133.05122   -1125.7136    80.316698 
   28600    995.05429   -111.71362   0.90034603   -110.81328   -18553.753    4.3494317    4.3494317    4.3494317   -18553.753   -27071.661    7213.2437   -35802.841    110.27802    -25553.43   -6759.2222     82.28062 
   28700    1129.3598   -111.82658    1.0218685   -110.80471    -11920.54    4.3445111    4.3445111    4.3445111    -11920.54    2615.5569   -8762.3866   -29614.789   -3043.6448    7214.1357    -6629.751     82.00168 
   28800    739.05499   -111.47318   0.66871249   -110.80447   -2846.3275    4.3246846    4.3246846    4.3246846   -2846.3275   -1670.8945    14458.695   -21326.783    -13932.47   -15220.784    5962.3026    80.884133 
   28900     1177.042   -111.87532    1.0650123   -110.81031   -7279.7764    4.3305025    4.3305025    4.3305025   -7279.7764   -9209.9017   -8101.4242   -4528.0034     11044.11       -21658   -2465.8102    81.211004 
   29000    986.30642   -111.70522   0.89243078   -110.81279    1289.4566    4.3437106    4.3437106    4.3437106    1289.4566    9275.9393    1225.6166    -6633.186   -757.45965    8325.4892   -4387.3586    81.956359 
   29100    823.12475   -111.56025   0.74478057   -110.81547   -23468.745    4.3415328    4.3415328    4.3415328   -23468.745   -35459.201   -4356.5822   -30590.452   -16089.755   -22268.732    7056.6323    81.833147 
   29200    1223.8514   -111.91461    1.1073665   -110.80724    12903.192    4.3185388    4.3185388    4.3185388    12903.192   -3818.5831     41912.31    615.84754    5783.6551   -4792.3481    8398.6278    80.539787 
   29300    891.60036   -111.62757   0.80673874   -110.82083    14881.624    4.3364422    4.3364422    4.3364422    14881.624    9237.3502    34120.628     1286.893   -13355.882    7459.6492   -7832.8746    81.545626 
   29400    797.02013   -111.52977   0.72116057   -110.80861   -27978.886    4.3557977    4.3557977    4.3557977   -27978.886    -25865.26   -34782.954   -23288.445   -6689.3474   -17845.082    38.072094    82.642437 
   29500    1277.4874   -111.95455    1.1558974   -110.79865    20439.403    4.3169596    4.3169596    4.3169596    20439.403    12211.565    28103.115     21003.53     7957.798    2568.5602   -436.72973    80.451463 
   29600    871.55722    -111.6031   0.78860328    -110.8145     20342.19    4.3221383    4.3221383    4.3221383     20342.19    19679.098    9176.9596    32170.514   -5752.3557   -4273.9188   -10592.758    80.741347 
   29700    916.85566   -111.63792   0.82959026   -110.80833   -24513.292    4.3536826    4.3536826    4.3536826   -24513.292   -26130.986   -17244.341    -30164.55    1609.8813   -11824.002   -7543.3052    82.522105 
   29800    1150.8355   -111.84125    1.0413002   -110.79995    17751.772    4.3272301    4.3272301    4.3272301    17751.772    7008.9337    59232.843   -12986.462    13689.964    1848.4839   -4615.2537    81.027041 
   29900    889.68575   -111.61386   0.80500636   -110.80886    5997.7813    4.3226572    4.3226572    4.3226572    5997.7813    10802.161    7696.2649   -505.08171    -9367.429    -7684.039   -9600.9585    80.770426 
   30000    901.63043   -111.62818   0.81581416   -110.81237   -1998.8309    4.3388593    4.3388593    4.3388593   -1998.8309   -5541.6907    14570.486   -15025.287   -11393.837   -12220.069   -3240.5961    81.682062 
   30100    1325.9217    -112.0055    1.1997219   -110.80578   -6575.2082    4.3397039    4.3397039    4.3397039   -6575.2082   -5156.6516   -9029.8582   -5539.1149    6100.5993    5669.0411    3419.2963    81.729774 
   30200    832.88272   -111.56714   0.75360979   -110.81353   -17987.864    4.3344503    4.3344503    4.3344503   -17987.864   -24864.929   -17336.507   -11762.156   -23626.659   -7850.3098   -5091.3553    81.433309 
   30300    1052.5745   -111.76275    0.9523915   -110.81036    9067.4093    4.3240126    4.3240126    4.3240126    9067.4093   -1930.1118    42542.019   -13409.679   -12829.166   -8668.3966    3033.2623    80.846433 
   30400     1118.487   -111.82662    1.0120306   -110.81459   -18444.443    4.3456805    4.3456805    4.3456805   -18444.443   -21773.083    3352.3977   -36912.644   -2223.6487    9428.7626    5706.2384    82.067909 
   30500    566.75644    -111.3287   0.51281314   -110.81589    -15349.53    4.3402695    4.3402695    4.3402695    -15349.53   -44899.887   -4917.7441    3769.0414   -28449.677   -11574.768   -10675.534    81.761732 
   30600    1294.8888   -111.97379    1.1716426   -110.80214    17982.597    4.3212313    4.3212313    4.3212313    17982.597   -4478.7014    36967.918    21458.574   -1542.7051    5422.9328    705.98221    80.690526 
   30700    1242.9176   -111.93658    1.1246179   -110.81196   -1779.2398    4.3383106    4.3383106    4.3383106   -1779.2398    -15335.14   -9227.3757    19224.796   -2168.4994    3853.8967    1885.9646    81.651078 
   30800    698.93664   -111.45476   0.63241256   -110.82235    -7729.086    4.3351162    4.3351162    4.3351162    -7729.086     -34740.7    17009.266   -5455.8243    -21766.73   -15152.364   -15157.122    81.470844 
   30900    1056.4613   -111.77046    0.9559084   -110.81455    8384.1741    4.3301259    4.3301259    4.3301259    8384.1741   -11703.977    46265.966   -9409.4666   -672.63661   -868.93175     5393.362    81.189819 
   31000    1066.3165   -111.77899   0.96482555   -110.81416    244.86908      4.33415      4.33415      4.33415    244.86908   -19859.126    20088.517    505.21572   -219.60768   -8209.0588   -4549.4664    81.416384 
   31100    452.81126   -111.23155   0.40971314   -110.82184    993.80392    4.3388513    4.3388513    4.3388513    993.80392   -31909.304    32625.284    2265.4319   -17961.587   -10435.199    -12447.69    81.681611 
   31200    1461.7218   -112.12763    1.3225966   -110.80503    881.06375    4.3391822    4.3391822    4.3391822    881.06375   -5182.9338   -2650.0121    10476.137    526.97961   -5164.6198    1238.7179      81.7003 
   31300    1333.2524   -112.01111    1.2063548   -110.80475    16682.885    4.3271538    4.3271538    4.3271538    16682.885   -8928.4639    28191.072    30786.048   -9939.8066   -16599.148    296.98028     81.02275 
   31400    672.03249   -111.42772   0.60806912   -110.81965    -4490.123     4.334643     4.334643     4.334643    -4490.123   -9639.6024    5416.0673   -9246.8338    -17051.36   -6840.1836   -15726.316    81.444168 
   31500    1149.3745   -111.84987    1.0399782    -110.8099   -9379.4659    4.3398779    4.3398779    4.3398779   -9379.4659    -17296.26   -4503.2692   -6338.8683    4213.0542    4000.3145    -3792.557    81.739605 
   31600    880.57479   -111.60801   0.79676257   -110.81125   -608.61402    4.3265976    4.3265976    4.3265976   -608.61402   -25793.133    30854.468    -6887.177   -10319.055   -8098.0956    6997.0363    80.991515 
   31700    580.41876   -111.34385   0.52517509   -110.81867    3373.3252    4.3357005    4.3357005    4.3357005    3373.3252   -22489.519   -5909.4858     38518.98   -11032.034   -4210.5342   -13932.336    81.503795 
   31800    1549.8585   -112.20589    1.4023445   -110.80354   -1694.4675    4.3393739    4.3393739    4.3393739   -1694.4675   -7628.4187   -14007.159    16552.175    8231.0775    8470.4756     5159.176    81.711132 
   31900    987.18398   -111.70423   0.89322481   -110.81101    13123.055    4.3290788    4.3290788    4.3290788    13123.055   -1324.5447     4779.375    35914.335    -11726.97    -10753.14   -2528.4112    81.130936 
   32000     977.6274   -111.69795   0.88457781   -110.81337   -5133.5002    4.3365874    4.3365874    4.3365874   -5133.5002   -1658.4637   -19659.713    5917.6756   -5919.2924    622.83581   -5335.4434     81.55382 
   32100    1156.1176   -111.84797    1.0460795   -110.80189   -8524.9678     4.337507     4.337507     4.337507   -8524.9678   -281.55067   -6994.5982   -18298.755    1932.3364   -4676.3474   -930.19924    81.605713 
   32200    552.63937   -111.31141   0.50003971   -110.81137   -2281.3315    4.3307911    4.3307911    4.3307911   -2281.3315   -19003.648    -5519.235    17678.888   -22958.756   -7711.1394   -8280.2501    81.227243 
   32300    1120.2056   -111.82359    1.0135856   -110.81001    2212.5707    4.3328949    4.3328949    4.3328949    2212.5707   -1632.5051   -13841.672     22111.89   -5381.2647   -5191.9312   -14782.391    81.345672 
   32400    1324.0986   -112.00831    1.1980722   -110.81024   -5304.0753    4.3366192    4.3366192    4.3366192   -5304.0753   -9225.5329   -18270.713     11584.02   -5724.5353   -391.29602    8953.0262    81.555615 
   32500    905.41463   -111.63587   0.81923818   -110.81663   -13671.814     4.336465     4.336465     4.336465   -13671.814   -20834.418   -25122.187    4941.1635   -26055.439   -13875.527   -3953.5022    81.546913 
   32600    1183.6908   -111.87734    1.0710283   -110.80631    4940.5518    4.3298076    4.3298076    4.3298076    4940.5518    4997.7603     1116.941     8706.954    6701.0516    3892.0138   -12761.103    81.171914 
   32700    982.59001   -111.70108   0.88906809   -110.81201   -8792.6494    4.3338637    4.3338637    4.3338637   -8792.6494    10524.761   -19321.254   -17581.455    -6274.578    6145.8594    12594.836    81.400251 
   32800    618.57078   -111.37718   0.55969584   -110.81749   -2765.1446    4.3387058    4.3387058    4.3387058   -2765.1446   -8854.6762   -13979.441    14538.684   -20792.184   -12923.873   -9873.7489    81.673395 
   32900    1130.2369   -111.83036    1.0226621    -110.8077    780.49781    4.3354195    4.3354195    4.3354195    780.49781    15746.174   -10575.222   -2829.4586      13452.6    18696.095    5202.0556    81.487949 
   33000    888.11379   -111.61636   0.80358402   -110.81278   -5397.4181    4.3304395    4.3304395    4.3304395   -5397.4181   -8570.1045   -33417.204    25795.054   -22691.055    3587.2972    2118.1918    81.207463 
   33100    1167.0368   -111.86883    1.0559594   -110.81287    -5063.094    4.3307538    4.3307538    4.3307538    -5063.094   -9550.4678   -26272.347    20633.532   -8667.3415   -17069.864   -4404.1362    81.225144 
   33200    1129.3248    -111.8332    1.0218368   -110.81136   -6987.1476    4.3449067    4.3449067    4.3449067   -6987.1476   -6267.1582   -23879.636    9185.3516    8686.8851   -1015.0116   -728.96015    82.024079 
   33300    734.84226   -111.47466   0.66490072   -110.80976   -16385.261     4.340819     4.340819     4.340819   -16385.261   -18267.014   -26898.223   -3990.5457   -27474.102   -3416.3753    6671.1801    81.792789 
   33400    932.94086   -111.64192   0.84414449   -110.79778     19587.81    4.3197048    4.3197048    4.3197048     19587.81    10295.066    12357.424    36110.938    6018.0053   -14379.285   -1432.4076    80.605041 
   33500    751.62253   -111.49206   0.68008386   -110.81198   -9151.1219    4.3452839    4.3452839    4.3452839   -9151.1219    2175.8168     -9214.42   -20414.763    13539.476    2800.1697    990.96642    82.045443 
   33600    1040.0473   -111.74142   0.94105668   -110.80036   -20345.003    4.3492596    4.3492596    4.3492596   -20345.003    -25787.88   -19393.714   -15853.416   -25462.406    5722.2197     7141.738    82.270851 
   33700    1349.8578   -112.01086    1.2213797   -110.78948    20868.244    4.3200247    4.3200247    4.3200247    20868.244    26892.528    23104.191    12608.014    18159.127    2933.1178   -6002.0755    80.622954 
   33800    983.96556   -111.69884   0.89031272   -110.80852   -12281.971    4.3389654    4.3389654    4.3389654   -12281.971   -29874.414   -104.93624   -6866.5637    5691.3865    16562.642   -776.51522    81.688058 
   33900     1045.383   -111.74512    0.9458845   -110.79924   -21694.583    4.3505385    4.3505385    4.3505385   -21694.583   -19452.105   -10848.716   -34782.928   -18848.954    3752.5435   -8955.0508    82.343449 
   34000    906.36678   -111.61507   0.82009971   -110.79497   -2272.9274    4.3347947    4.3347947    4.3347947   -2272.9274   -11018.208     7504.983   -3305.5574    16130.092    5830.8227   -5714.0613    81.452723 
   34100    1028.5256   -111.73141   0.93063155   -110.80078   -8718.3531    4.3289634    4.3289634    4.3289634   -8718.3531   -11609.425   -12038.049   -2507.5849   -8063.5557    12692.239   -8564.4411    81.124444 
   34200    1413.5301   -112.08426    1.2789917   -110.80526   -3753.3143    4.3405058    4.3405058    4.3405058   -3753.3143   -12658.374    15509.358   -14110.927   -13194.299   -10024.551   -6914.0129    81.775089 
   34300    1060.9552   -111.76781   0.95997457   -110.80784   -10761.043    4.3459798    4.3459798    4.3459798   -10761.043   -5886.5544   -22613.557   -3783.0164    22234.058    4973.5247    2978.4858    82.084868 
   34400    896.86181   -111.61668   0.81149941   -110.80518    12013.466    4.3277867    4.3277867    4.3277867    12013.466   -13842.933    41068.831    8814.4997   -5271.5172    9942.7484   -2008.7208    81.058309 
   34500    984.92232   -111.69873   0.89117841   -110.80755    12909.415     4.328197     4.328197     4.328197    12909.415     32432.96    24196.562   -17901.276   -2351.1802    -4651.651    9114.6119    81.081368 
   34600     667.4474   -111.42082   0.60392043    -110.8169   -2488.3992     4.344359     4.344359     4.344359   -2488.3992   -1256.7268    12723.216   -18931.687    29682.112    2173.1662    4004.6108    81.993062 
   34700    1103.5568   -111.80186   0.99852143   -110.80334    2319.9317    4.3509027    4.3509027    4.3509027    2319.9317   -16042.034    21852.541    1149.2873   -10140.315   -1624.2692   -1228.0249    82.364129 
   34800    1369.4482   -112.04597    1.2391055   -110.80687    4656.2397    4.3226115    4.3226115    4.3226115    4656.2397     12428.88   -12228.875    13768.713     7108.193    1079.8393    7554.0326    80.767869 
   34900    784.64486   -111.52938   0.70996316   -110.81941    25424.199    4.3166848    4.3166848    4.3166848    25424.199    -306.8937    38700.354    37879.137    19291.498    7356.6351    -11780.44    80.436103 
   35000    1300.4492    -111.9855    1.1766738   -110.80882   -22171.946    4.3605549    4.3605549    4.3605549   -22171.946   -31927.933   -19323.151   -15264.755   -11559.478     2658.091    3174.5175    82.913503 
   35100     729.8712   -111.47814    0.6604028   -110.81774    -9268.332    4.3353171    4.3353171    4.3353171    -9268.332    1417.8316   -8265.7557   -20957.072    17939.709     2701.394    8836.8643    81.482174 
   35200    630.91191   -111.37338   0.57086235   -110.80252    25133.828    4.3073139    4.3073139    4.3073139    25133.828    40439.303    32844.357    2117.8243    24021.551    15943.469   -9399.4458     79.91339 
   35300    1347.2606   -112.02482    1.2190297   -110.80579   -4509.3709    4.3487051    4.3487051    4.3487051   -4509.3709    22899.599   -20145.736   -16281.976   -6140.9059    4187.7029    8545.4481    82.239387 
   35400    835.03281   -111.56152   0.75555524   -110.80597   -4145.6788    4.3483961    4.3483961    4.3483961   -4145.6788    20040.466   -33709.293    1231.7907    23508.832    4810.5678    9044.4981    82.221859 
   35500    947.67721   -111.65434   0.85747826   -110.79686    17519.528    4.3291048    4.3291048    4.3291048    17519.528    22197.226    11181.353    19180.007     4554.647    10760.278    -3697.225    81.132393 
   35600    1356.6403   -112.02419    1.2275167   -110.79667    1205.0969    4.3294233    4.3294233    4.3294233    1205.0969    24186.897   -17207.883   -3363.7232   -14509.795   -973.60067   -3332.0533    81.150301 
   35700    768.88263   -111.50704   0.69570116   -110.81134    -16142.13    4.3352918    4.3352918    4.3352918    -16142.13   -14652.959   -5816.0894   -27957.341     22417.44   -3627.2393    6090.2543    81.480748 
   35800    1000.2055   -111.71603     0.905007   -110.81103   -16863.886    4.3433925    4.3433925    4.3433925   -16863.886   -37667.211    7408.7191   -20333.167   -7796.1288    4375.3151   -1480.9362    81.938353 
   35900    1107.4348    -111.8146    1.0020303   -110.81257    1161.3392    4.3300959    4.3300959    4.3300959    1161.3392    9255.7806   -21702.197    15930.434    -11813.34   -11299.387   -2295.4414    81.188128 
   36000     1016.243   -111.73162   0.91951801   -110.81211    10585.416    4.3202255    4.3202255    4.3202255    10585.416     24947.85    4280.0355    2528.3615    26685.225    4509.9148   -10174.613    80.634195 
   36100    964.56009   -111.68583   0.87275424   -110.81308   -7898.7817    4.3469122    4.3469122    4.3469122   -7898.7817    8665.0648   -30154.573   -2206.8372   -18575.612    10826.332    3088.9071    82.137712 
   36200     950.9334    -111.6703   0.86042452   -110.80988   -8339.2687    4.3381647    4.3381647    4.3381647   -8339.2687    13652.459   -37614.768   -1055.4978   -10572.279    411.43898    4170.9312    81.642841 
   36300    976.19501   -111.68255   0.88328176   -110.79927    21810.577     4.311715     4.311715     4.311715    21810.577    28798.369    31852.904    4780.4575    17364.592    5346.1501   -2253.9314    80.158603 
   36400    818.40069   -111.55596   0.74050614   -110.81545   -24261.611     4.340807     4.340807     4.340807   -24261.611   -40011.186   -35140.866    2367.2178   -35052.463    4860.8649     2360.382    81.792115 
   36500    1044.7849   -111.75246   0.94534334   -110.80712   -15717.168    4.3426203    4.3426203    4.3426203   -15717.168    -16886.72   -27941.578   -2323.2051   -810.20491   -4359.0995    3235.5613    81.894661 
   36600    1153.0476   -111.84276    1.0433017   -110.79946    25222.863    4.3178123    4.3178123    4.3178123    25222.863    43464.566     10669.35    21534.672    8968.1673    888.20354    6658.3791    80.499146 
   36700    827.50657   -111.56494   0.74874533    -110.8162   -8865.8328    4.3352322    4.3352322    4.3352322   -8865.8328    3862.6188   -43184.702    12724.585   -39803.703   -8023.1524   -1367.1396    81.477388 
   36800    1136.1243   -111.83567    1.0279891   -110.80768    478.43566    4.3406129    4.3406129    4.3406129    478.43566    21477.969   -6270.6424   -13772.019    6884.2174    2091.7219   -1947.1055    81.781141 
   36900    923.47412   -111.64344   0.83557879   -110.80786    1208.7037    4.3243756    4.3243756    4.3243756    1208.7037    1778.1228   -531.29336    2379.2817   -14838.862   -999.23429    3526.4141    80.866795 
   37000     688.8851   -111.44101   0.62331772   -110.81769   -29296.491    4.3282317    4.3282317    4.3282317   -29296.491   -47933.487   -31238.377   -8717.6096   -40253.896    5176.2348   -1246.3774    81.083316 
   37100    1176.9492   -111.87912    1.0649284   -110.81419    13610.905    4.3324217    4.3324217    4.3324217    13610.905    16271.284    27486.402   -2924.9721    10303.164    2813.9414   -4066.9944    81.319024 
   37200    1112.8435   -111.82039    1.0069242   -110.81347   -7812.0192    4.3417437    4.3417437    4.3417437   -7812.0192    3506.8814   -34668.548     7725.609   -22505.297    6254.4817   -3380.4882    81.845076 
   37300    809.68064   -111.54463   0.73261606   -110.81202   -5351.6432    4.3316908    4.3316908    4.3316908   -5351.6432    4509.0631   -9664.1337   -10899.859   -10928.264    6826.1257    1698.1999    81.277878 
   37400    1033.5752   -111.74118   0.93520057   -110.80598    12866.765    4.3242502    4.3242502    4.3242502    12866.765    30037.034    28887.682    -20324.42    6325.4187   -8484.5288   -1440.5712    80.859756 
   37500    1009.6119   -111.72511    0.9135181    -110.8116   -20807.978    4.3400307    4.3400307    4.3400307   -20807.978   -26548.508   -26023.823   -9851.6026   -29775.324    1051.6082    759.95639    81.748239 
   37600    932.41804    -111.6568   0.84367144   -110.81313   -10853.732    4.3379977    4.3379977    4.3379977   -10853.732    2191.8933   -3803.0262   -30950.063   -6153.8895   -9363.7657    1191.7943     81.63341 
   37700    1099.3129   -111.80775   0.99468141   -110.81307    13339.333    4.3230214    4.3230214    4.3230214    13339.333    34355.564    14881.162   -9218.7252    8729.8552   -14716.671   -1560.3939    80.790846 
   37800    1187.5204   -111.88839    1.0744934    -110.8139    12123.153    4.3264276    4.3264276    4.3264276    12123.153    42959.792   -21034.075     14443.74   -21321.754   -2602.4746   -1644.4833    80.981969 
   37900    1013.4074   -111.73322   0.91695229   -110.81626    -18202.26    4.3428274    4.3428274    4.3428274    -18202.26   -14582.119    4043.1107    -44067.77    1337.4742   -9607.1052   -504.72757    81.906376 
   38000    821.57028   -111.55968   0.74337405    -110.8163   -13464.443     4.334693     4.334693     4.334693   -13464.443   -23529.582    17919.421   -34783.168    10924.379    -452.3952   -2046.9026    81.446991 
   38100    1204.1736   -111.89753    1.0895616   -110.80797    12013.373    4.3225966    4.3225966    4.3225966    12013.373    40899.343    -7712.922    2853.6978   -21973.345    8864.8481   -6346.4496     80.76703 
   38200    804.97571   -111.54413   0.72835893   -110.81577   -6516.4125    4.3405286    4.3405286    4.3405286   -6516.4125    10641.693    8257.1766   -38448.107   -313.80036   -14340.359    3283.9168    81.776376 
   38300    861.56837   -111.59392   0.77956516   -110.81436    508.20146    4.3350896    4.3350896    4.3350896    508.20146    12368.821    16966.778   -27810.994    11617.037    1558.6472     19.91527    81.469347 
   38400    1564.8996   -112.21715    1.4159541   -110.80119    7598.6252    4.3237139    4.3237139    4.3237139    7598.6252    32989.105   -1881.5198   -8311.7094   -7344.6219   -4451.2398   -5683.3512    80.829679 
   38500    698.14126     -111.448   0.63169288   -110.81631   -24504.677    4.3375326    4.3375326    4.3375326   -24504.677   -41523.216     18956.91   -50947.727    13767.881   -15041.333    4409.1867    81.607158 
   38600    794.09589   -111.53554   0.71851465   -110.81703   -5087.9326    4.3288234    4.3288234    4.3288234   -5087.9326    -6399.506    17304.141   -26168.432    12859.278    3118.6786   -4112.2551    81.116576 
   38700    1350.8773   -112.03315    1.2223021   -110.81085     11565.11    4.3303898    4.3303898    4.3303898     11565.11    57382.127   -12325.249   -10361.549   -2548.9739    -6290.926   -706.55983    81.204665 
   38800    894.30813    -111.6296   0.80918879   -110.82041   -4092.7024    4.3334067    4.3334067    4.3334067   -4092.7024     14693.73     4252.713    -31224.55    4096.7533   -3918.8271     978.4978    81.374501 
   38900    968.00655    -111.6939   0.87587267   -110.81803    8188.1126    4.3275422    4.3275422    4.3275422    8188.1126    16273.213    18041.657   -9750.5328    3264.6637    13296.296   -4368.2462     81.04457 
   39000     1387.823   -112.06786    1.2557314   -110.81213   -9576.7597    4.3350733    4.3350733    4.3350733   -9576.7597    5631.0722   -6197.1843   -28164.167   -9430.5439   -4778.4924   -2203.3257    81.468427 
   39100    740.51778    -111.4885   0.67003605   -110.81846   -6672.0672    4.3356533    4.3356533    4.3356533   -6672.0672    7248.1096    24726.967   -51991.278    8364.4315    5198.8981    4374.6898     81.50113 
   39200     782.8797   -111.52487   0.70836601    -110.8165    1529.8285    4.3332311    4.3332311    4.3332311    1529.8285    40109.486    37.785892   -35557.787    15322.741    7031.0699   -2354.2048    81.364614 
   39300    1106.2886   -111.81244    1.0009931   -110.81145    3483.8065    4.3307744    4.3307744    4.3307744    3483.8065    33464.638     -27787.2    4773.9812    -18459.67   -8852.8024   -5106.6465    81.226304 
   39400    1001.8964   -111.72146   0.90653691   -110.81492   -6993.9707    4.3306282    4.3306282    4.3306282   -6993.9707   -11760.738    17214.037   -26435.212    2854.7236    12422.075    7528.1595    81.218076 
   39500    1113.8015   -111.82247     1.007791   -110.81468   -12501.848    4.3331472    4.3331472    4.3331472   -12501.848   -13800.909    -4569.227   -19135.409    4037.8152    3004.1985   -3188.2691    81.359888 
   39600    971.98125   -111.69451   0.87946906   -110.81504    -8756.212    4.3340109    4.3340109    4.3340109    -8756.212    11363.016    -15154.91   -22476.742    -34530.09   -2422.1241    -971.9591    81.408548 
   39700    814.35493   -111.55264   0.73684545   -110.81579    7320.2779    4.3294542    4.3294542    4.3294542    7320.2779    31620.554    35295.431   -44955.151    456.98441    16677.606    4218.3059     81.15204 
   39800    1027.3372   -111.74509   0.92955632   -110.81554   -460.54547    4.3323188    4.3323188    4.3323188   -460.54547    22496.624   -5218.8458   -18659.415   -3101.1384    3668.5539   -6465.0304    81.313232 
   39900    1020.8303   -111.73755   0.92366874   -110.81388   -19449.287    4.3401934    4.3401934    4.3401934   -19449.287   -13355.376   -43609.143   -1383.3421   -30450.794    6232.0496   -53.425231     81.75743 
   40000    1234.6665   -111.92397    1.1171522   -110.80682   -921.46019    4.3269695    4.3269695    4.3269695   -921.46019     2141.815    15279.045    -20185.24    10216.846    15217.771   -2170.5881      81.0124 
   40100    880.37905   -111.61005   0.79658547   -110.81346   -2186.2385    4.3333177    4.3333177    4.3333177   -2186.2385    22658.275   -6926.5897   -22290.401   -26993.596   -2194.3902   -6432.8946    81.369491 
   40200    906.62821   -111.63565   0.82033626   -110.81532   -3102.6808    4.3364225    4.3364225    4.3364225   -3102.6808    14633.544   -3047.8618   -20893.725   -27306.766    939.65964   -1889.1385    81.544519 
   40300    1086.6291   -111.79131   0.98320481   -110.80811    17236.672    4.3271656    4.3271656    4.3271656    17236.672    55210.434    27156.622   -30657.041    4678.9988    3012.6613   -4894.8406    81.023417 
   40400    897.16757   -111.62858   0.81177607    -110.8168   -33094.264    4.3414491    4.3414491    4.3414491   -33094.264   -29341.237    -46188.25   -23753.306   -23934.502   -12177.053   -8200.6154    81.828414 
   40500    1187.1005   -111.88619    1.0741135   -110.81208   -9459.5455    4.3284316    4.3284316    4.3284316   -9459.5455    1285.7134    -27602.61   -2061.7398   -7014.4955   -68.798272    3452.1607    81.094551 
   40600    1227.9633     -111.924     1.111087   -110.81292    10164.364    4.3251625    4.3251625    4.3251625    10164.364    58385.283   -11902.777   -15989.415    7217.0498    2005.4273   -6171.5562    80.910945 
   40700    624.49785   -111.38708   0.56505878   -110.82202   -25423.269    4.3438197    4.3438197    4.3438197   -25423.269     -100.989   -38199.833   -37968.986   -37821.105   -10824.145   -6241.3109    81.962535 
   40800    1197.6379   -111.88882     1.083648   -110.80517    5701.0942    4.3280247    4.3280247    4.3280247    5701.0942    36482.715    6560.7153   -25940.148   -2823.8363     1834.755    1733.5178    81.071683 
   40900    1097.9298   -111.80269   0.99342993   -110.80926   -10163.125    4.3355362    4.3355362    4.3355362   -10163.125   -8694.8465   -328.89558   -21465.634   -9965.1661   -188.08672   -7669.8427    81.494526 
   41000     492.1524   -111.26541   0.44530983    -110.8201   -23063.461    4.3333667    4.3333667    4.3333667   -23063.461   -34156.725    -30326.58   -4707.0798   -39286.902   -6487.8199   -4411.4356    81.372251 
   41100      1247.29   -111.93988    1.1285742    -110.8113    14683.774    4.3212679    4.3212679    4.3212679    14683.774    28338.023    14247.582    1465.7169    13249.194   -3938.9444   -3350.9118    80.692573 
   41200    1211.1216   -111.91265    1.0958483   -110.81681   -15968.313    4.3415454    4.3415454    4.3415454   -15968.313   -18998.217   -15694.934   -13211.788   -8113.3723    1819.2156   -1769.8373    81.833863 
   41300    780.81401   -111.52865   0.70649692   -110.82216   -366.69926    4.3300195    4.3300195    4.3300195   -366.69926    3475.6467    8595.1117   -13170.856   -26146.336   -4416.5015    5450.5546    81.183836 
   41400    1349.3564   -112.03556     1.220926   -110.81463    12324.667    4.3314261    4.3314261    4.3314261    12324.667    16362.428    40087.468   -19475.896    326.11689   -1212.8643    7468.3921    81.262976 
   41500    862.08215   -111.59694   0.78003005   -110.81691    2513.7262    4.3346492    4.3346492    4.3346492    2513.7262   -1272.3921    17299.672    -8486.101   -27580.616    3502.2724   -559.08184    81.444521 
   41600    498.19609   -111.27201   0.45077829   -110.82123   -2050.6976    4.3301395    4.3301395    4.3301395   -2050.6976    7800.2205   -6013.6808   -7938.6325   -13937.184   -8091.6615    5440.8117    81.190584 
   41700    1345.3937   -112.02522    1.2173405   -110.80788   -974.77066    4.3349673    4.3349673    4.3349673   -974.77066      16751.5   -5979.7433   -13696.068   -709.57451    8029.5407    479.44298    81.462451 
   41800    1103.4661   -111.81005   0.99843934   -110.81161    3969.5568    4.3283514    4.3283514    4.3283514    3969.5568   -11567.279    25566.106   -2090.1564   -20206.807   -2107.1584   -5912.6992    81.090046 
   41900    903.16273   -111.63685   0.81720061   -110.81965   -6385.9059    4.3324025    4.3324025    4.3324025   -6385.9059   -4584.9876    13058.905   -27631.635   -12965.561   -9696.9825    12953.745    81.317946 
   42000    1301.5145    -111.9885    1.1776376   -110.81086   -956.56284    4.3301212    4.3301212    4.3301212   -956.56284    12400.055    6153.7634   -21423.507    7933.4771     8660.889    4984.4219    81.189557 
   42100    754.15653   -111.49972   0.68237667   -110.81735    529.45232    4.3285412    4.3285412    4.3285412    529.45232   -5314.7501    6083.4713    819.63574   -22352.231   -4186.1553    480.88335    81.100712 
   42200     687.6928   -111.44287    0.6222389   -110.82063   -18167.508    4.3355415    4.3355415    4.3355415   -18167.508    14569.853   -29530.755   -39541.623   -10926.613   -7654.1261    21448.304     81.49483 
   42300    1217.2308   -111.91147     1.101376    -110.8101    12916.738    4.3279819    4.3279819    4.3279819    12916.738    24557.203    29258.973   -15065.961    14652.717    7104.3078    2605.7781    81.069278 
   42400    1059.8923   -111.77471   0.95901284   -110.81569   -4188.2626     4.335072     4.335072     4.335072   -4188.2626   -13983.216    14927.803   -13509.375   -19616.741   -2791.4565   -230.39563    81.468356 
   42500    926.57357   -111.65333   0.83838323   -110.81495   -14557.566    4.3351583    4.3351583    4.3351583   -14557.566    13488.218   -19442.786   -37718.129   -5895.5872   -1946.6513    18873.197    81.473218 
   42600    1159.8541   -111.85799    1.0494604   -110.80853    10757.866    4.3235828    4.3235828    4.3235828    10757.866    8260.4329    21646.273     2366.892    471.71299    9569.9595   -3795.8408    80.822323 
   42700    876.82156   -111.60818   0.79336657   -110.81481   -12052.877    4.3363327    4.3363327    4.3363327   -12052.877   -5273.0056   -17034.592   -13851.033   -31152.694   -1162.8723    7470.3548    81.539453 
   42800    1007.6834   -111.72479   0.91177312   -110.81302   -13649.882    4.3333523    4.3333523    4.3333523   -13649.882    1913.2063   -14666.934   -28195.919   -4109.4629     4019.463     14383.28    81.371437 
   42900    1142.6524   -111.84862    1.0338959   -110.81472    10110.109    4.3251432    4.3251432    4.3251432    10110.109    17100.294    22499.195   -9269.1632    1185.5982    6424.7248   -10897.611    80.909865 
   43000    1028.2425   -111.75052   0.93037541   -110.82015   -12118.653    4.3351862    4.3351862    4.3351862   -12118.653   -7027.5647   -21987.754   -7340.6406   -21944.869    1871.4108    14089.691    81.474795 
   43100    933.29004   -111.65995   0.84446044   -110.81549   -1157.8249    4.3354844    4.3354844    4.3354844   -1157.8249    26937.026   -3195.0357   -27215.465    10307.112   -6599.7884    6118.8761    81.491609 
   43200    996.69644   -111.71115   0.90183189   -110.80932    6633.7916    4.3266146    4.3266146    4.3266146    6633.7916    8205.2598    10418.676    1277.4392   -2657.8521    4641.4213   -11890.667    80.992467 
   43300    790.23776   -111.52862   0.71502373    -110.8136   -3327.1005    4.3301379    4.3301379    4.3301379   -3327.1005    24290.867   -39495.665    5223.4969    -22753.93    2419.9698    15897.385    81.190493 
   43400    1210.8646   -111.90579    1.0956158   -110.81017   -6828.0318    4.3384685    4.3384685    4.3384685   -6828.0318     10018.81   -1370.3969   -29132.509    10253.038   -9995.3431   -545.15849    81.659993 
   43500    1188.7487   -111.88525    1.0756048   -110.80965   -871.56567    4.3292479    4.3292479    4.3292479   -871.56567    -7265.508   -9227.1429    13877.954   -18445.004    9863.2427   -10610.793    81.140441 
   43600    857.92334   -111.59322   0.77626707   -110.81695    498.76277    4.3304628    4.3304628    4.3304628    498.76277    14653.914   -19672.761     6515.136   -18991.366   -4649.5973    13543.267     81.20877 
   43700    1361.7916   -112.03879    1.2321777   -110.80661   -4550.1451    4.3384414    4.3384414    4.3384414   -4550.1451    13483.326   -7926.3955   -19207.366    4027.1894     1864.044    5815.7106    81.658466 
   43800    731.22963   -111.47303   0.66163194   -110.81139    14319.078    4.3276496    4.3276496    4.3276496    14319.078    31269.344   -9733.3757    21421.266   -24286.135    7084.8042   -1373.7462    81.050604 
   43900    725.72594    -111.4739   0.65665208   -110.81725    1495.3991    4.3321128    4.3321128    4.3321128    1495.3991    7611.1021   -6533.4592    3408.5544   -9864.0242    5732.8693    19253.408    81.301633 
   44000    1243.2668   -111.93199    1.1249339   -110.80706    6811.9733     4.339842     4.339842     4.339842    6811.9733      23454.7   -9047.4275     6028.647    3779.4603    4480.2178    2595.9748    81.737576 
   44100    1007.1427   -111.72048    0.9112839   -110.80919    4796.3178    4.3329266    4.3329266    4.3329266    4796.3178   -563.90239   -18022.756    32975.612   -29262.925    9108.1275    11170.827    81.347459 
   44200    842.57755   -111.57265   0.76238187   -110.81027    1102.6645    4.3337888    4.3337888    4.3337888    1102.6645   -14694.078   -905.34784    18907.419    4606.1693    7169.9952    13566.418    81.396031 
   44300    1047.2571   -111.75202   0.94758023   -110.80444    5100.9547     4.334883     4.334883     4.334883    5100.9547    6548.1273   -26489.255    35243.992    7014.8962   -3402.1656   -2564.2083    81.457699 
   44400    771.22642   -111.50363   0.69782187   -110.80581   -8598.7385    4.3419946    4.3419946    4.3419946   -8598.7385    -22242.53   -14220.274    10666.589   -19023.686   -945.67687     13409.06    81.859264 
   44500    875.50721   -111.59398   0.79217732    -110.8018   -162.57566    4.3392566    4.3392566    4.3392566   -162.57566   -6241.4767     7650.854   -1897.1043    24607.104   -2438.7354    8964.8055    81.704506 
   44600    1240.1067   -111.92055    1.1220746   -110.79847    15342.037    4.3280937    4.3280937    4.3280937    15342.037    15967.474   -5866.9091    35925.545     611.5941   -10610.413   -9501.8737    81.075561 
   44700    936.14396   -111.65623   0.84704272   -110.80919   -5373.8436    4.3384715    4.3384715    4.3384715   -5373.8436    9727.5402   -12614.857   -13234.214   -17592.045   -2942.7699    14308.528    81.660163 
   44800    749.76617     -111.488   0.67840418    -110.8096   -5459.3164     4.338752     4.338752     4.338752   -5459.3164     10971.61   -25974.686   -1374.8726    16960.297    1392.1731    -1982.193    81.676006 
   44900    1008.4565   -111.71562   0.91247268   -110.80315    10518.859    4.3250131    4.3250131    4.3250131    10518.859    15893.231    16218.255    -554.9083   -13026.245   -7734.7156   -4256.6797    80.902563 
   45000     698.6483   -111.44744   0.63215166   -110.81529   -9427.1908    4.3365882    4.3365882    4.3365882   -9427.1908    2194.2793    9782.1734   -40258.025   -15259.153    9568.2894      23138.5    81.553865 
   45100     1149.459    -111.8518    1.0400547   -110.81175   -11866.935    4.3333888    4.3333888    4.3333888   -11866.935    2586.9398   -14281.457   -23906.287     19736.23   -1697.6864    4666.3489    81.373496 
   45200    1200.3954   -111.89339     1.086143   -110.80725    10039.217    4.3272463    4.3272463    4.3272463    10039.217    14497.734    8337.2338    7282.6826    -7659.946    4742.2373    2801.7539    81.027947 
   45300    861.63774   -111.59002   0.77962793   -110.81039   -32698.127    4.3448955    4.3448955    4.3448955   -32698.127   -18590.047    -46377.71   -33126.624    2853.5836    10501.681    19781.932    82.023446 
   45400    1071.9611   -111.77661   0.96993294   -110.80668    -2044.815    4.3256791    4.3256791    4.3256791    -2044.815   -5151.8568    1495.3703   -2477.9584    23471.895   -4030.9683   -7430.8097     80.93994 
   45500    916.46931   -111.64268   0.82924069   -110.81344    16066.853    4.3240511    4.3240511    4.3240511    16066.853    31596.537    16044.745    559.27693   -4031.2919    4095.6142    8278.2952    80.848591 
   45600    1061.7565   -111.77599   0.96069956   -110.81529   -20694.321    4.3399489    4.3399489    4.3399489   -20694.321   -8206.1684   -13114.714   -40762.081   -5177.8889    5859.8112    16023.671    81.743614 
   45700    1047.1786   -111.75529   0.94750918   -110.80778    22896.751    4.3261755    4.3261755    4.3261755    22896.751     44845.79    16410.086    7434.3778    12966.099   -7199.1635    -18881.73    80.967811 
   45800    977.45442   -111.69755    0.8844213   -110.81313   -8895.4917      4.33537      4.33537      4.33537   -8895.4917    26092.056   -31321.567   -21456.964   -6362.3783    4926.7832    16491.182    81.485158 
   45900    918.45189   -111.64112   0.83103457   -110.81008   -152.35865    4.3283108    4.3283108    4.3283108   -152.35865    24391.722   -17660.848   -7187.9498   -11023.504   -129.26027    14849.439    81.087762 
   46000    1023.2592   -111.73609   0.92586644   -110.81022    5029.4527    4.3223776    4.3223776    4.3223776    5029.4527    18913.046    826.61483   -4651.3032    15576.706   -1322.6504   -8051.5597    80.754758 
   46100    869.70344    -111.6022   0.78692595   -110.81527    -23599.05     4.342235     4.342235     4.342235    -23599.05    6024.9692   -37130.064   -39692.055   -1447.8975   -1182.7032    26298.962    81.872859 
   46200    1366.1612   -112.04236    1.2361314   -110.80623    4377.1649    4.3277129    4.3277129    4.3277129    4377.1649    12752.434   -2449.4888    2828.5494   -5747.0694   -8335.8554    4146.2972    81.054165 
   46300    1115.7948   -111.81811    1.0095946   -110.80851    8441.4928    4.3264275    4.3264275    4.3264275    8441.4928    32886.005   -5607.0219   -1954.5045    9614.1323     4914.906    14125.301    80.981962 
   46400    789.40537   -111.52776   0.71427057   -110.81349   -10649.537    4.3359061    4.3359061    4.3359061   -10649.537    22829.148   -28727.646   -26050.113   -1504.3851   -3874.1678    25138.153    81.515389 
   46500     1021.059   -111.72832   0.92387563   -110.80444    3720.2633     4.328411     4.328411     4.328411    3720.2633    7345.6464     11838.64    -8023.496   -25175.228    904.05293   -6931.1748    81.093396 
   46600    637.22331   -111.38858   0.57657304     -110.812   -1840.7596    4.3339492    4.3339492    4.3339492   -1840.7596    39237.503   -2212.6871   -42547.095    4566.9033    4952.6463    23485.841    81.405072 
   46700    885.11217      -111.61    0.8008681   -110.80913   -278.73765    4.3302115    4.3302115    4.3302115   -278.73765    16245.032   -1807.0736   -15274.171   -9792.0225   -3339.0278     12473.71    81.194632 
   46800    1278.0004    -111.9618    1.1563616   -110.80543    10881.518    4.3284735    4.3284735    4.3284735    10881.518    10348.056    11655.234    10641.265   -28079.146    4309.5365   -1464.1691    81.096905 
   46900    1144.5861   -111.84469    1.0356456   -110.80904   -12522.279     4.340127     4.340127     4.340127   -12522.279    11093.313   -18986.323   -29673.827    17726.627    4333.0597    28071.555    81.753679 
   47000    1040.7127   -111.74905   0.94165875   -110.80739     6125.293    4.3221528    4.3221528    4.3221528     6125.293    3257.0574   -12678.258    27797.079   -7045.1305   -417.68424    1127.6022    80.742155 
   47100    978.56521    -111.6975   0.88542637   -110.81207   -617.82879    4.3275584    4.3275584    4.3275584   -617.82879    5172.7924    1716.3214   -8742.6002   -15311.701   -9082.0903    3719.2435    81.045482 
   47200    843.63858   -111.57204   0.76334192    -110.8087   -24001.498    4.3425912    4.3425912    4.3425912   -24001.498   -4662.0312   -19888.584   -47453.878    15443.338     4832.511    24093.751    81.893015 
   47300    853.96571   -111.57921   0.77268612   -110.80653    19510.165    4.3131612    4.3131612    4.3131612    19510.165     12529.78    16172.844     29827.87   -4957.2816   -9490.0131   -5811.8216    80.239291 
   47400    1047.2023   -111.76584   0.94753067   -110.81831    2076.8176    4.3268131    4.3268131    4.3268131    2076.8176    12512.295    9513.5454   -15795.388   -13205.354    -4564.911    4284.1801    81.003618 
   47500    1234.9053   -111.92891    1.1173682   -110.81154    -16784.78    4.3396772    4.3396772    4.3396772    -16784.78   -9753.4775   -19081.609   -21519.255    6361.5926    2607.9498    11728.774    81.728266 
   47600    984.79975   -111.70141   0.89106751   -110.81034    18018.103    4.3157885    4.3157885    4.3157885    18018.103    854.10264    17034.182    36166.024   -1302.2546   -652.93273   -2608.8788    80.386009 
   47700    1084.9038   -111.79475   0.98164379   -110.81311   -5662.4853    4.3297347    4.3297347    4.3297347   -5662.4853   -2624.0854   -6849.5477   -7513.8227   -12059.707    4067.8217    57.259875    81.167816 
   47800    795.17988   -111.53099   0.71949546   -110.81149   -990.20318    4.3317992    4.3317992    4.3317992   -990.20318   -1056.2377    6980.0587   -8894.4305    11962.991   -542.60847    12102.004    81.283979 
   47900    778.81121   -111.51548   0.70468475   -110.81079    -4459.704     4.326564     4.326564     4.326564    -4459.704   -17092.409    4072.3609    -359.0636    -2517.383    5477.1944   -9401.7787    80.989629 
   48000     1132.461   -111.83387    1.0246746    -110.8092   -11716.153    4.3309822    4.3309822    4.3309822   -11716.153   -5708.1191    404.27639   -29844.616   -8679.3184   -720.56842   -208.92654    81.237996 
   48100    1095.6374   -111.80257    0.9913557   -110.81121    15093.058    4.3176187    4.3176187    4.3176187    15093.058   -2593.8092     18267.06    29605.923    16676.573    5109.7677    6354.8394    80.488319 
   48200     1119.689   -111.83117    1.0131182   -110.81806   -6177.1756     4.332102     4.332102     4.332102   -6177.1756   -2541.8576   -20808.722    4819.0526   -4790.9804   -5342.9696   -6662.0444    81.301024 
   48300    1055.2984   -111.76617   0.95485613   -110.81132   -9534.1174    4.3338493    4.3338493    4.3338493   -9534.1174   -16918.029    3570.4284   -15254.751   -4315.5836    8129.3137   -10965.721    81.399439 
   48400    836.11809   -111.56488   0.75653722   -110.80834    14601.233     4.312278     4.312278     4.312278    14601.233    19830.343    10840.473    13132.883    26767.417    8408.8912    3223.5248    80.190007 
   48500      774.807   -111.51828   0.70106166   -110.81722   -17474.182    4.3344778    4.3344778    4.3344778   -17474.182    -15141.41   -18078.957   -19202.178    -3511.663   -6019.7407   -11864.357    81.434858 
   48600    1095.6004   -111.80285   0.99132223   -110.81152   -11960.074    4.3307979    4.3307979    4.3307979   -11960.074   -3660.5651   -4426.5007   -27793.157    457.93181    11564.656   -19756.782    81.227623 
   48700      1047.01    -111.7586   0.94735665   -110.81125    19700.873    4.3143172    4.3143172    4.3143172    19700.873    11076.691     12809.86    35216.066    28331.561    2036.3226    6491.9224    80.303821 
   48800    1192.8774   -111.89196    1.0793406   -110.81262   -6312.7412    4.3346045    4.3346045    4.3346045   -6312.7412    7389.2225   -16012.503   -10314.943   -7324.3838    1434.1539    -24017.57    81.442003 
   48900    1005.2215   -111.71918    0.9095455   -110.80964    3882.5812    4.3303043    4.3303043    4.3303043    3882.5812    5531.4932    6404.0748   -287.82429   -2151.8407    714.71396    -15391.12    81.199855 
   49000    770.84335   -111.50871   0.69747526   -110.81124    7286.4814    4.3217245    4.3217245    4.3217245    7286.4814    404.97354    7614.1857    13840.285    34189.993    7959.3941    7910.8836    80.718158 
   49100    992.81774   -111.70805   0.89832236   -110.80973   -6024.8677    4.3288199    4.3288199    4.3288199   -6024.8677    7030.7174   -8224.3884   -16880.932   -5759.0799   -1021.2618   -22986.525    81.116376 
   49200     895.0139   -111.62361   0.80982739   -110.81379     -1293.23    4.3288584    4.3288584    4.3288584     -1293.23    3413.0088   -5600.4745   -1692.2244    9055.4782    1978.1644   -131.80277    81.118544 
   49300    1034.1596   -111.75135   0.93572935   -110.81562   -13952.471    4.3314457    4.3314457    4.3314457   -13952.471   -27286.121   -21845.052    7273.7584    29836.945    11562.041   -1013.9517    81.264078 
   49400    1286.2735   -111.97345    1.1638473    -110.8096    12316.224    4.3186448    4.3186448    4.3186448    12316.224    37193.997    -4921.062     4675.737    -7454.627   -14493.663   -13702.215    80.545718 
   49500    1004.9964   -111.72584   0.90934185    -110.8165    1381.8328    4.3246722    4.3246722    4.3246722    1381.8328   -14992.822    2272.9856    16865.335    26307.904    7342.2823     1859.785    80.883434 
   49600    714.89413   -111.46091   0.64685123   -110.81405    -24156.22    4.3404027    4.3404027    4.3404027    -24156.22   -41898.481   -10240.603   -20329.575    14639.529    2549.4659   -6300.1584    81.769262 
   49700    1056.7275   -111.76501   0.95614921   -110.80887    5776.1491    4.3142903    4.3142903    4.3142903    5776.1491    19345.185    16992.652   -19009.389   -3546.9736   -11960.999   -11503.266    80.302318 
   49800    868.38846    -111.6054   0.78573613   -110.81967    514.44355    4.3186382    4.3186382    4.3186382    514.44355   -2721.1869     5221.217   -956.69947    30350.623    8700.5615    915.05111     80.54535 
   49900     1104.816    -111.8128   0.99966074   -110.81314    -19996.88    4.3412806    4.3412806    4.3412806    -19996.88   -14240.344   -21021.641   -24728.655    4975.1364    1432.2831    -4856.578    81.818889 
   50000    1241.3904    -111.9293    1.1232361   -110.80606    3200.7181    4.3264742    4.3264742    4.3264742    3200.7181    6183.7558    3767.0207    -348.6223   -843.24949   -1332.6063    -14143.79    80.984584 
   50100    766.68437     -111.504   0.69371213   -110.81029    1637.1907    4.3208083    4.3208083    4.3208083    1637.1907   -8208.8654   -2776.9621      15897.4     35465.56    4084.6622     5779.403    80.666828 
   50200    1052.7662   -111.76088   0.95256495   -110.80832    2505.8751    4.3277213    4.3277213    4.3277213    2505.8751   -5577.8524    7581.3214    5514.1562   -2057.0949    3280.5155   -6268.0883    81.054635 
   50300    938.14115   -111.66208   0.84884983   -110.81323   -6978.9256    4.3331869    4.3331869    4.3331869   -6978.9256   -8800.4778    10055.975   -22192.273    7755.8907   -3730.9674   -6588.7144     81.36212 
   50400    781.03352   -111.52474   0.70669555   -110.81804   -17758.758    4.3287898    4.3287898    4.3287898   -17758.758   -20166.758   -27464.292   -5645.2235    35835.838    1667.9799    9877.1669    81.114685 
   50500    1348.0487   -112.02999    1.2197428   -110.81025    21792.842    4.3144343    4.3144343    4.3144343    21792.842    34660.249    28432.576     2285.702   -10665.523    4012.8039   -5823.8884    80.310361 
   50600    1088.5628   -111.80335   0.98495451   -110.81839   -6789.7322    4.3334886    4.3334886    4.3334886   -6789.7322   -27219.026   -7638.1428    14487.973    25322.675   -3273.5348    7793.0981    81.379115 
   50700    797.61499   -111.54027   0.72169881   -110.81857   -22919.761    4.3343918    4.3343918    4.3343918   -22919.761   -28477.293   -32739.391   -7542.6003    26785.059    13488.885    6956.7907    81.430013 
   50800    1018.2962    -111.7296   0.92137584   -110.80822    32029.933    4.3091369    4.3091369    4.3091369    32029.933    27523.057    41702.595    26864.145   -19249.732    6148.9945    3777.6152      80.0149 
   50900    1056.0636   -111.77325   0.95554852    -110.8177   -18333.974     4.329879     4.329879     4.329879   -18333.974    -26760.71    -23948.19   -4293.0215     34033.79   -1145.1712   -497.54693    81.175929 
   51000    866.88524    -111.5972   0.78437598   -110.81282   -22311.746    4.3370737    4.3370737    4.3370737   -22311.746   -5346.7511   -38835.829   -22752.658    8462.9588     7848.659    10024.663     81.58126 
   51100     1039.804   -111.74679   0.94083649   -110.80595    14720.977    4.3158541    4.3158541    4.3158541    14720.977    16639.134    14185.856    13337.942   -12695.283    2681.5603    3298.6444    80.389675 
   51200    1053.2773   -111.76798   0.95302746   -110.81495   -10531.003    4.3270936    4.3270936    4.3270936   -10531.003   -35404.775   -9213.9088    13025.674    36262.173   -9946.6671   -1835.3093    81.019372 
   51300    1128.7533    -111.8343    1.0213197   -110.81298    563.32237     4.329876     4.329876     4.329876    563.32237    9929.9472   -1308.8189   -6931.1612   -8001.1041   -82.352089    19999.038    81.175764 
   51400    798.72986   -111.53748   0.72270756   -110.81478    4114.6539    4.3267428    4.3267428    4.3267428    4114.6539   -4802.3649    -3913.305    21059.632     7559.299    2787.2327   -1252.6649    80.999667 
   51500    971.71735   -111.69373   0.87923028    -110.8145   -18867.391    4.3295556    4.3295556    4.3295556   -18867.391   -19201.604   -27739.903   -9660.6654    35025.716   -16800.498   -823.53101    81.157745 
   51600    981.65654   -111.69722   0.88822347     -110.809    15080.857    4.3208196    4.3208196    4.3208196    15080.857    31083.377    12978.128    1181.0653    -9224.491    2252.1268    11099.305    80.667464 
   51700    874.22383    -111.6071   0.79101609   -110.81608   -18064.059    4.3326592    4.3326592    4.3326592   -18064.059   -20634.587   -26053.576   -7504.0136    15159.297    4318.4734   -6676.3472    81.332401 
   51800    984.85283   -111.70533   0.89111554   -110.81422    -15866.58    4.3333889    4.3333889    4.3333889    -15866.58   -31930.752   -9673.7243   -5995.2639    20067.201    -12220.83    398.77281    81.373501 
   51900    1480.7144    -112.1445    1.3397815   -110.80472    12138.254    4.3136824    4.3136824    4.3136824    12138.254    19935.863    14681.868    1797.0318   -7722.6422    10011.113    5807.4271    80.268378 
   52000    855.41471   -111.59412    0.7739972   -110.82012    -16033.68     4.331746     4.331746     4.331746    -16033.68   -26545.883   -25222.486    3667.3277    17243.316     2105.584   -9137.0993    81.280985 
   52100    904.96527   -111.63296   0.81883159   -110.81413   -26735.323    4.3360782    4.3360782    4.3360782   -26735.323   -32248.989   -16619.746   -31337.234    14782.799    -12407.63    461.06919    81.525098 
   52200    1108.2942   -111.80824    1.0028079   -110.80543    17137.096    4.3195662    4.3195662    4.3195662    17137.096    27005.543    24205.246    200.49818   -10664.556    1625.4737    12521.528    80.597282 
   52300    834.34569   -111.56971   0.75493351   -110.81478   -19217.148    4.3282145    4.3282145    4.3282145   -19217.148   -28900.868   -22747.502   -6003.0735    26957.952   -6632.2516   -10491.027     81.08235 
   52400     878.6562   -111.61215   0.79502659   -110.81713    2087.4965    4.3270038    4.3270038    4.3270038    2087.4965   -14176.285     13348.69    7090.0842    9027.8226   -19443.617    8330.5176    81.014325 
   52500    1335.1886   -112.01816    1.2081067   -110.81005     4541.299    4.3278117    4.3278117    4.3278117     4541.299     20446.68   -8875.3725      2052.59   -8178.3878   -5148.7647    11921.664    81.059714 
   52600    699.02558   -111.45201   0.63249303   -110.81952   -6395.7708    4.3259136    4.3259136    4.3259136   -6395.7708     3700.625   -33575.012    10687.075     27479.97   -11483.497   -13197.423    80.953106 
   52700    929.65785   -111.65835   0.84117396   -110.81717    7370.7397    4.3221478    4.3221478    4.3221478    7370.7397    16631.875    13498.015   -8017.6716   -840.93343   -19647.586    5559.8972    80.741876 
   52800    1048.2849    -111.7615   0.94851018   -110.81299    748.82285     4.333824     4.333824     4.333824    748.82285    4775.6144   -16281.786    13752.641   -5630.1009    5776.5876    5594.0368    81.398013 
   52900    774.37174    -111.5187   0.70066782   -110.81803   -19338.406    4.3273453    4.3273453    4.3273453   -19338.406   -23737.456   -17947.411   -16330.351    20576.905   -11390.709   -13596.687    81.033508 
   53000    1167.7979   -111.86879     1.056648   -110.81214    16751.619    4.3172077    4.3172077    4.3172077    16751.619   -9026.9558      37155.4    22126.412    2634.8853   -11010.685   -639.59991    80.465334 
   53100    1316.5918   -112.00308      1.19128    -110.8118    -14051.27    4.3370161    4.3370161    4.3370161    -14051.27   -18882.752   -22379.732   -891.32547   -6466.0436    12525.909    1666.9736    81.578009 
   53200    779.63387   -111.52138   0.70542911   -110.81595   -19382.015    4.3306709    4.3306709    4.3306709   -19382.015   -18264.393   -37845.874   -2035.7768    17847.739   -14896.466   -11150.022    81.220476 
   53300    1101.7709   -111.80685   0.99690548   -110.80995    16517.691    4.3157183    4.3157183    4.3157183    16517.691    18657.906     19734.29    11160.876   -6634.5947   -7361.9113   -3046.8378    80.382086 
   53400    1159.5718   -111.85945     1.049205   -110.81024   -4614.9881    4.3356961    4.3356961    4.3356961   -4614.9881   -4386.1961   -10832.402    1373.6332   -4583.5332    4405.2006    3486.6183    81.503545 
   53500    808.72194   -111.54681   0.73174861   -110.81506    649.09617      4.33083      4.33083      4.33083    649.09617    -2215.549    4214.5666   -51.729063    15795.992    -27035.55    -14803.03    81.229431 
   53600    1134.2415   -111.83359    1.0262856    -110.8073    19139.996    4.3260281    4.3260281    4.3260281    19139.996    15703.461    22746.166    18970.362    -15760.33   -9857.1029     1351.969    80.959533 
   53700    1006.3212   -111.71849   0.91054057   -110.80795     3113.531    4.3314842    4.3314842    4.3314842     3113.531    3673.1684    -17445.76    23113.185   -8308.6755   -647.44869   -13266.257    81.266248 
   53800    505.68494   -111.27294   0.45755436   -110.81538    18916.822    4.3229096    4.3229096    4.3229096    18916.822    29283.041   -13745.065    41212.491    12163.723   -30234.283   -11299.265     80.78458 
   53900    1302.4103   -111.98756    1.1784482   -110.80911    -1873.547    4.3363035    4.3363035    4.3363035    -1873.547    2786.5119   -14639.562    6232.4095   -14213.294   -4970.4252    5117.9263    81.537803 
   54000    976.95078   -111.69412   0.88396559   -110.81015    4338.1548    4.3305953    4.3305953    4.3305953    4338.1548    4085.4597    11672.688   -2743.6831   -5054.0978    2314.4547   -14291.866    81.216224 
   54100    651.77533   -111.40262   0.58974002   -110.81288    9754.5415    4.3206358    4.3206358    4.3206358    9754.5415    19979.511    18287.013   -9002.8991    9929.6496   -26235.518   -8840.7679    80.657171 
   54200    1470.9132   -112.13594    1.3309132   -110.80503     -9783.13     4.336718     4.336718     4.336718     -9783.13   -10801.648   -8125.9323   -10421.809   -3844.1636    6042.6791    11044.797    81.561186 
   54300     1024.787   -111.74091   0.92724884   -110.81366    2224.2268    4.3269784    4.3269784    4.3269784    2224.2268   -5355.9374    10936.396    1092.2219    6301.9247   -1686.2793   -5689.2771    81.012899 
   54400    838.80755    -111.5765    0.7589707   -110.81753   -2984.9294    4.3264628    4.3264628    4.3264628   -2984.9294   -14408.127    -5129.663    10583.002    14020.449    -21797.96   -11703.726    80.983942 
   54500    1444.9216   -112.10984    1.3073954   -110.80244   -4153.4983    4.3383013    4.3383013    4.3383013   -4153.4983    5237.9384   -3956.0448   -13742.389    6628.9598    8022.8277    5368.0589    81.650554 
   54600    630.31569   -111.38333   0.57032288   -110.81301   -1885.6311     4.323413     4.323413     4.323413   -1885.6311    22800.945    12224.124   -40681.962    4906.3876   -22048.142   -6779.8338    80.812804 
   54700    680.73392   -111.43679   0.61594236   -110.82085    7573.0024     4.324264     4.324264     4.324264    7573.0024     13085.02    5585.0947     4048.892     13325.53   -16207.552   -3119.3048    80.860534 
   54800    1457.1074   -112.12593    1.3184214   -110.80751    5054.6527    4.3359914    4.3359914    4.3359914    5054.6527    11730.575    3796.9628   -363.58002    -4148.669    3909.2832    7407.2994    81.520201 
   54900    962.69585   -111.68661   0.87106744   -110.81554   -1670.5878    4.3238997    4.3238997    4.3238997   -1670.5878   -13753.746     24293.52   -15551.537   -3441.3776   -31568.229   -12476.919    80.840098 
   55000    919.37525   -111.64407   0.83187004    -110.8122    9005.8779    4.3226024    4.3226024    4.3226024    9005.8779   -10806.396    23040.815    14783.214    13979.234   -2184.4639    2426.5425    80.767356 
   55100    1005.9939   -111.71901   0.91024442   -110.80877   -14296.674    4.3348019    4.3348019    4.3348019   -14296.674   -16330.006     15099.89   -41659.907   -8048.3064   -6622.2157   -4249.9133     81.45313 
   55200    682.64741   -111.43224   0.61767372   -110.81457   -9881.4238    4.3276314    4.3276314    4.3276314   -9881.4238    -5572.618    17429.632   -41501.285    6893.7835   -26377.496   -12003.193    81.049583 
   55300     1261.406   -111.95114    1.1413467    -110.8098    15925.441    4.3181345    4.3181345    4.3181345    15925.441    15306.753    5432.1341    27037.435    10199.292    4668.4623   -4935.1195    80.517169 
   55400    1170.7739   -111.87606    1.0593408   -110.81672    3804.7028     4.326127     4.326127     4.326127    3804.7028    3355.8021    11499.849   -3441.5429   -5631.4814   -9852.7544   -2816.5113    80.965091 
   55500    862.58185   -111.59761   0.78048218   -110.81712   -10018.825    4.3334141    4.3334141    4.3334141   -10018.825   -3461.7133   -4739.6706   -21855.091   -4488.3769   -18704.352   -12274.011    81.374918 
   55600    1153.7549   -111.85133    1.0439417   -110.80739    616.40585    4.3248114    4.3248114    4.3248114    616.40585   -1417.2395    5196.6555   -1930.1984    13469.138    8620.4495     5278.577    80.891244 
   55700     544.7129   -111.30928   0.49286768   -110.81641   -5042.5248    4.3199013    4.3199013    4.3199013   -5042.5248    3576.6894    21889.626    -40593.89   -12278.222   -24747.893   -4866.2565    80.616042 
   55800    1078.4513   -111.79522   0.97580536   -110.81942   -12227.301    4.3298516    4.3298516    4.3298516   -12227.301   -13802.542   -5111.6294   -17767.732    4358.2444   -8887.9594   -13156.099    81.174389 
   55900     1508.602   -112.17214    1.3650148   -110.80713    11682.311    4.3314021    4.3314021    4.3314021    11682.311    18441.293    5575.1423    11030.499    10472.937    6481.0438    8715.5768    81.261629 
   56000     614.9575    -111.3747   0.55642647   -110.81828   -990.86179     4.321733     4.321733     4.321733   -990.86179    5556.8845    13287.222   -21816.692   -8414.6908   -35172.888   -10583.512    80.718632 
   56100    900.43522    -111.6299   0.81473271   -110.81517    2312.0983    4.3257412    4.3257412    4.3257412    2312.0983    16195.115   -5569.6334   -3689.1867   -3271.8599   -509.16797   -12395.612     80.94343 
   56200    1158.4508   -111.85748    1.0481906   -110.80929    2108.5609    4.3317436    4.3317436    4.3317436    2108.5609    17427.619    14994.475   -26096.411    1491.4847   -7030.4895    8342.6219    81.280848 
   56300    696.39256   -111.44955   0.63011063   -110.81944   -13018.737    4.3274226    4.3274226    4.3274226   -13018.737    -17010.19    7071.7355   -29117.756    -11885.59   -32407.396   -15230.108    81.037854 
   56400    1472.9393   -112.14511    1.3327465   -110.81236    5425.3123    4.3267847    4.3267847    4.3267847    5425.3123    8374.3532   -9575.0999    17476.684   -16139.453   -1133.5912   -3407.4863    81.002022 
   56500    1256.9538   -111.94852    1.1373182    -110.8112    8654.8933    4.3269111    4.3269111    4.3269111    8654.8933    28167.026    10078.736   -12281.082    3409.5359   -5323.1634    5060.0305    81.009121 
   56600      405.518   -111.18331   0.36692121   -110.81639   -4625.2325    4.3317907    4.3317907    4.3317907   -4625.2325    28874.005   -5491.7821   -37257.921   -14849.646   -20349.101   -12736.527      81.2835 
   56700    1093.3066   -111.79089    0.9892468   -110.80164    186.60974    4.3372318    4.3372318    4.3372318    186.60974    25230.326   -15391.016   -9279.4809    6649.2829    9087.7633    3600.8238     81.59018 
   56800    1051.5565   -111.75868   0.95147041   -110.80721    3061.5282    4.3233898    4.3233898    4.3233898    3061.5282    21924.629    3069.1379   -15809.182    5058.4975   -12522.591   -3481.0676    80.811503 
   56900    1136.4501   -111.84105    1.0282839   -110.81276   -5317.6275    4.3217125    4.3217125    4.3217125   -5317.6275   -14354.469   -9336.4239    7738.0102   -9965.8562   -15050.581   -9899.4138    80.717486 
   57000    1500.8357   -112.16333    1.3579877   -110.80534    -13349.84     4.342083     4.342083     4.342083    -13349.84   -10861.832   -28632.412   -555.27404    11049.796    7850.0611    3705.2351    81.864266 
   57100    659.49062   -111.40603   0.59672097   -110.80931    -17569.09    4.3345799    4.3345799    4.3345799    -17569.09    11102.373   -13259.677   -50549.966     4115.152    -19923.59   -16966.404    81.440615 
   57200    804.64842   -111.53025    0.7280628   -110.80219    4454.1453    4.3210943    4.3210943    4.3210943    4454.1453    31139.523   -2877.0796   -14900.008   -12549.875   -2279.5588   -1771.1854    80.682851 
   57300    1120.0598   -111.81731    1.0134537   -110.80386    1584.0945    4.3274626    4.3274626    4.3274626    1584.0945    28584.176   -8104.7275   -15727.165    1345.7293    4528.0658    2909.0144    81.040101 
   57400    880.69256   -111.61221   0.79686914   -110.81534    -6988.487    4.3316942    4.3316942    4.3316942    -6988.487    900.55825   -2115.1894    -19750.83   -6167.8541   -28103.997   -24427.023     81.27807 
   57500    1415.4064   -112.08796    1.2806894   -110.80727    403.22717    4.3356267    4.3356267    4.3356267    403.22717   -8619.9024   -1868.8929    11698.477   -10257.496    5345.7643    2482.5986    81.499631 
   57600    1039.4292   -111.74859   0.94049742   -110.80809   -5208.7209    4.3270941    4.3270941    4.3270941   -5208.7209   -6122.3342    13249.691    -22753.52   -1760.5878   -11484.425   -1055.5027    81.019399 
   57700     580.1456   -111.33875   0.52492793   -110.81382   -3213.8034    4.3235394    4.3235394    4.3235394   -3213.8034   -127.95101    23037.264   -32550.723    4184.6908   -24283.189   -23603.691    80.819891 
   57800    1177.0508   -111.87043    1.0650203   -110.80541    808.55109    4.3400854    4.3400854    4.3400854    808.55109     17717.12    1786.9332     -17078.4   -194.81521    13644.821    5396.1513    81.751332 
   57900    920.02637   -111.64356    0.8324592    -110.8111   -6357.1464    4.3339836    4.3339836    4.3339836   -6357.1464    18292.384   -7188.8642   -30174.959    6069.4386   -18850.314   -9979.2053    81.407007 
   58000    846.26767   -111.57434   0.76572077   -110.80862    22507.563    4.3165833    4.3165833    4.3165833    22507.563    55745.756    16496.984   -4720.0516    11412.137   -19007.993   -11929.934    80.430426 
   58100    1226.0778   -111.91796    1.1093809   -110.80858     2186.275    4.3328892    4.3328892    4.3328892     2186.275    23399.257    4339.9118   -21180.344    1906.9616     15825.79    7788.4855    81.345351 
   58200    614.86521   -111.37196   0.55634297   -110.81561   -14207.969    4.3351837    4.3351837    4.3351837   -14207.969   -6112.8341    5305.2355   -41816.307    209.33812   -21061.399   -18760.985    81.474651 
   58300    994.54986    -111.7078   0.89988962   -110.80791    7553.8129     4.322107     4.322107     4.322107    7553.8129   -5245.9896    25534.818    2372.6105    9085.2679   -11304.366   -3166.2191    80.739591 
   58400    1280.6959   -111.96569    1.1588005   -110.80689   -2319.6802    4.3301439    4.3301439    4.3301439   -2319.6802     12889.49    -10659.98   -9188.5506   -7848.2578     4655.527    8279.7201    81.190831 
   58500    856.99892   -111.59135   0.77543063   -110.81592   -4446.7812    4.3269205    4.3269205    4.3269205   -4446.7812     10991.21   -13618.575   -10712.978   -3470.4853   -30139.719   -24403.007     81.00965 
   58600    997.08063   -111.71442    0.9021795   -110.81224    13941.343    4.3237194    4.3237194    4.3237194    13941.343      47966.2    2698.7237   -8840.8932    4316.2728   -7393.7411    10386.324    80.829989 
   58700    951.12582   -111.67124   0.86059863   -110.81064   -9076.9305    4.3345975    4.3345975    4.3345975   -9076.9305    35815.021   -13368.238   -49677.574   -1570.1273   -1505.6717   -2425.7946    81.441608 
   58800    913.91453   -111.63685   0.82692907   -110.80992   -8219.3374    4.3254862    4.3254862    4.3254862   -8219.3374    5602.8013   -4911.0394   -25349.774   -210.97783   -21249.695   -17232.962    80.929118 
   58900    1137.3977   -111.83968    1.0291414   -110.81054    7979.6376    4.3219653    4.3219653    4.3219653    7979.6376    19964.065   -6801.8144    10776.662    15872.073    2563.3492    12947.551    80.731649 
   59000    1189.1908    -111.8881    1.0760048    -110.8121    -6073.936     4.327793     4.327793     4.327793    -6073.936    21620.779    -29138.43   -10704.157   -2278.2882    7035.7649   -14878.241    81.058665 
   59100    866.96524   -111.59729   0.78444837   -110.81284    14078.672    4.3246787    4.3246787    4.3246787    14078.672    47148.141   -6901.9564    1989.8324    1034.2596   -20266.781   -1248.0431      80.8838 
   59200    1005.2223   -111.71753   0.90954626   -110.80798    1629.1163    4.3294615    4.3294615    4.3294615    1629.1163    26386.443    -4260.209   -17238.885    10021.684       4801.9    7836.2607    81.152455 
   59300    914.55583   -111.63442   0.82750934   -110.80691   -2086.1724    4.3268153    4.3268153    4.3268153   -2086.1724    38591.626   -4794.2978   -40055.846   -9595.4864   -2803.3879   -25922.318    81.003739 
   59400    1071.6688   -111.77764   0.96966842   -110.80797   -165.19062    4.3205399    4.3205399    4.3205399   -165.19062    11044.966    3803.4615   -15343.999    7791.4895   -20969.757    10622.834    80.651798 
   59500    1039.3555    -111.7516   0.94043072   -110.81117   -11283.702    4.3289494    4.3289494    4.3289494   -11283.702    13740.497   -35473.178   -12118.424    11201.363   -4398.2243   -5818.4736    81.123658 
   59600    1011.5582   -111.72574   0.91527911   -110.81046    1119.0483    4.3293405    4.3293405    4.3293405    1119.0483    43409.189   -20808.115   -19243.929   -2295.3399   -2645.1697    -23445.93    81.145648 
   59700    1170.2469   -111.86543     1.058864   -110.80656    8945.5823    4.3198083    4.3198083    4.3198083    8945.5823    32634.139    2149.6643   -7947.0562    4607.4527   -15523.238    11067.194    80.610838 
   59800    693.91353   -111.44444   0.62786754   -110.81657     4843.467    4.3243889    4.3243889    4.3243889     4843.467    55813.025   -13678.187   -27604.437    11444.089    4451.7516   -21043.915    80.867542 
   59900    1212.4009   -111.90609    1.0970058   -110.80909   -2962.9328    4.3292249    4.3292249    4.3292249   -2962.9328    14275.035     7174.478   -30338.311   -16012.583   -5162.2646   -8243.0631    81.139151 
   60000    891.97669   -111.61825   0.80707926   -110.81117    4453.2419    4.3211276    4.3211276    4.3211276    4453.2419    24688.729   -8169.0377   -3159.9654    7023.1903    -6820.053     4284.609    80.684713 
   60100    734.20005   -111.48094   0.66431964   -110.81662   -14183.824    4.3246227    4.3246227    4.3246227   -14183.824    11417.687   -32046.953   -21922.205    9359.1975    2894.9719   -28286.996    80.880655 
   60200    1420.6566   -112.09078      1.28544   -110.80534    4001.5195     4.327568     4.327568     4.327568    4001.5195    1925.6784    17415.399   -7336.5185   -1287.7833   -1012.5466    4812.8947     81.04602 
   60300    1030.7761   -111.74481    0.9326679   -110.81214   -7164.8439    4.3283193    4.3283193    4.3283193   -7164.8439    10680.161   -3090.9797   -29083.713    11861.398   -6610.3506    -4183.954    81.088237 
   60400    837.45184   -111.57085   0.75774402    -110.8131    246.89584    4.3239966    4.3239966    4.3239966    246.89584    30232.957   -2943.7009   -26548.569    20536.953    2435.6711   -22089.663    80.845532 
   60500    1119.9321   -111.81972    1.0133381   -110.80638    14767.753     4.320847     4.320847     4.320847    14767.753    40581.722    12565.718   -8844.1805   -3918.3444    11005.274    2055.8439    80.669001 
   60600    772.25431   -111.51381   0.69875192   -110.81506    295.89576    4.3277731    4.3277731    4.3277731    295.89576    49555.957   -38445.888   -10222.382    4952.6318   -4175.5679   -11201.111    81.057543 
   60700    971.60106   -111.68971   0.87912506   -110.81058    -3270.572    4.3318749    4.3318749    4.3318749    -3270.572    12099.698   -5452.2986   -16459.115     12952.63    16880.267   -11876.063    81.288241 
   60800    1315.7804   -111.99436    1.1905458   -110.80381    7322.0618    4.3211225    4.3211225    4.3211225    7322.0618    3820.3807    24244.527   -6098.7224   -18783.514    12477.655   -1478.3305    80.684428 
   60900    972.17527   -111.68885   0.87964462    -110.8092   -1553.3239    4.3226513    4.3226513    4.3226513   -1553.3239    13274.734   -3044.3598   -14890.346    8386.2592   -5852.7681   -19754.178    80.770099 
   61000    979.53345   -111.69549   0.88630245   -110.80919     -4189.94    4.3286381    4.3286381    4.3286381     -4189.94   -12502.808    17801.372   -17868.384    1680.7601    13865.932    2769.5303    81.106156 
   61100    886.71747   -111.61071    0.8023206   -110.80839    1866.7173    4.3277145    4.3277145    4.3277145    1866.7173    14394.679   -9614.0291    819.50252   -7372.2858    5942.9956   -4437.6404    81.054252 
   61200     1037.165   -111.74639   0.93844867   -110.80794    11289.547    4.3256602    4.3256602    4.3256602    11289.547    50313.036    -15582.64   -861.75571    5299.9712   -11886.824   -18048.267    80.938884 
   61300    1075.3484   -111.78116   0.97299783   -110.80817    8740.0373    4.3274715    4.3274715    4.3274715    8740.0373    21595.957     18564.98   -13940.825    6921.7045    23522.028    6217.9281    81.040602 
   61400    850.95397   -111.58027   0.76996103   -110.81031    2704.6936    4.3242854    4.3242854    4.3242854    2704.6936    25517.975      9833.69   -27237.584   -7655.0472    5771.9504   -7555.0601    80.861733 
   61500    1146.4572   -111.84346    1.0373385   -110.80613   -7697.9747     4.325829     4.325829     4.325829   -7697.9747    6766.4142    1305.8484   -31166.187    8700.7187   -208.05941   -6181.1231    80.948359 
   61600    913.13408   -111.63661   0.82622291   -110.81038   -16950.599    4.3311687    4.3311687    4.3311687   -16950.599   -25750.755    8809.8184   -33910.861    3711.6662    37238.826    1070.2002     81.24849 
   61700    988.51484   -111.70459     0.894429   -110.81016    218.88465    4.3228078    4.3228078    4.3228078    218.88465    7787.0388   -358.48418   -6771.9006   -9736.4076    2749.1152   -14686.182    80.778872 
   61800    1291.0613   -111.97512    1.1681794   -110.80694     13731.49    4.3243557    4.3243557    4.3243557     13731.49    45114.188    1481.9386   -5401.6575    1381.4094    1524.0327    3601.6935    80.865675 
   61900    860.56552   -111.59404   0.77865777   -110.81538   -1434.3444    4.3304672    4.3304672    4.3304672   -1434.3444    22884.585    9810.7804   -36998.399   -1492.2174    27457.828   -1448.0906    81.209021 
   62000    763.37404   -111.50383   0.69071687   -110.81312    10177.978    4.3252742    4.3252742    4.3252742    10177.978    52713.792    7972.7816   -30152.641   -12471.999   -9682.5754   -18358.868    80.917215 
   62100    1192.7919    -111.8841    1.0792632   -110.80484   -6225.5305    4.3323892    4.3323892    4.3323892   -6225.5305    2441.7013    8523.0852   -29641.378   -2234.8951    5492.4145    4369.9769    81.317196 
   62200    974.96044   -111.69086    0.8821647    -110.8087   -13449.252    4.3285673    4.3285673    4.3285673   -13449.252    -14988.03   -4539.4857    -20820.24    1289.7199    23113.377    -10530.13    81.102181 
   62300    1093.5704   -111.79766   0.98948552   -110.80817     19414.11    4.3222155    4.3222155    4.3222155     19414.11    37212.432    13642.989    7386.9093   -9128.4784   -6428.3828   -10045.622    80.745669 
   62400    1221.0343   -111.91227    1.1048174   -110.80745   -807.51463    4.3331215    4.3331215    4.3331215   -807.51463   -1501.6625    17598.019     -18518.9    7718.3734    13854.615   -1330.8338    81.358437 
   62500    599.51063   -111.35626   0.54244982   -110.81381    8833.6547    4.3257623    4.3257623    4.3257623    8833.6547    57149.867    6929.0092   -37577.912    1695.2667    12995.513   -23837.523    80.944615 
   62600    953.10893   -111.67121   0.86239299   -110.80882    12100.189    4.3249196    4.3249196    4.3249196    12100.189    30487.911    19801.856   -13989.201     -7130.85   -1602.5122   -751.38059    80.897315 
   62700    1079.4111   -111.78667   0.97667386      -110.81   -2810.7241    4.3305057    4.3305057    4.3305057   -2810.7241    4920.5005    3359.4375    -16712.11    2840.3897    18247.212   -5086.7867    81.211185 
   62800    1070.5676   -111.77868   0.96867205   -110.81001     3304.585    4.3257809    4.3257809    4.3257809     3304.585    12430.993   -7065.8269    4548.5887   -5273.7409    12415.452   -30567.715    80.945657 
   62900    1220.4442   -111.91254    1.1042836   -110.80826    11186.682    4.3275246    4.3275246    4.3275246    11186.682   -2957.2373    23807.231    12710.052   -8381.9007   -1549.1151    13346.441    81.043582 
   63000    765.93231   -111.50746   0.69303165   -110.81442   -13013.987    4.3295591    4.3295591    4.3295591   -13013.987    -8894.331   -2936.8922   -27210.738   -4317.2753    8547.4613   -12756.115     81.15794 
   63100    822.38464   -111.55957   0.74411091   -110.81546    -1210.415    4.3253846    4.3253846    4.3253846    -1210.415    19750.602    849.27871   -24231.126    1135.7814    501.28928   -21864.659    80.923413 
   63200    1289.4271   -111.97278    1.1667007   -110.80608    13832.863    4.3260372    4.3260372    4.3260372    13832.863    26309.597    12781.636    2407.3559   -6143.8532   -8716.8846    11656.711    80.960044 
   63300    740.99225   -111.48918   0.67046536   -110.81872    -17986.47    4.3317912    4.3317912    4.3317912    -17986.47    6654.8231   -26345.673   -34268.559    1086.3669    9876.2548   -27631.111    81.283526 
   63400    1179.9401    -111.8809    1.0676346   -110.81326    2307.9561    4.3259059    4.3259059    4.3259059    2307.9561    17687.895   -7742.4093   -3021.6179   -493.87514    1332.6412   -1600.6421    80.952674 
   63500    1178.3589   -111.87483    1.0662039   -110.80862    10548.418    4.3214963    4.3214963    4.3214963    10548.418    11488.937    20038.386     117.9318    2979.8567     4058.408   -4682.3573     80.70537 
   63600     512.7873   -111.28538   0.46398073    -110.8214    -26083.94    4.3310707    4.3310707    4.3310707    -26083.94   -21851.057   -11422.567   -44978.195    1337.6431    19516.408   -35048.269    81.242973 
   63700    1235.0105   -111.92732    1.1174634   -110.80986   -1261.3421    4.3293799    4.3293799    4.3293799   -1261.3421   -14742.563    9770.2528    1188.2835    4565.4307    1383.3634    9745.2083    81.147861 
   63800     1176.701   -111.87385    1.0647038   -110.80914    111.43707     4.322924     4.322924     4.322924    111.43707     14139.63   -13165.429   -639.89064   -2507.9551    2397.8942   -15716.583    80.785385 
   63900    720.27421    -111.4712   0.65171924   -110.81948   -9961.6148    4.3250794    4.3250794    4.3250794   -9961.6148    15468.591   -22378.257   -22975.179     5062.055    16627.069   -29783.924    80.906282 
   64000    1197.8273   -111.89634    1.0838193   -110.81252    5707.9303    4.3279402    4.3279402    4.3279402    5707.9303    22446.143    692.37446   -6014.7264     15207.64   -1110.1394    10839.643    81.066937 
   64100    896.51282   -111.62674   0.81118364   -110.81556   -6376.2002    4.3287802    4.3287802    4.3287802   -6376.2002    23424.909   -8393.7559   -34159.754   -2202.6549   -5669.7602   -13084.195    81.114148 
   64200     703.4284   -111.45111    0.6364768   -110.81463   -15160.878    4.3273512    4.3273512    4.3273512   -15160.878   -20897.292    7083.7938   -31669.135     8533.788     23626.64   -17047.692    81.033842 
   64300    1225.5616   -111.91728    1.1089139   -110.80836   -2889.7885    4.3216885    4.3216885    4.3216885   -2889.7885   -13252.729    6663.8502   -2080.4872    4993.4598   -4281.5196    10926.641    80.716141 
   64400    885.33006    -111.6161   0.80106524   -110.81503   -10948.027    4.3291633    4.3291633    4.3291633   -10948.027    20775.791   -23731.547   -29888.326    2721.2469    8001.7298   -23872.422    81.135684 
   64500    1140.6471    -111.8444    1.0320815   -110.81232   -16978.911    4.3319423    4.3319423    4.3319423   -16978.911    -20785.03    3037.2283    -33188.93    -4106.384    20334.334    -3765.366    81.292034 
   64600    1157.7037   -111.85445    1.0475146   -110.80694    2875.8459    4.3235009    4.3235009    4.3235009    2875.8459    18713.298    4017.6376   -14103.398    8324.5026   -5713.9955   -2422.9961     80.81773 
   64700    815.42812   -111.55228    0.7378165   -110.81447   -13830.985    4.3204757    4.3204757    4.3204757   -13830.985   -4890.8034   -3242.5502   -33359.602   -7120.5441    13431.765   -29236.647    80.648202 
   64800    873.66706   -111.60661   0.79051232   -110.81609   -6842.1554     4.330492     4.330492     4.330492   -6842.1554   -31647.092     23437.15   -12316.524    4030.9378    17285.005    4024.6777    81.210413 
   64900    1127.4951   -111.83232    1.0201813   -110.81214   -5401.6831    4.3307537    4.3307537    4.3307537   -5401.6831    15602.656   -21053.561   -10754.145    11190.677   -7889.2174   -5382.4116    81.225137 
   65000    796.70975   -111.53824   0.72087972   -110.81736   -1043.1996    4.3189047    4.3189047    4.3189047   -1043.1996    27909.363    363.87757   -31402.839   -3123.2994    22016.467   -20719.641     80.56026 
   65100    1256.4415   -111.94982    1.1368547   -110.81296     6988.734    4.3278401    4.3278401    4.3278401     6988.734    9603.2031    35198.937   -23835.938     7535.737    19431.801    6086.3154    81.061309 
   65200    1102.1398   -111.80871   0.99723922   -110.81147   -7335.9603    4.3334329    4.3334329    4.3334329   -7335.9603    15834.768   -6323.6637   -31518.985    3154.3749   -6511.1958   -8100.1073    81.375982 
   65300    451.88526   -111.22524   0.40887528   -110.81637    3235.8937    4.3177294    4.3177294    4.3177294    3235.8937   -4595.2801     38245.64   -23942.679    1456.4159    28639.489   -18342.371    80.494512 
   65400    1129.3804   -111.83505    1.0218871   -110.81316    929.64304    4.3256697    4.3256697    4.3256697    929.64304   -29607.053    19825.632     12570.35   -4824.4103    8775.7621    6167.3979    80.939414 
   65500    1005.8084   -111.72257   0.91007654   -110.81249   -6711.3496    4.3355012    4.3355012    4.3355012   -6711.3496   -8238.6876    6524.5588    -18419.92    350.56298    -8634.292   -18100.976    81.492552 
   65600    997.22715   -111.71398   0.90231208   -110.81167   -1365.3081    4.3253381    4.3253381    4.3253381   -1365.3081   -6457.2011    19603.257   -17241.981   -260.27462    25466.284   -4320.6379    80.920802 
   65700    1409.4782   -112.07911    1.2753255   -110.80379   -230.22752    4.3247733    4.3247733    4.3247733   -230.22752   -9012.0616    15031.783   -6710.4037   -2951.7617   -11013.029     4339.051     80.88911 
   65800    925.16609   -111.64808   0.83710972   -110.81097   -11150.865    4.3250259    4.3250259    4.3250259   -11150.865   -10749.082    10524.859    -33228.37    1530.8518    3182.7247   -13672.407     80.90328 
   65900    664.24263   -111.41517   0.60102069   -110.81415   -425.38645    4.3299665    4.3299665    4.3299665   -425.38645   -24602.559    14713.889    8612.5109   -6452.0775    24093.338   -373.54417    81.180851 
   66000     1227.074   -111.91267    1.1102824   -110.80239   -15734.685    4.3356487    4.3356487    4.3356487   -15734.685    -36378.95   -8231.1878   -2593.9177   -6261.9377   -21737.903    -581.3295    81.500873 
   66100     1007.246    -111.7182   0.91137733   -110.80682    1066.1337    4.3175529    4.3175529    4.3175529    1066.1337    8167.4919     5177.551   -10146.642    4617.3373    22157.907   -18206.172    80.484641 
   66200    1172.7669   -111.87283    1.0611442   -110.81168    7691.5338    4.3238764    4.3238764    4.3238764    7691.5338    3539.7853   -1018.4083    20553.224    -6497.828    17803.789   -2663.1155    80.838794 
   66300    1240.9646   -111.92937    1.1228508   -110.80652   -20089.716    4.3387537    4.3387537    4.3387537   -20089.716   -16523.323   -16419.569   -27326.256   -5500.2616   -26849.033   -734.91578    81.676101 
   66400     652.5321   -111.40057   0.59042476   -110.81014    1102.9047    4.3199011    4.3199011    4.3199011    1102.9047   -11002.411    11965.678    2345.4462    6182.4365    18788.778   -19342.535    80.616032 
   66500    846.86524     -111.576   0.76626147   -110.80974    13197.936    4.3235413    4.3235413    4.3235413    13197.936   -16174.592    18798.751    36969.647   -3441.4032    8904.4596    2106.2161        80.82 
   66600    1279.1642   -111.96293    1.1574146   -110.80552   -14338.248     4.332954     4.332954     4.332954   -14338.248    -30135.43   -4060.5558   -8818.7581   -2775.4506   -16372.571    1722.9432    81.349001 
   66700    890.47247    -111.6173   0.80571821   -110.81158    8205.1245    4.3202208    4.3202208    4.3202208    8205.1245   -6804.4123    11285.664    20134.122    1027.1275    24262.429   -14290.856    80.633929 
   66800     1308.921   -111.99386    1.1843392   -110.80952   -1475.7408    4.3274443    4.3274443    4.3274443   -1475.7408   -15124.444    3098.5441    7598.6774   -11916.053    12049.941    6415.9639    81.039072 
   66900    1102.3477   -111.80659   0.99742741   -110.80916   -5478.0684    4.3271983    4.3271983    4.3271983   -5478.0684   -12571.661   -6692.4776    2829.9329   -123.59645     1644.393   -5936.5599    81.025254 
   67000     515.9881   -111.28303   0.46687687   -110.81615    2821.9988    4.3229982    4.3229982    4.3229982    2821.9988   -28292.431    13758.321    23000.106    1424.8837    20346.939   -17432.148    80.789547 
   67100    987.68007   -111.70186   0.89367368   -110.80819    1061.4726    4.3326128    4.3326128    4.3326128    1061.4726   -16830.724    10643.625    9371.5168   -16536.992   -1163.6847    5305.7893     81.32979 
   67200    1160.1754   -111.85963     1.049751   -110.80988    8714.7551    4.3193164    4.3193164    4.3193164    8714.7551    6161.2042    7948.6458    12034.415    5066.8994    3502.6811    -17711.69    80.583302 
   67300    874.01811   -111.60909   0.79082995   -110.81826    8272.4795    4.3217184    4.3217184    4.3217184    8272.4795    1052.7643    29437.686   -5673.0122    1174.0725    19457.108   -15095.067    80.717812 
   67400    1223.7499   -111.91521    1.1072747   -110.80794   -9251.1312    4.3350427    4.3350427    4.3350427   -9251.1312   -5501.1677    -19505.46   -2746.7657   -19958.815   -6211.3335    10377.298    81.466702 
   67500    1003.1194   -111.71638   0.90764353   -110.80874    693.49523    4.3177645    4.3177645    4.3177645    693.49523   -395.75366    2240.3034    235.93595    3255.5338    9387.7707   -19665.632    80.496471 
   67600    754.94424   -111.49847   0.68308942   -110.81538   -3098.9006    4.3216467    4.3216467    4.3216467   -3098.9006   -30198.089    25551.728   -4650.3402    -9449.073    16175.305   -11325.355      80.7138 
   67700    1021.0332   -111.73321   0.92385228   -110.80935    108.33145    4.3328039    4.3328039    4.3328039    108.33145   -5451.2914    -8298.029    14074.315   -14875.946    354.93392    11469.574    81.340548 
   67800    1110.6094   -111.81549    1.0049027   -110.81059   -1623.9142    4.3196745    4.3196745    4.3196745   -1623.9142    5621.2805     3885.822   -14378.845   -1844.3572    10312.643   -21773.975    80.603348 
   67900    951.68542   -111.67555   0.86110496   -110.81445    4212.2545    4.3229638    4.3229638    4.3229638    4212.2545    5877.5611    18368.716   -11609.513   -17386.331    10176.565   -5898.9089    80.787618 
   68000     1055.624   -111.76389   0.95515079   -110.80874    3807.0616    4.3279531    4.3279531    4.3279531    3807.0616    15201.703   -13779.449    9998.9306     -4351.54    3534.0349     4082.904    81.067662 
   68100    898.15351   -111.62545   0.81266817   -110.81278    -7913.698    4.3235764    4.3235764    4.3235764    -7913.698    2808.5073    811.90499   -27361.506    2187.3171    8294.5888   -27572.323    80.821967 
   68200    1097.4213    -111.8032   0.99296982   -110.81023   -4993.5606    4.3273048    4.3273048    4.3273048   -4993.5606   -19755.107    11207.654   -6433.2284   -17551.628    12768.894    7543.6779    81.031236 
   68300    1034.4779    -111.7444   0.93601731   -110.80838     13104.19    4.3233462    4.3233462    4.3233462     13104.19    25407.641   -2401.6299    16306.558    472.99911   -1012.5526   -9088.2067    80.809058 
   68400    801.07194   -111.53847   0.72482672   -110.81364   -12494.751    4.3253812    4.3253812    4.3253812   -12494.751     11187.73     -18411.3   -30260.684    8188.3052    9763.3424   -31643.768    80.923224 
   68500    1067.1995   -111.77474   0.96562458   -110.80912    332.34717    4.3273405    4.3273405    4.3273405    332.34717     7115.862    -2198.494   -3920.3265   -13023.875    9799.7469    10541.268    81.033243 
   68600     989.9212   -111.70509   0.89570151   -110.80939    8967.8502    4.3216509    4.3216509    4.3216509    8967.8502    25253.298   -11831.878     13482.13    2449.4244    4045.4591   -20007.448    80.714032 
   68700    902.79545    -111.6331   0.81686829   -110.81623   -10006.453    4.3252371    4.3252371    4.3252371   -10006.453    4789.3212   -7976.8937   -26831.787    4194.8079    12581.509   -27003.301    80.915133 
   68800    1343.3162   -112.02526    1.2154607    -110.8098   -254.72048    4.3273325    4.3273325    4.3273325   -254.72048   -18561.882    10287.465     7510.255   -10012.216    326.91939    2812.1756    81.032792 
   68900    973.67761    -111.6923   0.88100397   -110.81129    9920.5021    4.3231668    4.3231668    4.3231668    9920.5021    28447.562   -11154.095     12468.04    6828.6616    5182.6641   -21245.789    80.798997 
   69000    713.74983   -111.46072   0.64581585    -110.8149   -9626.8556    4.3243928    4.3243928    4.3243928   -9626.8556    17654.292    -25889.84   -20645.019   -8604.8002      18100.6    -6756.093    80.867758 
   69100    988.37048   -111.70381   0.89429838   -110.80952    3960.3791     4.326697     4.326697     4.326697    3960.3791   -928.35476    7533.5692     5275.923   -6387.8718   -3595.8753    3459.1759    80.997094 
   69200    928.02812    -111.6494   0.83969935    -110.8097    8636.9913    4.3250712    4.3250712    4.3250712    8636.9913    20555.707    6007.8754   -652.60859    3310.3069    2633.3219   -15955.405    80.905822 
   69300    1039.2072   -111.75191   0.94029655   -110.81161   -1013.4065    4.3254598    4.3254598    4.3254598   -1013.4065    10057.782    5803.1561   -18901.158   -8790.8567     25799.51    2088.6931    80.927631 
   69400    1404.8021   -112.07971    1.2710944   -110.80862    8146.4652     4.320837     4.320837     4.320837    8146.4652   -11466.093    22402.147    13503.342   -11125.691   -12297.168    7596.1196    80.668439 
   69500    904.90877   -111.63355   0.81878047   -110.81477    2743.4444    4.3235001    4.3235001    4.3235001    2743.4444    21536.328   -10372.639   -2933.3557   -1310.6628    6228.9419   -22243.945    80.817689 
   69600    851.66332   -111.58265   0.77060287   -110.81205   -12186.778    4.3298729    4.3298729    4.3298729   -12186.778    1069.6979   -24919.811   -12710.222    6357.1322    25397.085    922.90625    81.175586 
   69700    963.12784   -111.67839   0.87145831   -110.80693   -2544.5696    4.3231518    4.3231518    4.3231518   -2544.5696   -7836.1986    3899.0161   -3696.5263   -9456.8917   -25957.082    2691.0303    80.798155 
   69800    722.59819   -111.46695   0.65382203   -110.81313    2862.4369    4.3208618    4.3208618    4.3208618    2862.4369    14817.933    11286.346   -17516.968    3476.1356    13679.001   -16028.441    80.669825 
   69900    1269.8873   -111.95844    1.1490207   -110.80942    3981.5278    4.3276478    4.3276478    4.3276478    3981.5278   -5823.1939    13879.204    3888.5734    6395.1928    17422.016    3575.6932    81.050508 
   70000    1301.3131   -111.98814    1.1774555   -110.81068   -5173.1731    4.3266405    4.3266405    4.3266405   -5173.1731   -23060.802    18484.319   -10943.036    672.64555   -33057.731    -1430.876    80.993921 
   70100    901.85285   -111.63204   0.81601541   -110.81602    318.64583     4.320821     4.320821     4.320821    318.64583    7944.9979     6126.192   -13115.252   -1005.2407    19520.389   -8829.0139    80.667544 
   70200    1059.9835   -111.76986   0.95909538   -110.81077    1988.6584    4.3205153    4.3205153    4.3205153    1988.6584   -1398.7162    3630.4866    3734.2047    1551.4594    4464.4594   -6124.7888    80.650421 
   70300    688.08275   -111.43856   0.62259173   -110.81597   -13138.755    4.3290039    4.3290039    4.3290039   -13138.755   -15125.934    4793.8991   -29084.228   -1161.8604   -32327.214    -5044.194    81.126721 
   70400    853.24182   -111.58559   0.77203113   -110.81356    -6044.809    4.3261638    4.3261638    4.3261638    -6044.809   -144.13266   -2069.8253   -15920.469   -8351.9756    20602.374   -11506.794    80.967152 
   70500    1164.7521    -111.8627    1.0538921   -110.80881    4872.2573    4.3185942    4.3185942    4.3185942    4872.2573   -11795.005    11249.711    15162.066    14523.236   -3238.5535   -1711.6461    80.542884 
   70600    1112.1953   -111.82333    1.0063377   -110.81699   -10218.972    4.3247305    4.3247305    4.3247305   -10218.972   -20355.472    8826.0784   -19127.521   -8080.9881   -18682.074   -9598.5066    80.886704 
   70700    1181.2781   -111.88087    1.0688453   -110.81202   -7056.6502    4.3309444    4.3309444    4.3309444   -7056.6502    -4834.862   -2719.4406   -13615.648    3023.7747    23292.242   -11707.116    81.235867 
   70800    830.41049   -111.56367   0.75137286    -110.8123   -11122.392    4.3243197    4.3243197    4.3243197   -11122.392   -15512.255   -12154.011   -5700.9116    26048.749   -9625.0599    13883.269    80.863658 
   70900    670.55224    -111.4202   0.60672976   -110.81347   -5868.1113    4.3199903    4.3199903    4.3199903   -5868.1113    3494.8413    1515.6036   -22614.779   -12537.681   -14211.789   -14435.004    80.621023 
   71000    1058.2085   -111.76663   0.95748925   -110.80914   -9995.7132    4.3284397    4.3284397    4.3284397   -9995.7132    2472.4835    -19721.77   -12737.853    13471.192    14084.645    205.10249    81.095008 
   71100    905.08744   -111.63231   0.81894213   -110.81337   -21420.174    4.3300065    4.3300065    4.3300065   -21420.174   -30608.133   -18570.084   -15082.307    20689.527   -19174.744    14355.292    81.183104 
   71200    1192.0511   -111.88936    1.0785929   -110.81076    -2749.306    4.3170966    4.3170966    4.3170966    -2749.306   -799.60844    4795.3776   -12243.687   -17611.596   -19989.647   -14019.964    80.459122 
   71300    1202.8667   -111.90029    1.0883791   -110.81191   -1906.0385    4.3225701    4.3225701    4.3225701   -1906.0385   -7329.3798   -10311.797    11923.061    15482.039    2585.6628   -3589.9985    80.765546 
   71400    818.52964   -111.55601   0.74062282   -110.81538   -24496.129    4.3326117    4.3326117    4.3326117   -24496.129   -33221.087   -31479.539   -8787.7601    15406.312   -13918.715    3752.0421    81.329724 
   71500    814.26879   -111.54898   0.73676751   -110.81221   -3718.2653    4.3210406    4.3210406    4.3210406   -3718.2653    10815.244   -9721.0686   -12248.971   -20164.591   -8854.7479   -16242.116    80.679844 
   71600    1025.4394   -111.73831   0.92783909   -110.81048    -3.193654    4.3207152    4.3207152    4.3207152    -3.193654    7765.6438   -16534.889    8759.6647    20840.139    3278.0504    99.953038    80.661615 
   71700     1008.005   -111.72471   0.91206414   -110.81264   -11831.491    4.3284846    4.3284846    4.3284846   -11831.491   -25352.484   -6123.2871   -4018.7007    13198.844   -5617.8205   -3335.4471    81.097532 
   71800    829.71567   -111.56516   0.75074418   -110.81442    3942.8288    4.3241163    4.3241163    4.3241163    3942.8288     24074.88   -7556.4776   -4689.9157   -12354.949   -518.13268   -16062.348    80.852247 
   71900    1226.4674   -111.91988    1.1097334   -110.81014   -6629.7962    4.3235056    4.3235056    4.3235056   -6629.7962   -17655.301   -17877.277    15643.189    21434.985    4238.0852    7771.8219    80.817997 
   72000    942.54868   -111.66648   0.85283786   -110.81364    6439.8479    4.3231662    4.3231662    4.3231662    6439.8479    29715.723   -1779.8055   -8616.3735    4594.0629   -9995.2721   -10123.614    80.798967 
   72100    780.78812   -111.52433    0.7064735   -110.81785   -14802.487    4.3300903    4.3300903    4.3300903   -14802.487    3103.2436   -17080.454    -30430.25   -10127.883   -2077.2401   -17602.307    81.187817 
   72200     1331.576   -112.01301    1.2048379   -110.80817    5917.5956    4.3191992    4.3191992    4.3191992    5917.5956    4210.3318    12215.332    1327.1232    5548.6247   -572.20477    8389.5597     80.57674 
   72300    830.69421   -111.56731   0.75162958   -110.81568    5389.7832    4.3208471    4.3208471    4.3208471    5389.7832     12187.37     19282.75    -15300.77   -5326.6367    -14052.87   -14416.092    80.669003 
   72400     662.6133   -111.41803   0.59954644   -110.81848    -14783.44    4.3313016    4.3313016    4.3313016    -14783.44   -24748.788   -8519.6731   -11081.859   -16664.202   -2451.4735   -13806.927     81.25597 
   72500    1422.3856   -112.09381    1.2870044   -110.80681    12767.292    4.3171101    4.3171101    4.3171101    12767.292    10115.595    12804.972     15381.31   -2327.2196   -3054.0275     2457.959    80.459881 
   72600    970.39941   -111.69722   0.87803778   -110.81918   -1548.8426    4.3226227    4.3226227    4.3226227   -1548.8426    2940.4235    3160.1055   -10747.057   -5442.0405    -14239.43   -5499.2437    80.768496 
   72700    987.19764   -111.71169   0.89323717   -110.81845   -17568.056    4.3298014    4.3298014    4.3298014   -17568.056   -17035.265   -25045.627   -10623.275   -24160.712   -5269.0607    -8066.434    81.171565 
   72800    1252.7695    -111.9409    1.1335322   -110.80737    6868.1447    4.3201884    4.3201884    4.3201884    6868.1447    3495.7124    18047.712   -938.98997    5650.5231    5140.9538    10031.504    80.632119 
   72900    591.45876   -111.35116   0.53516431     -110.816   -14375.457    4.3261093    4.3261093    4.3261093   -14375.457   -18732.715    -3147.247    -21246.41   -9311.0086   -15725.837     -4270.37    80.964092 
   73000    790.72569   -111.53278   0.71546522   -110.81732   -4004.1483    4.3192372    4.3192372    4.3192372   -4004.1483   -20538.601    -8077.689    16603.845   -28109.981     5325.181   -4810.2475    80.578868 
   73100    1267.6596   -111.96256     1.147005   -110.81556   -1028.5811     4.327113     4.327113     4.327113   -1028.5811    15022.963    1933.0715   -20041.778    9658.3298    1276.3702    15928.958    81.020462 
   73200     1107.148   -111.82172    1.0017708   -110.81995   -17680.296    4.3267705    4.3267705    4.3267705   -17680.296   -12669.308   -21293.746   -19077.835   -24405.206   -15185.774   -8853.2769    81.001226 
   73300    927.49543   -111.65502   0.83921736    -110.8158    14776.531    4.3103181    4.3103181    4.3103181    14776.531    15080.255    6059.9885     23189.35   -22400.073    1091.1293   -1397.2554    80.080719 
   73400    1206.7871    -111.9045    1.0919263   -110.81257   -13876.123     4.333813     4.333813     4.333813   -13876.123   -699.30034   -15767.451   -25161.617    13204.336   -6367.6263    13384.143    81.397397 
   73500    585.56796   -111.34682    0.5298342   -110.81698   -1854.9236    4.3255462    4.3255462    4.3255462   -1854.9236    13586.197   -14651.392   -4499.5763    -30709.67   -10328.946   -6417.9158    80.932484 
   73600    817.54743   -111.55193    0.7397341    -110.8122    8617.1205    4.3110236    4.3110236    4.3110236    8617.1205    86.333216    4240.5922    21524.436   -7333.7115   -3264.1922     418.4866    80.120047 
   73700    1357.1322   -112.03788    1.2279617   -110.80992   -13923.831    4.3333695    4.3333695    4.3333695   -13923.831    8134.7363   -27717.765   -22188.463    20501.737   -3318.5131    11421.002    81.372411 
   73800    1170.9421   -111.87105     1.059493   -110.81156   -7024.9859    4.3246429    4.3246429    4.3246429   -7024.9859    8662.8587   -24416.794   -5321.0227   -33665.688   -6992.3039   -5362.7091    80.881792 
   73900    1015.0979   -111.73068   0.91848193    -110.8122   -1487.0898    4.3179863    4.3179863    4.3179863   -1487.0898   -8261.2028   -4147.7769    7947.7102    5517.6456    5519.6012    2590.9885    80.508878 
   74000    931.54065   -111.65501   0.84287755   -110.81214    -2873.072    4.3237415    4.3237415    4.3237415    -2873.072    3352.2115   -12361.919     390.4915    12998.297    3875.5389    7277.9783    80.831226 
   74100    738.53693   -111.48278   0.66824374   -110.81453    2882.5668    4.3226262    4.3226262    4.3226262    2882.5668    2525.1394   -1895.5302    8018.0912   -39776.731   -147.06558   -10756.888    80.768688 
   74200    943.30582   -111.66757   0.85352293   -110.81405   -17710.943    4.3314525    4.3314525    4.3314525   -17710.943   -26368.241     -10243.5   -16521.086     17730.01    735.89686    3040.7331    81.264461 
   74300    1201.8205   -111.89864    1.0874325   -110.81121    2300.9191    4.3189391    4.3189391    4.3189391    2300.9191    7042.7941   -371.35278      231.316   -6138.3367    13724.685    5833.6744    80.562185 
   74400    1135.1612   -111.84153    1.0271177   -110.81441    3270.7952    4.3184007    4.3184007    4.3184007    3270.7952    4864.0519   -8025.6526    12973.986   -19254.438    -3483.208    -13536.68    80.532059 
   74500    940.30844   -111.66707   0.85081084   -110.81626   -18857.243    4.3276407    4.3276407    4.3276407   -18857.243   -30403.626   -13580.965   -12587.138    20180.084   -12158.881    9376.4542    81.050109 
   74600    730.79031   -111.47656   0.66123443   -110.81532    9334.3284    4.3217311    4.3217311    4.3217311    9334.3284    19643.565    -4398.892    12758.313   -9266.9432    17870.097     6541.975    80.718528 
   74700    1178.9662    -111.8772    1.0667534   -110.81045   -2611.4924     4.323205     4.323205     4.323205   -2611.4924   -20388.404   -473.92043    13027.847   -7353.5798   -11291.121   -3668.7291     80.80114 
   74800    869.60448   -111.60498   0.78683641   -110.81814   -6556.4953    4.3230031    4.3230031    4.3230031   -6556.4953      8219.29   -8396.1106   -19492.665    18743.666   -3888.0503    10265.656    80.789822 
   74900     1132.396   -111.84325    1.0246157   -110.81863    3708.7564    4.3193834    4.3193834    4.3193834    3708.7564    12962.707   -8847.0159    7010.5777   -5922.4554    14600.957    6403.7841    80.587054 
   75000    1312.1421    -111.9988    1.1872537   -110.81154    1917.5967    4.3241705    4.3241705    4.3241705    1917.5967    5676.0373   -678.42958    755.18236   -10444.497   -10940.109    1741.2577    80.855285 
   75100    524.44779   -111.29415   0.47453138   -110.81962   -14694.541    4.3280319    4.3280319    4.3280319   -14694.541   -9500.4041    -10628.14   -23955.077    14833.317    2078.4806    7105.5917     81.07209 
   75200    968.84847   -111.69162   0.87663446   -110.81499    14811.673    4.3173508    4.3173508    4.3173508    14811.673    18502.396    4716.3968    21216.227   -3733.6592    18206.172    4210.7605    80.473338 
   75300    1403.0217   -112.08035    1.2694835   -110.81086    4100.7882    4.3219205    4.3219205    4.3219205    4100.7882    12215.285    3871.5646   -3784.4851   -4163.3204   -11763.719   -2986.8131     80.72914 
   75400    783.14227   -111.52998   0.70860359   -110.82137   -21644.075    4.3291599    4.3291599    4.3291599   -21644.075   -19085.633   -19260.831    -26585.76    19545.936    8921.0088    11722.931    81.135494 
   75500    1158.9317   -111.86226    1.0486258   -110.81364    16129.633    4.3143866    4.3143866    4.3143866    16129.633    18411.574    3306.0434    26671.282     833.6352     11198.16   -1520.6389    80.307698 
   75600     1088.971    -111.8014   0.98532386   -110.81608   -12371.877    4.3235982    4.3235982    4.3235982   -12371.877   -12574.354   -9594.6015   -14946.676    4882.5375    -16262.16   -9068.1101    80.823186 
   75700    414.95172   -111.19781   0.37545704   -110.82235   -12372.202    4.3286808    4.3286808    4.3286808   -12372.202   -19594.716   -8079.2175    -9442.671    15277.541    10913.332    12892.206    81.108557 
   75800    1314.0623   -111.99994    1.1889912   -110.81095    9339.6492    4.3142494    4.3142494    4.3142494    9339.6492    12439.679    5390.5442    10188.724   -2823.3554    1099.2477   -8836.5564    80.300035 
   75900    1231.8604   -111.92907    1.1146132   -110.81445   -3276.2647     4.325097     4.325097     4.325097   -3276.2647    16657.203   -11430.739   -15055.258     105.0701   -11747.975   -9745.6541    80.907269 
   76000     972.1004   -111.69558   0.87957687   -110.81601   -11569.324    4.3250631    4.3250631    4.3250631   -11569.324   -13332.518    -17366.96    -4008.494    14711.595    11499.768    12116.644    80.905368 
   76100    841.05023   -111.57524   0.76099992   -110.81424     2633.508     4.317647     4.317647     4.317647     2633.508    6539.4369   -12428.481    13789.569   -16441.541    4736.8072   -8349.1439      80.4899 
   76200    944.56914   -111.66872   0.85466601   -110.81406   -6337.7045    4.3242607    4.3242607    4.3242607   -6337.7045   -11886.517   -15245.204    8118.6072   -7747.1259   -4774.3292    -3520.671     80.86035 
   76300    867.31565    -111.6009   0.78476543   -110.81614    12809.651    4.3210689    4.3210689    4.3210689    12809.651    24449.336    1687.2111    12292.406    13206.943    14766.539    14269.625    80.681425 
   76400    1022.3695   -111.74288   0.92506142   -110.81781   -7996.9432    4.3268837    4.3268837    4.3268837   -7996.9432    -7040.652   -22150.223    5200.0456   -33121.651    8147.0489    -11351.32     81.00758 
   76500    1387.2358   -112.06472    1.2552001   -110.80952    11425.041    4.3217742    4.3217742    4.3217742    11425.041    37704.535   -10050.757    6621.3438    606.52689   -2190.6475    2103.0645    80.720944 
   76600     965.7976   -111.68992   0.87387397   -110.81605   -3384.8096    4.3165445    4.3165445    4.3165445   -3384.8096    4591.1811   -27487.936    12742.326   -2280.3986    9921.7283    4698.9268    80.428261 
   76700    392.29156   -111.17956   0.35495365    -110.8246   -21058.896    4.3286167    4.3286167    4.3286167   -21058.896   -28659.816   -38824.374    4307.5009   -32743.397    4105.7765   -13599.984    81.104957 
   76800    1299.3897   -111.98813    1.1757151   -110.81241    5588.3372    4.3200913    4.3200913    4.3200913    5588.3372    22619.977   -3590.6796   -2264.2858    12387.401   -5465.4822    1989.1999    80.626679 
   76900    1060.7548   -111.77753   0.95979325   -110.81773    4144.5396    4.3195667    4.3195667    4.3195667    4144.5396    13755.769   -15387.729    14065.579   -21500.844    1232.4758    2275.4042     80.59731 
   77000    977.06121   -111.70483   0.88406552   -110.82077   -16665.198    4.3296377    4.3296377    4.3296377   -16665.198   -15829.123   -25755.846   -8410.6258   -15432.033    631.13341   -17823.093    81.162362 
   77100    1326.5073   -112.00917    1.2002517   -110.80892    9328.2162     4.317691     4.317691     4.317691    9328.2162    40615.589   -12651.554     20.61324    7918.3145   -5737.8214    4495.4061    80.492361 
   77200    744.24706    -111.4896   0.67341038   -110.81619   -8216.6643    4.3198081    4.3198081    4.3198081   -8216.6643   -12487.309   -42282.419    30119.735   -29290.479     8049.372    4609.5155    80.610826 
   77300    686.25314   -111.43734   0.62093626    -110.8164   -19434.342    4.3281955    4.3281955    4.3281955   -19434.342   -24050.349   -20454.542   -13798.135   -6829.8567    4811.0688   -16882.367    81.081285 
   77400     1164.606   -111.86499      1.05376   -110.81123    8767.5951    4.3197041    4.3197041    4.3197041    8767.5951    20329.176    5067.2453    906.36367   -657.67725   -12710.249    6950.1406       80.605 
   77500     1214.802   -111.91292    1.0991783   -110.81374   -593.65867    4.3209393    4.3209393    4.3209393   -593.65867   -2237.9793   -14545.112    15002.115   -27633.771    17064.954    3074.3314    80.674168 
   77600    999.57759    -111.7207   0.90443881   -110.81626   -3046.0245    4.3236199    4.3236199    4.3236199   -3046.0245    9975.2412    4747.6212   -23860.936   -2624.4755    3762.5026   -8749.9214    80.824403 
   77700     1052.346   -111.76508   0.95218479    -110.8129    633.58672    4.3211435    4.3211435    4.3211435    633.58672    5803.5593   -8508.3541     4605.555    2842.4641    -15673.73    8943.4014    80.685609 
   77800    729.70584    -111.4748   0.66025318   -110.81455   -8157.2105    4.3242623    4.3242623    4.3242623   -8157.2105   -14195.694   -25092.863    14816.926    -16150.99    13547.635   -3432.2938     80.86044 
   77900    798.07441   -111.53795    0.7221145   -110.81584   -10629.511    4.3234533    4.3234533    4.3234533   -10629.511   -9499.8379    5787.6812   -28176.376    2544.5849    3144.9505   -7660.6895    80.815063 
   78000    1281.1338   -111.96945    1.1591968   -110.81025    12887.909    4.3212368    4.3212368    4.3212368    12887.909     15772.05    17684.288    5207.3874    5183.1632   -17913.795    5629.3059     80.69083 
   78100    1185.4289   -111.88563     1.072601   -110.81302   -6133.2616    4.3250462    4.3250462    4.3250462   -6133.2616   -496.71618   -3353.0637   -14550.005   -6004.1633    13359.683   -9535.4971    80.904418 
   78200    739.75415   -111.48578    0.6693451   -110.81644    -782.1635     4.321885     4.321885     4.321885    -782.1635    12480.469    15241.253   -30068.212    2757.6054     3955.908    -16604.52    80.727147 
   78300    1080.0187   -111.78849   0.97722366   -110.81127     1465.733     4.319106     4.319106     4.319106     1465.733   -4696.6044   -3448.4881    12542.291    2205.7328   -22809.745    3396.0077    80.571524 
   78400    743.98352   -111.49098   0.67317192   -110.81781   -13073.226    4.3261702    4.3261702    4.3261702   -13073.226   -5051.3532   -28579.864   -5588.4607   -278.42205    20918.429   -15046.994    80.967516 
   78500     966.2665   -111.69257   0.87429824   -110.81827   -4940.7316     4.320263     4.320263     4.320263   -4940.7316   -8505.8836    10839.106   -17155.417   -291.86749    2558.0741   -17450.282    80.636295 
   78600    1387.5122   -112.06746    1.2554502   -110.81201    6409.6306    4.3207019    4.3207019    4.3207019    6409.6306    1277.5763    11070.311    6881.0048    11145.679   -12058.217     7108.114    80.660871 
   78700      954.985    -111.6803   0.86409049   -110.81621   -18744.717    4.3270549    4.3270549    4.3270549   -18744.717   -1562.9164   -16799.537   -37871.697   -3859.1298    21501.857   -18741.662    81.017197 
   78800     758.4831   -111.50218   0.68629145   -110.81589   -1054.4266    4.3151993    4.3151993    4.3151993   -1054.4266    8166.3784    6070.9709   -17400.629   -1821.0363   -1248.4092   -6842.4303    80.353089 
   78900      993.201   -111.71457   0.89866913    -110.8159   -7703.4268     4.322755     4.322755     4.322755   -7703.4268   -19027.791   -17311.661    13229.172    20318.253   -9459.1376    3392.1636     80.77591 
   79000    943.55302   -111.67167    0.8537466   -110.81792   -18499.083    4.3268144    4.3268144    4.3268144   -18499.083    -1285.822   -29395.877    -24815.55   -5444.6468    14633.265    -21767.35     81.00369 
   79100    1191.5958   -111.89223    1.0781809   -110.81405    4653.0178    4.3150394    4.3150394    4.3150394    4653.0178   -4826.3028    12333.142    6452.2142    640.07177   -584.86357   -1969.3557    80.344158 
   79200    1133.9732   -111.84076    1.0260428   -110.81472   -9456.7291    4.3249923    4.3249923    4.3249923   -9456.7291    -11313.75   -10427.556   -6628.8811    21438.306   -15615.503    2449.7666    80.901394 
   79300    794.26934   -111.53547   0.71867159    -110.8168   -15155.147    4.3232915    4.3232915    4.3232915   -15155.147    3577.9615   -14821.582    -34221.82    2661.8536    17791.455   -22616.294    80.805993 
   79400    875.54578   -111.60675   0.79221222   -110.81454    4468.1559    4.3158439    4.3158439    4.3158439    4468.1559   -2721.2928    10963.557    5162.2032    4376.9932     1894.891   -3123.2636    80.389102 
   79500     926.0916   -111.65298   0.83794714   -110.81504   -9905.2075    4.3267556    4.3267556    4.3267556   -9905.2075   -23877.595   -18080.665    12242.638    19577.626   -13424.287     -169.521    81.000387 
   79600    976.71741   -111.70049   0.88375443   -110.81674   -7397.9965    4.3215366    4.3215366    4.3215366   -7397.9965    4694.3603   -12518.534   -14369.816     1313.246    22776.558   -28868.744    80.707631 
   79700    1339.4341   -112.02606    1.2119482   -110.81411    7512.0115    4.3178184    4.3178184    4.3178184    7512.0115     -7707.27    11637.472    18605.832    11675.884    1384.3336   -2717.1514    80.499491 
   79800    1055.3387   -111.77064   0.95489266   -110.81575   -5288.5723    4.3250254    4.3250254    4.3250254   -5288.5723   -5500.5968   -15381.497    5016.3765     15057.83   -1556.0097   -12067.502    80.903255 
   79900    740.78504   -111.48825   0.67027787   -110.81797   -14116.682    4.3200648    4.3200648    4.3200648   -14116.682    5611.8478   -19023.041   -28938.854   -11133.617    16663.798   -27502.863    80.625196 
   80000    926.98046   -111.65283    0.8387514   -110.81407    1353.5961    4.3228511    4.3228511    4.3228511    1353.5961   -5862.9198   -325.71359    10249.422    16107.451    1747.3598    11780.658      80.7813 
   80100    946.88661   -111.67213    0.8567629   -110.81537   -8052.9597    4.3210265    4.3210265    4.3210265   -8052.9597   -9638.8806   -27517.196    12997.198    12275.944    4966.0447    -21264.34    80.679053 
   80200    856.60327   -111.59548   0.77507264   -110.82041   -3468.8048     4.319283     4.319283     4.319283   -3468.8048    6182.0069   -369.84739   -16218.574   -11246.811    8840.0454   -14812.549     80.58143 
   80300    1414.2542   -112.09242    1.2796469   -110.81277   -5453.4026     4.326738     4.326738     4.326738   -5453.4026   -13896.265   -2122.2484   -341.69476    18355.936    4342.9419    17077.314    80.999401 
   80400    1075.0933   -111.78898   0.97276698   -110.81622    1210.9395    4.3177558    4.3177558    4.3177558    1210.9395    15307.762    -10467.81   -1207.1335    12287.878    -3426.138   -29590.093    80.495988 
   80500    873.02923   -111.60677    0.7899352   -110.81684   -8207.3058    4.3223646    4.3223646    4.3223646   -8207.3058   -7264.9627    8412.3849    -25769.34   -91.149184    13900.381   -8067.3477     80.75403 
   80600    870.89039   -111.60035   0.78799993   -110.81235   -668.91666    4.3237235    4.3237235    4.3237235   -668.91666   -2374.0365   -4703.7051    5070.9917    12857.824    957.44276     13357.48    80.830214 
   80700    774.80274   -111.51653    0.7010578   -110.81547    4967.0279    4.3164625    4.3164625    4.3164625    4967.0279    11824.769    5173.9389   -2097.6247    7541.2707   -6603.7263   -31268.813    80.423678 
   80800    1133.3697   -111.84122    1.0254967   -110.81572   -4738.7165    4.3256285    4.3256285    4.3256285   -4738.7165   -9772.8837    7785.3967   -12228.663    2208.7251    20622.324   -454.04385    80.937103 
   80900    1329.0699   -112.01755    1.2025704   -110.81498    8414.6979    4.3185861    4.3185861    4.3185861    8414.6979     3236.665    22073.989   -66.559804     3415.046   -10979.226    6259.4199    80.542435 
   81000    909.66616   -111.64276   0.82308506   -110.81967     2376.728    4.3199496    4.3199496    4.3199496     2376.728     7429.938     13929.21   -14228.964    6948.2079    1812.1576   -29511.894    80.618746 
   81100     1041.408   -111.75616   0.94228787   -110.81387   -13496.139    4.3265549    4.3265549    4.3265549   -13496.139   -21865.717   -4058.3422   -14564.359   -6664.5382    18406.259   -3338.2646    80.989114 
   81200      788.297   -111.52624   0.71326769   -110.81297    15165.355    4.3148424    4.3148424    4.3148424    15165.355    9109.1091    27635.338    8751.6169    4312.5763   -16575.862    4588.4198    80.333156 
   81300    793.78839   -111.53761   0.71823642   -110.81938   -12735.341    4.3243974    4.3243974    4.3243974   -12735.341    -3233.803   -18201.817   -16770.404    6605.0595    8688.8503   -28550.008    80.868015 
   81400    1270.6069   -111.96531    1.1496718   -110.81564    1108.1551    4.3244583    4.3244583    4.3244583    1108.1551   -12981.554    19506.706   -3200.6863   -13983.095    13006.923   -492.69073    80.871436 
   81500    1380.8495   -112.06253    1.2494216    -110.8131    12365.915    4.3155328    4.3155328    4.3155328    12365.915    9476.5605    29741.965   -2120.7804    9806.5171   -14264.633    4921.1413    80.371721 
   81600    642.31806   -111.40279   0.58118288   -110.82161   -21385.036    4.3262269    4.3262269    4.3262269   -21385.036   -19376.984   -19196.659   -25581.467    2758.1847    11044.617   -25098.745    80.970698 
   81700    829.49165   -111.56545   0.75054148   -110.81491   -3787.1735    4.3192181    4.3192181    4.3192181   -3787.1735   -23898.996    8687.5106    3849.9651   -6886.8459    14709.861    2480.1051    80.577798 
   81800     1084.352   -111.79409   0.98114445   -110.81294   -3500.9581    4.3221632    4.3221632    4.3221632   -3500.9581    786.57311   -3867.2426   -7422.2048    6559.6278   -14878.303   -4050.3892    80.742738 
   81900    772.71083   -111.51951     0.699165   -110.82034   -19413.181     4.326937     4.326937     4.326937   -19413.181    -6053.416   -20481.686   -31704.442    777.83587    18931.492   -23714.197    81.010576 
   82000    1402.9895   -112.08352    1.2694544   -110.81406    12814.086    4.3122834    4.3122834    4.3122834    12814.086    10849.403    18101.029    9491.8268   -4070.8157    12068.116    6193.2017    80.190308 
   82100    1221.6332   -111.92307    1.1053594   -110.81771    459.60578     4.323925     4.323925     4.323925    459.60578    6677.3936    12129.169   -17427.745   -1113.6933   -10729.086   -12187.475     80.84152 
   82200     526.3335   -111.29988   0.47623761   -110.82364   -13874.423    4.3230904    4.3230904    4.3230904   -13874.423   -11992.369   -17831.698     -11799.2   -55.159238    25579.709   -24932.682    80.794716 
   82300    832.17163   -111.56937   0.75296638    -110.8164    6774.5253     4.317897     4.317897     4.317897    6774.5253    1158.2836    7091.5367    12073.756   -10739.682   -1209.6129     18669.68    80.503886 
   82400    1174.2226   -111.87425    1.0624613   -110.81179   -4844.7514    4.3284306    4.3284306    4.3284306   -4844.7514   -5470.9494    8752.2972   -17815.602    314.22441   -2994.5897   -13074.957    81.094497 
   82500    1030.7603   -111.74975   0.93265357    -110.8171    11810.451    4.3159134    4.3159134    4.3159134    11810.451    21446.314    22384.865   -8399.8266     360.3588     22347.83   -12278.567    80.392987 
   82600    1121.4414   -111.83203    1.0147038   -110.81733    7849.0845    4.3204184    4.3204184    4.3204184    7849.0845    22612.298    8421.3418   -7486.3861   -10658.532   -5026.9596    23498.137    80.644997 
   82700    1038.7971   -111.75227   0.93992541   -110.81235   -3581.1155    4.3266887    4.3266887    4.3266887   -3581.1155    2431.1856    4857.7401   -18032.272   -841.83631    3852.5127   -4861.1197    80.996628 
   82800    700.50494   -111.44619   0.63383159   -110.81236    7770.2907    4.3177461    4.3177461    4.3177461    7770.2907    15115.991    9964.3032   -1769.4217    6625.9053    16254.853   -2747.3975    80.495444 
   82900    874.36831   -111.60519   0.79114682   -110.81405   -14826.711    4.3293356    4.3293356    4.3293356   -14826.711   -12948.318   -23582.097   -7949.7194   -1942.7603   -5550.1041    22737.212    81.145373 
   83000     1428.287   -112.10187    1.2923441   -110.80953      5926.97    4.3203391    4.3203391    4.3203391      5926.97    7966.0018     18083.95   -8269.0418     806.2862    9178.6458   -2722.0417    80.640553 
   83100    1219.5021    -111.9164    1.1034312   -110.81297    16359.596    4.3166851    4.3166851    4.3166851    16359.596    29909.934    24885.762   -5716.9093    2768.7083    12545.154    9647.0794    80.436117 
   83200    907.65815   -111.63675   0.82126817   -110.81548   -17229.825     4.332913     4.332913     4.332913   -17229.825   -5044.0527   -29573.339   -17072.083    2923.7729   -9295.3569    18873.476    81.346693 
   83300    923.41334   -111.64551    0.8355238   -110.80999    9437.5454     4.317555     4.317555     4.317555    9437.5454     17842.37    15453.345   -4983.0785   -4425.1263    17215.207   -8737.1573    80.484758 
   83400    851.76077   -111.58259   0.77069104    -110.8119    3305.2238    4.3189209    4.3189209    4.3189209    3305.2238     9394.195     4258.152   -3736.6757   -875.05376     8486.531    17347.746    80.561168 
   83500    799.48577   -111.53828   0.72339152   -110.81489   -14584.665    4.3308075    4.3308075    4.3308075   -14584.665   -24561.337   -27052.008    7859.3506     2726.604   -3975.6391    14895.781    81.228165 
   83600    1245.7941   -111.93872    1.1272207    -110.8115    19519.579    4.3141893    4.3141893    4.3141893    19519.579    13238.758    29466.726    15853.253   -6257.2747    25736.167   -14441.271    80.296679 
   83700    1263.7309   -111.95655    1.1434502    -110.8131    7603.5316    4.3237108    4.3237108    4.3237108    7603.5316    8439.7167   -4768.7786    19139.657    1820.7886    5541.0143    18803.636    80.829502 
   83800    872.01724   -111.60424   0.78901953   -110.81523    -12070.98    4.3290734    4.3290734    4.3290734    -12070.98   -13495.264    -35936.87    13219.195    4187.7679   -471.23723      10395.2    81.130631 
   83900    890.52292   -111.61532   0.80576385   -110.80956    12932.175    4.3130577    4.3130577    4.3130577    12932.175    12823.879    8760.2578    17212.386    -1584.645    16871.942   -7809.7233    80.233512 
   84000    868.28467   -111.59802   0.78564222   -110.81238   -9144.4932    4.3248792    4.3248792    4.3248792   -9144.4932   -16261.773   -23664.265    12492.558    8673.0981   -1434.3234    3037.6744    80.895048 
   84100    893.23379   -111.62277   0.80821671   -110.81456   -12631.367    4.3249099    4.3249099    4.3249099   -12631.367   -33784.273    -13066.19    8956.3619     1690.315   -8411.5611    10799.224    80.896775 
   84200    1266.0805   -111.95739    1.1455762   -110.81182    10248.146    4.3163253    4.3163253    4.3163253    10248.146    4418.6519    14771.416    11554.369   -2036.7943    6877.6143   -18368.767    80.416006 
   84300    1168.4431   -111.87301    1.0572318   -110.81578   -10973.711    4.3265913    4.3265913    4.3265913   -10973.711   -4910.6368   -25832.975   -2177.5203    11035.297    -7940.972    -8567.345     80.99116 
   84400    951.56227   -111.67583   0.86099354   -110.81484    7020.9878    4.3195113    4.3195113    4.3195113    7020.9878   -2531.0085    242.69081    23351.281   -3468.6648   -13056.819    10208.785    80.594213 
   84500    965.50074   -111.68649   0.87360536   -110.81288    971.08692    4.3195719    4.3195719    4.3195719    971.08692    15125.855   -6752.9345   -5459.6592   -3354.2065    9328.7952   -27975.284    80.597601 
   84600      715.414   -111.46278   0.64732162   -110.81545   -18500.855    4.3277302    4.3277302    4.3277302   -18500.855   -36437.419   -29086.243    10021.098    9156.8915   -5351.5625   -4813.2383    81.055134 
   84700    952.06678   -111.67372   0.86145003   -110.81227    2901.7679    4.3160184    4.3160184    4.3160184    2901.7679   -21623.706    14488.442    15840.568   -5329.6371   -12896.088   -96.921324    80.398855 
   84800    1141.9391   -111.84857    1.0332505   -110.81532   -7714.0958    4.3215435    4.3215435    4.3215435   -7714.0958    4388.6652   -9321.9868   -18208.966    982.24943    7987.1927   -33060.176    80.708017 
   84900    1124.5007   -111.83118    1.0174719   -110.81371   -8145.9401    4.3256245    4.3256245    4.3256245   -8145.9401   -11947.048   -18078.347    5587.5749    10042.736    547.38943    2039.8413    80.936878 
   85000     1059.023   -111.76968   0.95822627   -110.81145    7044.8993    4.3141819    4.3141819    4.3141819    7044.8993    13045.805    11896.637   -3807.7441   -3794.2609   -14301.753   -5725.5134    80.296269 
   85100    823.51321   -111.56119   0.74513205   -110.81606   -3571.3732    4.3239139    4.3239139    4.3239139   -3571.3732    10204.373   -13523.694   -7394.7984    3785.7948    -309.7762    -30920.15    80.840893 
   85200    1017.6449   -111.73414   0.92078649   -110.81335   -3280.1916    4.3233039    4.3233039    4.3233039   -3280.1916    -40327.95   -250.41614    30737.791    7837.1307   -1700.9357    9902.4378    80.806684 
   85300    800.56025   -111.53889   0.72436374   -110.81452    4476.2268    4.3184227    4.3184227    4.3184227    4476.2268   -20895.188    22685.251    11638.617   -10147.567   -10263.929   -16483.755    80.533289 
   85400    1074.6112   -111.78598   0.97233082   -110.81365   -7823.2009    4.3260758    4.3260758    4.3260758   -7823.2009   -1093.0696    -18230.07    -4146.463     2885.167    2086.3795   -38498.155    80.962212 
   85500    1331.0683    -112.0129    1.2043786   -110.80852    4074.4889    4.3207104    4.3207104    4.3207104    4074.4889   -11411.065    16547.164     7087.368   -1946.0122   -5295.7123    10080.999    80.661349 
   85600    778.67426   -111.52099   0.70456083   -110.81643   -3124.3491    4.3229155    4.3229155    4.3229155   -3124.3491    11977.841    7879.3273   -29230.215   -9468.7125   -4268.1845   -33144.701     80.78491 
   85700    1133.8778   -111.83833    1.0259565   -110.81238    1419.6921    4.3226422    4.3226422    4.3226422    1419.6921    11409.448   -2519.1101   -4631.2617     9409.471    7414.5348   -21933.291    80.769586 
   85800    1106.2916    -111.8115    1.0009959   -110.81051    14643.693    4.3191511    4.3191511    4.3191511    14643.693    -30158.68    43999.249    30090.511   -2802.0636   -7645.2121    10426.782    80.574051 
   85900    688.60079   -111.44245   0.62306047   -110.81939   -16149.852     4.327687     4.327687     4.327687   -16149.852   -18429.571   -20300.617   -9719.3673   -6303.7296   -7758.3603   -39242.033    81.052709 
   86000     1234.409   -111.92695    1.1169192   -110.81003    6937.1469    4.3218778    4.3218778    4.3218778    6937.1469    200.51755    23932.116   -3321.1924    8341.2373    11508.186    257.21824    80.726748 
   86100    1003.4023   -111.71887   0.90789953   -110.81098    3159.8016    4.3227944    4.3227944    4.3227944    3159.8016   -1829.6761    22968.029   -11658.948   -8784.2511   -3099.8414    -8394.147    80.778121 
   86200    727.45428   -111.47779   0.65821592   -110.81957   -21897.797    4.3242551    4.3242551    4.3242551   -21897.797    10786.448     -27808.2   -48671.638   -9759.3579   -2029.8734   -41808.925    80.860032 
   86300    1297.4404   -111.98508    1.1739513   -110.81113    21981.073    4.3148284    4.3148284    4.3148284    21981.073    7427.3263    46872.233     11643.66    1658.2187    7244.8763    6536.6707    80.332372 
   86400    1070.9386   -111.78722   0.96900777   -110.81821   -13582.636    4.3292848    4.3292848    4.3292848   -13582.636   -14937.014   -16860.874   -8950.0202   -8581.4632    -5869.722    -25326.77    81.142518 
   86500     640.0327   -111.39865   0.57911504   -110.81954   -20650.672    4.3273642    4.3273642    4.3273642   -20650.672   -19836.659   -22555.886    -19559.47   -7184.7466    7500.2202   -30047.533    81.034573 
   86600    1241.0933   -111.92983    1.1229673   -110.80686    19912.745    4.3103066    4.3103066    4.3103066    19912.745    4715.3644    45789.811    9233.0595    6024.4832    11088.239    14183.159    80.080078 
   86700     863.3055   -111.59924   0.78113695    -110.8181   -13131.409    4.3241236    4.3241236    4.3241236   -13131.409    11096.019   -8447.7957   -42042.448   -4242.5375    -9583.938   -29172.926    80.852657 
   86800    790.09219   -111.53512   0.71489202   -110.82023   -13896.162    4.3271651    4.3271651    4.3271651   -13896.162   -9919.5668    4405.3141   -36174.234   -5790.6999     11643.29   -17624.831     81.02339 
   86900    1510.7872   -112.17471     1.366992   -110.80771    5839.6337    4.3211373    4.3211373    4.3211373    5839.6337   -4301.9359    16748.472    5072.3655    7074.2725    17670.932    13863.084    80.685258 
   87000    936.00116   -111.66143   0.84691352   -110.81452   -6698.9899    4.3230431    4.3230431    4.3230431   -6698.9899    7409.2558   -10426.116    -17080.11    -8827.595   -11486.922   -35279.652    80.792061 
   87100    846.87045   -111.58163   0.76626618   -110.81536   -4928.6371    4.3176046    4.3176046    4.3176046   -4928.6371   -20031.377    3547.7172     1697.749   -6650.7396    11849.264   -6239.1896     80.48753 
   87200    927.19151   -111.65164   0.83894237    -110.8127    -2850.193    4.3250306    4.3250306    4.3250306    -2850.193   -8770.7017    8957.6873   -8737.5644    7506.8273    7367.8469   -1315.9299    80.903547 
   87300    792.22638   -111.53244   0.71682307   -110.81561   -6754.0315    4.3233721    4.3233721    4.3233721   -6754.0315    10224.461    2995.3453   -33481.901   -3433.3025   -7563.1509   -29059.909    80.810511 
   87400     1138.579   -111.84403    1.0302102   -110.81382    10678.228    4.3138597    4.3138597    4.3138597    10678.228    3617.6276     23328.56    5088.4953   -5346.9858    12315.403    2792.7631     80.27828 
   87500    1258.0124   -111.95069     1.138276   -110.81242    1240.7531     4.328821     4.328821     4.328821    1240.7531    1451.6728    7769.3981   -5498.8115    8533.9476   -469.17796   -14802.438    81.116441 
   87600     1004.614   -111.72251   0.90899585   -110.81351   -6608.1724    4.3262915    4.3262915    4.3262915   -6608.1724    -2329.739   -5661.8307   -11832.947   -3954.3371    5956.4748   -20433.479    80.974324 
   87700    988.89139   -111.70296   0.89476971   -110.80819    8828.1402    4.3126421    4.3126421    4.3126421    8828.1402    -6292.845    18493.214    14284.052   -17810.956    20194.157    7392.1689     80.21032 
   87800    797.59158   -111.53359   0.72167763   -110.81191   -3109.9946    4.3255917    4.3255917    4.3255917   -3109.9946   -3726.4532    10557.628   -16161.158    10501.694   -2096.2945   -17049.629    80.935039 
   87900    921.51682   -111.64762   0.83380779   -110.81381   -7034.0759     4.324978     4.324978     4.324978   -7034.0759   -13984.661   -2292.2361   -4825.3306   -3358.3309    5417.8909   -16678.428    80.900592 
   88000    1144.4469   -111.84738    1.0355196   -110.81186     18972.09    4.3163037    4.3163037    4.3163037     18972.09    11449.307    33056.121    12410.843   -12792.311    21590.385    10989.264      80.4148 
   88100    1097.8656   -111.80773   0.99337189   -110.81436   -207.33582    4.3247104    4.3247104    4.3247104   -207.33582    15387.646   -13292.891   -2716.7626     17121.16   -10941.879   -16737.396    80.885575 
   88200    980.67023   -111.70085   0.88733103   -110.81352    1139.5786    4.3216599    4.3216599    4.3216599    1139.5786    8125.4589   -15852.128    11145.404    338.46944    2464.6834   -12472.867    80.714534 
   88300    1139.6481   -111.84075    1.0311775   -110.80957    4885.9572     4.320705     4.320705     4.320705    4885.9572    2193.9421    19197.421    -6733.491     -2435.06    16924.152    6883.6606    80.661048 
   88400    701.19616   -111.45124   0.63445702   -110.81678   -6224.8351    4.3244842    4.3244842    4.3244842   -6224.8351   -3626.5968   -14476.173   -571.73573    15422.328   -5421.4483   -19713.457    80.872888 
   88500    1034.1283   -111.75148     0.935701   -110.81578   -4046.5877    4.3201734    4.3201734    4.3201734   -4046.5877   -11758.644     9911.425   -10292.544    3584.1203    10680.345   -1564.0893    80.631274 
   88600    1247.8453      -111.94    1.1290766   -110.81092    8152.3601    4.3196961    4.3196961    4.3196961    8152.3601    7554.0758    25458.887    -8555.882   -4143.5947     13089.93   -5808.8015    80.604557 
   88700     716.6621   -111.46849   0.64845093   -110.82004   -11380.945    4.3241057    4.3241057    4.3241057   -11380.945    6344.9218   -48138.792    7651.0354    14541.175   -4445.8381   -14159.524    80.851651 
   88800     1268.302    -111.9613    1.1475863   -110.81371   -7798.9264    4.3248813    4.3248813    4.3248813   -7798.9264    40.233099   -13378.046   -10058.967    5064.3504    12427.575    6866.4111    80.895165 
   88900    1152.6134   -111.85437    1.0429088   -110.81146    7103.6635    4.3186186    4.3186186    4.3186186    7103.6635    3409.7062    8584.2318    9317.0524   -5944.7872    7123.8426   -13243.123    80.544253 
   89000    545.97526   -111.31529   0.49400989   -110.82128   -15537.918    4.3217768    4.3217768    4.3217768   -15537.918   -2719.9313   -23443.923   -20449.899    16451.928   -7246.7441   -8129.0849    80.721086 
   89100    1237.9157   -111.93293    1.1200921   -110.81283   -6022.5065    4.3243387    4.3243387    4.3243387   -6022.5065   -13273.761    20252.446   -25046.204   -4678.5938    5067.7874     6456.945    80.864724 
   89200    888.66849    -111.6188   0.80408592   -110.81472     2182.501    4.3218478    4.3218478    4.3218478     2182.501    2285.3319   -5714.8985    9977.0695   -5534.8428    4679.9167   -14558.748    80.725067 
   89300    777.76681   -111.52252   0.70373976   -110.81878   -20853.341    4.3258877    4.3258877    4.3258877   -20853.341    1746.8851   -41226.631   -23080.276    16453.228   -9389.0777   -13776.113    80.951655 
   89400     1385.421   -112.06338    1.2535581   -110.80982    8675.9053    4.3179182    4.3179182    4.3179182    8675.9053    5164.4092    -119.6326    20982.939   -14012.106   -2125.7368    12178.572    80.505068 
   89500    931.78948   -111.66123    0.8431027   -110.81813    2510.9756      4.32018      4.32018      4.32018    2510.9756    5007.7345   -1840.9803    4366.1726   -7305.9267    269.22495   -12572.985    80.631648 
   89600    948.10623    -111.6735   0.85786644   -110.81563   -14102.692    4.3294393    4.3294393    4.3294393   -14102.692   -3550.4575    7862.9979   -46620.618    16070.592   -14671.347   -14262.478    81.151204 
   89700    1038.6965    -111.7502   0.93983446   -110.81037    9742.4872     4.319037     4.319037     4.319037    9742.4872    113.38709    27612.933    1501.1416    -20503.06   -1674.8127     6865.379    80.567664 
   89800    823.43318   -111.55947   0.74505965   -110.81441   -6554.5047    4.3201959    4.3201959    4.3201959   -6554.5047    -6624.758   -4326.3308   -8712.4254    -6610.808   -1068.5581    -16878.62    80.632538 
   89900    1031.2335   -111.74648   0.93308173    -110.8134   -9732.6659    4.3253544    4.3253544    4.3253544   -9732.6659   -605.38059   -9754.8728   -18837.744    13773.537   -14015.265   -11069.492    80.921716 
   90000    1160.6927   -111.86177    1.0502192   -110.81155    9159.6924    4.3205959    4.3205959    4.3205959    9159.6924   -13065.719    12338.388    28206.408     -27555.7    4988.6705   -3028.8733    80.654935 
   90100    1048.6666   -111.76267   0.94885556   -110.81381   -696.01166    4.3245109    4.3245109    4.3245109   -696.01166   -5789.9304    10798.715   -7096.8196    99.430642    1789.3981   -12076.923    80.874384 
   90200    1139.6278   -111.84248    1.0311592   -110.81132    4882.5516    4.3207473    4.3207473    4.3207473    4882.5516    11463.242    27464.727   -24280.315    3054.9237    -14769.86   -778.56693    80.663417 
   90300    853.77936   -111.58639   0.77251751   -110.81387     8797.756    4.3221334    4.3221334    4.3221334     8797.756   -12184.374    29366.587    9211.0544   -27483.459    3335.9288    3385.1976    80.741072 
   90400    862.76521    -111.5926   0.78064809   -110.81195   -6783.1627    4.3273853    4.3273853    4.3273853   -6783.1627    3172.2762   -5893.5147   -17628.249     11711.82   -416.85619   -16536.306    81.035757 
   90500    923.04179   -111.64482   0.83518761   -110.80963    5993.6215    4.3188484    4.3188484    4.3188484    5993.6215    4058.1735    9518.5574    4404.1336   -8688.0038   -10920.002    1781.7311    80.557111 
   90600     1004.935   -111.72303   0.90928629   -110.81374    5318.0614    4.3207204    4.3207204    4.3207204    5318.0614   -22308.486    12083.982    26178.688   -23265.783    4296.2606    211.85514    80.661909 
   90700    1141.4586   -111.84436    1.0328157   -110.81154   -438.07421    4.3288349    4.3288349    4.3288349   -438.07421   -517.14747    16764.839   -17561.914    14853.095   -1587.1223   -20754.062     81.11722 
   90800    1106.4475   -111.81326     1.001137   -110.81213    1725.2662     4.320947     4.320947     4.320947    1725.2662   -9603.8793    23501.081   -8721.4032   -19865.692   -5460.3068   -161.03214    80.674602 
   90900    1019.3698   -111.73526   0.92234722   -110.81292    4266.1126    4.3150927    4.3150927    4.3150927    4266.1126   -15527.498    11654.331    16671.504   -25980.727    7686.9194   -4051.1499    80.347135 
   91000    806.38454   -111.54587   0.72963367   -110.81623     -7367.57    4.3247523    4.3247523    4.3247523     -7367.57   -3759.2294    3307.7518   -21651.232    13875.292   -24.752838   -17184.451    80.887929 
   91100    916.55763   -111.64486   0.82932061   -110.81554   -18218.748    4.3304384    4.3304384    4.3304384   -18218.748   -37442.554   -12065.173   -5148.5168   -23852.769   -7228.1308    68.458472    81.207399 
   91200    1132.7858   -111.83735    1.0249684   -110.81238    15550.225    4.3169425    4.3169425    4.3169425    15550.225   -12763.276    34041.915    25372.034   -12922.555    3471.0115    -1351.388    80.450507 
   91300    1114.4939   -111.82431    1.0084175   -110.81589   -5368.7582    4.3222228    4.3222228    4.3222228   -5368.7582    1445.9603   -1109.8434   -16442.391    22535.327   -3909.1795   -19222.852    80.746083 
   91400     954.9211   -111.67926   0.86403268   -110.81523   -14039.317    4.3277498    4.3277498    4.3277498   -14039.317   -22549.269   -7014.6349   -12554.048   -29022.215   -8286.7272    4480.9064    81.056235 
   91500    1101.5733   -111.80739   0.99672668   -110.81066    6990.4766    4.3152194    4.3152194    4.3152194    6990.4766    14026.532   -1604.5103     8549.408   -11582.513    2072.8442   -9261.9186    80.354212 
   91600    756.38708   -111.50184   0.68439493   -110.81744   -11219.163    4.3242843    4.3242843    4.3242843   -11219.163   -2740.7006   -7443.8395   -23472.948    6714.8061   -9049.8051    -22143.22    80.861674 
   91700    845.65733   -111.58082   0.76516853   -110.81566   -11727.303    4.3284107    4.3284107    4.3284107   -11727.303   -43048.226   -1798.7474     9665.064   -30280.324   -9228.9148    9524.6165    81.093376 
   91800    1196.5897   -111.89343    1.0826995   -110.81073    8797.1937      4.31688      4.31688      4.31688    8797.1937    1951.4785     10353.96    14086.143   -5226.6719    2765.0658   -18065.729    80.447013 
   91900      991.286   -111.71405    0.8969364   -110.81711   -3556.1624    4.3196836    4.3196836    4.3196836   -3556.1624    -3006.785    1325.4119    -8987.114    3221.6049   -5812.9622   -12058.587    80.603854 
   92000    1006.7428   -111.72752   0.91092206    -110.8166   -13005.735    4.3243921    4.3243921    4.3243921   -13005.735   -25335.228   -9757.3877   -3924.5897   -22452.926   -5853.8849    5124.7649     80.86772 
   92100    923.99558   -111.65051   0.83605062   -110.81446    2717.6752      4.32409      4.32409      4.32409    2717.6752    12019.317    8370.8041   -12237.095    5970.0799    10187.922   -18294.003    80.850772 
   92200    1106.5308   -111.81422    1.0012123   -110.81301   -5756.0801    4.3201741    4.3201741    4.3201741   -5756.0801   -12942.847   -2826.0268   -1499.3661   -14306.636   -5243.9537   -7258.2352    80.631313 
   92300    955.43862   -111.68108   0.86450094   -110.81658    994.37016     4.320487     4.320487     4.320487    994.37016   -40149.921    15616.442    27516.589   -20817.036    2139.6221    4964.4612    80.648834 
   92400    1025.3301   -111.74346   0.92774021   -110.81572    262.19372    4.3222817    4.3222817    4.3222817    262.19372   -4427.4736    3852.0317    1362.0231    3666.2989    9156.6837   -16508.738    80.749381 
   92500    1124.3577   -111.83002    1.0173425   -110.81268   -4377.4113    4.3240278    4.3240278    4.3240278   -4377.4113   -7410.7305   -2189.0666   -3532.4368    -19113.44   -5970.9621   -3023.9533    80.847286 
   92600    858.01458   -111.59088   0.77634962   -110.81453   -786.41377    4.3237607    4.3237607    4.3237607   -786.41377   -9957.4838    5102.4748    2495.7676   -18331.759    5311.7205    1344.4255      80.8323 
   92700    1056.3976   -111.76878   0.95585072   -110.81293    3191.6633    4.3172555    4.3172555    4.3172555    3191.6633    25348.052    1514.1266   -17287.189    15135.079    6515.8135   -29523.169    80.468011 
   92800    1037.5071   -111.75253   0.93875823   -110.81378     875.6292    4.3271366    4.3271366    4.3271366     875.6292   -13590.491    3980.9229    12236.456   -21078.647   -5564.4546    7503.2941    81.021785 
   92900    1057.2513    -111.7705   0.95662319   -110.81387   -7396.7708    4.3240098    4.3240098    4.3240098   -7396.7708   -24268.173   -15171.797    17249.658   -15798.136     5264.159   -10015.007    80.846276 
   93000    935.85063   -111.65941   0.84677732   -110.81264    14403.003    4.3125558    4.3125558    4.3125558    14403.003    22704.218    22675.046   -2170.2559    7421.5806    9219.4443   -21191.966    80.205508 
   93100    828.54618   -111.56607   0.74968599   -110.81638   -7137.0175    4.3278063    4.3278063    4.3278063   -7137.0175   -6836.0711   -12412.013   -2162.9688   -31233.989   -885.12921    17306.704    81.059411 
   93200    973.68026   -111.69482   0.88100636   -110.81381    218.16252    4.3225038    4.3225038    4.3225038    218.16252    11020.622    1194.8697   -11561.004   -12335.603    9430.9837   -9481.0353    80.761828 
   93300    947.65162   -111.67121    0.8574551   -110.81376    14814.716    4.3183115    4.3183115    4.3183115    14814.716    25903.758     34186.09     -15645.7   -1137.5692    8649.7236   -12125.301     80.52707 
   93400    1099.5249   -111.81138   0.99487326    -110.8165   -13731.169    4.3262206    4.3262206    4.3262206   -13731.169    -26114.76   -35407.537    20328.791   -28019.224    944.19776    13601.966    80.970346 
   93500    1184.7646   -111.88488    1.0719999   -110.81288    19271.584    4.3158224    4.3158224    4.3158224    19271.584    15192.166    31085.089    11537.498   -381.76263    8556.3912   -12700.961    80.387901 
   93600    1126.6181     -111.834    1.0193878   -110.81461   -8305.9569     4.327574     4.327574     4.327574   -8305.9569    2583.2258   -4861.0931   -22640.004   -3383.5717   -1085.9207   -12974.026    81.046357 
   93700    599.76255   -111.36132   0.54267776   -110.81865    -15729.52    4.3250482    4.3250482    4.3250482    -15729.52   -14041.524   -19359.276    -13787.76   -28320.574    -1318.057    10757.565    80.904534 
   93800    988.93099   -111.70594   0.89480554   -110.81114    23178.071    4.3108837    4.3108837    4.3108837    23178.071    36406.285    49322.565   -16194.637    9356.6219    4002.5656   -10803.671     80.11225 
   93900    1125.3838   -111.83422    1.0182709   -110.81595   -15927.539    4.3298999    4.3298999    4.3298999   -15927.539   -8213.0312   -22974.521   -16595.064   -23376.742   -5416.8106   -7147.7386    81.177107 
   94000    844.50281   -111.58382   0.76412389    -110.8197    3189.3802    4.3227152    4.3227152    4.3227152    3189.3802   -10281.766   -4871.8308    24721.738   -30762.322   -442.25563    8266.5809     80.77368 
   94100     1534.066   -112.19667    1.3880551   -110.80862    17248.712    4.3176128    4.3176128    4.3176128    17248.712    25515.934    7767.6224    18462.579    20429.317    1802.4634   -878.50327    80.487987 
   94200    932.64094   -111.65938   0.84387312    -110.8155   -15358.184    4.3289094    4.3289094    4.3289094   -15358.184   -11467.532   -27612.902   -6994.1194   -36114.849   -9038.9962    883.92729    81.121408 
   94300    570.16965   -111.33327   0.51590148   -110.81737    2263.8209    4.3164498    4.3164498    4.3164498    2263.8209    6200.1815    11918.913   -11327.632   -11074.362   -1656.9373    4954.5982    80.422964 
   94400    1138.6231   -111.84182    1.0302501   -110.81157   -4301.2432    4.3240651    4.3240651    4.3240651   -4301.2432    11168.492    1652.1402   -25724.361    20251.288    -488.5578   -660.86969    80.849376 
   94500    717.59479    -111.4673   0.64929485     -110.818   -7644.7632    4.3255336    4.3255336    4.3255336   -7644.7632   -19300.491   -3014.3547   -619.44378   -46240.795   -7721.2746    1864.5305    80.931775 
   94600    1118.3751   -111.82838    1.0119293   -110.81645    7608.5045    4.3166934    4.3166934    4.3166934    7608.5045    1907.8621   -3417.3783     24335.03    4427.9932   -1851.2395     648.0116    80.436582 
   94700    1372.6108   -112.05459    1.2419671   -110.81262   -176.53491    4.3267543    4.3267543    4.3267543   -176.53491    7282.2929   -20058.879    12246.981    12165.051    2926.0083   -1030.3118    81.000314 
   94800    836.09484   -111.57659   0.75651618   -110.82007    4623.0963    4.3183946    4.3183946    4.3183946    4623.0963   -4912.0678   -936.26715    19717.624   -43500.821   -1971.6393    1022.1913    80.531721 
   94900    985.31286   -111.70901   0.89153178   -110.81748    2310.7511    4.3201866    4.3201866    4.3201866    2310.7511    13393.613    2015.1755   -8476.5351    20132.511   -3240.1782   -1325.8798    80.632014 
   95000    926.22984   -111.65246   0.83807222   -110.81438   -4195.7532    4.3263057    4.3263057    4.3263057   -4195.7532   -4678.7148    11538.119   -19446.663    3103.3896    4376.0481    2682.7786    80.975122 
   95100    780.80554   -111.52427   0.70648926   -110.81778    1931.6371     4.318973     4.318973     4.318973    1931.6371   -8824.4549     7306.838    7312.5284   -45357.829   -4510.2582   -874.44069    80.564081 
   95200    1096.3002   -111.80681   0.99195549   -110.81485    3227.9832     4.324587     4.324587     4.324587    3227.9832    5619.3727   -3843.5718    7908.1489    23229.762   -5230.0393    5703.7551    80.878656 
   95300     1065.211   -111.77809   0.96382533   -110.81426    5056.3219    4.3199372    4.3199372    4.3199372    5056.3219     -4120.61   -7965.8786    27255.454   -9730.3603    3369.8376    622.40574    80.618053 
   95400    942.42728   -111.67096     0.852728   -110.81823    2534.5751    4.3209989    4.3209989    4.3209989    2534.5751   -9670.7881    1869.7967    15404.717   -34665.481   -7105.7139    4000.6171    80.677507 
   95500    1217.9745   -111.91571    1.1020489   -110.81366    1984.6745    4.3242796    4.3242796    4.3242796    1984.6745    1182.2269    15490.568   -10718.771    22746.019   -1667.0481    9122.4656    80.861408 
   95600    1044.8322   -111.76072   0.94538615   -110.81533    9022.3672    4.3132378    4.3132378    4.3132378    9022.3672    3719.7042     12948.17    10399.228   -15773.884    2551.1289   -5289.6311    80.243565 
   95700    786.17359   -111.53273   0.71134638   -110.82139   -8889.2263    4.3265912    4.3265912    4.3265912   -8889.2263   -19363.325    6594.5403   -13898.894   -21072.271   -7954.1526    1011.9859    80.991156 
   95800    993.88826   -111.71312   0.89929098   -110.81383    -2595.292    4.3243576    4.3243576    4.3243576    -2595.292    -1237.223   -7649.3637    1100.7108    10265.898    -3610.215    3667.7948    80.865782 
   95900    914.06124    -111.6402   0.82706182   -110.81313    10080.598    4.3116109    4.3116109    4.3116109    10080.598     7181.042   -17647.453    40708.206   -22558.867    2160.8548   -1932.6638    80.152796 
   96000    978.07022   -111.70131   0.88497849   -110.81634   -11725.023    4.3284961    4.3284961    4.3284961   -11725.023   -26202.599    3906.9077   -12879.378   -7833.9563   -16099.458    1187.7347    81.098175 
   96100    1190.0677   -111.89033    1.0767983   -110.81354    10711.012     4.318454     4.318454     4.318454    10711.012    16932.253    15665.986   -465.20429    1981.4558   -4402.8382    4759.3287    80.535043 
   96200    1172.1691   -111.87577    1.0606032   -110.81517    5781.3828    4.3155535    4.3155535    4.3155535    5781.3828    4871.6376   -5893.2156    18365.726   -28637.045    261.44923    516.40882    80.372878 
   96300    995.08519   -111.71471   0.90037399   -110.81433   -15241.148    4.3290889    4.3290889    4.3290889   -15241.148   -24762.529   -1739.2219   -19221.692   -2099.5181   -20805.761    5552.4317      81.1315 
   96400    727.36154   -111.47346   0.65813201   -110.81533     11981.39    4.3119578    4.3119578    4.3119578     11981.39    29679.419   -18480.105    24744.855    -364.9856   -68.269044    4773.2622    80.172148 
   96500     963.5386   -111.69136   0.87182997   -110.81953   -9098.3383    4.3225659    4.3225659    4.3225659   -9098.3383   -9521.9137   -41603.102        23830   -27303.067    2616.6315   -7651.3697    80.765313 
   96600    1188.7597   -111.88843    1.0756147   -110.81282   -6891.3318    4.3294266    4.3294266    4.3294266   -6891.3318   -20003.919   -3016.9222     2346.846    6792.7412   -14906.346    5192.9534    81.150492 
   96700    973.78974    -111.6952   0.88110542   -110.81409    18050.581    4.3084855    4.3084855    4.3084855    18050.581    31090.262    5071.9837    17989.496    -1933.123    1264.5064   -82.935216     79.97862 
   96800    1080.4426    -111.7959   0.97760714    -110.8183   -10376.205    4.3245526    4.3245526    4.3245526   -10376.205    -12879.61   -15588.041   -2660.9642   -22484.338    4924.8995   -10818.569    80.876727 
   96900    925.07567   -111.64967   0.83702791   -110.81265   -1651.9797    4.3259233    4.3259233    4.3259233   -1651.9797   -3595.3874   -8845.7515    7485.1998    19340.347   -8774.9674    1227.3427    80.953649 
   97000    764.87956     -111.506    0.6920791   -110.81392    3145.1953    4.3130829    4.3130829    4.3130829    3145.1953    18513.049   -34586.167    25508.704   -5929.2394   -4841.8646   -5356.3234     80.23492 
   97100    1194.3773   -111.89415    1.0806977   -110.81346   -14565.642    4.3259811    4.3259811    4.3259811   -14565.642   -19171.893   -35195.021    10669.987   -15648.267    4482.5987   -2433.8723    80.956896 
   97200    1078.0809   -111.79254   0.97547029   -110.81707    832.49408    4.3170556    4.3170556    4.3170556    832.49408    -12098.35   -3411.2386     18007.07    30291.482   -9969.0466    489.73765    80.456829 
   97300    1035.2299   -111.75565   0.93669774   -110.81895   -3445.1071     4.317463     4.317463     4.317463   -3445.1071    13791.194   -8684.4687   -15442.047   -6566.7462    -4289.406   -6938.9812    80.479609 
   97400    1119.5654   -111.82477    1.0130063   -110.81176   -19454.773    4.3301536    4.3301536    4.3301536   -19454.773   -18904.887   -16245.244   -23214.188   -6221.5894    9001.0405   -1453.8591    81.191375 
   97500    672.34596   -111.42579   0.60835275   -110.81743    2766.6973    4.3126944    4.3126944    4.3126944    2766.6973   -3810.2594   -11376.482    23486.834    31199.031   -7598.7378    2095.0235    80.213241 
   97600     1002.054   -111.72439   0.90667956   -110.81771    4383.7335    4.3207679    4.3207679    4.3207679    4383.7335    30343.817   -21305.518    4112.9016   -6191.8084   -3184.2337   -11260.706    80.664569 
   97700    1270.0446   -111.96019     1.149163   -110.81103   -10736.827    4.3296562    4.3296562    4.3296562   -10736.827   -18934.714   -20075.121    6799.3553    9032.5032     14410.23    -2184.643      81.1634 
   97800    824.81419   -111.56184   0.74630921   -110.81553    14823.407    4.3104199    4.3104199    4.3104199    14823.407    12699.361     8044.348    23726.513    23861.013   -3803.1481   -928.73288    80.086393 
   97900     1089.431   -111.80406   0.98574007   -110.81832    868.36348    4.3226908    4.3226908    4.3226908    868.36348    18810.213    3390.4548   -19595.578   -3591.5736   -10599.166   -11691.071     80.77231 
   98000    1017.7367   -111.73637   0.92086951    -110.8155   -1817.3588    4.3243102    4.3243102    4.3243102   -1817.3588   -604.60332   -4282.4571   -565.01597    15806.232    16771.868   -3758.9746    80.863125 
   98100    688.19713   -111.44013   0.62269523   -110.81744    8425.2688    4.3155355    4.3155355    4.3155355    8425.2688    10165.789    3956.7156    11153.302    15591.428   -587.63402   -6139.9571    80.371871 
   98200    1023.5282   -111.73744   0.92610987   -110.81133   -8646.7184    4.3263706    4.3263706    4.3263706   -8646.7184   -4433.2113   -13559.695   -7947.2483   -10913.771   -9720.2912    -12999.81    80.978768 
   98300     974.6618   -111.69609   0.88189448    -110.8142    6391.4104    4.3161773    4.3161773    4.3161773    6391.4104   -5452.0213    6746.7755    17879.477    11189.467    17858.001    1685.8311    80.407733 
   98400    1114.0048   -111.82557    1.0079749   -110.81759    5062.7851    4.3179399    4.3179399    4.3179399    5062.7851   -8829.6167    12489.263    11528.709    12013.766   -3086.3412   -6402.9453    80.506283 
   98500    1365.4547   -112.04908    1.2354921   -110.81359   -4781.2317     4.325847     4.325847     4.325847   -4781.2317   -8981.2845    7161.2512   -12523.662   -15546.214   -9660.8894   -7237.0205    80.949371 
   98600      903.904   -111.63468   0.81787133   -110.81681    9192.4736    4.3144526    4.3144526    4.3144526    9192.4736   -12919.539    28766.787    11730.173    7944.8595    19756.997    7697.5257    80.311382 
   98700    959.73767   -111.68523   0.86839082   -110.81683   -6511.6358    4.3232532    4.3232532    4.3232532   -6511.6358   -7917.2857   -12442.217    824.59549    11424.896    5938.2955   -8511.9924    80.803841 
   98800    946.22151   -111.67037   0.85616111    -110.8142    2803.1073    4.3205983    4.3205983    4.3205983    2803.1073   -1329.1402     5918.041     3820.421    -9315.533   -5313.2182   -11058.556    80.655072 
   98900      584.969   -111.35025   0.52929225   -110.82095    7495.5209    4.3127641    4.3127641    4.3127641    7495.5209   -17567.256    15227.752    24826.068    8985.0527    23633.412    4279.6894    80.217126 
   99000    1079.0057    -111.7968   0.97630705   -110.82049   -8365.3623    4.3258993    4.3258993    4.3258993   -8365.3623   -12226.719   -6386.8339    -6482.534    7716.3668    4971.3567    -11927.61    80.952306 
   99100    1386.8308   -112.06715    1.2548336   -110.81231    11474.745     4.320292     4.320292     4.320292    11474.745   -1948.4456    36864.762   -492.07989   -4062.7472   -526.20344   -13311.228    80.637916 
   99200    1066.4422   -111.78214   0.96493935    -110.8172    2489.9927    4.3148425    4.3148425    4.3148425    2489.9927   -6656.2967    2816.8757    11309.399    5588.5492    23287.125    8208.2596     80.33316 
   99300    852.59324    -111.5903   0.77144428   -110.81885   -10718.678    4.3203243    4.3203243    4.3203243   -10718.678    3382.1669   -24189.913   -11348.287    6644.4516   -6251.2796   -24138.181    80.639725 
   99400    937.15706   -111.66389    0.8479594   -110.81593    5779.1318     4.318994     4.318994     4.318994    5779.1318     2291.593    10186.088    4859.7145   -1045.3377   -9957.7909   -9642.6568    80.565256 
   99500    887.66939   -111.61927   0.80318192   -110.81609   -8025.1883    4.3241102    4.3241102    4.3241102   -8025.1883   -8669.9915   -25727.058    10321.485    3099.4798    15863.409    3442.1158    80.851903 
   99600    841.79863   -111.58128   0.76167709   -110.81961   -11064.647    4.3172875    4.3172875    4.3172875   -11064.647   -6056.1075   -1002.5153   -26135.317    4014.3099   -11646.988   -33499.897    80.469799 
   99700    1264.5522   -111.96244    1.1441934   -110.81825    8613.6654    4.3137738    4.3137738    4.3137738    8613.6654    1812.7139    24502.074   -473.79128    232.38273   -18569.023    978.08658    80.273482 
   99800    1225.8367   -111.92506    1.1091628   -110.81589   -7787.6748    4.3279701    4.3279701    4.3279701   -7787.6748    127.79283   -31860.545    8369.7282   -4443.9956    12007.908   -5310.9249    81.068614 
   99900    715.41164   -111.46962   0.64731948    -110.8223   -11971.219    4.3177736    4.3177736    4.3177736   -11971.219    881.25965   -21470.467   -15324.449     192.3184    -10949.16   -32494.334    80.496983 
  100000    1007.2116   -111.72834   0.91134619     -110.817    15177.244    4.3125684    4.3125684    4.3125684    15177.244    10239.528     17128.73    18163.473   -4117.6849   -15111.813    10854.711    80.206209 
Loop time of 22.2571 on 1 procs for 100000 steps with 8 atoms

Pair  time (%) = 7.19679 (32.3348)
Kspce time (%) = 5.31554 (23.8824)
Neigh time (%) = 0 (0)
Comm  time (%) = 1.05668 (4.74761)
Outpt time (%) = 0.0255313 (0.114711)
Other time (%) = 8.66255 (38.9204)

Nlocal:    8 ave 8 max 8 min
Histogram: 1 0 0 0 0 0 0 0 0 0
Nghost:    2189 ave 2189 max 2189 min
Histogram: 1 0 0 0 0 0 0 0 0 0
Neighs:    2344 ave 2344 max 2344 min
Histogram: 1 0 0 0 0 0 0 0 0 0

Total # of neighbors = 2344
Ave neighs/atom = 293
Neighbor list builds = 0
Dangerous builds = 0
unfix 20
unfix 21
print "seeds:4707365"
seeds:4707365
