LAMMPS (10 Feb 2015)
# ---- initialize simulations
clear
units metal
dimension 3
boundary p p p
atom_style charge
atom_modify map array
# ---- create atoms
read_data /Users/eugeneragasa/pyflamestk_git/pypospack/tests/tests_integration/workflow/WorkflowLammpsThermalExpansion/param_8221/MgO_NaCl_unit.npt.T1600/lammps.structure
  triclinic box = (0 0 0) to (4.2565 4.2565 4.2565) with tilt (0 0 0)
  1 by 1 by 1 MPI processor grid
  reading atoms ...
  8 atoms
# ---- define interatomic potential
include potential.mod
mass 1 24.305
mass 2 15.999

group Mg type 1
4 atoms in group Mg
group O type 2
4 atoms in group O

set group Mg charge 1.65389423724
  4 settings made for charge
set group O charge -1.65389423724
  4 settings made for charge

variable R_cut equal 10.0

pair_style buck/coul/long ${R_cut}
pair_style buck/coul/long 10
pair_coeff 1 1 0.0 0.5 0.0 ${R_cut}
pair_coeff 1 1 0.0 0.5 0.0 10
pair_coeff 1 2 1300.0678519 0.288744572517 0.0 ${R_cut}
pair_coeff 1 2 1300.0678519 0.288744572517 0.0 10
pair_coeff 2 2 40472.9144105 0.202420171096 26.2679081719 ${R_cut}
pair_coeff 2 2 40472.9144105 0.202420171096 26.2679081719 10

kspace_style pppm 1.0e-5

neighbor 1.0 bin
neigh_modify every 1 delay 0 check yes
# ---- define settings
compute eng all pe/atom
compute eatoms all reduce sum c_eng
# ---- run minimization
reset_timestep 0
fix 1 all box/relax iso 0.0 vmax 0.001
thermo 10
thermo_style custom step pe lx ly lz xy xz yz press pxx pyy pzz pxy pxz pyz c_eatoms
min_style cg
minimize 1e-25 1e-25 5000 10000
PPPM initialization ...
  G vector (1/distance) = 0.352799
  grid = 8 8 8
  stencil order = 5
  estimated absolute RMS force accuracy = 3.93787e-05
  estimated relative force accuracy = 2.7347e-06
  using double precision FFTs
  3d grid and FFT values/proc = 3375 512
Neighbor list info ...
  1 neighbor list requests
  update every 1 steps, delay 0 steps, check yes
  master list distance cutoff = 11
Memory usage per processor = 4.06549 Mbytes
Step PotEng Lx Ly Lz Xy Xz Yz Press Pxx Pyy Pzz Pxy Pxz Pyz eatoms 
       0   -110.27609       4.2565       4.2565       4.2565            0            0            0    110960.29    110960.29    110960.29    110960.29 9.3314123e-11 1.6239754e-10 5.8891323e-11   -110.27609 
      10   -110.39349     4.299065     4.299065     4.299065            0            0            0    52923.265    52923.265    52923.265    52923.265 1.8718586e-11 -3.674075e-11 -9.001309e-11   -110.39349 
      20   -110.43343      4.34163      4.34163      4.34163            0            0            0    2089.5567    2089.5567    2089.5567    2089.5567 6.9298069e-11 -1.296578e-10 -9.997383e-11   -110.43343 
      22   -110.43352     4.343513     4.343513     4.343513            0            0            0   -5.7193123   -5.7193123   -5.7193123   -5.7193123 4.586585e-11 9.062077e-11 2.6249224e-10   -110.43352 
Loop time of 0.0139301 on 1 procs for 22 steps with 8 atoms

Minimization stats:
  Stopping criterion = linesearch alpha is zero
  Energy initial, next-to-last, final = 
        -110.276087498     -110.433524975     -110.433524975
  Force two-norm initial, final = 16.0227 0.00180648
  Force max component initial, final = 16.0227 0.000859982
  Final line search alpha, max atom move = 0.00390625 3.35931e-06
  Iterations, force evaluations = 22 39

Pair  time (%) = 0.00372124 (26.7137)
Kspce time (%) = 0.00226474 (16.2579)
Neigh time (%) = 0 (0)
Comm  time (%) = 0.000443697 (3.18517)
Outpt time (%) = 2.69413e-05 (0.193404)
Other time (%) = 0.00747347 (53.6499)

Nlocal:    8 ave 8 max 8 min
Histogram: 1 0 0 0 0 0 0 0 0 0
Nghost:    2189 ave 2189 max 2189 min
Histogram: 1 0 0 0 0 0 0 0 0 0
Neighs:    2344 ave 2344 max 2344 min
Histogram: 1 0 0 0 0 0 0 0 0 0

Total # of neighbors = 2344
Ave neighs/atom = 293
Neighbor list builds = 0
Dangerous builds = 0
unfix 1
# ---- define output variables ----
variable natoms equal "count(all)"
variable tot_energy equal "c_eatoms"
variable length_x equal "lx"
variable length_y equal "ly"
variable length_z equal "lz"
variable tilt_xy equal "xy"
variable tilt_xz equal "xz"
variable tilt_yz equal "yz"
variable tot_press equal "press"
variable press_xx equal "pxx"
variable press_yy equal "pyy"
variable press_zz equal "pzz"
variable press_xy equal "pxy"
variable press_xz equal "pxz"
variable press_yz equal "pyz"

# ---- output ----
print "pypospack:output_section:begin"
pypospack:output_section:begin
print "tot_energy = ${tot_energy}"
tot_energy = -110.433524975286
print "num_atoms = ${natoms}"
num_atoms = 8
print "xx = ${length_x}"
xx = 4.34351296178449
print "yy = ${length_y}"
yy = 4.34351296178449
print "zz = ${length_z}"
zz = 4.34351296178449
print "xy = ${tilt_xy}"
xy = 0
print "xz = ${tilt_xz}"
xz = 0
print "yz = ${tilt_yz}"
yz = 0
print "tot_press = ${tot_press}"
tot_press = -5.71931225965551
print "pxx = ${press_xx}"
pxx = -5.71931225981032
print "pyy = ${press_yy}"
pyy = -5.71931225968463
print "pzz = ${press_zz}"
pzz = -5.71931225947158
print "pxy = ${press_xy}"
pxy = 4.5865850341772e-11
print "pxz = ${press_xz}"
pxz = 9.06207702771322e-11
print "pyz = ${press_yz}"
pyz = 2.62492238241466e-10
print "pypospack:output_section:done"
pypospack:output_section:done
print "pypospack:lammps_sim:done"
pypospack:lammps_sim:done
#------------------------------------------------------------------------------
# RUN THERMOSTAT
# running using an NPT Nose-Hoover style thermostat
#------------------------------------------------------------------------------
variable tempdamp equal 0.1
variable pressdamp equal 1.0
# set initial velocities
velocity all create 1600 1890065 mom yes dist gaussian loop all
# fix for Nose-Hoover style thermostat
fix 20 all npt temp 1600 1600 0.1 aniso 0.0 0.0 1.0 drag 1.0 couple xyz
variable boxx equal lx
variable boxy equal ly
variable boxz equal lz
variable boxp equal press
variable boxt equal temp
# calculate averages every 10000 steps
reset_timestep 0
fix 21 all ave/time 10 10 100 v_boxx v_boxy v_boxz v_boxp v_boxt file lattice.out
thermo_style custom step temp pe ke etotal press lx ly lz press pxx pyy pzz pxy pxz pyz vol
thermo_modify flush yes
thermo 100
run 100000
PPPM initialization ...
  G vector (1/distance) = 0.351923
  grid = 8 8 8
  stencil order = 5
  estimated absolute RMS force accuracy = 4.10067e-05
  estimated relative force accuracy = 2.84776e-06
  using double precision FFTs
  3d grid and FFT values/proc = 3375 512
Memory usage per processor = 3.06549 Mbytes
Step Temp PotEng KinEng TotEng Press Lx Ly Lz Press Pxx Pyy Pzz Pxy Pxz Pyz Volume 
       0         1600   -110.43354    1.4477136   -108.98582    18862.488     4.343513     4.343513     4.343513    18862.488    16111.705    23755.379    16720.379    3721.7096   -2292.7762    13613.584    81.945171 
     100    465.80431   -109.22447   0.42146953     -108.803    13136.434    4.3642277    4.3642277    4.3642277    13136.434    37288.767   -7293.1404     9413.675   -9499.5977     -7173.11   -29528.157    83.123189 
     200    1089.8707   -109.38134   0.98613794    -108.3952   -28293.972    4.3937837    4.3937837    4.3937837   -28293.972   -11363.342   -42685.117   -30833.457   -23906.713   -12319.801   -21887.016    84.823466 
     300     1811.738   -109.69918    1.6392987   -108.05988   -10043.287    4.3990229    4.3990229    4.3990229   -10043.287   -913.31926    -12754.98    -16461.56    12417.136    1737.2405    11777.987    85.127265 
     400    765.40107   -108.48779   0.69255097   -107.79524   -8478.6264     4.383922     4.383922     4.383922   -8478.6264    12477.437   -43072.636    5159.3195   -27273.269   -12642.602   -44800.279    84.253596 
     500    1736.5397   -109.17057    1.5712576   -107.59931    26847.899    4.3831348    4.3831348    4.3831348    26847.899   -7682.0281    84115.533    4110.1932   -24560.546   -9050.1906    9167.6774    84.208221 
     600    2285.0005   -109.58132    2.0675165    -107.5138   -11159.459    4.3976613    4.3976613    4.3976613   -11159.459   -691.41311   -6492.9415   -26294.022    5795.4331    5368.8842   -30028.803    85.048243 
     700    1098.9097   -108.48928    0.9943166   -107.49497   -9382.1048     4.407189     4.407189     4.407189   -9382.1048   -11824.176   -10283.564   -6038.5743   -51491.073   -21076.926   -23416.453    85.602221 
     800    2231.7548   -109.48287    2.0193386   -107.46353   -18984.499    4.4146299    4.4146299    4.4146299   -18984.499   -4993.6523   -22155.498   -29804.348    2120.4956   -2505.4644    19447.201    86.036535 
     900    1426.1573   -108.76209    1.2904171   -107.47167   -15665.581    4.4081151    4.4081151    4.4081151   -15665.581    35422.971   -43943.675   -38476.039   -12880.465    8789.8122   -25587.043    85.656197 
    1000    1362.4814   -108.71323    1.2328018   -107.48043   -9005.6084    4.4079607    4.4079607    4.4079607   -9005.6084   -13984.833   -31290.607    18258.614   -52202.827    -9486.009   -8274.0797    85.647195 
    1100    2358.1199   -109.59943    2.1336765   -107.46575    5458.8614    4.4053663    4.4053663    4.4053663    5458.8614   -2834.2269    32147.945   -12937.134    16556.374   -2773.3371   -3345.3189    85.496055 
    1200    747.58358   -108.16961   0.67642933   -107.49318   -11424.968    4.4076225    4.4076225    4.4076225   -11424.968   -2602.9084   -21053.695     -10618.3   -59661.745   -2203.3342    -21092.71     85.62748 
    1300     1755.662   -109.07554    1.5885599   -107.48698     3026.128    4.4008118    4.4008118    4.4008118     3026.128    -29058.42    42721.019   -4584.2151   -9405.4854     12260.49    6627.8292    85.231156 
    1400    1329.5507   -108.69625    1.2030054   -107.49325    34407.477    4.3975047    4.3975047    4.3975047    34407.477   -11548.606    71357.425    43413.611   -11297.712    7743.5977   -5964.0039    85.039157 
    1500    1017.1746   -108.42226   0.92036095    -107.5019    2672.3375     4.419525     4.419525     4.419525    2672.3375    23905.906    -10019.77   -5869.1231   -57064.107   -11620.186   -21078.659    86.323054 
    1600    2419.7991   -109.63396    2.1894851   -107.44448   -5647.8207    4.4239024    4.4239024    4.4239024   -5647.8207   -19016.884    42788.444   -40715.023    20775.904    192.51118    16787.458    86.579809 
    1700    984.21125    -108.3624   0.89053502   -107.47186   -30577.829    4.3918555    4.3918555    4.3918555   -30577.829   -29586.209    -55455.08   -6692.1996   -62151.797   -6328.6964   -17401.377    84.711842 
    1800    1588.5504   -108.91166    1.4373538   -107.47431    34584.261    4.3676761    4.3676761    4.3676761    34584.261    72347.928    10167.749    21237.104   -3273.3534   -799.52716   -24870.415    83.320383 
    1900     1930.641   -109.25425    1.7468846   -107.50736   -685.04855    4.3941051    4.3941051    4.3941051   -685.04855   -30891.833     8392.471    20444.216   -4738.3636    12229.776    8363.1322    84.842083 
    2000    822.43744   -108.25367   0.74415868   -107.50951   -30542.685    4.4164897    4.4164897    4.4164897   -30542.685   -25135.694   -86182.357    19689.994   -59218.611   -10924.448   -17894.198    86.145316 
    2100    2233.7343   -109.47924    2.0211298   -107.45811   -14970.343    4.4147279    4.4147279    4.4147279   -14970.343   -12470.617   -8123.5708    -24316.84    24251.565    4794.3092   -1453.9348    86.042262 
    2200    1088.1517   -108.44751   0.98458253   -107.46293   -33593.105    4.4055412    4.4055412    4.4055412   -33593.105   -45841.126   -54507.178   -431.01241   -64179.643   -11065.359   -11383.225    85.506238 
    2300     1846.075   -109.12939    1.6703675   -107.45903     7600.505    4.3742621    4.3742621    4.3742621     7600.505    49046.881   -33285.545    7040.1791   -17909.009    2332.6519   -37642.777    83.697873 
    2400    2354.7432   -109.61734    2.1306211   -107.48672    2384.4212    4.3861189    4.3861189    4.3861189    2384.4212   -410.81018    5711.1681    1852.9055     943.4738    20015.608    7182.7014    84.380328 
    2500    741.57559   -108.17862   0.67099318   -107.50763   -11890.534    4.4073879    4.4073879    4.4073879   -11890.534    9889.7363    -43497.93    -2063.409   -54682.514   -18347.938   -10526.498    85.613812 
    2600    1863.9181   -109.16969    1.6865123   -107.48317    9589.7092    4.3962968    4.3962968    4.3962968    9589.7092    24218.709    9726.1426   -5175.7237    10268.656    9325.2617   -24364.491    84.969097 
    2700    1635.3844   -108.95506    1.4797302   -107.47533   -11050.801    4.4047109    4.4047109    4.4047109   -11050.801   -58231.051    30922.549   -5843.9011   -37767.509    2217.4914   -830.54765    85.457905 
    2800    1120.4689   -108.49111    1.0138238   -107.47729    1041.5108    4.4085731    4.4085731    4.4085731    1041.5108   -18468.089    48335.483   -26742.862   -23864.996   -13817.624   -37271.118    85.682897 
    2900    1979.7318   -109.25603    1.7913029   -107.46473    891.26008    4.4079306    4.4079306    4.4079306    891.26008    -29788.46    1356.7349    31105.505   -3848.5089    8545.6333    3472.3814    85.645441 
    3000    1242.1726   -108.60377    1.1239439   -107.47983   -40145.399    4.3965642    4.3965642    4.3965642   -40145.399    -56854.09   -73024.764    9442.6575   -50419.486   -8050.0107   -9171.0695    84.984602 
    3100    1519.9084   -108.85385     1.375245    -107.4786    23131.465    4.3705936    4.3705936    4.3705936    23131.465    36373.417    43882.384   -10861.406    907.90089    3525.2733   -47995.642    83.487466 
    3200    2076.3648   -109.37646    1.8787385   -107.49772   -4916.6942    4.3931685    4.3931685    4.3931685   -4916.6942   -13003.343   -24425.443    22678.703   -37102.438    1721.8167    11002.602    84.787844 
    3300    1101.3746   -108.49433   0.99654685   -107.49778   -33855.603    4.4177804    4.4177804    4.4177804   -33855.603   -29666.162   -22019.183   -49881.463   -21425.328   -5431.7453   -37944.952    86.220864 
    3400    2258.4886   -109.50412    2.0435279    -107.4606    -21426.36    4.4041343    4.4041343    4.4041343    -21426.36   -16366.724    1186.9112   -49099.268    10729.898    5942.3741    -27813.78    85.424343 
    3500    1503.8641   -108.82119    1.3607279   -107.46047   -5335.6062    4.3888407    4.3888407    4.3888407   -5335.6062   -7239.1494   -21078.829     12311.16   -35049.954    7311.8774   -1573.2367     84.53751 
    3600    1053.7992   -108.43943    0.9534997   -107.48593   -17563.821    4.3871254    4.3871254    4.3871254   -17563.821     20894.44    -46973.88   -26612.022   -16292.796    2827.6181    -67221.31    84.438431 
    3700    2500.9559   -109.74826    2.2629175   -107.48534   -11286.407    4.4002146    4.4002146    4.4002146   -11286.407    -3325.997   -4934.8862   -25598.337    10749.604    2598.4498    28571.631    85.196462 
    3800    941.23766   -108.35327   0.85165162   -107.50162   -10725.098    4.4097628    4.4097628    4.4097628   -10725.098    26932.699   -27675.105   -31432.888   -26419.768   -957.38194   -51830.839    85.752282 
    3900    2180.3636   -109.43931    1.9728388   -107.46647   -8811.9857    4.3972415    4.3972415    4.3972415   -8811.9857   -14374.739   -5335.4315   -6725.7865   -6871.1794    11513.654   -16030.322    85.023887 
    4000    1447.6962   -108.78144    1.3099059   -107.47153    8722.4515     4.392471     4.392471     4.392471    8722.4515    27895.628   -28598.851    26870.578    1179.8973   -872.63522   -5999.3758    84.747465 
    4100    1084.9903   -108.47048   0.98172199   -107.48876   -4739.2266    4.3978719    4.3978719    4.3978719   -4739.2266     28240.38   -72837.196    30379.136   -15373.483   -1810.9175   -66475.744     85.06046 
    4200    2172.1821   -109.43413     1.965436    -107.4687    -10870.36    4.4023101    4.4023101    4.4023101    -10870.36   -19715.961    -44662.92    31767.801    5641.7978    20607.414     26046.67    85.318242 
    4300     839.6575   -108.24871   0.75973975   -107.48897   -1310.8091    4.3881015    4.3881015    4.3881015   -1310.8091    39739.923    -58598.23     14925.88   -4594.1678   -4817.3603   -72297.689      84.4948 
    4400    2481.6042    -109.7264    2.2454076     -107.481   -4582.2739    4.3888169    4.3888169    4.3888169   -4582.2739   -18044.184    -25923.28    30220.643   -14903.284    15434.306    9162.4108    84.536137 
    4500    1299.1467   -108.66888    1.1754952   -107.49338    -13429.35    4.4016127    4.4016127    4.4016127    -13429.35    -21706.24   -56324.825    37743.016    6747.9008    -3766.299   -52867.587    85.277699 
    4600    1229.0788   -108.60832    1.1120963   -107.49623   -16399.339    4.4037521    4.4037521    4.4037521   -16399.339    84.750832   -59867.224    10584.457   -9687.9541   -8158.6085   -18664.447     85.40211 
    4700    2473.0865   -109.70818    2.2377006   -107.47048    3307.7671    4.3874897    4.3874897    4.3874897    3307.7671   -2034.7102   -21168.369    33126.381   -1882.9622    6522.3106   -2649.0529    84.459467 
    4800    817.67874   -108.24005   0.73985291    -107.5002    13471.129    4.3830048    4.3830048    4.3830048    13471.129    19998.679    4312.5504    16102.158    4092.7049    469.55492    -67215.28    84.200726 
    4900    2448.1517   -109.70292    2.2151391   -107.48778   -22002.183    4.3933202    4.3933202    4.3933202   -22002.183   -20487.795   -31705.337   -13813.416   -5307.2633   -2398.0159    35607.403    84.796627 
    5000    940.78693   -108.35329   0.85124379   -107.50205    14617.852     4.398759     4.398759     4.398759    14617.852     611.5006    14118.656    29123.399    11706.281   -3154.8811   -48973.268    85.111942 
    5100    1467.0328   -108.81775    1.3274021   -107.49035   -23967.455    4.4017766    4.4017766    4.4017766   -23967.455    16190.018   -30921.668   -57170.716    967.65726    8706.2375   -35060.666    85.287229 
    5200    2220.0456   -109.48142    2.0087439   -107.47268    16905.666    4.3880773    4.3880773    4.3880773    16905.666    -15205.51    20097.599     45824.91    8436.9764    -6607.513    20930.242    84.493403 
    5300    915.47515   -108.33424   0.82834116    -107.5059   -466.48042    4.3845027    4.3845027    4.3845027   -466.48042    4083.8215    28491.025   -33974.288    4527.0659   -20113.356   -58140.396    84.287086 
    5400    1996.3071   -109.31328    1.8063006   -107.50698   -23463.822    4.4019496    4.4019496    4.4019496   -23463.822   -37009.413   -22725.178   -10656.875   -2840.3128    18920.254    -6850.154    85.297283 
    5500    1645.0797   -108.98719    1.4885027   -107.49869   -11799.512    4.4004992    4.4004992    4.4004992   -11799.512   -30048.229    12752.253   -18102.559   -1520.2986    -10951.36   -6432.3628    85.212995 
    5600    937.88834   -108.36125   0.84862108   -107.51263   -23826.013    4.3915481    4.3915481    4.3915481   -23826.013    -16365.49   -23765.725   -31346.824    16198.028   -18630.097   -56996.866    84.694054 
    5700    2194.0944   -109.48065    1.9852628   -107.49539    21481.589    4.3847729    4.3847729    4.3847729    21481.589   -11215.103    23609.365    52050.507    626.10026    19399.971    25503.467    84.302665 
    5800    1519.8459   -108.88921    1.3751885   -107.51402   -13640.623     4.389495     4.389495     4.389495   -13640.623    17677.974   -33514.755   -25085.087    2854.2412   -19155.429   -25239.475    84.575324 
    5900    1294.4645   -108.68048    1.1712587   -107.50922    6271.7125     4.407126     4.407126     4.407126    6271.7125   -8289.8354   -19085.606    46190.579    11867.393   -13871.007   -21688.871    85.598547 
    6000    2151.5089    -109.4255    1.9467305   -107.47877    1457.7281    4.4013665    4.4013665    4.4013665    1457.7281   -20454.075   -9270.4457    34097.705   -6210.9721    18701.416   -1873.7159    85.263388 
    6100    1099.4542   -108.48313   0.99480923   -107.48832    14180.865    4.3806268    4.3806268    4.3806268    14180.865    19035.544   -17646.405    41153.456     7369.327   -38972.268   -34463.212    84.063752 
    6200    1868.5468   -109.19236    1.6907004   -107.50166   -14109.685    4.3877806    4.3877806    4.3877806   -14109.685   -38240.958   -7620.6046    3532.5088    1165.1324    16339.113   -8218.5218    84.476269 
    6300    1734.0529   -109.07202    1.5690075   -107.50302    5030.4061    4.3957823    4.3957823    4.3957823    5030.4061   -29057.608    4312.2536    39836.572   -2204.4816    37062.304   -11480.845    84.939272 
    6400    1481.9957    -108.8403    1.3409408   -107.49936   -2421.4338     4.402638     4.402638     4.402638   -2421.4338    -3573.807    8022.6504   -11713.145   -1727.1645   -49026.291   -11431.733    85.337305 
    6500    1716.8655    -109.0355     1.553456   -107.48204   -32420.802     4.402503     4.402503     4.402503   -32420.802   -61447.469   -6580.7934   -29234.145    2554.7147    39454.202    2287.3992    85.329455 
    6600    1593.6825   -108.91991    1.4419974   -107.47791    17293.529    4.3825695    4.3825695    4.3825695    17293.529   -6077.8329    39641.855    18316.564    9955.3188    11340.752   -13187.102    84.175644 
    6700    1383.4214   -108.75025    1.2517488    -107.4985    9015.3043     4.387116     4.387116     4.387116    9015.3043    1199.3193    50671.468   -24824.874      -7981.1   -31633.129   -3174.1076    84.437887 
    6800    2157.7772   -109.43814    1.9524022   -107.48574   -10342.532    4.3979031    4.3979031    4.3979031   -10342.532   -18005.325    11796.048   -24818.318    4773.3019    30513.397   -965.38435    85.062271 
    6900    1251.9229   -108.63058    1.1327662   -107.49781    2384.5396     4.395934     4.395934     4.395934    2384.5396   -9367.4083     52394.72   -35873.692    4684.5809   -20458.646    -14792.82    84.948067 
    7000    1026.5789   -108.43383   0.92887015   -107.50496    7564.9162    4.3939178    4.3939178    4.3939178    7564.9162    16635.956    26826.044   -20767.252   -7625.5475   -34428.913    2973.6543    84.831236 
    7100    2540.5861   -109.78087    2.2987757   -107.48209    15554.453    4.3833446    4.3833446    4.3833446    15554.453    11298.362    27529.739    7835.2567    18178.713    10640.463    2429.5475    84.220312 
    7200      857.824   -108.30145   0.77617718   -107.52528   -4227.1932    4.3906758    4.3906758    4.3906758   -4227.1932    6751.9232   -4472.7662   -14960.737   -10266.764   -34193.389   -26531.871    84.643598 
    7300    1657.9279   -109.01407     1.500128   -107.51394   -18175.995    4.4004783    4.4004783    4.4004783   -18175.995    47.728514   -2835.9672   -51739.747   -6744.7539    -18774.22    10109.777    85.211781 
    7400    1932.4591   -109.24425    1.7485296   -107.49572    1908.3113    4.3965165    4.3965165    4.3965165    1908.3113   -34360.598    37646.211    2439.3207    17721.877    36117.423   -3579.0723    84.981837 
    7500    1373.8448   -108.74256    1.2430836   -107.49948   -20416.188    4.3912174    4.3912174    4.3912174   -20416.188   -18587.229    19437.533   -62098.867   -9777.9049   -51943.225   -12287.024    84.674925 
    7600    1614.7512   -108.95639    1.4610608   -107.49533    6540.9924    4.3825166    4.3825166    4.3825166    6540.9924    982.13066    13382.383    5258.4632    9157.0397    12466.267    8966.5726    84.172592 
    7700    1664.5658   -109.01186    1.5061341   -107.50573    -13071.77    4.3944217    4.3944217    4.3944217    -13071.77    -35881.86    16177.034   -19510.486    159.87838    38929.959    -6773.598    84.860426 
    7800    1491.5782   -108.85045    1.3496113   -107.50084   -2138.2789    4.3991939    4.3991939    4.3991939   -2138.2789   -5921.4818    20953.874   -21447.229   -10543.324   -54794.726   -12225.849    85.137192 
    7900    1574.8033   -108.91745    1.4249151   -107.49254     5800.192    4.3924315    4.3924315    4.3924315     5800.192   -6988.0956    35661.833   -11273.161    7308.3233    47338.592    3968.2174    84.745179 
    8000    1800.8069   -109.11336    1.6294079   -107.48396   -18229.972    4.3970979    4.3970979    4.3970979   -18229.972   -42541.774    2268.2604   -14416.402     -14590.2   -3997.2661     8470.645    85.015559 
    8100     1169.919   -108.54482    1.0585673   -107.48625    10200.017    4.3932544    4.3932544    4.3932544    10200.017   -13620.698    59971.444   -15750.694    1976.1474    -35159.19   -22443.715    84.792816 
    8200    1620.8788   -108.95456    1.4666052   -107.48795    1306.2288    4.3953028    4.3953028    4.3953028    1306.2288    9907.7252    8358.1628   -14347.202   -16006.449    33691.208   -4357.2663    84.911476 
    8300    1814.9413   -109.12485     1.642197   -107.48266   -12082.194    4.4010582    4.4010582    4.4010582   -12082.194   -14142.656   -7368.7061    -14735.22     53.16864   -26418.413    37293.156    85.245477 
    8400    1761.7845   -109.08111    1.5940996   -107.48701    10984.208    4.3919046    4.3919046    4.3919046    10984.208   -7779.5961    40218.671    513.54892    9522.3803   -9217.1992   -33783.223    84.714683 
    8500    1190.5309   -108.57692    1.0772174    -107.4997    34768.062      4.38609      4.38609      4.38609    34768.062    30898.066    44980.289     28425.83   -11033.631    16010.201    25847.019     84.37866 
    8600    1885.9197   -109.20666    1.7064198   -107.50024   -3338.7654    4.3993658    4.3993658    4.3993658   -3338.7654   -17816.485    6467.6467    1332.5426     17300.64    -7494.799    19806.577    85.147172 
    8700    1393.9809    -108.7549    1.2613032   -107.49359    2765.5564    4.4083793    4.4083793    4.4083793    2765.5564   -13260.849    32294.472   -10736.954    2916.1068     1859.871   -29733.436    85.671595 
    8800    1127.3642   -108.51082    1.0200628   -107.49076   -9574.4114    4.3980932    4.3980932    4.3980932   -9574.4114    2885.6807   -10837.662   -20771.253   -12807.083    10510.701    49120.274    85.073303 
    8900    2101.6137   -109.38056    1.9015843   -107.47897    34199.406    4.3828485    4.3828485    4.3828485    34199.406    247.27254    58510.686    43840.259    37897.774   -2423.3501   -5052.1641     84.19172 
    9000    1529.9001   -108.88609    1.3842858    -107.5018    36487.815      4.38726      4.38726      4.38726    36487.815    51593.814    37009.243    20860.388   -7360.9616    9122.1138    3507.2763    84.446202 
    9100    1490.9498    -108.8517    1.3490427   -107.50265    1550.8004    4.4061355    4.4061355    4.4061355    1550.8004   -8917.9567    26588.975   -13018.617    5474.6397    13526.607    27419.649    85.540847 
    9200    1850.2708   -109.15199    1.6741639   -107.47783   -1256.9519    4.4069108    4.4069108    4.4069108   -1256.9519   -42779.383    6685.7463    32322.781    39831.994   -9075.3256   -11433.924     85.58601 
    9300    1760.5441   -109.06211    1.5929773   -107.46914    15898.513    4.3895479    4.3895479    4.3895479    15898.513    26943.494    57714.793   -36962.749   -24950.136    16899.613    1910.4248    84.578384 
    9400    1100.7444   -108.48335   0.99597662   -107.48738   -18137.306    4.3841123    4.3841123    4.3841123   -18137.306   -52025.965   -42427.346    40041.393    60927.898    -2071.568    22781.088    84.264567 
    9500    1691.7286   -109.02848    1.5307116   -107.49777    13768.221    4.3844625    4.3844625    4.3844625    13768.221   -38579.568    25339.397    54544.833    11949.469    -11368.27   -12105.746    84.284767 
    9600    1562.9963   -108.91885    1.4142319   -107.50461   -4029.7649    4.4035694    4.4035694    4.4035694   -4029.7649   -29196.437    23558.922   -6451.7798    9679.7383     7708.478    11922.467    85.391481 
    9700    1427.6094   -108.78325    1.2917309   -107.49152   -31720.729    4.4113023    4.4113023    4.4113023   -31720.729   -78993.723   -39300.675    23132.209    47971.652     9265.538    14193.672    85.842127 
    9800    1841.3221   -109.14268    1.6660669   -107.47661    34169.176    4.3828121    4.3828121    4.3828121    34169.176   -10964.215    49560.198    63911.544   -22298.039   -29662.271   -16365.298     84.18962 
    9900      1714.73   -109.04671    1.5515238   -107.49519    8387.0266    4.3682863    4.3682863    4.3682863    8387.0266   -6247.2835   -1119.2902    32527.653    33559.414    23476.776    26233.779     83.35531 
   10000    1382.2557   -108.76951     1.250694   -107.51881   -3697.5626     4.392949     4.392949     4.392949   -3697.5626    -16991.89   -26110.198      32009.4    1080.2038   -8259.7074     17541.33    84.775133 
   10100      1687.87   -109.02702    1.5272202    -107.4998   -29657.592    4.4123217    4.4123217    4.4123217   -29657.592   -27030.554   -35004.969   -26937.253    3618.5112   -24054.317    -9366.451     85.90165 
   10200    1082.0517   -108.46357   0.97906308   -107.48451   -6564.2384    4.4022732    4.4022732    4.4022732   -6564.2384   -15579.732    -6864.567    2751.5842    19530.455    42249.264    18993.468    85.316098 
   10300    1983.9645   -109.26297    1.7951328   -107.46784   -103.88833    4.3868254    4.3868254    4.3868254   -103.88833   -15016.645    8111.6027    6593.3777   -16280.593   -23246.055    29613.627    84.421109 
   10400    1868.6604    -109.1754    1.6908032   -107.48459    10542.012    4.3836488    4.3836488    4.3836488    10542.012    1909.6601    37549.616   -7833.2389      26449.4   -1558.3322   -26639.031     84.23785 
   10500     1347.414   -108.73158    1.2191685   -107.51241    10630.567     4.392484     4.392484     4.392484    10630.567    8346.8288    8868.3223     14676.55    2862.0578    23325.188    51042.885    84.748219 
   10600    1847.8285   -109.17122    1.6719541   -107.49927   -9723.5905     4.416621     4.416621     4.416621   -9723.5905     -20936.6   -58427.554    50193.383    8865.8245   -18522.121    21116.165    86.153001 
   10700    1603.4477   -108.94893    1.4508332    -107.4981    4066.5392    4.3957397    4.3957397    4.3957397    4066.5392    17042.382   -32908.388    28065.623    10678.591    9237.3314   -5017.9847      84.9368 
   10800      950.134   -108.34797   0.85970121   -107.48827    27522.057    4.3707373    4.3707373    4.3707373    27522.057    38543.788   -11641.111    55663.493    74.259854    15117.363    60054.772      83.4957 
   10900    2093.9546   -109.39441    1.8946541   -107.49975     14780.31    4.3854211    4.3854211    4.3854211     14780.31    18369.799    18397.368    7573.7635    14373.118    -23693.67   -8531.2608    84.340058 
   11000    1483.2597   -108.85084    1.3420845   -107.50876    20163.097    4.3982241    4.3982241    4.3982241    20163.097    9768.4791    30788.036    19932.775    5895.4089    10023.334    36539.355      85.0809 
   11100    1180.1844   -108.58194    1.0678557   -107.51408   -15935.318    4.4194535    4.4194535    4.4194535   -15935.318   -15919.323    20956.123   -52842.753    690.42599    16667.309    43614.697    86.318865 
   11200    2505.5656   -109.74853    2.2670884   -107.48144    -14650.51    4.3981005    4.3981005    4.3981005    -14650.51   -29281.804    11207.542    -25877.27   -7967.2738   -14312.194   -20327.118    85.073723 
   11300    1041.7861   -108.41283   0.94262995    -107.4702    48611.274    4.3621316    4.3621316    4.3621316    48611.274    105839.46    61767.293   -21772.927    9743.4466    7317.2433    66690.718    83.003478 
   11400    2068.5769   -109.37308    1.8716918   -107.50139   -17983.146    4.3989227    4.3989227    4.3989227   -17983.146   -19903.131    18675.333   -52721.639   -2480.1268    32095.281   -7315.8405    85.121447 
   11500    2050.1208   -109.32142    1.8549924   -107.46643   -14525.678    4.4132437    4.4132437    4.4132437   -14525.678   -15499.373    -2112.402   -25965.259   -10430.918   -10623.799    24204.194     85.95551 
   11600    844.17981   -108.23452   0.76383164   -107.47069    18850.444    4.3982216    4.3982216    4.3982216    18850.444    29058.718    56247.436   -28754.821    4434.0563    19260.297    40236.715    85.080752 
   11700    2203.9643   -109.45593    1.9941933   -107.46173   -7694.8759    4.3967581    4.3967581    4.3967581   -7694.8759   -22163.086    10013.234   -10934.775   -8030.6158    8717.4192   -22125.016    84.995847 
   11800    1381.5944   -108.72865    1.2500956   -107.47855    37493.881    4.3783368    4.3783368    4.3783368    37493.881    40587.661    33989.992     37903.99    3764.6217    2114.4114    44492.358    83.931984 
   11900    1454.4413   -108.81744    1.3160091   -107.50143    11035.159    4.3891024    4.3891024    4.3891024    11035.159   -11652.862    39119.697    5638.6421    10946.795    33651.337    8674.6335    84.552633 
   12000    2067.3783   -109.35206    1.8706073   -107.48146   -4973.8009    4.4065268    4.4065268    4.4065268   -4973.8009    -29049.48   -13643.507    27771.585   -8403.4608   -11399.434     -22023.2    85.563641 
   12100    1304.4505   -108.65931    1.1802942   -107.47902    15777.402    4.3920694    4.3920694    4.3920694    15777.402    3480.3463    32749.918    11101.942   -847.67465    24883.189    30978.503    84.724223 
   12200    1636.3067   -108.96376    1.4805647   -107.48319    24.516365    4.3842214    4.3842214    4.3842214    24.516365    -16229.24    16095.089    207.70002    32515.553    25102.311   -8754.0079    84.270862 
   12300    2058.1001   -109.35269    1.8622122   -107.49048    425.34532    4.3812445    4.3812445    4.3812445    425.34532   -18794.215   -21140.761    41211.011   -15821.128   -11338.762    -13787.03    84.099318 
   12400    1357.9596   -108.74036    1.2287104   -107.51165     8828.825    4.3901956    4.3901956    4.3901956     8828.825   -10440.513    51899.614   -14972.626      -4176.3    36487.464    22259.016    84.615831 
   12500    1456.3475   -108.81246    1.3177338   -107.49472   -7745.3371    4.4105497    4.4105497    4.4105497   -7745.3371   -4153.6183   -35972.132    16889.739    24318.691   -5704.5379   -7860.3398    85.798198 
   12600    1636.7116   -108.95443    1.4809311    -107.4735   -25594.589    4.3997578    4.3997578    4.3997578   -25594.589    -35343.13   -50772.993    9332.3557   -24271.908    11971.398    13115.732    85.169936 
   12700    1499.3853   -108.83131    1.3566753   -107.47463    20177.062    4.3740489    4.3740489    4.3740489    20177.062    6331.9402    63155.733   -8956.4868    6960.7566    47528.986    7936.3699     83.68563 
   12800    1719.7057   -109.05459    1.5560259   -107.49856    -15280.89    4.3877271    4.3877271    4.3877271    -15280.89   -41491.942   -20884.111    16533.382   -8956.3842    -21427.58   -6154.9091    84.473174 
   12900    1609.5254   -108.95116    1.4563324   -107.49483   -34396.151    4.4063867    4.4063867    4.4063867   -34396.151   -63963.374   -13505.936   -25719.142   -18360.057    21661.252     15810.03    85.555477 
   13000    2152.4094   -109.42589    1.9475453   -107.47834   -185.12729    4.3817411    4.3817411    4.3817411   -185.12729   -23004.041    45064.505   -22615.846   -141.01012    20599.311   -11373.723    84.127918 
   13100    669.71629   -108.11346   0.60597337   -107.50749   -20162.015    4.3827231    4.3827231    4.3827231   -20162.015    -64192.12   -24251.386    27957.462   -30901.565   -31798.822    9394.7426    84.184491 
   13200    2118.2308   -109.41454    1.9166198   -107.49792   -17853.719    4.3957012    4.3957012    4.3957012   -17853.719   -28775.062   -9293.5765    -15492.52    13310.995    6812.0265    -2985.608    84.934568 
   13300    1641.1774   -108.98698    1.4849718   -107.50201   -350.83491    4.4001501    4.4001501    4.4001501   -350.83491    -36637.57    5762.9561    29822.109   -33012.679    3800.9107   -5429.5329    85.192719 
   13400    1116.4445    -108.5001    1.0101825   -107.48992   -18042.308    4.4068417    4.4068417    4.4068417   -18042.308    -66159.09   -4408.4836     16440.65    2293.8869   -21539.254    13270.745    85.581985 
   13500     2385.838   -109.62241    2.1587564   -107.46365    8648.7242    4.3865622    4.3865622    4.3865622    8648.7242     9385.064    11470.423    5090.6859    6370.1397    6061.8331   -9580.3431    84.405911 
   13600    1019.6269   -108.41541   0.92257986   -107.49283    28767.924    4.3748906    4.3748906    4.3748906    28767.924   -13232.768    1503.6393    98032.901   -32625.484   -6740.6923   -6152.2466    83.733953 
   13700    1575.4345   -108.92835    1.4254863   -107.50287    3808.9139    4.3931013    4.3931013    4.3931013    3808.9139   -25333.225    8930.5537    27829.413    11863.721   -15866.947   -12571.451     84.78395 
   13800    1363.1019   -108.73143    1.2333633   -107.49806    29553.089    4.4011205    4.4011205    4.4011205    29553.089    30594.329   -412.21557    58477.153   -9719.3667    40114.476    3207.5773    85.249093 
   13900    1574.9901    -108.9133    1.4250842   -107.48821    3796.7124    4.4078566    4.4078566    4.4078566    3796.7124   -38316.542    11259.754    38446.925   -5241.6197    -14849.07   -5358.8152    85.641128 
   14000    2209.9233   -109.46135    1.9995851   -107.46176     21713.49    4.3939741    4.3939741    4.3939741     21713.49    1916.8176     27665.94    35557.713    10777.885    4009.9902   -9200.0001    84.834495 
   14100    1030.7503    -108.4181   0.93264456   -107.48545    13552.294    4.3802117    4.3802117    4.3802117    13552.294     21720.55    4358.6988    14577.633   -23050.273    33644.626    5579.7987    84.039856 
   14200    2034.7724    -109.3288    1.8411048    -107.4877    14923.954    4.3869639    4.3869639    4.3869639    14923.954   -13176.201    22845.761    35102.302   -10488.158   -3761.2967    -6602.638    84.429106 
   14300    1447.7247    -108.8193    1.3099317   -107.50937    9553.8059    4.3995925    4.3995925    4.3995925    9553.8059    39651.873   -939.60492    -10050.85    8650.5389    18620.172    10118.591    85.160335 
   14400    1179.9252   -108.56641    1.0676211   -107.49879   -34945.313    4.4136791    4.4136791    4.4136791   -34945.313    -54172.96    -42593.14   -8069.8387   -21286.266    13480.766     6498.319    85.980955 
   14500    2170.0295   -109.41395    1.9634883   -107.45046    19776.236    4.3955671    4.3955671    4.3955671    19776.236     41326.82   -8970.6112    26972.498    9438.6641   -9405.6796   -9869.4906    84.926794 
   14600    1040.9595    -108.4134   0.94188205   -107.47152   -32134.304    4.3938542    4.3938542    4.3938542   -32134.304   -64961.689   -434.19686   -31007.027   -28300.628    38228.938      7925.32    84.827553 
   14700    2317.0616   -109.55486     2.096526   -107.45833   -3786.0221    4.3905292    4.3905292    4.3905292   -3786.0221   -8737.3264   -15033.599    12412.859   -10208.785   -2105.2953   -12147.607    84.635119 
   14800    1619.2569   -108.94209    1.4651376   -107.47695    22077.741    4.3853434    4.3853434    4.3853434    22077.741   -11480.321    35285.942    42427.601    15022.325    12335.049   -6607.7399    84.335574 
   14900    1768.4368   -109.08544    1.6001188   -107.48532   -22565.771    4.4048217    4.4048217    4.4048217   -22565.771   -50200.591    9708.4688   -27205.191   -28596.363    34560.968    7621.2722    85.464351 
   15000    1837.2219   -109.12289     1.662357   -107.46053    9713.8013     4.403382     4.403382     4.403382    9713.8013    1653.0244    4271.3758    23217.004     11082.18   -6607.0683   -31427.564    85.380575 
   15100    1527.3009    -108.8412     1.381934   -107.45927   -7251.0275    4.3950913    4.3950913    4.3950913   -7251.0275   -44678.716    20934.477    1991.1564   -23839.851    25339.763    14842.051     84.89922 
   15200    1430.0239   -108.75912    1.2939157    -107.4652    8499.6443    4.3804296    4.3804296    4.3804296    8499.6443   -16880.494    37383.687    4995.7404   -3875.8188    6575.4983   -11095.323    84.052401 
   15300     1733.081   -109.04857    1.5681281   -107.48044    10757.682    4.3797129    4.3797129    4.3797129    10757.682   -6199.7404    4509.1649    33963.621    16708.931   -9004.9024    -26431.18    84.011152 
   15400    1664.8323   -108.99329    1.5063753   -107.48691   -11767.961    4.4044077    4.4044077    4.4044077   -11767.961   -32032.684    19148.644   -22419.843    -25594.23    21899.596    23685.072    85.440256 
   15500    1543.6238   -108.86832    1.3967033   -107.47162   -18017.701    4.4094884    4.4094884    4.4094884   -18017.701    3103.5793   -23141.826   -34014.856    14432.608   -11998.103   -37023.583    85.736278 
   15600    1723.3541   -109.01145     1.559327   -107.45212    647.46469     4.394088     4.394088     4.394088    647.46469    3413.4372     8101.831   -9572.8741    5316.6226    7025.1143   -4315.9336    84.841092 
   15700    1323.7042   -108.66017    1.1977154   -107.46246   -262.16124    4.3783686    4.3783686    4.3783686   -262.16124    845.63745    23975.083   -25607.205   -19926.779    22829.261    5638.6596    83.933815 
   15800    1956.2475   -109.24618    1.7700539   -107.47613    2772.3301    4.3826032    4.3826032    4.3826032    2772.3301    4782.0624    8663.3993   -5128.4714    25982.242   -14942.258   -50227.791    84.177581 
   15900    1502.2616   -108.85028    1.3592779     -107.491   -6102.7828    4.4009029    4.4009029    4.4009029   -6102.7828   -40495.047    9498.9978      12687.7   -18368.397    21350.569    11638.672    85.236452 
   16000    1638.5851   -108.95446    1.4826263   -107.47183   -10583.209    4.4145549    4.4145549    4.4145549   -10583.209   -3601.5181    14773.726   -42921.835   -1813.1054    8435.5215    -16008.39    86.032148 
   16100    1891.0858    -109.1729    1.7110942    -107.4618    2466.1649    4.3937775    4.3937775    4.3937775    2466.1649   -26691.707   -28138.535    62228.737   -6499.7265    3817.7944   -16709.446    84.823109 
   16200    1249.3202   -108.60074    1.1304112   -107.47033    8201.7048    4.3674906    4.3674906    4.3674906    8201.7048   -15911.294    6052.8776    34463.531   -28100.012    25995.161    19792.565    83.309772 
   16300    2120.2762   -109.40906    1.9184704   -107.49059     10979.84    4.3785019    4.3785019    4.3785019     10979.84    24144.442   -1056.5418    9851.6197    12103.797   -3841.9005     13030.58    83.941479 
   16400     1249.907   -108.64232    1.1309421   -107.51137    -896.3123    4.4070966    4.4070966    4.4070966    -896.3123   -50266.057   -38872.719    86449.838    1354.0584    19004.952    5518.8849    85.596834 
   16500    1589.3745   -108.90814    1.4380995   -107.47004   -8224.4783    4.4199832    4.4199832    4.4199832   -8224.4783    21322.288   -18418.103    -27577.62   -22035.588   -1735.2578    18972.042    86.349901 
   16600    1650.2047   -108.93977    1.4931399   -107.44663    9763.8472    4.3973334    4.3973334    4.3973334    9763.8472     20440.46   -29169.652    38020.734    17217.148   -341.60819   -8068.5901    85.029218 
   16700    1140.4394   -108.48447    1.0318935   -107.45257    28478.219    4.3732781    4.3732781    4.3732781    28478.219    38553.024   -20683.329    67564.961   -15188.132    12012.173    12647.459      83.6414 
   16800    2222.2287   -109.47292    2.0107193    -107.4622    10529.842    4.3875967    4.3875967    4.3875967    10529.842    40053.498   -24929.619    16465.645    4070.9975   -21287.046    5966.7625    84.465648 
   16900    1216.2259   -108.58127    1.1004668   -107.48081   -15553.042    4.4029868    4.4029868    4.4029868   -15553.042   -15865.294    -59814.69    29020.859    15249.338   -3076.1249    668.93063    85.357591 
   17000     1664.457   -108.98384    1.5060356    -107.4778    7530.1543    4.3967646    4.3967646    4.3967646    7530.1543    2449.1389   -38078.784    58220.107   -33666.996    6850.5438    2093.6411    84.996225 
   17100    1516.9263    -108.8523    1.3725468   -107.47975    33752.634    4.3827316    4.3827316    4.3827316    33752.634    52482.662   -15256.743    64031.983    36778.271   -30180.452     6601.855    84.184982 
   17200    1015.7621   -108.42233   0.91908288   -107.50325   -17196.961    4.4011844    4.4011844    4.4011844   -17196.961   -42325.311   -80829.446    71563.874   -35587.128   -9708.4112    4559.8474    85.252807 
   17300    2319.0961   -109.56066    2.0983669   -107.46229   -7922.3548    4.4127489    4.4127489    4.4127489   -7922.3548    22558.163   -54318.361    7993.1333      11741.5    2041.3018    12889.213    85.926601 
   17400    980.48638   -108.35847   0.88716468    -107.4713   -27003.892    4.4063658    4.4063658    4.4063658   -27003.892   -66734.223   -61024.675    46747.221   -3269.2639   -32079.939    2998.5758     85.55426 
   17500    1778.3212   -109.06659    1.6090624   -107.45753    6541.5379    4.3844511    4.3844511    4.3844511    6541.5379   -106.38038   -42305.384    62036.378    -16466.97    12740.984   -15543.374    84.284106 
   17600     1580.701   -108.91311    1.4302515   -107.48285   -4910.0624    4.3827837    4.3827837    4.3827837   -4910.0624   -6255.0914   -14987.387    6512.2912    1445.2618     -9856.89    1843.9388    84.187987 
   17700    925.34565   -108.33749   0.83727219   -107.50022   -40670.067    4.4027941    4.4027941    4.4027941   -40670.067   -87234.996   -46227.103    11451.899   -16028.668    -41175.65    3232.2725    85.346383 
   17800    2532.5789   -109.76071    2.2915306   -107.46918     6695.302     4.389817     4.389817     4.389817     6695.302   -5805.5429   -10529.598    36421.047    3596.7816    25481.611    -12453.11    84.593942 
   17900    962.88511   -108.37329   0.87123868   -107.50205   -34565.355    4.3951652    4.3951652    4.3951652   -34565.355   -81556.244   -27124.178    4984.3563   -39696.979   -1357.3018       525.93    84.903504 
   18000    2413.2216   -109.65354    2.1835336   -107.47001   -3823.8598    4.3973449    4.3973449    4.3973449   -3823.8598   -22972.102   -3867.7887    15368.311     2740.134   -20394.781   -7252.1876    85.029888 
   18100    1189.3288   -108.55248    1.0761297   -107.47635   -32279.486    4.4055586    4.4055586    4.4055586   -32279.486   -40605.467   -45205.995   -11026.995   -12465.842    29110.948   -6915.5485     85.50725 
   18200     1669.831    -108.9732    1.5108981    -107.4623   -4119.7907    4.3996029    4.3996029    4.3996029   -4119.7907   -38772.268   -24072.385    50485.281   -28070.596   -5014.2802   -2782.3183    85.160937 
   18300     1699.947   -108.99897    1.5381478   -107.46082   -22404.308    4.3990746    4.3990746    4.3990746   -22404.308   -2276.6925   -64676.886   -259.34426    16279.882    6487.6139   -22186.362    85.130262 
   18400    1223.7955   -108.58537    1.1073159   -107.47805   -4541.4446    4.3923832    4.3923832    4.3923832   -4541.4446   -37359.986    -24087.25    47822.902   -28631.234    35702.508    3648.4427    84.742383 
   18500    2182.9819   -109.44986    1.9752079   -107.47465   -958.19242     4.392823     4.392823     4.392823   -958.19242   -4718.3055   -13337.059    15180.787    17125.917    14945.372   -12479.996     84.76784 
   18600    1139.0148   -108.52578    1.0306046   -107.49518    2488.6519    4.3935467    4.3935467    4.3935467    2488.6519    10733.284   -38053.091    34785.762    13383.463   -10394.298   -29162.521    84.809742 
   18700     2109.237    -109.3802     1.908482   -107.47172    14050.495    4.3898664    4.3898664    4.3898664    14050.495   -24897.929     23486.31    43563.104   -20927.921     32151.37    275.54933    84.596793 
   18800    1191.4169   -108.56726    1.0780191   -107.48924   -24401.296    4.3984077    4.3984077    4.3984077   -24401.296     20022.24    -73660.09    -19566.04    30078.198   -7937.3748   -32642.005    85.091553 
   18900    1443.5073   -108.79545    1.3061157   -107.48934   -124.18998    4.3878737    4.3878737    4.3878737   -124.18998    5115.4795   -33670.107    28182.058    17963.363    12941.456   -5913.1184    84.481641 
   19000    2256.9289   -109.52709    2.0421167   -107.48497    9019.6797    4.3835415    4.3835415    4.3835415    9019.6797    16784.031    811.16008    9463.8482    -15331.67    10729.354   -4605.5737    84.231662 
   19100    749.63006   -108.19727   0.67828103   -107.51899   -12565.844    4.3890152    4.3890152    4.3890152   -12565.844    46545.583   -55661.771   -28581.344    31330.479   -12822.002   -41387.386    84.547595 
   19200    2220.5178   -109.51004    2.0091712   -107.50086    18161.201    4.3921555    4.3921555    4.3921555    18161.201    21256.831    6717.5586    26509.215    6225.7529    1210.3002    1351.0695      84.7292 
   19300    1433.5247   -108.80285    1.2970832   -107.50576   -10571.088     4.404319     4.404319     4.404319   -10571.088    10000.658   -12041.357   -29672.566    3366.3061     481.1094    -14097.82    85.435096 
   19400    1032.8512   -108.42203   0.93454547   -107.48748   -9691.4432    4.4028156    4.4028156    4.4028156   -9691.4432    19763.568   -6133.9959   -42703.902    21960.963    2515.3102   -26435.277    85.347636 
   19500    2052.1669   -109.31208    1.8568438   -107.45524    17125.642    4.3856996    4.3856996    4.3856996    17125.642    38437.061    14469.741   -1529.8742   -19914.747   -9954.7602    9803.0255    84.356129 
   19600    979.83875   -108.37485   0.88657869   -107.48827   -27294.077    4.3910292    4.3910292    4.3910292   -27294.077    51.856721   -54544.445   -27389.643    41607.617    4800.0997   -28489.931    84.664039 
   19700    2373.1768   -109.62655    2.1473002   -107.47925    10637.328    4.3863336    4.3863336    4.3863336    10637.328    19393.779    12810.195   -291.99012     674.1881    5201.5642    -2550.134    84.392719 
   19800     1475.164   -108.84051    1.3347594   -107.50575    -23185.13    4.3922966    4.3922966    4.3922966    -23185.13    6179.6178   -42526.551   -33208.456   -19288.229    -6820.376   -11178.152    84.737369 
   19900    1410.6752   -108.77103    1.2764086   -107.49462   -39033.441    4.4050922    4.4050922    4.4050922   -39033.441   -16493.316   -62621.953   -37985.054     28319.18    17628.749    -25296.91    85.480097 
   20000    2045.7579   -109.32335    1.8510448   -107.47231    22268.628    4.3830566    4.3830566    4.3830566    22268.628    21007.172    9531.1663    36267.545   -24996.304   -13694.213    2714.7022    84.203711 
   20100    1153.6019   -108.54105    1.0438033   -107.49725   -15397.957    4.3910612    4.3910612    4.3910612   -15397.957     16890.02   -45265.205   -17818.687    566.58267    9787.8498   -23305.423    84.665887 
   20200    2143.3316   -109.41411    1.9393315   -107.47478   -7541.9735    4.4072496    4.4072496    4.4072496   -7541.9735   -22894.661    28250.186   -27981.446   -670.77891   -8845.3971   -3872.2071    85.605751 
   20300    1127.0104   -108.50182    1.0197427   -107.48208    8982.3719    4.3988201    4.3988201    4.3988201    8982.3719    36963.481    2436.8608   -12453.226   -25662.688   -5995.6969   -13010.978    85.115491 
   20400    1436.0858   -108.78545    1.2994006   -107.48605    5546.2841    4.3971894    4.3971894    4.3971894    5546.2841    23649.629     20136.78   -27147.556    13598.422    236.69588   -32780.008    85.020867 
   20500    2027.2588   -109.30864    1.8343064   -107.47433    30219.324    4.3823851    4.3823851    4.3823851    30219.324    41315.931    61024.283   -11682.242   -23733.853   -7972.0083     357.1563    84.165014 
   20600    906.48625   -108.33478   0.82020781   -107.51457    4936.1066    4.3882306    4.3882306    4.3882306    4936.1066    86288.978   -38088.301   -33392.357   -22095.547    701.03045   -25332.746     84.50226 
   20700    2204.1211   -109.46179    1.9943351   -107.46746    -25754.07    4.4156963    4.4156963    4.4156963    -25754.07    -1239.161   -24969.796   -51053.253    2349.9226    9751.9211   -7554.0943    86.098898 
   20800    1342.7021   -108.67897    1.2149051   -107.46406    5758.7486    4.3929597    4.3929597    4.3929597    5758.7486    10378.749    -27356.79    34254.287   -54654.384    -7478.621   -5927.0187    84.775755 
   20900    1997.2118   -109.25943    1.8071192   -107.45232    22586.497    4.3856795    4.3856795    4.3856795    22586.497    43914.028    50543.999   -26698.538    6219.5055    11235.536    -11588.52    84.354971 
   21000    1324.1871   -108.67121    1.1981523   -107.47306   -11463.297    4.4005618    4.4005618    4.4005618   -11463.297    -33259.25   -21018.555    19887.915   -43771.192    11386.263    1360.2745    85.216636 
   21100    1369.5126   -108.71347    1.2391638    -107.4743   -7279.3171     4.399978     4.399978     4.399978   -7279.3171   -10984.314   -12743.631    1889.9944   -19681.068   -2453.2394   -7944.5076    85.182721 
   21200    1768.9239   -109.06793    1.6005595   -107.46737   -8961.0329    4.4082905    4.4082905    4.4082905   -8961.0329   -7375.3875    28794.357   -48302.068    4182.8244    9636.1072    1060.4364    85.666421 
   21300    1359.8906   -108.70793    1.2304576   -107.47747   -32480.097    4.3991166    4.3991166    4.3991166   -32480.097   -74136.198   -31651.568    8347.4765   -62880.141   -7132.8651    2386.9573    85.132705 
   21400    2076.4263   -109.34406    1.8787942   -107.46527    16054.101    4.3770853    4.3770853    4.3770853    16054.101     52409.74    6640.4807   -10887.918    11211.355    2848.2683    -15735.57    83.860036 
   21500    1699.3389   -109.02674    1.5375976   -107.48915   -16581.086    4.3879847    4.3879847    4.3879847   -16581.086   -41467.561   -2495.8293   -5779.8689    -35364.92    15098.961    11795.543    84.488053 
   21600    1388.7204   -108.74885    1.2565434    -107.4923   -13255.609    4.4105005    4.4105005    4.4105005   -13255.609   -34072.891   -1580.7894   -4113.1462   -25760.781   -13733.386   -16085.242    85.795324 
   21700    1806.3801   -109.09959    1.6344507   -107.46514   -8182.0205    4.4039819    4.4039819    4.4039819   -8182.0205    27253.774   -29578.323   -22221.512    1876.6576    4737.4364   -13446.817    85.415479 
   21800    1236.5007   -108.58731    1.1188118    -107.4685   -1466.7191    4.3972972    4.3972972    4.3972972   -1466.7191   -58618.874    37496.433    16722.283    -56306.51    3576.8784    6747.8641     85.02712 
   21900    1944.3617   -109.22652    1.7592993   -107.46722     8655.118    4.3854141    4.3854141    4.3854141     8655.118    35163.962   -5515.2359    -3683.372    22951.529   -2132.9491   -28820.677    84.339656 
   22000    1444.3773   -108.78998     1.306903   -107.48308    31828.351    4.3745732    4.3745732    4.3745732    31828.351   -4176.1792    48825.252     50835.98   -55522.813     5339.184    1074.4825    83.715728 
   22100    1868.5721   -109.18418    1.6907233   -107.49346   -5416.0002     4.407307     4.407307     4.407307   -5416.0002   -16240.364   -13346.403    13338.767   -10229.472    6106.3118    9142.1937    85.609098 
   22200    1440.2799   -108.77346    1.3031956   -107.47026   -16214.107    4.4128612    4.4128612    4.4128612   -16214.107    23696.626   -29875.151   -42463.794   -6175.6842    1465.5264   -14500.151    85.933161 
   22300    1176.6561   -108.52322    1.0646632   -107.45856    24939.268    4.3925076    4.3925076    4.3925076    24939.268    15027.257    14347.144    45443.402   -63938.963    16275.454   -8966.1577    84.749581 
   22400    2159.2008   -109.40057    1.9536902   -107.44688    21523.804     4.390052     4.390052     4.390052    21523.804    53342.993    9197.5551    2030.8647    13830.499   -1229.0927   -66.993715    84.607525 
   22500    887.79629   -108.29297   0.80329674   -107.48967   -28328.407    4.3962134    4.3962134    4.3962134   -28328.407   -48562.407   -65818.407    29395.593   -67076.751   -6083.9636   -20891.047    84.964266 
   22600    2049.3281   -109.32645    1.8542751   -107.47218    18410.264    4.3947643    4.3947643    4.3947643    18410.264    49676.425    13025.685   -7471.3194    17575.181    13625.458    10166.048    84.880271 
   22700    1182.5343   -108.55292    1.0699819   -107.48294   -18424.732    4.4041966    4.4041966    4.4041966   -18424.732    -50250.33   -51533.771    46509.904   -53134.674   -11855.452   -2860.7544    85.427972 
   22800    1343.7938   -108.68288    1.2158929   -107.46699   -5586.0376    4.4029761    4.4029761    4.4029761   -5586.0376   -6052.7622   -27834.971    17129.621   -24514.101    5009.8998   -8725.2799    85.356969 
   22900    1828.0157   -109.10206     1.654027   -107.44804   -4433.8698    4.4009824    4.4009824    4.4009824   -4433.8698   -10149.359    -10916.66    7764.4096   -5191.6237    6721.9165    34304.027     85.24107 
   23000    1268.4601   -108.60756    1.1477294   -107.45983   -11883.547     4.414266     4.414266     4.414266   -11883.547   -21284.066   -63217.423    48850.848   -52011.296    2279.9923    3035.2477    86.015261 
   23100    2340.6605   -109.55009    2.1178788   -107.43221   -14012.564    4.4056187    4.4056187    4.4056187   -14012.564   -3110.0424   -9245.3038   -29682.345    6074.4718   -1403.9662    5902.4854    85.510748 
   23200    819.93571   -108.20469   0.74189506    -107.4628   -3350.6487    4.3938495    4.3938495    4.3938495   -3350.6487    20270.829   -34676.029    4353.2533   -46927.545   -8270.2021    16964.793    84.827278 
   23300     2348.209   -109.59478    2.1247089   -107.47007    -6075.563    4.3924866    4.3924866    4.3924866    -6075.563   -12735.124   -22259.366    16767.801   -2090.3916    7788.1705   -17609.466    84.748364 
   23400    1710.2299   -109.04533     1.547452   -107.49788    -7984.204    4.3999819    4.3999819    4.3999819    -7984.204   -8502.9807   -11617.595   -3832.0366   -9144.1156   -19740.222    15619.597    85.182951 
   23500    1231.8353   -108.61663    1.1145905   -107.50204    -32965.52     4.403867     4.403867     4.403867    -32965.52   -54877.186   -46612.799    2593.4244   -53897.514    19804.685    7880.0376    85.408792 
   23600    2426.1089    -109.6701    2.1951943   -107.47491    13690.569    4.3965743    4.3965743    4.3965743    13690.569    7258.0183    15634.228    18179.459    19060.145    3513.4764   -20810.312    84.985188 
   23700    863.44232   -108.27307   0.78126076   -107.49181   -28509.187    4.4067052    4.4067052    4.4067052   -28509.187   -35454.055   -57167.272    7093.7673   -45334.645   -13076.613    28973.689    85.574029 
   23800     1891.007   -109.17372    1.7110229   -107.46269   -11081.689     4.409631     4.409631     4.409631   -11081.689    292.55858   -35450.516    1912.8905    10867.569    5119.9597   -8143.5133    85.744591 
   23900    1325.9785   -108.66151    1.1997732   -107.46173    10653.123     4.405153     4.405153     4.405153    10653.123    18038.482   -68878.398    82799.285    -31726.01    10136.082   -4430.9209    85.483635 
   24000    1579.4371   -108.89728    1.4291079   -107.46818   -6791.2403    4.4045503    4.4045503    4.4045503   -6791.2403   -15439.765   -49976.019    45042.063   -10765.517    7929.2642    19516.383    85.448557 
   24100    1688.6977   -108.99359    1.5279692   -107.46562    29166.352    4.3940824    4.3940824    4.3940824    29166.352     38586.76   -29718.211    78630.507    -4339.114     9482.338   -13216.865    84.840766 
   24200    1013.7386   -108.40996   0.91725199   -107.49271    5709.4652    4.3987762    4.3987762    4.3987762    5709.4652    19613.892   -67706.862    65221.366   -58012.773    6122.5081   -3843.2858    85.112943 
   24300    2077.1466   -109.34533    1.8794459   -107.46589    995.51743    4.4118963    4.4118963    4.4118963    995.51743    5871.3243   -24989.859    22105.087    24926.551    4938.5938    -2708.435     85.87681 
   24400    630.50616   -108.04304   0.57049522   -107.47254    10022.332    4.4117224    4.4117224    4.4117224    10022.332    15784.904   -44262.872    58544.963   -64775.769    14965.081   -9828.8703    85.866655 
   24500    2376.5541   -109.58994    2.1503561   -107.43959    9149.2776    4.4008585    4.4008585    4.4008585    9149.2776    9418.6097    -11451.51    29480.733    19779.976    7131.5357    -2533.931    85.233873 
   24600    1100.7911   -108.46138   0.99601896   -107.46536    18325.422      4.38694      4.38694      4.38694    18325.422    41498.719    -49076.18    62553.727   -56082.995    8261.4068    16190.344    84.427724 
   24700    1900.8916   -109.19812    1.7199666   -107.47815   -18366.607    4.3961262    4.3961262    4.3961262   -18366.607   -6430.3692    -31758.67   -16910.782   -11748.379    14671.141   -23399.446    84.959208 
   24800    1835.1539   -109.13837    1.6604859   -107.47789    18946.269    4.3939181    4.3939181    4.3939181    18946.269    57534.018    -23693.66    22998.451   -7277.7968    11935.258   -7300.5964    84.831253 
   24900    1298.0366    -108.6691    1.1744908   -107.49461   -6290.6043    4.3991365    4.3991365    4.3991365   -6290.6043    29942.039    -68690.94    19877.088   -40087.523    13052.328    19019.082    85.133859 
   25000    2421.9908   -109.65802    2.1914681   -107.46656   -28320.002    4.4090616    4.4090616    4.4090616   -28320.002    16774.208   -41810.206   -59924.006    11832.757    9830.9278    -14808.92    85.711381 
   25100    1162.1634   -108.52057    1.0515499   -107.46902   -6545.7315     4.410358     4.410358     4.410358   -6545.7315    32042.594   -70812.699     19132.91   -36187.253    8023.8378    6935.3037    85.787007 
   25200    1649.0077   -108.96132    1.4920568   -107.46927   -23850.013    4.4111743    4.4111743    4.4111743   -23850.013    8034.8474   -69746.507   -9838.3787     672.9443    3270.3051    27577.801    85.834653 
   25300    2113.6583   -109.36362    1.9124825   -107.45114     30007.68    4.3926835    4.3926835    4.3926835     30007.68    60573.725   -14063.137     43512.45   -20084.956   -11581.993   -5134.5502    84.759763 
   25400    1032.3662   -108.42313   0.93410661   -107.48902   -24633.858    4.4081667    4.4081667    4.4081667   -24633.858   -17815.551   -82977.152    26891.129   -11882.062    5201.5437    21692.801      85.6592 
   25500    2476.7347   -109.69403    2.2410016   -107.45303   -8158.3722    4.4060016    4.4060016    4.4060016   -8158.3722   -5357.8923   -32063.187    12945.963    8604.3767   -27406.512   -886.65909    85.533049 
   25600    1221.8467   -108.56604    1.1055525   -107.46049    17709.801    4.3892367    4.3892367    4.3892367    17709.801    10620.328   -19054.383    61563.457   -32237.826    7852.6099   -11644.418    84.560398 
   25700     1725.479   -109.02658    1.5612497   -107.46533    4440.6527    4.4046876    4.4046876    4.4046876    4440.6527     4197.943   -41714.838    50838.853    11951.971    -6686.387    8994.2671    85.456545 
   25800    1266.9178   -108.61968    1.1463339   -107.47334   -23898.044    4.4106584    4.4106584    4.4106584   -23898.044   -9239.2157   -90957.372    28502.455   -33323.965   -11811.875   -29449.357    85.804543 
   25900    1174.9305   -108.53839    1.0631018   -107.47528   -11691.384    4.3989789    4.3989789    4.3989789   -11691.384   -15194.162   -66128.062    46248.074    2962.9631    4655.1748    1706.2097    85.124709 
   26000    2237.4819    -109.4878    2.0245207   -107.46328    21189.978      4.38435      4.38435      4.38435    21189.978    33804.429   -18463.303    48228.807    10347.978   -19316.405    1890.1642    84.278277 
   26100    1122.0229   -108.52014    1.0152299   -107.50491   -29561.253    4.3995136    4.3995136    4.3995136   -29561.253   -9070.8422   -69286.079   -10326.839   -42307.523    10101.209   -22805.227    85.155753 
   26200    2049.1774   -109.33716    1.8541388   -107.48302   -9036.1153    4.3993854    4.3993854    4.3993854   -9036.1153   -11789.297   -20588.001    5268.9521    15094.477   -1014.9625    6618.8776     85.14831 
   26300    1519.1506   -108.86331    1.3745594   -107.48875   -18663.579    4.3923978    4.3923978    4.3923978   -18663.579    20453.523   -55691.776   -20752.482   -17726.946   -7426.5585    15261.027    84.743225 
   26400    1721.9345   -109.05058    1.5580426   -107.49254   -34401.358      4.40488      4.40488      4.40488   -34401.358   -41055.341   -33064.228   -29084.505   -29323.469   -1829.1263   -19662.094    85.467746 
   26500     1972.481   -109.26104    1.7847422    -107.4763   -14134.444    4.4097825    4.4097825    4.4097825   -14134.444    27628.126    -25205.41   -44826.049    10064.468    7499.7971    30233.102    85.753431 
   26600    1123.0726   -108.49208    1.0161797    -107.4759    -22886.36    4.4135685    4.4135685    4.4135685    -22886.36    14766.006   -55466.312   -27958.773   -43945.267   -13128.186   -6046.7767    85.974493 
   26700    2437.1835   -109.65922    2.2052148   -107.45401   -2811.2008    4.3949715    4.3949715    4.3949715   -2811.2008    171.16038   -15156.943      6552.18     26508.09   -14338.555    1147.3141     84.89228 
   26800    1445.5536   -108.78166    1.3079673   -107.47369    8058.2688    4.3856132    4.3856132    4.3856132    8058.2688     24921.65   -45763.365    45016.522   -19392.614   -8684.8637    38267.157    84.351141 
   26900     2107.202   -109.38095    1.9066406   -107.47431   -13510.766    4.4018964    4.4018964    4.4018964   -13510.766   -8275.4838   -23271.215   -8985.5999   -11284.688    -19317.27   -1385.1588    85.294193 
   27000    1538.3505   -108.87044    1.3919318   -107.47851    1339.6357    4.4092875    4.4092875    4.4092875    1339.6357   -1419.5941   -44653.208     50091.71    19184.042   -11528.365    14263.176    85.724556 
   27100    1366.6856   -108.71418    1.2366059   -107.47758   -22399.047    4.4064054    4.4064054    4.4064054   -22399.047    6379.7095   -53448.745   -20128.107   -33612.037    2334.0985    41539.458    85.556569 
   27200    1863.6427   -109.16122     1.686263   -107.47495    14136.367    4.3749923    4.3749923    4.3749923    14136.367   -4008.0416    18230.799    28186.343    17666.652   -32152.017   -15531.456     83.73979 
   27300    1452.1571   -108.81082    1.3139423   -107.49688    29272.191    4.3669282    4.3669282    4.3669282    29272.191    31592.835    -16796.45    73020.189    2872.9203    1151.7387    25577.226    83.277593 
   27400    1601.3926   -108.95816    1.4489737   -107.50918   -18642.657    4.4013999    4.4013999    4.4013999   -18642.657    2341.0747   -33390.176   -24878.869   -9419.1204    729.67465    15487.498    85.265332 
   27500    1471.0352   -108.81589    1.3310236   -107.48486    3056.3077    4.4049198    4.4049198    4.4049198    3056.3077   -26492.053    605.55534     35055.42    8932.6447   -33932.498   -33107.895    85.470063 
   27600    1894.1912   -109.18299     1.713904   -107.46908    14556.856     4.393083     4.393083     4.393083    14556.856    15932.084   -1475.8748    29214.359   -299.51171    21596.386    34794.112    84.782891 
   27700     1547.768   -108.87804     1.400453   -107.47758    11950.141    4.3824851    4.3824851    4.3824851    11950.141    23147.865    6165.0215    6537.5376     2133.047   -19652.488   -39473.975     84.17078 
   27800    1710.3217   -109.03839    1.5475351   -107.49085    10501.051    4.3815756    4.3815756    4.3815756    10501.051   -20203.555    19327.662    32379.046    6050.3511   -14808.611   -12258.226    84.118384 
   27900     1962.736   -109.26973    1.7759248    -107.4938   -4872.5488    4.3946432    4.3946432    4.3946432   -4872.5488    13827.888   -24795.694   -3649.8406     3482.756     1014.563   -475.05247    84.873258 
   28000    1186.4807   -108.57174    1.0735527   -107.49819     1631.363     4.403501     4.403501     4.403501     1631.363    25844.125   -35620.593    14670.557    -10195.64   -19783.705   -53537.325    85.387498 
   28100    1618.1067   -108.93698    1.4640969   -107.47289   -13351.278    4.4149662    4.4149662    4.4149662   -13351.278   -75491.711   -5502.5576    40940.435    996.22432    4752.6467    30225.203    86.056196 
   28200    1113.7142   -108.48093     1.007712   -107.47322     2632.225    4.3914053    4.3914053    4.3914053     2632.225   -28449.629   -18993.201    55339.505   -2087.9051    24531.643   -41695.395    84.685796 
   28300    1880.7378   -109.17637    1.7017311   -107.47464    13483.763    4.3719246    4.3719246    4.3719246    13483.763   -546.11089    20632.638    20364.761    1046.5561   -39761.312   -17417.395    83.563763 
   28400     1527.898   -108.88378    1.3824742   -107.50131   -19345.821    4.3892386    4.3892386    4.3892386   -19345.821   -53824.479    20751.316     -24964.3    622.61775    15887.345    7522.5456    84.560507 
   28500    1793.5514   -109.11703     1.622843   -107.49419   -17052.307    4.3989419    4.3989419    4.3989419   -17052.307    29141.201   -37680.535   -42617.587   -9629.4366    15448.548   -33127.377    85.122562 
   28600    1607.1663   -108.94659    1.4541978   -107.49239   -11814.441    4.3978009    4.3978009    4.3978009   -11814.441    -20354.98    4651.1378    -19739.48   -2408.2504   -53692.978   -875.86463    85.056342 
   28700    1228.2196    -108.6079    1.1113189   -107.49658   -3328.0093    4.3913859    4.3913859    4.3913859   -3328.0093   -57218.701    20160.695    27073.978   -2248.9112    38510.756   -5664.1962    84.684673 
   28800    1827.7533   -109.14079    1.6537896     -107.487    1498.0678    4.3921512    4.3921512    4.3921512    1498.0678   -31753.425   -11149.962     47397.59    -3591.953   -11026.403   -4929.3957    84.728952 
   28900    1178.6106     -108.566    1.0664316   -107.49957    4472.7797    4.3906052    4.3906052    4.3906052    4472.7797    -34229.51    4198.5983    43449.251    1955.9142   -36308.406    7813.5164    84.639516 
   29000    2026.4215   -109.32756    1.8335488   -107.49401    -7079.082    4.4003343    4.4003343    4.4003343    -7079.082   -9107.4343    -13382.65     1252.838    4934.9835    55483.203    4234.2805     85.20342 
   29100    1813.9241   -109.12815    1.6412767   -107.48687   -30232.514    4.4156222    4.4156222    4.4156222   -30232.514   -18839.607   -37658.956   -34198.979    6422.2417   -22860.793    11234.651    86.094563 
   29200    1434.1916   -108.77177    1.2976867   -107.47408    -39808.27    4.4133423    4.4133423    4.4133423    -39808.27   -69028.774   -13642.313   -36753.724    14946.407   -25800.009    10941.014    85.961275 
   29300    2400.2957   -109.62163     2.171838   -107.44979    19549.604    4.3758555    4.3758555    4.3758555    19549.604    37793.178   -11534.561    32390.195   -21242.416     37399.79   -15723.115    83.789366 
   29400    815.45453   -108.22787    0.7378404   -107.49003   -16792.409     4.378642     4.378642     4.378642   -16792.409   -53646.002   -3046.6925    6315.4671    740.14868   -59419.176   -1378.8286    83.949538 
   29500    2184.0478   -109.47392    1.9761723   -107.49775   -21252.112    4.4014745    4.4014745    4.4014745   -21252.112    79.912498   -33652.174   -30184.075    8187.5291    789.17507   -2097.7637    85.269666 
   29600    1387.5725   -108.74447    1.2555048   -107.48896   -19308.079    4.4248821    4.4248821    4.4248821   -19308.079   -38319.328   -25698.469    6093.5607   -9828.8409   -11840.667    -2826.501    86.637342 
   29700    1407.5875   -108.70385    1.2736147   -107.43023   -18314.954    4.4277726    4.4277726    4.4277726   -18314.954   -64336.919   -14161.744      23553.8    11562.404   -20666.116    5285.5818    86.807238 
   29800    1738.8248   -108.97483    1.5733252    -107.4015    10356.867    4.3980504    4.3980504    4.3980504    10356.867   -33044.527    19914.314    44200.815   -10827.933    17951.266    10181.396     85.07082 
   29900    1049.7131   -108.38486   0.94980247   -107.43506    169.37127    4.3853268    4.3853268    4.3853268    169.37127   -29217.675   -1152.2847    30878.074    9514.7292   -36444.308    6005.0038    84.334619 
   30000    2374.5274   -109.59426    2.1485223   -107.44574    24383.934    4.3800869    4.3800869    4.3800869    24383.934    33911.314    -3445.921     42686.41    6272.4037    32026.003   -6253.4526    84.032673 
   30100    1117.4688   -108.51575    1.0111092   -107.50464   -7156.0822    4.4003035    4.4003035    4.4003035   -7156.0822    -31281.28    26231.508   -16418.475   -17361.989   -7059.4483    2805.5285    85.201628 
   30200      2404.66   -109.63954    2.1757869   -107.46376   -24044.254    4.4140712    4.4140712    4.4140712   -24044.254   -17447.734   -25857.204   -28827.826    9484.8839   -9184.3264   -6289.8903    86.003872 
   30300    1140.8037   -108.49743    1.0322232   -107.46521   -7799.7967    4.4001633    4.4001633    4.4001633   -7799.7967    13169.016   -3533.9064     -33034.5   -11857.445     27377.88    349.53819    85.193485 
   30400    1888.6181    -109.1722    1.7088613   -107.46334   -9187.4166    4.3959507    4.3959507    4.3959507   -9187.4166   -46967.576    8450.8019    10954.525   -12811.159    6669.6879    10037.478    84.949031 
   30500    1743.0579   -109.05285    1.5771555   -107.47569    14799.865    4.3945101    4.3945101    4.3945101    14799.865    24878.938   -18210.208    37730.864    17450.826    8862.0647   -1914.0312    84.865543 
   30600    983.40433   -108.38989   0.88980491   -107.50008    21798.241     4.399292     4.399292     4.399292    21798.241     14543.83    6010.4996    44840.393   -21171.279    39289.777    1223.6522    85.142886 
   30700    2378.7109   -109.62265    2.1523076   -107.47034    -5018.856    4.4095173    4.4095173    4.4095173    -5018.856   -30626.173   -338.19439    15907.799    13964.748   -10195.386   -4124.8917    85.737964 
   30800    1175.9124   -108.54232    1.0639902   -107.47833   -14928.038     4.403485     4.403485     4.403485   -14928.038    4028.9593   -28800.525   -20012.549    1103.2433    6350.5025    15278.476    85.386571 
   30900    1800.0358   -109.09258    1.6287102   -107.46387    13328.573    4.3851255    4.3851255    4.3851255    13328.573    6289.3997    21774.889    11921.432   -11413.842    24657.444    -11369.05    84.323009 
   31000    1415.8986   -108.76168    1.2811348   -107.48055    5805.4465    4.3870657    4.3870657    4.3870657    5805.4465   -29927.854   -11804.318    59148.512    38115.175   -14002.742    -12968.33    84.434982 
   31100    1941.7354   -109.24211     1.756923   -107.48519   -14853.054     4.388594     4.388594     4.388594   -14853.054   -1062.0668   -27931.089   -15566.007   -15631.679     10379.01    3243.5285    84.523255 
   31200    1477.4872   -108.82921    1.3368615   -107.49235    5523.6743    4.3942328    4.3942328    4.3942328    5523.6743   -27773.606    45879.833   -1535.2046    29560.499   -12919.624   -9111.2199    84.849479 
   31300    1269.1882   -108.64105    1.1483882   -107.49266    -9594.247    4.4051582    4.4051582    4.4051582    -9594.247   -43700.555   -14845.195    29763.009    24706.914   -25298.773    -9843.956    85.483941 
   31400    2121.1649   -109.39773    1.9192746   -107.47846    10592.877    4.3882482    4.3882482    4.3882482    10592.877    12701.631    21811.569   -2734.5685   -19995.668    5504.5193   -4158.9762    84.503276 
   31500     1220.056   -108.60577    1.1039323   -107.50183    7640.0752    4.3820138    4.3820138    4.3820138    7640.0752   -9446.5296    17199.459    15167.296    65350.918   -13393.492   -5928.8594    84.143628 
   31600    2169.0245   -109.44951    1.9625789   -107.48693     8385.374    4.3973094    4.3973094    4.3973094     8385.374   -11230.016    16437.011    19949.126   -17462.923   -16243.896    304.01038    85.027824 
   31700     1395.303   -108.75639    1.2624995   -107.49389    19039.483    4.3945166    4.3945166    4.3945166    19039.483   -18362.654    9918.5407    65562.563    42337.881    2597.6922    1288.3819    84.865919 
   31800    1033.8494   -108.44164   0.93544865    -107.5062   -22504.395    4.3987622    4.3987622    4.3987622   -22504.395    2113.8575   -54452.671   -15174.372    13580.917   -22963.987   -20537.119    85.112126 
   31900    2077.5973   -109.37397    1.8798537   -107.49412    -3495.785    4.3863446    4.3863446    4.3863446    -3495.785   -7963.8083    14905.881   -17429.428    -11988.16   -16358.271   -328.30397    84.393354 
   32000    1666.1101   -109.01393    1.5075314    -107.5064    10894.536    4.3853318    4.3853318    4.3853318    10894.536    15655.147   -24748.476    41776.936    46756.641    5873.9935   -4013.2968    84.334906 
   32100    1216.4808   -108.61292    1.1006974   -107.51223   -10024.092    4.3998833    4.3998833    4.3998833   -10024.092    47216.061    -37588.05   -39700.286    -9685.698   -39872.607   -14027.245    85.177221 
   32200    1763.4505   -109.08331     1.595607    -107.4877   -1382.3983    4.3981007    4.3981007    4.3981007   -1382.3983    32670.264   -22614.918   -14202.541   -16607.482   -12070.247    5428.5755    85.073737 
   32300    1439.8602   -108.79386    1.3028158   -107.49105   -24954.042    4.3955596    4.3955596    4.3955596   -24954.042   -17911.094   -55497.406   -1453.6255    28463.947    14743.662   -13224.616    84.926362 
   32400    1506.4616   -108.84849    1.3630781   -107.48542    19830.483    4.3816803    4.3816803    4.3816803    19830.483    91308.696   -21336.369   -10480.878   -1423.0752   -20730.578   -4433.3814    84.124418 
   32500    1735.3901   -109.06979    1.5702174   -107.49958   -18054.782    4.3944532    4.3944532    4.3944532   -18054.782    -28126.07   -42636.105     16597.83   -38366.602    12791.533    7346.3628    84.862245 
   32600    1270.5114   -108.64834    1.1495854   -107.49876   -49014.987    4.4093066    4.4093066    4.4093066   -49014.987   -29229.918   -63273.977   -54541.066    27412.585    16924.554   -16742.273    85.725673 
   32700    2237.3961   -109.49789     2.024443   -107.47345   -4512.1094    4.3897421    4.3897421    4.3897421   -4512.1094    2891.8851   -31433.353     15005.14   -33543.772   -24966.497     2517.805    84.589608 
   32800    1095.8402    -108.4766   0.99153922   -107.48506    -20515.76    4.3892102    4.3892102    4.3892102    -20515.76   -42676.023    -70057.69    51186.435    -15950.92    28677.192    9803.1046    84.558863 
   32900     2048.146   -109.32847    1.8532056   -107.47527   -20985.914    4.3942757    4.3942757    4.3942757   -20985.914    14773.977   -53124.071   -24607.647    24634.874    216.75132   -19054.587    84.851963 
   33000    1401.7917   -108.75482    1.2683706   -107.48645   -12191.274    4.3997261    4.3997261    4.3997261   -12191.274   -22216.931   -67917.934    53561.043   -64042.171   -23735.318    7663.3031    85.168091 
   33100    1850.1164     -109.158    1.6740242   -107.48398   -25595.036    4.3972466    4.3972466    4.3972466   -25595.036   -28947.608   -49706.459    1868.9574    26468.222    1579.4613    2528.6182    85.024181 
   33200    1520.2708   -108.86104    1.3755729   -107.48546    14166.478    4.3931906    4.3931906    4.3931906    14166.478    42438.344   -31879.262    31940.351   -18927.252   -5309.0621    -17220.02    84.789124 
   33300      1518.39   -108.85914    1.3738712   -107.48527   -7715.3889    4.4000105    4.4000105    4.4000105   -7715.3889   -9459.0373   -34511.841    20824.711   -24235.061   -2740.5098   -2533.7463    85.184612 
   33400    1875.9685   -109.17056    1.6974158   -107.47315   -19582.368    4.4063511    4.4063511    4.4063511   -19582.368    17623.074   -63024.563   -13345.614     46108.75    -4293.944    -5355.165    85.553402 
   33500      1237.23   -108.60076    1.1194717   -107.48129     3868.937    4.3961535    4.3961535    4.3961535     3868.937    37992.617   -55089.317    28703.511   -43561.393   -24935.609   -16169.892    84.960789 
   33600    1444.4105   -108.78574     1.306933    -107.4788    13833.039    4.3765776    4.3765776    4.3765776    13833.039    12391.703   -2803.0881    31910.501    1066.6068   -4728.1447   -11077.029    83.830858 
   33700    2096.9392   -109.38575    1.8973547    -107.4884    6694.9596    4.3814123    4.3814123    4.3814123    6694.9596    29662.105   -19811.994    10234.768    30719.158    2284.3225   -5411.1328    84.108979 
   33800    1079.4009   -108.48777   0.97666462   -107.51111   -26410.023    4.4059544    4.4059544    4.4059544   -26410.023    4172.8302    -76725.13   -6677.7688   -46921.782   -8052.3935   -12602.772    85.530301 
   33900    1819.3085   -109.12228    1.6461485   -107.47613   -6399.7267    4.4116879    4.4116879    4.4116879   -6399.7267   -24027.057   -27809.841    32637.718    7458.8649    1192.4824    16110.996    85.864638 
   34000    1381.5402   -108.72201    1.2500466   -107.47196   -13174.097    4.3986227    4.3986227    4.3986227   -13174.097    27073.029   -44869.124   -21726.194     5907.931      10056.8    -21674.95    85.104032 
   34100     1563.615   -108.88425    1.4147917   -107.46946    7452.0586    4.3781654    4.3781654    4.3781654    7452.0586    24562.522   -20501.066     18294.72   -39084.083   -5669.2788    5168.2809    83.922128 
   34200    2305.4494   -109.57081    2.0860191   -107.48479    24092.399    4.3881852    4.3881852    4.3881852    24092.399    4737.5242    30640.297    36899.376    19824.762    11942.024     13021.76    84.499637 
   34300    1469.8165   -108.83857    1.3299208   -107.50865    16777.333    4.3941616    4.3941616    4.3941616    16777.333    32337.094    8135.5709    9859.3337   -18143.523    3357.6983   -18402.881    84.845356 
   34400     1299.538   -108.68526    1.1758493   -107.50941    18376.654    4.3903597    4.3903597    4.3903597    18376.654    2583.0122    49727.535    2819.4138   -25934.529   -6894.1523    21886.802    84.625314 
   34500    1939.5694   -109.24565    1.7549631   -107.49068    10596.135    4.3964651    4.3964651    4.3964651    10596.135    1179.0106    -20183.06    50792.453    33557.308    -1197.762    9484.5263     84.97886 
   34600    1077.1513   -108.46992   0.97462911   -107.49529    39312.413    4.3908118    4.3908118    4.3908118    39312.413   -5007.0303    52272.844    70671.425   -58582.609   -7260.0294   -18630.989    84.651464 
   34700     2025.859   -109.31061    1.8330398   -107.47757   -741.50219    4.4067359    4.4067359    4.4067359   -741.50219    11202.301   -21790.323    8363.5162    19264.204   -7776.4776    13470.612    85.575822 
   34800    1332.6003   -108.67176    1.2057648   -107.46599   -25652.606     4.413974     4.413974     4.413974   -25652.606   -19161.131   -56109.098   -1687.5896   -176.65941   -6524.5305    22117.463    85.998193 
   34900    1626.5922   -108.92935    1.4717748   -107.45758    15074.615    4.3890945    4.3890945    4.3890945    15074.615    3396.7525    14668.169    27158.924   -40386.677   -12349.905   -11887.216    84.552177 
   35000    2064.5593   -109.33736    1.8680566    -107.4693    19900.358    4.3826315    4.3826315    4.3826315    19900.358    27407.753    14304.128    17989.192    22434.169    9675.1174    7950.8735    84.179217 
   35100    1370.9816   -108.74346    1.2404929   -107.50296    13522.556    4.4024881    4.4024881    4.4024881    13522.556    21905.697    6060.5802    12601.391   -30881.963   -6939.2262    24893.128    85.328589 
   35200    1501.4976   -108.84757    1.3585866   -107.48898     -11908.9    4.4274113    4.4274113    4.4274113     -11908.9   -10151.508   -11633.915   -13941.278    -1660.562    5736.2795   -20207.269    86.785984 
   35300    1758.9445   -109.03709    1.5915299   -107.44556   -19439.185    4.4282359    4.4282359    4.4282359   -19439.185   -40130.225   -47977.763    29790.433   -5084.5105    844.70284    16193.015    86.834485 
   35400    1072.0356   -108.39212   0.97000036   -107.42211    13155.635    4.4107256    4.4107256    4.4107256    13155.635    48413.875   -47772.533    38825.564   -5080.8782   -17713.026   -1688.0175     85.80846 
   35500     1555.647   -108.82331    1.4075821   -107.41573    19739.147    4.3990251    4.3990251    4.3990251    19739.147    41002.102   -48214.794    66430.134    6746.2874   -12358.543   -9414.2306     85.12739 
   35600    1602.1545   -108.89571    1.4496631   -107.44605    5905.2061    4.3988613    4.3988613    4.3988613    5905.2061   -16366.313     -31906.2    65988.132   -26941.222   -6699.1647   -2144.5015    85.117879 
   35700    1431.3691   -108.76878    1.2951328   -107.47364    -2963.181    4.3921867    4.3921867    4.3921867    -2963.181    30188.716   -63338.132    24259.874    9482.7595   -11661.945   -44569.547     84.73101 
   35800    1434.3769   -108.79126    1.2978543   -107.49341    1886.2625    4.3821335    4.3821335    4.3821335    1886.2625    20883.267     -50452.7    35228.221    1807.0506   -504.00006    20322.668    84.150523 
   35900    1722.5699   -109.06411    1.5586175    -107.5055   -5057.7892    4.3857756    4.3857756    4.3857756   -5057.7892   -11375.834    3495.0082   -7292.5414   -16487.467   -27463.831   -9630.4464    84.360517 
   36000    1662.4861   -109.01425    1.5042524      -107.51   -37576.082    4.4039031    4.4039031    4.4039031   -37576.082     3801.341    -71881.38   -44648.208    12870.947   -7939.4045   -14560.527    85.410893 
   36100    1409.5094    -108.7736    1.2753538   -107.49825   -17115.232     4.400521     4.400521     4.400521   -17115.232    7689.5408   -44841.207   -14194.031   -2868.6234    5233.2668    38854.601    85.214262 
   36200    1931.0803   -109.22675     1.747282   -107.47946    25652.748    4.3757488    4.3757488    4.3757488    25652.748    11355.155    34118.981    31484.109    216.29429   -39009.704   -21404.943    83.783238 
   36300    1253.8988   -108.63964     1.134554   -107.50509   -239.54511    4.3786055    4.3786055    4.3786055   -239.54511    32911.251   -57943.403    24313.517    9568.3215    12780.401     37296.49    83.947442 
   36400    1416.3779   -108.79587    1.2815685    -107.5143   -9248.0356     4.397219     4.397219     4.397219   -9248.0356    4828.5018   -55514.915    22942.307   -3337.2881   -177.49136    14489.171     85.02258 
   36500    2012.0229   -109.31095    1.8205206   -107.49043    7058.9268    4.4014635    4.4014635    4.4014635    7058.9268   -37510.859    -8353.836    67041.475    8651.7647   -19773.103   -3446.0088    85.269026 
   36600    875.92584   -108.29893    0.7925561   -107.50637   -24640.619     4.394183     4.394183     4.394183   -24640.619    62032.469   -73740.175   -62214.153   -1157.5337    21026.864    57819.919    84.846597 
   36700    2061.1753   -109.35868    1.8649947   -107.49368    10117.858    4.3752056    4.3752056    4.3752056    10117.858     12386.99   -6774.5922    24741.177    1508.9522   -12296.457   -16325.455    83.752042 
   36800     2089.899   -109.40056    1.8909845   -107.50957    43.694595    4.3837982    4.3837982    4.3837982    43.694595   -3343.2924    -14652.66    18127.036    1500.2749   -7295.7709    23959.042    84.246462 
   36900    1087.2112   -108.50636   0.98373153   -107.52263   -35187.817    4.3989061    4.3989061    4.3989061   -35187.817    37348.878   -83697.452   -59214.877    2094.6105    28634.731    38287.293     85.12048 
   37000    1611.3378   -108.96321    1.4579723   -107.50523    4005.6377    4.3883454    4.3883454    4.3883454    4005.6377   -26662.949    1601.7118     37078.15    1820.3863    -33636.77   -29135.708    84.508894 
   37100    1744.1539   -109.08739    1.5781471   -107.50924   -17134.866    4.3908684    4.3908684    4.3908684   -17134.866   -45266.702   -1009.0436   -5128.8516     2666.975   -32966.351    23285.979    84.654735 
   37200    1792.7444   -109.12963    1.6221128   -107.50751     19882.72    4.3756226    4.3756226    4.3756226     19882.72      25354.5   -27011.692    61305.353    14332.949    12922.747    13017.713    83.775989 
   37300    1428.0132   -108.81859    1.2920963    -107.5265   -21002.185    4.3871966    4.3871966    4.3871966   -21002.185   -30881.968    7985.8624    -40110.45   -5631.6798   -32615.795   -32007.289    84.442539 
   37400     1563.841   -108.92663    1.4149962   -107.51163   -25473.004    4.4029978    4.4029978    4.4029978   -25473.004   -79353.428    10801.875   -7867.4585   -4381.3433    13581.374    18423.842     85.35823 
   37500    1872.2999   -109.19644    1.6940963   -107.50235    4147.4723    4.3911182    4.3911182    4.3911182    4147.4723   -12421.314    22992.895    1870.8365     8040.051   -4174.6184   -20304.126    84.669188 
   37600    1051.5462   -108.46444   0.95146108   -107.51298    4038.4628    4.3923607    4.3923607    4.3923607    4038.4628   -24350.144    75444.768   -38979.236   -19432.841   -21082.268   -25108.803    84.741077 
   37700    1719.5138   -109.04282    1.5558523   -107.48697    9179.3725    4.3991821    4.3991821    4.3991821    9179.3725   -38021.159     30679.37    34879.906    3033.2542    25271.016    1189.9124    85.136508 
   37800    1550.5168   -108.88056    1.4029401   -107.47762   -21125.385    4.4185716    4.4185716    4.4185716   -21125.385   -54500.228   -17858.895    8982.9687    21249.016   -20264.109   -20923.247      86.2672 
   37900    1781.9406   -109.06695    1.6123373   -107.45461   -18083.646    4.4108579    4.4108579    4.4108579   -18083.646   -51133.434    12457.741   -15575.245   -4662.2163    1493.5049   -14726.139    85.816183 
   38000    1859.5829   -109.12549    1.6825897    -107.4429    10516.757     4.386197     4.386197     4.386197    10516.757   -4988.2193    39317.883   -2779.3945    33275.884     25131.05    14705.889    84.384833 
   38100     1344.569   -108.68904    1.2165943   -107.47245   -9747.3984    4.3928369    4.3928369    4.3928369   -9747.3984    9316.5167      7619.21   -46177.922    3094.4317   -29953.103   -11071.299    84.768645 
   38200    2258.0375   -109.51555    2.0431198   -107.47243   -24131.955    4.4089688    4.4089688    4.4089688   -24131.955   -47443.099    4570.6297   -29523.395   -1515.6781    13171.442    10769.769     85.70597 
   38300    1624.1003   -108.95144    1.4695201   -107.48192   -24223.911    4.4074059    4.4074059    4.4074059   -24223.911   -24368.238   -5862.4577   -42441.038    15780.524   -5952.3728    -2567.946    85.614857 
   38400    798.88644   -108.21837   0.72284924   -107.49553    -18422.74    4.3864428    4.3864428    4.3864428    -18422.74   -13153.138    11833.671   -53948.752   -1514.2705   -61889.321   -25162.587    84.399023 
   38500    1851.6502   -109.17471    1.6754121    -107.4993    20070.888    4.3810267    4.3810267    4.3810267    20070.888    15807.079    16925.391    27480.195   -40441.982    11176.407    8842.9911    84.086778 
   38600     1505.739   -108.87137    1.3624243   -107.50895    4558.9663    4.4012377    4.4012377    4.4012377    4558.9663    7531.7952    36133.697   -29988.593   -12549.063   -25188.881   -9658.1529    85.255908 
   38700    989.65717    -108.3928   0.89546261   -107.49733     257.6631    4.4040945    4.4040945    4.4040945     257.6631    19298.737    47610.819   -66136.567   -16820.908   -28466.087   -27867.394     85.42203 
   38800       2177.3   -109.43771    1.9700668   -107.46764   -2060.5412    4.4050372    4.4050372    4.4050372   -2060.5412   -4754.2987   -17506.461    16079.137     10809.64    14403.288    18069.737    85.476898 
   38900    1523.3865   -108.84381    1.3783921   -107.46542   -30244.331    4.4007952    4.4007952    4.4007952   -30244.331   -41943.605    22322.976   -71112.365    6840.9197   -53052.964    -23992.12    85.230194 
   39000    2011.1712   -109.28337    1.8197499   -107.46363   -8604.7577    4.3954695    4.3954695    4.3954695   -8604.7577    -12432.76   -15814.501    2432.9874   -4425.3396    21042.764    -4233.391    84.921137 
   39100    1285.8032   -108.64647    1.1634217   -107.48305   -33323.318    4.4041442    4.4041442    4.4041442   -33323.318   -79857.734    37067.643   -57179.863    14096.789   -48265.912    18776.272    85.424922 
   39200    1326.7875   -108.67984    1.2005052   -107.47934   -2245.0813    4.3933457    4.3933457    4.3933457   -2245.0813   -6828.4519    33155.836   -33062.627   -10697.271   -27839.464   -30698.007    84.798101 
   39300    2012.2367   -109.30115     1.820714   -107.48044    18973.692    4.3818051    4.3818051    4.3818051    18973.692    38198.173    -18295.57    37018.471   -8947.0566    11441.986      9353.51    84.131605 
   39400    1389.1774    -108.7643    1.2569569   -107.50734    6538.7938    4.3823157    4.3823157    4.3823157    6538.7938   -42418.118    32988.108    29046.391    2991.2672    -51553.06    7714.9138    84.161021 
   39500    1229.2076    -108.6309    1.1122129   -107.51869    22479.067    4.3924022    4.3924022    4.3924022    22479.067    30287.415    -17333.84    54483.628    6140.0875    21605.433   -26573.077    84.743483 
   39600    2069.0421   -109.36604    1.8721128   -107.49393   -7027.7845    4.4054252    4.4054252    4.4054252   -7027.7845   -25936.941    17153.315   -12299.728   -8182.0905     5753.526    18936.327    85.499483 
   39700    1577.0324   -108.91792     1.426932   -107.49098    21428.934    4.3878482    4.3878482    4.3878482    21428.934    -6561.022    48418.187    22429.638   -5690.9651   -32419.297   -12816.945    84.480169 
   39800    1148.5208   -108.53855    1.0392058   -107.49935    12664.926    4.3790278    4.3790278    4.3790278    12664.926    40493.035    13719.931   -16218.188    3526.1566    29190.975   -20307.406    83.971733 
   39900    1934.1912   -109.24907    1.7500968   -107.49897     9190.633    4.3903213    4.3903213    4.3903213     9190.633   -7027.6331    40434.861   -5835.3292   -5442.4073    9548.3173    32719.458    84.623098 
   40000    1455.9363   -108.82872    1.3173617   -107.51136   -22362.989    4.4048306    4.4048306    4.4048306   -22362.989    12389.848   -52239.691   -27239.123   -7135.1661   -7813.4191   -36634.578    85.464869 
   40100    951.97068   -108.36172   0.86136308   -107.50036   -7040.7367    4.3997925    4.3997925    4.3997925   -7040.7367    21132.703   -15531.687   -26723.226     8888.337    23022.399   -236.39208    85.171951 
   40200    2146.2772   -109.42157    1.9419967   -107.47957    1185.9512     4.382802     4.382802     4.382802    1185.9512    6638.7257    13964.414   -17045.286    4843.2968    12851.712    10708.618     84.18904 
   40300    1681.7973    -109.0244    1.5217255   -107.50267   -7589.9612    4.3795553    4.3795553    4.3795553   -7589.9612    4716.8951    844.82785   -28331.607   -2716.9808   -2722.5532   -40999.545     84.00208 
   40400    1320.7832   -108.71417    1.1950724    -107.5191    11029.644     4.380339     4.380339     4.380339    11029.644   -23622.818    77297.162   -20585.412     11019.49    24278.037    5116.9754    84.047184 
   40500     1460.814   -108.84158    1.3217752   -107.51981   -5793.2464    4.4062974    4.4062974    4.4062974   -5793.2464   -19082.144    7305.0145     -5602.61   -6578.5814   -15785.773   -11342.122    85.550274 
   40600    1719.4822   -109.06061    1.5558236   -107.50479   -30436.755    4.3977864    4.3977864    4.3977864   -30436.755   -31700.856    -21933.25    -37676.16   -2602.2187    18348.972   -28401.254    85.055496 
   40700    1825.3762   -109.13741    1.6516387   -107.48577     13845.44    4.3558438    4.3558438    4.3558438     13845.44   -17345.992    58041.571    840.74083    11024.065    50859.609    13972.846    82.645059 
   40800    1632.4799   -108.98799    1.4771021   -107.51089    13296.052    4.3728578    4.3728578    4.3728578    13296.052    18585.796    14858.379    6443.9813   -4079.4539   -38533.351   -22677.956    83.617283 
   40900    1275.6696   -108.66378    1.1542527   -107.50953   -33909.727    4.4023933    4.4023933    4.4023933   -33909.727   -27713.993    10797.306   -84812.495   -7759.1277    45474.522    -27934.14    85.323078 
   41000    1624.7906   -108.95973    1.4701447   -107.48958   -18687.093     4.401411     4.401411     4.401411   -18687.093    11268.132   -12649.947   -54679.463    11122.843    29773.265    10365.517    85.265976 
   41100    1768.4585   -109.08971    1.6001384   -107.48958   -12664.816    4.3827772    4.3827772    4.3827772   -12664.816   -1263.4222   -12317.828   -24413.197    6097.3225   -16373.697    -18981.06    84.187613 
   41200    1182.1751   -108.57194    1.0696569   -107.50228    25652.617    4.3608887    4.3608887    4.3608887    25652.617    54232.174    52438.498   -29712.821   -11451.179    54171.349   -9205.2719     82.93255 
   41300    1748.1777   -109.11532    1.5817879   -107.53353   -22740.231    4.3829242    4.3829242    4.3829242   -22740.231   -4853.4886   -24823.374   -38543.832     27681.52     12963.08    25815.229    84.196083 
   41400    1863.0888   -109.19946    1.6857619    -107.5137   -7862.0308     4.396374     4.396374     4.396374   -7862.0308     1453.736   -18044.738   -6995.0905    16009.032   -46.088486   -7443.9123    84.973578 
   41500    1243.3467   -108.63859    1.1250062   -107.51358   -4490.0016    4.3880172    4.3880172    4.3880172   -4490.0016   -21295.477    64799.141   -56973.669   -9827.2916    57234.003    5249.2263    84.489931 
   41600    1372.1407   -108.74797    1.2415418   -107.50643   -19071.851    4.3845525    4.3845525    4.3845525   -19071.851   -26670.212    -2640.026   -27905.314    34436.344   -12995.384     21673.26    84.289953 
   41700    2115.3211   -109.40762     1.913987   -107.49363    12392.202    4.3757505    4.3757505    4.3757505    12392.202   -8022.4544    18897.264    26301.796    4596.4207    9401.4907   -5589.1334    83.783335 
   41800     1592.595    -108.9497    1.4410134   -107.50869   -19124.084    4.3926396    4.3926396    4.3926396   -19124.084   -22843.155    19093.772   -53622.869   -5346.0945    45398.418    19198.707    84.757224 
   41900     1167.219    -108.5605    1.0561242   -107.50438   -5727.5494    4.3936164    4.3936164    4.3936164   -5727.5494   -39784.459    11241.243    11360.569    40672.836   -21190.981    6813.6026     84.81378 
   42000    2026.0975   -109.31767    1.8332556   -107.48442    9142.6576    4.3864161    4.3864161    4.3864161    9142.6576   -7669.9056     10393.53    24704.349   -3343.0624   -6255.6079    1687.9593    84.397479 
   42100    1510.4833    -108.8667     1.366717   -107.49999    5966.8246    4.3816744    4.3816744    4.3816744    5966.8246    29136.371    5020.8119   -16256.708   -6556.7169    14599.049    48510.575    84.124075 
   42200    1317.8946   -108.69963    1.1924588   -107.50717    19682.661    4.3841575    4.3841575    4.3841575    19682.661     41526.55     12761.29    4760.1424    30141.715   -23995.355   -13106.921    84.267179 
   42300    2104.7248   -109.38937    1.9043992   -107.48497   -24119.399    4.4099287    4.4099287    4.4099287   -24119.399    5041.5791   -44951.946   -32447.829   -18971.282     1464.393    20929.411    85.761964 
   42400    1215.7845   -108.57763    1.1000673   -107.47756    2441.3118    4.3975166    4.3975166    4.3975166    2441.3118    22107.156   -1046.8218   -13736.399    22738.185   -1070.6721    45617.294    85.039847 
   42500    1802.1943   -109.08436    1.6306633   -107.45369    18660.074    4.3728105    4.3728105    4.3728105    18660.074    33205.712    21420.034    1354.4757     14076.56   -22445.558   -16862.043    83.614571 
   42600     1387.537   -108.73968    1.2554727   -107.48421    774.36009    4.3803954    4.3803954    4.3803954    774.36009    46877.061   -24485.727   -20068.253   -16998.556    19648.801    49280.417    84.050429 
   42700    1719.2528   -109.04795    1.5556161   -107.49234    20686.051    4.3828376    4.3828376    4.3828376    20686.051    41566.145    33230.744   -12738.736    8716.2133   -14763.447    5622.4728    84.191094 
   42800     1425.255   -108.79631    1.2896007   -107.50671    2034.3201    4.3974049    4.3974049    4.3974049    2034.3201    24808.406     -8154.88   -10550.565    12924.323   -22858.745   -4858.3466    85.033367 
   42900     1555.708   -108.89849    1.4076373   -107.49085   -13113.322    4.3964838    4.3964838    4.3964838   -13113.322    6777.2877   -41376.569   -4740.6847   -23019.605    11839.596    31797.551    84.979942 
   43000    1645.6905   -108.96777    1.4890553   -107.47872     33869.04    4.3743619    4.3743619    4.3743619     33869.04    11781.658    68294.164    21531.298   -4056.6603   -35774.517   -4961.6623    83.703599 
   43100    1829.2607   -109.14199    1.6551535   -107.48683    11088.647      4.38236      4.38236      4.38236    11088.647    30980.889   -14919.161    17204.215    6287.1451    1870.2753    16014.933    84.163571 
   43200    1389.8524    -108.7533    1.2575676   -107.49573    -9810.397    4.3910968    4.3910968    4.3910968    -9810.397   -9416.8864   -20061.549    47.244522   -16244.322   -19939.978    16125.722    84.667948 
   43300    1338.3312   -108.70583    1.2109502   -107.49488    3709.3445    4.3954328    4.3954328    4.3954328    3709.3445   -38682.053    33201.729    16608.358    1505.8063   -44164.118    648.41069    84.919015 
   43400    1736.1958   -109.05278    1.5709465   -107.48184   -3730.6139    4.3966372    4.3966372    4.3966372   -3730.6139    18379.524   -48276.318    18704.952    14503.589    19720.578    37716.059    84.988838 
   43500    1035.6643   -108.42837   0.93709079   -107.49128   -6742.9745    4.3838477    4.3838477    4.3838477   -6742.9745   -41013.985    11369.577    9415.4845    -13216.79   -64959.338   -2015.5903    84.249312 
   43600     2292.255   -109.55588    2.0740805   -107.48179   -3065.0639    4.3756687    4.3756687    4.3756687   -3065.0639    -19796.93   -8093.1171    18694.855    4416.7452   -12885.817    2368.4431    83.778639 
   43700    1631.5783   -108.97562    1.4762863   -107.49933    -8664.891     4.387347     4.387347     4.387347    -8664.891    -16457.17   -14940.691    5403.1887    10279.114   -18130.023     30338.35    84.451224 
   43800    1208.3415    -108.5871    1.0933327   -107.49377   -25451.064    4.4057241    4.4057241    4.4057241   -25451.064   -32347.757    24362.265     -68367.7   -8855.6117   -67180.245   -6592.0037    85.516891 
   43900    2241.3558   -109.48005    2.0280258   -107.45202   -18910.629    4.4070569    4.4070569    4.4070569   -18910.629    2690.4471   -43756.494    -15665.84    17117.081    22643.624    3020.6987    85.594525 
   44000    1066.9849   -108.42589   0.96543032   -107.46046   -8671.9147    4.3994313    4.3994313    4.3994313   -8671.9147    12023.412    2035.0856   -40074.242    8228.0636   -69595.887    3197.0534    85.150972 
   44100    2185.7098    -109.4216    1.9776761   -107.44392    28755.709    4.3869496    4.3869496    4.3869496    28755.709     92023.19   -4317.1025   -1438.9604    1457.6099    5332.4638   -2047.7886    84.428278 
   44200    1104.6242   -108.48813   0.99948721   -107.48864   -5486.3438    4.3909062    4.3909062    4.3909062   -5486.3438    12571.977     28971.62   -58002.628    15225.603   -32155.331    15931.033    84.656925 
   44300    1386.4612   -108.74774    1.2544992   -107.49324   -10418.893    4.3929661    4.3929661    4.3929661   -10418.893    5979.9791    24150.713    -61387.37    -1709.239    -50802.41    9965.0811    84.776126 
   44400    1993.1879   -109.28177    1.8034783   -107.47829    10457.399    4.3801551    4.3801551    4.3801551    10457.399   -5298.7748     11943.63    24727.341    -7046.296    5751.8886   -8920.7868    84.036597 
   44500    929.78092   -108.34801   0.84128531   -107.50672   -29354.335    4.3930495    4.3930495    4.3930495   -29354.335   -81232.778    56422.151   -63252.378     12812.96   -76112.284     16431.38    84.780955 
   44600     2453.227   -109.69172    2.2197314   -107.47199    19365.709    4.3910731    4.3910731    4.3910731    19365.709     6625.623    15394.308    36077.196   -13918.563    25411.603    -3349.668    84.666577 
   44700    952.40372    -108.3557    0.8617549   -107.49395   -7689.7774    4.3962803    4.3962803    4.3962803   -7689.7774   -48190.724    40691.505   -15570.113    16689.263   -59329.545    804.40873    84.968141 
   44800     1714.228   -109.03099    1.5510695   -107.47992   -22256.022    4.3980646    4.3980646    4.3980646   -22256.022   -17369.079   -958.77372   -48440.213    11570.557   -19116.798    19680.157    85.071642 
   44900    1992.4329   -109.27431    1.8027951   -107.47151    19488.384    4.3758938    4.3758938    4.3758938    19488.384    35718.445    4897.4218    17849.286   -17819.529    8980.6305   -3327.0459    83.791566 
   45000    812.19279   -108.24847    0.7348891   -107.51359   -2572.7817    4.3826719    4.3826719    4.3826719   -2572.7817   -486.53246     39716.09   -46947.903     15683.98   -76571.028    3018.3393    84.181541 
   45100     2171.153   -109.45523    1.9645049   -107.49073   -338.34321    4.3943995    4.3943995    4.3943995   -338.34321    44559.874   -15094.616   -30480.288   -5332.6706    23679.398   -2544.6468    84.859136 
   45200    1307.0849   -108.68392    1.1826778   -107.50124    -4200.236     4.391238     4.391238     4.391238    -4200.236   -2046.1258    33437.359   -43991.941   -2426.3692   -32737.846   -49.593161    84.676113 
   45300    1507.9928   -108.85695    1.3644636   -107.49249   -8996.5817    4.3899259    4.3899259    4.3899259   -8996.5817     10354.09    14344.223   -51688.057    7562.9174   -42855.389   -13207.126    84.600236 
   45400    2109.8847   -109.39198     1.909068   -107.48292   -7761.9057     4.382941     4.382941     4.382941   -7761.9057    17231.268    -12860.27   -27656.716   -10880.333     13613.38   -13774.208     84.19705 
   45500    1092.1265   -108.49463   0.98817898   -107.50645     -17181.7    4.3935565    4.3935565    4.3935565     -17181.7   -46275.501     37885.51   -43155.108   -116.58617   -55408.724    2412.0982    84.810311 
   45600    2131.9989   -109.40882    1.9290775   -107.47974   -12570.811    4.4097267    4.4097267    4.4097267   -12570.811    33851.638   -31666.775   -39897.295    2946.7126    7127.4228   -22469.786    85.750178 
   45700    1705.2468   -109.01705    1.5429432    -107.4741   -5332.5166    4.3956074    4.3956074    4.3956074   -5332.5166    2124.5647    22790.761   -40912.875   -4428.1821   -24961.947    4271.8527     84.92913 
   45800    1221.8516   -108.58715     1.105557   -107.48159    12826.521     4.380467     4.380467     4.380467    12826.521    50256.945    40280.869   -52058.251   -4481.3728   -21281.952    -14242.22    84.054554 
   45900    1808.7662   -109.12147    1.6366096   -107.48486    20970.347    4.3867538    4.3867538    4.3867538    20970.347    52003.381    8700.8231    2206.8358    26517.195    26066.808   -18018.696    84.416974 
   46000    1280.6118   -108.66168    1.1587245   -107.50296    15045.765    4.3968078    4.3968078    4.3968078    15045.765    520.76268    64333.384   -19716.853    13835.225   -35847.349   -619.41521    84.998731 
   46100    1982.2595   -109.27707      1.79359   -107.48348   -22868.419    4.4134647    4.4134647    4.4134647   -22868.419   -40325.775    35718.025   -63997.506    8626.5514    19789.373    260.93687    85.968427 
   46200      1529.92   -108.84885    1.3843038   -107.46454    1052.5959    4.4038169    4.4038169    4.4038169    1052.5959   -48602.287    34849.853    16910.222    52336.977   -13357.913    6762.1858    85.405876 
   46300    1657.1779   -108.96161    1.4994494   -107.46216    6881.9846    4.3906625    4.3906625    4.3906625    6881.9846   -20412.984    45630.665   -4571.7266   -17853.519   -29286.383    14849.088    84.642827 
   46400    1759.4542   -109.06397    1.5919912   -107.47198    4353.6782    4.3816045    4.3816045    4.3816045    4353.6782   -16846.772    18212.583    11695.224    19979.414    24605.157    22752.264    84.120048 
   46500    1268.2382   -108.64685    1.1475286   -107.49932    7154.8344     4.381491     4.381491     4.381491    7154.8344   -28636.927    41761.621     8339.809    41783.451   -43251.526     1708.616    84.113511 
   46600    1891.7559   -109.20022    1.7117005   -107.48852   -22149.186     4.400971     4.400971     4.400971   -22149.186   -28596.534   -25788.419   -12062.604   -44992.374   -9572.4399    18994.526    85.240406 
   46700    1374.9458   -108.73056    1.2440798   -107.48648    5402.2787    4.3908332    4.3908332    4.3908332    5402.2787   -39559.051    18810.156    36955.732    34378.079    3329.4455    6689.6257    84.652698 
   46800     1826.542   -109.13168    1.6526936   -107.47899    -12796.04    4.3868494    4.3868494    4.3868494    -12796.04   -48357.961    24450.628   -14480.788   -2010.7314   -50299.772   -5562.5088    84.422494 
   46900    1411.0437   -108.76052     1.276742   -107.48378   -21509.155     4.394134     4.394134     4.394134   -21509.155   -26043.414     -62452.6    23968.549   -29355.856     12204.47    8136.2096    84.843756 
   47000    2051.7094   -109.32818    1.8564298   -107.47175   -3104.7316     4.390996     4.390996     4.390996   -3104.7316   -19994.274   -2806.9838    13487.063    34601.243   -18099.877    5387.4312    84.662115 
   47100    1085.5035   -108.46535    0.9821864   -107.48317    -11514.01    4.3961029    4.3961029    4.3961029    -11514.01   -28388.352   -21960.064    15806.387   -44627.903    -23020.38   -7568.2946    84.957858 
   47200    1889.5187   -109.18659    1.7096762   -107.47691   -7565.2254     4.396072     4.396072     4.396072   -7565.2254     675.3997   -51553.584    28182.508    13315.448   -6172.7094    6539.8159    84.956063 
   47300    1452.3052   -108.79069    1.3140763   -107.47662    3953.1822    4.3948688    4.3948688    4.3948688    3953.1822   -30883.431   -6820.1435    49563.122   -23837.078   -6146.8667    781.55495    84.886325 
   47400     941.2044   -108.34346   0.85162152   -107.49184   -15775.259     4.390296     4.390296     4.390296   -15775.259   -22295.211    -54386.24    29355.675   -34517.346   -34623.915   -24490.382    84.621635 
   47500    2056.8884   -109.33576    1.8611158   -107.47465    37798.934    4.3821809    4.3821809    4.3821809    37798.934    19468.121    -9648.091    103576.77    12982.635   -1806.7483    6139.2506    84.153255 
   47600    564.50861   -108.02103   0.51077925   -107.51025    25940.151    4.3989878    4.3989878    4.3989878    25940.151    7164.7398    -14003.11    84658.823   -32174.225   -10884.699   -24134.932    85.125228 
   47700     2349.494   -109.55886    2.1258715   -107.43298   -20816.271    4.4322201    4.4322201    4.4322201   -20816.271   -23581.018   -47564.945    8697.1514    19631.855    5388.2119    8005.4679    87.069079 
   47800    644.65775   -107.99964   0.58329988   -107.41634   -30684.279    4.4263533    4.4263533    4.4263533   -30684.279   -28517.032   -63456.733   -79.071482    -36657.44   -8635.2241    5297.5729    86.723788 
   47900    2516.2414    -109.6613    2.2767481   -107.38456    5022.5434    4.3835292    4.3835292    4.3835292    5022.5434    35718.296    4447.5984   -25098.264    7001.8423    17098.233   -18364.375    84.230954 
   48000    1131.8954   -108.44252    1.0241627   -107.41836    28159.419    4.3584286    4.3584286    4.3584286    28159.419    13962.828    -14192.45    84707.879   -47040.972   -1674.4427    22395.136    82.792271 
   48100     1800.094   -109.11012    1.6287629   -107.48135   -12516.088    4.3889429    4.3889429    4.3889429   -12516.088    2119.7099   -38873.851    -794.1224    395.50559   -5036.3075   -5908.6981    84.543419 
   48200    1669.5498   -108.96853    1.5106437   -107.45789   -19627.218    4.4190537    4.4190537    4.4190537   -19627.218   -40089.053    -26615.01    7822.4088   -22641.828    16537.171   -3402.0714    86.295439 
   48300    927.22356   -108.29457   0.83897136    -107.4556    1833.9016    4.4032826    4.4032826    4.4032826    1833.9016    2482.7578   -37472.492    40491.439   -32646.299    6474.9086    17240.604    85.374799 
   48400    2449.3433   -109.64949    2.2162173   -107.43327    27811.746    4.3765176    4.3765176    4.3765176    27811.746    38448.562    35772.217    9214.4606    30653.564    5384.5542    -22918.66    83.827409 
   48500    812.81866   -108.21938   0.73545541   -107.48392    11225.901    4.3702485    4.3702485    4.3702485    11225.901     12585.77   -1835.4278    22927.361   -55064.242     9904.231    5865.5574    83.467693 
   48600    2031.4555   -109.33214    1.8381037   -107.49403    -4986.106    4.3963687    4.3963687    4.3963687    -4986.106    15266.929   -29571.848   -653.39833   -181.55911    720.75801    8318.7432    84.973268 
   48700    1555.2819   -108.88817    1.4072518   -107.48092   -24885.286    4.4070501    4.4070501    4.4070501   -24885.286   -38759.791    3307.5189   -39203.586    538.48082    5491.9843   -18414.018    85.594126 
   48800     1140.691   -108.51642    1.0321212    -107.4843    -14256.19    4.3833694    4.3833694    4.3833694    -14256.19    -13329.32   -36089.897    6650.6458   -64161.304     6808.318    125.60918    84.221743 
   48900    2299.4669    -109.5452     2.080606   -107.46459    18062.942     4.376018     4.376018     4.376018    18062.942    20271.451    25396.476    8520.9002    39894.525   -10217.579    9208.3357    83.798702 
   49000    1020.1093   -108.41535    0.9230163   -107.49234   -15409.565    4.3934444    4.3934444    4.3934444   -15409.565    -8237.988   -24919.178   -13071.528   -47271.504   -7159.3411   -8405.0169    84.803815 
   49100     2040.127   -109.31368    1.8459498   -107.46773   -8882.0042    4.4101379    4.4101379    4.4101379   -8882.0042    11219.315   -16372.822   -21492.505    6407.7332    7579.4926   -1392.5865    85.774167 
   49200    1402.0502   -108.73008    1.2686045   -107.46147   -31037.321    4.4103064    4.4103064    4.4103064   -31037.321   -47869.884   -27690.109    -17551.97    21455.208   -9317.6783     10946.91    85.784002 
   49300    1504.7657   -108.83013    1.3615437   -107.46858   -18488.841    4.3811581    4.3811581    4.3811581   -18488.841   -30654.128   -33611.182    8798.7868   -67543.902    5198.5673   -23485.322    84.094341 
   49400    1682.0047   -108.98033    1.5219132   -107.45842    35622.156    4.3543641    4.3543641    4.3543641    35622.156    19489.276    41829.049    45548.143    50744.162    -13908.22    4044.4661     82.56086 
   49500    1139.8612   -108.54603    1.0313704   -107.51466    1881.4754    4.3860173    4.3860173    4.3860173    1881.4754   -37463.685    21703.717    21404.394    -16906.93    3564.9012    1042.4416    84.374464 
   49600    1956.6097   -109.24944    1.7703816   -107.47906   -12471.952     4.410745     4.410745     4.410745   -12471.952   -20271.021   -12056.261   -5088.5734   -13807.155    1817.8464    291.94244    85.809594 
   49700    1014.7135   -108.39249   0.91813411   -107.47435    519.50694    4.4045341    4.4045341    4.4045341    519.50694   -55401.937    17297.143    39663.315    41580.318   -18348.285     -6498.96    85.447614 
   49800    2002.4545   -109.25935    1.8118629   -107.44748   -2193.9552    4.3973146    4.3973146    4.3973146   -2193.9552   -26781.946   -775.08437    20975.164   -33916.228    13647.596   -3514.5797    85.028128 
   49900    1201.6195   -108.55039    1.0872506   -107.46314    34763.346    4.3766932    4.3766932    4.3766932    34763.346   -33010.347    43072.584    94227.799     42993.71   -6781.8806    -8918.303      83.8375 
   50000    1244.6396   -108.62017    1.1261761   -107.49399   -1334.1753    4.3829758    4.3829758    4.3829758   -1334.1753   -53652.149     35382.42    14267.203    10824.397   -2126.8515   -1650.9016    84.199058 
   50100    2148.9981   -109.42945    1.9444587   -107.48499   -4292.4752    4.3987719    4.3987719    4.3987719   -4292.4752   -40316.971   -4527.2355     31966.78    5798.8318    7420.5227    6460.0806    85.112693 
   50200    1485.8813   -108.83289    1.3444566   -107.48843   -11650.442    4.3960462    4.3960462    4.3960462   -11650.442   -74523.433    -7161.508    46733.614     49972.03   -13790.272   -8269.3828    84.954567 
   50300    1751.0099   -109.06591    1.5843505   -107.48156   -8690.0125    4.3838286    4.3838286    4.3838286   -8690.0125   -25657.906     35190.37   -35602.501   -15602.594    7623.5266    9338.7586    84.248213 
   50400    1341.4777   -108.71048    1.2137972   -107.49668   -11953.641    4.3744934    4.3744934    4.3744934   -11953.641   -22240.624    -48939.38    35319.081    56887.829    14200.584    1904.0144    83.711147 
   50500    1687.2758   -109.03843    1.5266826   -107.51175    13799.213    4.3781941    4.3781941    4.3781941    13799.213   -20743.028    21549.665    40591.002    9094.7284   -12877.434   -1090.4969    83.923777 
   50600    1706.6589   -109.05527    1.5442209   -107.51105   -5565.6961    4.3938962    4.3938962    4.3938962   -5565.6961   -39079.074    32187.058   -9805.0725    4261.7563    5517.0011    3755.5871    84.829984 
   50700    1130.7512    -108.5294    1.0231274   -107.50627   -12506.682    4.3959494    4.3959494    4.3959494   -12506.682   -16223.196   -61658.863    40362.012    66733.508    2138.5041    1295.8953    84.948956 
   50800    2523.5719   -109.75912    2.2833809   -107.47573    16003.031    4.3880993    4.3880993    4.3880993    16003.031    18756.762    29997.747   -745.41535   -20805.333   -3605.2487   -2815.1645    84.494678 
   50900     867.2987   -108.29225   0.78475009    -107.5075    197.43391    4.3865764    4.3865764    4.3865764    197.43391   -21417.559   -5626.6031    27636.463    63060.945    3364.4597   -2005.0028    84.406736 
   51000    1643.7625   -108.98749    1.4873109   -107.50018    2344.2066    4.3952649    4.3952649    4.3952649    2344.2066   -26786.043    27801.555    6017.1083    11526.503    7222.3673    2663.4272    84.909279 
   51100    2099.5537   -109.37259    1.8997203   -107.47287   -13487.469    4.4058357    4.4058357    4.4058357   -13487.469   -51178.882     15284.42   -4567.9455    38169.747   -7476.2005    1739.9622    85.523386 
   51200    954.30417   -108.34094   0.86347446   -107.47747   -5494.1547    4.3939691    4.3939691    4.3939691   -5494.1547   -38311.708    -7775.758    29605.002    49306.059    22494.875   -7794.4656    84.834205 
   51300    1750.6498   -109.05265    1.5840247   -107.46863    8735.0067    4.3815836    4.3815836    4.3815836    8735.0067   -3919.0017    28530.318    1593.7036   -25368.312   -4299.5845    5725.6623    84.118844 
   51400    1510.8941   -108.85297    1.3670887   -107.48588    12688.655     4.377424     4.377424     4.377424    12688.655   -24446.897    34514.792    27998.069    60151.535    -19830.99    1970.6706    83.879504 
   51500    1540.3019   -108.89776    1.3936975   -107.50406   -8273.1366     4.389129     4.389129     4.389129   -8273.1366   -16886.692    2009.1222   -9941.8399   -10768.953    25904.442   -2718.3253    84.554171 
   51600    1092.5853   -108.49719   0.98859411    -107.5086   -14536.935    4.3986916    4.3986916    4.3986916   -14536.935   -67601.529    30208.911   -6218.1852   -23521.555   -17922.579    19878.093    85.108034 
   51700    2331.0306   -109.59237    2.1091654   -107.48321    16170.401    4.3828643    4.3828643    4.3828643    16170.401   -12844.663    29802.868    31552.997    22997.189   -6697.3517   -19888.484    84.192627 
   51800    1224.1861    -108.6099    1.1076693   -107.50223   -175.83661    4.3789148    4.3789148    4.3789148   -175.83661   -19555.187    7987.2116    11040.466   -21939.659    19760.415    361.20387    83.965232 
   51900    1126.8467   -108.53272    1.0195946   -107.51313   -11648.052    4.3904351    4.3904351    4.3904351   -11648.052    -50663.44   -11922.962    27642.248   -14807.343   -42992.216   -845.78273    84.629676 
   52000    2147.0941   -109.43285    1.9427359   -107.49012   -2054.0584    4.3967462    4.3967462    4.3967462   -2054.0584     927.4703   -23807.126     16717.48    5026.3432    11738.876    -27514.27    84.995159 
   52100    1808.4523   -109.12721    1.6363256   -107.49088   -26823.841    4.3941991    4.3941991    4.3941991   -26823.841   -62372.912   -18275.694     177.0835   -29233.025   -7355.6964    18406.558    84.847529 
   52200    1449.9456   -108.80385    1.3119413   -107.49191   -14671.576    4.3853449    4.3853449    4.3853449   -14671.576   -42148.948   -6158.1885    4292.4077   -5760.6819   -35164.311   -13336.723    84.335666 
   52300    1952.4259   -109.25443     1.766596   -107.48784   -10641.558    4.3842518    4.3842518    4.3842518   -10641.558   -7713.6845   -34546.192    10335.203    21598.905    11640.204    -19350.17    84.272615 
   52400    1570.4171   -108.90681    1.4209464   -107.48587   -15173.154    4.4001509    4.4001509    4.4001509   -15173.154   -38249.912   -16602.383     9332.833   -21667.987   -32506.923    23077.707    85.192765 
   52500    1146.8791   -108.51771    1.0377203   -107.47999   -14973.494    4.4045157    4.4045157    4.4045157   -14973.494   -12733.046   -19322.071   -12865.365    28389.304   -8812.3642   -33659.981    85.446543 
   52600    1917.5987   -109.19888    1.7350836    -107.4638    6080.9496    4.3859435    4.3859435    4.3859435    6080.9496    33584.245    3581.6791   -18923.075   -5069.2429    11575.452   -14516.069    84.370203 
   52700    1624.3579   -108.94445    1.4697532    -107.4747   -7214.5794    4.3683553    4.3683553    4.3683553   -7214.5794   -16290.603   -1393.1371   -3959.9978    14896.763   -26455.611    28108.824    83.359265 
   52800    1484.8313   -108.84512    1.3435066   -107.50161   -6360.8177    4.3769908    4.3769908    4.3769908   -6360.8177   -20081.288    15853.546   -14854.712     26450.54    2544.8664   -22031.715    83.854602 
   52900    1581.8623   -108.93508    1.4313022   -107.50378   -1997.7691    4.3956916    4.3956916    4.3956916   -1997.7691    27284.098   -13039.986    -20237.42   -10092.196    38087.607    10824.869    84.934013 
   53000    1558.4092   -108.91415    1.4100814   -107.50407   -20080.822      4.39535      4.39535      4.39535   -20080.822    -17753.93   -26663.075   -15825.459     14949.58   -32614.655    18716.064     84.91421 
   53100    2085.3274   -109.36228    1.8868481   -107.47543    19554.578    4.3800734    4.3800734    4.3800734    19554.578    19148.519    35326.977    4188.2374    4404.1297    21633.358    -10531.55    84.031897 
   53200    1287.5379   -108.64564    1.1649914   -107.48065     6496.559    4.3860708    4.3860708    4.3860708     6496.559    40133.826   -12378.079     -8266.07    8395.8213    27829.456    31855.248    84.377551 
   53300    1831.9631   -109.13394    1.6575988   -107.47634   -20498.561    4.3930031    4.3930031    4.3930031   -20498.561   -6979.2377   -50400.389   -4116.0555    27075.191   -32791.659    7604.6586    84.778264 
   53400    1490.6368    -108.8309    1.3487595   -107.48214    5048.9521    4.3785185    4.3785185    4.3785185    5048.9521    6652.1735    15452.866   -6958.1836   -9082.1497     58680.38    718.41474    83.942435 
   53500    1387.3009   -108.74861     1.255259   -107.49335    1803.3022    4.3900566    4.3900566    4.3900566    1803.3022    47508.337   -39181.094   -2917.3362    12263.011    14991.988    25434.647    84.607793 
   53600    1764.5311   -109.07719    1.5965848   -107.48061    -7883.653     4.396941     4.396941     4.396941    -7883.653    5051.9824   -38287.492    9584.5505    31524.369    1146.6502   -4461.3197    85.006455 
   53700    1219.2406   -108.58502    1.1031945   -107.48183     23798.58     4.380495     4.380495     4.380495     23798.58    21850.843    8812.0769    40732.819   -6357.9403     52537.45    15990.917    84.056162 
   53800    1756.2012   -109.07611    1.5890477   -107.48706   -3501.0075    4.3937773    4.3937773    4.3937773   -3501.0075    27536.783   -60092.477    22052.671    16984.474   -8337.9856    24884.159    84.823094 
   53900    1217.3403   -108.58199    1.1014751   -107.48052    1561.9368    4.3968625    4.3968625    4.3968625    1561.9368   -16864.483   -21680.174    43230.467    21630.188    48767.971   -11024.902    85.001905 
   54000    1475.1775   -108.81285    1.3347716   -107.47808     21095.56    4.3898587    4.3898587    4.3898587     21095.56    74502.282   -8297.3152   -2918.2878   -3918.9873    33271.203     19344.75    84.596351 
   54100    1631.3337   -108.94924    1.4760651   -107.47317    20404.768    4.3973263    4.3973263    4.3973263    20404.768    66359.168   -8649.8184    3504.9553    25794.289    6454.9233   -12924.693    85.028804 
   54200    1399.4549   -108.72428    1.2662562   -107.45803    17196.661    4.4021198    4.4021198    4.4021198    17196.661    33163.907    4177.3343    14248.742    7608.7715    51551.243    8490.6396    85.307177 
   54300    1387.6439   -108.70381    1.2555694   -107.44824   -9723.6283     4.402551     4.402551     4.402551   -9723.6283     43768.65   -86356.255    13416.719   -4101.1731   -7798.0148    16729.593    85.332251 
   54400    1957.3899    -109.2082    1.7710875   -107.43711   -8284.3928    4.4023207    4.4023207    4.4023207   -8284.3928    5187.4628   -31540.109    1499.4676    6537.6641    12621.902   -13176.966    85.318855 
   54500    1664.7486   -108.95298    1.5062996   -107.44668   -10918.867    4.3918192    4.3918192    4.3918192   -10918.867   -22352.484   -35056.915    24652.797   -16797.385    1601.8135    26443.526    84.709743 
   54600    1604.2841   -108.90796    1.4515899   -107.45637    6615.0347    4.3820674    4.3820674    4.3820674    6615.0347     22648.98   -34269.668    31465.792   -3418.4746    -11281.32   -587.14686    84.146712 
   54700     2069.598    -109.3381    1.8726157   -107.46548   -10298.981     4.398802     4.398802     4.398802   -10298.981    7659.9518   -15863.831   -22693.063    6893.6237    7935.8952    4862.3483    85.114438 
   54800    775.68044   -108.18132   0.70185196   -107.47947   -18169.259    4.4011788    4.4011788    4.4011788   -18169.259    57743.765    -90089.17   -22162.372   -24582.926     6287.275    36843.137    85.252481 
   54900    2269.5685   -109.50161    2.0535533   -107.44805    5081.5704    4.3860314    4.3860314    4.3860314    5081.5704    16450.167    12126.209   -13331.665    6880.5475    -15525.65   -24115.082    84.375278 
   55000    1015.4581   -108.40143   0.91880786   -107.48262   -32836.961    4.3889697    4.3889697    4.3889697   -32836.961    4155.9238   -56964.978   -45701.829    672.47684   -3356.3277    42256.737    84.544962 
   55100    1612.4296   -108.94444    1.4589602   -107.48548   -2846.8493    4.3780907    4.3780907    4.3780907   -2846.8493    31453.567   -27848.577   -12145.538   -31047.645      13985.3    28315.611    83.917836 
   55200    1737.7748   -109.06573    1.5723751   -107.49335    3971.9299    4.3832052    4.3832052    4.3832052    3971.9299   -12189.804    40379.819   -16274.226    28407.801   -24979.019   -13214.876    84.212274 
   55300    1188.1632   -108.57261     1.075075   -107.49753   -25258.397    4.3983888    4.3983888    4.3983888   -25258.397    23148.044   -44333.013   -54590.221    8140.1088    14338.408    44015.506    85.090455 
   55400    2208.6316   -109.45878    1.9984163   -107.46037   -2137.4536    4.3928277    4.3928277    4.3928277   -2137.4536   -8268.3206    7336.7146   -5480.7549   -12991.401   -29393.352   -13201.359    84.768111 
   55500    1097.7667   -108.47177    0.9932824   -107.47848   -8916.7247    4.3968371    4.3968371    4.3968371   -8916.7247     42908.16   -14522.367   -55135.967    20267.576   -10886.142    5735.7429    85.000433 
   55600    2180.8937   -109.43588    1.9733185   -107.46256   -13158.205    4.3920448    4.3920448    4.3920448   -13158.205   -11057.363   -7126.9623   -21290.291     7384.583    13061.025     4795.865    84.722798 
   55700     1532.474   -108.86427    1.3866147   -107.47765    7839.3686    4.3829717    4.3829717    4.3829717    7839.3686   -3056.1939    38347.843   -11773.543   -3320.8449   -48751.717   -16705.324    84.198821 
   55800    1625.5166    -108.9565    1.4708016   -107.48569   -8795.1251    4.4012546    4.4012546    4.4012546   -8795.1251    30814.887   -50806.073    -6394.189    19465.766    25604.296    7609.7392    85.256889 
   55900    1717.2036   -109.01025    1.5537619   -107.45649   -4037.9673    4.4158099    4.4158099    4.4158099   -4037.9673    -23709.13    14540.006   -2944.7776    1801.7309   -31604.436   -4264.7876    86.105545 
   56000    1025.4444   -108.37138   0.92784365   -107.44354   -3784.6745    4.4065074    4.4065074    4.4065074   -3784.6745   -9693.8354    31551.711   -33211.899     7923.106    2538.0772   -19734.679    85.562509 
   56100     2148.422    -109.3748    1.9439374   -107.43086    12588.389    4.3729219    4.3729219    4.3729219    12588.389    31123.401     11233.82   -4592.0539   -3294.1983    10417.403   -2197.1311    83.620963 
   56200    1030.3132   -108.39997   0.93224907   -107.46772    37382.128    4.3626333    4.3626333    4.3626333    37382.128    8071.5081    75651.289    28423.585   -2008.9244   -74192.033   -2842.5272    83.032118 
   56300    2046.8909   -109.33788    1.8520699   -107.48581    7354.0868    4.3957605    4.3957605    4.3957605    7354.0868   -2850.8571     28758.45   -3845.3323     5845.958    38311.948   -15059.054    84.938007 
   56400    1487.8683   -108.82233    1.3462545   -107.47608   -15324.171    4.4102797    4.4102797    4.4102797   -15324.171   -69574.272    28397.912   -4796.1513   -558.32808   -61333.294    12312.223    85.782441 
   56500    1815.1599   -109.10357    1.6423948   -107.46118    6859.6641    4.3857372    4.3857372    4.3857372    6859.6641   -32104.781    19511.011    33172.761   -6957.0547   -11041.169   -15776.067    84.358298 
   56600    1411.7721   -108.74064    1.2774011   -107.46324    18257.752    4.3683622    4.3683622    4.3683622    18257.752   -15493.733    61315.467    8951.5227    7150.5147   -21058.319   -9104.5442    83.359655 
   56700    1130.5869   -108.52251    1.0229788   -107.49953   -8269.7869    4.3774333    4.3774333    4.3774333   -8269.7869   -56869.217    36684.108   -4624.2516   -11098.634    -82688.31   -3712.2202    83.880038 
   56800    2406.2317   -109.66091     2.177209    -107.4837    10761.887    4.3950481    4.3950481    4.3950481    10761.887     -18666.5    35111.113    15841.049   -2095.1722    27257.026   -5098.4124    84.896717 
   56900    470.77671   -107.92466   0.42596866   -107.49869   -23732.858    4.4189226    4.4189226    4.4189226   -23732.858   -96984.771    77392.973   -51606.776    11579.982   -86992.066    5649.1812    86.287759 
   57000    2562.4645   -109.76485    2.3185717   -107.44628    532.41796    4.3987325    4.3987325    4.3987325    532.41796   -4920.9239    1848.1243    4670.0535   -475.04106    22207.427    5366.2059    85.110405 
   57100    1314.9341   -108.64219      1.18978   -107.45241    34377.397      4.35248      4.35248      4.35248    34377.397    4504.3342     66515.06    32112.795   -4483.4679   -75361.993    5898.8967    82.453737 
   57200    1709.4804   -109.03907    1.5467738    -107.4923    19073.146    4.3709801    4.3709801    4.3709801    19073.146   -4768.9946    35797.922     26190.51    12328.271   -15476.131   -4399.0417    83.509616 
   57300    1728.8035   -109.03956    1.5642577    -107.4753    14005.616    4.4070484    4.4070484    4.4070484    14005.616    6030.7139   -2928.8681    38915.003   -7524.3823   -19311.694    3528.4257    85.594027 
   57400    1162.6411   -108.51541    1.0519821   -107.46343   -5283.4612    4.4207315    4.4207315    4.4207315   -5283.4612   -7390.9203    11142.437     -19601.9     4311.882   -48387.051     6743.309    86.393769 
   57500    1909.0572   -109.17705    1.7273551   -107.44969    8637.3278    4.3923375    4.3923375    4.3923375    8637.3278    6522.5408    28542.173   -9152.7305    4809.5996    20756.547   -4252.6576    84.739735 
   57600    847.85583   -108.22051   0.76715777   -107.45336    40435.064    4.3495496    4.3495496    4.3495496    40435.064      10837.7    91892.206    18575.286    -7777.828    -88024.47    4101.2975    82.287309 
   57700    2522.4891   -109.75269    2.2824012   -107.47029    21491.985      4.37213      4.37213      4.37213    21491.985    15051.221    35085.449    14339.287   -9909.3389    25265.431    490.34716    83.575539 
   57800    820.44446   -108.23532   0.74235539   -107.49296   -22968.982    4.4107904    4.4107904    4.4107904   -22968.982    -70805.58    80872.874   -78974.239   -3833.6387    -79977.32   -1664.5739    85.812242 
   57900    2129.0528   -109.37334    1.9264117   -107.44693   -8999.0358    4.4096449    4.4096449    4.4096449   -8999.0358   -7313.6524     25703.88   -45387.335     10519.37   -1069.7905    7438.1432    85.745402 
   58000    1439.6878   -108.76097    1.3026598   -107.45831   -12595.189    4.3827936    4.3827936    4.3827936   -12595.189   -23834.711    47331.565   -61282.422    -3760.981   -43997.006   -1995.7097    84.188557 
   58100    1130.0767   -108.48955    1.0225171   -107.46703    16573.019    4.3575325    4.3575325    4.3575325    16573.019    15717.619      76723.1   -42721.662   -4385.3678   -61756.361   -7888.0993    82.741218 
   58200    2273.6306   -109.52392    2.0572288   -107.46669    17894.723    4.3776209    4.3776209    4.3776209    17894.723    32735.827    15682.018    5266.3235    -6329.484   -6396.6699   -4524.6792    83.890823 
   58300    768.84394   -108.17558   0.69566615   -107.47992   -25836.757     4.411003     4.411003     4.411003   -25836.757   -40562.203    23131.402    -60079.47    1447.9456   -76170.082    2822.2359    85.824652 
   58400    2069.2817   -109.31153    1.8723296    -107.4392    7686.4115    4.3942924    4.3942924    4.3942924    7686.4115    7549.7608    17909.497   -2400.0238    462.45202    35842.372   -798.18854    84.852931 
   58500    1252.4512   -108.58121    1.1332442   -107.44797   -5526.0952    4.3689609    4.3689609    4.3689609   -5526.0952   -27089.481    49096.417   -38585.222   -8692.8065    -102110.4    11062.899    83.393938 
   58600    1972.0213   -109.23604    1.7843263   -107.45171    12466.161    4.3729925    4.3729925    4.3729925    12466.161    14707.378    19436.565    3254.5405    2636.0607    30421.966   -8504.4593    83.625015 
   58700    1079.6101   -108.45993   0.97685391   -107.48307    6248.3735     4.386646     4.386646     4.386646    6248.3735   -55204.669    62391.861    11557.928    4630.9565   -58579.819   -2868.4095    84.410752 
   58800    1882.6309   -109.17366     1.703444   -107.47021   -6368.6373    4.4003659    4.4003659    4.4003659   -6368.6373   -24510.005    -3206.705    8610.7985    2143.6919   -37836.323    11038.407    85.205252 
   58900    1851.2353   -109.13903    1.6750366   -107.46399   -7406.1076    4.3887994    4.3887994    4.3887994   -7406.1076   -8316.8194   -5904.8046   -7996.6989    -5020.289   -25296.962   -12916.354    84.535126 
   59000    859.98046   -108.25266   0.77812839   -107.47453    22072.311    4.3736335    4.3736335    4.3736335    22072.311   -37345.203    84604.232    18957.905    1991.9955   -75060.211    7489.0587    83.661794 
   59100    2221.8186   -109.46326    2.0103482   -107.45291    2415.5371     4.384569     4.384569     4.384569    2415.5371    12196.271   -11544.054    6594.3944    6174.0688    18796.748   -8364.9051    84.290908 
   59200    667.99563   -108.09077   0.60441648   -107.48635   -25279.214    4.3853115    4.3853115    4.3853115   -25279.214   -45103.787    20697.026    -51430.88   -6901.1489   -104972.07   -18760.721    84.333736 
   59300    2452.4792   -109.67567    2.2190547   -107.45661    14113.606    4.3851593    4.3851593    4.3851593    14113.606    3815.6865    9741.6364    28783.494     17515.08    29937.615    11736.175    84.324958 
   59400    933.57906   -108.31866   0.84472195   -107.47394   -22593.025    4.3923306    4.3923306    4.3923306   -22593.025   -48358.273    33904.106   -53324.907    7262.1784   -101655.13   -3212.7203    84.739338 
   59500    2087.0292   -109.33727    1.8883879   -107.44889      4416.97    4.3850436    4.3850436    4.3850436      4416.97    19530.814    1981.2422   -8261.1463   -11506.549    10636.477   -31428.015    84.318285 
   59600    1375.4248   -108.70515    1.2445133   -107.46064   -15650.803    4.3930361    4.3930361    4.3930361   -15650.803   -47847.617    57688.761   -56793.552    3535.9643   -75981.666    8017.9696    84.780179 
   59700    1508.6007   -108.82059    1.3650136   -107.45557   -17022.347    4.3886015    4.3886015    4.3886015   -17022.347   -18574.965    16444.935    -48937.01    1140.5908    -37583.62   -17460.224    84.523687 
   59800    1592.2476    -108.8987    1.4406991     -107.458   -6571.5263    4.3733507    4.3733507    4.3733507   -6571.5263    19762.002    -5179.945   -34296.635    2005.3013   -11300.587   -17384.233    83.645567 
   59900    1148.3815   -108.52255    1.0390797   -107.48347   -193.69646    4.3824564    4.3824564    4.3824564   -193.69646   -37017.626    81912.326   -45475.789    417.85205   -75453.872    78.005149    84.169123 
   60000     2244.949   -109.49026     2.031277   -107.45899    8896.2171    4.3925262    4.3925262    4.3925262    8896.2171   -1878.5143     11155.02    17412.146    3715.2134    27456.102   -7687.9023     84.75066 
   60100    997.91332   -108.37886   0.90293294   -107.47593   -15156.321    4.3941119    4.3941119    4.3941119   -15156.321   -34989.461    49794.345   -60273.846    2513.5863   -90321.173    5297.4263    84.842474 
   60200    2486.6053   -109.69252    2.2499327   -107.44259    12694.468    4.3819499    4.3819499    4.3819499    12694.468    3375.0697     13879.25    20829.084    8248.6075    31270.696    736.92796    84.139942 
   60300      692.042   -108.10086   0.62617414   -107.47469    13824.511    4.3753635    4.3753635    4.3753635    13824.511   -36239.594    82224.629   -4511.5031    4464.1516   -55689.326    -11493.43    83.761109 
   60400    2200.8553   -109.45883    1.9913801   -107.46745   -14248.275    4.3921659    4.3921659    4.3921659   -14248.275   -28820.351   -905.92209   -13018.552    1279.6108   -21814.395   -1597.5252    84.729808 
   60500    1700.5763   -109.00915    1.5387172   -107.47043   -25375.059    4.3962618    4.3962618    4.3962618   -25375.059   -50694.397   -14966.973   -10463.807   -5473.0534   -1910.9225    14080.205    84.967067 
   60600    1353.9001   -108.69656    1.2250372   -107.47152   -10283.513    4.3853542    4.3853542    4.3853542   -10283.513   -34858.908    35193.178   -31184.808   -2480.3492   -52544.536   -9434.8679    84.336201 
   60700    2180.6486   -109.42224    1.9730967   -107.44914   -1145.3317    4.3835423    4.3835423    4.3835423   -1145.3317   -575.90982   -20864.403    18004.318   -14838.509    12185.137    3397.0277     84.23171 
   60800    751.13786   -108.15684   0.67964532   -107.47719   -9126.0089    4.3878628    4.3878628    4.3878628   -9126.0089   -33010.561    39434.037   -33801.503    2863.2969   -68615.127    10767.034    84.481012 
   60900    2523.9851    -109.7334    2.2837548   -107.44964   -5303.6827    4.3888826    4.3888826    4.3888826   -5303.6827    4115.8357   -10394.149   -9632.7348   -7097.9887    23076.026    -13890.36     84.53993 
   61000    678.43797   -108.09446   0.61386494   -107.48059    1121.1495    4.3819553    4.3819553    4.3819553    1121.1495   -20036.397     33990.49   -10590.645   -2416.8796   -52795.853    21483.204    84.140253 
   61100    2162.0826   -109.42387    1.9562978   -107.46757    6780.4548    4.3852909    4.3852909    4.3852909    6780.4548    27020.497    13348.966   -20028.099   -13927.698   -22029.499   -9679.1696    84.332549 
   61200     1528.679   -108.85084    1.3831809   -107.46766    441.13288    4.3951449    4.3951449    4.3951449    441.13288   -465.73358       9926.2   -8137.0678    7647.3053   -5202.4652   -3256.6185    84.902325 
   61300    1655.4486   -108.95248    1.4978847    -107.4546    7778.5579    4.3985231    4.3985231    4.3985231    7778.5579    28783.287    776.78669   -6224.3999   -1533.1377   -59442.881    477.55595     85.09825 
   61400    1818.0905    -109.0893    1.6450465   -107.44425   -2590.0163    4.3995785    4.3995785    4.3995785   -2590.0163   -802.39343    13815.078   -20782.734    12198.647     27136.46   -6543.5719    85.159524 
   61500    938.77687   -108.30517   0.84942504   -107.45574    19543.141    4.3798407    4.3798407    4.3798407    19543.141   -23517.532    56744.805    25402.152     29666.08   -43719.751     23927.36    84.018507 
   61600     2077.691    -109.3247    1.8799384   -107.44476    21607.931    4.3764286    4.3764286    4.3764286    21607.931    19104.663     27915.01     17804.12   -8350.9226    2648.1069    -16335.38    83.822293 
   61700    728.05761   -108.14475   0.65876182   -107.48599   -4788.0172    4.3872699    4.3872699    4.3872699   -4788.0172   -30441.684    42605.096   -26527.464    8989.1452    7148.1519   -5536.2767    84.446772 
   61800    2402.4356    -109.6358    2.1737742   -107.46203    17514.509    4.3918243    4.3918243    4.3918243    17514.509    4832.4332    25729.978    21981.117    7992.3241   -20385.207   -466.18833    84.710039 
   61900    761.50715   -108.16745   0.68902767   -107.47842    15125.477    4.3953675    4.3953675    4.3953675    15125.477    33453.366    43457.106   -31534.041   -2036.8324    14995.389    2201.0151    84.915225 
   62000    2126.3467   -109.36696    1.9239632     -107.443   -5315.5543     4.396831     4.396831     4.396831   -5315.5543   -11428.198    20467.914   -24986.379    20722.622   -33.301344    -4800.578    85.000075 
   62100    1302.6918   -108.63667    1.1787029   -107.45797    20752.838    4.3794984    4.3794984    4.3794984    20752.838    6843.3438    34510.214    20904.956   -26485.114   -2701.6792    11827.618    83.998809 
   62200    1201.1049   -108.56714     1.086785   -107.48035    2813.8643    4.3760091    4.3760091    4.3760091    2813.8643     14219.97    13109.103    -18887.48   -11311.739    34702.299   -14799.524    83.798192 
   62300    2084.7189   -109.35841    1.8862974   -107.47211    12249.988    4.3851249    4.3851249    4.3851249    12249.988    -820.0473    14308.898    23261.114    15677.215   -13735.439    7831.9469     84.32297 
   62400    1092.4783   -108.48444   0.98849735   -107.49594    15765.578    4.3880669    4.3880669    4.3880669    15765.578    47368.833   -14458.433    14386.335   -20042.753   -4997.7173    1983.3825    84.492803 
   62500    2545.6231   -109.76119    2.3033332   -107.45785   -2579.3123    4.4025683    4.4025683    4.4025683   -2579.3123    20391.003   -6038.1605    -22090.78    4468.5872    8513.4834   -352.47737    85.333251 
   62600    765.36841   -108.16948   0.69252142   -107.47696   -15199.708    4.3918815    4.3918815    4.3918815   -15199.708   -31675.927   -41439.843    27516.645   -9881.7083    -30152.32    1373.6867    84.713349 
   62700     2070.719   -109.32007    1.8736301   -107.44644    23198.551    4.3825997    4.3825997    4.3825997    23198.551    37966.603     17190.91    14438.139   -20719.138    13521.988    1055.4311    84.177381 
   62800     1314.387   -108.65589     1.189285    -107.4666   -26241.672    4.3930655    4.3930655    4.3930655   -26241.672   -63118.046    1589.7078   -17196.677    25669.537   -10060.649    2578.9639    84.781876 
   62900    1541.4244   -108.86797    1.3947132   -107.47325    1424.7241     4.384282     4.384282     4.384282    1424.7241   -16042.736   -25499.317    45816.225   -11847.268   -19765.012   -20208.016    84.274353 
   63000     1982.398   -109.26319    1.7937154   -107.46948    3450.8946    4.3876629    4.3876629    4.3876629    3450.8946       -30990    42429.892   -1087.2091   -394.00379    33733.599    10899.095     84.46947 
   63100    988.91056   -108.38164   0.89478705   -107.48685    -27569.37    4.3923902    4.3923902    4.3923902    -27569.37    -80174.45   -10405.365    7871.7065    25675.491    -12336.83     -19892.6    84.742785 
   63200    2353.9308   -109.58848     2.129886   -107.45859    26348.761    4.3798393    4.3798393    4.3798393    26348.761   -2458.4842    37164.171    44340.596   -6439.5287    7001.0186    -10348.17    84.018425 
   63300    636.89818   -108.07117   0.57627885   -107.49489   -5046.7619    4.3848065    4.3848065    4.3848065   -5046.7619   -108176.95    48529.477    44507.191    24750.486    9976.4573    3391.7329    84.304603 
   63400    1637.0091   -108.96456    1.4812002   -107.48336    4041.9881    4.3891375    4.3891375    4.3891375    4041.9881   -44300.071    27341.417    29084.619    14571.301   -31954.275   -13035.581     84.55466 
   63500    1910.0457   -109.20237    1.7282495   -107.47412    14514.288    4.3857774    4.3857774    4.3857774    14514.288   -16362.751    146.53606     59759.08   -18258.158    23454.447    2740.8939    84.360618 
   63600    1283.4637   -108.64935    1.1613049   -107.48804   -29597.374    4.3946463    4.3946463    4.3946463   -29597.374   -89522.005    29953.898   -29224.016    29380.883   -24543.763   -10167.055    84.873436 
   63700    1980.1806   -109.25457    1.7917091   -107.46286    13857.351    4.3834521    4.3834521    4.3834521    13857.351   -6763.6078   -331.17279    48666.833   -30583.244   -3714.0558   -6938.7799    84.226509 
   63800     1317.621   -108.67411    1.1922112    -107.4819   -2493.7337    4.3876764    4.3876764    4.3876764   -2493.7337   -41811.784    25465.574    8865.0088   -10387.351   -159.42769   -7083.3157     84.47025 
   63900    1938.4139   -109.21942    1.7539176   -107.46551   -12958.709    4.3968285    4.3968285    4.3968285   -12958.709   -43905.393    4179.5602     849.7061    2670.8928   -14256.689   -4567.9808    84.999932 
   64000     1466.697   -108.79242    1.3270983   -107.46532    8247.4986    4.3936343    4.3936343    4.3936343    8247.4986   -23529.409    6000.4597    42271.446   -47604.536   -3190.3693   -5784.7987    84.814817 
   64100    2058.8348   -109.31801     1.862877   -107.45514    7362.4253    4.3947525    4.3947525    4.3947525    7362.4253    2276.2214    25167.991   -5356.9365    27231.213    18822.206   -6776.5252    84.879589 
   64200    802.61289   -108.21268   0.72622101   -107.48646   -7460.9693    4.3847878    4.3847878    4.3847878   -7460.9693   -90751.818   -29437.757    97806.667   -83037.944    -4529.541    2243.5974    84.303527 
   64300     2003.446   -109.28891    1.8127601   -107.47615    22841.984    4.3754296    4.3754296    4.3754296    22841.984    -18429.98    28842.686    58113.244    9760.2249     4424.853    7865.2314    83.764906 
   64400    1326.9078   -108.69582    1.2006141    -107.4952    5838.6058     4.390423     4.390423     4.390423    5838.6058   -52352.811   -18927.618    88796.246   -46295.272    10747.637   -10299.081    84.628977 
   64500    1330.4736   -108.68723    1.2038404   -107.48339   -7877.0537    4.4050516    4.4050516    4.4050516   -7877.0537     -59063.9   -16773.065    52205.803   -36913.641   -6580.3356   -2335.6832    85.477734 
   64600    1900.1131   -109.17975    1.7192622   -107.46049    702.72641    4.3888757    4.3888757    4.3888757    702.72641    36114.781   -17486.234   -16520.368    16257.367   -3558.6143    7050.9629    84.539531 
   64700    1776.2264   -109.07074     1.607167   -107.46357     3131.736    4.3724246    4.3724246    4.3724246     3131.736   -16476.132   -14060.379    39931.718   -61951.188    8962.6897     -10192.3    83.592439 
   64800      1735.57   -109.04611    1.5703802   -107.47573    17920.698    4.3785085    4.3785085    4.3785085    17920.698     18675.43      15683.6    19403.063    17277.464    19835.162      11190.7     83.94186 
   64900    1364.9757   -108.72849    1.2350587   -107.49343    -8875.228    4.3966756    4.3966756    4.3966756    -8875.228    9185.6745   -59901.573    24090.215   -2143.6169   -11293.103    4117.6983    84.991066 
   65000    1685.4715   -108.99309      1.52505   -107.46804    -24510.25    4.4096231    4.4096231    4.4096231    -24510.25   -44420.346   -20476.748   -8633.6556   -25472.171    32787.862   -3242.6706    85.744131 
   65100     1427.631   -108.76497    1.2917505   -107.47322   -8157.9547    4.3821122    4.3821122    4.3821122   -8157.9547    20965.918   -47767.519    2327.7375    15706.763    25635.062    15558.376    84.149293 
   65200    2110.0039   -109.36528    1.9091758    -107.4561     28544.46    4.3647675    4.3647675    4.3647675     28544.46    34228.363    -7396.856    58801.873   -8736.9208   -4694.4798    3246.2276    83.154036 
   65300    1442.5104   -108.79138    1.3052137   -107.48616   -22332.081    4.3905755    4.3905755    4.3905755   -22332.081   -28038.186    942.80645   -39900.863   -8787.3589     39354.45   -2529.2435    84.637799 
   65400    1331.1669   -108.68484    1.2044678   -107.48038   -11296.329    4.4001454    4.4001454    4.4001454   -11296.329    12084.801   -48683.719    2709.9301     29141.47   -1652.6401    17843.549    85.192446 
   65500     1745.593   -109.03947    1.5794492   -107.46002   -21253.546    4.4001006    4.4001006    4.4001006   -21253.546   -51016.711    12217.225    -24961.15   -7123.0848    13273.946   -862.75532    85.189844 
   65600    1240.1865   -108.59298    1.1221468   -107.47084   -28444.429    4.3793994    4.3793994    4.3793994   -28444.429   -48264.321   -2872.3951   -34196.572    20859.407    33080.563    4256.5631    83.993109 
   65700     2337.965   -109.57136    2.1154398   -107.45592    22843.919    4.3646554    4.3646554    4.3646554    22843.919    9169.0797    2407.1216    56955.555    22894.283   -22930.782    13846.273    83.147634 
   65800    1185.2289   -108.56973    1.0724201   -107.49731   -37097.212    4.3898647    4.3898647    4.3898647   -37097.212   -72451.817    16952.027   -55791.847   -14622.736    20704.497   -5912.8696    84.596695 
   65900    1765.9739   -109.09027    1.5978903   -107.49238    -10289.09    4.3921871    4.3921871    4.3921871    -10289.09   -41656.028   -14986.006    25774.762    19586.134    28632.452    5155.4788    84.731035 
   66000    1803.9341   -109.12137    1.6322375   -107.48913   -1781.8234    4.3847653    4.3847653    4.3847653   -1781.8234   -50495.629    23090.427    22059.732   -12426.308   -20513.297    4492.3513    84.302231 
   66100    430.35241   -107.90136    0.3893919   -107.51197   -5287.8571    4.3827082    4.3827082    4.3827082   -5287.8571   -86644.111    58782.578    11997.962   -6341.0039    31166.266   -11331.941    84.183631 
   66200     2623.984   -109.85199    2.3742359   -107.47775    14109.055    4.3787424    4.3787424    4.3787424    14109.055   -7545.1005    9341.8297    40530.436    3076.1538   -271.20041    19797.866    83.955314 
   66300    1124.7454   -108.52582    1.0176933   -107.50812    -7584.181     4.392031     4.392031     4.392031    -7584.181   -41826.542    50594.342   -31520.343   -470.86432     13787.55   -7841.6294    84.721998 
   66400    2071.5999   -109.35239    1.8744271   -107.47796   -21544.842    4.3938355    4.3938355    4.3938355   -21544.842   -64698.073    31833.742   -31770.194    2948.9874    25751.182    13810.931    84.826469 
   66500    1424.6205   -108.76151    1.2890266   -107.47249    18043.184    4.3756793    4.3756793    4.3756793    18043.184    15977.999     30433.33    7718.2243    26770.521   -5668.9927   -5472.9859    83.779245 
   66600    1378.7184   -108.73644    1.2474934   -107.48895   -31720.544    4.3842632    4.3842632    4.3842632   -31720.544   -52869.894    23776.264   -66068.001    3345.4751    23263.305    8588.5906     84.27327 
   66700    1859.9926   -109.15599    1.6829603   -107.47303    27725.008    4.3853819    4.3853819    4.3853819    27725.008   -4487.3925    69461.487    18200.929    5049.1651    1284.2599    6147.1172    84.337798 
   66800    1070.4269   -108.45801    0.9685448   -107.48947    8703.1752     4.393676     4.393676     4.393676    8703.1752    35200.093    33058.404   -42148.971    14087.005   -5257.6483   -13947.964    84.817231 
   66900    2123.4753    -109.3781    1.9213651   -107.45674   -12411.297    4.4047112    4.4047112    4.4047112   -12411.297   -24117.541    3676.8022   -16793.151   -8812.6759      6895.78     7839.855    85.457918 
   67000    1237.0393   -108.58603    1.1192991   -107.46673    4678.5714    4.3831817    4.3831817    4.3831817    4678.5714    7567.2464    2787.7407    3680.7272    6849.9629     -10411.2    856.93562    84.210923 
   67100     1768.692   -109.05928    1.6003497   -107.45893    13352.358    4.3782596    4.3782596    4.3782596    13352.358    36499.065     31156.45    -27598.44    15116.918   -5582.6605    6906.7184    83.927544 
   67200    1489.8075   -108.82158    1.3480091   -107.47357   -9511.4885    4.3954088    4.3954088    4.3954088   -9511.4885   -18644.065   -17604.332    7713.9316   -44587.123    801.87558   -3913.6839    84.917621 
   67300    1708.3031   -109.01629    1.5457086   -107.47058   -16243.749    4.4042983    4.4042983    4.4042983   -16243.749    1173.2008   -18386.637   -31517.812    31132.855   -3769.9688     7164.998    85.433887 
   67400    1740.0147   -109.03708    1.5744019   -107.46268   -4206.7869    4.3932004    4.3932004    4.3932004   -4206.7869   -18793.425    6027.4552    145.60921   -54438.286    8389.2115   -882.49547     84.78969 
   67500    1705.6375   -109.01348    1.5432967   -107.47018    527.55921    4.3890936    4.3890936    4.3890936    527.55921      5192.48    18849.901   -22459.703   -21342.566   -1116.8103   -4665.6253    84.552125 
   67600     1756.472    -109.0569    1.5892928   -107.46761    5946.9438    4.3879776    4.3879776    4.3879776    5946.9438    -14339.02    41800.352   -9620.5012    3361.3566   -3847.0052   -9504.1766    84.487644 
   67700    1151.2216    -108.5356    1.0416495   -107.49395   -10941.097     4.383644     4.383644     4.383644   -10941.097   -42669.527   -36085.316    45931.553   -88520.465    4468.9359    5365.4641    84.237568 
   67800    2560.9948   -109.79023    2.3172419   -107.47299    16541.771    4.3840715    4.3840715    4.3840715    16541.771    2920.3193     53878.34   -7173.3464    30520.897   -4683.1297     -7980.45    84.262217 
   67900    946.04771   -108.36471   0.85600385    -107.5087   -31825.005    4.3856296    4.3856296    4.3856296   -31825.005   -62534.709    -64372.52    31432.216    -104307.2   -519.06079   -70.402548    84.352092 
   68000    1800.7763   -109.12103    1.6293802   -107.49165   -9605.7576    4.3822112    4.3822112    4.3822112   -9605.7576     16928.44   -34807.851   -10937.862    9342.8392    6461.1818   -6280.7236    84.154999 
   68100    1442.6335   -108.79211    1.3053251   -107.48678    403.83909    4.3906693    4.3906693    4.3906693    403.83909    8530.6397   -31644.624    24325.501   -40521.767    12603.646    51.786779    84.643222 
   68200    1476.1212   -108.81464    1.3356255   -107.47901   -11785.726    4.3944453    4.3944453    4.3944453   -11785.726    6279.5127   -53671.326    12034.634     -48328.9    272.40212   -14104.629     84.86179 
   68300    1648.6009   -108.95929    1.4916888    -107.4676     4493.736    4.3801818    4.3801818    4.3801818     4493.736    37179.964   -3822.7548   -19876.001    23925.291    1753.6514   -24043.392    84.038133 
   68400    1627.7856    -108.9471    1.4728547   -107.47424   -2516.4048    4.3803208    4.3803208    4.3803208   -2516.4048   -14156.174    -23695.63    30302.589   -46304.353    577.66353    7896.9402    84.046139 
   68500    1642.2649   -108.96254    1.4859558   -107.47658   -1784.1065    4.3852297    4.3852297    4.3852297   -1784.1065    30083.665   -6120.4138    -29315.57    2351.3413   -10131.159   -22011.221    84.329019 
   68600    1204.2953   -108.57477    1.0896717    -107.4851    7064.2063    4.3863783    4.3863783    4.3863783    7064.2063    24048.903   -21239.368    18383.084    9212.0563    9210.2937   -1058.5044    84.395297 
   68700    1830.9372   -109.13522    1.6566704   -107.47855   -14799.703    4.3881517    4.3881517    4.3881517   -14799.703   -19075.683   -26934.561     1611.136    -12688.05    -12823.44   -5420.7307    84.497704 
   68800    1414.2382   -108.76382    1.2796325   -107.48419    7326.6644    4.3812747    4.3812747    4.3812747    7326.6644    61033.966    3692.7964    -42746.77    -476.9644   -19181.937   -32925.194    84.101054 
   68900    1823.0573   -109.12671    1.6495406   -107.47717    5494.2907    4.3902543    4.3902543    4.3902543    5494.2907   -9246.0623   -11677.615    37406.549    20660.243    9604.7791    16964.507     84.61922 
   69000    1469.7467   -108.79683    1.3298577   -107.46697   -17801.416    4.3979837    4.3979837    4.3979837   -17801.416   -9977.0097   -14447.045   -28980.194   -18804.351     -2166.13   -25684.675    85.066949 
   69100    1732.9285   -109.02815    1.5679901   -107.46016   -10957.501    4.3867332    4.3867332    4.3867332   -10957.501    10396.168    -8870.589   -34398.083    18356.575   -1133.4227   -8139.2639    84.415783 
   69200    1526.0563   -108.85465    1.3808078   -107.47385    1059.4367    4.3779756    4.3779756    4.3779756    1059.4367   -37778.442    10031.258    30925.495    6852.6146    6587.7112   -1495.1379    83.911217 
   69300    1519.5733   -108.86425    1.3749419   -107.48931    5790.4833    4.3780829    4.3780829    4.3780829    5790.4833    21992.279    11855.417   -16476.246   -12472.671    9059.7142   -55300.881    83.917383 
   69400    2125.9107   -109.40776    1.9235686   -107.48419   -17213.369    4.4030108    4.4030108    4.4030108   -17213.369   -36979.289   -28943.403    14282.587    32621.187    -11221.22    25677.052    85.358986 
   69500    965.71246   -108.34637   0.87379693   -107.47257   -32901.994    4.4073018    4.4073018    4.4073018   -32901.994    6675.9551    -66704.56   -38677.378    8946.4599    20010.516   -50223.318    85.608793 
   69600    2088.0812   -109.33608    1.8893398   -107.44674     19216.54    4.3740192    4.3740192    4.3740192     19216.54    39879.311   -11100.257    28870.568   -8783.5795    6613.6855   -6506.2006     83.68393 
   69700    1529.6466   -108.85526    1.3840564   -107.47121   -18292.623    4.3784871    4.3784871    4.3784871   -18292.623   -18323.336   -58073.854    21519.322    40566.576   -1543.4701   -19901.257    83.940631 
   69800    1140.2603   -108.53026    1.0317315   -107.49853   -34200.191    4.3843388    4.3843388    4.3843388   -34200.191    9337.5459   -61644.937   -50293.181   -7426.1232     18171.63   -70629.998    84.277633 
   69900     2191.994   -109.47115    1.9833623   -107.48779    4170.0457     4.386805     4.386805     4.386805    4170.0457    702.20324   -9302.9626    21110.896    532.38213   -7566.7875    44395.098    84.419931 
   70000    988.29237   -108.38717    0.8942277   -107.49294   -41880.687    4.4043585    4.4043585    4.4043585   -41880.687    14687.587    -80374.07   -59955.579    22349.503    8527.7389   -79149.601     85.43739 
   70100    1841.2859   -109.14586    1.6660342   -107.47982   -10087.944    4.3752098    4.3752098    4.3752098   -10087.944    8709.3852     5799.733    -44772.95   -16339.557    11986.464   -24104.757    83.752281 
   70200    1647.6998     -108.962    1.4908734   -107.47113    20432.002    4.3620852    4.3620852    4.3620852    20432.002    39310.019    13233.475    8752.5132    17931.755   -479.47614    17147.212    83.000828 
   70300    914.17255   -108.33045   0.82716253   -107.50329   -24383.248    4.3900143    4.3900143    4.3900143   -24383.248    30537.466   -50204.198   -53483.011    9332.5604    8404.3346   -81520.037    84.605348 
   70400    2441.3321   -109.67109    2.2089686   -107.46212   -5424.1856    4.4014416    4.4014416    4.4014416   -5424.1856    -25232.33    28421.085   -19461.312   -20160.379    6331.4667     31119.44    85.267753 
   70500    1088.5201   -108.45805   0.98491586   -107.47313   -34775.542    4.4028518    4.4028518    4.4028518   -34775.542    7300.3899   -36701.663   -74925.354    24344.516    1705.8165   -65341.634    85.349741 
   70600    1814.0067   -109.10918    1.6413514   -107.46782   -1921.1103    4.3779997    4.3779997    4.3779997   -1921.1103    3911.6792    6063.1568   -15738.167   -15049.872    -6935.206    -617.4761    83.912599 
   70700    1605.5497    -108.9326    1.4527351   -107.47987    22681.825    4.3619322    4.3619322    4.3619322    22681.825    20870.658    9936.0127    37238.803   -33617.459    4964.3314   -14298.556    82.992097 
   70800    1540.7025   -108.90269      1.39406   -107.50863   -14737.533    4.3855975    4.3855975    4.3855975   -14737.533    2750.1171   -4455.1226   -42507.594    18656.638   -4412.8557   -57526.353    84.350236 
   70900    1766.3326    -109.0998    1.5982148   -107.50158   -7464.2768     4.393354     4.393354     4.393354   -7464.2768   -49553.112     21049.98    6110.3017   -3508.1248    11228.379    27419.155    84.798581 
   71000    1144.3252   -108.54457    1.0354095   -107.50916    8826.5044    4.3802718    4.3802718    4.3802718    8826.5044    3924.4834    20542.275    2012.7546   -44628.508    2855.7912   -43287.382    84.043314 
   71100    1950.8024   -109.26511     1.765127   -107.49999    8412.8322    4.3705339    4.3705339    4.3705339    8412.8322    12062.429    16415.484   -3239.4158    25896.732   -891.39142   -21865.127    83.484044 
   71200    1472.6769   -108.84421     1.332509    -107.5117    -956.4266    4.3743704    4.3743704    4.3743704    -956.4266   -55538.673    200.81738    52468.576   -17357.334    6391.0735    5950.4719    83.704089 
   71300    1945.8349   -109.26305    1.7606323   -107.50242   -15896.245    4.3929517    4.3929517    4.3929517   -15896.245   -14156.821   -13167.753   -20364.163   -39346.187    4446.4448   -21625.268    84.775289 
   71400    1544.7527   -108.89218    1.3977247   -107.49445    1339.9474    4.3920979    4.3920979    4.3920979    1339.9474   -39922.739    38709.601    5232.9809    33688.997   -19124.614   -8069.2965    84.725867 
   71500    1232.6462   -108.60681    1.1153242   -107.49149    9859.7323    4.3777949    4.3777949    4.3777949    9859.7323   -59160.409    22840.699    65898.906   -43821.816   -5469.6602   -3511.2424    83.900823 
   71600    2247.5568    -109.5093    2.0336367   -107.47567    20980.346    4.3762467    4.3762467    4.3762467    20980.346     6620.346    53243.055    3077.6368   -1322.7754   -7778.1916   -63.528681    83.811841 
   71700    1138.4298   -108.52444    1.0300752   -107.49436    6619.7867    4.3863098    4.3863098    4.3863098    6619.7867   -44139.518    50422.399    13576.479    4946.5473   -18594.869    -15253.85    84.391345 
   71800    1317.8761   -108.68777     1.192442   -107.49533   -4614.6716    4.3857035    4.3857035    4.3857035   -4614.6716   -42968.057    846.18044    28277.861   -27323.879    7279.7718    14031.027    84.356352 
   71900    1800.7682   -109.11532     1.629373   -107.48595     20108.58    4.3776261    4.3776261    4.3776261     20108.58    24977.338    61350.187   -26001.786    1151.2928   -16377.691   -433.48476    83.891118 
   72000    1388.7643   -108.76215    1.2565831   -107.50557   -10140.593    4.3794595    4.3794595    4.3794595   -10140.593   -39365.471    -2575.514    11519.206    718.96485   -13803.679    -12553.06    83.996569 
   72100    1811.7921   -109.14393    1.6393476   -107.50458    8296.8662    4.3753773    4.3753773    4.3753773    8296.8662   -22351.748    22288.556    24953.791   -9794.8853    8115.9605    20061.502    83.761904 
   72200    1877.9079   -109.20417    1.6991705     -107.505   -245.10935    4.3811312    4.3811312    4.3811312   -245.10935    8209.0779    38299.107   -47243.513    2131.2999   -2139.2521    -26101.67    84.092792 
   72300    1272.3929    -108.6578    1.1512879   -107.50651   -14184.285    4.3898305    4.3898305    4.3898305   -14184.285   -32216.273   -32386.532    22049.951    11353.527   -4012.9291   -8167.3251    84.594721 
   72400     1304.339   -108.67501    1.1801934   -107.49482    16793.907    4.3803365    4.3803365    4.3803365    16793.907    3427.1856    35672.337    11282.199   -5179.3536    19686.648    7969.2388    84.047037 
   72500    1996.1125   -109.29208    1.8061245   -107.48596    5708.1024    4.3785928    4.3785928    4.3785928    5708.1024     15377.48    28910.055   -27163.228    7417.0491    1879.3445    -10338.43    83.946711 
   72600    1296.8152   -108.67433    1.1733856   -107.50095   -227.98787    4.3806623    4.3806623    4.3806623   -227.98787   -32827.232    2678.5437    29464.725    1210.0164    4369.4544    6584.1484    84.065796 
   72700    1673.8616   -109.01756    1.5145452   -107.50301    14265.959    4.3843024    4.3843024    4.3843024    14265.959   -19506.662    75103.742   -12799.202    3892.6086    40129.861   -646.59325     84.27553 
   72800    2046.4691   -109.33972    1.8516882   -107.48803   -1145.2954    4.3908672    4.3908672    4.3908672   -1145.2954   -33712.912    18219.132    12057.893    1869.3174   -10102.547   -1440.5483    84.654666 
   72900    818.25451   -108.24524   0.74037388   -107.50487   -7048.9325     4.378754     4.378754     4.378754   -7048.9325   -75315.422    26221.733    27946.892    -634.8403    18682.983    5549.8037     83.95598 
   73000    2214.5484   -109.49343      2.00377   -107.48966    7421.2638    4.3730894    4.3730894    4.3730894    7421.2638   -20953.975    54374.049   -11156.283    614.05102    8134.4055   -2874.7633    83.630571 
   73100    1322.2681   -108.70054     1.196416   -107.50412     1077.344    4.3819841    4.3819841    4.3819841     1077.344   -45597.469    56873.648   -8044.1475     2600.615   -43291.461      7878.65    84.141915 
   73200    1338.6027    -108.7244    1.2111959   -107.51321   -19558.564    4.3868339    4.3868339    4.3868339   -19558.564   -65788.121   -34508.228    41620.657    -13265.87    17291.014   -8549.4495    84.421598 
   73300    1958.9889   -109.27127    1.7725343   -107.49874   -6021.9754    4.3828243    4.3828243    4.3828243   -6021.9754   -25973.099    42546.458   -34639.285    3474.7974    -34541.05     9397.059    84.190326 
   73400    1694.5907   -109.03304    1.5333013   -107.49974   -14881.188    4.3830034    4.3830034    4.3830034   -14881.188   -55751.189    4106.6325    7000.9913   -9161.0501   -14160.187    12923.153    84.200644 
   73500    1416.9523   -108.78208    1.2820882   -107.49999   -12779.759    4.3814443    4.3814443    4.3814443   -12779.759   -70151.438   -12485.293    44297.455   -12781.447     3565.028   -11266.213    84.110821 
   73600     2075.913   -109.37931    1.8783297   -107.50098    3296.1659    4.3813425    4.3813425    4.3813425    3296.1659   -1008.8469    38775.592   -27878.247    7650.9652   -21654.074    28573.803     84.10496 
   73700    1318.4872   -108.70787    1.1929949   -107.51488    17504.297    4.3776568    4.3776568    4.3776568    17504.297   -50130.266    80114.639    22528.518   -11993.823    18390.731    4501.9989    83.892884 
   73800    1124.4446   -108.54218    1.0174211   -107.52476   -3083.9123    4.3758879    4.3758879    4.3758879   -3083.9123    -80021.38    29855.993    40913.651    8294.3196    14044.742   -7133.7705     83.79123 
   73900    2316.0183   -109.60216     2.095582   -107.50657    5020.6857     4.376596     4.376596     4.376596    5020.6857   -6048.2428    30033.457   -8923.1574    3703.8098   -7699.9644    29261.567    83.831912 
   74000    1448.4049   -108.82745    1.3105472    -107.5169   -12794.776    4.3850738    4.3850738    4.3850738   -12794.776   -73064.112    35366.003   -686.21997   -13776.345    23705.635    9201.4527    84.320023 
   74100     921.1068   -108.35392   0.83343679   -107.52048   -30424.708    4.3876291    4.3876291    4.3876291   -30424.708   -85360.157    -26551.95    20637.982    18155.538      8859.26   -1859.1416    84.467519 
   74200    2294.0586   -109.57135    2.0757124   -107.49563     17824.44    4.3666719    4.3666719    4.3666719     17824.44    9406.3915    64943.337    -20876.41   -2904.8517    -22441.93   -6263.2031    83.262931 
   74300     1486.341   -108.85715    1.3448725   -107.51228   -11964.973     4.379065     4.379065     4.379065   -11964.973   -74412.333    692.99932    37824.413    9454.5681    10186.425    10688.854     83.97387 
   74400    1358.4489    -108.7352    1.2291531   -107.50604   -24510.764    4.3935729    4.3935729    4.3935729   -24510.764   -63044.411   -20508.766    10020.887    2873.4535   -4700.9555   -11254.818     84.81126 
   74500    2331.4078   -109.59044    2.1095068   -107.48093   -12929.882    4.3890761    4.3890761    4.3890761   -12929.882   -40102.792    29995.323   -28682.177   -4418.1806   -32121.968   -770.12003    84.551115 
   74600    1169.2518   -108.55092    1.0579636   -107.49296   -11698.414    4.3888567    4.3888567    4.3888567   -11698.414   -65583.081   -31335.691    61823.532    25522.073    5780.8448    6458.9133    84.538433 
   74700    1570.9527   -108.90327     1.421431   -107.48184   -17604.073    4.3942155    4.3942155    4.3942155   -17604.073   -63742.561    4429.4755    6500.8656   -8477.5601   -14536.626   -14135.956    84.848476 
   74800    1901.6422   -109.19284    1.7206458    -107.4722    5182.1136    4.3862566    4.3862566    4.3862566    5182.1136   -4409.2785    33946.155   -13990.536    9945.7926   -17131.603    24890.253    84.388273 
   74900    1131.8144   -108.52133    1.0240895   -107.49724   -18831.702    4.3841285    4.3841285    4.3841285   -18831.702   -78184.361   -24165.268    45854.524     23147.26    9887.4349   -3783.2034    84.265507 
   75000    1748.7869   -109.07535    1.5823392   -107.49302   -21891.326    4.3838613    4.3838613    4.3838613   -21891.326   -15014.682   -22512.365    -28146.93   -11497.973    1935.2517    22775.523    84.250096 
   75100    2106.8574   -109.39761    1.9063289   -107.49128   -5502.5812     4.375896     4.375896     4.375896   -5502.5812   -8308.3401    1255.3943   -9454.7979    21764.582    466.80536    29870.821    83.791697 
   75200    987.78204   -108.40976   0.89376595     -107.516    -13991.47    4.3816901    4.3816901    4.3816901    -13991.47   -71350.438   -33880.959    63256.986    24381.657    13128.666   -16551.081    84.124983 
   75300    2156.7504   -109.44633    1.9514731   -107.49486   -18619.579    4.3876986    4.3876986    4.3876986   -18619.579   -26843.753   -8593.4113   -20421.573    -29245.33    -31.97368    30042.818    84.471533 
   75400    1780.5697   -109.10317    1.6110969   -107.49207   -12295.662    4.3947125    4.3947125    4.3947125   -12295.662   -41887.552   -2059.5696    7060.1341    36783.807   -8108.2036    697.44635     84.87727 
   75500      1111.26   -108.49517    1.0054914   -107.48968   -10557.885    4.3897897    4.3897897    4.3897897   -10557.885   -45312.071   -45214.422    58852.838   -16693.561    3818.6329   -7960.2093     84.59236 
   75600    1823.4381   -109.13231    1.6498852   -107.48242   -10399.514    4.3751967    4.3751967    4.3751967   -10399.514   -45141.193    28710.881    -14768.23   -20312.982   -24645.548    8584.8023    83.751529 
   75700    1435.2307   -108.79835    1.2986269   -107.49973   -21509.256    4.3748941    4.3748941    4.3748941   -21509.256   -57188.703   -7458.4542    119.38924    32085.164   -32614.547   -1221.7793    83.734152 
   75800    1491.0407   -108.86217    1.3491249   -107.51304   -21690.457    4.3809575    4.3809575    4.3809575   -21690.457   -70964.181   -42822.639     48715.45   -52980.252    12841.856     9000.688    84.082792 
   75900     2097.123   -109.39595     1.897521   -107.49843   -21547.846    4.3931284    4.3931284    4.3931284   -21547.846   -53178.602    33334.469   -44799.405    5304.8906   -46849.077   -4944.4455    84.785522 
   76000    1458.0755    -108.8143    1.3192974     -107.495   -28559.864    4.3917637    4.3917637    4.3917637   -28559.864   -79100.737   -29672.698    23093.844   -10337.246   -13314.984   -6244.8522    84.706532 
   76100    1329.4159   -108.69483    1.2028834   -107.49194    2043.9213    4.3740625    4.3740625    4.3740625    2043.9213    -35090.65    4397.3946    36825.019   -30838.461   -529.39325    2230.3996    83.686413 
   76200    2189.6858   -109.46497    1.9812737    -107.4837    191.18631    4.3747168    4.3747168    4.3747168    191.18631   -22851.604    65054.293    -41629.13    10865.256    -34811.22    10033.521    83.723971 
   76300    1064.1094   -108.46571   0.96282853   -107.50288   -32257.338    4.3942995    4.3942995    4.3942995   -32257.338   -86170.456   -24593.531    13991.973   -40646.245    11829.444   -8209.2676    84.853344 
   76400    1462.1356   -108.82084     1.322971   -107.49787   -13536.477     4.389069     4.389069     4.389069   -13536.477   -63680.237    29348.808   -6278.0019    5080.5032    1508.2867      1075.57    84.550706 
   76500    2247.7281   -109.51917    2.0337916   -107.48537    8308.9357    4.3726177    4.3726177    4.3726177    8308.9357    12160.831      32535.8   -19769.824   -12462.934   -9013.3463    15144.991    83.603513 
   76600     973.9663   -108.39736   0.88126517    -107.5161   -8769.7178    4.3721624    4.3721624    4.3721624   -8769.7178   -66194.256   -7885.9942    47771.097   -22079.258    5970.2466   -7606.2424    83.577401 
   76700    1653.4388   -109.02149    1.4960662   -107.52543   -4624.6498     4.378125     4.378125     4.378125   -4624.6498   -44239.448    27880.317    2485.1822    42418.117    10999.692     6770.071    83.919807 
   76800    2414.3386   -109.69103    2.1845443   -107.50649    5952.2942    4.3848852    4.3848852    4.3848852    5952.2942     19348.09    12626.044   -14117.251   -26991.876    3788.7069     4450.754    84.309142 
   76900    654.33705   -108.11847   0.59205791   -107.52641   -13177.936    4.3858128    4.3858128    4.3858128   -13177.936   -83671.859   -6336.9297    50474.981    14400.876    5820.1415   -8584.1828    84.362662 
   77000    1947.3726   -109.26638    1.7620237   -107.50436    10070.452    4.3835548    4.3835548    4.3835548    10070.452    30.393326    38270.167   -8089.2048     24967.13   -884.85641    3980.2403     84.23243 
   77100    1958.6123   -109.26877    1.7721936   -107.49658   -622.67461    4.3845205    4.3845205    4.3845205   -622.67461   -36185.518    30983.304    3334.1911   -16736.986   -14944.873    2760.5445    84.288109 
   77200    910.93268   -108.32498   0.82423103   -107.50074    910.56186    4.3846492    4.3846492    4.3846492    910.56186   -52453.075   -11619.228    66803.988    22955.349    1365.7927   -1436.0908    84.295535 
   77300    2180.2324   -109.44302    1.9727201    -107.4703   -1963.5735    4.3883159    4.3883159    4.3883159   -1963.5735    15242.407    21965.622    -43098.75    -4515.253   -12696.479    10530.679    84.507185 
   77400    1266.7438   -108.63385    1.1461764   -107.48768   -24478.134    4.3856592    4.3856592    4.3856592   -24478.134   -41042.235    -20726.41   -11665.757    17332.494   -3145.5154   -740.42012    84.353799 
   77500    1441.2135   -108.80062    1.3040403   -107.49658    312.65409    4.3708316    4.3708316    4.3708316    312.65409   -42963.172    5035.6536     38865.48   -4641.6509    2765.2024     4977.325    83.501104 
   77600    2096.4114   -109.39672    1.8968771   -107.49985    14389.551    4.3732406    4.3732406    4.3732406    14389.551    -2867.479    78168.389   -32132.255   -4828.4127   -14909.189   -3553.7653    83.639248 
   77700     1525.559   -108.89569    1.3803579   -107.51533   -7353.9581    4.3812555    4.3812555    4.3812555   -7353.9581   -60093.763    14294.322    23737.567    46166.054    -4050.599    -9991.193    84.099952 
   77800    1397.9371   -108.77904    1.2648828   -107.51416    4296.1783    4.3824222    4.3824222    4.3824222    4296.1783   -53582.007    41043.338    25427.204   -16880.228    -6843.345    5953.5844    84.167153 
   77900    1793.1194   -109.12031    1.6224521   -107.49785    930.42343    4.3839279    4.3839279    4.3839279    930.42343   -22181.291    36894.216   -11921.655    5692.8893    -15656.42   -660.59386    84.253936 
   78000    1298.5742   -108.67544    1.1749772   -107.50046   -5361.2649     4.377343     4.377343     4.377343   -5361.2649    -42834.18    4.1978914    26746.187    49218.866    1387.2316   -4341.5873    83.874843 
   78100    1478.8468   -108.84369    1.3380917   -107.50559   -9421.1544    4.3771713    4.3771713    4.3771713   -9421.1544   -32003.388   -2909.9585    6649.8834   -46850.727   -17737.893    4912.9629    83.864976 
   78200      1718.87   -109.06166    1.5552697   -107.50639   -3404.3356    4.3785606    4.3785606    4.3785606   -3404.3356   -19314.572    39811.345    -30709.78    17795.694   -30489.323   -3398.8504    83.944856 
   78300    1665.4586    -109.0182    1.5069419   -107.51126   -7623.6219    4.3804347    4.3804347    4.3804347   -7623.6219   -34923.742   -8096.6374    20149.514    34373.778    9469.2957    18251.877    84.052693 
   78400    1304.3119   -108.69497    1.1801688    -107.5148    4095.3958    4.3831275    4.3831275    4.3831275    4095.3958   -48604.808    34162.727    26728.268   -58157.949   -23813.209    941.98981    84.207799 
   78500    1952.2924   -109.26317    1.7664751    -107.4967    2468.3538    4.3858169    4.3858169    4.3858169    2468.3538   -24931.267    44768.568   -12432.239    25091.448   -19394.433   -1092.0164    84.362899 
   78600    1645.7927   -108.98652    1.4891478   -107.49737   -18411.193    4.3868783    4.3868783    4.3868783   -18411.193   -68875.459   -41006.817    54648.697   -13698.653    8961.6106    18439.843    84.424165 
   78700    1137.5496   -108.53795    1.0292788   -107.50867   -8893.1392     4.377115     4.377115     4.377115   -8893.1392   -74085.715    32555.108    14851.189   -43014.422    -39329.31   -7062.5432    83.861743 
   78800     1877.583   -109.19589    1.6988765   -107.49701     6342.991    4.3722543    4.3722543    4.3722543     6342.991   -22203.366    54025.606   -12793.266    16654.244    12005.271    4322.5907    83.582672 
   78900    1129.5748   -108.53942     1.022063   -107.51736   -2259.9768    4.3814415    4.3814415    4.3814415   -2259.9768   -62914.342    -10892.96    67027.371   -56235.324    6992.6483    3432.1961    84.110661 
   79000    2074.8798   -109.36893    1.8773948   -107.49154    920.27608    4.3897006    4.3897006    4.3897006    920.27608   -45593.593    23784.241     24570.18    19766.138   -16426.905   -10900.236     84.58721 
   79100    1029.3995   -108.42816   0.93142231   -107.49674   -11497.661    4.3924673    4.3924673    4.3924673   -11497.661   -54263.589    33340.482   -13569.876   -32757.643    30991.541    918.64466     84.74725 
   79200    1701.5244   -109.04015    1.5395751   -107.50057   -14061.677    4.3814533    4.3814533    4.3814533   -14061.677     -48235.4   -42122.561    48172.931   -25976.243   -699.86578    6901.1781    84.111344 
   79300    2308.4786    -109.5801    2.0887599   -107.49134    32827.278    4.3654613    4.3654613    4.3654613    32827.278   -6254.8962    34804.864    69931.865    21358.014   -4854.5181   -3775.6815    83.193697 
   79400    843.60497    -108.3009   0.76331151   -107.53758   -230.93721    4.3773903    4.3773903    4.3773903   -230.93721   -39357.265   -21286.115    59950.569   -45967.866    27643.545   -13692.576    83.877567 
   79500    1609.1935   -108.97931    1.4560321   -107.52328   -15517.804    4.3964018    4.3964018    4.3964018   -15517.804   -53427.547   -9369.0394    16243.175   -4936.8198   -5860.9022     10720.83    84.975185 
   79600    2056.9515   -109.35391    1.8611729   -107.49273   -9105.0926     4.389013     4.389013     4.389013   -9105.0926   -38098.397     20675.06     -9891.94   -9198.7968   -38418.391   -674.70854    84.547469 
   79700    1236.5278   -108.61959    1.1188364   -107.50075   -5236.9624    4.3787603    4.3787603    4.3787603   -5236.9624   -23404.846   -28851.156    36545.114   -43405.673    35363.793   -3041.1912    83.956345 
   79800    1583.1075   -108.93085     1.432429   -107.49842    6579.8816    4.3698603    4.3698603    4.3698603    6579.8816   -14286.761    37414.775   -3388.3696    9184.3813   -27840.079   -9546.6893    83.445451 
   79900    1349.3599   -108.74052    1.2209292   -107.51959     8707.931     4.373232     4.373232     4.373232     8707.931   -19614.341    5178.7817    40559.353   -35376.695   -38100.334    3396.8551    83.638751 
   80000    1962.3368    -109.2882    1.7755636   -107.51263   -15330.602    4.3955354    4.3955354    4.3955354   -15330.602    -33170.58   -54130.243    41309.018   -30695.863    23114.789   -7869.7813    84.924959 
   80100    1503.4813   -108.86414    1.3603814   -107.50376   -20313.299    4.3952948    4.3952948    4.3952948   -20313.299   -36335.619    10552.091   -35156.369    8231.7837   -31780.657    1980.8145    84.911016 
   80200    1100.2943   -108.50274    0.9955694   -107.50717    9306.3677    4.3729802    4.3729802    4.3729802    9306.3677   -28781.286    19772.176    36928.213   -61640.248   -2345.1403    5294.8892    83.624308 
   80300    2719.5335   -109.95305     2.460691   -107.49236    12186.449    4.3726985    4.3726985    4.3726985    12186.449    8932.2691    5642.3997    21984.678    14136.516    12749.921   -10594.804    83.608149 
   80400    1044.3736    -108.4659   0.94497116   -107.52093   -5081.3806     4.396195     4.396195     4.396195   -5081.3806   -12419.939    8910.7531   -11734.956   -43334.684   -29696.781    1892.6415    84.963197 
   80500    1522.9925   -108.86987    1.3780356   -107.49183   -15960.696    4.4088643    4.4088643    4.4088643   -15960.696   -4093.9225   -22175.106    -21613.06    -30040.19    12045.386    2579.5853    85.699874 
   80600    2392.0671   -109.63512    2.1643926   -107.47073    335.53337    4.3837901    4.3837901    4.3837901    335.53337    2806.1376   -17346.064    15546.527   -1114.3167    10830.719    1783.6458    84.245992 
   80700    924.97948   -108.32627   0.83694087   -107.48933    5814.4756    4.3617459    4.3617459    4.3617459    5814.4756    8069.7147   -36075.002    45448.713   -75584.165   -29288.926   -6178.9332    82.981461 
   80800    1907.1444    -109.2309    1.7256244   -107.50527    4792.2604    4.3752699    4.3752699    4.3752699    4792.2604    33108.879   -9116.4604   -9615.6379    17170.668    6099.1851    10310.998    83.755735 
   80900    1577.5322    -108.9342    1.4273843   -107.50682   -12132.714    4.3996738    4.3996738    4.3996738   -12132.714    6325.1184   -44023.016    1299.7548   -44189.106    8416.3206   -3321.2642    85.165054 
   81000    1224.4011   -108.60449    1.1078638   -107.49663   -18287.795    4.4015307    4.4015307    4.4015307   -18287.795   -18208.555    -33420.83   -3234.0002   -19833.948   -23136.888    13372.314    85.272936 
   81100    1729.1225   -109.04113    1.5645464   -107.47658    18330.194    4.3771165    4.3771165    4.3771165    18330.194    40645.458   -20837.705    35182.829    28995.483    7959.4513    15341.729    83.861824 
   81200     2120.593   -109.39681    1.9187571   -107.47805    3921.9256    4.3692092    4.3692092    4.3692092    3921.9256   -6122.6799   -20141.775    38030.232    -35921.24   -19811.203   -10710.791    83.408153 
   81300    1167.0875   -108.57148    1.0560053   -107.51547   -13380.697    4.3774494    4.3774494    4.3774494   -13380.697   -36935.518    -36241.04    33034.466    22495.343   -16452.245     28974.31    83.880965 
   81400    1170.9131   -108.59443    1.0594667   -107.53496   -9849.5437    4.3825353    4.3825353    4.3825353   -9849.5437    30751.711   -72440.176    12139.834    30301.297    9743.3817    1965.6742    84.173668 
   81500    2068.0247   -109.38975    1.8711922   -107.51856    3633.0335    4.3864617    4.3864617    4.3864617    3633.0335     16356.01   -11007.201    5550.2916   -14869.235   -12995.508   -13581.609    84.400114 
   81600    1615.2934   -108.97721    1.4615514   -107.51565    2846.2329    4.3816573    4.3816573    4.3816573    2846.2329    2017.5897    4870.3068    1650.8022    29596.222   -20351.245     20339.34    84.123093 
   81700    1733.0553   -109.06857    1.5681048   -107.50046   -2641.8959    4.3860027    4.3860027    4.3860027   -2641.8959    64865.344   -52954.076   -19836.956    36.808202   -163.91824    1313.6963    84.373618 
   81800    1348.5674   -108.71587    1.2202121   -107.49566   -16240.325     4.384719     4.384719     4.384719   -16240.325   -33474.603    17802.504   -33048.876   -34922.641   -53332.837    -11871.47    84.299559 
   81900    1805.0772   -109.11351    1.6332718   -107.48023    1051.0501    4.3796427    4.3796427    4.3796427    1051.0501    12745.173    19845.581   -29437.603    8745.7132   -13105.444    23051.098    84.007107 
   82000    1056.8743   -108.45252   0.95628212   -107.49624    3225.2859    4.3899141    4.3899141    4.3899141    3225.2859    57534.324   -39751.278   -8107.1882     -35435.5     2287.542    13463.506    84.599553 
   82100    1566.6727   -108.89552    1.4175584   -107.47796    11761.353    4.3961751    4.3961751    4.3961751    11761.353    9220.5037    22765.539     3298.017   -30915.214   -28028.127   -14455.855    84.962044 
   82200    2321.1065   -109.54791    2.1001859   -107.44773   -33493.233    4.4071348    4.4071348    4.4071348   -33493.233    2764.0033   -66836.481   -36407.222    2993.7089     8748.551    26195.502    85.599062 
   82300     675.8225   -108.08657    0.6114984   -107.47507   -31896.086    4.3927255    4.3927255    4.3927255   -31896.086    5849.9825   -77242.951   -24295.291   -42370.386   -11576.976   -9082.8554    84.762198 
   82400    1869.5572   -109.17523    1.6916146   -107.48361    24147.043    4.3637767    4.3637767    4.3637767    24147.043    18678.268    2094.4865    51668.373    19856.082   -7593.0247   -6767.7856    83.097425 
   82500    2651.0686    -109.9077    2.3987426   -107.50896    17476.395    4.3622006    4.3622006    4.3622006    17476.395    9097.6957     -5450.38     48781.87   -4846.8302    17174.075    4575.5278    83.007417 
   82600    1399.1001   -108.82399    1.2659352   -107.55806    14675.346    4.3692579    4.3692579    4.3692579    14675.346    3724.6903   -31476.367    71777.716   -28062.576   -26507.553   -16204.855    83.410946 
   82700    1162.9717   -108.61562    1.0522812   -107.56334    -14455.14    4.3931201    4.3931201    4.3931201    -14455.14     10229.32   -66845.541    13250.802    37622.684   -173.20218     8971.841    84.785042 
   82800     2138.844   -109.44013     1.935271   -107.50486   -28451.729    4.4026718    4.4026718    4.4026718   -28451.729   -20195.391   -38134.457   -27025.339   -9433.0963    10906.026    20477.967    85.339275 
   82900    1656.7766   -108.98904    1.4990863   -107.48995    9765.0859      4.37591      4.37591      4.37591    9765.0859    3050.8733    -15845.85    42090.235    7796.2144   -23247.452   -16587.133    83.792501 
   83000    1033.2162   -108.42697   0.93487577   -107.49209    10751.144    4.3713093    4.3713093    4.3713093    10751.144    54554.476   -52262.012    29960.968    42061.523   -1274.8459    11465.412    83.528484 
   83100    2361.1135   -109.61506    2.1363851   -107.47868   -15264.141    4.3868005    4.3868005    4.3868005   -15264.141    11453.414   -38009.012   -19236.826   -8110.1512   -6171.9104    8014.0627     84.41967 
   83200    1706.1046   -109.04234    1.5437193   -107.49863     41.82655    4.3797788    4.3797788    4.3797788     41.82655    -29991.82   -15710.836    45828.136    31735.644   -17225.808    1647.1481    84.014942 
   83300     883.2287   -108.31689   0.79916389   -107.51773    -2724.475    4.3758072    4.3758072    4.3758072    -2724.475    49360.791   -61762.122    4227.9058    18899.535    3522.2559    15892.836    83.786591 
   83400    1442.0439   -108.82791    1.3047916   -107.52312    7289.3722    4.3734716    4.3734716    4.3734716    7289.3722    35815.457   -27645.204    13697.863   -31485.023    649.93029   -10635.745    83.652503 
   83500    2301.7577   -109.59751    2.0826788   -107.51483    22738.352    4.3754409    4.3754409    4.3754409    22738.352    27640.307   -1565.9228    42140.671   -6689.1887   -5400.7984    7356.7041    83.765556 
   83600    1295.4901   -108.70501    1.1721866   -107.53282   -1082.4136    4.3876234    4.3876234    4.3876234   -1082.4136    74221.453   -61829.438   -15639.255    323.62258    12192.901    18191.159    84.467187 
   83700    1245.5981   -108.64104    1.1270433     -107.514   -2717.0366    4.3862686    4.3862686    4.3862686   -2717.0366     58091.01   -63614.487   -2627.6335   -32708.491    7565.1163   -39193.127    84.388968 
   83800    2154.9678   -109.43194    1.9498602   -107.48208    1801.8489    4.3833125    4.3833125    4.3833125    1801.8489    14389.225   -24990.353    16006.675    12388.953   -11080.004    25104.263    84.218463 
   83900    1267.0576   -108.63887    1.1464604   -107.49241   -14402.982    4.3853789    4.3853789    4.3853789   -14402.982    17979.788   -71311.831    10123.097    -13720.29    14208.366   -25379.233    84.337623 
   84000    1317.1851   -108.69497    1.1918167   -107.50315   -9180.6811    4.3779883    4.3779883    4.3779883   -9180.6811    16820.617   -61511.868    17149.207   -7848.2383   -5468.4658   -34276.069    83.911946 
   84100    2475.9441   -109.73685    2.2402862   -107.49656    830.19582    4.3763667    4.3763667    4.3763667    830.19582   -3663.3449   -27278.055    33431.987    28003.762   -9450.4656    13654.879    83.818739 
   84200    1832.3296   -109.17465    1.6579303   -107.51672   -14894.678    4.3796697    4.3796697    4.3796697   -14894.678   -3005.7976   -46597.815    4919.5795   -19649.211    13242.048   -44096.433    84.008664 
   84300    1087.7217   -108.51389   0.98419348    -107.5297   -14498.465    4.3797105    4.3797105    4.3797105   -14498.465   -10855.688   -61471.322    28831.614     2796.857   -1852.7149    -24296.35    84.011013 
   84400    2008.2906   -109.33272    1.8171436   -107.51558    -17409.19    4.3873654    4.3873654    4.3873654    -17409.19    22945.176   -52926.711   -22246.036    14701.628   -9001.3989    39559.551    84.452285 
   84500    1718.8926   -109.06885    1.5552901   -107.51356   -19721.526    4.3799309    4.3799309    4.3799309   -19721.526   -13748.823   -39129.065    -6286.691   -25624.104    19126.583   -9100.9989    84.023693 
   84600    1303.0114   -108.69467    1.1789921   -107.51567    16763.669    4.3669583    4.3669583    4.3669583    16763.669     37881.19   -22080.869    34490.685   -11897.565    1174.0798   -3073.1077    83.279312 
   84700      1369.25   -108.76166    1.2389262   -107.52273   -4512.5365    4.3863821    4.3863821    4.3863821   -4512.5365    50709.505   -66932.495    2685.3809    13043.652    1188.1623    50993.342    84.395517 
   84800    2355.8382   -109.61951    2.1316119    -107.4879   -6460.6662    4.3934032    4.3934032    4.3934032   -6460.6662   -25343.506   -12684.502     18646.01   -12271.452    19554.145   -14278.966    84.801429 
   84900    1163.9242   -108.56128    1.0531431   -107.50814    635.88526    4.3754573    4.3754573    4.3754573    635.88526    18118.214   -25777.663    9567.1045   -4739.5984     -7540.15    54302.074    83.766494 
   85000    1042.5504   -108.47095   0.94332152   -107.52763   -8226.3128    4.3708945    4.3708945    4.3708945   -8226.3128    26055.443   -48512.314   -2222.0677    14415.263   -2848.0601   -3553.7861    83.504712 
   85100    2065.2838   -109.39144    1.8687122   -107.52273    19436.667    4.3706259    4.3706259    4.3706259    19436.667    12065.966     8818.454    37425.583    10288.414    1844.1218   -19852.629    83.489315 
   85200    1919.8922   -109.27071    1.7371589   -107.53355   -2999.2529    4.3843153    4.3843153    4.3843153   -2999.2529    16823.877   -23916.737   -1904.8985   -4331.8232    7596.0028    38762.788    84.276278 
   85300    782.55906   -108.26142   0.70807589   -107.55334   -12230.637    4.3796155    4.3796155    4.3796155   -12230.637    36695.363   -56834.098   -16553.177    21155.593    1876.4782   -51306.763    84.005546 
   85400    1503.2082    -108.9015    1.3601344   -107.54136    24085.359    4.3654893    4.3654893    4.3654893    24085.359    34948.544   -14647.634    51955.167     -2330.62    2865.1795   -8000.7692    83.195301 
   85500    2343.0827   -109.64024    2.1200705   -107.52017   -230.15442     4.382695     4.382695     4.382695   -230.15442    49943.938   -35261.455   -15372.946    360.92412    8241.8328   -7242.6743    84.182874 
   85600    1333.2905   -108.72277    1.2063893   -107.51638   -12348.218     4.390728     4.390728     4.390728   -12348.218    31966.457   -60314.444   -8696.6681    14883.876   -10439.848   -35540.907    84.646615 
   85700    1285.8955   -108.66333    1.1635053   -107.49983    -20062.95    4.3933642    4.3933642    4.3933642    -20062.95   -6663.3763   -90871.344    37345.869    1120.6378    684.86056    31362.365    84.799176 
   85800     1919.094   -109.22056    1.7364366   -107.48412   -14062.494    4.3832402    4.3832402    4.3832402   -14062.494    23374.818   -35891.872   -29670.427   -3540.0334   -21997.987    5317.8686    84.214295 
   85900    1865.8775   -109.18003    1.6882851   -107.49174    7167.2502    4.3600306    4.3600306    4.3600306    7167.2502    7237.1911   -5335.2693    19599.829     11355.13   -28138.065   -8767.0471    82.883603 
   86000    789.22455   -108.24697   0.71410695   -107.53286   -10179.051    4.3677659    4.3677659    4.3677659   -10179.051    11328.998   -85613.127    43746.975   -13603.125    4133.1817    47502.136    83.325527 
   86100    1573.6002   -108.95535    1.4238265   -107.53153   -11189.866    4.3870737    4.3870737    4.3870737   -11189.866    13132.216   -31341.857   -15359.957   -3734.5792   -20344.197    2803.0702    84.435442 
   86200    1998.6626   -109.32156    1.8084319   -107.51313    -7782.435     4.389906     4.389906     4.389906    -7782.435    5243.5837   -9232.8736   -19358.015    2692.8522   -15073.031   -13872.842    84.599087 
   86300    1735.5741   -109.08294    1.5703839   -107.51255   -1238.0637    4.3755769    4.3755769    4.3755769   -1238.0637    1325.6463   -53137.528    48097.691   -19036.375    10210.919    24718.588    83.773366 
   86400    1046.0317    -108.4738   0.94647143   -107.52733   -2337.6711    4.3621452    4.3621452    4.3621452   -2337.6711    25214.213    -27750.08   -4477.1461    4966.6777   -14326.842   -44000.718    83.004255 
   86500    1291.6759   -108.70994    1.1687355    -107.5412    14236.104    4.3678303    4.3678303    4.3678303    14236.104   -1562.8936    3511.5639    40759.643   -4981.3686   -14750.487   -16342.752     83.32921 
   86600    2021.7995   -109.35193    1.8293667   -107.52256   -6485.4031    4.3904114    4.3904114    4.3904114   -6485.4031    -16401.25   -38841.659    35786.699   -5333.7403    22602.092    7840.6835    84.628306 
   86700    1401.9958   -108.78012    1.2685552   -107.51157   -14270.885    4.3918878    4.3918878    4.3918878   -14270.885    16833.665   -44775.265   -14871.053    4687.6881   -34205.686   -48260.421    84.713711 
   86800    1516.7429   -108.87001    1.3723809   -107.49763   -1383.4926    4.3762365    4.3762365    4.3762365   -1383.4926   -7132.6325   -7408.6078    10390.763   -5523.0294   -4724.7458    9433.0116    83.811256 
   86900    1700.0983   -109.04161    1.5382846   -107.50332    8581.3597    4.3633248    4.3633248    4.3633248    8581.3597    10543.096   -9239.5761     24440.56   -215.92697    51498.866    17196.632    83.071609 
   87000    1394.0289   -108.78826    1.2613466   -107.52692    10399.157    4.3658713    4.3658713    4.3658713    10399.157    36317.883    3687.3435   -8807.7542    5386.8587   -49406.888   -20904.952    83.217141 
   87100    1580.2111   -108.96684    1.4298082   -107.53703   -13570.597    4.3799042    4.3799042    4.3799042   -13570.597   -13950.699   -8367.0504   -18394.042    159.62952   -26365.049   -2565.4342    84.022156 
   87200    1822.9003    -109.1818    1.6493985    -107.5324   -2044.4856    4.3772319    4.3772319    4.3772319   -2044.4856    15061.329   -1511.0027   -19683.783   -8679.3715    58509.858    19120.271    83.868459 
   87300    1552.5269   -108.94021     1.404759   -107.53545   -14488.415    4.3723896    4.3723896    4.3723896   -14488.415   -15112.641    19701.219   -48053.825    4884.3755   -50955.007   -6200.3344    83.590431 
   87400    1670.7837    -109.0425    1.5117602   -107.53074   -4428.4965    4.3671554    4.3671554    4.3671554   -4428.4965    -5032.048   -5498.5555   -2754.8859    15348.864   -29467.559   -21054.182    83.290593 
   87500    1713.7884    -109.0824    1.5506718   -107.53173   -6548.3282    4.3744334    4.3744334    4.3744334   -6548.3282   -7943.1461   -4401.1923   -7300.6462   -7778.7527    44035.393    15965.048    83.707701 
   87600    1436.9606   -108.82578    1.3001921   -107.52559   -29215.932     4.386146     4.386146     4.386146   -29215.932   -34237.454   -8493.1698   -44917.173    3664.8214   -31397.826    12092.626    84.381893 
   87700    1459.2521   -108.83618    1.3203619   -107.51582   -5824.7472     4.376435     4.376435     4.376435   -5824.7472    3337.1135   -22613.426    1802.0707    15721.947   -19946.042   -43325.869    83.822664 
   87800    2268.0763   -109.55767    2.0522031   -107.50546    -9094.351    4.3772935    4.3772935    4.3772935    -9094.351    878.53183    2133.2011   -30294.786   -11089.218    29686.601    25323.529    83.872002 
   87900    1305.9197   -108.70532    1.1816235    -107.5237   -5967.4402    4.3744004    4.3744004    4.3744004   -5967.4402    5669.2785    9588.5687   -33160.168    16664.867   -674.16369    3255.2609     83.70581 
   88000    1166.7843   -108.58916     1.055731   -107.53343   -375.11926     4.371191     4.371191     4.371191   -375.11926   -4673.7315    33370.937   -29822.564    18831.935   -39382.222   -37763.642    83.521703 
   88100    2262.8834    -109.5707    2.0475044   -107.52319   -10729.249    4.3789073    4.3789073    4.3789073   -10729.249   -23378.146    5353.6471   -14163.248   -12065.831    9247.0928    15207.248    83.964801 
   88200    1617.7527   -109.00381    1.4637767   -107.54003    12658.439    4.3705043    4.3705043    4.3705043    12658.439    44340.431    21788.185   -28153.297    2441.6663    2222.4752   -14119.542     83.48235 
   88300    496.83879   -108.01352   0.44955017   -107.56397   -21851.631    4.3759217    4.3759217    4.3759217   -21851.631    4949.0397    11963.959   -82467.892    15909.346   -56750.455   -39348.192    83.793171 
   88400    2267.3275   -109.59171    2.0515256   -107.54019    -6050.127    4.3742061    4.3742061    4.3742061    -6050.127     14000.63   -5497.3293   -26653.682   -1621.4176    7474.6113    15381.432    83.694653 
   88500    1819.7539   -109.18733    1.6465516   -107.54077   -5333.1154    4.3718373    4.3718373    4.3718373   -5333.1154    17387.634    8355.1252   -41742.105   -2382.1286   -20451.932   -11204.376    83.558759 
   88600     851.0976   -108.31544   0.77009099   -107.54535    -27044.11    4.3792865    4.3792865    4.3792865    -27044.11   -20929.639    2341.1829   -62543.874     24591.08   -48983.628   -45024.116    83.986615 
   88700    2088.0053   -109.41165    1.8892711   -107.52238    1341.4145    4.3731595    4.3731595    4.3731595    1341.4145    21676.702    7128.2805   -24780.739   -5365.0061    24101.218    25556.052    83.634591 
   88800    1704.6726   -109.06636    1.5424236   -107.52394   -16203.373    4.3764131    4.3764131    4.3764131   -16203.373   -24223.123    26297.062   -50684.058    8207.0347   -26598.241    12015.515    83.821403 
   88900     1272.859   -108.68437    1.1517096   -107.53266   -7149.8308    4.3690817    4.3690817    4.3690817   -7149.8308   -15565.408    16968.496   -22852.581    15379.392   -38485.585   -50577.002    83.400856 
   89000    1777.8836   -109.13908    1.6086665   -107.53041    8656.1019    4.3675545    4.3675545    4.3675545    8656.1019    22359.243    12319.329   -8710.2663    2132.8704      23948.5    13878.887    83.313427 
   89100    1663.9326   -109.03993    1.5055612   -107.53436    -2692.671    4.3752189    4.3752189    4.3752189    -2692.671   -21066.485    19479.911   -6491.4389   -5938.3326   -3515.8488    20542.272    83.752805 
   89200    960.91793   -108.41693   0.86945873   -107.54747    7991.0383     4.371107     4.371107     4.371107    7991.0383    9200.1345    10593.488    4179.4928    4382.7429   -30061.026   -63409.913    83.516889 
   89300    2313.6015   -109.62085    2.0933952   -107.52745    9198.4583    4.3778394    4.3778394    4.3778394    9198.4583   -1229.5417    5354.7654    23470.151    13524.978    8527.4777    3564.8212    83.903386 
   89400    1720.1082   -109.08381      1.55639   -107.52742   -2289.7126    4.3814179    4.3814179    4.3814179   -2289.7126   -671.28984   -25072.178     18874.33   -12546.718   -9545.4278   -24507.599    84.109303 
   89500    684.71318   -108.15501   0.61954288   -107.53547   -3210.5364     4.375473     4.375473     4.375473   -3210.5364      30667.1   -9144.2762   -31154.433    15883.199   -16670.345   -41323.824    83.767398 
   89600    2070.0553   -109.37679    1.8730295   -107.50376    3362.3478    4.3790779    4.3790779    4.3790779    3362.3478    1976.8809   -2402.4743    10512.637    6460.4173    6529.1986    35682.613    83.974614 
   89700    1566.2553    -108.9223    1.4171807   -107.50512    -13215.38    4.3827469    4.3827469    4.3827469    -13215.38    29445.589   -33953.199   -35138.529   -15840.163   -6448.7326   -63862.142    84.185866 
   89800    1682.2131   -109.02767    1.5221018   -107.50557    -874.4498    4.3760122    4.3760122    4.3760122    -874.4498    8738.9377    17927.495   -29289.782   -1646.9141   -31922.333   -9741.3886    83.798372 
   89900    2097.6424   -109.39623    1.8979909   -107.49824    5243.8924    4.3732022    4.3732022    4.3732022    5243.8924    22057.585    18601.289   -24927.197     7044.577    16660.103    13701.744    83.637045 
   90000    742.62627   -108.19864   0.67194386    -107.5267   -250.58639    4.3746888    4.3746888    4.3746888   -250.58639    61416.688   -7812.1444   -54356.302   -16297.331   -18653.461   -48567.304    83.722365 
   90100    1893.2423   -109.22636    1.7130455   -107.51332    3224.6117    4.3843633    4.3843633    4.3843633    3224.6117   -6047.8229    25266.019   -9544.3606   -13219.438   -39546.511    9368.1844    84.279043 
   90200     2339.451   -109.60867    2.1167844   -107.49188   -17036.735     4.395096     4.395096     4.395096   -17036.735    5560.6731   -15463.224   -41207.654    8365.0417     13585.33     -30448.1    84.899491 
   90300    750.58709   -108.19161   0.67914697   -107.51247   -24280.167    4.3827806    4.3827806    4.3827806   -24280.167   -18628.764   -18539.096   -35672.639   -24519.988    -49800.66   -22134.206    84.187808 
   90400    2024.2351   -109.32849    1.8315705   -107.49692    20539.323    4.3605246    4.3605246    4.3605246    20539.323    18633.585    38263.071    4721.3121    5923.1973   -2522.1142    38424.129    82.911776 
   90500    2050.7773   -109.35813    1.8555864   -107.50255   -457.13859    4.3712954    4.3712954    4.3712954   -457.13859    2555.7016    15329.682   -19256.799   -1930.5843   -4799.5758    -29380.51     83.52769 
   90600    841.16432   -108.29143   0.76110315   -107.53033    1383.3236    4.3798719    4.3798719    4.3798719    1383.3236   -33332.509    50783.595   -13301.116   -22308.473   -53474.253   -9020.2801    84.020299 
   90700    1665.6558   -109.02242    1.5071204    -107.5153   -353.19592    4.3857949    4.3857949    4.3857949   -353.19592    2996.8141    7043.9039   -11100.306    3653.0467    16226.858    34932.379    84.361626 
   90800    1888.4307   -109.21458    1.7086918   -107.50588   -1736.3625     4.379269     4.379269     4.379269   -1736.3625   -46885.128    45721.654   -4045.6136    5728.9709   -34744.709   -3259.8248    83.985605 
   90900    1906.2478   -109.22612     1.724813   -107.50131    13695.336    4.3645127    4.3645127    4.3645127    13695.336   -9750.2344    47365.273    3470.9706   -13872.697   -31162.789    11634.161    83.139475 
   91000    1386.0202   -108.77457    1.2541002   -107.52047   -9911.9669    4.3730607    4.3730607    4.3730607   -9911.9669    -18983.13   -22149.754    11396.983    -3584.464     1280.422    16296.464    83.628927 
   91100    876.53055   -108.32729   0.79310327   -107.53419   -18902.748    4.3782188    4.3782188    4.3782188   -18902.748   -87059.442    46488.882   -16137.685    18930.852   -74870.352   -6873.1827    83.925198 
   91200    2292.3889   -109.58302    2.0742016   -107.50882    12791.218    4.3781911    4.3781911    4.3781911    12791.218    5628.1976    31358.338    1387.1171   -1572.0769    14595.591    6890.5339     83.92361 
   91300    1006.9468   -108.43125    0.9111066   -107.52014   -477.50201    4.3894838    4.3894838    4.3894838   -477.50201    4953.6969    20597.379   -26983.582    13224.457   -59581.967    21796.387    84.574678 
   91400    1708.8763   -109.02689    1.5462272   -107.48067     154.8324    4.3988392    4.3988392    4.3988392     154.8324   -28215.543    52314.625   -23634.585    4508.6297   -20983.135   -15848.237    85.116596 
   91500    1922.9864   -109.18973    1.7399585   -107.44978   -20800.582    4.3971646    4.3971646    4.3971646   -20800.582    20212.623     -31071.2   -51543.169   -6222.0706   -2559.2166    30124.699    85.019428 
   91600    1179.4617   -108.52112    1.0672017   -107.45391    454.14836    4.3771827    4.3771827    4.3771827    454.14836    9625.4186    26926.408   -35189.382    8217.2466   -45870.193    1579.8128    83.865629 
   91700    1937.9935   -109.21214    1.7535372    -107.4586    6085.8415     4.371567     4.371567     4.371567    6085.8415    24052.305    10889.587   -16684.368    1859.9438    18451.978   -38587.833     83.54326 
   91800    1680.5146   -109.01021    1.5205649   -107.48964   -3350.9595    4.3735201    4.3735201    4.3735201   -3350.9595    4435.7208    26519.196   -41007.796   -10695.708   -43363.324    12680.114    83.655282 
   91900    1520.1183     -108.881     1.375435   -107.50557    9558.1764    4.3770014    4.3770014    4.3770014    9558.1764   -2071.0588    27322.779    3422.8095    22521.543   -10823.871   -6863.4488    83.855213 
   92000    1451.5267   -108.82164    1.3133719   -107.50827   -15881.213    4.3908186    4.3908186    4.3908186   -15881.213   -5550.3246   -16676.938   -25416.375    3492.4093   -11210.976   -45059.623    84.651854 
   92100    1891.5363   -109.20328    1.7115018   -107.49178   -898.54873    4.3816998    4.3816998    4.3816998   -898.54873   -32772.247    40599.967   -10523.366   -14407.257   -52448.797    13835.853    84.125538 
   92200    2053.7073   -109.34241    1.8582375   -107.48417    4294.9153    4.3694759    4.3694759    4.3694759    4294.9153    10222.174   -3920.1748    6582.7462    19906.698    16353.372   -33651.357     83.42343 
   92300    969.85156   -108.38474   0.87754207   -107.50719   -19525.801    4.3774668    4.3774668    4.3774668   -19525.801   -19632.617    2023.1522   -40967.937    804.00322   -39024.565   -27689.937     83.88196 
   92400    1735.0231   -109.06975    1.5698854   -107.49987   -2907.8138    4.3783051    4.3783051    4.3783051   -2907.8138   -28476.675    33540.914   -13787.681   -8638.8256   -21338.387    17797.715    83.930161 
   92500    1695.7607   -109.03546    1.5343599    -107.5011   -6629.3607    4.3792538    4.3792538    4.3792538   -6629.3607    13312.812   -32414.487     -786.407    5413.6496    16984.415   -46151.514    83.984732 
   92600    1705.7957    -109.0429    1.5434398   -107.49946   -10856.169    4.3779414    4.3779414    4.3779414   -10856.169   -22600.307   -7792.4473   -2175.7516    4351.0292   -38860.863   -13899.948    83.909247 
   92700    1507.0909   -108.86149    1.3636475   -107.49785    14860.696     4.374476     4.374476     4.374476    14860.696   -11256.291    34874.194    20964.186   -6968.9039    13832.235    12490.995    83.710147 
   92800    1287.1055   -108.67592    1.1646001   -107.51132    -21868.96    4.3845862    4.3845862    4.3845862    -21868.96    68.807059     -43840.3   -21835.387    7235.2983    27313.851   -39381.499    84.291899 
   92900    2458.7617   -109.72224    2.2247393    -107.4975    7557.4086     4.371082     4.371082     4.371082    7557.4086   -17885.254    1040.3518    39517.128    5711.4769   -19419.549    2769.4557    83.515457 
   93000     1425.044   -108.80545    1.2894097   -107.51604    6928.7358    4.3681923    4.3681923    4.3681923    6928.7358    14182.045    23372.937   -16768.775    67.008219    16803.032    840.66024    83.349933 
   93100    1584.0048   -108.93846    1.4332408   -107.50522   -17402.855    4.3824606    4.3824606    4.3824606   -17402.855   -4008.5464   -19764.206   -28435.812    702.01301    13568.738   -15829.913    84.169369 
   93200     1265.033   -108.65257    1.1446285   -107.50794    6300.6903     4.375235     4.375235     4.375235    6300.6903   -45304.312     38224.07    25982.313    11823.798   -52140.637    8451.3875    83.753728 
   93300     1893.781    -109.2159    1.7135328   -107.50237     11805.54    4.3768355    4.3768355    4.3768355     11805.54   -4133.7277    28568.386    10981.961   -2778.7045    11597.782   -16101.782    83.845677 
   93400    1907.1748   -109.23466    1.7256518   -107.50901    5334.9651    4.3713753    4.3713753    4.3713753    5334.9651   -6333.9571    9692.0537    12646.799   -452.73308   -14744.761   -22360.785    83.532268 
   93500    1500.6619   -108.87363    1.3578305    -107.5158    10782.811    4.3684048    4.3684048    4.3684048    10782.811   -45363.022    30082.444     47629.01    22045.485   -32892.737    7824.6081    83.362095 
   93600    1248.6778   -108.65008    1.1298299   -107.52025    -24387.27    4.3841877    4.3841877    4.3841877    -24387.27   -28132.943   -5869.6296   -39159.239   -10758.056    37683.405   -21286.156    84.268916 
   93700     1929.201    -109.2477    1.7455816   -107.50212    -507.3897    4.3771345    4.3771345    4.3771345    -507.3897   -18559.556    15468.368    1569.0187    10214.558    16589.792    -4073.673     83.86286 
   93800     1521.232   -108.88724    1.3764427    -107.5108   -11458.997    4.3744532    4.3744532    4.3744532   -11458.997   -48022.793   -27033.812    40679.616    28286.786   -10753.833    8480.4961     83.70884 
   93900    1305.8643   -108.69972    1.1815735   -107.51815    1040.6393     4.367035     4.367035     4.367035    1040.6393   -8747.0954    11413.935    455.07814   -21620.853    40974.301   -1260.2562      83.2837 
   94000    1378.0396   -108.76764    1.2468792   -107.52076    24993.234    4.3671588    4.3671588    4.3671588    24993.234     6569.245    10183.664    58226.793    39156.442   -12291.433   -8524.0129    83.290784 
   94100    1792.7217   -109.14058    1.6220923   -107.51849   -13151.671    4.3853462    4.3853462    4.3853462   -13151.671     -49980.2   -19748.053    30273.241    8431.4302   -12054.146   -793.47175    84.335737 
   94200    2344.9903   -109.62317    2.1217965   -107.50138    18371.179    4.3753194    4.3753194    4.3753194    18371.179    26515.741   -3607.2695    32205.066   -21010.594    20700.631   -1561.6864    83.758579 
   94300    913.76536   -108.35036    0.8267941   -107.52357    1487.3315    4.3712583    4.3712583    4.3712583    1487.3315   -895.99387   -12279.277    17637.265    58288.275    -35340.65    -10893.39    83.525564 
   94400    2207.2431   -109.50226      1.99716    -107.5051   -13363.258    4.3838892    4.3838892    4.3838892   -13363.258   -25246.851   -9975.5623   -4867.3614   -15881.107   -7404.0342    -4690.459    84.251706 
   94500    1753.8023   -109.08937    1.5868772   -107.50249    -11981.87    4.3895246    4.3895246    4.3895246    -11981.87   -25159.235   -22605.175    11818.799    32451.627    6107.7684    6125.8575    84.577035 
   94600    925.49901   -108.33137   0.83741096   -107.49396   -17144.469    4.3907975    4.3907975    4.3907975   -17144.469   -4629.3175   -33388.644   -13415.447    37183.252   -33658.749    -12523.63    84.650638 
   94700    2335.3663   -109.58145    2.1130885   -107.46836    10800.272    4.3752464    4.3752464    4.3752464    10800.272     11387.64    13625.883    7387.2933   -14388.977    19563.261   -8169.0742    83.754384 
   94800    1212.3051   -108.59801    1.0969192   -107.50109   -2765.9545    4.3642081    4.3642081    4.3642081   -2765.9545   -28838.774   -7978.1544    28519.065    60020.557    274.71718    3368.1597     83.12207 
   94900    1478.3287   -108.85319    1.3376229   -107.51557    10737.487    4.3645153    4.3645153    4.3645153    10737.487    12630.239   -3341.3352    22923.556    7537.1006   -19168.508   -6391.4287    83.139625 
   95000    1231.9107   -108.64203    1.1146587   -107.52738   -112.84969    4.3793578    4.3793578    4.3793578   -112.84969   -25681.029    7467.1561    17875.324   -27699.349    24550.662   -215.57993    83.990719 
   95100    1604.5785   -108.96965    1.4518563   -107.51779   -6091.1573    4.3872793    4.3872793    4.3872793   -6091.1573   -24757.466   -7083.7306    13567.725    41347.814    2801.4064   -2447.0508    84.447314 
   95200    2048.9734   -109.35868    1.8539542   -107.50473    6005.6151    4.3739267    4.3739267    4.3739267    6005.6151    30972.592   -20984.449    8028.7021   -11700.494     -10800.8    17902.099    83.678617 
   95300    1310.9104   -108.70196    1.1861393   -107.51582    12990.904    4.3621986    4.3621986    4.3621986    12990.904   -12725.634    16629.324    35069.022   -28341.941    28007.634   -12040.943    83.007305 
   95400    1798.9224    -109.1385    1.6277028    -107.5108    18162.157    4.3704907    4.3704907    4.3704907    18162.157      10171.8    10000.363    34314.308    14447.882   -8469.3405    15495.751    83.481571 
   95500    1227.1086    -108.6243    1.1103136   -107.51398   -13769.363    4.3927133    4.3927133    4.3927133   -13769.363    13749.075   -55880.301    823.13685   -11147.052   -16427.756    25951.128    84.761489 
   95600    1803.7084     -109.119    1.6320333   -107.48697    -15676.14     4.391333     4.391333     4.391333    -15676.14    -42121.73   -25725.264    20818.573   -30985.393    14495.028    -30668.27     84.68161 
   95700    1661.8885   -108.98609    1.5037117   -107.48238    4145.9688    4.3682929    4.3682929    4.3682929    4145.9688   -10571.119    32183.843   -9174.8171    14245.613   -25402.492    45037.268    83.355688 
   95800    1229.3134   -108.61545    1.1123086   -107.50314   -1557.8745    4.3606671    4.3606671    4.3606671   -1557.8745    96.755139   -17415.853    12645.474    -18378.28   -11536.378   -656.50599    82.919905 
   95900    1430.5318   -108.82037    1.2943752     -107.526    5298.5192    4.3672039    4.3672039    4.3672039    5298.5192    17739.797   -27922.569    26078.329   -27417.984    19132.153   -45794.153    83.293364 
   96000     2170.899   -109.48508    1.9642751   -107.52081    676.75174    4.3823662    4.3823662    4.3823662    676.75174    6698.1763   -5686.6699    1018.7488     14168.39   -21730.584    23590.708    84.163929 
   96100    1239.4026   -108.65513    1.1214375   -107.53369   -19611.409    4.3816638    4.3816638    4.3816638   -19611.409   -8033.5997   -66740.209    15939.583   -35594.781   -9893.6384   -31439.458    84.123467 
   96200     1073.743     -108.499   0.97154523   -107.52746   -2290.6038    4.3657353    4.3657353    4.3657353   -2290.6038    13024.918    -60159.87    40263.141   -4113.4719    6449.9789   -30269.555    83.209364 
   96300    2229.4657   -109.52475    2.0172674   -107.50749   -1198.5074    4.3719947    4.3719947    4.3719947   -1198.5074    8308.7787    511.91832   -12416.219    28709.103   -16176.879    24261.733     83.56778 
   96400    1518.5579   -108.88651    1.3740231   -107.51249   -1724.8724    4.3783058    4.3783058    4.3783058   -1724.8724    4001.5532   -8658.3896   -517.78066   -40831.043    1410.5787   -21895.257    83.930205 
   96500    1547.0627   -108.90553    1.3998149   -107.50571    702.83338    4.3819481    4.3819481    4.3819481    702.83338   -16533.176    -6428.542    25070.218   -3925.2401    4947.4455   -23130.205    84.139843 
   96600    1739.8401   -109.07237    1.5742438   -107.49813   -4425.7357    4.3785377    4.3785377    4.3785377   -4425.7357    8532.6513    5387.5307   -27197.389     15316.05   -16574.758    40211.187     83.94354 
   96700    969.01335    -108.3887   0.87678365   -107.51191    12874.153    4.3629233    4.3629233    4.3629233    12874.153    14175.738    19054.176    5392.5465   -43406.216   -2583.2473   -11921.776     83.04868 
   96800     1879.976   -109.21607    1.7010418   -107.51502    6850.2997    4.3636429    4.3636429    4.3636429    6850.2997   -550.97214    18024.859    3077.0125   -4128.7129    15488.836   -25929.271    83.089777 
   96900    1834.3346   -109.18248    1.6597445   -107.52273   -3400.2998    4.3756131    4.3756131    4.3756131   -3400.2998    8469.2155     15685.43   -34355.545     2306.541   -2476.0245    38653.189    83.775445 
   97000    1360.0498   -108.75215    1.2306016   -107.52155   -17832.559    4.3854926    4.3854926    4.3854926   -17832.559   -8859.6168   -33493.948   -11144.113   -50046.962   -13613.416   -4478.5689    84.344183 
   97100    1918.0751   -109.23889    1.7355146   -107.50337   -4800.6054    4.3754759    4.3754759    4.3754759   -4800.6054   -5967.2493   -7082.6177    -1351.949     22136.25    31255.535   -16015.885    83.767563 
   97200     1330.002   -108.70965    1.2034138   -107.50623   -2253.0099    4.3662264    4.3662264    4.3662264   -2253.0099    12450.242   -29283.983    10074.711   -21929.284   -12211.858     32023.08     83.23745 
   97300    1519.0374   -108.88194    1.3744569   -107.50748   -9025.0219    4.3722657    4.3722657    4.3722657   -9025.0219   -4417.0481   -25842.705    3184.6871   -29434.557   -7377.7156    11632.212    83.583324 
   97400    1978.9205   -109.29549    1.7905689   -107.50492    -1975.633    4.3761326    4.3761326    4.3761326    -1975.633   -11449.872    15304.865   -9781.8916    29009.847    44870.831   -20542.339    83.805287 
   97500    1290.0842   -108.68735    1.1672953   -107.52006   -10648.857    4.3736299    4.3736299    4.3736299   -10648.857    17782.826   -27090.299   -22639.098   -33383.582   -29853.793    15229.281    83.661584 
   97600    1305.4766   -108.70823    1.1812227   -107.52701    8493.4282    4.3701409    4.3701409    4.3701409    8493.4282    29322.901   -2649.6228   -1192.9942   -22040.104    264.91787        31095    83.461527 
   97700    2560.6712   -109.81363    2.3169491   -107.49668    10874.543    4.3779129    4.3779129    4.3779129    10874.543    13631.923    5515.5204    13476.185    2425.2246    10979.772   -17053.993     83.90761 
   97800    436.71061   -107.92416   0.39514494   -107.52902   -13492.465    4.3854491    4.3854491    4.3854491   -13492.465    6637.4788   -42037.734   -5077.1407   -39482.781   -25622.416    23752.458    84.341674 
   97900    1888.1544   -109.20358    1.7084418   -107.49514   -8132.6587    4.3842451    4.3842451    4.3842451   -8132.6587   -18496.878   -25564.419    19663.321    4522.2486   -5467.7245    14714.926    84.272226 
   98000    1945.4004   -109.24155    1.7602392   -107.48131   -562.08845     4.375991     4.375991     4.375991   -562.08845    -4882.085   -14115.995    17311.815    15881.529    1116.7714   -7506.3448    83.797154 
   98100    1024.8269    -108.4219    0.9272849   -107.49462    5064.0726    4.3715411    4.3715411    4.3715411    5064.0726    1115.3568     3198.815    10878.046   -39189.586   -30855.531    28914.758    83.541772 
   98200    1906.4251   -109.21602    1.7249735   -107.49104   -15178.013    4.3789706    4.3789706    4.3789706   -15178.013   -38818.369    -9466.174    2750.5029    37848.281     18369.87   -8510.3401    83.968438 
   98300    1917.4791   -109.22876    1.7349754   -107.49378    -5624.481     4.373939     4.373939     4.373939    -5624.481   -33154.116    544.16772    15736.505   -4884.3184   -3944.6527     3795.859    83.679327 
   98400    1380.5921    -108.7567    1.2491888   -107.50751   -3343.5299    4.3695791    4.3695791    4.3695791   -3343.5299   -27101.324   -3063.9643    20134.699   -36610.926   -18953.089    23004.126    83.429341 
   98500    1892.9386   -109.21589    1.7127706   -107.50312   -9886.0282    4.3746674    4.3746674    4.3746674   -9886.0282    -34028.23    9744.2703   -5374.1249    27730.666    40713.717   -428.80005    83.721135 
   98600    1630.4015   -108.97709    1.4752215   -107.50187   -5291.2372    4.3768034    4.3768034    4.3768034   -5291.2372   -35721.925   -22223.673    42071.886   -46428.795   -17680.975   -8041.8312    83.843829 
   98700     1405.125   -108.76948    1.2713866   -107.49809   -14265.778    4.3839885    4.3839885    4.3839885   -14265.778   -15807.753    2331.5109   -29321.092   -3612.8032   -571.01041    27998.294    84.257432 
   98800    1714.7597   -109.04088    1.5515506   -107.48932   -19121.508    4.3773457    4.3773457    4.3773457   -19121.508   -12667.607   -3521.1016   -41175.816   -7436.5031     28358.51    1051.7152       83.875 
   98900      1254.26   -108.63698    1.1348808    -107.5021   -919.31179    4.3599527    4.3599527    4.3599527   -919.31179    13229.329   -29991.389    14004.124   -50378.664   -9666.0544    -30329.38    82.879159 
   99000    2009.6337   -109.32447    1.8183588   -107.50611   -1114.7823     4.367481     4.367481     4.367481   -1114.7823    4792.2292    13945.684    -22082.26    10979.651    7600.8901    34178.152    83.309219 
   99100    1372.2974   -108.75374    1.2416835   -107.51206   -15529.094    4.3841284    4.3841284    4.3841284   -15529.094    5289.1382   -46749.197   -5127.2225    -14459.24    9409.5796   -21332.188    84.265498 
   99200    1112.1949   -108.51945    1.0063373   -107.51311   -6162.1477    4.3804392    4.3804392    4.3804392   -6162.1477    19199.426   -46649.796    8963.9271   -32435.258   -8818.6179   -41372.758    84.052951 
   99300     2675.134   -109.90232    2.4205175   -107.48181    5349.1922    4.3750033    4.3750033    4.3750033    5349.1922    5283.9308    14619.188   -3855.5425    14788.839    14715.291    23646.941    83.740422 
   99400    818.17348   -108.25398   0.74030056   -107.51368   -4785.5524    4.3745412    4.3745412    4.3745412   -4785.5524    39901.264    -41474.76   -12783.161    -44989.11    1998.4192   -60459.614    83.713891 
   99500     1857.147   -109.18381    1.6803857   -107.50342    8458.0787    4.3769175    4.3769175    4.3769175    8458.0787    34383.603    -16084.57    7075.2029   -9665.5512   -4869.2769   -5434.5829    83.850387 
   99600    1944.8949   -109.25116    1.7597817   -107.49138   -694.98488    4.3866544    4.3866544    4.3866544   -694.98488    22206.891   -6066.5805   -18225.265   -1727.4897   -822.13174    11682.032    84.411235 
   99700    844.23083   -108.26796    0.7638778   -107.50409   -11594.485    4.3831197    4.3831197    4.3831197   -11594.485    16581.996   -45072.874   -6292.5765   -55053.723   -1170.5755   -53856.227    84.207346 
   99800     2181.822   -109.45269    1.9741584   -107.47854    10736.689    4.3710674    4.3710674    4.3710674    10736.689   -1886.6343    42691.401   -8594.6983    8390.7118   -15707.687    22110.366    83.514619 
   99900    1469.7085   -108.82544    1.3298231   -107.49561   -1615.1638    4.3696323    4.3696323    4.3696323   -1615.1638   -2609.2758   -6258.1767    4021.9612   -26756.611   -2365.4891   -19839.412     83.43239 
  100000    1062.5509    -108.4724   0.96141836   -107.51098   -435.32085    4.3756702    4.3756702    4.3756702   -435.32085   -6179.3427   -3637.9439     8511.324   -39110.152   -1817.2557   -31544.082    83.778724 
Loop time of 22.5712 on 1 procs for 100000 steps with 8 atoms

Pair  time (%) = 6.87993 (30.481)
Kspce time (%) = 5.52044 (24.4579)
Neigh time (%) = 0.204846 (0.907554)
Comm  time (%) = 1.01044 (4.47668)
Outpt time (%) = 0.0278068 (0.123196)
Other time (%) = 8.92774 (39.5537)

Nlocal:    8 ave 8 max 8 min
Histogram: 1 0 0 0 0 0 0 0 0 0
Nghost:    1792 ave 1792 max 1792 min
Histogram: 1 0 0 0 0 0 0 0 0 0
Neighs:    2085 ave 2085 max 2085 min
Histogram: 1 0 0 0 0 0 0 0 0 0

Total # of neighbors = 2085
Ave neighs/atom = 260.625
Neighbor list builds = 2531
Dangerous builds = 0
unfix 20
unfix 21
print "seeds:1890065"
seeds:1890065
