LAMMPS (10 Feb 2015)
# ---- initialize simulations
clear
units metal
dimension 3
boundary p p p
atom_style charge
atom_modify map array
# ---- create atoms
read_data /Users/eugeneragasa/pyflamestk_git/pypospack/tests/tests_integration/workflow/WorkflowLammpsThermalExpansion/param_5091/MgO_NaCl_unit.npt.T1200/lammps.structure
  triclinic box = (0 0 0) to (4.2565 4.2565 4.2565) with tilt (0 0 0)
  1 by 1 by 1 MPI processor grid
  reading atoms ...
  8 atoms
# ---- define interatomic potential
include potential.mod
mass 1 24.305
mass 2 15.999

group Mg type 1
4 atoms in group Mg
group O type 2
4 atoms in group O

set group Mg charge 1.60395442224
  4 settings made for charge
set group O charge -1.60395442224
  4 settings made for charge

variable R_cut equal 10.0

pair_style buck/coul/long ${R_cut}
pair_style buck/coul/long 10
pair_coeff 1 1 0.0 0.5 0.0 ${R_cut}
pair_coeff 1 1 0.0 0.5 0.0 10
pair_coeff 1 2 1640.33364459 0.274285748818 0.0 ${R_cut}
pair_coeff 1 2 1640.33364459 0.274285748818 0.0 10
pair_coeff 2 2 138.503876614 0.167383398543 15.9463705464 ${R_cut}
pair_coeff 2 2 138.503876614 0.167383398543 15.9463705464 10

kspace_style pppm 1.0e-5

neighbor 1.0 bin
neigh_modify every 1 delay 0 check yes
# ---- define settings
compute eng all pe/atom
compute eatoms all reduce sum c_eng
# ---- run minimization
reset_timestep 0
fix 1 all box/relax iso 0.0 vmax 0.001
thermo 10
thermo_style custom step pe lx ly lz xy xz yz press pxx pyy pzz pxy pxz pyz c_eatoms
min_style cg
minimize 1e-25 1e-25 5000 10000
PPPM initialization ...
  G vector (1/distance) = 0.352384
  grid = 8 8 8
  stencil order = 5
  estimated absolute RMS force accuracy = 3.76636e-05
  estimated relative force accuracy = 2.6156e-06
  using double precision FFTs
  3d grid and FFT values/proc = 3375 512
Neighbor list info ...
  1 neighbor list requests
  update every 1 steps, delay 0 steps, check yes
  master list distance cutoff = 11
Memory usage per processor = 4.06549 Mbytes
Step PotEng Lx Ly Lz Xy Xz Yz Press Pxx Pyy Pzz Pxy Pxz Pyz eatoms 
       0   -105.40733       4.2565       4.2565       4.2565            0            0            0    42357.047    42357.047    42357.047    42357.047 -5.4591187e-11 1.2697943e-10 -3.1158894e-11   -105.40733 
      10   -105.43209    4.2922445    4.2922445    4.2922445            0            0            0   -4.9211524   -4.9211524   -4.9211524   -4.9211524 1.7090498e-11 -3.1779622e-11 -1.1443831e-10   -105.43209 
      12   -105.43209    4.2922402    4.2922402    4.2922402            0            0            0  -0.19512063  -0.19512063  -0.19512063  -0.19512063 3.2638439e-11 -8.1058727e-11 1.6032595e-10   -105.43209 
Loop time of 0.00904202 on 1 procs for 12 steps with 8 atoms

Minimization stats:
  Stopping criterion = linesearch alpha is zero
  Energy initial, next-to-last, final = 
        -105.407331285      -105.43208818      -105.43208818
  Force two-norm initial, final = 6.11638 6.94804e-05
  Force max component initial, final = 6.11638 2.86507e-05
  Final line search alpha, max atom move = 0.5 1.43253e-05
  Iterations, force evaluations = 12 25

Pair  time (%) = 0.002455 (27.151)
Kspce time (%) = 0.0014348 (15.8682)
Neigh time (%) = 0 (0)
Comm  time (%) = 0.000277281 (3.06658)
Outpt time (%) = 1.69277e-05 (0.187212)
Other time (%) = 0.00485802 (53.7271)

Nlocal:    8 ave 8 max 8 min
Histogram: 1 0 0 0 0 0 0 0 0 0
Nghost:    2189 ave 2189 max 2189 min
Histogram: 1 0 0 0 0 0 0 0 0 0
Neighs:    2344 ave 2344 max 2344 min
Histogram: 1 0 0 0 0 0 0 0 0 0

Total # of neighbors = 2344
Ave neighs/atom = 293
Neighbor list builds = 0
Dangerous builds = 0
unfix 1
# ---- define output variables ----
variable natoms equal "count(all)"
variable tot_energy equal "c_eatoms"
variable length_x equal "lx"
variable length_y equal "ly"
variable length_z equal "lz"
variable tilt_xy equal "xy"
variable tilt_xz equal "xz"
variable tilt_yz equal "yz"
variable tot_press equal "press"
variable press_xx equal "pxx"
variable press_yy equal "pyy"
variable press_zz equal "pzz"
variable press_xy equal "pxy"
variable press_xz equal "pxz"
variable press_yz equal "pyz"

# ---- output ----
print "pypospack:output_section:begin"
pypospack:output_section:begin
print "tot_energy = ${tot_energy}"
tot_energy = -105.432088180201
print "num_atoms = ${natoms}"
num_atoms = 8
print "xx = ${length_x}"
xx = 4.29224022422512
print "yy = ${length_y}"
yy = 4.29224022422512
print "zz = ${length_z}"
zz = 4.29224022422512
print "xy = ${tilt_xy}"
xy = 0
print "xz = ${tilt_xz}"
xz = 0
print "yz = ${tilt_yz}"
yz = 0
print "tot_press = ${tot_press}"
tot_press = -0.195120630166908
print "pxx = ${press_xx}"
pxx = -0.195120630011552
print "pyy = ${press_yy}"
pyy = -0.195120630547228
print "pzz = ${press_zz}"
pzz = -0.195120629941943
print "pxy = ${press_xy}"
pxy = 3.26384388476247e-11
print "pxz = ${press_xz}"
pxz = -8.10587270505021e-11
print "pyz = ${press_yz}"
pyz = 1.60325951029016e-10
print "pypospack:output_section:done"
pypospack:output_section:done
print "pypospack:lammps_sim:done"
pypospack:lammps_sim:done
#------------------------------------------------------------------------------
# RUN THERMOSTAT
# running using an NPT Nose-Hoover style thermostat
#------------------------------------------------------------------------------
variable tempdamp equal 0.1
variable pressdamp equal 1.0
# set initial velocities
velocity all create 1200 3982168 mom yes dist gaussian loop all
# fix for Nose-Hoover style thermostat
fix 20 all npt temp 1200 1200 0.1 aniso 0.0 0.0 1.0 drag 1.0 couple xyz
variable boxx equal lx
variable boxy equal ly
variable boxz equal lz
variable boxp equal press
variable boxt equal temp
# calculate averages every 10000 steps
reset_timestep 0
fix 21 all ave/time 10 10 100 v_boxx v_boxy v_boxz v_boxp v_boxt file lattice.out
thermo_style custom step temp pe ke etotal press lx ly lz press pxx pyy pzz pxy pxz pyz vol
thermo_modify flush yes
thermo 100
run 100000
PPPM initialization ...
  G vector (1/distance) = 0.352034
  grid = 8 8 8
  stencil order = 5
  estimated absolute RMS force accuracy = 3.82705e-05
  estimated relative force accuracy = 2.65774e-06
  using double precision FFTs
  3d grid and FFT values/proc = 3375 512
Memory usage per processor = 3.06549 Mbytes
Step Temp PotEng KinEng TotEng Press Lx Ly Lz Press Pxx Pyy Pzz Pxy Pxz Pyz Volume 
       0         1200   -105.43209    1.0857852   -104.34631    14664.691    4.2922402    4.2922402    4.2922402    14664.691     10350.21    9845.1194    23798.743   -6129.2338    3581.2257   -10876.167    79.077342 
     100    257.89134   -104.44431    0.2333455   -104.21096    16453.499    4.3185318    4.3185318    4.3185318    16453.499    -1620.619   -8576.1984    59557.315    5681.7766    4124.9294    13062.963    80.539396 
     200    1000.5416   -104.80313   0.90531107   -103.89782   -42339.438    4.3479891    4.3479891    4.3479891   -42339.438   -33993.928   -45639.956   -47384.431   -5776.0073    4399.1687    4310.6913    82.198773 
     300    892.31719   -104.45748   0.80738735    -103.6501    14786.738    4.3342662    4.3342662    4.3342662    14786.738   -18752.506   -11942.348    75055.067   -464.61629    725.96603    1787.3863    81.422932 
     400    1187.3564   -104.51535     1.074345   -103.44101   -9823.7879    4.3260948    4.3260948    4.3260948   -9823.7879    1716.3517    -23025.92   -8161.7954    1776.8178    13530.205    33581.506    80.963281 
     500    1268.1757   -104.46212    1.1474721   -103.31464    9457.2281    4.3424464    4.3424464    4.3424464    9457.2281   -8422.2423   -17772.354    54566.281   -3855.1557   -2899.2359   -6149.1035    81.884821 
     600     881.3247   -104.04502   0.79744111   -103.24758   -40053.084    4.3623486    4.3623486    4.3623486   -40053.084   -32237.406   -42937.256   -44984.589    8724.4073    9705.7445    18122.632    83.015868 
     700    1120.5532   -104.23292    1.0139001   -103.21902    22060.883    4.3428799    4.3428799    4.3428799    22060.883    48518.839   -1802.5373    19466.346    14995.678    14526.198   -5864.7293    81.909344 
     800    1626.6191   -104.69432    1.4717992   -103.22252   -9696.4813     4.336594     4.336594     4.336594   -9696.4813    752.59124   -27196.966   -2645.0692    4906.3961   -2170.1876    8378.0602    81.554194 
     900    766.18483   -103.93609   0.69326013   -103.24283   -8697.6584     4.339118     4.339118     4.339118   -8697.6584   -3919.1549   -11283.058   -10890.762    5618.3035    18372.048     25249.39    81.696676 
    1000    1292.3777   -104.41107    1.1693705    -103.2417    827.67019    4.3413098    4.3413098    4.3413098    827.67019    26698.837   -16352.678   -7863.1477    2776.5502   -3527.8116   -18183.845    81.820542 
    1100    1102.0631   -104.24298   0.99716989   -103.24581    -11959.58    4.3427547    4.3427547    4.3427547    -11959.58    2486.3241   -28674.301    -9690.764   -2153.7159     19693.12    34808.081    81.902261 
    1200    1523.1184   -104.60741    1.3781495   -103.22926    5855.2855    4.3385003    4.3385003    4.3385003    5855.2855    7199.0047   -23522.849      33889.7   -3980.2087    8271.3519   -7225.3562    81.661791 
    1300    713.21813   -103.88247   0.64533475   -103.23714    -14730.34    4.3452853    4.3452853    4.3452853    -14730.34    25553.874   -27155.737   -42589.157   -431.36101    14121.687     17413.49    82.045525 
    1400    1461.4684   -104.55156    1.3223674   -103.22919   -5250.3878    4.3307053    4.3307053    4.3307053   -5250.3878   -16613.327   -12248.268    13110.432   -4738.4433    10876.014    20902.608    81.222413 
    1500    1560.0899   -104.64464    1.4116022   -103.23304    2552.0647    4.3379919    4.3379919    4.3379919    2552.0647    31329.068   -32203.886    8531.0119     4378.886    6711.9723   -1331.5024    81.633085 
    1600    674.65326   -103.84618   0.61044044   -103.23574   -12225.953    4.3421432    4.3421432    4.3421432   -12225.953   -9992.5221   -23700.187   -2985.1502   -2693.7723    7800.0031    24422.832    81.867671 
    1700    1469.8491     -104.556    1.3299503   -103.22605   -1963.3882    4.3324204    4.3324204    4.3324204   -1963.3882   -16394.921    4259.1203    6245.6362    3352.2122    11158.668   -13918.466     81.31895 
    1800    1266.2372   -104.38163     1.145718   -103.23591    5742.7649    4.3325366    4.3325366    4.3325366    5742.7649    21625.407   -20219.425    15822.313    4531.3642   -6280.8898    32387.212    81.325496 
    1900    1083.7004   -104.21485   0.98055489    -103.2343   -697.43189    4.3346876    4.3346876    4.3346876   -697.43189   -16590.889   -3207.7115    17706.304    6672.9112    10922.196    3470.0421    81.446683 
    2000     933.8057   -104.07662   0.84492702   -103.23169    6844.8908    4.3392805    4.3392805    4.3392805    6844.8908    5371.1831     4599.622    10563.867    1622.9321   -9366.8524    10182.151    81.705852 
    2100    1280.4016   -104.39172    1.1585342   -103.23318   -13542.406    4.3393258    4.3393258    4.3393258   -13542.406   -3160.6305   -34015.388   -3451.1987     3493.879    12301.419    21827.707    81.708413 
    2200    1316.0238   -104.42169     1.190766   -103.23092    10089.354    4.3326491    4.3326491    4.3326491    10089.354   -27345.347    5115.7496     52497.66    4288.3178    11550.346   -9374.5595    81.331829 
    2300    1033.4452   -104.16958   0.93508292    -103.2345   -15215.923    4.3318662    4.3318662    4.3318662   -15215.923    16771.864   -32532.381   -29887.253     -4536.35    1099.4077     33626.44    81.287753 
    2400    1076.7664   -104.21184   0.97428089   -103.23755   -12528.755    4.3406431    4.3406431    4.3406431   -12528.755   -41663.948   -12178.353    16256.038   -1545.8021     12161.25    -2936.603     81.78285 
    2500    1575.2065   -104.65571    1.4252799   -103.23043   -4788.1801    4.3359655    4.3359655    4.3359655   -4788.1801   -6315.8068   -28547.439    20498.705   -11895.293   -9721.8046    8859.7157    81.518738 
    2600    982.04744   -104.12437   0.88857716   -103.23579    -23559.95     4.340305     4.340305     4.340305    -23559.95   -32657.696   -10994.765   -27027.389   -2323.1289     18482.22    11673.309    81.763739 
    2700    1120.6488   -104.24624    1.0139865   -103.23226    867.07045    4.3382452    4.3382452    4.3382452    867.07045   -29872.856    21639.107    10834.961     1673.814    3719.8279    781.13806    81.647388 
    2800    1316.6048    -104.4294    1.1912917   -103.23811    -9627.282    4.3379172    4.3379172    4.3379172    -9627.282   -26254.905   -40015.105    37388.164   -2461.3967   -7228.6997    32092.816    81.628866 
    2900    1309.1937   -104.42439     1.184586   -103.23981     16777.44    4.3328678    4.3328678    4.3328678     16777.44   -20755.124    24859.768    46227.677    8362.0869     2412.737   -969.52911    81.344146 
    3000    1019.5144   -104.16346   0.92247809   -103.24099   -16427.372    4.3457934    4.3457934    4.3457934   -16427.372   -13889.423   -30006.921   -5385.7721    1913.7736    -1900.613    1019.3805    82.074308 
    3100    1007.7353   -104.14251    0.9118201   -103.23069   -1937.3278    4.3410144    4.3410144    4.3410144   -1937.3278   -8142.6723   -18329.051     20659.74    8349.4243    9298.1355     6082.349    81.803836 
    3200     1404.985   -104.49056      1.27126    -103.2193    21033.856    4.3267835    4.3267835    4.3267835    21033.856    50829.015   -15149.404    27421.957    2211.6348    9561.7513    299.29467    81.001951 
    3300     1045.764   -104.18012   0.94622926   -103.23389   -3184.8313    4.3409731    4.3409731    4.3409731   -3184.8313    37432.836   -2450.3195   -44537.011    694.69057    1742.0413    12025.446    81.801505 
    3400    1306.6793   -104.40541    1.1823109    -103.2231   -13479.923    4.3520723    4.3520723    4.3520723   -13479.923   -22843.481   -28236.794    10640.506   -1760.8147    6765.7588    2823.3363    82.430568 
    3500    1068.5881   -104.19382   0.96688099   -103.22694    5099.5177    4.3382341    4.3382341    4.3382341    5099.5177     27282.44   -4049.6958   -7934.1906   -2549.8652    636.86709    11121.468    81.646757 
    3600    1314.1875   -104.41716    1.1891045   -103.22805    29555.263    4.3261952    4.3261952    4.3261952    29555.263    69658.752   -8036.0135     27043.05    8046.1077    30003.309    -6318.341    80.968918 
    3700    978.91615   -104.13584   0.88574391   -103.25009    7092.2242    4.3425336    4.3425336    4.3425336    7092.2242    21423.578   -12573.607    12426.701   -22501.526   -4486.3395    18599.187    81.889751 
    3800    1200.2807   -104.32254    1.0860392   -103.23651   -26005.563    4.3575281    4.3575281    4.3575281   -26005.563    3197.7954    -62829.44   -18385.044    11339.603   -8653.9916    4667.4126    82.740969 
    3900    1482.7199   -104.56312    1.3415961   -103.22152    14826.703    4.3331443    4.3331443    4.3331443    14826.703    32952.122    -24986.06    36514.047   -10672.876   -9671.8107    681.28198    81.359724 
    4000    1178.8928   -104.29439    1.0666869   -103.22771      1642.98    4.3243374    4.3243374    4.3243374      1642.98    42808.131   -17260.197   -20618.994    -6588.027     2614.619    23884.085    80.864653 
    4100    1032.2788   -104.16929   0.93402759   -103.23526    7913.6832    4.3418564    4.3418564    4.3418564    7913.6832    30217.577   -35998.998     29522.47    868.42255    -36.73741   -9585.8713    81.851449 
    4200    1155.6264   -104.27716    1.0456351   -103.23152   -17488.911    4.3493198    4.3493198    4.3493198   -17488.911    25342.454   -69619.665   -8189.5216   -16291.706   -505.00561    25638.218     82.27427 
    4300    1522.6727   -104.59973    1.3777463   -103.22198    16317.171    4.3303756    4.3303756    4.3303756    16317.171    23026.457     16804.72    9120.3357    1477.0824    12007.338    -5971.203    81.203865 
    4400    943.60206   -104.08537   0.85379097   -103.23158      19873.4    4.3243211    4.3243211    4.3243211      19873.4    76338.058   -27534.236    10816.377   -17491.813   -5745.3226    8733.1113    80.863737 
    4500    1264.9941    -104.3816    1.1445932   -103.23701   -17479.382    4.3481223    4.3481223    4.3481223   -17479.382   -13624.194   -32742.587   -6071.3656    1679.0657    2317.4081     5559.225    82.206326 
    4600    1297.1518   -104.39905    1.1736902   -103.22536    12188.652    4.3419011    4.3419011    4.3419011    12188.652    36526.223   -8083.9203    8123.6533   -3565.6684    -9477.048     1116.594    81.853979 
    4700    987.88486   -104.11972   0.89385898   -103.22586   -8145.2085    4.3315787    4.3315787    4.3315787   -8145.2085    30251.367   -14425.058   -40261.935   -20786.212    5111.4377    7197.4891    81.271567 
    4800    1427.7406   -104.51755    1.2918497   -103.22571    1878.9324    4.3330621    4.3330621    4.3330621    1878.9324    18773.018   -12633.119   -503.10159    11292.456   -27631.561   -2203.1656    81.355091 
    4900    1044.2875   -104.18504   0.94489326   -103.24014   -13138.882    4.3480321    4.3480321    4.3480321   -13138.882   -19544.246   -9074.1242   -10798.276   -24396.847   -3515.4407    4772.5197     82.20121 
    5000    1243.3184   -104.35143    1.1249806   -103.22645   -4278.3608    4.3491934    4.3491934    4.3491934   -4278.3608    21052.445   -35420.941    1533.4132   -377.69201    4520.7439   -9284.5914    82.267094 
    5100     965.8878   -104.10237   0.87395558   -103.22842   -1115.7969    4.3327945    4.3327945    4.3327945   -1115.7969    7841.8679   -33368.018     22178.76   -8726.3251    3824.2037    10113.884    81.340018 
    5200    1313.3017   -104.42476     1.188303   -103.23646    6365.6881     4.340424     4.340424     4.340424    6365.6881    19906.246   -23119.537    22310.355   -4858.3888    4714.0922   -456.11282    81.770468 
    5300    1542.3687   -104.62333    1.3955677   -103.22777    -22032.37    4.3499431    4.3499431    4.3499431    -22032.37   -24825.724   -39339.574   -1931.8124   -3117.5736    4567.6175     3489.083    82.309643 
    5400    505.88559   -103.69082   0.45773592   -103.23308    5239.4108    4.3353639    4.3353639    4.3353639    5239.4108    33422.334   -50321.972     32617.87   -12206.719   -4102.2287    21316.291    81.484814 
    5500     1919.179   -104.96449    1.7365135   -103.22797   -58.959714    4.3321537    4.3321537    4.3321537   -58.959714   -5039.4647   -7635.3781    12497.964    4469.0698    15939.498    -5318.427    81.303934 
    5600    816.06414   -103.98817   0.73839198   -103.24978   -2730.0095    4.3490991    4.3490991    4.3490991   -2730.0095   -1655.2644   -60656.773    54122.009   -25927.117   -13215.445    6330.0022    82.261744 
    5700    1373.1025   -104.47116     1.242412   -103.22875   -10987.141    4.3446338    4.3446338    4.3446338   -10987.141    -5757.041   -37003.854     9799.471    7355.7677    3931.5179    2130.4216    82.008626 
    5800    973.03354   -104.10951    0.8804212   -103.22909    13211.588     4.332432     4.332432     4.332432    13211.588    4750.5943   -36817.491    71701.662   -19411.589     733.0312    3790.4992    81.319606 
    5900    1536.4704   -104.63061    1.3902307   -103.24038   -16624.076    4.3349376    4.3349376    4.3349376   -16624.076    11069.065   -45206.445   -15734.847   -1843.2526   -18700.087    9493.7084    81.460777 
    6000    986.18544   -104.14319   0.89232131   -103.25087    2388.9776    4.3532176    4.3532176    4.3532176    2388.9776    19993.659   -56913.317    44086.591   -6858.5225    10785.243   -7876.5875    82.495662 
    6100     978.4564   -104.12819   0.88532791   -103.24286   -12336.522     4.348221     4.348221     4.348221   -12336.522   -7443.7513   -51891.206    22325.391   -18195.741   -8923.0712    4193.2754    82.211929 
    6200    1323.9956   -104.42385    1.1979791   -103.22587    26049.177    4.3352152    4.3352152    4.3352152    26049.177    49927.606   -10176.744    38396.669    4807.5656    16737.812    -9774.655    81.476428 
    6300    1270.6693   -104.38483    1.1497283    -103.2351   -19683.566    4.3449137    4.3449137    4.3449137   -19683.566   -11260.269   -55591.391    7800.9608    -19788.16   -3065.2397    6605.0284    82.024475 
    6400    865.99221   -104.02416   0.78356795    -103.2406     24462.21    4.3506404    4.3506404    4.3506404     24462.21    46337.691   -24873.704    51922.644    2762.7765    13749.539    14385.214    82.349235 
    6500    1380.6559   -104.48578    1.2492465   -103.23654    208.68297    4.3494714    4.3494714    4.3494714    208.68297   -4210.5092    -15379.44    20215.998   -8561.1591   -10345.002    9873.3581    82.282873 
    6600    958.53577   -104.09916    0.8673033   -103.23185    8645.9917    4.3459524    4.3459524    4.3459524    8645.9917    37792.291   -23494.303    11639.987   -7275.9268    6867.9976    16859.844    82.083319 
    6700    1858.3372   -104.90622    1.6814626   -103.22476   -23617.998    4.3466337    4.3466337    4.3466337   -23617.998   -19619.089   -33493.557   -17741.348    720.11913   -19761.954   -5484.7112    82.121925 
    6800    773.60441   -103.93882   0.69997353   -103.23885    23969.823    4.3484295    4.3484295    4.3484295    23969.823     61740.51    -46510.78    56679.739    2152.0877   -2094.1282    12824.455    82.223752 
    6900    1112.4955   -104.23869    1.0066093   -103.23209   -4683.2347    4.3546279    4.3546279    4.3546279   -4683.2347   -65.297359   -20318.477      6334.07   -7715.0528   -10896.339   -5794.4368    82.575871 
    7000    1339.7639   -104.43708    1.2122466   -103.22484   -9857.4407    4.3449044    4.3449044    4.3449044   -9857.4407    22876.996   -45388.846   -7060.4718    7976.6538    8611.7537    8727.5749    82.023948 
    7100    1495.0303   -104.58253    1.3527348   -103.22979   -2413.1683    4.3407969    4.3407969    4.3407969   -2413.1683    19886.074   -14053.571   -13072.009   -1346.1351    209.31269    14240.611    81.791541 
    7200    1022.2203   -104.15835   0.92492638   -103.23342   -15759.605    4.3638311    4.3638311    4.3638311   -15759.605    12183.022   -50485.352   -8976.4838   -5373.6265   -9477.1836    4797.9276    83.100534 
    7300    1182.7233   -104.28588    1.0701529   -103.21572   -17130.801    4.3626337    4.3626337    4.3626337   -17130.801    2865.4426   -56474.917    2217.0704    12051.418    8524.9648     26610.75    83.032141 
    7400    1097.1971   -104.19725   0.99276699   -103.20448    47721.343    4.3333239    4.3333239    4.3333239    47721.343    52605.731    51297.753    39260.543    -10212.19    8420.1664   -3705.5508    81.369838 
    7500    897.49357   -104.04005   0.81207104   -103.22798   -11478.402    4.3469696    4.3469696    4.3469696   -11478.402    44353.642   -45598.641   -33190.207   -2949.3476   -2290.3721    30447.854    82.140968 
    7600    1572.6682   -104.63927    1.4229833   -103.21629   -11678.996    4.3585819    4.3585819    4.3585819   -11678.996   -4220.6729   -12425.169   -18391.146    1421.8282   -7800.6491    2879.9879    82.801012 
    7700    1070.2268   -104.19516   0.96836372   -103.22679    -9727.017    4.3540039    4.3540039    4.3540039    -9727.017    3592.1587    15489.767   -48262.977    1839.5089   -12389.419    10761.159    82.540376 
    7800    1543.1509   -104.61871    1.3962753   -103.22244   -14795.171    4.3435691    4.3435691    4.3435691   -14795.171   -3316.6127   -31721.563   -9347.3378    9086.8497   -5439.3381    1152.4438    81.948347 
    7900    1314.3481   -104.41269    1.1892498   -103.22344    1050.5324    4.3436516    4.3436516    4.3436516    1050.5324    7868.9587    10980.554   -15697.916   -12489.173   -4868.0525    2701.8815    81.953017 
    8000    939.89476   -104.07634   0.85043653   -103.22591     -12904.9    4.3560902    4.3560902    4.3560902     -12904.9   -2680.3485   -24736.128   -11298.224    9308.7548   -11447.522    25471.279    82.659086 
    8100    1311.0889   -104.40422    1.1863008   -103.21792    15241.533     4.341363     4.341363     4.341363    15241.533     24461.39     43973.71   -22710.501   -15605.819    6993.6971   -8798.9623    81.823546 
    8200     716.0558   -103.87594   0.64790234   -103.22803    7351.1634    4.3423383    4.3423383    4.3423383    7351.1634    45206.452    27198.621   -50351.583   -20095.648   -4494.8495    29852.705    81.878704 
    8300    1162.1612   -104.26998    1.0515479   -103.21843    12486.041    4.3504438    4.3504438    4.3504438    12486.041    51682.561   -2092.4918   -12131.947   -10137.208    1034.1063   -8532.0802    82.338073 
    8400    1233.0811   -104.32959    1.1157177   -103.21388   -13982.921    4.3523721    4.3523721    4.3523721   -13982.921    14447.595   -3009.7355   -53386.623   -5050.6755    368.15482    12391.793    82.447605 
    8500    1247.9406   -104.34256    1.1291629    -103.2134   -17356.089    4.3440468    4.3440468    4.3440468   -17356.089   -3936.8518   -25793.679   -22337.735    3932.7697    119.31738    4360.5199     81.97539 
    8600    1419.8647   -104.50206    1.2847235   -103.21734    7141.2463    4.3353399    4.3353399    4.3353399    7141.2463   -23030.507    30833.364    13620.881    12812.736   -12347.866   -8707.2038    81.483462 
    8700    1347.8581   -104.45158    1.2195703   -103.23201   -24070.972    4.3508576    4.3508576    4.3508576   -24070.972   -17008.059   -1880.5733   -53324.283   -4915.0571   -15333.033     20588.62    82.361567 
    8800    1079.0397   -104.19558    0.9763378   -103.21924    9683.5284    4.3584607    4.3584607    4.3584607    9683.5284    9618.5858    39505.386   -20073.387   -1980.0283   -29.662633   -14600.095    82.794105 
    8900    1344.8873    -104.4276    1.2168823   -103.21072    5026.7466    4.3413543    4.3413543    4.3413543    5026.7466    25682.927   -6135.3292   -4467.3577    -8915.671   -6336.4375    24961.883    81.823054 
    9000    976.23526   -104.10069   0.88331818   -103.21737    33282.017    4.3368943    4.3368943    4.3368943    33282.017    20139.176     29273.71    50433.165   -11226.904    15579.511    2411.8378    81.571134 
    9100    910.49537   -104.05057   0.82383535   -103.22674   -4750.0442    4.3553514    4.3553514    4.3553514   -4750.0442   -12003.611   -30185.035    27938.514    1864.4634    9202.0039     4732.504    82.617032 
    9200    1137.5814     -104.252    1.0293075   -103.22269    -706.2378    4.3504397    4.3504397    4.3504397    -706.2378    7098.7995   -6560.1337   -2657.3792     2202.126   -301.34779   -3933.0024    82.337839 
    9300    1318.8782   -104.40331    1.1933487   -103.20996    15386.534    4.3338166    4.3338166    4.3338166    15386.534   -2050.5103    32610.886    15599.227    17040.223    8805.9623   -11109.098    81.397597 
    9400     821.1256    -103.9762    0.7429717   -103.23322    12236.668    4.3378715    4.3378715    4.3378715    12236.668   -17044.567    38740.106    15014.464   -1799.4238   -29115.273    15777.899    81.626286 
    9500    1218.9825   -104.34224    1.1029609   -103.23928    12939.745    4.3570367    4.3570367    4.3570367    12939.745   -16938.604     11303.51    44454.328    9865.3208   -8956.6878   -1190.7196    82.712975 
    9600    1114.0197   -104.23387    1.0079885   -103.22588   -17105.974    4.3579172    4.3579172    4.3579172   -17105.974   -32850.463   -45544.224    27076.765    13619.837   -14338.541   -6048.9001    82.763134 
    9700    1145.6284   -104.24612    1.0365886   -103.20953    19558.987     4.327297     4.327297     4.327297    19558.987   -12142.436    63764.384     7055.012   -5852.0232   -7721.9058    12150.567    81.030798 
    9800    1288.5774   -104.39382     1.165932   -103.22789     8246.533      4.33917      4.33917      4.33917     8246.533     569.9514   -13159.796    37329.443    16258.411    14781.367   -4353.3316    81.699615 
    9900    932.41658   -104.07848   0.84367012   -103.23481    11226.878    4.3507675    4.3507675    4.3507675    11226.878   -33500.842   -13867.899    81049.374   -4885.8088   -17576.505      27621.7    82.356454 
   10000    1238.0035    -104.3525    1.1201715   -103.23233   -14652.308    4.3496311    4.3496311    4.3496311   -14652.308   -58815.188    200.85192    14657.413    7549.8149   -3784.0011    9664.3572    82.291935 
   10100    1635.0662   -104.71233    1.4794422   -103.23289    904.80252    4.3352789    4.3352789    4.3352789    904.80252   -15221.481   -13724.651     31660.54    7876.5521   -8939.9532   -18970.371     81.48002 
   10200    724.81338   -103.90619   0.65582638   -103.25036    18753.786    4.3401317    4.3401317    4.3401317    18753.786   -29896.895    11345.782    74812.471    1680.5709   -2355.9401    11760.423    81.753944 
   10300    1435.8364   -104.53473     1.299175   -103.23555   -15851.612    4.3519103    4.3519103    4.3519103   -15851.612   -62601.524   -3331.8586    18378.546    2102.2418    11605.524   -11545.503    82.421365 
   10400    1314.4914    -104.4202    1.1893794   -103.23082   -32026.476    4.3505421    4.3505421    4.3505421   -32026.476   -45612.124   -24557.111   -25910.192    2137.6542   -2778.3319    18545.664    82.343653 
   10500    1166.1222   -104.28159    1.0551319   -103.22646    30873.055    4.3255058    4.3255058    4.3255058    30873.055   -18677.857    8248.0858    103048.94    4828.2209     4929.329    17696.894    80.930214 
   10600     1075.685    -104.2124   0.97330244    -103.2391    2220.6634    4.3427266    4.3427266    4.3427266    2220.6634   -58316.962    36622.027    28356.924   -3376.3139    -5064.514    4770.3356    81.900672 
   10700    1272.1453   -104.38296    1.1510638    -103.2319   -42458.672      4.35666      4.35666      4.35666   -42458.672   -66403.244   -38832.364   -22140.409    7686.9758   -10537.889    15400.726    82.691525 
   10800    1742.1691   -104.79211    1.5763512   -103.21576   -5250.0655    4.3457641    4.3457641    4.3457641   -5250.0655   -33911.358    5630.6369    12530.524    4658.2755    7463.0659   -3316.1857     82.07265 
   10900    762.69647   -103.91475   0.69010379   -103.22464    12381.102    4.3347329    4.3347329    4.3347329    12381.102   -60132.383    -3195.962    100471.65   -4777.0985   -7049.9104    16387.739    81.449237 
   11000    1026.4805   -104.16465   0.92878114   -103.23587   -409.64595    4.3354728    4.3354728    4.3354728   -409.64595   -21657.073      9788.88    10639.255    6495.8657    16448.693    22414.355    81.490951 
   11100    1737.5594   -104.80715    1.5721802   -103.23497   -8168.7774    4.3520642    4.3520642    4.3520642   -8168.7774   -20818.234    10327.705   -14015.803   -3307.1402    4263.0092   -1010.3306    82.430111 
   11200    909.52895   -104.05586    0.8229609    -103.2329   -20080.452    4.3536986    4.3536986    4.3536986   -20080.452   -61700.416   -3130.8273    4589.8873   -1748.3662    -3798.546    8480.8519    82.523014 
   11300    882.06297   -104.02267   0.79810911   -103.22456    35707.589    4.3238396    4.3238396    4.3238396    35707.589    9135.7268    22850.083    75136.957   -1686.1019    13950.694    14519.349     80.83673 
   11400    1731.9975   -104.80344    1.5671477   -103.23629    9410.3264    4.3323374    4.3323374    4.3323374    9410.3264     13916.44    17644.394   -3329.8553    15518.313   -10481.954    2746.3814    81.314276 
   11500    1022.3218   -104.16098   0.92501827   -103.23597   -23418.868    4.3576754    4.3576754    4.3576754   -23418.868   -35415.887   -3351.0159   -31489.702    304.27795    22702.776    9345.8632    82.749357 
   11600    1225.8367   -104.31865    1.1091628   -103.20949    4719.8367    4.3519762    4.3519762    4.3519762    4719.8367   -19387.546    9047.9361     24499.12    10185.175    4208.5769   -23386.278    82.425108 
   11700    998.58831   -104.11044   0.90354369   -103.20689    13923.477    4.3390925    4.3390925    4.3390925    13923.477   -6757.8546    1520.0571     47008.23    2324.0927    11264.767    523.80801    81.695233 
   11800    1209.6628   -104.30836    1.0945283   -103.21383    -18132.94    4.3343834    4.3343834    4.3343834    -18132.94   -37081.058   -26145.448     8827.684    5964.5373    13688.993    4915.7425    81.429538 
   11900    1436.3025   -104.52406    1.2995967   -103.22446   -8309.3519     4.340922     4.340922     4.340922   -8309.3519   -50973.993    24330.864    1715.0741     2688.457   -5227.8233   -4924.7731    81.798612 
   12000    1204.2114    -104.3293    1.0895958   -103.23971    -30582.79    4.3512126    4.3512126    4.3512126    -30582.79   -46837.007   -37824.352   -7087.0096     7171.252    23680.875    21308.334    82.381728 
   12100    1057.4302   -104.18532   0.95678507   -103.22853    39405.358    4.3289088    4.3289088    4.3289088    39405.358   -15096.034     32578.02    100734.09    11385.074    844.59557    -9673.542    81.121374 
   12200    1198.9873   -104.32178    1.0848689   -103.23691   -22725.127    4.3380795    4.3380795    4.3380795   -22725.127   -48071.429    3815.9622   -23919.914   -7301.5898    20119.262     3988.155    81.638033 
   12300    1178.6303   -104.30415    1.0664495    -103.2377   -14458.513     4.346992     4.346992     4.346992   -14458.513   -40864.185    2373.1596   -4884.5124    14325.827    10522.013     14077.69    82.142239 
   12400    1429.1008   -104.52923    1.2930804   -103.23615    17815.202    4.3286715    4.3286715    4.3286715    17815.202     2945.224    -15807.35    66307.732   -1188.6783   -8653.8483    5218.2671    81.108035 
   12500     936.8173   -104.09313   0.84765198   -103.24548   -231.71282    4.3241254    4.3241254    4.3241254   -231.71282   -27677.119   -13161.005    40142.986    2302.3791    21602.284    3555.0433     80.85276 
   12600    1418.5928   -104.52407    1.2835726    -103.2405   -16206.911    4.3370015    4.3370015    4.3370015   -16206.911   -10941.081   -8512.0947   -29167.558    1320.5717    200.48551     85.14436    81.577183 
   12700    1298.8612   -104.41186    1.1752369   -103.23663   -11831.706    4.3423891    4.3423891    4.3423891   -11831.706   -24861.086   -18355.197    7721.1639   -6500.8765    20698.861   -4192.1161    81.881576 
   12800    943.49459   -104.08416   0.85369374   -103.23047    1059.0042    4.3381031    4.3381031    4.3381031    1059.0042   -41588.204    -2725.122    47490.339    6844.1599    6017.2097    20839.446    81.639363 
   12900    1414.5635   -104.50063    1.2799268    -103.2207    8950.0961     4.328547     4.328547     4.328547    8950.0961     7053.887     10039.09    9757.3116    1.2289171   -12823.594   -8391.4238     81.10104 
   13000    1116.5781   -104.23948    1.0103033   -103.22918   -11372.167    4.3366737    4.3366737    4.3366737   -11372.167   -24775.678    9013.6522   -18354.474    13132.211    17307.468    6955.4602    81.558691 
   13100    1209.0394   -104.31844    1.0939643   -103.22448   -19.660561    4.3435147    4.3435147    4.3435147   -19.660561    5854.2015   -10196.003    4282.8196    5309.2497   -8570.0917    958.46578    81.945268 
   13200    1260.8152   -104.36534    1.1408121   -103.22453    10739.125    4.3307566    4.3307566    4.3307566    10739.125    1753.8173   -11825.879    42289.439    4800.0245    24083.577   -15532.799    81.225302 
   13300    910.18053   -104.05723   0.82355047   -103.23368   -4696.5974    4.3327895    4.3327895    4.3327895   -4696.5974    -21130.08      30269.4   -23229.111    11144.814    9104.5439    26828.974    81.339741 
   13400    1343.2378   -104.44023    1.2153898   -103.22484   -1161.3769    4.3328555    4.3328555    4.3328555   -1161.3769    6092.9696    15719.163   -25296.263   -76.022324    1228.6776   -11487.748    81.343453 
   13500    1191.2926   -104.30733    1.0779065   -103.22942   -22044.749    4.3426168    4.3426168    4.3426168   -22044.749   -43166.138   -16756.751   -6211.3588    15471.596    11451.992    81.567687    81.894459 
   13600    1553.8707   -104.61985    1.4059748   -103.21388   -10426.862    4.3345893    4.3345893    4.3345893   -10426.862     -16801.4    16273.482   -30752.667    8900.6799   -3604.0043   -286.36902    81.441146 
   13700    944.15307   -104.07675   0.85428954   -103.22246   -2012.5398      4.32727      4.32727      4.32727   -2012.5398   -23430.671    7322.6142    10070.438    11854.686    16603.184   -9803.6512    81.029281 
   13800    1146.7735   -104.27003    1.0376248    -103.2324   -1014.1613    4.3362359    4.3362359    4.3362359   -1014.1613   -17172.188    15094.623   -964.91891    12103.133   -1371.8168    13997.765    81.533992 
   13900    1421.0749   -104.51131    1.2858185   -103.22549    9795.8592    4.3331631    4.3331631    4.3331631    9795.8592   -21033.673    47712.698    2708.5525   -14079.815    25198.277    1309.1625    81.360778 
   14000    949.09923   -104.08445   0.85876493   -103.22569   -6219.4122    4.3320705    4.3320705    4.3320705   -6219.4122    19255.788    13105.819   -51019.844    9988.9198    7563.7204    8226.6571    81.299252 
   14100    1131.1117   -104.25042    1.0234536   -103.22696   -588.14494    4.3292141    4.3292141    4.3292141   -588.14494    13426.588    5948.8358   -21139.859    2449.4363     6430.883    7469.8223    81.138543 
   14200    1487.1956   -104.57824    1.3456458   -103.23259   -13950.512    4.3348255    4.3348255    4.3348255   -13950.512   -24953.472    8237.3952    -25135.46     6937.471    19602.053    5697.7627    81.454456 
   14300    1158.5292    -104.2803    1.0482616   -103.23204   -9353.9654    4.3364898    4.3364898    4.3364898   -9353.9654   -10471.338    14243.467   -31834.026    7241.8405   -10401.631    26203.872    81.548317 
   14400    1098.5708   -104.22255   0.99400991   -103.22854   -8672.0777     4.332507     4.332507     4.332507   -8672.0777   -23793.035    3222.7026   -5445.9004   -10849.115    24537.259    4138.9432    81.323828 
   14500    1414.0089   -104.50467     1.279425   -103.22525    -970.4856    4.3383401    4.3383401    4.3383401    -970.4856    10670.258   -20742.967    7161.2523   -3488.3572     718.3788    14428.944    81.652743 
   14600    1025.7467   -104.15061   0.92811715   -103.22249    15976.031     4.334114     4.334114     4.334114    15976.031    16939.277    21295.368    9693.4482    1360.9896    23000.843   -1310.3578    81.414356 
   14700    1092.2755    -104.2058   0.98831386   -103.21748    15015.137    4.3363987    4.3363987    4.3363987    15015.137     19349.04    14812.392    10883.979    2627.8091    9232.0095   -73.773281    81.543176 
   14800    1259.2142   -104.35661    1.1393635   -103.21724   -4543.9695    4.3361716    4.3361716    4.3361716   -4543.9695   -13589.008    13671.405   -13714.306    7734.7493    3466.3267   -3109.4192    81.530365 
   14900    1068.3777   -104.19338   0.96669056   -103.22669   -3157.6197    4.3253333    4.3253333    4.3253333   -3157.6197    40.465816    -9585.055    71.730108   -8774.5104    21295.311   -3878.1718    80.920536 
   15000    1496.5559   -104.58323    1.3541152   -103.22911   -1042.3752    4.3319826    4.3319826    4.3319826   -1042.3752    24932.218   -246.25858   -27813.085   -2837.8459    -7424.108    2608.3751      81.2943 
   15100    883.79641   -104.03462   0.79967757   -103.23494   -12264.392    4.3399763    4.3399763    4.3399763   -12264.392    5855.7567   -4517.4726   -38131.461    1534.2211    39446.135   -1611.6363    81.745164 
   15200    1191.8998    -104.2995     1.078456   -103.22104   -12191.295    4.3353813    4.3353813    4.3353813   -12191.295    13502.796   -59280.456    9203.7756     930.2827   -2635.7691   -4768.4602    81.485793 
   15300     1466.614   -104.54639    1.3270232   -103.21937   -7816.4346    4.3260812    4.3260812    4.3260812   -7816.4346   -19727.593    10552.653   -14274.363    11016.841    26473.651   -4809.2526    80.962515 
   15400    1247.7901   -104.35643    1.1290267   -103.22741    10526.566    4.3333336    4.3333336    4.3333336    10526.566   -14331.365    19006.449    26904.615    1712.0972    6650.4101   -2479.6036    81.370386 
   15500     1348.294   -104.44151    1.2199648   -103.22155   -29499.424    4.3400554    4.3400554    4.3400554   -29499.424   -21497.665   -49619.281   -17381.327      3272.08    218.67414   -2055.9799    81.749635 
   15600    633.35272   -103.80323   0.57307085   -103.23016    32540.626     4.324144     4.324144     4.324144    32540.626    14462.006    60786.123     22373.75   -1796.2764    44526.447    1589.3913    80.853802 
   15700    1689.2583   -104.75515    1.5284764   -103.22667    11908.088    4.3288739    4.3288739    4.3288739    11908.088    24957.919    5245.7496    5520.5945   -1901.8208   -9716.2024    3106.3482    81.119412 
   15800    880.83996    -104.0364    0.7970025   -103.23939    2766.5884    4.3364057    4.3364057    4.3364057    2766.5884   -7999.5624    37663.848    -21364.52    4139.7407    34967.534   -104.74867    81.543571 
   15900    1472.5807   -104.55358     1.332422   -103.22115   -19111.537     4.342964     4.342964     4.342964   -19111.537   -12245.841   -47697.577    2608.8088    10000.922   -9605.5616   -6992.1811    81.914102 
   16000     1135.061      -104.25     1.027027   -103.22297   -9555.2181    4.3289084    4.3289084    4.3289084   -9555.2181   -5284.5403   -1537.6966   -21843.417    1949.0296    16859.031    3313.2694    81.121351 
   16100    1465.4276   -104.55308    1.3259497   -103.22713    19782.559    4.3260217    4.3260217    4.3260217    19782.559    33310.138    15254.008    10783.533    7681.0712    21032.147   -7728.4548    80.959177 
   16200     1304.548   -104.40034    1.1803824   -103.21996   -18465.075    4.3454668    4.3454668    4.3454668   -18465.075     30295.33   -55259.919   -30430.635    2186.1144    10453.566   -3665.9572    82.055803 
   16300     638.8695   -103.80117   0.57806255    -103.2231   -5566.0836    4.3296715    4.3296715    4.3296715   -5566.0836    10731.922   -26104.883     -1325.29   -2785.2922    40193.403    2288.2691    81.164259 
   16400    1674.5339   -104.73269    1.5151535   -103.21753    19358.702     4.325867     4.325867     4.325867    19358.702     19315.01    34383.314    4377.7825    7364.6705   -12966.785   -2348.0815    80.950494 
   16500     1206.204   -104.32971    1.0913987   -103.23831   -3587.0406    4.3326616    4.3326616    4.3326616   -3587.0406    2274.3745    18663.683    -31699.18    8628.9123    37297.214   -7814.3561    81.332537 
   16600    958.93602   -104.10162   0.86766546   -103.23395    12326.559    4.3395626    4.3395626    4.3395626    12326.559     30055.72    6504.0891    419.86792     11924.08   -3186.9351   -3107.9368     81.72179 
   16700    968.56717   -104.10591   0.87637993   -103.22953   -920.03986    4.3332956    4.3332956    4.3332956   -920.03986   -9863.9117    19252.144   -12148.352    588.75128    30000.257   -12183.512    81.368244 
   16800     1334.281   -104.42766    1.2072855   -103.22038    17453.726    4.3267166    4.3267166    4.3267166    17453.726    -23686.71    27777.092    48270.798    6892.8223    9750.9691   -11693.411    80.998194 
   16900    1352.4966   -104.44533    1.2237673   -103.22156   -16348.622     4.346113     4.346113     4.346113   -16348.622   -22241.906   -4120.3886   -22683.572   -5526.9303    958.71208    6796.3837    82.092416 
   17000     1058.691   -104.17192   0.95792588     -103.214    -30505.59    4.3397725    4.3397725    4.3397725    -30505.59   -45906.623   -27918.793   -17691.354   -2698.5933    18208.228    2423.6649    81.733651 
   17100    1300.3762   -104.38652    1.1766077   -103.20991   -6009.6733    4.3251776    4.3251776    4.3251776   -6009.6733   -2241.6777   -14635.836   -1151.5065    1324.2856    -7862.105    15076.837    80.911795 
   17200    1418.6581   -104.50586    1.2836317   -103.22222    410.93091    4.3233681    4.3233681    4.3233681    410.93091   -21502.838    35241.844   -12506.213   -7148.4347    35024.667   -697.16584    80.810288 
   17300     1184.953   -104.30402    1.0721704   -103.23185   -4018.9944    4.3368701    4.3368701    4.3368701   -4018.9944   -4305.6177   -18350.559    10599.193    1364.8426   -4040.6542    4532.0006    81.569769 
   17400    642.61509   -103.81412   0.58145164   -103.23266    4487.4425    4.3373169    4.3373169    4.3373169    4487.4425    2094.6718    32452.017   -21084.361   -5488.4581    12312.632   -7572.9493    81.594984 
   17500    1551.9493   -104.62647    1.4042364   -103.22224   -107.10707    4.3296191    4.3296191    4.3296191   -107.10707   -22046.057     17687.54    4037.1955   -10423.233      8081.66    10986.765    81.161312 
   17600    1345.8212   -104.44821    1.2177273   -103.23048   -6913.3359    4.3298733    4.3298733    4.3298733   -6913.3359    22632.781   -8161.2158   -35211.573    6378.6113    4410.4663    1065.7552    81.175612 
   17700    1254.7997   -104.36545    1.1353692   -103.23008   -14881.314    4.3385388    4.3385388    4.3385388   -14881.314   -25057.832   -30755.823    11169.713    3830.9652    20665.717    5859.2642    81.663965 
   17800    1043.4022   -104.17268   0.94409228   -103.22859   -17734.431    4.3429985    4.3429985    4.3429985   -17734.431    9498.7171   -40430.708   -22271.302    980.23866   -5870.6685    4360.6636    81.916059 
   17900    1431.6857   -104.52057    1.2954193   -103.22515    7422.5654    4.3264509    4.3264509    4.3264509    7422.5654   -16341.542    23187.469    15421.769    7235.8026    5263.2955   -7639.3593    80.983276 
   18000    1252.0381   -104.36113    1.1328704   -103.22826    25930.072    4.3241489    4.3241489    4.3241489    25930.072    30478.885    29886.175    17425.157   -2460.0981   -2053.3493    -11933.86    80.854079 
   18100    811.31675   -103.97532   0.73409645   -103.24123   -6079.7394    4.3423599    4.3423599    4.3423599   -6079.7394     1347.736    5244.6229   -24831.577    2033.1923   -6087.7554    1329.8189    81.879927 
   18200    1421.5447   -104.51186    1.2862435   -103.22562   -3790.8985     4.344215     4.344215     4.344215   -3790.8985   -41040.863    29554.597    113.57022   -2486.3791    11774.022   -3425.5948    81.984914 
   18300    1461.4564   -104.55183    1.3223565   -103.22947   -7094.0777    4.3231945    4.3231945    4.3231945   -7094.0777    3117.1152    8951.2687   -33350.617    3530.6095   -9768.9733    8624.3087     80.80055 
   18400    1040.3938   -104.17797   0.94137015    -103.2366    10669.649    4.3280624    4.3280624    4.3280624    10669.649   -1348.2837    17149.917    16207.315   -9267.4641   -4896.8646   -3767.5327    81.073803 
   18500    996.34147   -104.13745    0.9015107   -103.23593    -13103.04    4.3409947    4.3409947    4.3409947    -13103.04   -13352.594   -9074.9609   -16881.564   -438.12697    3766.8204   -4990.2809    81.802724 
   18600    1100.1407   -104.22777   0.99543047   -103.23234    1771.3646    4.3355617    4.3355617    4.3355617    1771.3646   -2355.0946    15932.529   -8263.3401   -3559.7723   -19993.158    2010.4134    81.495966 
   18700     1613.367   -104.68494    1.4598083   -103.22513    5935.5034     4.329746     4.329746     4.329746    5935.5034   -3518.0513   -2850.2716    24174.833    172.55824    6212.6937    1989.4356    81.168449 
   18800    1071.6212   -104.20322   0.96962535    -103.2336    -15398.97    4.3292286    4.3292286    4.3292286    -15398.97    3703.3018   -31657.841   -18242.371   -1907.9347    -3850.967   -7539.8596    81.139357 
   18900    969.29099   -104.11274   0.87703486   -103.23571    1599.5042    4.3361619    4.3361619    4.3361619    1599.5042     -22963.1    11854.487    15907.126    717.93896   -580.44286    3469.2938    81.529815 
   19000    1274.2983   -104.38254    1.1530119   -103.22952   -21273.571    4.3390296    4.3390296    4.3390296   -21273.571   -34261.092   -5302.8365   -24256.786   -7249.6943    7178.5524   -25289.224    81.691681 
   19100     1148.771   -104.26413    1.0394322    -103.2247    26065.398     4.323031     4.323031     4.323031    26065.398     37886.72    10611.574    29697.901    1256.3337   -13500.762   -1159.3787    80.791384 
   19200    997.28584   -104.13995   0.90236519   -103.23758   -7564.0477    4.3282422    4.3282422    4.3282422   -7564.0477   -9044.8596    -33604.42    19957.136     -24119.3    2273.2757   -13838.516    81.083908 
   19300    1187.2233    -104.3103    1.0742246   -103.23608   -2279.4809    4.3359716    4.3359716    4.3359716   -2279.4809     5568.873   -16744.565     4337.249    9130.0421   -6010.2029    -8085.786    81.519083 
   19400    1634.6196   -104.71052    1.4790382   -103.23149   -1698.2292    4.3281593    4.3281593    4.3281593   -1698.2292   -1414.2495   -9362.2243    5681.7863   -30424.218   -11222.831    7165.4996    81.079248 
   19500    1101.9694    -104.2305   0.99708511   -103.23341    6985.6429    4.3264108    4.3264108    4.3264108    6985.6429    11429.363   -20384.407    29911.973   -4296.6912    3883.0398   -15356.753    80.981022 
   19600    948.65786   -104.08784   0.85836557   -103.22948   -13885.611     4.334308     4.334308     4.334308   -13885.611   -45033.041   -2253.2543    5629.4627   -7202.9454   -11242.291    1189.6862    81.425291 
   19700     1180.145   -104.29926      1.06782   -103.23144   -1508.5723    4.3273163    4.3273163    4.3273163   -1508.5723    1186.2516    3994.6491   -9706.6176   -23545.535    1572.9891   -7000.3864     81.03188 
   19800    1588.7168   -104.66382    1.4375044   -103.22632     7795.909     4.324009     4.324009     4.324009     7795.909    27107.161   -5321.8784    1602.4446    16718.314   -260.79125   -6122.3137    80.846229 
   19900    937.81739   -104.08273   0.84855688   -103.23417   -5454.6411    4.3235072    4.3235072    4.3235072   -5454.6411   -7240.0769   -15039.511    5915.6646   -32778.992   -3853.6677    4749.3851    80.818085 
   20000    1266.4161   -104.37825    1.1458799   -103.23237   -7249.4551    4.3349438    4.3349438    4.3349438   -7249.4551   -2370.2279    -2873.438   -16504.699    3959.6716    1834.5275    -9359.063    81.461124 
   20100    1565.3075   -104.64336    1.4163231   -103.22703     7722.006    4.3267362    4.3267362    4.3267362     7722.006   -6620.0785    28095.138    1690.9586   -188.25165   -4995.6012   -5328.7114    80.999297 
   20200     935.3858   -104.07855   0.84635673   -103.23219    19501.927    4.3197163    4.3197163    4.3197163    19501.927    32438.198     8582.458    17485.124   -14761.029    8196.3555   -14410.181    80.605685 
   20300    1041.2591   -104.17275   0.94215311    -103.2306   -9660.6267    4.3330361    4.3330361    4.3330361   -9660.6267   -30871.216   -29861.652    31750.988    16998.853    6368.3698   -11957.116    81.353626 
   20400    1311.4592   -104.41797    1.1866358   -103.23134   -6489.7473    4.3296704    4.3296704    4.3296704   -6489.7473   -24237.149    -24905.35    29673.257   -28791.037    1544.8632     1202.269      81.1642 
   20500    1444.0853   -104.53014    1.3066387    -103.2235    879.33084    4.3291415    4.3291415    4.3291415    879.33084   -9556.8242   -17976.182    30170.999    16200.151    2518.0064   -3462.4982    81.134456 
   20600    878.38013   -104.02291    0.7947768   -103.22813   -24090.322    4.3261728    4.3261728    4.3261728   -24090.322   -55442.281   -39263.483    22434.799   -16034.744   -10313.398    3016.2194    80.967658 
   20700    1280.6959   -104.38856    1.1588005   -103.22975    7338.4066    4.3249848    4.3249848    4.3249848    7338.4066     13744.91    7263.5442    1006.7657    4255.3946   -1622.6567    -13503.61    80.900976 
   20800    1468.4739    -104.5607    1.3287061   -103.23199   -4485.8378     4.334647     4.334647     4.334647   -4485.8378   -16120.154   -31748.768    34411.409   -7978.3443    1042.8509   -4130.5054    81.444394 
   20900    836.10603   -103.98281   0.75652631   -103.22628    18423.683    4.3286549    4.3286549    4.3286549    18423.683   -2351.6352   -16777.682    74400.366   -20928.637    2804.5099    3461.9431    81.107103 
   21000    978.91755   -104.10941   0.88574517   -103.22366    5853.4244    4.3256357    4.3256357    4.3256357    5853.4244   -15702.749   -8724.3094    41987.332    9437.5828   -10050.503    4256.3786    80.937506 
   21100    1691.5841   -104.75687    1.5305809   -103.22629   -18130.351     4.333411     4.333411     4.333411   -18130.351   -26281.595   -23468.194    -4641.265    -31113.19   -3198.7881    3676.5379    81.374744 
   21200    1336.4183   -104.43353    1.2092194   -103.22431    483.89743    4.3308927    4.3308927    4.3308927    483.89743    18555.473   -11144.216   -5959.5648    8700.8488    -2671.845   -3167.4251     81.23296 
   21300    728.16516    -103.8916   0.65885914   -103.23274   -3778.0028    4.3248595    4.3248595    4.3248595   -3778.0028   -50430.602   -33087.993    72184.586   -19391.816    9639.1179   -5960.0735    80.893946 
   21400    1375.9128   -104.46991    1.2449548   -103.22495    27226.135     4.326423     4.326423     4.326423    27226.135    34376.481    2982.2219    44319.701   -1406.9105    -2079.325   -5556.5118    80.981707 
   21500    1255.4637   -104.37146    1.1359699   -103.23549   -10638.428    4.3337018    4.3337018    4.3337018   -10638.428   -10887.125   -44164.387    23136.229   -13453.924   -9995.9035   -315.46213    81.391128 
   21600    1111.5393   -104.23082    1.0057441   -103.22508   -5835.5355    4.3319531    4.3319531    4.3319531   -5835.5355     868.2405   -22319.828    3944.9815   -8633.8136    823.31281    1349.3922    81.292643 
   21700    1184.6366   -104.29687    1.0718841   -103.22499   -4832.6416    4.3243327    4.3243327    4.3243327   -4832.6416   -6010.7352   -11581.045    3093.8555    640.43422    4858.5901   -1234.9621    80.864388 
   21800    1636.1123   -104.70507    1.4803888   -103.22468   -10470.226    4.3347655    4.3347655    4.3347655   -10470.226   -2926.1864   -29472.018    987.52742   -14319.885   -2552.9475    4463.1934    81.451077 
   21900    1025.3306   -104.15388   0.92774071   -103.22613    15495.316    4.3275997    4.3275997    4.3275997    15495.316    49707.791   -21614.784     18392.94    5721.4752    2621.5628   -5724.1448    81.047805 
   22000    837.65611   -103.99197   0.75792885   -103.23404   -4459.8053    4.3287939    4.3287939    4.3287939   -4459.8053   -41081.463   -11528.875    39230.922   -13320.915   -8303.1188    1199.8943    81.114915 
   22100    1555.4247    -104.6326     1.407381   -103.22521     12605.59    4.3239869    4.3239869    4.3239869     12605.59    5398.4286    10945.891    21472.451   -4519.8462     1959.099   -3986.7528    80.844988 
   22200    987.25781   -104.13043   0.89329161   -103.23714    2489.6642    4.3260381    4.3260381    4.3260381    2489.6642    16733.521   -13479.729    4215.2006    -7958.277     14264.85    -4724.607      80.9601 
   22300    1322.7592   -104.41971    1.1968603   -103.22285      9544.14    4.3283782    4.3283782    4.3283782      9544.14    27091.507    7889.3492   -6348.4362   -622.13579   -4292.2334    2395.7898    81.091551 
   22400    964.61119   -104.10487   0.87280048   -103.23207   -17975.768    4.3260232    4.3260232    4.3260232   -17975.768   -38844.304    2134.4155   -17217.414   -8189.2448    12739.615   -1999.0388     80.95926 
   22500    1713.8613   -104.77294    1.5507377    -103.2222    7705.7164     4.318613     4.318613     4.318613    7705.7164    17400.605    78.999108    5637.5449   -11563.493   -3883.4123    7543.4243    80.543937 
   22600    1179.9362   -104.29699    1.0676311   -103.22936   -18653.459    4.3274122    4.3274122    4.3274122   -18653.459    8405.7753   -33489.048   -30877.104    6869.9667    15086.241   -6259.3796    81.037267 
   22700    927.08911   -104.06823   0.83884971   -103.22938    856.14167    4.3252439    4.3252439    4.3252439    856.14167   -2721.6789   -4294.0458    9584.1497   -4897.2025    8685.4498    4216.7924    80.915514 
   22800    1327.5333   -104.42809      1.20118   -103.22691   -5303.1104    4.3212179    4.3212179    4.3212179   -5303.1104   -6446.4731    11277.284   -20740.142    10369.088   -62.316879   -15337.263    80.689776 
   22900    1101.7697   -104.23161   0.99690441   -103.23471    1569.3038    4.3179427    4.3179427    4.3179427    1569.3038    11895.358   -4544.0536   -2643.3933   -4506.9981    15444.819   -6440.0681    80.506438 
   23000    1285.9784   -104.39741    1.1635803   -103.23383    6603.6496    4.3278025    4.3278025    4.3278025    6603.6496    37497.299   -16186.504   -1499.8457   -11400.837   -11408.772   -10132.757    81.059199 
   23100    950.01555   -104.09622   0.85959404   -103.23663    -10086.54    4.3252062    4.3252062    4.3252062    -10086.54    15909.283   -9266.5177   -36902.384    5235.1823   -3549.7156   -9543.7276    80.913398 
   23200    1383.7924   -104.47832    1.2520844   -103.22624    3824.5318    4.3187049    4.3187049    4.3187049    3824.5318   -8376.5033     5481.551    14368.548    -4797.141    11073.431   -1273.8044    80.549083 
   23300    1182.7087   -104.30025    1.0701397   -103.23011   -27033.011    4.3260291    4.3260291    4.3260291   -27033.011    2111.4774    -48398.39    -34812.12    1002.5917   -13556.765   -20150.336    80.959593 
   23400    1433.4095   -104.52446    1.2969791   -103.22748    2156.1281    4.3185287    4.3185287    4.3185287    2156.1281   -625.70124   -534.52353     7628.609   -631.47567    3791.0158    5930.2283     80.53922 
   23500    1028.0454   -104.16278   0.93019711   -103.23258    3579.0322    4.3222719    4.3222719    4.3222719    3579.0322    30592.337    -9041.123   -10814.117   -1214.5371   -19297.357   -26444.807     80.74883 
   23600    871.87098     -104.022   0.78888718   -103.23311   -8058.3093    4.3189071    4.3189071    4.3189071   -8058.3093    30478.805    -43136.94   -11516.793   -5127.0507   -20064.798   -3472.0236    80.560396 
   23700    1479.2704   -104.56897    1.3384749    -103.2305   -143.21455    4.3228533    4.3228533    4.3228533   -143.21455    14778.035   -25833.318     10625.64    1826.2751    4487.0302   -9980.1268    80.781423 
   23800    1141.3445   -104.26838    1.0327125   -103.23567   -22228.322    4.3250019    4.3250019    4.3250019   -22228.322   -18852.479     4938.757   -52771.243    457.97149   -12495.437   -21777.361    80.901937 
   23900    1364.7213   -104.45821    1.2348285   -103.22338    1290.9129    4.3160463    4.3160463    4.3160463    1290.9129   -4720.4087   -10393.255    18986.402    12259.339    3849.3816     12477.86    80.400413 
   24000    901.09639   -104.04643   0.81533095    -103.2311   -16483.292    4.3256471    4.3256471    4.3256471   -16483.292    33687.932   -46755.241   -36382.566   -39.463905   -9207.3879    -30944.91    80.938145 
   24100    1347.5151   -104.45085      1.21926   -103.23159    3369.2406     4.320003     4.320003     4.320003    3369.2406    12682.377    7434.9012   -10009.556    3446.0737   -11197.116    6613.3171    80.621737 
   24200    1418.3124   -104.51231    1.2833188     -103.229    10840.382     4.321273     4.321273     4.321273    10840.382    14915.173    36528.961   -18922.988   -2402.5922    4600.6608   -25196.292    80.692859 
   24300    648.78768   -103.82811   0.58703673   -103.24107   -22953.217    4.3205756    4.3205756    4.3205756   -22953.217   -19800.646   -12793.449   -36265.556    1206.4773   -19255.413   -17572.825    80.653796 
   24400    1420.2472   -104.51994    1.2850695   -103.23487   -5317.9939    4.3185811    4.3185811    4.3185811   -5317.9939   -3784.7001   -27089.918    14920.636    5730.9472      7257.35     2636.513    80.542152 
   24500    1262.9577   -104.38788    1.1427507   -103.24513   -21080.158    4.3268479    4.3268479    4.3268479   -21080.158   -6283.0761    1566.9095   -58524.308   -1290.4427   -11249.437   -30146.152    81.005573 
   24600    1505.5193     -104.598    1.3622255   -103.23577      10019.8    4.3214236    4.3214236    4.3214236      10019.8   -17877.979     43222.45    4714.9276    -10483.27   -10895.376    5139.3365    80.701296 
   24700    812.51179   -103.96977   0.73517774   -103.23459    4597.7725    4.3187536    4.3187536    4.3187536    4597.7725    20320.621   -4066.6457   -2460.6577   -2518.7742   -771.81176    -17454.06    80.551806 
   24800    769.71316    -103.9339   0.69645264   -103.23745   -7111.8079    4.3224557    4.3224557    4.3224557   -7111.8079    18465.222   -28301.115    -11499.53   -7768.5058   -27140.247   -8824.7368    80.759133 
   24900    1834.7457   -104.88681    1.6601165    -103.2267    2270.6919    4.3245064    4.3245064    4.3245064    2270.6919    13039.345   -6260.6882    33.419119    4411.9175    376.39888    1607.4766    80.874131 
   25000    1013.0803   -104.15411   0.91665632   -103.23746   -15626.801    4.3205543    4.3205543    4.3205543   -15626.801    4435.4333   -8386.9932   -42928.843    4837.6703   -12755.051   -12383.703    80.652603 
   25100    1163.3733   -104.28315    1.0526446    -103.2305    7207.9399    4.3146863    4.3146863    4.3146863    7207.9399    -3905.934   -5828.0613    31357.815    4062.6442   -3006.3293    926.47288    80.324433 
   25200    941.03931   -104.09356   0.85147215   -103.24208   -7372.8314    4.3261951    4.3261951    4.3261951   -7372.8314    -5683.813    16091.124   -32525.806   -5880.0324    1654.5229   -12869.127    80.968914 
   25300    1617.9183   -104.70028    1.4639265   -103.23635   -2602.1989    4.3275304    4.3275304    4.3275304   -2602.1989   -15764.053    12322.985    -4365.529    133.20881   -14025.171   -1850.0286    81.043912 
   25400    1272.3942   -104.38125     1.151289   -103.22996    7129.9241    4.3181694    4.3181694    4.3181694    7129.9241    33674.411   -4204.5768   -8080.0619   -3181.1689    6096.4302   -7184.6847    80.519122 
   25500    502.30973   -103.69247    0.4545004   -103.23797   -11371.896    4.3212416    4.3212416    4.3212416   -11371.896    19214.663    -38017.25   -15313.102    6002.1705   -6208.7509    -15351.69      80.6911 
   25600    1570.7394   -104.65338     1.421238   -103.23214    9769.2703    4.3176919    4.3176919    4.3176919    9769.2703    11370.713    6185.3725    11751.725   -2332.5802   -1920.0412    1696.9526    80.492413 
   25700     1283.819   -104.40222    1.1616264   -103.24059   -22792.924      4.32937      4.32937      4.32937   -22792.924   -14755.589   -6611.2084   -47011.974    1563.6968    7679.7314   -14955.987    81.147305 
   25800    1341.4638   -104.44357    1.2137847   -103.22979   -7511.0906     4.317729     4.317729     4.317729   -7511.0906   -1842.9781   -35900.895    15210.601   -4816.6296   -8419.5797     133.3058     80.49449 
   25900    766.17735   -103.93166   0.69325337    -103.2384   -6481.0338    4.3182781    4.3182781    4.3182781   -6481.0338    9114.0878   -17836.144   -10721.045   -2208.3277    4048.5045    6741.4895    80.525199 
   26000    1310.8695    -104.4223    1.1861022   -103.23619   -4930.8293    4.3238237    4.3238237    4.3238237   -4930.8293   -3210.4744    13506.063   -25088.077    8766.9049    10819.405   -16587.935    80.835836 
   26100    1345.0262   -104.44974     1.217008   -103.23273     5442.739    4.3229793    4.3229793    4.3229793     5442.739    21216.434   -7850.7039    2962.4865   -8352.1739    -6711.594    17666.704    80.788488 
   26200    847.01899   -104.00283   0.76640058   -103.23643   -22593.198    4.3237381    4.3237381    4.3237381   -22593.198    19259.798   -53693.698   -33345.695    1079.5367     19878.14   -12449.425    80.831036 
   26300     1408.458   -104.50389    1.2744024   -103.22949   -5889.0987    4.3167202    4.3167202    4.3167202   -5889.0987   -10747.814   -16112.766    9193.2845   -7501.9089    289.48244    6322.7372    80.438079 
   26400    1229.0939   -104.34967      1.11211   -103.23756   -19825.971    4.3242101    4.3242101    4.3242101   -19825.971   -2372.8634   -21997.449   -35107.601   -9981.3231    973.27556    5266.7289    80.857507 
   26500    1097.4228   -104.22803   0.99297124   -103.23506    2149.8626    4.3197347    4.3197347    4.3197347    2149.8626    26433.349   -19894.211   -89.549662    10247.096     16486.48   -17595.863    80.606715 
   26600    1079.2236   -104.21249   0.97650422   -103.23598   -7533.4433    4.3213094    4.3213094    4.3213094   -7533.4433    21165.555   -37591.036     -6174.85    81.253947    2621.5681    13476.404      80.6949 
   26700     1297.635   -104.40687    1.1741275   -103.23274   -12011.534    4.3292264    4.3292264    4.3292264   -12011.534   -9652.0597    4116.6775    -30499.22    4369.8133    1015.5075   -15180.073     81.13923 
   26800    1245.3566   -104.35685    1.1268249   -103.23002    353.80233    4.3217703    4.3217703    4.3217703    353.80233    18658.168   -21157.853    3561.0919    7655.7391    3997.2584    9931.8407    80.720722 
   26900    950.20493    -104.0988   0.85976539   -103.23904    -6140.147    4.3260867    4.3260867    4.3260867    -6140.147    50025.976   -34008.799   -34437.619    176.25435   -1224.7686    9091.3343    80.962824 
   27000    1657.9682   -104.73309    1.5001644   -103.23293    3254.9145    4.3230392    4.3230392    4.3230392    3254.9145    22711.349   -8450.2112   -4496.3943    20782.619    13196.915    43.383317    80.791846 
   27100    1026.7045   -104.17086   0.92898379   -103.24188   -15671.907    4.3311577    4.3311577    4.3311577   -15671.907    133.66329   -14225.246   -32924.138   -8652.3334   -4075.6107    17906.358    81.247872 
   27200    1218.0934   -104.32821    1.1021565   -103.22606    6109.8582    4.3281164    4.3281164    4.3281164    6109.8582    39950.536   -16794.558   -4826.4034   -7747.1405   -770.04327   -4461.6859    81.076838 
   27300    1064.3629   -104.20045   0.96305791    -103.2374   -19482.847    4.3304656    4.3304656    4.3304656   -19482.847    9491.2022   -61611.054     -6328.69    5193.1994   -7920.4463    9195.3028    81.208927 
   27400    1643.1841   -104.71866    1.4867875   -103.23188    8076.5326    4.3239535    4.3239535    4.3239535    8076.5326    36743.524    1074.6422   -13588.569   -11381.397   -7581.6673    6094.9875    80.843114 
   27500    896.38371   -104.04991   0.81106682   -103.23884   -5936.1171    4.3290705    4.3290705    4.3290705   -5936.1171    9492.3807   -46708.435    19407.703    16995.783    7919.3787   -451.34983    81.130469 
   27600    1004.5459   -104.14087   0.90893421   -103.23193    -7379.562    4.3308358    4.3308358    4.3308358    -7379.562    29269.272   -48606.409   -2801.5495   -9615.7559   -1517.0833    14409.784    81.229755 
   27700    1520.7778   -104.60151    1.3760318   -103.22548    21241.729    4.3215008    4.3215008    4.3215008    21241.729    32590.127    17428.363    13706.695    11103.577   -13524.706    2196.0322    80.705622 
   27800    1086.5286   -104.21802   0.98311396   -103.23491   -13932.845    4.3305804    4.3305804    4.3305804   -13932.845     6615.072   -36039.754   -12373.854    15425.932    2727.9881    7565.6404    81.215389 
   27900    1185.6317   -104.30265    1.0727845   -103.22986   -2555.2912    4.3282594    4.3282594    4.3282594   -2555.2912   -13305.361    11398.729    -5759.241    2833.8815   -12523.063    -3622.968    81.084875 
   28000    969.94217   -104.11859   0.87762406   -103.24096   -5970.2379    4.3254219    4.3254219    4.3254219   -5970.2379    8879.9456   -27969.666    1179.0073    5671.4188    -766.4192    2403.5627    80.925508 
   28100    1939.7827   -104.98083    1.7551561   -103.22567    11233.307    4.3212672    4.3212672    4.3212672    11233.307    18353.655    15559.308    -213.0406   -14091.529    94.207201   -5174.1332    80.692533 
   28200    604.99623   -103.78473   0.54741331   -103.23732   -7230.4641    4.3277248    4.3277248    4.3277248   -7230.4641   -5542.2046    -24317.91    8168.7223    5889.6625   -11862.115   -5007.8314     81.05483 
   28300    1254.3568   -104.36082    1.1349684   -103.22586   -13810.638    4.3316401    4.3316401    4.3316401   -13810.638   -5017.2133   -48520.609    12105.908    1888.6817    1330.6412   -1944.9471    81.275024 
   28400    1448.6771   -104.53785    1.3107935   -103.22706    632.59669    4.3210816    4.3210816    4.3210816    632.59669    -8206.536    15320.074   -5215.7482   -2371.2506    -7043.519    659.50751    80.682138 
   28500    1237.2464    -104.3526    1.1194866   -103.23311   -1008.5753    4.3162355    4.3162355    4.3162355   -1008.5753    964.16992   -785.28822   -3204.6076    11683.059   -9113.7265   -8373.1637    80.410987 
   28600    994.00628   -104.13387   0.89939777   -103.23447    1530.6388     4.327506     4.327506     4.327506    1530.6388    651.88949   -8256.5077    12196.535   -1961.5096    2128.0621   -599.78118    81.042537 
   28700    983.08965   -104.13082   0.88952018    -103.2413   -27040.452    4.3344827    4.3344827    4.3344827   -27040.452   -42550.848   -3315.9268   -35254.582    14957.996   -15448.229   -9943.3556    81.435137 
   28800    1855.1363   -104.90511    1.6785663   -103.22655    16092.197    4.3219367    4.3219367    4.3219367    16092.197    20681.149    6556.3048    21039.136    12654.395    8153.1922   -1760.3553    80.730049 
   28900    830.82154   -103.99104   0.75174479   -103.23929    4316.8754    4.3166843    4.3166843    4.3166843    4316.8754   -6695.0819    29049.002    -9403.294   -2963.3654   -5460.1885    11744.278    80.436073 
   29000    986.53036   -104.12659    0.8926334   -103.23395   -16247.211    4.3346532    4.3346532    4.3346532   -16247.211   -12005.969   -36752.896    17.231448    15505.136   -1720.4399   -1937.3991    81.444748 
   29100    1344.1632   -104.44905    1.2162271   -103.23282    -16727.31    4.3308752    4.3308752    4.3308752    -16727.31    -27090.01    5318.0253   -28409.945   -14093.894    7209.0363    7531.6276    81.231972 
   29200    1436.2063     -104.532    1.2995097   -103.23249    521.90229    4.3162874    4.3162874    4.3162874    521.90229   -8481.0499    19410.402   -9363.6453    14417.415   -15496.845    443.69821    80.413889 
   29300    1142.0131   -104.26684    1.0333175   -103.23352   -7942.4044    4.3232982    4.3232982    4.3232982   -7942.4044   -11452.553    -20334.99    7960.3296   -12684.329    14363.691    295.49167    80.806364 
   29400    785.99396   -103.95331   0.71118385   -103.24213   -3645.8486    4.3341404    4.3341404    4.3341404   -3645.8486   -8115.7966    31396.146   -34217.895   -701.80925   -9595.5569    10627.831    81.415843 
   29500    1641.6922   -104.70836    1.4854376   -103.22292     7554.517    4.3391852    4.3391852    4.3391852     7554.517    20565.725    5563.3969    -3465.571   -13338.881    2382.6875   -5489.8322    81.700469 
   29600    882.53057   -104.02798   0.79853221   -103.22945   -6140.0625    4.3179189    4.3179189    4.3179189   -6140.0625   -33392.777    40755.317   -25782.728   -4643.2573    12251.832    2684.7295     80.50511 
   29700    1152.3173   -104.27045    1.0426409   -103.22781    16991.723    4.3132227    4.3132227    4.3132227    16991.723    18108.679    12118.273    20748.217   -3197.0377   -14422.532   -4400.7218    80.242723 
   29800    1326.8491   -104.44191     1.200561   -103.24135   -24879.069    4.3371259    4.3371259    4.3371259   -24879.069   -26093.752   -14443.436   -34100.018    1917.2252    23756.741    5570.5907    81.584204 
   29900    1185.4975   -104.30914    1.0726631   -103.23648    -7981.749    4.3360492    4.3360492    4.3360492    -7981.749    -11591.01    8446.8611   -20801.098    2592.8693    -12861.66    3377.7259    81.523462 
   30000    1305.2012   -104.40556    1.1809734   -103.22458   -4417.8158    4.3248338    4.3248338    4.3248338   -4417.8158   -10518.067    11753.032   -14488.412    4510.9248    13700.907    143.25326    80.892505 
   30100     707.5456   -103.88199   0.64020212   -103.24179    3953.0595    4.3226246    4.3226246    4.3226246    3953.0595   -21765.896    56452.154   -22827.079    573.50026   -1171.9434    6860.5622    80.768601 
   30200    1729.5178   -104.80339     1.564904   -103.23849    -8323.263    4.3392843    4.3392843    4.3392843    -8323.263    1229.0786   -3490.8226   -22708.045    14741.133   -10964.769   -7354.1579    81.706068 
   30300    1087.1037   -104.22195   0.98363423   -103.23832   -21516.398    4.3427493    4.3427493    4.3427493   -21516.398    -43913.06    20996.342   -41632.477   -11931.475    9336.0487    3556.5924    81.901956 
   30400    783.13213   -103.94295   0.70859441   -103.23435    11131.056    4.3293796    4.3293796    4.3293796    11131.056    48713.727    -13726.96   -1593.5996   -6724.1563   -14596.105   -3182.8962    81.147846 
   30500    1496.5632   -104.58645    1.3541218   -103.23233    8769.0258    4.3247018    4.3247018    4.3247018    8769.0258    23594.175    31589.388   -28876.486   -13062.631     12147.02     4170.261    80.885096 
   30600    1172.2543   -104.30015    1.0606803   -103.23947    -2412.421    4.3374926    4.3374926    4.3374926    -2412.421    11456.252    559.77958   -19253.295    11840.266    -7968.676     2030.032    81.604902 
   30700    1238.9081   -104.34662    1.1209901   -103.22563   -14033.884     4.337101     4.337101     4.337101   -14033.884   -33336.945     3369.661   -12134.368   -8477.0631    7432.5958    -3449.196    81.582802 
   30800    988.61809   -104.11858   0.89452242   -103.22405    9604.9363    4.3232333    4.3232333    4.3232333    9604.9363    8952.1233    47661.775   -27799.089    11121.117    2922.2842    8483.9832    80.802729 
   30900    1546.8294   -104.62953    1.3996038   -103.22993    3075.2353    4.3310252    4.3310252    4.3310252    3075.2353    3176.9029     15922.02   -9873.2169    4002.5545   -15232.813    403.92132    81.240416 
   31000    1132.7964   -104.26322     1.024978   -103.23825   -13508.894    4.3379021    4.3379021    4.3379021   -13508.894   -13780.169    23262.979   -50009.492    10343.456     12882.95    124.60546    81.628013 
   31100    923.57865    -104.0701   0.83567337   -103.23443    8342.6187    4.3368616    4.3368616    4.3368616    8342.6187    8151.9199    35677.036     -18801.1    7093.6963   -13027.372     9270.956    81.569291 
   31200    1400.9488    -104.5002    1.2676079   -103.23259     8091.409    4.3272921    4.3272921    4.3272921     8091.409    7077.9182    42027.477   -24831.168     8331.691      9137.38   -11792.578    81.030523 
   31300    1341.5108   -104.45822    1.2138272   -103.24439   -5576.4808    4.3299191    4.3299191    4.3299191   -5576.4808    5839.9158    8109.5391   -30678.897    7188.1202   -663.24466   -4236.1466    81.178187 
   31400    1132.9014   -104.26408     1.025073     -103.239    17099.301    4.3420773    4.3420773    4.3420773    17099.301   -14492.698    77943.521   -12152.921   -4305.3186   -10809.595   -4766.5962    81.863943 
   31500     1106.182   -104.23612    1.0008968   -103.23522    -29245.13    4.3395166    4.3395166    4.3395166    -29245.13    5661.6941   -42110.241   -51286.843    8494.2858    10064.486   -14277.574    81.719193 
   31600    1481.9322   -104.56549    1.3408834   -103.22461     1914.532    4.3325411    4.3325411    4.3325411     1914.532    4948.9473   -2706.9138    3501.5625    -13785.32   -14797.747    4365.6407    81.325749 
   31700    776.83225   -103.94067   0.70289414   -103.23778    5259.5212    4.3344543    4.3344543    4.3344543    5259.5212    15140.044     51694.78    -51056.26    -11175.03    10048.719   -3859.6515    81.433535 
   31800    1406.7962   -104.51878    1.2728988   -103.24588   -3790.0584    4.3413777    4.3413777    4.3413777   -3790.0584   -19758.301    41293.732   -32905.606   -5144.5347   -8763.8028     1908.486    81.824377 
   31900    1314.5665   -104.43593    1.1894474   -103.24648   -10902.915    4.3381644    4.3381644    4.3381644   -10902.915    13713.321   -20209.372   -26212.694    7106.6978    7119.5932   -9062.4597    81.642822 
   32000    1122.6392   -104.27403    1.0157875   -103.25825    -21390.58    4.3371779    4.3371779    4.3371779    -21390.58   -21648.844    10604.319   -53127.216    4700.9682    2849.7014    -10804.09    81.587142 
   32100    1524.6067   -104.62951    1.3794962   -103.25001    16942.146    4.3331347    4.3331347    4.3331347    16942.146    17481.812    43960.489   -10615.863   -172.32628   -1275.7591    6917.7233    81.359178 
   32200    760.14591   -103.94149     0.687796   -103.25369    14789.961    4.3312422    4.3312422    4.3312422    14789.961    18879.796    56473.764   -30983.677   -8027.2165    9456.1249   -14893.195    81.252629 
   32300    1403.1512   -104.49931    1.2696007   -103.22971    703.67573    4.3398762    4.3398762    4.3398762    703.67573      35084.9   -14886.528   -18087.345   -4202.6191   -2080.8037    9024.1319    81.739509 
   32400    1067.3158    -104.2047   0.96572977   -103.23897    -17381.77    4.3349354    4.3349354    4.3349354    -17381.77   -27558.921    5616.4432   -30202.832   -4265.5579     13483.49   -7515.9755    81.460655 
   32500    1430.3686   -104.53314    1.2942276   -103.23891    6049.1063    4.3315938    4.3315938    4.3315938    6049.1063    10890.925    19322.989   -12066.594    7872.8611     7710.588   -3427.3681    81.272417 
   32600     1309.362   -104.42377    1.1847382   -103.23904   -26071.939    4.3370295    4.3370295    4.3370295   -26071.939   -22130.667   -41103.991   -14981.159    1196.6355      7385.24   -8328.0869    81.578763 
   32700    574.50184   -103.76216   0.51982134   -103.24234     471.2555    4.3400696    4.3400696    4.3400696     471.2555   -4991.5488    25334.315   -18928.999     2474.533    10600.653   -9350.4706    81.750436 
   32800    1836.8418   -104.89312     1.662013   -103.23111    4340.2647    4.3333705    4.3333705    4.3333705    4340.2647   -3997.9846    32498.343   -15479.565     6840.613    4546.0158   -4222.7459    81.372464 
   32900    901.45884   -104.06269    0.8156589   -103.24703   -2407.0448    4.3277125    4.3277125    4.3277125   -2407.0448    2298.1575    -3748.949    -5770.343    354.07584    12544.462   -13121.715    81.054141 
   33000    1254.1413   -104.37693    1.1347734   -103.24216   -5280.7867    4.3435232    4.3435232    4.3435232   -5280.7867    22948.801   -19922.408   -18868.753   -8617.3868    4937.0619   -1081.8703    81.945751 
   33100     1067.001   -104.20246   0.96544496   -103.23702   -1386.8611    4.3432602    4.3432602    4.3432602   -1386.8611    10944.834    13926.651   -29032.068   -5652.6531    2193.1411     -722.844    81.930868 
   33200    1355.1888   -104.44928    1.2262033   -103.22308    23059.513    4.3331714    4.3331714    4.3331714    23059.513    47974.952    7281.9386    13921.647   -9301.2225    4497.7406   -13359.721     81.36125 
   33300    1310.4496    -104.4088    1.1857224   -103.22308    4984.3018    4.3316332    4.3316332    4.3316332    4984.3018    348.01602    41737.202   -27132.312    2028.4006   -4563.8701    2005.1412    81.274634 
   33400    829.93743   -103.98728   0.75094483   -103.23634    16547.972    4.3301832    4.3301832    4.3301832    16547.972    68269.767   -20409.231    1783.3797    -6970.705    788.00451   -11976.635    81.193041 
   33500    1514.9581    -104.6012    1.3707659   -103.23043    -3095.066    4.3491544    4.3491544    4.3491544    -3095.066   -15490.811    28196.273    -21990.66     9633.417   -7742.7377   -3693.8401    82.264883 
   33600    1166.8317   -104.29232    1.0557739   -103.23655   -15501.376     4.328775     4.328775     4.328775   -15501.376    16538.106    -12013.08   -51029.154    8596.3237    6486.7393   -4527.4692    81.113853 
   33700    1215.6782   -104.33328    1.0999712   -103.23331    14021.189    4.3223842    4.3223842    4.3223842    14021.189    39263.342    -15845.76    18645.986   -2448.0046   -4124.4423   -3963.4782    80.755124 
   33800    1045.0019   -104.18807    0.9455397   -103.24253   -9812.6588    4.3396938    4.3396938    4.3396938   -9812.6588   -9177.2892    18668.419   -38929.106    5335.4661     4237.257    12933.287    81.729203 
   33900    1387.7994   -104.49358    1.2557101   -103.23787    11496.424    4.3406427    4.3406427    4.3406427    11496.424    42975.621     11469.36   -19955.709    2479.1619    1559.7502   -14560.122    81.782829 
   34000     1172.557   -104.29656    1.0609543    -103.2356   -4996.0486     4.334128     4.334128     4.334128   -4996.0486    -1723.248    5720.0956   -18984.993   -2865.2917    1855.1452    22551.217    81.415144 
   34100    877.48587   -104.03168   0.79396766   -103.23772   -1806.3174    4.3243059    4.3243059    4.3243059   -1806.3174    36637.036   -19680.472   -22375.516    -3330.434    1023.0713   -9780.4422    80.862886 
   34200    1630.0876   -104.71033    1.4749375   -103.23539   -11488.733    4.3427628    4.3427628    4.3427628   -11488.733    2960.8044   -22024.153   -15402.851    2951.9304   -1829.9171    6279.9839     81.90272 
   34300    866.57396   -104.02114   0.78409433   -103.23705   -24297.117    4.3460082    4.3460082    4.3460082   -24297.117   -13703.753    13998.818   -73186.417   -5471.6893   -3111.8104    13275.567    82.086479 
   34400    1239.9739   -104.34316    1.1219545   -103.22121    24008.959     4.325017     4.325017     4.325017    24008.959    48975.459    17882.642    5168.7764    1725.2782    10245.312   -19042.039    80.902781 
   34500    1196.5248   -104.31468    1.0826408   -103.23204   -19457.578    4.3371291    4.3371291    4.3371291   -19457.578   -4401.5561   -4165.5331   -49805.644    288.74536   -14517.775    28913.309    81.584386 
   34600    1136.6413   -104.26031    1.0284569   -103.23185   -4429.9154    4.3460194    4.3460194    4.3460194   -4429.9154    19753.634     2438.543   -35481.923   -507.24733      11234.6   -19947.134    82.087114 
   34700    1489.5922   -104.56839    1.3478143   -103.22058   -7685.1032    4.3353226    4.3353226    4.3353226   -7685.1032   -6637.6095    -21762.08    5344.3797    2368.9363   -13301.342    15605.095    81.482483 
   34800    592.53488   -103.77007   0.53613801   -103.23394   -18947.277    4.3368263    4.3368263    4.3368263   -18947.277    9780.3923   -48023.107   -18599.117   -1596.3391    1259.2583   -2405.2174    81.567302 
   34900    1677.6713   -104.74037    1.5179922   -103.22238    9216.5147    4.3317354    4.3317354    4.3317354    9216.5147   -8700.7188    20235.599    16114.664    5003.2613    -6668.126   -10635.753    81.280385 
   35000     1021.427    -104.1639   0.92420864   -103.23969   -29605.154    4.3458827    4.3458827    4.3458827   -29605.154   -10358.041   -5207.2959   -73250.126   -2963.6306    683.39011    24316.243    82.079366 
   35100    1216.8214    -104.3297    1.1010056   -103.22869    12913.497    4.3326368    4.3326368    4.3326368    12913.497   -9480.6965    57053.164   -8831.9753    9084.2842   -7224.1817   -21971.072    81.331141 
   35200    1108.9144   -104.23848    1.0033691   -103.23511   -4614.2707    4.3313347    4.3313347    4.3313347   -4614.2707    9430.0283   -15875.928   -7396.9126    -5891.741   -3058.2379    15123.547    81.257832 
   35300    1254.4889   -104.37852     1.135088   -103.24343   -21780.875    4.3487313    4.3487313    4.3487313   -21780.875   -22634.969   -5029.4899   -37678.166   -535.55482   -447.38062   -10245.091    82.240873 
   35400    1143.7499   -104.27088     1.034889   -103.23599    16164.054    4.3413707    4.3413707    4.3413707    16164.054   -11478.967    56637.104    3334.0259   -5659.5218   -9216.7215   -10112.339    81.823984 
   35500    674.16604   -103.86242    0.6099996   -103.25242    14238.518    4.3341988    4.3341988    4.3341988    14238.518    12908.353    55643.785   -25836.584    4919.1591    4593.0368    27000.459    81.419137 
   35600    1635.8877   -104.72841    1.4801855   -103.24823   -17980.315    4.3436423    4.3436423    4.3436423   -17980.315   -5473.1568   -38892.285   -9575.5029    8071.6868   -3912.4691    -18287.34    81.952493 
   35700    1057.6373   -104.21097   0.95697248     -103.254    -12616.01    4.3499621    4.3499621    4.3499621    -12616.01   -18544.654    12093.621   -31396.997    2313.7835    5714.2483    14535.968    82.310722 
   35800    1184.6081   -104.31225    1.0718583   -103.24039   -235.50072    4.3475321    4.3475321    4.3475321   -235.50072   -6138.2278    6797.3727   -1365.6471    3404.4604    -8412.002    1800.9779    82.172855 
   35900    999.87494    -104.1408   0.90470785    -103.2361    8351.5897    4.3352225    4.3352225    4.3352225    8351.5897   -10413.342    47966.193   -12498.082    6356.3034    7076.3382    3689.5736    81.476841 
   36000    1170.8299   -104.30079    1.0593915    -103.2414   -1937.6115    4.3388723    4.3388723    4.3388723   -1937.6115   -7540.1883    9112.9109    -7385.557   -12057.325    3168.0255    892.71353    81.682799 
   36100    1443.8101   -104.54309    1.3063897    -103.2367    2556.9069    4.3503861    4.3503861    4.3503861    2556.9069   -2813.6235    22451.555    -11967.21   -801.74809   -5763.5292    6951.6624    82.334795 
   36200    1102.9431   -104.22646    0.9979661    -103.2285   -15323.462    4.3480153    4.3480153    4.3480153   -15323.462   -8091.1071   -4218.6835   -33660.594   -5076.5735   -3233.2275   -3150.9143    82.200262 
   36300    1051.3401   -104.17468   0.95127457   -103.22341    6880.3818    4.3439061    4.3439061    4.3439061    6880.3818    6290.5448   -599.46588    14950.067    3535.7207    -4516.924    1602.0662    81.967422 
   36400    1584.5986   -104.66062    1.4337781   -103.22684    -7064.384     4.340515     4.340515     4.340515    -7064.384   -37584.348      32025.5   -15634.304    1008.8627    6929.3886    11234.613    81.775608 
   36500    1113.9495   -104.24492    1.0079249   -103.23699    5722.6497    4.3498856    4.3498856    4.3498856    5722.6497   -4723.2264    34156.685   -12265.509    6528.8238   -1256.6516    4499.8913    82.306384 
   36600    1364.7614   -104.45732    1.2348648   -103.22246    -15839.03    4.3491743    4.3491743    4.3491743    -15839.03   -28173.496    5927.5935   -25271.187   -8452.7671    -2234.132   -12688.846    82.266008 
   36700    984.86545   -104.11501   0.89112696   -103.22389    15140.499    4.3348046    4.3348046    4.3348046    15140.499    2586.1643    67493.767   -24658.435    8084.6897    9360.9122    20981.865    81.453282 
   36800     1592.229   -104.67714    1.4406822   -103.23646   -9499.9473    4.3408232    4.3408232    4.3408232   -9499.9473   -27194.581    24422.865   -25728.125   -4113.9808    846.30792    5735.0511    81.793028 
   36900    1029.5418   -104.18498   0.93155108   -103.25343    476.05435    4.3492735    4.3492735    4.3492735    476.05435    12636.976    30966.676   -42175.489   -1226.7241    10217.454    5949.7683    82.271641 
   37000    1189.8449   -104.32213    1.0765966   -103.24553   -16044.541     4.348037     4.348037     4.348037   -16044.541   -899.88475   -15781.053   -31452.684    2626.1144    2451.9152     8546.447    82.201489 
   37100     1278.598     -104.385    1.1569024    -103.2281    24572.541    4.3297522    4.3297522    4.3297522    24572.541    39812.704    30894.507    3010.4126   -2128.5344    2946.8744    5513.0765    81.168798 
   37200    1194.2994   -104.31598    1.0806272   -103.23535    -16964.44    4.3440804    4.3440804    4.3440804    -16964.44   -14725.381   -4902.7302   -31265.209    5223.6335     6124.688     22665.93    81.977292 
   37300    1143.4805   -104.26232    1.0346452   -103.22767    4347.3349    4.3437717    4.3437717    4.3437717    4347.3349    20283.251   -17767.898    10526.651   -15956.097   -2713.9135   -1227.2006    81.959818 
   37400    1115.7351   -104.24299    1.0095406   -103.23345   -3000.6596    4.3319921    4.3319921    4.3319921   -3000.6596   -5058.4548    25156.548   -29100.072    3434.4032    9198.5051    15446.102    81.294839 
   37500    1191.7209   -104.32063    1.0782941   -103.24233     10273.53    4.3437129    4.3437129    4.3437129     10273.53    5334.8009    11722.275    13763.516    636.44605   -75.921281    7621.0042    81.956487 
   37600    1416.3416   -104.51521    1.2815357   -103.23368   -28601.705    4.3560189    4.3560189    4.3560189   -28601.705   -26388.022   -10512.898   -48904.194    3833.7327   -6612.9358    3615.1875    82.655029 
   37700    739.27669   -103.90005   0.66891309   -103.23114   -625.61312    4.3467231    4.3467231    4.3467231   -625.61312     36960.96   -36648.867    -2188.932    1261.5454    4289.1961    17662.696    82.126995 
   37800    1642.3906   -104.70782    1.4860695   -103.22175    21813.795    4.3237094    4.3237094    4.3237094    21813.795     31045.55    37382.443   -2986.6069     20007.42   -7202.7069   -6077.0512    80.829425 
   37900    738.40657   -103.92691   0.66812578   -103.25878    12045.716    4.3406432    4.3406432    4.3406432    12045.716    25450.039    33493.871   -22806.762   -7642.1903    9217.1761    13709.824    81.782857 
   38000    1602.4678   -104.68606    1.4499465   -103.23611   -26322.189    4.3656565    4.3656565    4.3656565   -26322.189   -15324.359   -18986.603   -44655.604    7426.3195   -8231.2055   -2257.8569     83.20486 
   38100    1096.2752   -104.22479   0.99193288   -103.23285    790.82697    4.3440668    4.3440668    4.3440668    790.82697    13863.813    -118.1599   -11373.172   -9873.4052    8059.7385    5514.0476    81.976522 
   38200    906.05602   -104.04677   0.81981853   -103.22695     29017.29    4.3184727    4.3184727    4.3184727     29017.29    20665.522    69755.306   -3368.9582    1537.4957   -2599.3307    18299.298    80.536087 
   38300    1528.6825   -104.63224    1.3831841   -103.24906   -1254.2617    4.3427834    4.3427834    4.3427834   -1254.2617   -17654.952    7352.5564    6539.6107   -5413.7285    10099.304   -10394.124    81.903888 
   38400    1239.5313   -104.36287     1.121554   -103.24132   -26389.344     4.367043     4.367043     4.367043   -26389.344    3654.4918   -22541.724   -60280.799   -1265.1951    7698.2203    18118.132    83.284157 
   38500    898.65274   -104.04761   0.81311988   -103.23449    8211.7671    4.3478167    4.3478167    4.3478167    8211.7671    2839.7459    9064.5597    12730.996      8291.45    666.09232   -12193.755    82.188998 
   38600    1321.8922   -104.42392    1.1960759   -103.22784    7266.4484    4.3206319    4.3206319    4.3206319    7266.4484    31800.617    18523.884   -28525.156   -424.96599    11982.904    12889.779     80.65695 
   38700    1275.3289   -104.42041    1.1539444   -103.26647    8618.5243    4.3471177    4.3471177    4.3471177    8618.5243    28194.187   -3280.6186    942.00409   -16169.386    6674.5086    4091.6017    82.149362 
   38800     1323.591   -104.45719     1.197613   -103.25957   -48408.817    4.3741474    4.3741474    4.3741474   -48408.817   -49677.489   -31898.725   -63650.237    12392.308   -2343.1849   -10052.589    83.691289 
   38900    821.61537   -103.97994   0.74341485   -103.23652    13709.811     4.351672     4.351672     4.351672    13709.811     5376.727    52669.688   -16916.981    5017.7368    5899.7031    4721.3155    82.407824 
   39000    1386.7311   -104.47893    1.2547434   -103.22418    801.46121    4.3238493    4.3238493    4.3238493    801.46121    14305.584    7684.7365   -19585.937     10397.53   -6102.7282   -12354.615    80.837274 
   39100    1308.9671   -104.44025     1.184381   -103.25587   -17328.875    4.3474908    4.3474908    4.3474908   -17328.875   -25416.788   -13827.211   -12742.627   -7302.8387    7754.3289    9126.1341    82.170518 
   39200    1005.0467   -104.15504   0.90938734   -103.24565   -9106.1697    4.3687446    4.3687446    4.3687446   -9106.1697    25983.069   -11398.949   -41902.629    -671.2427   -10510.293    206.36938    83.381553 
   39300    1135.2476   -104.26686    1.0271959   -103.23967   -8295.4293    4.3495998    4.3495998    4.3495998   -8295.4293   -34104.511   -1907.0855    11125.309   -3653.8778    4596.9076    5951.8239    82.290161 
   39400    1776.3476   -104.83412    1.6072767   -103.22684    20798.934     4.324245     4.324245     4.324245    20798.934    34704.896    14478.005      13213.9    2437.5002   -5346.4049    4213.5183    80.859467 
   39500    530.93548   -103.74754   0.48040158   -103.26714    23707.011    4.3402565    4.3402565    4.3402565    23707.011    44754.565    24351.878    2014.5889   -2320.5835   -5752.4339   -9635.1389    81.760996 
   39600    1638.4393   -104.73216    1.4824943   -103.24966   -29073.523    4.3603587    4.3603587    4.3603587   -29073.523    -8617.195   -40690.647   -37912.728   -4145.7087    10977.403    1900.3871    82.902316 
   39700     1100.069    -104.2442   0.99536551   -103.24883   -1360.7589    4.3417582    4.3417582    4.3417582   -1360.7589    5848.2009   -1105.2782   -8825.1992    4465.8042   -7101.3764   -5214.2333    81.845892 
   39800    1398.6156   -104.50836    1.2654968   -103.24286     16890.86    4.3329601    4.3329601    4.3329601     16890.86    30668.217   -6445.1987    26449.561   -8731.1222   -6118.9788   -5032.5693    81.349347 
   39900    971.25183    -104.1289   0.87880906   -103.25009   -12543.231    4.3529988    4.3529988    4.3529988   -12543.231    13842.683   -12070.132   -39402.243    4030.8766   -12351.051   -1813.8816    82.483227 
   40000    1292.9202   -104.40612    1.1698613   -103.23626   -17807.996    4.3586116    4.3586116    4.3586116   -17807.996   -40437.488   -40200.783    27214.284   -3896.7197   -11097.338   -10393.044    82.802702 
   40100    1308.7814   -104.40903    1.1842129   -103.22482    21838.542    4.3487616    4.3487616    4.3487616    21838.542    63357.719    13571.894   -11413.987    83.198391   -4514.9623   -6202.5564    82.242594 
   40200    969.58677    -104.1146   0.87730248    -103.2373    7522.6008     4.337459     4.337459     4.337459    7522.6008    9060.1711   -25446.729     38954.36    342.84627   -14534.884   -9553.1621    81.603006 
   40300    1322.3184   -104.43943    1.1964614   -103.24297    18896.344    4.3513083    4.3513083    4.3513083    18896.344    13728.713    25321.441    17638.879    4069.4494    14316.972   -1914.1394    82.387166 
   40400    952.32491   -104.09814   0.86168359   -103.23646   -26447.224    4.3668177    4.3668177    4.3668177   -26447.224   -19214.521   -49295.579   -10831.572   -4691.2595    -21781.47    5443.3268    83.271272 
   40500    1465.0668   -104.54128    1.3256232   -103.21565    5981.8998    4.3467434    4.3467434    4.3467434    5981.8998   -2451.1476    22475.785   -2078.9381    855.91043    14517.448   -19098.029    82.128147 
   40600    1373.5154   -104.46662    1.2427856   -103.22384   -14385.827    4.3466123    4.3466123    4.3466123   -14385.827   -11325.493   -13070.884   -18761.103    9363.3545   -7758.6483    18353.816    82.120713 
   40700    880.02844   -104.03218   0.79626823   -103.23591    12419.627    4.3466688    4.3466688    4.3466688    12419.627      65003.7   -22755.037   -4989.7829   -898.84312   -7736.4555   -8760.1198    82.123914 
   40800    1275.2675   -104.39339    1.1538889    -103.2395    6470.9004    4.3594906    4.3594906    4.3594906    6470.9004   -2359.3031    28968.156   -7196.1513    5297.0675    4931.1583   -8504.1843    82.852807 
   40900    1508.4634   -104.60054    1.3648894   -103.23565    -34862.21    4.3505559    4.3505559    4.3505559    -34862.21   -23819.123    -53816.56   -26950.948    9291.4197   -15645.185    3370.3896    82.344436 
   41000    646.35482   -103.81791   0.58483543   -103.23308    49166.052    4.3319634    4.3319634    4.3319634    49166.052    26997.945    60494.303    60005.909    1353.9753    12610.506   -9816.5529     81.29322 
   41100    1404.1125   -104.52289    1.2704705   -103.25242   -16269.749    4.3556403    4.3556403    4.3556403   -16269.749     -10191.1   -20828.641   -17789.505   -184.69092   -357.69851    6974.0632    82.633474 
   41200    1189.0491   -104.31066    1.0758766   -103.23478    2362.7752    4.3714145    4.3714145    4.3714145    2362.7752   -20868.672    11686.827     16270.17    -1544.021    5929.0824   -12686.316    83.534518 
   41300    1012.2589   -104.13229    0.9159131   -103.21637   -10323.849     4.362721     4.362721     4.362721   -10323.849    45860.148   -46331.215   -30500.481    4749.8581    15266.444    7065.7177     83.03713 
   41400    1357.7712   -104.43763    1.2285399   -103.20909    9560.9416    4.3358313    4.3358313    4.3358313    9560.9416    -4875.848   -1038.2375     34596.91    212.56448   -7375.4479    5565.9581    81.511173 
   41500    1700.9572   -104.77681    1.5390618   -103.23775   -13223.718    4.3434348    4.3434348    4.3434348   -13223.718   -12659.363   -21418.076   -5593.7136   -2432.1768    5552.1973    1318.6466    81.940748 
   41600     923.2498   -104.09005   0.83537582   -103.25467    9357.7094    4.3631288    4.3631288    4.3631288    9357.7094    7050.8999   -33490.695    54512.923    7766.5042   -15203.275    6921.3272    83.060417 
   41700    1198.6299   -104.32507    1.0845455   -103.24053   -19672.657    4.3650353    4.3650353    4.3650353   -19672.657    -3517.387   -56512.568    1011.9824    2705.7667   -6348.8716   -8872.3082    83.169344 
   41800    1570.0022   -104.64399     1.420571   -103.22342   -2188.5162    4.3467577    4.3467577    4.3467577   -2188.5162   -5515.7145   -8246.2345    7196.4005    774.93538    16906.084    1231.8034    82.128955 
   41900    738.27645   -103.90432   0.66800805   -103.23631    25443.378    4.3489234    4.3489234    4.3489234    25443.378     45727.42    -52078.47    82681.184    6774.0008    9683.7497   -7186.7137    82.251774 
   42000    1208.9103   -104.32645    1.0938474    -103.2326   -17620.057     4.369928     4.369928     4.369928   -17620.057   -11235.708   -28551.885   -13072.578   -3071.3481    28965.402    1965.3583    83.449331 
   42100    1473.8884   -104.56108    1.3336052   -103.22747   -21066.035    4.3532053    4.3532053    4.3532053   -21066.035   -7489.3804   -52455.176    -3253.549    933.67282    1171.9599   -11419.898    82.494967 
   42200    1288.2735   -104.40119     1.165657   -103.23553     1335.235    4.3364773    4.3364773    4.3364773     1335.235      7172.78   -24457.846    21290.771   -10694.513   -13536.969    2587.9569     81.54761 
   42300    882.10295   -104.05032   0.79814529   -103.25217    20955.548    4.3496575    4.3496575    4.3496575    20955.548    91351.616   -30091.705    1606.7319    11952.156    -4691.613   -10006.304    82.293436 
   42400    1083.9363   -104.22326   0.98076837   -103.24249   -33018.923    4.3660001    4.3660001    4.3660001   -33018.923   -32005.663    -61372.24   -5678.8644   -446.11357   -15122.824   -15952.773    83.224503 
   42500    1631.6894   -104.69416    1.4763868   -103.21777   -9142.6308    4.3423266    4.3423266    4.3423266   -9142.6308   -6164.2329   -10663.383   -10600.277   -3208.2637   -10260.752    2039.8878    81.878045 
   42600    917.03276   -104.05617   0.82975051   -103.22642    7270.4456    4.3315912    4.3315912    4.3315912    7270.4456     24697.31   -24118.357    21232.384    2132.7211    11867.512   -21550.541    81.272268 
   42700    1350.0754    -104.4591    1.2215766   -103.23752   -9812.0742    4.3529321    4.3529321    4.3529321   -9812.0742   -14309.097   -9104.5204   -6022.6053    666.02604   -1581.8685    11092.797    82.479436 
   42800    1031.7072     -104.165   0.93351037   -103.23149   -16353.384    4.3626814    4.3626814    4.3626814   -16353.384    42784.598   -58502.302   -33342.447    3713.1432    5554.7808   -18979.929    83.034867 
   42900    1219.4772   -104.32031    1.1034086    -103.2169    14739.336    4.3317456    4.3317456    4.3317456    14739.336    9252.8485    21968.267    12996.893    7983.8536     16107.57    6172.9632     81.28096 
   43000    1137.3023   -104.25855     1.029055   -103.22949    19133.711    4.3348313    4.3348313    4.3348313    19133.711     68104.79   -20690.237    9986.5788   -4639.5699   -7972.4037   -10493.738    81.454787 
   43100    1242.8794    -104.3525    1.1245834   -103.22792   -30771.063    4.3561577    4.3561577    4.3561577   -30771.063   -13758.337   -39890.364   -38664.488    7670.1173    10666.996   -18798.375     82.66293 
   43200    1329.9291   -104.42841    1.2033478   -103.22506   -3928.0805    4.3478631    4.3478631    4.3478631   -3928.0805   -3726.8817   -9513.3453    1455.9857   -15901.515   -13034.954    6121.6962    82.191627 
   43300    1164.1302   -104.28306    1.0533295   -103.22973    1657.3142    4.3491168    4.3491168    4.3491168    1657.3142    42215.549   -40008.726    2765.1198    14774.226   -4072.6398   -19445.509    82.262749 
   43400    788.81128    -103.9509   0.71373303   -103.23717     23968.15    4.3389781    4.3389781    4.3389781     23968.15    56986.908   -6663.0008    21580.543   -13807.339   -11337.289    10403.897    81.688775 
   43500    1308.0867   -104.42612    1.1835843   -103.24254   -17546.235     4.356377     4.356377     4.356377   -17546.235   -29009.807   -44471.762    20842.864    2172.4901    7695.8126   -3909.8064    82.675413 
   43600    1318.2544   -104.42689    1.1927843   -103.23411   -16933.952    4.3517067    4.3517067    4.3517067   -16933.952   -18136.194   -44957.891    12292.229    14962.831   -7216.4677   -1867.9442    82.409799 
   43700    978.14243   -104.12496   0.88504383   -103.23991     15596.12    4.3300734    4.3300734    4.3300734     15596.12    24969.515   -8322.1212    30140.966    -7802.646    4143.7368   -1497.4263    81.186866 
   43800    1224.3224   -104.35332    1.1077927   -103.24553    779.00362    4.3403891    4.3403891    4.3403891    779.00362    25595.692   -5602.7051   -17655.976     30381.76   -5575.5546     121.1328    81.768492 
   43900    1388.9153   -104.49075    1.2567198   -103.23403   -14827.117    4.3612887    4.3612887    4.3612887   -14827.117   -10081.711   -17684.518   -16715.122   -17959.401    -11386.96    6239.1451    82.955372 
   44000    1174.5139   -104.27521    1.0627249   -103.21248   -16497.598     4.364921     4.364921     4.364921   -16497.598    6476.0027   -37370.907    -18597.89    21337.209   -9128.4201    10192.012    83.162811 
   44100    1396.0654   -104.46447    1.2631893   -103.20128     7534.113     4.326741     4.326741     4.326741     7534.113   -15000.028        18816    18786.367    430.24596    6819.5552   -776.36892    80.999566 
   44200    822.12136   -103.96939   0.74387268   -103.22552     21257.64    4.3338973    4.3338973    4.3338973     21257.64    33122.269   -5219.8643    35870.516   -2653.7726   -11291.312    6373.2761    81.402145 
   44300    1558.3083   -104.62867    1.4099901   -103.21868   -41835.265    4.3622538    4.3622538    4.3622538   -41835.265   -61995.265   -36889.516   -26621.014    24073.381    13661.554   -2627.7566    83.010456 
   44400    853.34753   -103.99238   0.77212678   -103.22025    15431.569    4.3455663    4.3455663    4.3455663    15431.569    2795.7681    14717.512    28781.428   -1259.3774   -6845.7846   -12007.103    82.061441 
   44500    1056.7374   -104.18162   0.95615821   -103.22546    2778.5141    4.3290861    4.3290861    4.3290861    2778.5141    32275.136    -29181.47    5241.8766    14673.367    10866.225    18250.509    81.131345 
   44600    1445.8764    -104.5453    1.3082594   -103.23704    11581.537    4.3441084    4.3441084    4.3441084    11581.537    17799.092     34278.88   -17333.361    17265.683   -2130.6706   -4755.1182    81.978874 
   44700    1080.8954   -104.20561   0.97801691    -103.2276   -19690.477      4.36611      4.36611      4.36611   -19690.477   -7631.6804   -41935.599   -9504.1533    2143.3758   -11671.623    7446.4879    83.230793 
   44800    1310.2349   -104.39719     1.185528   -103.21166   -8444.6961    4.3374444    4.3374444    4.3374444   -8444.6961   -21809.489   -1355.1507   -2169.4485    15672.709   -2326.1742    9360.5393    81.602179 
   44900    1392.1396   -104.47509    1.2596372   -103.21545    28777.045    4.3337239    4.3337239    4.3337239    28777.045    52262.543   -4169.1958    38237.788    3441.6119   -7080.2254    3525.5578    81.392373 
   45000    1110.6964   -104.23376    1.0049814   -103.22878   -25168.225    4.3596774    4.3596774    4.3596774   -25168.225    -39297.52   -42563.598    6356.4436    3702.9013    -10307.78    22189.316    82.863461 
   45100    1095.2059   -104.20435   0.99096532   -103.21339    9409.5367    4.3535856    4.3535856    4.3535856    9409.5367   -7083.6462    -4588.065    39900.321   -574.65539    7972.4007    -14016.77    82.516588 
   45200    1198.0716   -104.30445    1.0840403   -103.22041     265.8061    4.3327279    4.3327279    4.3327279     265.8061     28217.19   -24464.712   -2955.0597    10590.301     -5560.38     19002.42    81.336267 
   45300    1503.2037   -104.60011    1.3601303   -103.23998    10932.595    4.3363725    4.3363725    4.3363725    10932.595     9782.135   -415.04608    23430.696    4564.4672    2090.6827    726.83647    81.541697 
   45400    1100.1759   -104.24294   0.99546228   -103.24748   -9346.2711     4.358217     4.358217     4.358217   -9346.2711   -396.98586   -26320.038   -1321.7891    8484.6793    6058.6537    14652.627    82.780215 
   45500     1015.722   -104.15495    0.9190466    -103.2359   -21120.104    4.3514351    4.3514351    4.3514351   -21120.104    -17519.17   -13804.715   -32036.428    10673.878   -5988.6436    18408.207     82.39437 
   45600    1693.8608   -104.74434    1.5326408    -103.2117    28985.127    4.3267703    4.3267703    4.3267703    28985.127    18675.916    14244.315     54035.15    4900.8417   -3208.8432   -11825.951    81.001211 
   45700    893.53289   -104.05069   0.80848734    -103.2422   -8987.3832     4.341232     4.341232     4.341232   -8987.3832    10349.513   -1767.0291   -35544.633    23962.834    880.67802    24081.965     81.81614 
   45800     1162.349   -104.28546    1.0517178   -103.23375    7340.5566    4.3506105    4.3506105    4.3506105    7340.5566     669.7024    4816.1058    16535.862    2611.7273   -12513.827   -12485.842    82.347538 
   45900     1186.319   -104.30264    1.0734064   -103.22923    11655.662    4.3433331    4.3433331    4.3433331    11655.662    8038.8942    1431.0702    25497.022    11931.903    530.64661     23419.91     81.93499 
   46000    1228.7118   -104.33422    1.1117642   -103.22245    2268.4166    4.3400195    4.3400195    4.3400195    2268.4166    757.50334    32041.632   -25993.886    5427.3752   -4350.6818   -4750.3542    81.747608 
   46100    1512.3488   -104.58311     1.368405   -103.21471    4656.1349    4.3422719    4.3422719    4.3422719    4656.1349    7197.5935   -8912.6432    15683.454   -6141.5284    10394.692   -6636.1019    81.874948 
   46200    652.71299   -103.81954   0.59058843   -103.22895    4982.8957    4.3518581    4.3518581    4.3518581    4982.8957   -11026.528    38811.111   -12835.896    22027.218   -4909.1726     24983.67    82.418402 
   46300    1872.0073   -104.91063    1.6938316    -103.2168   -17314.518    4.3494183    4.3494183    4.3494183   -17314.518    3426.7199   -15319.069   -40051.204   -10641.914    14875.461   -4505.5415    82.279858 
   46400    640.69518   -103.81004   0.57971447   -103.23033    24053.482    4.3348951    4.3348951    4.3348951    24053.482    23253.982    50537.506   -1631.0402   -7480.6329   -4554.2441    25002.058    81.458381 
   46500    1425.4771   -104.52935    1.2898016   -103.23955    -22321.08    4.3455188    4.3455188    4.3455188    -22321.08   -31083.292   -28784.586   -7095.3609    14624.904    7210.6154   -12473.674    82.058748 
   46600    1242.3099   -104.35982    1.1240681   -103.23575    21195.143     4.340165     4.340165     4.340165    21195.143    39676.253    52173.337   -28264.162   -2963.2541    7081.0989   -739.83028    81.755828 
   46700    1035.3139   -104.17433   0.93677381   -103.23756    1738.2612    4.3363002    4.3363002    4.3363002    1738.2612    31182.236   -30470.435    4502.9824    21165.013   -1801.5909    18476.566     81.53762 
   46800    1336.2446   -104.43868    1.2090622   -103.22961    12085.264    4.3482878    4.3482878    4.3482878    12085.264    30888.512        17268   -11900.721   -3951.7757    4183.4301   -11953.526    82.215713 
   46900    1091.6855   -104.22252   0.98777998   -103.23474   -18256.694    4.3497436    4.3497436    4.3497436   -18256.694   -2594.6064   -32242.622   -19932.855    21494.449   -9918.9338    13223.124    82.298319 
   47000    1200.9729   -104.31784    1.0866655   -103.23117    15709.625    4.3334284    4.3334284    4.3334284    15709.625    27583.075   -3288.9354    22834.736    21330.032    1765.6498    -4498.001    81.375726 
   47100    1603.4245   -104.68657    1.4508122   -103.23576    3838.6085    4.3439421    4.3439421    4.3439421    3838.6085     31237.47    16129.251   -35850.895   -16362.831   -4970.3976     273.6512    81.969461 
   47200    1039.6422   -104.17843   0.94069008   -103.23774   -15189.866    4.3445321    4.3445321    4.3445321   -15189.866    10177.149   -24612.088   -31134.658     25594.83   -15450.187    7623.0959    82.002865 
   47300     1246.226   -104.35874    1.1276114   -103.23112    22696.905    4.3429627    4.3429627    4.3429627    22696.905    36315.673    38056.258    -6281.215    2923.7051    7660.3683   -14738.082    81.914029 
   47400    1317.2516   -104.42532     1.191877   -103.23344   -14799.417    4.3458029    4.3458029    4.3458029   -14799.417   -1532.5226   -5539.5773   -37326.151   -3422.6434   -24786.314    9194.7406    82.074843 
   47500    1038.6832   -104.17333   0.93982235   -103.23351    10633.721    4.3305869    4.3305869    4.3305869    10633.721   -3261.0086    48066.611   -12904.438    23825.853    7305.7607   -2696.5728    81.215755 
   47600    1284.4837   -104.40644    1.1622278   -103.24421   -5706.1031    4.3446838    4.3446838    4.3446838   -5706.1031    12532.405    9895.5134   -39546.228   -873.14535   -17083.718    4535.6269    82.011457 
   47700    838.23207   -104.00389   0.75844999   -103.24544   -2733.2523    4.3517352    4.3517352    4.3517352   -2733.2523    18431.066    760.40165   -27391.225    28279.263   -1393.5739    4716.5354    82.411415 
   47800     1576.023   -104.66093    1.4260188   -103.23491     898.3575    4.3401149    4.3401149    4.3401149     898.3575    1558.6992   -7882.9865    9019.3598    11801.237   -1746.5731   -13460.665    81.752997 
   47900    1168.0607   -104.29837    1.0568859   -103.24148    13970.566    4.3366724    4.3366724    4.3366724    13970.566    26356.863    23924.018   -8369.1833    17784.665     -7112.03    6895.2198    81.558614 
   48000     744.3489   -103.91648   0.67350253   -103.24298   -12868.181    4.3582836    4.3582836    4.3582836   -12868.181    -4933.104   -10329.616   -23341.821    20042.304   -4884.3399   -10358.758     82.78401 
   48100    1649.3568   -104.71391    1.4923727   -103.22154    4894.6879    4.3442904    4.3442904    4.3442904    4894.6879    14649.833   -4380.9651     4415.196    1127.5329    -1398.381   -8040.1974    81.989182 
   48200    1060.4585   -104.19656   0.95952514   -103.23704   -6782.4856    4.3475085    4.3475085    4.3475085   -6782.4856    8795.5856   -1750.8477   -27392.195    27672.232   -6800.0223     1291.604     82.17152 
   48300     1287.468   -104.39907    1.1649281   -103.23415    3898.3118    4.3522374    4.3522374    4.3522374    3898.3118    50387.065   -25033.494   -13658.636   -16117.133    15210.534   -22479.363    82.439954 
   48400    1115.6138   -104.23896    1.0094308   -103.22952    3162.3629     4.352214     4.352214     4.352214    3162.3629   -9402.2677    -1814.243    20703.599    21455.145   -6419.6812    586.98314    82.438622 
   48500     1507.521    -104.5902    1.3640367   -103.22616   -18104.246    4.3552577    4.3552577    4.3552577   -18104.246    5044.3265   -53930.245   -5426.8199   -2464.2828   -339.82864   -21952.514    82.611704 
   48600     905.5741    -104.0495   0.81938247   -103.23012    29450.225    4.3489328    4.3489328    4.3489328    29450.225    42397.397    5777.7511    40175.525    16068.853   -4230.8424   -49.494033    82.252307 
   48700    1018.0258   -104.16382   0.92113113   -103.24269   -9662.6513    4.3519716    4.3519716    4.3519716   -9662.6513    36182.798   -33057.515   -32113.237    26791.654   -6890.9925   -12604.066    82.424848 
   48800    1601.7037   -104.68372    1.4492551   -103.23447   -1854.2675    4.3559971    4.3559971    4.3559971   -1854.2675     2108.581   -26022.781    18351.398   -2190.9272    6969.3236    -2511.863    82.653787 
   48900    957.50694   -104.10668    0.8663724   -103.24031   -26218.552    4.3670091    4.3670091    4.3670091   -26218.552    -11842.08    -46771.22   -20042.356    24308.441   -7453.5484   -5348.1117    83.282219 
   49000    1240.7649   -104.34269    1.1226702   -103.22002    3160.8492    4.3495486    4.3495486    4.3495486    3160.8492    60475.365   -46363.365   -4629.4523   -839.59909   -9757.9385   -1392.4705    82.287251 
   49100    1174.1249    -104.2884    1.0623729   -103.22603     12570.35    4.3395228    4.3395228    4.3395228     12570.35   -6949.6044   -14420.554    59081.207    18586.828    2056.4327    395.72077    81.719543 
   49200    1290.4766   -104.40949    1.1676503   -103.24184   -29361.178    4.3645492    4.3645492    4.3645492   -29361.178    19802.639   -64836.465   -43049.706   -2494.3034   -19462.689   -9221.5015    83.141562 
   49300    1224.2053   -104.34102    1.1076867   -103.23333   -8403.3275    4.3621657    4.3621657    4.3621657   -8403.3275   -9011.6415    -43680.95    27482.609    14091.048    2676.5949    2444.5932    83.005427 
   49400    980.45881   -104.12098   0.88713974   -103.23384   -4660.3616    4.3457607    4.3457607    4.3457607   -4660.3616    25794.625   -34287.851   -5487.8592      24452.6   -10343.814   -7975.5621    82.072453 
   49500    1125.7558    -104.2606    1.0186075   -103.24199    19741.063    4.3487993    4.3487993    4.3487993    19741.063    69240.033   -37090.098    27073.252   -9681.1863   -4652.4167    4505.7965    82.244733 
   49600    1045.7101     -104.191   0.94618044   -103.24482   -26461.587    4.3581185    4.3581185    4.3581185   -26461.587   -35686.084   -36818.554   -6880.1235    20495.496     3187.821   -3645.1898    82.774604 
   49700    1233.2648    -104.3496    1.1158839   -103.23371    1711.1771    4.3507041    4.3507041    4.3507041    1711.1771    30440.363   -34187.591    8880.7588   -12184.904    -3169.998   -7522.1709    82.352853 
   49800    1285.2764   -104.39333    1.1629451   -103.23038    -2548.026    4.3498867    4.3498867    4.3498867    -2548.026    -9363.744    8856.6054   -7136.9393    6984.3188    349.78842    2627.1734    82.306441 
   49900    1002.7778   -104.14189   0.90733441   -103.23455   -8443.7155    4.3602032    4.3602032    4.3602032   -8443.7155   -1230.2519   -40406.497    16305.602    6978.9824    19575.078   -15328.633    82.893446 
   50000    1170.6514   -104.28097      1.05923   -103.22174    7931.7256    4.3542651    4.3542651    4.3542651    7931.7256    13977.308     6707.522    3110.3466   -7923.2108   -4154.6093   -4400.6951    82.555231 
   50100    986.53685   -104.12911   0.89263927   -103.23648   -8245.5482    4.3456747    4.3456747    4.3456747   -8245.5482    40859.159   -57194.708   -8401.0956    24578.166    22051.575   -3660.2818    82.067583 
   50200    1377.6925   -104.48988    1.2465651   -103.24332    11702.636    4.3443778    4.3443778    4.3443778    11702.636    6456.5443   -5728.8861    34380.249    7418.7531    -2626.615     -13373.4    81.994131 
   50300    1260.2346   -104.39651    1.1402867   -103.25622   -43102.042    4.3603823    4.3603823    4.3603823   -43102.042   -13280.047     -73745.9   -42280.178    8982.1553   -140.98131     3045.607    82.903658 
   50400    1094.7861   -104.22431   0.99058546   -103.23373   -5889.3126    4.3595936    4.3595936    4.3595936   -5889.3126    14289.169   -39803.307    7846.2004    17358.822    7103.3297   -10147.439    82.858682 
   50500    1409.1678   -104.49124    1.2750447    -103.2162    12822.418    4.3351018    4.3351018    4.3351018    12822.418    39087.312    171.40513   -791.46249   -1520.1673   -5231.0134    10711.407    81.470036 
   50600    886.04849   -104.03541    0.8017153   -103.23369    -9552.856    4.3513251    4.3513251    4.3513251    -9552.856    51536.248   -65260.489   -14934.327   -910.14411   -6626.3971   -15821.196    82.388121 
   50700    1527.2524   -104.60455    1.3818901   -103.22266   -17480.315    4.3551312    4.3551312    4.3551312   -17480.315   -23250.504   -17863.656   -11326.786   -6894.5171   -11867.015     11353.51    82.604503 
   50800    988.97219   -104.12057   0.89484282   -103.22573   -8245.0347    4.3467284    4.3467284    4.3467284   -8245.0347    14367.101   -46528.477     7426.272    7080.2523    3420.3552      -5479.3    82.127295 
   50900    1114.5576   -104.22755    1.0084752   -103.21907    7299.3027    4.3401691    4.3401691    4.3401691    7299.3027    63251.136   -29093.867   -12259.361    1033.8999   -3048.4219    7461.5455    81.756062 
   51000    1241.0889   -104.35403    1.1229634   -103.23106   -10959.152    4.3484989    4.3484989    4.3484989   -10959.152    11293.447   -29551.091   -14619.813   -8800.0499    3159.0799   -2096.2649     82.22769 
   51100    1330.4175   -104.43283    1.2037897   -103.22904   -14047.855    4.3598502    4.3598502    4.3598502   -14047.855    12619.446    -19530.96   -35232.051    18640.928    2061.9483   -3268.0494    82.873311 
   51200    1190.2407   -104.30438    1.0769548   -103.22742   -7923.7134    4.3421662    4.3421662    4.3421662   -7923.7134    50043.487   -54877.217    -18937.41   -6596.0346    5888.2771    8438.7169    81.868968 
   51300    842.76786   -103.98828   0.76255407   -103.22572    43126.668    4.3270253    4.3270253    4.3270253    43126.668    69825.409    49712.956    9841.6398    31887.374   -3391.0699   -6622.5032    81.015536 
   51400    1625.5951   -104.70434    1.4708726   -103.23347   -20950.008    4.3509826    4.3509826    4.3509826   -20950.008     -10323.6     -8857.42   -43669.004   -15323.743     11542.42    12679.852    82.368667 
   51500    842.22045    -103.9848   0.76205876   -103.22274     17587.21    4.3593596    4.3593596    4.3593596     17587.21    51862.096    11665.287   -10765.754    10772.931    4974.5035   -10370.863     82.84534 
   51600    1160.9469    -104.2651    1.0504492   -103.21465   -20245.893    4.3518659    4.3518659    4.3518659   -20245.893    11600.771    -19182.24   -53156.211   -7157.9834    20999.519    9547.2132    82.418845 
   51700    1412.7511   -104.48773    1.2782868   -103.20944    21139.837      4.32112      4.32112      4.32112    21139.837    60457.449     8054.357   -5092.2946    4516.3837    2060.7087    -3650.726    80.684291 
   51800    1367.8264   -104.48047     1.237638   -103.24284   -13968.805    4.3444972    4.3444972    4.3444972   -13968.805    11411.314   -34667.745   -18649.983     11315.19    4987.3083    4125.6652    82.000891 
   51900    1068.2247   -104.19663   0.96655217   -103.23008   -17835.786    4.3629843    4.3629843    4.3629843   -17835.786    60607.778   -51765.768    -62349.37   -18313.781    20774.215    2420.9362    83.052166 
   52000     1177.545   -104.28598    1.0654675   -103.22052   -464.29251    4.3382433    4.3382433    4.3382433   -464.29251    -30224.71   -6307.9644    35139.797    12716.589   -5882.1824   -2343.7219     81.64728 
   52100     1266.956   -104.37547    1.1463684    -103.2291   -9009.7265    4.3376264    4.3376264    4.3376264   -9009.7265    23499.218    -11824.93   -38703.467    8846.6133    23926.958     11332.58    81.612454 
   52200     956.5178   -104.09885    0.8654774   -103.23337    11024.494    4.3529897    4.3529897    4.3529897    11024.494    34815.931   -4113.5434    2371.0943    20400.729    7120.1867   -11551.649     82.48271 
   52300     1140.892   -104.25871     1.032303   -103.22641    -18300.86    4.3520054    4.3520054    4.3520054    -18300.86   -12465.186   -21864.227   -20573.167    21311.575    4177.1433     17471.48    82.426771 
   52400    1360.7406   -104.45109    1.2312266   -103.21987    4701.2848    4.3435889    4.3435889    4.3435889    4701.2848    42728.843   -18513.102   -10111.886   -21701.678    6432.1036    2938.2991    81.949471 
   52500    1029.6979   -104.15534   0.93169232   -103.22365    10047.263    4.3317611    4.3317611    4.3317611    10047.263   -3264.4798    1670.0327    31736.236    16232.727   -5983.8892    6702.4674    81.281835 
   52600    1189.5318     -104.319    1.0763134   -103.24269    7407.7538    4.3485772    4.3485772    4.3485772    7407.7538     72540.45   -26243.898    -24073.29     649.1718     4606.316     1407.221    82.232135 
   52700    1637.6384   -104.71647    1.4817696    -103.2347   -27536.474    4.3580888    4.3580888    4.3580888   -27536.474   -28203.604   -23539.899   -30865.919    10260.253   -8829.5402    3269.5781     82.77291 
   52800    878.43692   -104.02658   0.79482819   -103.23175    8337.1131    4.3359618    4.3359618    4.3359618    8337.1131    75383.773   -53505.357    3132.9234    2378.1447   -7098.6405     5888.742     81.51853 
   52900    1393.4581   -104.47487    1.2608301   -103.21404    35703.078    4.3257091    4.3257091    4.3257091    35703.078     57001.18    32170.286    17937.768   -2546.8507   -1572.0154   -2125.7833    80.941627 
   53000    1237.4137   -104.36098    1.1196379   -103.24135   -30182.612    4.3463006    4.3463006    4.3463006   -30182.612    7337.9385   -64912.462   -32973.313     13935.68    3872.7954    14244.389     82.10305 
   53100    1410.5299     -104.506    1.2762771   -103.22972    5530.5157    4.3514726    4.3514726    4.3514726    5530.5157    67533.358   -28155.605   -22786.206    10286.193    5568.6496   -553.11053    82.396502 
   53200    818.36699   -103.97408   0.74047565    -103.2336   -6992.6042    4.3481054    4.3481054    4.3481054   -6992.6042    4537.9181   -13540.502   -11975.229    2345.9056   -116.46183    4026.8309    82.205372 
   53300    1354.6849   -104.45206    1.2257473   -103.22632   -15098.252    4.3407133    4.3407133    4.3407133   -15098.252    11661.287   -40937.109   -16018.934    7551.4278   -9200.7711    2618.2453    81.786814 
   53400    1467.0497    -104.5496    1.3274174   -103.22218    7479.9233    4.3308703    4.3308703    4.3308703    7479.9233    3533.2765    5609.4991    13296.994   -5897.7962    -6965.084    2272.1579      81.2317 
   53500    867.08198   -104.01883     0.784554   -103.23427   -18836.861    4.3498697    4.3498697    4.3498697   -18836.861    4980.7571   -56279.223    -5212.117     21180.37    7459.2672    7019.3327     82.30548 
   53600    1223.2908   -104.32901    1.1068592   -103.22215    8326.5375    4.3477414    4.3477414    4.3477414    8326.5375    84267.484   -30082.321   -29205.551   -7527.4054    537.12799   -3945.7493    82.184726 
   53700    1376.8455   -104.47037    1.2457987   -103.22457   -11619.292    4.3454454    4.3454454    4.3454454   -11619.292   -18871.678   -16335.014    348.81468    22904.066    5383.3884    1850.0744    82.054594 
   53800    1174.9282   -104.29652    1.0630997   -103.23342   -9505.7807     4.351249     4.351249     4.351249   -9505.7807    59149.823   -41441.718   -46225.447   -4109.0015   -14837.178    -5198.299    82.383798 
   53900    1329.0979   -104.42866    1.2025957   -103.22607      15723.6    4.3347998    4.3347998    4.3347998      15723.6    65156.403   -19929.689    1944.0847    9015.8263    2388.0217    2522.0386    81.453008 
   54000    1239.7843   -104.35897    1.1217829   -103.23719   -4437.0678    4.3402958    4.3402958    4.3402958   -4437.0678    3860.7503    2446.8147   -19618.768    14622.729    5679.4719   -12160.629     81.76322 
   54100    1623.5423   -104.69346    1.4690152   -103.22444   -18400.614    4.3548079    4.3548079    4.3548079   -18400.614    20931.919   -48052.223   -28081.536   -6963.0905    3133.4715    8923.2687    82.586108 
   54200    655.74123   -103.82133   0.59332844     -103.228    16623.401    4.3466213    4.3466213    4.3466213    16623.401    42081.451     14610.62    -6821.869    39309.077    823.53837   -8661.9818    82.121222 
   54300    1514.2004   -104.58889    1.3700803   -103.21881    813.66682    4.3419644    4.3419644    4.3419644    813.66682    36759.511   -12077.061   -22241.449   -23211.382   -5870.6315     8293.337    81.857555 
   54400    1418.9419    -104.5033    1.2838885   -103.21941   -15494.168    4.3385462    4.3385462    4.3385462   -15494.168   -20714.505   -29861.345    4093.3477    32816.242   -7442.8432   -7308.0986    81.664383 
   54500    1072.9151   -104.19739   0.97079616    -103.2266   -3555.3407    4.3503344    4.3503344    4.3503344   -3555.3407   -4211.5933   -4833.7687     -1620.66   -7449.2244    5288.8543    -5543.382    82.331858 
   54600    1099.0338   -104.21286   0.99442885   -103.21844     7993.563    4.3502027    4.3502027    4.3502027     7993.563     92343.06   -38494.422   -29867.949    16415.472   -877.83876    4028.0472    82.324382 
   54700    1107.4191   -104.22174    1.0020161   -103.21972   -2036.8119    4.3451883    4.3451883    4.3451883   -2036.8119    435.07332   -5331.5793   -1213.9296     22100.86    13322.945   -14725.462    82.040026 
   54800    1327.1658   -104.41908    1.2008475   -103.21823    3837.1498    4.3429255    4.3429255    4.3429255    3837.1498   -4331.3664   -15340.513    31183.329   -18096.219    1805.3696   -2632.4088    81.911925 
   54900    1154.2362   -104.27388    1.0443772    -103.2295   -1052.6601    4.3444775    4.3444775    4.3444775   -1052.6601    26838.012   -7019.6852   -22976.307    27993.301   -15179.702    -2411.853    81.999775 
   55000     1163.852   -104.27853    1.0530777   -103.22545    12810.286    4.3477739    4.3477739    4.3477739    12810.286    48357.384   -31391.302    21464.776    -7852.446   -1599.4685   -11311.949    82.186569 
   55100    1173.5407   -104.28323    1.0618443   -103.22138   -14764.831    4.3436511    4.3436511    4.3436511   -14764.831   -29538.313   -51231.682    36475.503    21813.062    8544.3689    6435.0743    81.952989 
   55200    1485.5639   -104.56301    1.3441694   -103.21884    1917.3392    4.3421331    4.3421331    4.3421331    1917.3392    17031.722   -10669.248    -610.4565   -141.25624    662.25272   -4826.0499    81.867096 
   55300    809.24663   -103.96182   0.73222335    -103.2296    -1453.634    4.3578351    4.3578351    4.3578351    -1453.634    8104.1344   -73114.539    60649.503     619.4867    80.493854   -2203.6652    82.758455 
   55400    1549.6639   -104.61943    1.4021684   -103.21726   -11142.953    4.3456268    4.3456268    4.3456268   -11142.953     24158.34     -39695.2   -17891.998    18292.497    1953.3519    2162.9544    82.064866 
   55500    844.88591   -103.99058   0.76447052   -103.22611    27298.808    4.3292545    4.3292545    4.3292545    27298.808    1425.2617   -11656.089    92127.252   -29983.513    3958.5911   -10202.145    81.140812 
   55600    1456.3881   -104.55311    1.3177706   -103.23534   -9508.4843    4.3504233    4.3504233    4.3504233   -9508.4843    26098.433   -40060.607   -14563.279    24925.349    1590.4746    351.71393    82.336907 
   55700     1060.038   -104.18645   0.95914467    -103.2273   -6747.1419    4.3584332    4.3584332    4.3584332   -6747.1419    35002.204   -58260.834    3017.2042   -25552.522    10575.624    6602.9655    82.792537 
   55800     1123.644   -104.23557    1.0166967   -103.21887     17410.16    4.3396015    4.3396015    4.3396015     17410.16   -3402.2031   -2982.9684    58615.652    11249.394     3018.553   -12505.672    81.723991 
   55900    1544.0199   -104.61835    1.3970617   -103.22129   -30547.428    4.3464623    4.3464623    4.3464623   -30547.428   -29865.414    -44923.42   -16853.449   -22808.345   -1014.2613   -328.11474    82.112214 
   56000    871.96327   -104.01184   0.78897069   -103.22286    27472.974    4.3463799    4.3463799    4.3463799    27472.974    71430.061   -47700.909    58689.772   -3649.1744    16279.527    2548.4956    82.107543 
   56100    1440.9286   -104.52203    1.3037825   -103.21825     -21586.5    4.3607884    4.3607884    4.3607884     -21586.5   -46334.043   -29964.608     11539.15   -8965.7619   -1542.9734    1352.9106    82.926828 
   56200    835.35139   -103.96946   0.75584349   -103.21362    16850.535     4.344406     4.344406     4.344406    16850.535     24251.12   -32890.807    59191.292   -23891.489    29974.328    12754.614    81.995723 
   56300    1199.2677   -104.29394    1.0851226   -103.20882    21190.002    4.3382417    4.3382417    4.3382417    21190.002    22906.019   -6592.0251    47256.013    8434.0336    916.16432    2506.1163    81.647188 
   56400    1373.9385   -104.46169    1.2431684   -103.21852   -24194.925     4.361539     4.361539     4.361539   -24194.925   -20852.993   -46072.773   -5659.0081   -27866.764   -6957.5411    6987.4167    82.969653 
   56500    1198.5553   -104.28887    1.0844781   -103.20439    4583.5245    4.3597983    4.3597983    4.3597983    4583.5245     15934.99   -12933.548    10749.131      13991.1    1834.0775   -5855.8505    82.870356 
   56600    1027.4774   -104.13683   0.92968318   -103.20714    8732.7969    4.3383818    4.3383818    4.3383818    8732.7969   -47738.752   -21633.541    95570.683   -31020.905   -5160.4654   -18612.835    81.655099 
   56700    1603.6382   -104.67029    1.4510055   -103.21928    14532.169    4.3393343    4.3393343    4.3393343    14532.169    22923.354   -10661.019     31334.17    3557.7318    -16461.62   -14422.702    81.708894 
   56800    683.49564   -103.86054   0.61844122    -103.2421   -11572.362     4.358164     4.358164     4.358164   -11572.362   -44724.412    -8566.835     18574.16   -34275.763    807.66119    1375.5999    82.777194 
   56900    1821.0844   -104.86095    1.6477554   -103.21319   -16053.829    4.3555427    4.3555427    4.3555427   -16053.829   -20659.388    -28634.36     1132.261     7555.723   -8134.8401    4186.2305    82.627921 
   57000    1125.9908   -104.23311    1.0188201   -103.21429    9509.8839    4.3330605    4.3330605    4.3330605    9509.8839   -25485.634   -7031.6514    61046.937   -30239.149    7102.2577    2608.2382    81.355003 
   57100    1170.2762   -104.29002    1.0588905   -103.23113    15334.796    4.3442835    4.3442835    4.3442835    15334.796    19.996849    17179.717    28804.673   -3416.7976   -631.53874   -7987.9704    81.988789 
   57200    1339.0047   -104.43853    1.2115596   -103.22697   -20033.503    4.3575749    4.3575749    4.3575749   -20033.503   -43640.758   -24330.669    7870.9191   -14133.231    6921.6937     -2660.52    82.743634 
   57300    1061.5829   -104.18225   0.96054256   -103.22171    9928.1897    4.3391679    4.3391679    4.3391679    9928.1897    11329.199    31192.815   -12737.445   -10406.156   -1830.9468    360.71588    81.699492 
   57400    1474.3167   -104.55041    1.3339928   -103.21642   -3366.3941    4.3445956    4.3445956    4.3445956   -3366.3941   -19287.092   -33431.185    42619.095   -2071.7174     4808.283    14013.666    82.006464 
   57500    865.89762   -104.01285   0.78348236   -103.22937   -19123.666    4.3547834    4.3547834    4.3547834   -19123.666   -54991.708   -9925.4567    7546.1673   -35087.601   -4026.8741    -12701.54    82.584713 
   57600    1711.0359   -104.75966    1.5481812   -103.21148    5646.3182    4.3442881    4.3442881    4.3442881    5646.3182   -991.23998    14405.721    3524.4736    8618.6556    2130.5071    3984.9377    81.989053 
   57700    748.07273   -103.89709   0.67687193   -103.22022    15561.012    4.3392164    4.3392164    4.3392164    15561.012   -43563.908    54323.258    35923.686   -31769.523   -1176.0994   -16318.806    81.702233 
   57800     1465.261   -104.54534    1.3257989   -103.21954   -19857.113    4.3480648    4.3480648    4.3480648   -19857.113   -21448.339   -22136.719    -15986.28    7042.9288    5039.6974    2069.7264    82.203065 
   57900    1428.9689   -104.50856     1.292961    -103.2156   -8984.2347    4.3550962    4.3550962    4.3550962   -8984.2347    -31180.17    5614.8235   -1387.3576    -13712.39   -7657.2461    6250.5438    82.602512 
   58000    979.38472   -104.09432   0.88616788   -103.20815   -18062.287    4.3558298    4.3558298    4.3558298   -18062.287   -51349.452     12003.84   -14841.248   -11991.868   -6936.7067   -21306.383    82.644261 
   58100    1101.5286   -104.19004   0.99668623   -103.19335    21112.766    4.3400286    4.3400286    4.3400286    21112.766    222.33226    44519.304     18596.66   -8319.8972     1023.972   -6050.2345    81.748121 
   58200     1101.652   -104.20483   0.99679792   -103.20804   -1852.4867    4.3474977    4.3474977    4.3474977   -1852.4867   -18696.193   -9865.2758    23004.009   -32951.422   -16995.585   -7724.1673    82.170907 
   58300    1132.1856   -104.23103    1.0244253    -103.2066    14514.959    4.3471278    4.3471278    4.3471278    14514.959   -10759.241    38884.389     15419.73    10438.336   -2445.0251   -22516.077    82.149934 
   58400    1064.7299   -104.18027   0.96338998   -103.21688   -11785.388    4.3416451    4.3416451    4.3416451   -11785.388   -27073.435   -44420.546    36137.817   -27385.432   -7755.3541    13970.027      81.8395 
   58500    1821.2841   -104.86185    1.6479361   -103.21391   -16092.144    4.3381336    4.3381336    4.3381336   -16092.144   -23153.021     4965.396   -30088.808    11500.449    1960.8805   -13748.197    81.641085 
   58600    1018.0907   -104.15067   0.92118988   -103.22948    7756.4667     4.341065     4.341065     4.341065    7756.4667   -24027.021   -14386.365    61682.787   -15831.099    3605.5611   -107.05056    81.806697 
   58700    965.36122     -104.096   0.87347912   -103.22253   -8652.4781    4.3569329    4.3569329    4.3569329   -8652.4781   -66829.706    10591.676    30280.595   -8553.1388   -10600.382   -18244.833    82.707067 
   58800    1077.2925   -104.18675   0.97475688   -103.21199     21157.74    4.3434277    4.3434277    4.3434277     21157.74    1357.3584    30863.685    31252.177   -14485.294   -7340.2211   -8549.1735    81.940346 
   58900     1005.361   -104.11763   0.90967178   -103.20796    2490.9199    4.3420404    4.3420404    4.3420404    2490.9199   -22778.851    9386.0304     20865.58   -24610.376   -19679.961   -6948.3529    81.861854 
   59000    902.91743   -104.02514   0.81697867   -103.20817    23382.107    4.3437746    4.3437746    4.3437746    23382.107    6369.3666    28621.054      35155.9    -1207.981   -13401.056    2181.4578    81.959982 
   59100    1389.5518   -104.46851    1.2572956   -103.21121   -25682.022    4.3540449    4.3540449    4.3540449   -25682.022   -21233.898   -56522.883    710.71484   -14148.182   -4916.8567    7489.2641    82.542705 
   59200    1440.8566   -104.50641    1.3037173   -103.20269   -5037.2638    4.3484708    4.3484708    4.3484708   -5037.2638   -20003.963    908.22422    3983.9469    13260.084    6229.1854    5441.4509    82.226094 
   59300    1130.8692   -104.22628    1.0232342   -103.20305    8919.3999     4.334704     4.334704     4.334704    8919.3999    26794.072   -1667.1647     1631.292   -28595.516    7107.9254    2922.9822     81.44761 
   59400    1326.3483   -104.41975    1.2001078   -103.21964   -4713.5866    4.3517822    4.3517822    4.3517822   -4713.5866    5843.0655   -5990.5008   -13993.325    7057.0669   -943.90233     8629.784     82.41409 
   59500    1076.5762   -104.18779   0.97410875   -103.21368    2922.6219    4.3529554    4.3529554    4.3529554    2922.6219     13525.62    -16183.58    11425.826   -33548.757   -14047.475   -10373.163    82.480757 
   59600    1070.8665   -104.17421    0.9689425   -103.20526    17741.377    4.3417714    4.3417714    4.3417714    17741.377   -41582.506    22035.113    72771.524   -2336.9595   -5339.9548   -4229.1716    81.846643 
   59700    1044.4347   -104.16045   0.94502647   -103.21542   -10805.617    4.3409517    4.3409517    4.3409517   -10805.617   -56477.715   -10892.117     34952.98   -21926.893   -8311.0613    -11632.54    81.800291 
   59800    1513.6083   -104.58022    1.3695446   -103.21068    13441.502    4.3403423    4.3403423    4.3403423    13441.502   -25266.044    9930.4412    55660.109    -3897.999    13973.221   -7023.8759    81.765846 
   59900    1081.7722   -104.19987   0.97881023   -103.22106   -39033.657     4.358612     4.358612     4.358612   -39033.657   -67134.905   -26231.776   -23734.289    -7008.102    -10011.66    8944.6671    82.802724 
   60000    1316.7009    -104.4057    1.1913786   -103.21432   -5278.1358    4.3400292    4.3400292    4.3400292   -5278.1358   -49654.899   -10484.391    44304.882   -23176.993   -4808.8555    5725.6289    81.748155 
   60100    1470.4251   -104.54569    1.3304716   -103.21522    2432.1151    4.3375759    4.3375759    4.3375759    2432.1151   -25893.961    38838.428   -5648.1223    -1097.684   -9514.5163   -9652.6617    81.609605 
   60200    882.65784   -104.03023   0.79864736   -103.23159   -14951.917    4.3450795    4.3450795    4.3450795   -14951.917   -64877.798    15398.361    4623.6854   -30011.489   -14938.001    695.45547    82.033864 
   60300    1675.7126   -104.74216      1.51622   -103.22594    -10.74093    4.3498577    4.3498577    4.3498577    -10.74093   -21327.652    33139.702   -11844.273    11623.959    89.182067   -269.93918    82.304795 
   60400    999.93988   -104.13532   0.90476661   -103.23055   -26757.896    4.3572537    4.3572537    4.3572537   -26757.896   -61172.142    9939.0371   -29040.582    -27989.68   -14023.669    12001.829    82.725338 
   60500    1650.3501   -104.70752    1.4932715   -103.21425    -2886.612    4.3400781    4.3400781    4.3400781    -2886.612   -29481.211    25766.762   -4945.3876    9389.4342    5568.6398   -3927.9185    81.750916 
   60600    827.49866   -103.97902   0.74873817   -103.23028    30196.572    4.3332194    4.3332194    4.3332194    30196.572   -18507.504    100637.81    8459.4146   -25446.672   -16860.902   -7455.0002    81.363954 
   60700    1261.2844   -104.38398    1.1412366   -103.24275    430.48281    4.3552432    4.3552432    4.3552432    430.48281   -17052.103    6266.9232    12076.628   -5108.3983    2446.5356    19888.799    82.610878 
   60800     1284.491   -104.39053    1.1622345    -103.2283   -18182.069    4.3562959    4.3562959    4.3562959   -18182.069   -49057.593    -10205.99    4717.3757   -9521.2608   -1022.3259    8186.0797    82.670792 
   60900    803.95588   -103.94845   0.72743617   -103.22101      31514.3    4.3324186    4.3324186    4.3324186      31514.3   -5406.2949    55021.958    44927.236   -14029.186   -2538.5749   -17460.453    81.318852 
   61000    1366.3589   -104.45975    1.2363102   -103.22344    18069.508    4.3386862    4.3386862    4.3386862    18069.508     3649.569    15683.039    34875.917    5266.2319    15421.404   -10751.142    81.672286 
   61100     1025.622   -104.15878    0.9280043   -103.23078     -31552.1    4.3570285    4.3570285    4.3570285     -31552.1    -58725.44   -21118.325   -14812.535   -26696.024   -22967.403   -4984.8817    82.712511 
   61200    1548.9961   -104.61487    1.4015642   -103.21331   -672.15344    4.3461196    4.3461196    4.3461196   -672.15344   -8606.7166    5241.9822    1348.2741    922.89504     6808.155    8655.8266     82.09279 
   61300    1262.3717   -104.36193    1.1422205   -103.21971   -22483.841    4.3400394    4.3400394    4.3400394   -22483.841   -53473.583   -8040.2899   -5937.6495   -21294.115   -24637.589    7461.3286    81.748731 
   61400    1216.6263   -104.32891    1.1008291   -103.22808    9352.1752    4.3432675    4.3432675    4.3432675    9352.1752    -34010.59    33675.366     28391.75    -6451.698    623.19733   -2276.0809     81.93128 
   61500    821.43911   -103.97319   0.74325537   -103.22993    10533.411    4.3565297    4.3565297    4.3565297    10533.411   -19620.234    4091.1325    47129.333    9606.6427    11264.182   -12181.752    82.684104 
   61600    856.07865   -103.99946   0.77459796   -103.22486    4974.9235    4.3517089    4.3517089    4.3517089    4974.9235    5207.1794    14324.408    -4606.817   -9906.4991    2329.5812   -1396.9748    82.409925 
   61700    1345.3471   -104.42559    1.2172983    -103.2083    22110.409    4.3421508    4.3421508    4.3421508    22110.409    71559.772   -11613.789    6385.2444    16455.899    13914.244   -5980.4432    81.868102 
   61800    970.39616   -104.10168   0.87803484   -103.22365   -22272.531    4.3470792    4.3470792    4.3470792   -22272.531   -34341.731   -7642.6834   -24833.178   -31318.704   -14234.386    3983.7626    82.147179 
   61900    1683.6972   -104.73771    1.5234446   -103.21426   -9213.3248    4.3537327    4.3537327    4.3537327   -9213.3248    19130.023   -14096.161   -32673.836    -5870.806   -4886.1667     3415.973    82.524955 
   62000    1469.3298   -104.54303    1.3294805   -103.21355   -37381.102    4.3562159    4.3562159    4.3562159   -37381.102   -23405.907    -52547.09   -36190.308   -23456.512     -20935.2   -1598.0383     82.66624 
   62100    743.04238   -103.88716   0.67232036   -103.21483    23779.385    4.3368012    4.3368012    4.3368012    23779.385    54570.573    27327.694   -10560.112   -8760.8976    -1179.839    10345.416    81.565884 
   62200     1914.346   -104.94393    1.7321405   -103.21179    1876.6026    4.3382491    4.3382491    4.3382491    1876.6026   -840.63344     16286.78   -9816.3389    16279.774    2829.2395   -7806.1563    81.647607 
   62300    672.11077    -103.8464   0.60813995   -103.23826     16975.27    4.3518528    4.3518528    4.3518528     16975.27    35596.288    26827.845   -11498.323   -31334.946   -8384.6304   -8870.8335    82.418098 
   62400    1539.1479    -104.6012    1.3926534   -103.20855   -9387.1547    4.3683206    4.3683206    4.3683206   -9387.1547   -355.47239   -34326.649    6520.6569    1023.4364     4709.906   -8653.0492    83.357273 
   62500    784.53323   -103.91576   0.70986215    -103.2059    25605.181    4.3387671    4.3387671    4.3387671    25605.181    61017.682   -5813.8623    21611.723   -36415.822   -28474.189    2520.9453    81.676856 
   62600    1079.5349   -104.18468   0.97678591    -103.2079    33541.557     4.335765     4.335765     4.335765    33541.557    4850.3358    5052.2814    90722.055   -10418.126   -13138.043    -16516.05    81.507432 
   62700    1315.5143   -104.40371     1.190305    -103.2134   -6805.8695    4.3546722    4.3546722    4.3546722   -6805.8695   -7699.5707   -23081.773    10363.735    -21677.07   -2694.7091   -8355.7807    82.578388 
   62800    974.62299   -104.09195   0.88185936   -103.21009      7638.01    4.3582844    4.3582844    4.3582844      7638.01     5246.109    26386.991   -8719.0696   -18965.479   -12303.892    2401.9243    82.784057 
   62900    1466.3319   -104.53017    1.3267679    -103.2034   -10379.855     4.353993     4.353993     4.353993   -10379.855   -27225.527   -18023.496    14109.457   -19617.877    16187.636    1295.9341    82.539754 
   63000    1210.9361   -104.30649    1.0956804   -103.21081   -8203.4341    4.3304521    4.3304521    4.3304521   -8203.4341   -5618.3732   -28210.379    9218.4495   -16666.056   -19904.836    1001.3522    81.208169 
   63100    1283.0061   -104.38971    1.1608909   -103.22882    5598.5533    4.3452903    4.3452903    4.3452903    5598.5533   -1283.8744    3466.2382    14613.296    4240.7112   -10595.558    981.90434    82.045804 
   63200    1133.6807   -104.24515    1.0257781   -103.21937   -21554.691    4.3615143    4.3615143    4.3615143   -21554.691   -15885.222   -34476.167   -14302.683   -30708.615   -6598.5453    3440.3371    82.968245 
   63300    1056.5894   -104.16445   0.95602433   -103.20842    19499.822     4.349446     4.349446     4.349446    19499.822    12060.278    62523.388     -16084.2   -3150.2906   -18799.874   -5234.0895    82.281429 
   63400    1158.5877   -104.25587    1.0483145   -103.20755   -1841.3757    4.3469931    4.3469931    4.3469931   -1841.3757   -21830.172    17048.869    -742.8241   -33112.545    16354.353      7662.81    82.142301 
   63500    1153.5649   -104.25642    1.0437698   -103.21265    12250.147    4.3427923    4.3427923    4.3427923    12250.147   -6777.2513    27547.638    15980.055    -5043.962   -16574.713    6564.3704     81.90439 
   63600    1628.6803   -104.69007    1.4736641    -103.2164   -38227.685    4.3621793    4.3621793    4.3621793   -38227.685   -47836.916   -28908.066   -37938.073    3693.0107    3217.1015    6656.7047    83.006204 
   63700    1236.3153   -104.33248     1.118644   -103.21384   -25097.203    4.3564211    4.3564211    4.3564211   -25097.203   -49866.482   -27369.638    1944.5117   -12765.186   -6282.9955    5785.9106    82.677922 
   63800    1528.4256   -104.58524    1.3829516   -103.20229    430.18725     4.347685     4.347685     4.347685    430.18725   -24761.612     55755.16   -29702.986    7620.9311    13741.065    14137.147    82.181531 
   63900    707.68358    -103.8557   0.64032697   -103.21537    11971.103    4.3551184    4.3551184    4.3551184    11971.103    28618.596    20882.495   -13587.783   -54134.183    1399.7495   -4458.1812    82.603773 
   64000    1217.3087   -104.30906    1.1014465   -103.20762    21087.447    4.3543222    4.3543222    4.3543222    21087.447    58417.612    26278.834   -21434.104   -11434.808    2397.1354    10682.922    82.558477 
   64100    1031.0602   -104.14715   0.93292496   -103.21422    5961.8145    4.3500212    4.3500212    4.3500212    5961.8145    17401.042   -21384.377    21868.779   -30279.195    7991.3821    4745.9084    82.314081 
   64200    1345.9267   -104.43039    1.2178228   -103.21257   -19276.046    4.3487115    4.3487115    4.3487115   -19276.046   -38606.006    3999.5254   -23221.656   -5071.0574   -3522.6992    10223.306    82.239751 
   64300    1440.4592   -104.51616    1.3033577   -103.21281    1210.8433    4.3400327    4.3400327    4.3400327    1210.8433    15934.291   -27312.558    15010.797   -772.47282    6906.4638    11158.753    81.748353 
   64400    835.53745   -103.98827   0.75601184   -103.23225   -6748.7673      4.35797      4.35797      4.35797   -6748.7673   -17958.007    8748.6185   -11036.913   -23895.144    1009.5375    7876.7845    82.766139 
   64500    1285.9728   -104.37539    1.1635752   -103.21181    1986.2819    4.3582837    4.3582837    4.3582837    1986.2819    32198.779    24627.896    -50867.83   -12473.283    3903.5736    20491.818    82.784018 
   64600    704.49616   -103.85457   0.63744293   -103.21712    6934.5482    4.3540365    4.3540365    4.3540365    6934.5482   -19592.289    26778.629    13617.305   -29624.669    19738.195    9602.4797    82.542231 
   64700    1251.2726   -104.32722    1.1321777   -103.19504    16524.544    4.3486781    4.3486781    4.3486781    16524.544    47593.503    2765.5644   -785.43464   -3332.2085    11988.612    25686.481    82.237859 
   64800    1093.6251   -104.19763   0.98953496    -103.2081   -11670.784    4.3565042    4.3565042    4.3565042   -11670.784   -30473.597   -20969.306    16430.551   -5558.8413    3691.1336    9028.5351    82.682657 
   64900    1152.1871   -104.24354    1.0425231   -103.20101   -13386.899    4.3632874    4.3632874    4.3632874   -13386.899   -5520.9729   -14783.424   -19856.299    10152.558   -16986.442    16692.498    83.069475 
   65000    949.02824   -104.05503    0.8587007   -103.19633    23995.428    4.3401946    4.3401946    4.3401946    23995.428    53612.574   -16681.962    35055.672    2613.6164   -13687.967    11833.133    81.757499 
   65100    1072.3687    -104.1849   0.97030178    -103.2146   -5554.6441    4.3454274    4.3454274    4.3454274   -5554.6441    11996.919   -29096.441    435.59008   -18093.689    854.42207    8073.8074    82.053573 
   65200    1288.5251   -104.38771    1.1658846   -103.22182    2856.1186    4.3570362    4.3570362    4.3570362    2856.1186    36056.754   -32877.267     5388.869   -7048.0569    11055.362    5178.5976    82.712947 
   65300    953.70829   -104.09651   0.86293531   -103.23358   -15888.171    4.3515241    4.3515241    4.3515241   -15888.171   -5796.6433   -49049.791    7181.9212   -28867.559    20705.502     2763.299    82.399427 
   65400    1447.9641   -104.53581    1.3101483   -103.22566    25946.544    4.3370979    4.3370979    4.3370979    25946.544    58871.877    10527.621    8440.1357    17333.803    7361.4883    2811.2531    81.582628 
   65500    1055.3415    -104.1935   0.95489513   -103.23861   -8527.6725    4.3514494    4.3514494    4.3514494   -8527.6725      17006.9   -46102.276    3512.3587   -9425.4226   -1912.8381   -6548.9529    82.395179 
   65600    1172.1952    -104.2911    1.0606268   -103.23047   -14541.694      4.35991      4.35991      4.35991   -14541.694     12739.31   -39474.248   -16890.144    13145.969    909.95526     1754.252    82.876724 
   65700    1760.8626   -104.81858    1.5932655   -103.22531   -10882.782    4.3466465    4.3466465    4.3466465   -10882.782    11939.447   -38380.859    -6206.934   -15532.022   -19213.107   -4417.1755    82.122654 
   65800    726.70612   -103.90241   0.65753897   -103.24488   -3019.1621    4.3386838    4.3386838    4.3386838   -3019.1621     23529.26     -26894.4    -5692.346   -21663.569    17420.497   -2379.3525    81.672152 
   65900    1259.2675   -104.38023    1.1394117   -103.24082    13115.156    4.3490625    4.3490625    4.3490625    13115.156    37996.793    12719.459   -11370.785    2035.0955   -7455.5456   -2658.3234    82.259667 
   66000    1046.0316   -104.18416   0.94647137   -103.23769   -37187.223    4.3657171    4.3657171    4.3657171   -37187.223   -38211.342   -32817.698   -40532.631     -11184.3    4721.6171    -8633.393    83.208324 
   66100    1484.2697   -104.56982    1.3429984   -103.22682   -3760.2307    4.3427457    4.3427457    4.3427457   -3760.2307   -2037.8775    13658.658   -22901.473    3987.3322    17502.571    353.93701    81.901754 
   66200    1021.9976   -104.15369   0.92472487   -103.22897     21788.52    4.3251509    4.3251509    4.3251509     21788.52    86655.987   -17536.782   -3753.6444    607.68076    2285.1993   -8864.4037    80.910297 
   66300    1010.7553   -104.15953   0.91455267   -103.24497   -22395.622    4.3488954    4.3488954    4.3488954   -22395.622   -15054.066    -33019.93   -19112.869   -31073.145    14571.669   -6943.5954    82.250188 
   66400    1654.3636   -104.73024     1.496903   -103.23334   -6777.7193    4.3463295    4.3463295    4.3463295   -6777.7193    25230.821    -26230.51   -19333.469    7847.4146   -2256.5717   -39.519535    82.104687 
   66500    1083.6707   -104.22801   0.98052801   -103.24748   -16221.961    4.3452911    4.3452911    4.3452911   -16221.961    17101.028   -44751.482   -21015.429   -7162.1142   -10805.888   -2824.5951     82.04585 
   66600     1335.169    -104.4468     1.208089   -103.23871    6232.9253    4.3385981    4.3385981    4.3385981    6232.9253    63950.929   -17213.204   -28038.949    9424.2547    10797.806    8159.1454    81.667311 
   66700    1206.4619   -104.33203    1.0916321    -103.2404   -6229.2772    4.3473936    4.3473936    4.3473936   -6229.2772    2430.4448   -3397.6285   -17720.648    -12271.24   -13135.543   -10271.913    82.165003 
   66800    863.98877   -104.01242    0.7817552   -103.23067   -2108.9614    4.3532913    4.3532913    4.3532913   -2108.9614     54113.79   -42911.615   -17529.059   -5156.0336    18379.576      18525.3    82.499857 
   66900    1599.1357   -104.66341    1.4469316   -103.21647   -16621.816    4.3444108    4.3444108    4.3444108   -16621.816    4563.0443   -16539.689   -37888.805    -3500.542    672.81455   -3313.0179       81.996 
   67000    673.59436   -103.83838   0.60948233   -103.22889    24733.501    4.3390386    4.3390386    4.3390386    24733.501    97246.043   -44521.371    21475.833    6114.6806   -20232.348     2952.083    81.692189 
   67100    1177.6898   -104.30809    1.0655985   -103.24249   -14059.584    4.3443163    4.3443163    4.3443163   -14059.584    18407.547   -30164.285   -30422.014   -9592.5172    13632.258    14361.504    81.990647 
   67200    1459.5613   -104.56463    1.3206418   -103.24399   -10582.011    4.3482062    4.3482062    4.3482062   -10582.011   -12922.908   -34969.933    16146.807    6949.2759   -3548.4552   -8093.4907    82.211085 
   67300    661.42288   -103.84637   0.59846932    -103.2479   -19558.023    4.3513763    4.3513763    4.3513763   -19558.023    45935.471   -57140.229   -47469.311   -16903.788    21824.192    29023.007     82.39103 
   67400    1465.6067   -104.54126    1.3261117   -103.21514     3347.179    4.3326325    4.3326325    4.3326325     3347.179    883.47679   -8356.9481    17515.008    4489.5998    3142.5218   -4755.4249    81.330895 
   67500    906.47193   -104.05762   0.82019485   -103.23743   -23401.772    4.3472396    4.3472396    4.3472396   -23401.772    -14342.51   -59133.741    3270.9346   -4760.0533   -1467.1224    33096.678    82.156272 
   67600    1381.9899   -104.48095    1.2504535    -103.2305   -29281.151    4.3505086    4.3505086    4.3505086   -29281.151   -4445.5462       -33901   -49496.906   -1666.5569    5054.8464    20471.936    82.341753 
   67700    1029.8928   -104.15564   0.93186864   -103.22377     6999.216    4.3413758    4.3413758    4.3413758     6999.216    56052.625   -36797.841     1742.864    5203.7138   -11001.629    3064.6852    81.824271 
   67800    1022.4913   -104.15596   0.92517165   -103.23079   -21933.305    4.3459276    4.3459276    4.3459276   -21933.305    21904.927   -52688.751   -35016.092   -9765.4185   -7618.2401    29116.747    82.081911 
   67900    1328.0993   -104.42624    1.2016921   -103.22455     20201.16     4.340482     4.340482     4.340482     20201.16    54384.286    -3590.969    9810.1636    3067.9317    11695.149   -21398.878    81.773744 
   68000    1156.7723   -104.27621    1.0466718   -103.22954   -26400.672    4.3475406    4.3475406    4.3475406   -26400.672   -23126.775   -43682.738   -12392.501   -14182.899   -9235.3649    32489.128    82.173339 
   68100    1170.0801   -104.28433    1.0587131   -103.22562    2499.8054    4.3422166    4.3422166    4.3422166    2499.8054    18007.046   -11040.504    532.87422    1539.9159   -3365.6466   -20552.313    81.871822 
   68200    1338.8852   -104.44218    1.2114515   -103.23073   -6749.9806    4.3469317    4.3469317    4.3469317   -6749.9806    9901.0843   -1064.8773   -29086.149   -2494.9669   -2318.4504     15614.21    82.138819 
   68300    980.42153   -104.12379   0.88710601   -103.23668   -557.22503    4.3435699    4.3435699    4.3435699   -557.22503    52095.507   -49511.774   -4255.4077    -3386.286    4214.3479    2011.5622    81.948393 
   68400    1091.5214   -104.23013   0.98763149    -103.2425    4273.1471    4.3441729    4.3441729    4.3441729    4273.1471    17024.649   -839.91718   -3365.2902    3845.5546     13110.16   -14227.471    81.982528 
   68500    1640.9821   -104.71984    1.4847951   -103.23505   -11662.761    4.3457521    4.3457521    4.3457521   -11662.761    28978.045   -28620.777   -35345.551    3559.1011    2432.9645    23266.795    82.071969 
   68600    698.12827    -103.8762   0.63168113   -103.24452    7553.5387    4.3428951    4.3428951    4.3428951    7553.5387     23728.03   -18281.502    17214.088   -2213.6938   -4977.7595   -27016.524    81.910203 
   68700    1452.1608   -104.54378    1.3139456   -103.22984    770.09317    4.3488252    4.3488252    4.3488252    770.09317    60632.273   -18413.402   -39908.592    12065.502    13740.076     10936.04    82.246204 
   68800    911.71164   -104.06622   0.82493585   -103.24129    16015.896    4.3327922    4.3327922    4.3327922    16015.896    18130.775    19992.757    9924.1556   -13871.202   -7043.3481   -17485.246     81.33989 
   68900    1466.5712   -104.57149    1.3269844    -103.2445   -7837.4578    4.3436539    4.3436539    4.3436539   -7837.4578   -10865.352   -10797.322   -1849.6996    2285.8474    7227.9865   -7960.9684    81.953148 
   69000    1084.4015   -104.21093   0.98118925   -103.22974    5898.4372    4.3528851    4.3528851    4.3528851    5898.4372    42226.132     8983.721   -33514.542      5752.08   -6206.1066   -7022.8303    82.476764 
   69100    1123.5516   -104.23626    1.0166131   -103.21964   -10111.315    4.3435109    4.3435109    4.3435109   -10111.315   -24976.894   -20954.096    15597.046   -3354.6984    315.78361   -5079.3386    81.945057 
   69200    1419.3502    -104.4929    1.2842579   -103.20865    11177.976    4.3471537    4.3471537    4.3471537    11177.976    39179.625    14829.909   -20475.607    1807.3274    4968.8709   -3121.8768    82.151406 
   69300    1019.7541   -104.14017   0.92269491   -103.21748   -13525.112    4.3425693    4.3425693    4.3425693   -13525.112     21151.86   -37426.731   -24300.466   -6493.5782   -4868.9857   -14587.459    81.891773 
   69400    1176.2344   -104.28665    1.0642816   -103.22237    13790.137    4.3435931    4.3435931    4.3435931    13790.137    51909.559   -1557.3113   -8981.8361    1367.0996   -6980.2485    7679.4876    81.949709 
   69500    1329.7926   -104.43143    1.2032243   -103.22821    -21568.71    4.3502041    4.3502041    4.3502041    -21568.71    14899.392    -28258.99   -51346.533   -16228.325   -5445.5073   -22959.938    82.324465 
   69600    1027.5517   -104.16207   0.92975038   -103.23232   -3048.2251    4.3394825    4.3394825    4.3394825   -3048.2251    50976.291   -53559.095   -6561.8715    3073.8208    6718.4577    7750.1196    81.717264 
   69700    1426.9889   -104.52529    1.2911695   -103.23413   -10920.431    4.3471732    4.3471732    4.3471732   -10920.431    15676.249    -26072.49   -22365.051   -5393.9573    8233.2011   -1690.7518    82.152507 
   69800     777.4652   -103.93171   0.70346685   -103.22824    8300.2969    4.3503043    4.3503043    4.3503043    8300.2969    54604.385   -33497.082    3793.5879   -4777.5122   -95.004681   -21319.697    82.330151 
   69900    1400.0054   -104.48316    1.2667543    -103.2164    -23706.93    4.3494211    4.3494211    4.3494211    -23706.93    3866.0875   -51443.726   -23543.153   -3693.8034    -4021.625    19581.335    82.280017 
   70000    1143.4207   -104.25395    1.0345911   -103.21936    11859.761     4.350459     4.350459     4.350459    11859.761    46025.206   -6575.3967   -3870.5262   -1444.4739   -18033.638   -22992.659    82.338934 
   70100    1184.9914   -104.30199    1.0722051   -103.22979   -17224.691    4.3501161    4.3501161    4.3501161   -17224.691   -4624.4072   -30605.941   -16443.725   -4973.5399   -6607.2324    12776.016    82.319463 
   70200    983.25057   -104.12367   0.88966578     -103.234    20427.408    4.3486416    4.3486416    4.3486416    20427.408    56048.277    34150.493   -28916.547   -7968.2873    7774.6775   -3783.9097    82.235789 
   70300    1324.0226   -104.43445    1.1980034   -103.23645   -21956.097    4.3524309    4.3524309    4.3524309   -21956.097   -49006.777   -33668.947    16807.432    9774.1995   -6569.6194    5456.1529     82.45095 
   70400    1081.9483   -104.19925    0.9789696   -103.22028    21377.801    4.3533661    4.3533661    4.3533661    21377.801    52756.759    19871.073   -8494.4292   -20876.491    984.68468     13824.42    82.504108 
   70500    1124.2134   -104.22351    1.0172119    -103.2063    5739.5083    4.3552436    4.3552436    4.3552436    5739.5083    7020.8508   -8686.0835    18883.758   -6024.7822   -1293.0747   -9463.9194      82.6109 
   70600      1463.17   -104.52492    1.3239069   -103.20101   -19972.302    4.3545667    4.3545667    4.3545667   -19972.302    -14485.85   -31717.423   -13713.632    12413.253   -5484.4037    24978.403    82.572389 
   70700    1269.9456   -104.35545    1.1490735   -103.20638    21289.471    4.3460179    4.3460179    4.3460179    21289.471    42729.799    35420.734    -14282.12   -8988.2155   -289.96789    -9576.893    82.087026 
   70800    1390.5136   -104.48363    1.2581659   -103.22546    -19074.46    4.3447524    4.3447524    4.3447524    -19074.46   -30423.495   -31150.504    4350.6187    7094.5604   -12600.262    10962.903     82.01534 
   70900    1309.5426   -104.41313    1.1849016   -103.22823    494.31614    4.3656339    4.3656339    4.3656339    494.31614     2511.534    30541.531   -31570.116   -14602.129   -10010.857    6693.0289    83.203566 
   71000    1171.5677   -104.26849    1.0600591   -103.20843   -25077.666    4.3679381    4.3679381    4.3679381   -25077.666   -40434.368   -25621.069   -9177.5617    -3115.728    6692.1825     6090.436    83.335382 
   71100     1147.044   -104.23337    1.0378695   -103.19551    18353.995     4.342407     4.342407     4.342407    18353.995    67267.732     17098.21   -29303.957    10994.131   -2836.3435    6682.6451     81.88259 
   71200    1329.5525   -104.41717     1.203007   -103.21416     8635.581    4.3400624    4.3400624    4.3400624     8635.581    4587.8666    18989.895    2328.9819   -20537.147    21438.591   -1780.6839    81.750031 
   71300    1112.3567   -104.24498    1.0064837    -103.2385   -12004.708    4.3634215    4.3634215    4.3634215   -12004.708   -32892.875    17450.572    -20571.82    7518.8018    3911.3075    8888.1947    83.077131 
   71400    1507.0192   -104.57518    1.3635826    -103.2116   -11532.867    4.3664161    4.3664161    4.3664161   -11532.867    -36244.03    15566.655   -13921.225   -7213.2237    14115.766    618.96784    83.248296 
   71500    982.50089   -104.10189   0.88898746    -103.2129    2643.4852    4.3405983    4.3405983    4.3405983    2643.4852    16424.687   -16352.349    7858.1175   -2487.9077   -1373.6405    12315.789    81.780317 
   71600    1648.1863   -104.71606    1.4913136   -103.22475    5550.8472    4.3421631    4.3421631    4.3421631    5550.8472    12110.233    22736.219    -18193.91     4702.072   -7274.9389   -421.51762    81.868795 
   71700    683.37438    -103.8579    0.6183315   -103.23956   -4627.2161    4.3637039    4.3637039    4.3637039   -4627.2161    10768.976    11479.662   -36130.286    -25423.83    3020.3589   -163.74042    83.093263 
   71800    902.05152   -104.04403   0.81619517   -103.22783    9881.5833    4.3403623    4.3403623    4.3403623    9881.5833    18994.629     26666.69   -16016.569     -334.362   -12163.838    12736.053     81.76698 
   71900    1640.0598   -104.70936    1.4839606    -103.2254    538.41532    4.3395053    4.3395053    4.3395053    538.41532    18018.288    11249.201   -27652.242    12156.815     3005.151   -6563.4453    81.718554 
   72000    997.21486   -104.13488   0.90230096   -103.23258   -22670.164    4.3546856    4.3546856    4.3546856   -22670.164   -21481.142   -3000.9691    -43528.38    20.053289   -2111.1906    21230.327    82.579153 
   72100    1250.5163   -104.35695    1.1314934   -103.22546   -349.23767    4.3514107    4.3514107    4.3514107   -349.23767   -2911.9128    21307.151   -19442.952    11118.022    2764.8823    736.88949    82.392982 
   72200    1239.8639   -104.34976    1.1218549    -103.2279   -901.58707    4.3432749    4.3432749    4.3432749   -901.58707    17384.107    30490.499   -50579.367   -24856.334    1771.5074    12540.551    81.931698 
   72300    1184.8666   -104.30352    1.0720922   -103.23143   -997.26796    4.3488451    4.3488451    4.3488451   -997.26796    11363.324    19045.625   -33400.752    7966.3039   -12648.286   -1433.3211    82.247332 
   72400    1380.2776   -104.46646    1.2489042   -103.21756    -23260.27    4.3591693    4.3591693    4.3591693    -23260.27    6452.5723    -35486.38   -40747.002    1199.8913   -1767.8278   -14410.695    82.834492 
   72500    1432.6537   -104.50114    1.2962952   -103.20484   -9114.3747     4.356824     4.356824     4.356824   -9114.3747    6515.8758    3783.0963   -37642.096   -2455.3374   -19598.941   -1663.0562    82.700866 
   72600    1387.9382   -104.45131    1.2558357   -103.19547   -5787.3635    4.3491422    4.3491422    4.3491422   -5787.3635   -5641.3709    11074.052   -22794.771    7167.4336    7271.4339   -16615.012    82.264188 
   72700    1120.0016   -104.21323     1.013401   -103.19983     14907.45     4.342555     4.342555     4.342555     14907.45    37322.092    -12360.91    19761.168   -9476.8119   -9214.4146    10142.048    81.890962 
   72800    1012.3122   -104.12815   0.91596137   -103.21219    16141.767    4.3550157    4.3550157    4.3550157    16141.767    33777.151    18814.734   -4166.5852   -12901.895     14578.52   -8929.3293     82.59793 
   72900    1015.6466   -104.13759   0.91897843   -103.21861    13537.294    4.3519865    4.3519865    4.3519865    13537.294     27049.15   -5643.9987    19206.732   -11734.568    3858.8104    12383.613    82.425696 
   73000    1274.8995    -104.3716    1.1535559   -103.21805    4901.8508    4.3373724    4.3373724    4.3373724    4901.8508    12522.585    7592.4385   -5409.4705   -7615.7235    -983.0083    796.52567    81.598116 
   73100    1117.7086   -104.24186    1.0113262   -103.23054    5177.2727    4.3427176    4.3427176    4.3427176    5177.2727   -93.682607    1266.5742    14358.927    5581.6029     3203.132   -13364.949    81.900161 
   73200    1383.8821   -104.47532    1.2521656   -103.22316   -13066.693    4.3555562    4.3555562    4.3555562   -13066.693    42063.804   -46648.215   -34615.668   -5430.7963   -10969.296    10511.784    82.628691 
   73300    1156.7513   -104.26372    1.0466529   -103.21707   -6883.9227    4.3473785    4.3473785    4.3473785   -6883.9227    -15792.27    -22557.26    17697.762     2304.403    12140.931   -24859.545    82.164151 
   73400    1252.8076   -104.34821    1.1335666   -103.21464    6518.0429    4.3425089    4.3425089    4.3425089    6518.0429    8882.4977   -4890.7027    15562.334    -13377.24    13535.423    14363.162    81.888354 
   73500    1125.2633   -104.23943    1.0181619   -103.22126   -1488.4113    4.3504368    4.3504368    4.3504368   -1488.4113   -15881.226    1806.6969    9609.2947   -16722.101   -37.720444   -3312.4324    82.337675 
   73600    1065.6373   -104.18782   0.96421105   -103.22361    1920.0495    4.3482375    4.3482375    4.3482375    1920.0495   -17267.379    61711.561   -38684.034    16772.296    9626.8281    453.38862    82.212864 
   73700    1255.1554   -104.35922     1.135691   -103.22353   -4529.5361    4.3438613    4.3438613    4.3438613   -4529.5361   -8619.6637     1477.784   -6446.7287    5175.6856   -5302.0183   -3338.0667     81.96489 
   73800    1285.9238   -104.38888    1.1635309   -103.22535   -16730.464    4.3437768    4.3437768    4.3437768   -16730.464   -14059.314   -7700.9776   -28431.099    7541.6474    5255.4456   -20694.279    81.960103 
   73900    1267.1044   -104.37247    1.1465027   -103.22597   -17742.451     4.355876     4.355876     4.355876   -17742.451   -8286.7772   -15232.988   -29707.587   -1158.2212    7882.0603    15793.509    82.646893 
   74000    1000.6522   -104.13159   0.90541112   -103.22618    1495.3242    4.3462556    4.3462556    4.3462556    1495.3242   -21799.489    22995.108    3290.3545   -16021.554   -5557.3754   -4209.7386    82.100497 
   74100     1051.299   -104.17786   0.95123742   -103.22662    15545.305    4.3306913    4.3306913    4.3306913    15545.305    43013.312    31905.136   -28282.534    13704.348   -2531.1964   -5597.2748    81.221624 
   74200    1430.6419   -104.53101    1.2944749   -103.23653   -17103.193    4.3442285    4.3442285    4.3442285   -17103.193   -10834.209   -28478.833   -11996.537    1666.5096   -7200.0839     11074.82    81.985677 
   74300    1333.1721   -104.44102    1.2062821   -103.23473   -15447.898    4.3548861    4.3548861    4.3548861   -15447.898    2053.4199   -13964.545   -34432.569   -7871.2005   -8568.8895   -18188.386    82.590561 
   74400    1068.1359   -104.19014   0.96647183   -103.22367   -22203.368    4.3560616    4.3560616    4.3560616   -22203.368   -26680.867   -19058.737     -20870.5    4430.9196    7954.2844    9072.3547    82.657455 
   74500    1093.5168   -104.19959   0.98943696   -103.21015    26982.705    4.3294965    4.3294965    4.3294965    26982.705    43484.871    50657.249   -13194.006    -9665.438    9229.4469   -10242.527    81.154421 
   74600     1291.874   -104.40444    1.1689147   -103.23553   -7349.8523    4.3445556    4.3445556    4.3445556   -7349.8523    7167.6015    4558.8911    -33776.05    27111.544    3879.0301    12271.182    82.004196 
   74700    1265.5308   -104.37437    1.1450789   -103.22929   -1764.9806    4.3597085    4.3597085    4.3597085   -1764.9806    38876.427   -43261.523   -909.84634   -11450.044    7927.8041     -7679.95    82.865235 
   74800    1022.5403   -104.14923   0.92521596   -103.22402   -100.70422     4.355246     4.355246     4.355246   -100.70422    29944.209   -31410.761    1164.4396    7.9690496   -5785.4278    2556.3868    82.611037 
   74900    1662.4605    -104.7149    1.5042292   -103.21067    -14551.77    4.3342253    4.3342253    4.3342253    -14551.77    7376.3102   -28263.866   -22767.756    6490.9222    563.55429     4872.624    81.420627 
   75000    1200.4978   -104.31181    1.0862356   -103.22557    15375.238    4.3408738    4.3408738    4.3408738    15375.238    16471.012    16665.997    12988.707   -12547.411   -1085.3694   -11080.408     81.79589 
   75100     784.1431   -103.93204   0.70950916   -103.22253    2412.8884    4.3641671    4.3641671    4.3641671    2412.8884    8592.6519    12630.854   -13984.841    9217.2874   -15634.696     21134.48    83.119729 
   75200    1242.8749   -104.32985    1.1245793   -103.20527    5310.3376    4.3469025    4.3469025    4.3469025    5310.3376    -2783.061    20165.527   -1451.4535   -21852.135    6676.7299   -17815.925    82.137161 
   75300    1480.8666   -104.54216    1.3399193   -103.20224   -4195.5324    4.3373592    4.3373592    4.3373592   -4195.5324    19855.471   -22184.684   -10257.384    12169.279    1699.5637    11884.067    81.597373 
   75400    1122.6116   -104.23241    1.0157626   -103.21665    13049.086    4.3450365    4.3450365    4.3450365    13049.086    14070.214    1595.9844     23481.06    1869.7492    798.44505   -4551.4122    82.031432 
   75500    1080.9564   -104.19946   0.97807211   -103.22138   -7500.5493    4.3579854    4.3579854    4.3579854   -7500.5493   -7592.0998    8729.2351   -23638.783    -4838.001      415.311    7705.3106    82.767021 
   75600     1135.465   -104.24616    1.0273926   -103.21877    15269.219    4.3368892    4.3368892    4.3368892    15269.219   -12318.847     77533.12   -19406.616    10422.746     5201.158    22607.604    81.570849 
   75700    1496.0085   -104.58122    1.3536199    -103.2276   -5655.3929    4.3390303    4.3390303    4.3390303   -5655.3929    15495.512   -23393.613   -9068.0776   -5160.7913   -1584.9236   -18699.459    81.691723 
   75800    1019.8548   -104.15293   0.92278602   -103.23015   -15256.185    4.3578335    4.3578335    4.3578335   -15256.185   -6001.4071    2215.5765   -41982.725    17771.422    10430.343    11376.624    82.758362 
   75900    1392.2986   -104.46899    1.2597811   -103.20921    5383.8966    4.3538837    4.3538837    4.3538837    5383.8966    4676.5022    25578.858   -14103.671    12051.042   -7949.2317   -23681.965    82.533542 
   76000    866.13408   -103.98852   0.78369632   -103.20483    10448.092    4.3479711    4.3479711    4.3479711    10448.092    22094.233    28843.748   -19593.705   -2424.8358    3135.2972     4437.835    82.197753 
   76100    1096.0771   -104.20291   0.99175362   -103.21116   -6491.4351    4.3412917    4.3412917    4.3412917   -6491.4351    -12962.04    9055.8872   -15568.153    9787.2444   -12796.341   -220.22393    81.819518 
   76200    1409.2907   -104.49674    1.2751558   -103.22159    16051.516    4.3423123    4.3423123    4.3423123    16051.516    51748.551   -1014.9788   -2579.0242   -2305.1826     2058.363   -7401.1131    81.877234 
   76300    1137.7942   -104.26927    1.0295001   -103.23977   -44273.344    4.3486704    4.3486704    4.3486704   -44273.344   -29218.238   -41310.549   -62291.244     7695.355   -7183.6146    26886.676    82.237421 
   76400    1497.0715   -104.59208    1.3545817    -103.2375    9245.1094    4.3388469    4.3388469    4.3388469    9245.1094    -7862.063    20417.971     15179.42    8512.1214    9141.5155   -11844.445    81.681365 
   76500    830.57192   -103.99754   0.75151893   -103.24603    2090.5982    4.3482898    4.3482898    4.3482898    2090.5982    24554.878    37232.844   -55515.927   -14595.403   -18255.711    17514.396    82.215829 
   76600    1047.8068   -104.18928   0.94807764    -103.2412   -5132.2416     4.343176     4.343176     4.343176   -5132.2416   -231.35713    12558.997   -27724.365     18992.26     10202.82    9084.6987    81.926099 
   76700    1643.5267   -104.71554    1.4870975   -103.22844   -3503.1278    4.3403356    4.3403356    4.3403356   -3503.1278   -11011.749    22999.111   -22496.746    5735.4996   -13660.274    5990.9828    81.765467 
   76800    815.00815   -103.97695    0.7374365   -103.23951   -26583.734    4.3497752    4.3497752    4.3497752   -26583.734   -3396.8703   -30411.869   -45942.463    6948.5543   -1394.2028    30120.538    82.300117 
   76900    1316.0976   -104.42554    1.1908328   -103.23471    9924.1652    4.3442294    4.3442294    4.3442294    9924.1652   -13779.533    67173.959    -23621.93    25850.739   -3213.6636   -1146.9762    81.985728 
   77000    1277.0414   -104.39546    1.1554939   -103.23996   -18155.074    4.3491278    4.3491278    4.3491278   -18155.074   -34064.347    35319.761   -55720.637   -6738.1603   -7489.6349    13441.839    82.263372 
   77100    990.76586   -104.13013   0.89646577   -103.23366    5652.2806     4.339543     4.339543     4.339543    5652.2806    51775.531   -18954.001   -15864.688    16199.689     13219.91    715.10832    81.720684 
   77200    1324.3731   -104.43686    1.1983206   -103.23854   -5310.8622    4.3423074    4.3423074    4.3423074   -5310.8622    5008.2988   -3792.8744   -17148.011   -6817.5668    2650.5503    2315.7865     81.87696 
   77300    1169.5617   -104.30889     1.058244   -103.25065   -12249.947     4.348026     4.348026     4.348026   -12249.947   -27239.323    22417.513   -31928.033      1689.22    6204.9316    10107.355    82.200867 
   77400    835.66636   -103.99734   0.75612848   -103.24122    17180.843    4.3571874    4.3571874    4.3571874    17180.843    15360.918    55064.285   -18882.675     14249.45   -7446.9127    560.14582    82.721563 
   77500    1154.7583   -104.27584    1.0448496   -103.23099   -15855.818    4.3536642    4.3536642    4.3536642   -15855.818   -5861.2987   -1170.2482   -40535.907   -13953.235    14951.826    14273.388    82.521056 
   77600    1641.1777    -104.7094    1.4849721   -103.22443   -11680.247    4.3409665    4.3409665    4.3409665   -11680.247   -9310.1839   -16888.426   -8842.1321    28902.294   -13823.746   -3548.1569    81.801132 
   77700    1109.8077   -104.24751    1.0041774   -103.24333    7936.8058    4.3427723    4.3427723    4.3427723    7936.8058    29135.061     3210.342   -8534.9856   -5401.4501    13128.426    2460.2418    81.903259 
   77800    1056.1591   -104.20697   0.95563494   -103.25133   -3908.9711    4.3567035    4.3567035    4.3567035   -3908.9711    23000.817    10261.107   -44988.837    1940.9223    -287.5016    10237.816    82.694001 
   77900    1383.4692   -104.48593     1.251792   -103.23414    4975.2856    4.3458582    4.3458582    4.3458582    4975.2856    -20366.67    45111.802   -9819.2743    -4032.768    8872.8045   -8271.7192    82.077978 
   78000    703.58641   -103.87732   0.63661977    -103.2407    21993.369    4.3492954    4.3492954    4.3492954    21993.369     93624.27   -8960.5516   -18683.612   -19358.989    9034.4955    20568.718    82.272885 
   78100    1703.7335   -104.76888    1.5415739    -103.2273   -17046.686    4.3563757    4.3563757    4.3563757   -17046.686    27058.978   -32440.663   -45758.371    2783.7059    5016.0543    -16467.76    82.675336 
   78200    1123.7937    -104.2517    1.0168321   -103.23487   -6524.7021    4.3412963    4.3412963    4.3412963   -6524.7021    26859.368   -28619.235    -17814.24   -6477.0126     3007.584    19284.867    81.819774 
   78300    1472.5763   -104.57247     1.332418   -103.24006   -10221.471    4.3482386    4.3482386    4.3482386   -10221.471    37148.257   -35009.575   -32803.097   -8746.3557   -63.218136   -2482.8142    82.212927 
   78400     1150.046   -104.27571    1.0405858   -103.23513     4842.364    4.3582905    4.3582905    4.3582905     4842.364     65216.31   -24742.395   -25946.823    9010.4284   -3402.6649    2241.8416    82.784405 
   78500     1315.341   -104.42636    1.1901482   -103.23621    -19097.73    4.3512661    4.3512661    4.3512661    -19097.73   -21348.855   -580.38353   -35363.953   -16415.434     12836.73    12913.201    82.384771 
   78600    1428.6097   -104.52415    1.2926361   -103.23152    26249.448    4.3385315    4.3385315    4.3385315    26249.448    51661.183    15060.894    12026.266    7330.1558    11118.886   -15832.506     81.66355 
   78700     847.5293   -104.01626   0.76686232    -103.2494    5254.0557    4.3462115    4.3462115    4.3462115    5254.0557    20360.843    22276.112   -26874.788   -11300.334    6897.5411    24094.963    82.097997 
   78800    1241.2355   -104.35494     1.123096   -103.23184    4274.2965    4.3643534    4.3643534    4.3643534    4274.2965     28408.04   -7078.7377   -8506.4126   -14691.349    10140.705   -10971.627    83.130375 
   78900    1075.7174   -104.19666   0.97333175   -103.22332   -7518.0831    4.3555935    4.3555935    4.3555935   -7518.0831    38870.697   -21747.809   -39677.137   -4723.8821   -6035.9485    30275.809    82.630811 
   79000    1384.2163   -104.46385     1.252468   -103.21138    16721.047    4.3374427    4.3374427    4.3374427    16721.047   -9081.9217    30583.254    28661.809   -5423.7046    2954.2832   -8942.9674    81.602084 
   79100    1251.6399   -104.36002    1.1325101   -103.22751   -23590.258    4.3630748    4.3630748    4.3630748   -23590.258    29938.532   -42524.249   -58185.058   -902.88427    -1910.836    23142.526    83.057334 
   79200    1067.8724   -104.19048    0.9662334   -103.22425    -3179.988    4.3549354    4.3549354    4.3549354    -3179.988    -31428.58     53960.36   -32071.744     1373.973    7783.9548    15668.733    82.593362 
   79300    1123.3031   -104.23552    1.0163882   -103.21913    18158.733    4.3488246    4.3488246    4.3488246    18158.733    81534.094   -2966.9052    -24090.99   -16938.028    6214.9132     10371.55    82.246168 
   79400    975.61668   -104.10331   0.88275848   -103.22055   -2712.6493    4.3546936    4.3546936    4.3546936   -2712.6493    -23557.85     72093.11   -56673.208   -6921.5947    7681.5969    29547.144    82.579605 
   79500     1388.941   -104.47325     1.256743   -103.21651    1738.9121    4.3544122    4.3544122    4.3544122    1738.9121    16357.539    8125.8173    -19266.62    9371.0302    5153.2981   -7414.8654    82.563602 
   79600    923.48494   -104.06874   0.83558859   -103.23315   -3820.3008    4.3547022    4.3547022    4.3547022   -3820.3008   -20934.971    58196.381   -48722.312    20043.296    83.176239    21350.603    82.580093 
   79700    1402.3839   -104.49882    1.2689065   -103.22991   -4777.3534    4.3516965    4.3516965    4.3516965   -4777.3534   -9558.5739    21503.828   -26277.315   -30714.741    8447.3541   -6534.6668    82.409217 
   79800     792.7304     -103.951   0.71727913   -103.23372    5887.9065    4.3389597    4.3389597    4.3389597    5887.9065    49440.427   -6863.9777    -24912.73   -3541.1967   -5759.0022    17098.074    81.687733 
   79900    1477.3108   -104.57031    1.3367019   -103.23361    -3627.189     4.343346     4.343346     4.343346    -3627.189    14814.607     12351.33   -38047.504    1646.8899    15872.736   -5260.1401    81.935723 
   80000    785.59334   -103.94889   0.71082137   -103.23807   -28769.731    4.3600793    4.3600793    4.3600793   -28769.731   -5747.5314   -28915.524   -51646.137    4138.6098   -8977.3387      2731.02     82.88638 
   80100    1446.9336   -104.52316    1.3092159   -103.21395   -3118.3321    4.3427315    4.3427315    4.3427315   -3118.3321    18716.509    4324.1313   -32395.637     2422.589    16049.612    14567.027    81.900951 
   80200    1162.1635   -104.27131      1.05155   -103.21976   -13975.274    4.3438135    4.3438135    4.3438135   -13975.274   -9977.8418    4027.7904   -35975.772    6262.0291   -10426.652   -21458.134    81.962183 
   80300    830.32502   -103.97763   0.75129553   -103.22634    3510.1029    4.3508985    4.3508985    4.3508985    3510.1029    79829.624   -35611.661   -33687.655    17923.017   -3055.2708    22525.622    82.363894 
   80400    1695.0353   -104.74733    1.5337035   -103.21362   -24201.276    4.3549805    4.3549805    4.3549805   -24201.276   -17065.436   -20676.542    -34861.85   -333.11372    2534.7151   -17023.077    82.595932 
   80500    824.66508   -103.96957    0.7461743    -103.2234   -3173.8437    4.3583894    4.3583894    4.3583894   -3173.8437    29764.416    4153.7567   -43439.704    -17250.23    -12501.99    16108.043    82.790037 
   80600    1469.4657   -104.54316    1.3296034   -103.21356   -4967.4746     4.343106     4.343106     4.343106   -4967.4746    21453.705   -3414.8045   -32941.325    3611.0897   -5818.0616   -8917.2358    81.922142 
   80700    1011.2847   -104.14226   0.91503164   -103.22723    24044.916    4.3354925    4.3354925    4.3354925    24044.916    56543.556    42311.332    -26720.14   -9201.4826   -82.654832   -1162.7194    81.492063 
   80800    1195.4019   -104.32076    1.0816248   -103.23914   -29753.881    4.3650985    4.3650985    4.3650985   -29753.881      2147.43   -45633.528   -45775.545    9481.4388    1709.2538   -4528.4384    83.172958 
   80900    1491.7921   -104.56397    1.3498049   -103.21416    -17583.82    4.3549713    4.3549713    4.3549713    -17583.82   -5341.6368   -20055.657   -27354.165   -5573.5292    4606.9049   -22127.307    82.595408 
   81000    799.52488   -103.93621   0.72342691   -103.21278     19304.31    4.3504121    4.3504121    4.3504121     19304.31    44913.407    29530.388   -16530.865    4795.6194   -10633.567    18363.369     82.33627 
   81100    1322.5315   -104.41289    1.1966543   -103.21624   -10392.709    4.3513124    4.3513124    4.3513124   -10392.709   -2951.6324   -28628.609    402.11284     4731.654   -3179.2129   -20723.103    82.387401 
   81200    1323.8442   -104.41902     1.197842   -103.22118   -1916.5207    4.3552268    4.3552268    4.3552268   -1916.5207   -7765.1369    24021.791   -22006.216   -10977.172    -14970.13    9699.7661    82.609945 
   81300    971.28499   -104.10239   0.87883907   -103.22355   -7287.4017    4.3543555    4.3543555    4.3543555   -7287.4017    17550.127   -33906.298   -5506.0341   -3978.2502   -3944.2928   -27129.339    82.560374 
   81400    1594.1731   -104.65546    1.4424413   -103.21302   -2153.0807    4.3468553    4.3468553    4.3468553   -2153.0807    -15203.05    41628.677   -32884.869   -142.10762   -794.77916   -8208.5563    82.134488 
   81500     1293.957   -104.40816    1.1707995   -103.23736   -24889.058    4.3526196    4.3526196    4.3526196   -24889.058    1352.1018   -36406.778   -39612.499   -48.670599    2156.6682   -9588.8589    82.461673 
   81600    901.28828    -104.0664   0.81550458   -103.25089    19911.049    4.3406855    4.3406855    4.3406855    19911.049    60473.046    27344.278   -28084.176    2970.3361   -4103.1906   -19878.448    81.785247 
   81700    1642.2935   -104.73072    1.4859817   -103.24474   -11585.944    4.3482762    4.3482762    4.3482762   -11585.944    -6812.042   -8741.4445   -19204.346    10927.496    1534.9852   -1995.3565    82.215059 
   81800    691.26768   -103.87122   0.62547353   -103.24575   -3196.5355     4.346541     4.346541     4.346541   -3196.5355      27244.5   -1834.2626   -34999.844   -6171.9107    -2396.262   -33475.923    82.116671 
   81900    1394.6246   -104.49768    1.2618856    -103.2358    12196.423     4.339778     4.339778     4.339778    12196.423    30088.519    5535.2886    965.46116    15603.413   -2597.1684    5440.0102    81.733958 
   82000    1194.5516   -104.32099    1.0808554   -103.24014    -27236.29     4.346204     4.346204     4.346204    -27236.29   -11550.586   -35183.498   -34974.785   -7898.2818   -10517.709   -36700.562    82.097574 
   82100    1351.9897   -104.44917    1.2233087   -103.22586   -15411.176    4.3487212    4.3487212    4.3487212   -15411.176    19987.526   -42335.074   -23885.979     6832.481   -1231.8301   -4333.9992      82.2403 
   82200    1256.5785   -104.36191    1.1369786   -103.22493   -5360.4374    4.3474832    4.3474832    4.3474832   -5360.4374    3974.6121   -2857.2498   -17198.674     -30.4182   -226.34975   -21414.116    82.170086 
   82300    1243.8864   -104.35477    1.1254945   -103.22927   -6627.0425    4.3414197    4.3414197    4.3414197   -6627.0425   -10844.263     13316.88   -22353.744   -8238.0503   -13521.351   -34335.975    81.826755 
   82400    1108.1307   -104.22522    1.0026599   -103.22256    21478.889    4.3395735    4.3395735    4.3395735    21478.889   -7338.9774     50622.59    21153.055   -3148.8027    4432.7107    10994.531    81.722405 
   82500    1164.1182   -104.28174    1.0533186   -103.22842   -29875.596    4.3472527    4.3472527    4.3472527   -29875.596    34591.086   -61138.402   -63079.474   -5099.1295   -2729.8829   -40118.565    82.157017 
   82600    1449.6593   -104.53151    1.3116822   -103.21983   -2998.2272    4.3459136    4.3459136    4.3459136   -2998.2272   -16959.896   -13797.607    21762.821    13298.556    573.79075    12211.984     82.08112 
   82700    862.90955   -104.00712    0.7807787   -103.22634    15317.949    4.3386828    4.3386828    4.3386828    15317.949    33718.276    37791.445   -25555.874    13173.732    14535.741   -37829.986    81.672094 
   82800      1171.72   -104.28639    1.0601968   -103.22619    10727.212    4.3447886    4.3447886    4.3447886    10727.212    9574.3194    47464.291   -24856.974   -9381.1418   -9432.2782    908.54068    82.017391 
   82900    1255.4345   -104.35999    1.1359435   -103.22405   -28774.598    4.3536144    4.3536144    4.3536144   -28774.598    -44573.72   -32680.492   -9069.5813    7116.5637   -2965.7702   -17969.787    82.518224 
   83000    1394.0453   -104.47352    1.2613615   -103.21215    2950.5478    4.3423849    4.3423849    4.3423849    2950.5478    48729.877   -8750.4169   -31127.816    3915.8551    10902.726    1142.4382    81.881342 
   83100    973.99892   -104.10063   0.88129469   -103.21933   -7912.8563    4.3413417    4.3413417    4.3413417   -7912.8563   -19151.529   -9046.9477    4459.9081   -8381.9892   -7782.5893    7102.1189    81.822341 
   83200    1154.9682   -104.26612    1.0450395   -103.22108    18852.274     4.340967     4.340967     4.340967    18852.274    49706.295    11063.913   -4213.3875     15343.26    17756.751   -14386.912    81.801159 
   83300    1177.2818   -104.28411    1.0652293   -103.21888   -11388.101    4.3523488    4.3523488    4.3523488   -11388.101   -31642.805    6059.5465   -8581.0439   -5586.9308    4454.5976    7291.2273     82.44628 
   83400    826.62056   -103.96417   0.74794366   -103.21623    1743.7036    4.3510201    4.3510201    4.3510201    1743.7036    3773.6197   -38516.757    39974.248    -4345.041    2954.4467   -33425.814    82.370798 
   83500    1437.5127   -104.50885    1.3006917   -103.20816      2799.51     4.338664     4.338664     4.338664      2799.51    4750.2509   -23343.162    26991.441    -6712.208    1620.5185    14023.433    81.671036 
   83600     1212.213    -104.3221    1.0968358   -103.22527   -30089.273    4.3405209    4.3405209    4.3405209   -30089.273   -29142.468   -59697.127   -1428.2232   -6265.2006   -710.02193   -1991.8888    81.775941 
   83700    1579.0796   -104.64873    1.4287844   -103.21995    4184.0444    4.3439115    4.3439115    4.3439115    4184.0444    22410.018   -15039.826    5181.9407   -2332.6331    8196.1951   -1790.7259     81.96773 
   83800    794.62177   -103.94964   0.71899047   -103.23065   -22860.132    4.3499473    4.3499473    4.3499473   -22860.132   -46437.275   -73629.185    51486.063   -11556.401    295.01412    12330.229    82.309881 
   83900    1479.8431   -104.56059    1.3389932    -103.2216    19081.285    4.3427584    4.3427584    4.3427584    19081.285     22508.86   -2064.1017    36799.097    2246.0975   -11156.625   -15785.693    81.902471 
   84000    1113.2928   -104.23747    1.0073307   -103.23014   -12329.781    4.3459801    4.3459801    4.3459801   -12329.781   -48675.908   -21279.068    32965.633   -20550.866    5048.2067    7826.8757    82.084884 
   84100    1026.0256   -104.15471    0.9283695   -103.22634    12879.956    4.3455598    4.3455598    4.3455598    12879.956    33058.217   -35146.179     40727.83    6427.9393   -3749.0988    4820.8312    82.061072 
   84200    1258.2827   -104.35599    1.1385207   -103.21747    1265.9798    4.3492769    4.3492769    4.3492769    1265.9798   -39486.473    7103.0966    36181.316   -23732.469   -2188.4689    15058.193    82.271832 
   84300     1238.799   -104.34258    1.1208914   -103.22168   -1371.1604    4.3424511    4.3424511    4.3424511   -1371.1604    19781.717   -46986.348     23091.15    14974.398    1715.2299    13404.562    81.885087 
   84400    978.99749   -104.11556    0.8858175   -103.22974    16766.572    4.3378147    4.3378147    4.3378147    16766.572   -25326.673    22918.915    52707.476   -12834.025   -12649.219   -1527.2292    81.623084 
   84500    1293.5071   -104.40481    1.1703924   -103.23442   -8590.4588    4.3449102    4.3449102    4.3449102   -8590.4588   -29326.341    -23449.15    27004.115    8175.7007    4776.1694    15238.647    82.024277 
   84600    1398.9339   -104.49123    1.2657848   -103.22545   -22588.225    4.3521396    4.3521396    4.3521396   -22588.225   -28992.938    -24412.04   -14359.697    7599.7993   -4153.3017    467.41347    82.434393 
   84700    1228.6503   -104.33061    1.1117086   -103.21891    9524.1103    4.3388323    4.3388323    4.3388323    9524.1103    -33666.08    11919.618    50318.793   -17180.023     3452.712   -13069.514    81.680538 
   84800    1325.2577     -104.423     1.199121   -103.22388   -6301.4056    4.3431749    4.3431749    4.3431749   -6301.4056    7216.6005    -38540.92    12420.103    16315.191   -4871.4672    4610.5587    81.926041 
   84900    1168.8335   -104.27964    1.0575852   -103.22206    8813.6627    4.3435058    4.3435058    4.3435058    8813.6627   -32083.211    30833.843    27690.357   -27144.286   -2824.5946   -4037.6994    81.944767 
   85000    1067.2616   -104.19016   0.96568069   -103.22448    1768.6381    4.3524688    4.3524688    4.3524688    1768.6381    23918.386   -15054.439   -3558.0322    36762.759   -4258.1141    7858.8403    82.453104 
   85100    1522.7928   -104.58759     1.377855   -103.20974   -8314.7287     4.351024     4.351024     4.351024   -8314.7287    8019.0448   -21716.362   -11246.869   -12552.417   -2646.9852    4450.1489    82.371016 
   85200     935.4292   -104.05675     0.846396   -103.21035    33662.287    4.3209311    4.3209311    4.3209311    33662.287    404.31606    54064.829    46517.716    12461.518    2754.8571   -4932.0387    80.673707 
   85300    1445.5976   -104.54497     1.308007   -103.23696   -17628.789    4.3438857    4.3438857    4.3438857   -17628.789    2572.2438   -37698.643   -17759.968    1756.5337    8502.4282    2946.4487    81.966269 
   85400    1508.7119   -104.58127    1.3651142   -103.21615   -10008.339    4.3591698    4.3591698    4.3591698   -10008.339   -26839.016    1279.7779   -4465.7795   -17644.153    5994.1219   -18099.287     82.83452 
   85500    892.70093   -104.01559   0.80773457   -103.20785    16451.377    4.3431517    4.3431517    4.3431517    16451.377    17923.187    21355.443    10075.499    27601.158   -2687.9401    1266.6761    81.924727 
   85600     1772.588   -104.80343    1.6038749   -103.19955   -10744.752     4.346307     4.346307     4.346307   -10744.752   -6305.2119    11859.444   -37788.487   -11303.827    458.92442    -4531.849    82.103408 
   85700    1015.4418    -104.1303   0.91879312    -103.2115    23486.788    4.3385122    4.3385122    4.3385122    23486.788   -17161.341     68028.31    19593.397    30238.884    695.72285    6265.9017    81.662463 
   85800    975.41549    -104.1058   0.88257643   -103.22322    21758.204    4.3500574    4.3500574    4.3500574    21758.204    51869.219    21411.986   -8006.5927   -4751.7105   -1640.4126     17769.76    82.316136 
   85900    1731.1627   -104.77569    1.5663924    -103.2093   -15268.599    4.3509501    4.3509501    4.3509501   -15268.599   -47072.172    6758.9845   -5492.6103    9804.3315   -15821.796   -3538.2574    82.366821 
   86000     611.9313   -103.77513    0.5536883   -103.22144    23106.864    4.3275736    4.3275736    4.3275736    23106.864     51936.53   -21287.589    38671.652    6374.3296    5586.6768    19630.313    81.046336 
   86100      1569.98   -104.65514    1.4205509   -103.23459    3419.0778    4.3362198    4.3362198    4.3362198    3419.0778   -3291.1686    20168.809   -6620.4074   -7438.4332   -189.85458   -6838.4828    81.533084 
   86200    1424.8232   -104.52781    1.2892099    -103.2386   -7251.4226    4.3482541    4.3482541    4.3482541   -7251.4226   -10437.337   -18417.417    7100.4855    10473.247   -18649.175    4650.9046    82.213806 
   86300    712.76425   -103.88082   0.64492407   -103.23589    4095.0489    4.3473986    4.3473986    4.3473986    4095.0489    21764.375   -9993.4723    514.24407   -7697.7595    10168.662    10198.207    82.165289 
   86400    1451.6767   -104.52834    1.3135076   -103.21483    7248.6219    4.3400779    4.3400779    4.3400779    7248.6219   -32180.744    12874.574    41052.036    646.12317    731.19198   -661.77082    81.750908 
   86500    1065.7238    -104.1913   0.96428928   -103.22701   -12473.769    4.3331437    4.3331437    4.3331437   -12473.769    2973.4086   -25403.883   -14990.834    845.55347        -9648    33499.452    81.359689 
   86600    1256.5405   -104.37579    1.1369442   -103.23885    -9391.646     4.341695     4.341695     4.341695    -9391.646   -19683.403   -25596.202    17104.667   -18563.623    14764.497   -8840.2236    81.842319 
   86700    1444.2776   -104.54168    1.3068127   -103.23487   -9515.8169     4.342881     4.342881     4.342881   -9515.8169   -28758.196   -14686.317    14897.062    2579.6313   -10394.428    16948.768    81.909409 
   86800    1006.4151   -104.14933   0.91062555    -103.2387   -9056.5886    4.3368311    4.3368311    4.3368311   -9056.5886   -13774.115   -15263.809    1868.1584   -8340.7923     4146.537    6882.8574    81.567568 
   86900    1363.4174   -104.46872    1.2336488   -103.23507   -1430.9478    4.3420939    4.3420939    4.3420939   -1430.9478   -24839.833   -8319.6539    28866.643   -9420.6962   -851.97559    1438.6636    81.864881 
   87000    1207.6166   -104.32792    1.0926769   -103.23525   -1093.3255    4.3314806    4.3314806    4.3314806   -1093.3255   -870.66667     19008.55    -21417.86    8792.3244   -1815.0025    14945.575    81.266046 
   87100    808.08776    -103.9767   0.73117479   -103.24552     10432.43    4.3436705    4.3436705    4.3436705     10432.43   -22176.295     28797.52    24676.065    -12586.17    14116.779    5199.7317    81.954087 
   87200    1482.9601   -104.56572    1.3418135    -103.2239   -4445.0182    4.3484547    4.3484547    4.3484547   -4445.0182    16305.394   -16797.112   -12843.337   -2512.0914    1252.6889    16277.978    82.225182 
   87300    1094.3297   -104.21599   0.99017254   -103.22582   -12098.616    4.3334294    4.3334294    4.3334294   -12098.616    -47550.78    16928.424   -5673.4931   -6015.6585    14403.259    7398.1448    81.375783 
   87400    1025.4229   -104.15997   0.92782422   -103.23215    4793.3537    4.3403026    4.3403026    4.3403026    4793.3537   -2398.7329    3409.8634     13368.93   -16724.634    2280.3423   -5980.5715    81.763605 
   87500    1542.6739    -104.6218    1.3958438   -103.22596   -2381.5641    4.3361082    4.3361082    4.3361082   -2381.5641    5223.9791    13486.304   -25854.976   -7785.1428    7723.6443    3584.2493    81.526787 
   87600    862.32898   -104.01538   0.78025338   -103.23513   -25151.429    4.3504009    4.3504009    4.3504009   -25151.429   -52237.892   -23173.162   -43.233951    3762.1338    22805.548    4709.7134    82.335633 
   87700    1253.2146   -104.34806    1.1339349   -103.21413    15465.544    4.3382252    4.3382252    4.3382252    15465.544    28717.488   -3153.8711    20833.016   -6406.5309   -6946.3811    1166.7335    81.646255 
   87800    1271.4597   -104.36981    1.1504435   -103.21937   -10447.321    4.3310849    4.3310849    4.3310849   -10447.321   -32744.319    2452.7841   -1050.4285   -1441.3477    26280.046   -279.60208    81.243775 
   87900    1019.1781   -104.15495   0.92217372   -103.23278   -10327.505    4.3488729    4.3488729    4.3488729   -10327.505    17962.175   -51036.277    2091.5859    4449.5531    5857.9595   -4696.4268    82.248911 
   88000    1583.9475   -104.65511     1.433189   -103.22193    11976.784    4.3388623    4.3388623    4.3388623    11976.784    -9023.178    16559.896    28393.635     -8034.61   -3992.1332    10120.188    81.682233 
   88100    619.43756   -103.80099   0.56048013   -103.24051   -1424.9062    4.3427648    4.3427648    4.3427648   -1424.9062    15237.672   -8185.4279   -11326.963    15777.326   -1202.3237   -14809.263    81.902835 
   88200    1763.9049   -104.82179    1.5960183   -103.22577   -6791.4305    4.3436303    4.3436303    4.3436303   -6791.4305   -13972.697   -20852.621    14451.027    2301.0007    3136.7641   -901.25328    81.951813 
   88300    1080.0103   -104.20904   0.97721601   -103.23182    15348.493    4.3350307    4.3350307    4.3350307    15348.493    7489.4159    5525.4479    33030.616    4552.2159   -10726.917   -4409.3739    81.466025 
   88400    1013.0083    -104.1524   0.91659121   -103.23581     3001.402    4.3399456    4.3399456    4.3399456     3001.402    17243.509    9312.4218   -17551.725     10398.79    2836.7704   -12674.573    81.743428 
   88500    1718.3245   -104.77824    1.5547762   -103.22346   -2825.8704    4.3412548    4.3412548    4.3412548   -2825.8704    8669.9828    -13.92925   -17133.665   -5184.6353   -4676.6142    2892.7775    81.817432 
   88600    727.37875   -103.89807   0.65814758   -103.23992    9153.5644    4.3429759    4.3429759    4.3429759    9153.5644   -18468.953    50685.979   -4756.3326    11911.398   -8895.6281   -8009.6714    81.914777 
   88700    1417.4664   -104.51177    1.2825534   -103.22921   -2120.5209    4.3464633    4.3464633    4.3464633   -2120.5209    40020.191   -9418.3838    -36963.37    5502.9275   -5887.5929   -7482.2232     82.11227 
   88800    1316.7356   -104.42831    1.1914101    -103.2369    5035.6115    4.3313191    4.3313191    4.3313191    5035.6115   -7615.8951    18104.068    4618.6616    8543.5236    10832.284   -4315.6266    81.256954 
   88900    935.73472     -104.098   0.84667244   -103.25132    3240.3324    4.3399085    4.3399085    4.3399085    3240.3324   -91.521727    18487.951   -8675.4324    9919.3905    -14666.58   -6233.3609    81.741333 
   89000    1725.5569   -104.79358    1.5613202   -103.23226   -17941.661    4.3506784    4.3506784    4.3506784   -17941.661    793.69874   -19275.008   -35343.674   -385.97409    2047.3877   -1970.5403    82.351392 
   89100    610.42479   -103.79471   0.55232518   -103.24238    12057.243    4.3382441    4.3382441    4.3382441    12057.243    43345.199    3121.2924   -10294.763    9831.6244    1131.0091   -10937.287    81.647324 
   89200    1513.5195   -104.60398    1.3694643   -103.23451   -6411.4892    4.3301621    4.3301621    4.3301621   -6411.4892   -18649.566    12188.394   -12773.295    -12966.33   -18217.557    235.10636    81.191853 
   89300    1418.7021   -104.52347    1.2836715    -103.2398   -8466.6794    4.3408035    4.3408035    4.3408035   -8466.6794    6070.8804   -15141.727   -16329.192     21088.79     6061.568   -13942.777    81.791917 
   89400    833.05012   -103.99016   0.75376125    -103.2364   -10154.019    4.3503694    4.3503694    4.3503694   -10154.019   -16759.808    763.24685   -14465.494   -6018.3548    -4697.264   -12763.024    82.333849 
   89500    1627.2161   -104.68748    1.4723393   -103.21514    15136.904    4.3308446    4.3308446    4.3308446    15136.904    1315.0167     29371.92    14723.776    11323.912   -2464.5625    6649.0256    81.230252 
   89600    692.17141    -103.8608   0.62629124   -103.23451    10525.415    4.3328431    4.3328431    4.3328431    10525.415    18166.641    -9480.037    22889.641    13408.697    2330.5778   -7929.4276    81.342758 
   89700    1202.4998   -104.32972    1.0880471   -103.24167   -13873.418    4.3400642    4.3400642    4.3400642   -13873.418    -36923.01    10802.828   -15500.071   -14277.215   -12275.939    5956.4998    81.750129 
   89800    1512.2648   -104.60825     1.368329   -103.23992    13606.719    4.3388123    4.3388123    4.3388123    13606.719    18937.136    3258.6063    18624.415    6708.4184    11247.886   -6835.2032    81.679411 
   89900    802.06994     -103.979   0.72572974   -103.25327   -10059.263    4.3307848    4.3307848    4.3307848   -10059.263   -24624.646    1294.2348   -6847.3778   -13207.038   -16820.729   -15001.406    81.226889 
   90000    1596.8406   -104.68897     1.444855   -103.24412   -806.75577    4.3313252    4.3313252    4.3313252   -806.75577   -28552.241   -9249.8181    35381.792   -10801.214    984.93424    10829.974    81.257296 
   90100    933.06237   -104.09441   0.84425444   -103.25015    10177.637     4.341923     4.341923     4.341923    10177.637    33958.199    15819.029   -19244.317   -7679.6509   -18982.276   -13508.859    81.855215 
   90200    1128.4159   -104.27135    1.0210144   -103.25033   -12092.737    4.3346064    4.3346064    4.3346064   -12092.737   -26975.757    7083.0662    -16385.52   -12096.973   -15652.444    4611.8112    81.442106 
   90300    1664.4131    -104.7452    1.5059959    -103.2392    3227.7501    4.3313696    4.3313696    4.3313696    3227.7501    -8779.245    6697.6659    11764.829    5671.6616    2992.6402    1124.7132    81.259794 
   90400    572.65776   -103.77052   0.51815277   -103.25237    3343.7484    4.3300255    4.3300255    4.3300255    3343.7484   -14220.021    41096.376   -16845.111   -3728.5039   -20107.192   -5684.6496     81.18417 
   90500    1649.0458   -104.73623    1.4920913   -103.24414    -14530.23    4.3336193    4.3336193    4.3336193    -14530.23    -33338.84    -12395.37    2143.5203   -6519.7177    9651.5289    2698.0201     81.38648 
   90600    1178.2418   -104.30375    1.0660979   -103.23765   -2439.0763     4.344795     4.344795     4.344795   -2439.0763    674.50715     17578.79   -25570.526    10037.891   -10166.285   -5710.5638    82.017756 
   90700    918.41825   -104.06644   0.83100413   -103.23544   -14553.839    4.3314093    4.3314093    4.3314093   -14553.839   -45432.572    11537.454   -9766.4005   -20796.856   -2202.5256   -5067.8152    81.262031 
   90800    1378.9964    -104.4794    1.2477449   -103.23165    13790.862    4.3261316    4.3261316    4.3261316    13790.862    31740.699     5332.238    4299.6504    17186.954      1304.03    5735.7704    80.965347 
   90900    1296.3181   -104.41173    1.1729358   -103.23879   -1674.2488    4.3329734    4.3329734    4.3329734   -1674.2488   -19217.144    30884.967   -16690.569   -17363.667   -8978.8329   -10007.244    81.350096 
   91000    927.60073   -104.07793   0.83931263   -103.23862   -3452.1401    4.3379676    4.3379676    4.3379676   -3452.1401   -1382.3125   -432.68177    -8541.426    3389.0239     7010.381    5118.5396    81.631711 
   91100    1372.3728   -104.46996    1.2417518   -103.22821    -11637.89    4.3378308    4.3378308    4.3378308    -11637.89   -3235.8167   -8034.7951    -23643.06    8603.2659   -6106.2516   -3508.2755    81.623991 
   91200    1280.9129   -104.39221    1.1589969   -103.23322   -10801.393    4.3301507    4.3301507    4.3301507   -10801.393   -31699.923    472.60952   -1176.8637   -12275.398    2992.4804   -1362.1821    81.191214 
   91300    1022.4175   -104.16539   0.92510485   -103.24028    3415.2531     4.325543     4.325543     4.325543    3415.2531    22894.035   -24053.966    11405.691    26193.954   -7067.8329   -1599.0653    80.932302 
   91400     1358.179   -104.47491    1.2289089     -103.246   -672.42036    4.3364512    4.3364512    4.3364512   -672.42036    1674.9853   -16368.441    12676.194   -5736.9506    -4440.267   -13105.976    81.546134 
   91500    989.95295   -104.14683   0.89573023    -103.2511    -24271.98     4.341936     4.341936     4.341936    -24271.98   -54790.971   -11389.267   -6635.7029    14355.414   -888.44739    5020.4754     81.85595 
   91600    1189.8658   -104.31893    1.0766156   -103.24231    14327.017    4.3333668    4.3333668    4.3333668    14327.017    19776.423   -5021.2735    28225.902    10071.784    5925.2639   -2553.0058    81.372257 
   91700    1304.2832   -104.42146    1.1801429   -103.24132   -267.37396    4.3235824    4.3235824    4.3235824   -267.37396   -19024.071    2568.4765    15653.473   -7227.5516   -626.00675    10346.862    80.822304 
   91800     894.2311   -104.06275   0.80911909   -103.25364   -15501.693    4.3361845    4.3361845    4.3361845   -15501.693   -51254.863   -6505.2397    11255.022    26874.009    7972.1183    4866.8432    81.531092 
   91900    1511.6015   -104.60316    1.3677288   -103.23543    17527.107    4.3393065    4.3393065    4.3393065    17527.107    31707.101    10784.845    10089.375   -10685.147    3927.8901    7375.8519    81.707322 
   92000    1074.4985   -104.21632   0.97222885   -103.24409   -8457.0902    4.3303001    4.3303001    4.3303001   -8457.0902   -49165.488   -10308.754    34102.972    20802.183   -3284.1487    616.34011    81.199618 
   92100    1263.0346   -104.38294    1.1428202   -103.24012    27625.086    4.3287213    4.3287213    4.3287213    27625.086    24616.719    3207.8428    55050.698   -2150.7938    19046.611    6792.6543    81.110834 
   92200    1366.9961   -104.47677    1.2368868   -103.23988    -3571.243    4.3378648    4.3378648    4.3378648    -3571.243   -9982.4378   -4025.4798    3294.1885    15663.013   -6098.5489   -4182.1486    81.625911 
   92300    912.41411   -104.06672   0.82557146   -103.24115     855.2397    4.3371187    4.3371187    4.3371187     855.2397   -28936.705    20335.255    11167.169    8980.6874    16034.473    6153.5701    81.583798 
   92400    1560.0705   -104.64148    1.4115845    -103.2299    10735.223    4.3302366    4.3302366    4.3302366    10735.223    2741.5024    25066.815    4397.3506   -1928.5189     1823.319    -17626.16    81.196046 
   92500    1041.2823   -104.17942   0.94217412   -103.23725    11389.134    4.3286076    4.3286076    4.3286076    11389.134   -25089.459    35183.293    24073.568    20867.438   -16.655967    8654.3515    81.104443 
   92600    1149.9771   -104.28534    1.0405234   -103.24482   -12213.318    4.3379881    4.3379881    4.3379881   -12213.318   -6209.4104    82.557812   -30513.101   -19070.704     12337.77   -8923.4233    81.632868 
   92700    1412.6989   -104.51811    1.2782396   -103.23987    6827.8265    4.3378152    4.3378152    4.3378152    6827.8265    729.86353    14294.829    5458.7865    4147.2952   -5628.5818   -3767.8138    81.623108 
   92800    1201.0179   -104.32447    1.0867062   -103.23776   -8017.2402     4.333815     4.333815     4.333815   -8017.2402   -38433.461    19937.235   -5555.4944   -3460.6631    19416.759    2346.8369    81.397507 
   92900    986.80674   -104.13554   0.89288348   -103.24266   -1241.1366    4.3348621    4.3348621    4.3348621   -1241.1366   -14372.059    21394.931   -10746.282    -14292.29   -11810.399     -2199.69    81.456521 
   93000    1428.8601   -104.53227    1.2928626   -103.23941    22199.119     4.333806     4.333806     4.333806    22199.119    19068.276    38811.682     8717.398    17238.623    10282.551   -2288.8899    81.397002 
   93100    961.42688   -104.11958   0.86991925   -103.24966   -18839.407    4.3395594    4.3395594    4.3395594   -18839.407   -41268.103     3212.395   -18462.514   -15899.743   -6427.2797    9208.8818    81.721611 
   93200    1292.2145   -104.40267    1.1692228   -103.23345    12610.251    4.3324899    4.3324899    4.3324899    12610.251    28320.643    14231.856   -4721.7473    3085.4043   -10701.314   -2074.1571    81.322864 
   93300    1246.8284    -104.3691    1.1281565   -103.24095    2570.5997    4.3294903    4.3294903    4.3294903    2570.5997    3460.7491   -706.35429    4957.4044   -11479.664    7184.0377   -552.22597     81.15407 
   93400    943.26615   -104.10676   0.85348704   -103.25327   -7975.0428    4.3360647    4.3360647    4.3360647   -7975.0428   -26884.587     3365.508   -406.04954   -5431.5423   -18171.025   -4396.8208    81.524336 
   93500    1672.3432   -104.74628    1.5131713   -103.23311   -5389.6397    4.3482793    4.3482793    4.3482793   -5389.6397    2849.9981   -3797.3328   -15221.584   -259.39766    9263.4654   -9305.8742    82.215234 
   93600    1059.2009   -104.19891   0.95838723   -103.24052   -24111.484    4.3379264    4.3379264    4.3379264   -24111.484   -37024.331    5266.5241   -40576.645   -11109.507   -5143.7807    3194.1399    81.629387 
   93700    987.46537   -104.12999   0.89347942   -103.23651    25180.592     4.318968     4.318968     4.318968    25180.592    8182.8585    19184.254    48174.663    6088.3905   -2181.0205   -7544.8805    80.563804 
   93800    1483.0646   -104.58507     1.341908   -103.24316    5898.6352    4.3423735    4.3423735    4.3423735    5898.6352    9170.8002    5410.8557    3114.2496    8728.9876   -204.02024    3711.0136    81.880698 
   93900    1072.9829   -104.21323    0.9708575   -103.24237    -12403.69     4.345473     4.345473     4.345473    -12403.69   -39337.573     628.1199    1498.3842   -2103.7782   -13004.035    5641.6531    82.056153 
   94000    1092.0947    -104.2212   0.98815025   -103.23305    8118.3373    4.3317647    4.3317647    4.3317647    8118.3373     1285.159   -21212.801    44282.654    20352.884    6446.9115    118.41041    81.282038 
   94100    1570.5414   -104.65387    1.4210589   -103.23282    11510.151    4.3249589    4.3249589    4.3249589    11510.151   -5419.0874    32399.205    7550.3362    -8917.256   -12691.498   -1825.3561     80.89952 
   94200    980.02463   -104.14856   0.88674688   -103.26182   -4157.6816    4.3355833    4.3355833    4.3355833   -4157.6816    4474.2532    2818.5777   -19765.876     19682.89     49.81386   -3005.3114    81.497187 
   94300    1304.3581    -104.4332    1.1802106   -103.25299    -24117.07    4.3487812    4.3487812    4.3487812    -24117.07   -32140.483   -23421.204   -16789.522    6639.1444   -5093.4422     2555.831    82.243707 
   94400    1195.5713   -104.31442     1.081778   -103.23265    15341.604    4.3376171    4.3376171    4.3376171    15341.604    680.71813    29331.641    16012.453   -2186.8946   -4880.5374    3803.3037    81.611926 
   94500    898.49889   -104.04949   0.81298068   -103.23651   -22811.636    4.3418654    4.3418654    4.3418654   -22811.636   -24620.641   -36557.337   -7256.9301    2271.7136    3533.0558    2263.5424    81.851956 
   94600    1432.0688   -104.52311     1.295766   -103.22734    12880.922    4.3339445    4.3339445    4.3339445    12880.922    17291.181   -902.36734    22253.951    2339.4011    6220.1553    8553.4799    81.404803 
   94700    1036.6722   -104.17719    0.9380028   -103.23919    10634.156      4.33737      4.33737      4.33737    10634.156    22629.637   -33642.554    42915.383    12134.947    33.666672    2459.0727    81.597984 
   94800    1237.3227   -104.35708    1.1195556   -103.23752   -34809.629     4.348432     4.348432     4.348432   -34809.629   -46302.837   -54175.559   -3950.4897   -1288.6233    5952.3374    7875.6321    82.223894 
   94900    1243.5141   -104.35402    1.1251577   -103.22886    35273.374    4.3309524    4.3309524    4.3309524    35273.374    68677.131   -822.27183    37965.265    7756.3815   -2917.7213   -2148.1097     81.23632 
   95000    1244.0779   -104.36508    1.1256678   -103.23941   -11366.255    4.3334163    4.3334163    4.3334163   -11366.255   -38978.235   -29465.164    34344.634    4292.7775    2921.8205    2894.9388    81.375047 
   95100    1068.3983   -104.21219   0.96670919   -103.24548   -3991.8611    4.3440374    4.3440374    4.3440374   -3991.8611    9334.0317   -38150.536    16840.921   -9226.0097    3356.3319   -9817.6044    81.974857 
   95200    1505.4937   -104.59527    1.3622024   -103.23307    12253.083    4.3426733    4.3426733    4.3426733    12253.083    21800.481   -14725.508    29684.275    9669.9744   -4068.5068   -4314.4467    81.897657 
   95300    903.05142   -104.05856   0.81709991   -103.24146    -21148.19    4.3370266    4.3370266    4.3370266    -21148.19     -35146.5    -27436.88    -861.1893   -10272.683    10715.344   -4488.4473    81.578602 
   95400     1344.932   -104.45093    1.2169227   -103.23401    33433.476    4.3326962    4.3326962    4.3326962    33433.476    47231.625   -8212.5194    61281.323    6968.2465    10067.495   -10816.959    81.334484 
   95500    1279.2653   -104.40167    1.1575061   -103.24416   -15810.487    4.3410701    4.3410701    4.3410701   -15810.487   -27074.743    -5489.679   -14867.038   -6185.3999    2690.8272    7761.8991    81.806989 
   95600    851.30343   -104.01846   0.77027724   -103.24819   -10256.029    4.3483118    4.3483118    4.3483118   -10256.029   -1242.2183   -34099.997    4574.1286    -7334.199    775.11992   -3659.3219    82.217078 
   95700    1554.6774   -104.63216    1.4067047   -103.22546    8348.7407    4.3434522    4.3434522    4.3434522    8348.7407    3144.2266   -10952.683    32854.679   -1224.2159    12205.097    10291.969    81.941735 
   95800    683.19451   -103.85021   0.61816875   -103.23204   -14622.139    4.3387348    4.3387348    4.3387348   -14622.139   -30863.022   -16325.942    3322.5472   -20764.223    10184.723    4244.9034    81.675032 
   95900    1515.1691   -104.59454    1.3709568   -103.22358     2064.488     4.335003     4.335003     4.335003     2064.488    2856.1999   -12265.315     15602.58    25475.934   -1849.4509   -11237.503    81.464467 
   96000    1237.4633    -104.3526    1.1196828   -103.23292   -14536.985    4.3468697    4.3468697    4.3468697   -14536.985   -17473.585   -21184.786   -4952.5849   -16643.883     857.1285   -1768.6645    82.135304 
   96100    1050.2463   -104.18328   0.95028489   -103.23299    -11504.54    4.3400756    4.3400756    4.3400756    -11504.54   -31182.369    -38507.44    35176.188    14812.965    13856.418   -8060.8082    81.750776 
   96200    1192.8928   -104.30842    1.0793545   -103.22907    17776.836    4.3344051    4.3344051    4.3344051    17776.836    8158.7086    14958.814    30212.987   -309.46544    3164.7338    16851.617     81.43076 
   96300    1171.3356   -104.29916     1.059849   -103.23932   -12886.453    4.3427373    4.3427373    4.3427373   -12886.453   -25067.724   -34050.374     20458.74   -3879.4459    10525.411    3317.4315    81.901277 
   96400     1126.134   -104.25677    1.0189497   -103.23782   -11069.634    4.3496954    4.3496954    4.3496954   -11069.634   -33692.053   -17825.764    18308.915    29189.354    1099.4871   -708.34497    82.295585 
   96500    1564.2382   -104.63847    1.4153556   -103.22311    3045.0547    4.3372624    4.3372624    4.3372624    3045.0547    17504.341   -16623.406    8254.2289   -11109.372    3479.2163     8580.639     81.59191 
   96600    687.18366   -103.86031   0.62177821   -103.23854    2837.3974    4.3357465    4.3357465    4.3357465    2837.3974   -21893.263   -21998.093    52403.549    24294.704    13091.921   -11010.422    81.506388 
   96700    1412.1502     -104.504    1.2777431   -103.22626   -1220.4984    4.3476568    4.3476568    4.3476568   -1220.4984    19022.267   -9717.6413   -12966.121     13968.19   -8841.4363    11432.997    82.179929 
   96800     1195.454   -104.30691    1.0816719   -103.22524   -10432.772    4.3405054    4.3405054    4.3405054   -10432.772   -31042.615   -15196.818    14941.116    5483.5047    6833.3496    8144.6859    81.775067 
   96900    1007.6252   -104.14092   0.91172046    -103.2292   -11973.441    4.3378126    4.3378126    4.3378126   -11973.441   -15392.998   -15128.959   -5398.3664    17031.362   -3151.9754   -78.773922    81.622963 
   97000     1648.786    -104.7138    1.4918562   -103.22195     9439.979    4.3350127    4.3350127    4.3350127     9439.979    6180.7294     34219.07   -12079.863    485.83336   -12893.704    4954.2631    81.465014 
   97100    879.59074   -104.03933   0.79587219   -103.24346   -15201.923    4.3458438    4.3458438    4.3458438   -15201.923    14104.056   -45726.191   -13983.634    31933.066    2402.8722    -6425.175    82.077164 
   97200    1365.2652   -104.47145    1.2353207   -103.23613   -24542.156    4.3472785    4.3472785    4.3472785   -24542.156   -45985.837    19502.829   -47143.459   -18576.988   -13080.798   -9613.6059    82.158481 
   97300    1313.5281   -104.41987    1.1885078   -103.23136    6851.5345    4.3377476    4.3377476    4.3377476    6851.5345   -9269.9197    22521.978    7302.5448    21675.313    10581.949   -9357.4023    81.619295 
   97400    1217.0741    -104.3357    1.1012342   -103.23447   -23897.477    4.3443455    4.3443455    4.3443455   -23897.477    -48907.29   -10149.632    -12635.51   -3302.9283    391.63662    3045.1087    81.992299 
   97500    1064.8143   -104.19369   0.96346639   -103.23022   -9741.4808    4.3564955    4.3564955    4.3564955   -9741.4808   -19986.987    -17962.86    8725.4047    2267.7954   -11885.044    3628.9499     82.68216 
   97600    1279.7463   -104.37666    1.1579414   -103.21872   -3183.6616    4.3445662    4.3445662    4.3445662   -3183.6616    8068.4346   -24138.527    6519.1075    23439.891   -2629.3351    9795.0775    82.004797 
   97700    979.48112   -104.10505    0.8862551   -103.21879    8937.6346    4.3313969    4.3313969    4.3313969    8937.6346    -1330.527   -5518.3262    33661.757   -27180.068   -20038.173    321.11941    81.261334 
   97800    1390.6634   -104.48478    1.2583015   -103.22648    10412.152    4.3455663    4.3455663    4.3455663    10412.152   -1485.9225    15097.046    17625.333    17085.824    3450.1335   -4809.1826    82.061441 
   97900     1173.254   -104.28882    1.0615849   -103.22724   -19516.873    4.3540382    4.3540382    4.3540382   -19516.873     -52911.1   -25771.184    20131.666   -15847.848   -2495.7346    5035.9479    82.542327 
   98000    1403.1573   -104.48841    1.2696062   -103.21881    18218.426    4.3360827    4.3360827    4.3360827    18218.426    4317.3308    29311.653    21026.294    1136.4058   -15453.265   -5825.1621     81.52535 
   98100    943.73118   -104.07942   0.85390781   -103.22552    35604.157    4.3360462    4.3360462    4.3360462    35604.157    33362.036    2718.2211    70732.215   -6583.2441    4754.1577   -21683.433     81.52329 
   98200    937.78891   -104.08515   0.84853112   -103.23662   -21635.511    4.3518814    4.3518814    4.3518814   -21635.511   -25038.751   -10962.242   -28905.539   -21395.689   -12322.077    3949.8266    82.419724 
   98300    1939.2321   -104.96748     1.754658   -103.21282    -7828.224    4.3448701    4.3448701    4.3448701    -7828.224   -6848.7364   -20089.606    3453.6706   -2775.5855    5555.7468    4348.0915    82.022008 
   98400    806.40279   -103.95361   0.72965019   -103.22396    11078.263    4.3372847    4.3372847    4.3372847    11078.263   -9534.3744    33117.503    9651.6605   -21534.657   -11405.941   -6182.7439    81.593165 
   98500    1153.7294   -104.27898    1.0439187   -103.23506   -18569.895    4.3451844    4.3451844    4.3451844   -18569.895     -1576.53   -11090.984   -43042.172   -89.705396    5956.9266   -118.38041    82.039807 
   98600     1477.102   -104.56421     1.336513   -103.22769    16585.189    4.3336749    4.3336749    4.3336749    16585.189    19852.986    8314.6952    21587.887    273.98618   -20016.936    6408.4442    81.389612 
   98700    1039.4225   -104.18677   0.94049129   -103.24628   -22071.844    4.3510634    4.3510634    4.3510634   -22071.844   -41454.988    15089.539   -39850.084   -17045.396   -3511.5386    1755.1582    82.373258 
   98800    1376.4607   -104.47127    1.2454506   -103.22582    -7659.999    4.3502085    4.3502085    4.3502085    -7659.999    6320.7265   -27357.705   -1943.0183    8467.9395     7192.561    8583.0632    82.324712 
   98900    1070.5722   -104.19813    0.9686762   -103.22945    5442.0032    4.3292002    4.3292002    4.3292002    5442.0032   -15285.713    16465.203     15146.52   -7487.0289    -14793.22   -9247.2634    81.137758 
   99000    1232.2815   -104.35534    1.1149942   -103.24034    1202.6306    4.3355525    4.3355525    4.3355525    1202.6306    23504.978   -1240.4146   -18656.671    6400.2956   -8781.6558    5963.3476     81.49545 
   99100    1282.6655   -104.39886    1.1605827   -103.23827   -5680.4436    4.3528705    4.3528705    4.3528705   -5680.4436   -45735.901   -6808.0367    35502.607    14630.011    -8058.515    3909.5863    82.475933 
   99200    948.00513   -104.07864   0.85777497   -103.22087   -21237.803    4.3587681    4.3587681    4.3587681   -21237.803   -25138.488    9338.1922   -47913.113   -25992.947   -6822.4257   -960.79278    82.811623 
   99300    1457.4995   -104.52819    1.3187762   -103.20941    15282.047     4.321575     4.321575     4.321575    15282.047    11628.285    1085.9698    33131.888    24301.306    7140.4537    2565.1294    80.709782 
   99400    1014.6281   -104.15336   0.91805686    -103.2353    26325.753    4.3250354    4.3250354    4.3250354    26325.753   -3857.0146    61168.714     21665.56   -11222.648   -24677.524    2632.3445    80.903817 
   99500    1457.4123   -104.54597    1.3186972   -103.22728    -24662.11    4.3615211    4.3615211    4.3615211    -24662.11   -28193.951   -14507.303   -31285.075    6868.6604    8399.6118   -558.97521    82.968633 
   99600    652.67733   -103.81714   0.59055617   -103.22658     13106.16    4.3475091    4.3475091    4.3475091     13106.16   -63648.786    53143.569    49823.698     7565.231   -19738.135    7388.1636    82.171552 
   99700    1758.4469   -104.80837    1.5910797   -103.21729    7861.5307    4.3274078    4.3274078    4.3274078    7861.5307    2027.1173     22717.02   -1159.5449   -13119.735    1357.5616   -528.28872    81.037024 
   99800    994.45575   -104.13598   0.89980446   -103.23617    11363.117    4.3382497    4.3382497    4.3382497    11363.117   -31251.255     26972.99    38367.618    14857.236   -5779.7318   -13699.866     81.64764 
   99900    1171.0183   -104.29149     1.059562   -103.23193   -24331.834    4.3590073    4.3590073    4.3590073   -24331.834   -15263.418   -27294.325    -30437.76   -1237.1611   -21826.378    9810.5841    82.825255 
  100000    1422.9456   -104.50106    1.2875111   -103.21355    26610.829    4.3427652    4.3427652    4.3427652    26610.829    6824.8485    48074.445    24933.194    8341.8738   -2021.3109   -8893.5732    81.902859 
Loop time of 22.0256 on 1 procs for 100000 steps with 8 atoms

Pair  time (%) = 7.05951 (32.0514)
Kspce time (%) = 5.2491 (23.8318)
Neigh time (%) = 0.010143 (0.0460511)
Comm  time (%) = 1.05235 (4.77787)
Outpt time (%) = 0.0231543 (0.105124)
Other time (%) = 8.63136 (39.1878)

Nlocal:    8 ave 8 max 8 min
Histogram: 1 0 0 0 0 0 0 0 0 0
Nghost:    2189 ave 2189 max 2189 min
Histogram: 1 0 0 0 0 0 0 0 0 0
Neighs:    2121 ave 2121 max 2121 min
Histogram: 1 0 0 0 0 0 0 0 0 0

Total # of neighbors = 2121
Ave neighs/atom = 265.125
Neighbor list builds = 122
Dangerous builds = 0
unfix 20
unfix 21
print "seeds:3982168"
seeds:3982168
