LAMMPS (10 Feb 2015)
# ---- initialize simulations
clear
units metal
dimension 3
boundary p p p
atom_style charge
atom_modify map array
# ---- create atoms
read_data /Users/eugeneragasa/pyflamestk_git/pypospack/tests/tests_integration/workflow/WorkflowLammpsThermalExpansion/param_2632/MgO_NaCl_unit.npt.T1400/lammps.structure
  triclinic box = (0 0 0) to (4.2565 4.2565 4.2565) with tilt (0 0 0)
  1 by 1 by 1 MPI processor grid
  reading atoms ...
  8 atoms
# ---- define interatomic potential
include potential.mod
mass 1 24.305
mass 2 15.999

group Mg type 1
4 atoms in group Mg
group O type 2
4 atoms in group O

set group Mg charge 1.63285961235
  4 settings made for charge
set group O charge -1.63285961235
  4 settings made for charge

variable R_cut equal 10.0

pair_style buck/coul/long ${R_cut}
pair_style buck/coul/long 10
pair_coeff 1 1 0.0 0.5 0.0 ${R_cut}
pair_coeff 1 1 0.0 0.5 0.0 10
pair_coeff 1 2 1437.07173936 0.281984725072 0.0 ${R_cut}
pair_coeff 1 2 1437.07173936 0.281984725072 0.0 10
pair_coeff 2 2 17907.6681412 0.158842179647 12.0518239093 ${R_cut}
pair_coeff 2 2 17907.6681412 0.158842179647 12.0518239093 10

kspace_style pppm 1.0e-5

neighbor 1.0 bin
neigh_modify every 1 delay 0 check yes
# ---- define settings
compute eng all pe/atom
compute eatoms all reduce sum c_eng
# ---- run minimization
reset_timestep 0
fix 1 all box/relax iso 0.0 vmax 0.001
thermo 10
thermo_style custom step pe lx ly lz xy xz yz press pxx pyy pzz pxy pxz pyz c_eatoms
min_style cg
minimize 1e-25 1e-25 5000 10000
PPPM initialization ...
  G vector (1/distance) = 0.352629
  grid = 8 8 8
  stencil order = 5
  estimated absolute RMS force accuracy = 3.86465e-05
  estimated relative force accuracy = 2.68385e-06
  using double precision FFTs
  3d grid and FFT values/proc = 3375 512
Neighbor list info ...
  1 neighbor list requests
  update every 1 steps, delay 0 steps, check yes
  master list distance cutoff = 11
Memory usage per processor = 4.06549 Mbytes
Step PotEng Lx Ly Lz Xy Xz Yz Press Pxx Pyy Pzz Pxy Pxz Pyz eatoms 
       0   -108.26668       4.2565       4.2565       4.2565            0            0            0     68174.25     68174.25     68174.25     68174.25 -1.8708973e-11 1.9918278e-11 -1.4539535e-10   -108.26668 
      10   -108.32672     4.299065     4.299065     4.299065            0            0            0    15974.818    15974.818    15974.818    15974.818 2.7247293e-10 7.4247233e-11 1.7340321e-10   -108.32672 
      14   -108.33064    4.3118345    4.3118345    4.3118345            0            0            0    1605.1095    1605.1095    1605.1095    1605.1095 -5.9694499e-11 -6.7982128e-11 4.9253128e-12   -108.33064 
Loop time of 0.0151021 on 1 procs for 14 steps with 8 atoms

Minimization stats:
  Stopping criterion = linesearch alpha is zero
  Energy initial, next-to-last, final = 
        -108.266678614      -108.33063925      -108.33063925
  Force two-norm initial, final = 9.8444 0.23785
  Force max component initial, final = 9.8444 0.237844
  Final line search alpha, max atom move = 1.28309e-07 3.05176e-08
  Iterations, force evaluations = 14 44

Pair  time (%) = 0.00405931 (26.8791)
Kspce time (%) = 0.0023644 (15.656)
Neigh time (%) = 0 (0)
Comm  time (%) = 0.00047636 (3.15426)
Outpt time (%) = 1.5974e-05 (0.105773)
Other time (%) = 0.0081861 (54.2049)

Nlocal:    8 ave 8 max 8 min
Histogram: 1 0 0 0 0 0 0 0 0 0
Nghost:    2189 ave 2189 max 2189 min
Histogram: 1 0 0 0 0 0 0 0 0 0
Neighs:    2344 ave 2344 max 2344 min
Histogram: 1 0 0 0 0 0 0 0 0 0

Total # of neighbors = 2344
Ave neighs/atom = 293
Neighbor list builds = 0
Dangerous builds = 0
unfix 1
# ---- define output variables ----
variable natoms equal "count(all)"
variable tot_energy equal "c_eatoms"
variable length_x equal "lx"
variable length_y equal "ly"
variable length_z equal "lz"
variable tilt_xy equal "xy"
variable tilt_xz equal "xz"
variable tilt_yz equal "yz"
variable tot_press equal "press"
variable press_xx equal "pxx"
variable press_yy equal "pyy"
variable press_zz equal "pzz"
variable press_xy equal "pxy"
variable press_xz equal "pxz"
variable press_yz equal "pyz"

# ---- output ----
print "pypospack:output_section:begin"
pypospack:output_section:begin
print "tot_energy = ${tot_energy}"
tot_energy = -108.330639250266
print "num_atoms = ${natoms}"
num_atoms = 8
print "xx = ${length_x}"
xx = 4.3118345
print "yy = ${length_y}"
yy = 4.3118345
print "zz = ${length_z}"
zz = 4.3118345
print "xy = ${tilt_xy}"
xy = 0
print "xz = ${tilt_xz}"
xz = 0
print "yz = ${tilt_yz}"
yz = 0
print "tot_press = ${tot_press}"
tot_press = 1605.10951764203
print "pxx = ${press_xx}"
pxx = 1605.10951764176
print "pyy = ${press_yy}"
pyy = 1605.10951764198
print "pzz = ${press_zz}"
pzz = 1605.10951764233
print "pxy = ${press_xy}"
pxy = -5.96944985898881e-11
print "pxz = ${press_xz}"
pxz = -6.79821282837662e-11
print "pyz = ${press_yz}"
pyz = 4.92531279854496e-12
print "pypospack:output_section:done"
pypospack:output_section:done
print "pypospack:lammps_sim:done"
pypospack:lammps_sim:done
#------------------------------------------------------------------------------
# RUN THERMOSTAT
# running using an NPT Nose-Hoover style thermostat
#------------------------------------------------------------------------------
variable tempdamp equal 0.1
variable pressdamp equal 1.0
# set initial velocities
velocity all create 1400 8590425 mom yes dist gaussian loop all
# fix for Nose-Hoover style thermostat
fix 20 all npt temp 1400 1400 0.1 aniso 0.0 0.0 1.0 drag 1.0 couple xyz
variable boxx equal lx
variable boxy equal ly
variable boxz equal lz
variable boxp equal press
variable boxt equal temp
# calculate averages every 10000 steps
reset_timestep 0
fix 21 all ave/time 10 10 100 v_boxx v_boxy v_boxz v_boxp v_boxt file lattice.out
thermo_style custom step temp pe ke etotal press lx ly lz press pxx pyy pzz pxy pxz pyz vol
thermo_modify flush yes
thermo 100
run 100000
PPPM initialization ...
  G vector (1/distance) = 0.352078
  grid = 8 8 8
  stencil order = 5
  estimated absolute RMS force accuracy = 3.96373e-05
  estimated relative force accuracy = 2.75266e-06
  using double precision FFTs
  3d grid and FFT values/proc = 3375 512
Memory usage per processor = 3.06549 Mbytes
Step Temp PotEng KinEng TotEng Press Lx Ly Lz Press Pxx Pyy Pzz Pxy Pxz Pyz Volume 
       0         1400   -108.33065    1.2667494    -107.0639    18481.656    4.3118345    4.3118345    4.3118345    18481.656    19090.561    28600.843    7753.5641    885.27953    3563.0886   -1375.1729    80.165268 
     100    606.55789   -107.45579   0.54882633   -106.90697    11545.993    4.3455753    4.3455753    4.3455753    11545.993    12315.558     36693.97   -14371.549   -1287.7286    5977.7683    942.23872    82.061949 
     200    855.37217   -107.32903   0.77395871   -106.55507   -19040.447    4.3863155    4.3863155    4.3863155   -19040.447   -17882.303    8344.4664   -47583.503    1418.4188    2590.4401   -3083.8796    84.391674 
     300     989.0447   -107.14728   0.89490843   -106.25237   -3914.8429    4.3816057    4.3816057    4.3816057   -3914.8429   -3191.5483    33403.772   -41956.752    9836.2117    8336.8803    2396.9043    84.120118 
     400    1219.4394   -107.10938    1.1033744     -106.006    19475.311    4.3542151    4.3542151    4.3542151    19475.311    68870.025    709.82092   -11153.913   -25471.278    22962.386    -405.8668    82.552386 
     500     1489.529   -107.22117    1.3477572   -105.87342    30013.375    4.3688521    4.3688521    4.3688521    30013.375   -4044.1539     118116.4   -24032.121   -20328.938   -6227.1077    12164.844    83.387706 
     600    1344.8361   -107.01165     1.216836   -105.79482   -19574.606    4.3953754    4.3953754    4.3953754   -19574.606    18901.355   -12433.785   -65191.387    2120.0296    16646.406    10652.036    84.915686 
     700    1461.4067   -107.06123    1.3223115   -105.73892   -29548.579    4.3989215    4.3989215    4.3989215   -29548.579   -49353.608    -3595.638    -35696.49   -6291.8067     372.4833   -4492.7447    85.121378 
     800    1754.7322   -107.30855    1.5877186   -105.72083    3043.2614    4.3849516    4.3849516    4.3849516    3043.2614    21906.113    28522.125   -41298.454    12861.934    4444.9006    192.72967    84.312973 
     900    1403.9908   -107.01425    1.2703604   -105.74389   -5007.6304    4.3795259    4.3795259    4.3795259   -5007.6304   -58957.579    77228.136   -33293.448   -3003.5672    4463.6939    11044.087    84.000388 
    1000      1568.16   -107.17534    1.4189042   -105.75643    -1793.202    4.3743949    4.3743949    4.3743949    -1793.202   -16970.518    39076.235   -27485.324   -5639.8441   -6253.9209   -5454.8453    83.705496 
    1100    1079.3566   -106.74456   0.97662452   -105.76794    4292.9943    4.3830791    4.3830791    4.3830791    4292.9943     29751.31    9966.5096   -26838.837    -11626.45    4837.9841    12135.591    84.205011 
    1200    1580.3135   -107.18798    1.4299008   -105.75808   -21002.613    4.3864804    4.3864804    4.3864804   -21002.613    -30975.72   -7427.4317   -24604.687   -24918.076   -8094.7459   -1317.0276    84.401191 
    1300    1969.7329   -107.52204    1.7822557   -105.73979   -216.70068     4.375182     4.375182     4.375182   -216.70068   -14518.238    19039.519   -5171.3832    13318.852    4287.3227     5357.435    83.750683 
    1400    1066.4229   -106.72188   0.96492187   -105.75695    15430.707    4.3803387    4.3803387    4.3803387    15430.707    10642.841    46867.642   -11218.363   -10349.911    -3637.203    24750.099    84.047165 
    1500    1097.8493   -106.75058   0.99335716   -105.75722   -11236.588    4.3899572    4.3899572    4.3899572   -11236.588   -19654.767    17706.597   -31761.595   -7863.8459   -3441.8652   -4441.4482    84.602043 
    1600    1439.3014   -107.04485    1.3023102   -105.74254   -7311.5467    4.3790957    4.3790957    4.3790957   -7311.5467   -33337.888     32429.29   -21026.042    17716.572   -3315.9329   -1549.9483    83.975635 
    1700     1474.138   -107.09312     1.333831   -105.75929   -18248.695     4.374329     4.374329     4.374329   -18248.695   -33477.681   -5829.0018   -15439.403   -31594.783   -2880.1905    12719.568    83.701712 
    1800    1614.2691   -107.22433    1.4606246   -105.76371    13485.013    4.3751218    4.3751218    4.3751218    13485.013    275.05674    80202.114   -40022.131   -3051.9358    -9668.786     -15160.3    83.747227 
    1900    733.37781    -106.4396   0.66357565   -105.77603    7689.3955    4.3839892    4.3839892    4.3839892    7689.3955   -18037.254    53817.623   -12712.183    -16706.59   -8840.6651    8137.7538    84.257471 
    2000    1392.0471   -107.02714    1.2595535   -105.76759   -17461.879    4.3884229    4.3884229    4.3884229   -17461.879   -8196.9215   -39199.218   -4989.4976   -10227.177   -4986.2719    13466.391    84.513367 
    2100    2038.6976   -107.60689    1.8446564   -105.76223   -3404.4832    4.3715897    4.3715897    4.3715897   -3404.4832   -39922.395    45341.144   -15632.199   -1819.7875   -8727.5177   -3284.3479    83.544559 
    2200     1371.621   -107.02403    1.2410715   -105.78296    4834.8542    4.3687544    4.3687544    4.3687544    4834.8542   -29869.921    47820.461   -3445.9766   -25986.825   -3666.4156    774.46007    83.382111 
    2300    1434.5728    -107.0897    1.2980316   -105.79167    3588.8614    4.3922282    4.3922282    4.3922282    3588.8614   -21771.022    54970.613   -22433.007    15412.668   -3692.0665   -24520.313    84.733413 
    2400    1030.5678   -106.70794   0.93247943   -105.77546    -29772.21    4.4075193    4.4075193    4.4075193    -29772.21   -89325.285    40155.536   -40146.881   -15014.024   -335.86319    953.83827    85.621467 
    2500    2044.9204   -107.61322     1.850287   -105.76294   -12041.797    4.3752658    4.3752658    4.3752658   -12041.797   -36119.538    24096.626   -24102.478     949.6542   -3313.3368    999.89032    83.755501 
    2600    1580.4691   -107.22438    1.4300416   -105.79434    22427.266     4.364792     4.364792     4.364792    22427.266   -6666.3334    64875.793    9072.3389   -8051.1717    2267.3364    18443.514    83.155441 
    2700    1296.1916   -107.00746    1.1728214   -105.83464   -18943.862     4.406989     4.406989     4.406989   -18943.862   -55899.272    8584.6193   -9516.9328   -812.97755    1647.7299   -4788.5759    85.590564 
    2800      727.983   -106.45329   0.65869432    -105.7946     17594.09      4.41376      4.41376      4.41376     17594.09   -45417.443    117989.83   -19790.119    18620.415    2720.4081   -22869.027    85.985681 
    2900    1580.7782   -107.20012    1.4303213    -105.7698    1656.7368    4.3799012    4.3799012    4.3799012    1656.7368   -4707.6216    9244.8842    432.94786   -1336.5752    609.67189   -19680.287    84.021984 
    3000    1650.7698   -107.27189    1.4936512   -105.77824    13142.414    4.3805477    4.3805477    4.3805477    13142.414   -17382.039    87219.529   -30410.247   -23707.614    -2471.078    12134.021    84.059195 
    3100     1158.631   -106.83499    1.0483537   -105.78663   -23735.268    4.4053723    4.4053723    4.4053723   -23735.268   -41356.028    19388.319   -49238.095    14204.717   -5332.7589    2319.2907    85.496404 
    3200    1332.4519   -106.96814    1.2056305   -105.76251   -12554.706    4.3969726    4.3969726    4.3969726   -12554.706    -48193.48    41438.227   -30908.865    1718.0018   -4464.3696    15166.697     85.00829 
    3300    1666.3167   -107.26401    1.5077183   -105.75629   -12299.576    4.3816224    4.3816224    4.3816224   -12299.576   -18238.822    9986.4743   -28646.379    2751.0916   -7758.3207    18970.999    84.121083 
    3400    1315.6897   -106.96547    1.1904637   -105.77501   -2380.2795    4.3923857    4.3923857    4.3923857   -2380.2795   -53396.111    45448.458    806.81412   -3720.0385    3927.6331   -24520.082    84.742526 
    3500    1150.2299   -106.81099    1.0407522   -105.77024    2804.7756    4.4025713    4.4025713    4.4025713    2804.7756   -40602.962    68605.081   -19587.793    16561.727   -2016.6786   -6755.9062     85.33343 
    3600    1296.5022   -106.93036    1.1731025   -105.75726    16149.978    4.3904708    4.3904708    4.3904708    16149.978    33376.199     32076.22   -17002.485   -1228.8062    5723.8991    496.61929    84.631739 
    3700    1841.0061   -107.43576     1.665781   -105.76998   -10589.581    4.3972429    4.3972429    4.3972429   -10589.581   -11324.189    14608.579   -35053.133   -6313.8012    9864.0349     960.0268    85.023966 
    3800    1475.2206   -107.10205    1.3348106   -105.76724    644.17801    4.4017227    4.4017227    4.4017227    644.17801   -33410.929    86071.415   -50727.952    9319.0001   -2051.3173    22504.913    85.284091 
    3900    878.45847   -106.56471   0.79484768   -105.76986    41641.843    4.3858073    4.3858073    4.3858073    41641.843    1432.3937    126092.12   -2598.9849   -9089.4752    3690.7743    7806.1222    84.362346 
    4000    1707.3507   -107.32237    1.5448468   -105.77753   -8912.7171    4.3979131    4.3979131    4.3979131   -8912.7171   -10302.653    4883.0491   -21318.547    12894.481   -531.02334    13299.456    85.062853 
    4100    1395.4124   -107.03642    1.2625985   -105.77382   -28698.768    4.4049121    4.4049121    4.4049121   -28698.768   -46562.218    30905.747   -70439.833    14052.828   -233.02256   -6289.4323    85.469613 
    4200    1422.3412   -107.05134    1.2869642   -105.76438     7452.796    4.3921467    4.3921467    4.3921467     7452.796    -7598.677    84783.731   -54826.666   -2558.2219    -10937.22     5941.984    84.728691 
    4300    1158.3755   -106.82263    1.0481225   -105.77451    13435.643    4.3833907    4.3833907    4.3833907    13435.643   -53123.938     128364.8   -34933.934   -6366.8971    5752.9432   -1997.2987    84.222971 
    4400     1137.274   -106.83133    1.0290294    -105.8023   -18675.528    4.3966585    4.3966585    4.3966585   -18675.528   -42769.471     28667.84   -41924.952     6771.593    3141.9186   -9435.1564    84.990075 
    4500    1451.0371   -107.09291    1.3129288   -105.77998    9068.7483    4.3925299    4.3925299    4.3925299    9068.7483   -15769.245    53663.804   -10688.314    3968.3369   -241.41574    13811.446    84.750871 
    4600      1147.56   -106.81774    1.0383364    -105.7794    24603.512    4.3949969    4.3949969    4.3949969    24603.512    5934.8601    66469.039    1406.6372   -22908.135    1359.1447    16777.193    84.893749 
    4700    1563.1996   -107.17816    1.4144159   -105.76375   -15173.912    4.4059926    4.4059926    4.4059926   -15173.912   -3479.5445   -24395.113   -17647.079   -3434.5038   -4252.0822   -4218.5228    85.532522 
    4800     860.6315    -106.5332   0.77871747   -105.75448    12191.274    4.3981765    4.3981765    4.3981765    12191.274   -48258.284    58715.811    26116.296    16466.354    10967.133    3628.3023    85.078133 
    4900    1733.8219   -107.31687    1.5687985   -105.74807    4493.7261    4.3882475    4.3882475    4.3882475    4493.7261   -43024.087    16091.496     40413.77   -3158.1899    5719.8166   -26109.032    84.503239 
    5000    1380.0697   -107.02344    1.2487161   -105.77472    5720.2406    4.4027857    4.4027857    4.4027857    5720.2406   -35020.404    13024.681    39156.445    14037.919    21373.884    1794.9643    85.345896 
    5100    1062.6626   -106.72615   0.96151949   -105.76463    10488.534    4.4094742    4.4094742    4.4094742    10488.534   -22053.483    34526.467    18992.618     3122.592    11270.718    9605.2989    85.735448 
    5200    1475.9554   -107.06692    1.3354755   -105.73144    7136.6728    4.4029833    4.4029833    4.4029833    7136.6728   -26422.878    70525.839   -22692.942   -6255.2942     5541.927    10433.386    85.357387 
    5300    1356.6239    -106.9507    1.2275018    -105.7232     10801.71    4.3989028    4.3989028    4.3989028     10801.71    50057.685    21040.049   -38692.605   -21637.335    3313.2936    843.45233    85.120291 
    5400    1461.9225   -107.04573    1.3227782   -105.72295    7379.1876    4.4005108    4.4005108    4.4005108    7379.1876     197.9721    12066.995     9872.596    -1288.582    938.42266    -901.2227    85.213669 
    5500    1444.1506   -107.03401    1.3066978   -105.72731   -25638.203    4.4147998    4.4147998    4.4147998   -25638.203   -21738.675   -43952.076   -11223.858    472.94469   -2489.6457    2824.9258    86.046468 
    5600    1758.0166   -107.29947    1.5906904   -105.70878   -23669.872    4.4194521    4.4194521    4.4194521   -23669.872   -19594.637   -37278.618   -14136.362   -7825.2998    6159.2796   -6819.6118    86.318777 
    5700    1418.0011   -106.98209    1.2830372   -105.69906    6752.8691    4.4060839    4.4060839    4.4060839    6752.8691    1084.1692    759.74713    18414.691   -8720.1311    2472.9585   -7447.7119    85.537839 
    5800     1010.982   -106.62732   0.91475778   -105.71256    31782.889    4.4011104    4.4011104    4.4011104    31782.889    48716.919   -14492.597    61124.346   -355.97283   -3353.4358    12815.848    85.248506 
    5900    1174.6812    -106.7945    1.0628762   -105.73163    18945.943    4.4090826    4.4090826    4.4090826    18945.943   -61150.114    23542.548    94445.393    11021.031    5518.9791    21601.595    85.712609 
    6000    1425.1601   -107.02422    1.2895148   -105.73471    2498.8381    4.4095354    4.4095354    4.4095354    2498.8381   -49682.907   -35924.898    93104.319    5043.6954   -4206.7332    16855.811    85.739017 
    6100    1359.3141   -106.96709     1.229936   -105.73715    11672.115    4.4035567    4.4035567    4.4035567    11672.115    2896.8391    33313.636   -1194.1312    9184.5717   -10388.952    11999.099    85.390742 
    6200    1699.9629   -107.27983    1.5381622   -105.74167   -27734.602     4.414075     4.414075     4.414075   -27734.602   -42036.987    16745.466   -57912.284    8302.2451   -6475.4346   -4538.2128    86.004095 
    6300    1341.0926   -106.93532    1.2134488   -105.72187   -12132.009    4.4183045    4.4183045    4.4183045   -12132.009    -22925.97    38047.174   -51517.231    4080.4417    335.87682   -5229.8777    86.251554 
    6400    1730.1579   -107.26086    1.5654832   -105.69537   -15298.628    4.4049278    4.4049278    4.4049278   -15298.628   -38808.078      51179.8   -58267.605    1463.5859    1963.1606   -10315.526    85.470528 
    6500    1340.1287   -106.92165    1.2125766   -105.70907   -6607.9386    4.4035634    4.4035634    4.4035634   -6607.9386    42789.513   -15309.409    -47303.92   -4596.2456   -1527.2857   -7834.6326    85.391128 
    6600     1796.617   -107.34666    1.6256168   -105.72104   -36505.456    4.4126125    4.4126125    4.4126125   -36505.456   -14692.733   -40438.851   -54384.782    344.68953      847.831   -8298.4091    85.918635 
    6700    1588.8642   -107.15142    1.4376377   -105.71378   -7966.5783    4.4158174    4.4158174    4.4158174   -7966.5783    2806.3539   -29280.062    2573.9734    8700.8587     3419.687    3178.8116    86.105978 
    6800    848.75278   -106.47878   0.76796935   -105.71081    167.81451    4.4148648    4.4148648    4.4148648    167.81451    27690.884   -27575.218    387.77744   -15337.063     6363.814   -722.58065    86.050267 
    6900    1196.4193    -106.7747    1.0825454   -105.69216    8742.2564    4.3998709    4.3998709    4.3998709    8742.2564   -5697.8735   -1426.0697    33350.712    1177.0878    20502.839    15651.983    85.176502 
    7000    2026.7461   -107.54094    1.8338424   -105.70709   -19078.824    4.3998364    4.3998364    4.3998364   -19078.824   -29705.277   -28020.237    489.04231    6202.2632   -13367.974   -13222.288    85.174496 
    7100     1050.472   -106.67981   0.95048914   -105.72932   -12027.388    4.4160082    4.4160082    4.4160082   -12027.388   -34942.029    3114.0559   -4254.1921   -10598.314   -1981.2217    8991.5844    86.117144 
    7200    1269.3602   -106.85995    1.1485438    -105.7114    11836.545    4.3982345    4.3982345    4.3982345    11836.545     16111.83    5943.6338    13454.172    7602.0299   -11395.613    4666.9872    85.081503 
    7300    1522.0476   -107.10215    1.3771807   -105.72497    150.46229    4.3809755    4.3809755    4.3809755    150.46229   -20082.559    5046.6158     15487.33   -6342.0439    4723.2565   -2219.1612    84.083829 
    7400    1395.0013    -107.0142    1.2622265   -105.75197    15015.174    4.3983048    4.3983048    4.3983048    15015.174   -12818.255    23332.872    34530.903    6624.9088    1315.5426    7017.1105    85.085581 
    7500    1700.6389   -107.28087    1.5387739   -105.74209   -37970.693    4.4138812    4.4138812    4.4138812   -37970.693   -43225.669   -34518.584   -36167.825    -22096.67    4346.8796    -5056.576    85.992765 
    7600     1302.974   -106.91176    1.1789582    -105.7328    10461.663    4.3949211    4.3949211    4.3949211    10461.663   -18039.282    41824.629    7599.6436    7059.5208    7611.8439    6694.7859     84.88936 
    7700    1476.4594   -107.07093    1.3359315     -105.735    30039.659    4.3859529    4.3859529    4.3859529    30039.659    26141.668    14622.389    49354.921    18820.027   -19194.455   -6641.2526    84.370748 
    7800    1381.7383   -107.01109    1.2502259   -105.76086    16141.427    4.4016649    4.4016649    4.4016649    16141.427   -5349.5558    35073.011    18700.824   -13657.354    87.962534   -3593.7256    85.280736 
    7900     1099.092     -106.748   0.99448155   -105.75352    5036.6625    4.4112487    4.4112487    4.4112487    5036.6625   -3498.5755      10665.2    7943.3635    5043.5255    12900.014    16441.028    85.838997 
    8000    1632.1583   -107.21695    1.4768111   -105.74014   -18565.618    4.3928843    4.3928843    4.3928843   -18565.618   -25252.287   -35477.835    5033.2666   -14398.341   -4929.5867    2601.4432    84.771391 
    8100     1451.794   -107.05243    1.3136138   -105.73881    34264.177    4.3744385    4.3744385    4.3744385    34264.177    10369.168    70271.023    22152.338    3142.8128    12794.087   -4151.2984    83.707995 
    8200    1614.0617   -107.22981    1.4604369   -105.76937   -2991.2066    4.3972608    4.3972608    4.3972608   -2991.2066   -25384.143   -2495.0209    18905.545    8434.9089   -1565.6567    907.31564    85.025005 
    8300    1144.4454   -106.78404    1.0355183   -105.74852   -28529.339    4.4290002    4.4290002    4.4290002   -28529.339   -21243.161   -35106.629   -29238.226   -5212.8058   -8544.0576   -6169.2151    86.879456 
    8400     1749.025   -107.30506    1.5825545    -105.7225   -10222.492    4.4004345    4.4004345    4.4004345   -10222.492   -18865.705   -12188.688    386.91627   -2885.9057    11031.859    1916.3998    85.209239 
    8500    1491.4727   -107.07281    1.3495158   -105.72329    19210.891    4.3615736    4.3615736    4.3615736    19210.891    19279.533    16294.562    22058.578    6032.8714   -4903.8531    10244.705    82.971628 
    8600     1633.146   -107.25442    1.4777048   -105.77671    15794.202    4.3768206    4.3768206    4.3768206    15794.202    -29971.92    9269.0757     68085.45   -2659.0633   -462.36238    -4865.282    83.844819 
    8700    1063.9523   -106.76036   0.96268637   -105.79767   -31249.136    4.4204265    4.4204265    4.4204265   -31249.136   -4808.8103   -28135.465   -60803.132   -2044.7966   -24841.526   -10577.711    86.375886 
    8800    1265.9496   -106.89339    1.1454578   -105.74793    -11393.18    4.4108657    4.4108657    4.4108657    -11393.18   -24760.416    -61587.07    52167.946    -2345.557    3124.6487    1849.0898    85.816641 
    8900    1865.6618   -107.40472      1.68809   -105.71663   -3332.3424    4.3776875    4.3776875    4.3776875   -3332.3424    6449.3253   -9455.6043   -6990.7482    610.91134   -17912.782    -2255.154     83.89465 
    9000    888.57436   -106.55218   0.80400076   -105.74818    18331.981    4.3755373    4.3755373    4.3755373    18331.981     35329.02   -14594.712    34261.637   -2300.5116   -9896.2805   -385.90212    83.771093 
    9100    2045.6982   -107.62755    1.8509908   -105.77656   -36833.897    4.4036089    4.4036089    4.4036089   -36833.897   -52677.077   -74444.944    16620.329    5631.0919   -10848.329   -4627.1282    85.393774 
    9200    1038.7853   -106.70642   0.93991478   -105.76651   -2524.0102     4.419085     4.419085     4.419085   -2524.0102    48326.311   -60020.039    4121.6975    2508.3754    7173.3028   -738.32656     86.29727 
    9300    811.52756   -106.49033   0.73428719   -105.75604    7382.6683    4.4011144    4.4011144    4.4011144    7382.6683    51513.315   -37307.412    7942.1016   -11794.556   -15739.238   -12947.901    85.248741 
    9400    1678.3173     -107.263    1.5185768   -105.74442    20293.914    4.3724026    4.3724026    4.3724026    20293.914    3024.0287   -31558.691    89416.404    13397.715    74.670389    13613.347    83.591177 
    9500    976.52133   -106.66909   0.88357702   -105.78551    8876.1378    4.3928305    4.3928305    4.3928305    8876.1378    21117.878   -2179.5898    7690.1249   -17578.855   -12136.404   -8924.2783    84.768274 
    9600    1804.2706   -107.39281     1.632542   -105.76027   -40611.976    4.4234281    4.4234281    4.4234281   -40611.976   -28823.147   -84392.418   -8620.3623    10535.337   -268.86141    10358.892    86.551963 
    9700    871.85252   -106.50615   0.78887048   -105.71728    5925.8062    4.4284132    4.4284132    4.4284132    5925.8062    45967.298   -41668.787    13478.907   -15295.632   -12940.347   -6442.1895    86.844918 
    9800    1327.4264   -106.89495    1.2010833   -105.69387   -4954.6082    4.3997382    4.3997382    4.3997382   -4954.6082   -23386.677    2149.7655    6373.0864   -24488.646    12823.425   -11067.831    85.168797 
    9900    1589.9562   -107.13647    1.4386258   -105.69784    33711.303    4.3740762    4.3740762    4.3740762    33711.303     39232.66    37255.095    24646.155    12874.785    8681.5629   -5792.1799    83.687197 
   10000    1084.3864   -106.76526   0.98117561   -105.78409   -38.090456     4.398508     4.398508     4.398508   -38.090456    38514.281   -19523.775   -19104.778    6418.7128   -1706.9384   -7589.0463    85.097375 
   10100    1123.6302    -106.7943    1.0166842   -105.77762    11528.798    4.4175451    4.4175451    4.4175451    11528.798    47102.318    13228.361   -25744.285   -4051.6537   -12793.602    -15787.58    86.207089 
   10200    1435.2231   -107.04875      1.29862   -105.75013    2390.7842    4.4062838    4.4062838    4.4062838    2390.7842   -351.85269    16350.461   -8826.2559    11010.427   -7339.0222   -5501.2939    85.549484 
   10300    1665.5201   -107.23969    1.5069976   -105.73269   -4015.0281    4.3944147    4.3944147    4.3944147   -4015.0281    7624.9601   -23323.704    3653.6595   -4746.6472    16374.312    1010.8265    84.860017 
   10400    1587.1064   -107.16316    1.4360473   -105.72711   -3264.7299    4.4037741    4.4037741    4.4037741   -3264.7299    11478.467     15749.19   -37021.846    14719.292    4591.8745    -16097.29    85.403387 
   10500    1519.7056   -107.10798    1.3750616   -105.73292   -14955.593    4.4072846    4.4072846    4.4072846   -14955.593    44736.896   -62371.863    -27231.81    7099.5682   -2514.0907   -5971.0908    85.607788 
   10600     1001.018   -106.64655   0.90574209   -105.74081    30680.404    4.4033435    4.4033435    4.4033435    30680.404    79260.832   -2441.3841    15221.763    3265.7755    15236.044    8040.0829    85.378338 
   10700    1925.9596   -107.48296    1.7426487   -105.74031   -52783.004    4.4152022    4.4152022    4.4152022   -52783.004   -36257.702   -52688.024   -69403.286    7146.4189   -17481.216    4339.2098    86.069997 
   10800    1255.8964   -106.86334    1.1363615   -105.72698    18567.209    4.4044571    4.4044571    4.4044571    18567.209    69697.123    -11217.21   -2778.2874   -10207.473   -804.57304    1894.8138     85.44313 
   10900    1569.4781   -107.15085    1.4200967   -105.73075    1049.5752    4.3927207    4.3927207    4.3927207    1049.5752    3498.3813   -10543.053    10193.398   -1746.7184   -1464.1172    1212.6043    84.761916 
   11000    1646.6949   -107.24391    1.4899642   -105.75395   -10856.858    4.4007222    4.4007222    4.4007222   -10856.858   -16498.015    5851.9277   -21924.487     -21372.6   -11240.366    13065.797    85.225953 
   11100    1123.4949   -106.77501    1.0165618   -105.75845    4014.9433    4.4193233    4.4193233    4.4193233    4014.9433    57218.145   -7836.4987   -37336.817    31.647781    4693.4465   -17240.333    86.311236 
   11200    1234.0061   -106.84704    1.1165547   -105.73048   -6841.2457    4.4188377    4.4188377    4.4188377   -6841.2457     9360.851    18906.443   -48791.031    21099.237   -7649.6114    5567.5092    86.282783 
   11300    1325.3699   -106.92462    1.1992225    -105.7254    3824.0166     4.395436     4.395436     4.395436    3824.0166    12515.421    6786.8092   -7830.1804   -5214.0791    10835.701    1114.5529      84.9192 
   11400    1148.3078   -106.78414     1.039013   -105.74513    40987.557    4.3787211    4.3787211    4.3787211    40987.557    89078.432    17886.517    15997.722    6507.6644   -7902.0983    3123.4273    83.954086 
   11500     1552.232   -107.19394    1.4044922   -105.78945   -42252.795    4.4176839    4.4176839    4.4176839   -42252.795   -14038.096    -42109.81   -70610.479   -3919.5238   -12557.642    2000.0826    86.215217 
   11600    1351.0983   -106.96566    1.2225021   -105.74316   -30485.285    4.4229255    4.4229255    4.4229255   -30485.285    34643.208   -52999.643   -73099.421    23878.919    12698.804   -18889.512    86.522462 
   11700    1264.6592   -106.85058    1.1442902   -105.70629    28862.254    4.3766983    4.3766983    4.3766983    28862.254    14870.383    59742.702    11973.677    5523.2583   -7401.6987   -5178.8564     83.83779 
   11800    1868.7155   -107.43302     1.690853   -105.74216   -5934.8205    4.3809073    4.3809073    4.3809073   -5934.8205   -16713.181    4540.4287   -5631.7095   -582.21486   -1945.3162   -2390.5321    84.079904 
   11900    1140.5825   -106.80433     1.032023   -105.77231   -7418.9806    4.4105718    4.4105718    4.4105718   -7418.9806    20399.744    4475.0557   -47131.741   -4067.0716    14452.098    -2727.145    85.799485 
   12000    1804.5043   -107.38571    1.6327534   -105.75296   -17339.132    4.3956896    4.3956896    4.3956896   -17339.132   -6089.4982   -37760.072    -8167.827   -8408.0918   -13023.387    3241.3974    84.933896 
   12100    1827.3528   -107.41159    1.6534273   -105.75816   -21192.549    4.3944066    4.3944066    4.3944066   -21192.549    -15665.61   -26606.507   -21305.532    4731.9457    7665.3329   -2966.0951    84.859547 
   12200    1311.3125    -106.9647    1.1865031    -105.7782   -15913.256    4.4000227    4.4000227    4.4000227   -15913.256    19799.908    -20830.61   -46709.067   -8623.2209   -10032.917     10139.81     85.18532 
   12300    1216.0107   -106.86955     1.100272   -105.76928    21761.379    4.3876469    4.3876469    4.3876469    21761.379    58757.904    14559.793   -8033.5615    7238.2287    3519.6494   -8457.1593    84.468545 
   12400    1686.1028   -107.29402    1.5256213   -105.76839   -7253.4112     4.385864     4.385864     4.385864   -7253.4112    612.39736    8295.0593    -30667.69   -9992.1752    -10181.53    4284.8006    84.365616 
   12500    1058.4684   -106.73099   0.95772449   -105.77326   -3643.9538    4.3965334    4.3965334    4.3965334   -3643.9538    18160.422   -12248.147   -16844.136    1501.1505    6933.4621    3432.0713    84.982817 
   12600    1388.2979   -107.02228    1.2561611   -105.76612   -1666.6281    4.3892136    4.3892136    4.3892136   -1666.6281   -2952.6367    29507.958   -31555.206    7534.0774    -4007.107   -6020.1919    84.559058 
   12700    1812.3557   -107.42137    1.6398575   -105.78151   -9274.9037    4.3646676    4.3646676    4.3646676   -9274.9037    41463.942   -24055.494   -45233.159    192.57028   -19047.454    13688.977    83.148327 
   12800    1699.7364   -107.35626    1.5379572    -105.8183    14772.647    4.3706945    4.3706945    4.3706945    14772.647    15946.321    43107.125   -14735.504    6262.9942     10270.53   -2487.0746    83.493248 
   12900    967.91697   -106.68335   0.87579162   -105.80756    30692.459     4.387249     4.387249     4.387249    30692.459    81392.221    14279.099    -3593.944   -11706.815   -23631.121    262.65581    84.445566 
   13000    1478.7974   -107.12878     1.338047   -105.79074   -22226.808    4.3828622    4.3828622    4.3828622   -22226.808    12795.474   -40586.312   -38889.585    2247.8816    1742.5905    14250.579    84.192507 
   13100    1466.2977   -107.09842    1.3267369   -105.77169     22900.66    4.3650915    4.3650915    4.3650915     22900.66     10272.46    41831.679    16597.842   -12883.323    13076.768   -6900.0822    83.172558 
   13200    963.34542   -106.65123   0.87165518   -105.77958    13264.553     4.376249     4.376249     4.376249    13264.553    29119.731    8344.6933     2329.235    5852.3504     -3067.04    12725.108    83.811974 
   13300    1371.4516   -107.01318    1.2409182   -105.77226   -9792.5933    4.3877376    4.3877376    4.3877376   -9792.5933    54098.161   -43858.777   -39617.163     -2253.89    18768.599    5338.8646    84.473783 
   13400    1616.0102   -107.23675       1.4622   -105.77455    -29365.88    4.3776759    4.3776759    4.3776759    -29365.88   -24770.744   -45055.613   -18271.284    3675.6083    95.903197   -6640.7394    83.893982 
   13500    849.66393   -106.53517   0.76879378   -105.76637    47133.801    4.3637643    4.3637643    4.3637643    47133.801    75587.187    41624.012    24190.204   -22719.341   -3821.0494    25654.639    83.096717 
   13600    1770.7103   -107.36392    1.6021759   -105.76175   -7424.0258    4.3752896    4.3752896    4.3752896   -7424.0258    7885.0717   -15875.721   -14281.428    4942.6252    11401.039   -7712.1296    83.756863 
   13700    1279.6204   -106.91901    1.1578275   -105.76118   -19844.409    4.3877358    4.3877358    4.3877358   -19844.409    17052.083   -50502.183   -26083.126   -11831.261   -4095.8222    16122.799     84.47368 
   13800    1377.8869   -106.99003     1.246741   -105.74329    572.66215    4.3835837    4.3835837    4.3835837    572.66215    37248.023   -33954.717   -1575.3196    13270.558    5934.5396    3617.0641    84.234096 
   13900    1193.5124   -106.81838    1.0799151   -105.73846    31536.133    4.3666522    4.3666522    4.3666522    31536.133     51079.77    12111.416    31417.213   -3857.9251    20436.727   -14630.103    83.261801 
   14000    1226.6996   -106.87291    1.1099436   -105.76297    23086.955    4.3730448    4.3730448    4.3730448    23086.955    73972.446   -3932.0119   -779.56816   -8179.8821    14.651164    19879.148     83.62801 
   14100    1494.0726   -107.10005    1.3518682   -105.74818   -21952.007    4.3931801    4.3931801    4.3931801   -21952.007   -15507.296   -47611.254   -2737.4706   -7223.6547    25644.323   -9305.4804    84.788515 
   14200    1090.4794   -106.72911   0.98668867   -105.74242   -1024.0468    4.3725648    4.3725648    4.3725648   -1024.0468    59431.625   -53885.348   -8618.4177   -2844.6668    11204.779    10147.862    83.600478 
   14300    1595.3142   -107.19135    1.4434738   -105.74787    6779.8281    4.3560842    4.3560842    4.3560842    6779.8281   -16560.731    25192.758    11707.458    7723.6745   -2599.6008    17302.551    82.658743 
   14400    1821.8095   -107.42755    1.6484115   -105.77914   -23922.716     4.374994     4.374994     4.374994   -23922.716   -4654.4892   -23656.837   -43456.821    13894.874   -3514.1958   -5813.3359    83.739888 
   14500    985.63608   -106.68027   0.89182424   -105.78845   -7554.6118    4.3939755    4.3939755    4.3939755   -7554.6118    59968.976   -56694.015   -25938.796    2798.7582   -15539.379    18642.419    84.834574 
   14600    1444.0522   -107.07438    1.3066087   -105.76777   -4445.5108    4.3884053    4.3884053    4.3884053   -4445.5108    14379.465   -8527.0332   -19188.964    7567.8987   -15377.363   -7366.1986    84.512351 
   14700    2088.0188   -107.65021    1.8892833   -105.76093   -22827.309    4.3716359    4.3716359    4.3716359   -22827.309    21830.164   -46590.047   -43722.044   -10164.145   -841.00044    18875.256    83.547208 
   14800    1497.2925   -107.14459    1.3547817   -105.78981    23678.186    4.3585175    4.3585175    4.3585175    23678.186    22583.723    13015.675     35435.16    8779.0261    49.274256    -1452.376    82.797339 
   14900    814.25066   -106.55769   0.73675111   -105.82093    1073.6441     4.381843     4.381843     4.381843    1073.6441    5791.3764    -15763.13    13192.686     8439.454   -12998.406   -2302.5935    84.133788 
   15000    1861.9103   -107.46689    1.6846956   -105.78219    -14231.36    4.3858759    4.3858759    4.3858759    -14231.36    23907.333   -53241.556   -13359.858    9047.1393     2112.121    23250.349    84.366302 
   15100    1173.6158   -106.82875    1.0619123   -105.76684    5450.1832     4.363181     4.363181     4.363181    5450.1832    19927.414     6423.942   -10000.806     7323.026   -16259.649   -5605.5398    83.063397 
   15200     1304.058   -106.94858    1.1799391   -105.76864    2136.8149     4.358267     4.358267     4.358267    2136.8149    18072.359   -8616.0086   -3045.9062     6653.611    9214.5921    8039.8581    82.783065 
   15300    1835.7004   -107.43105    1.6609803   -105.77007    -17869.04     4.374206     4.374206     4.374206    -17869.04    5236.4161   -57762.514    -1081.023    1362.4255   -7696.2294    3224.9583    83.694651 
   15400    1115.7322   -106.77778     1.009538   -105.76824   -20872.386    4.3889276    4.3889276    4.3889276   -20872.386    18452.643   -48185.985   -32883.817    2495.0116   -954.52464   -13360.532    84.542532 
   15500    1795.8988   -107.36555     1.624967   -105.74058   -12497.801    4.3874754    4.3874754    4.3874754   -12497.801   -3095.1589   -47487.624    13089.379   -4478.1003   -2973.4028   -4511.2057    84.458639 
   15600    1233.9753   -106.85769    1.1165268   -105.74116    18347.927    4.3672317    4.3672317    4.3672317    18347.927    53173.793   -34824.136    36694.126    1058.8056   -1162.6977     -10793.3    83.294958 
   15700    1322.3467   -106.96407    1.1964871   -105.76759   -23507.806    4.3651441    4.3651441    4.3651441   -23507.806   -35383.445   -31848.055   -3291.9167   -42.295791   -6848.1635    -15033.92    83.175565 
   15800    1333.0035   -106.98485    1.2061296   -105.77872    14088.344    4.3724093    4.3724093    4.3724093    14088.344    3353.2541    -42857.09    81768.867   -10150.439    441.72803    -4802.081    83.591559 
   15900     1738.736   -107.34716    1.5732449   -105.77391   -21855.608    4.3826016    4.3826016    4.3826016   -21855.608   -34795.645   -28068.144   -2703.0343   -1599.7783   -5055.8792   -2230.6342    84.177492 
   16000    753.71941   -106.45302   0.68198116   -105.77104   -22058.309    4.3878878    4.3878878    4.3878878   -22058.309    -51691.92   -47566.172    33083.164   -8504.9914    15805.791   -877.60959    84.482461 
   16100    1898.5351   -107.46579    1.7178345   -105.74795   -12031.054    4.3706819    4.3706819    4.3706819   -12031.054   -5314.6633   -17138.804   -13639.696    15563.643    15754.853   -2607.0062    83.492523 
   16200    1440.7963   -107.06407    1.3036628   -105.76041    866.73823    4.3684693    4.3684693    4.3684693    866.73823    14964.204   -23041.512    10677.522   -12555.442   -5564.4521   -1046.9118    83.365787 
   16300    1041.7866   -106.71773   0.94263044    -105.7751   -24817.019    4.3818154    4.3818154    4.3818154   -24817.019   -58684.994   -42393.869    26627.805    5246.4722    16838.421    9391.3286    84.132198 
   16400    1486.4987   -107.10139    1.3450152   -105.75638     12627.98    4.3829962    4.3829962    4.3829962     12627.98    65152.573   -20987.061   -6281.5731    13004.845   -16406.938   -1771.9935    84.200233 
   16500    1205.3372   -106.84898    1.0906144   -105.75837    8386.2134    4.3781351    4.3781351    4.3781351    8386.2134    3816.7307    12621.308    8720.6019   -6686.5087   -1042.9751    12106.237    83.920389 
   16600    1679.0338   -107.28399    1.5192251   -105.76476   -13278.912    4.3777943    4.3777943    4.3777943   -13278.912   -21567.705   -23368.885    5099.8536    7193.6772    1472.8325    6084.0333    83.900789 
   16700    1739.6957   -107.35175    1.5741132   -105.77764   -4621.4594    4.3886345    4.3886345    4.3886345   -4621.4594     48369.49   -35930.737    -26303.13   -833.39964    1285.5662   -60.607676    84.525596 
   16800    743.06917   -106.45927    0.6723446   -105.78692     6002.758    4.3771173    4.3771173    4.3771173     6002.758    55017.004   -41487.255    4478.5255   -9232.7913    4651.2386    8842.5147    83.861871 
   16900    1660.2768   -107.28174    1.5022533   -105.77948      9393.05    4.3584814    4.3584814    4.3584814      9393.05    14030.956    6909.6422    7238.5514    1790.5963    22657.467    1384.3777    82.795283 
   17000    1674.2281   -107.30633    1.5148768   -105.79145    14983.329    4.3742032    4.3742032    4.3742032    14983.329    33584.779   -15617.531    26982.738    6208.8714   -11215.159   -218.58703    83.694491 
   17100    1114.2431   -106.78474    1.0081906   -105.77655   -33953.765    4.3929141    4.3929141    4.3929141   -33953.765    -11251.11   -46159.853   -44450.332    -5812.541    2582.5964    325.66092    84.773112 
   17200    1726.4633   -107.31947    1.5621403   -105.75732   -22777.352    4.3777341    4.3777341    4.3777341   -22777.352   -21122.574   -28628.313   -18581.169    15129.176    -7201.324   -2925.4024    83.897327 
   17300    1335.6671   -106.96951    1.2085397   -105.76097    47838.633    4.3626365    4.3626365    4.3626365    47838.633    82363.732    6034.6589     55117.51   -3183.8739    -23271.17    7218.4844    83.032301 
   17400    1252.6208   -106.92095    1.1333976   -105.78756   -2947.7553    4.3718735    4.3718735    4.3718735   -2947.7553    32762.504   -34032.805   -7572.9651    471.89189   -2653.9173   -4759.8963     83.56083 
   17500    1484.5962   -107.12704    1.3432938   -105.78375   -12140.787    4.3815801    4.3815801    4.3815801   -12140.787   -3561.7576   -29439.239   -3421.3631    6246.2245   -1515.3144    418.76645    84.118644 
   17600    1262.0867   -106.92201    1.1419626   -105.78005   -4052.5454    4.3924164    4.3924164    4.3924164   -4052.5454    8157.8967   -39255.366    18939.834     1715.788   -2886.8344    10238.957    84.744305 
   17700    1447.5288   -107.07933    1.3097545   -105.76957   -16078.288    4.3858412    4.3858412    4.3858412   -16078.288    731.82194    2621.3945   -51588.079   -8773.4214   -10424.283   -8108.1497    84.364299 
   17800    1435.2671   -107.05811    1.2986598   -105.75945   -6164.0878    4.3668632    4.3668632    4.3668632   -6164.0878   -14228.701    4220.7045   -8484.2669   -6452.1788    17046.739   -4448.7165    83.273872 
   17900    1232.0142   -106.90016    1.1147524    -105.7854    22133.422     4.372236     4.372236     4.372236    22133.422    50643.364   -849.51682     16606.42     7724.957   -17592.495    1352.4172    83.581619 
   18000    928.17264   -106.64501   0.83983011   -105.80518   -686.83551    4.3944685    4.3944685    4.3944685   -686.83551    72279.875   -36028.123   -38312.259    9758.5334    3202.6346   -16428.535    84.863134 
   18100    1198.5077   -106.88006     1.084435   -105.79562   -9368.8689    4.3823521    4.3823521    4.3823521   -9368.8689    70379.475   -45496.421   -52989.661   -839.96217   -2100.6766    2802.1546    84.163115 
   18200    1364.9811   -107.02899    1.2350636   -105.79393    32541.135    4.3621661    4.3621661    4.3621661    32541.135    77433.189   -1199.5862    21389.803   -14601.889   -7436.4553   -4290.2147    83.005445 
   18300    1218.8543   -106.90965     1.102845    -105.8068    -20574.19    4.3759566    4.3759566    4.3759566    -20574.19    -14510.68   -36553.403   -10658.485   -3082.0349   -15717.784    10646.772    83.795178 
   18400    1592.3769   -107.24742    1.4408161    -105.8066   -26409.366    4.3808927    4.3808927    4.3808927   -26409.366   -17476.496   -28960.993   -32790.609    5514.8241   -4573.3062    4134.5999     84.07906 
   18500    1667.4372   -107.30421    1.5087322   -105.79548    1942.4119    4.3778357    4.3778357    4.3778357    1942.4119     75813.62   -35133.463   -34852.922   -9897.5407    19893.598   -12074.886     83.90317 
   18600    1405.0935   -107.07604    1.2713581   -105.80468   -5583.6401    4.3787271    4.3787271    4.3787271   -5583.6401     32907.59   -20073.704   -29584.807    5928.9841   -17654.129      15638.8    83.954431 
   18700    588.03329   -106.34987   0.53206487   -105.81781    41073.301    4.3713967    4.3713967    4.3713967    41073.301    120136.73    -1270.005    4353.1801   -25738.327    2066.8785   -11856.043    83.533494 
   18800    1208.1233    -106.9055    1.0931353   -105.81236    27422.617    4.3799895    4.3799895    4.3799895    27422.617    133155.17    -21802.42   -29084.899    15819.314   -29379.001   -4603.1646     84.02707 
   18900    1530.7099   -107.18597    1.3850185   -105.80095   -25041.733    4.3880827    4.3880827    4.3880827   -25041.733   -37664.808   -54294.702     16834.31   -14677.559    18208.984    -4609.055    84.493715 
   19000    1374.9717   -107.02446    1.2441033   -105.78036    -11168.05    4.3815274    4.3815274    4.3815274    -11168.05    32017.449   -35534.996   -29986.602    7335.9286    4156.5861   -16647.003    84.115609 
   19100    1254.2542   -106.89335    1.1348756   -105.75847    10598.463    4.3827302    4.3827302    4.3827302    10598.463     19853.71   -29526.763     41468.44   -6462.4774   -8743.4401    5553.1454    84.184902 
   19200    1370.2155   -106.99646    1.2397997   -105.75666   -25195.651    4.3778443    4.3778443    4.3778443   -25195.651   -20798.664   -42997.863   -11790.425   -19026.299    8310.5978   -17306.362    83.903665 
   19300    1820.3392   -107.41139    1.6470812   -105.76431   -749.11094     4.375092     4.375092     4.375092   -749.11094    18632.317    -5652.623   -15227.026    8627.4308     8786.329   -1964.2074    83.745515 
   19400     1713.354   -107.31569    1.5502787   -105.76541   -1935.9631    4.3775035    4.3775035    4.3775035   -1935.9631    44322.799   -36933.119   -13197.569   -22420.038   -4591.0685   -4401.9264    83.884074 
   19500    941.56381   -106.62439   0.85194673   -105.77244    22981.572     4.376775     4.376775     4.376775    22981.572     35848.91    11227.479    21868.327   -2543.8552    19957.614   -9051.0173    83.842198 
   19600    1865.4586   -107.45145    1.6879061   -105.76354   -45534.648    4.3919178    4.3919178    4.3919178   -45534.648   -64262.518   -34544.728   -37796.697    -2735.629   -8865.4817    11842.254    84.715445 
   19700    1293.7798   -106.92469    1.1706391   -105.75405    32241.331    4.3703947    4.3703947    4.3703947    32241.331    56859.038   -28079.434    67944.388   -16471.722    16608.371    -18107.33    83.476067 
   19800    1760.6236   -107.35417    1.5930493   -105.76112    -777.1231    4.3708001    4.3708001    4.3708001    -777.1231    12775.376   -18195.286    3088.5402    671.14908    2959.8267   -1314.4333    83.499299 
   19900    2025.2781     -107.605    1.8325142   -105.77248   -40364.206    4.4009911    4.4009911    4.4009911   -40364.206   -54030.982   -32515.253   -34546.384   -18505.283   -3716.8443   -8725.7547    85.241578 
   20000    999.98024   -106.65346   0.90480314   -105.74866   -19266.246    4.4069914    4.4069914    4.4069914   -19266.246   -35088.067   -29051.993    6341.3212    357.07391   -148.73127   -4673.1578    85.590703 
   20100    1665.0156   -107.22308    1.5065411   -105.71654    27115.649    4.3801098    4.3801098    4.3801098    27115.649    44426.698    18649.682    18270.568     1742.753   -4348.4405   -1792.6164    84.033994 
   20200    1530.8814   -107.12729    1.3851736   -105.74211    -8703.262    4.3791423    4.3791423    4.3791423    -8703.262   -9662.5375   -22810.826    6363.5778    9240.9484    13230.289   -9655.4969    83.978316 
   20300    1117.7796   -106.76757    1.0113905   -105.75618    6961.6868    4.3810565    4.3810565    4.3810565    6961.6868   -55492.246    13452.691    62924.615   -1940.4516   -679.79452   -2550.0607     84.08849 
   20400    1806.8069    -107.3874    1.6348369   -105.75257   -11686.908    4.3899152    4.3899152    4.3899152   -11686.908   -14279.058    -14213.89   -6567.7767    7546.7295    2885.2368   -5849.0512    84.599619 
   20500    853.33852   -106.52377   0.77211862   -105.75165   -7643.6628    4.4015929    4.4015929    4.4015929   -7643.6628   -7713.6297   -25658.254    10440.895    16228.263    11297.194   -6654.1268    85.276548 
   20600    1614.8838   -107.18131    1.4611808   -105.72013   -11053.478    4.3933476    4.3933476    4.3933476   -11053.478   -7619.4349    414.22945   -25955.229    5987.6355   -901.26493    3020.2135    84.798212 
   20700    1513.3374   -107.08566    1.3692995   -105.71636   -4354.9818    4.3736636    4.3736636    4.3736636   -4354.9818   -7886.9358   -42608.276    37430.266    19742.507   -12966.363    4380.4475    83.663522 
   20800     971.6061   -106.62692   0.87912962   -105.74779    3218.2512    4.3652367    4.3652367    4.3652367    3218.2512   -1731.2803   -14399.311    25785.345    1304.1833    33473.763   -3452.6233    83.180858 
   20900    1510.9537    -107.1335    1.3671427   -105.76636   -4205.7804    4.3678643    4.3678643    4.3678643   -4205.7804   -13922.282   -33740.641    35045.581    17127.183   -17466.368   -6596.4488    83.331159 
   21000    1491.9298   -107.12327    1.3499294   -105.77334   -42802.507    4.3818001    4.3818001    4.3818001   -42802.507   -31226.112   -47925.521   -49255.888    8884.0918    19914.191   -6426.9824    84.131317 
   21100    1482.7975   -107.11307    1.3416663   -105.77141   -5597.2897    4.3658355    4.3658355    4.3658355   -5597.2897   -11301.809   -33870.419    28380.359   -3554.3496    10894.276    7992.2902    83.215095 
   21200    1443.8295    -107.0766    1.3064073   -105.77019     15133.03    4.3564875    4.3564875    4.3564875     15133.03    23040.781   -38742.154    61100.463    20545.941   -5214.2324    -3769.331    82.681706 
   21300    858.74696   -106.56413    0.7770123   -105.78711   -26202.826    4.3775618    4.3775618    4.3775618   -26202.826   -10774.995   -37242.224   -30591.259   -6372.9801    31658.972    -11160.17    83.887424 
   21400    1804.8257   -107.39559    1.6330442   -105.76255    8400.1954    4.3763952    4.3763952    4.3763952    8400.1954    18899.381   -6051.7422    12352.947    2262.4964    -5568.571    4458.2056    83.820373 
   21500    1637.9477   -107.24656    1.4820495   -105.76451   -9889.6656    4.3623379    4.3623379    4.3623379   -9889.6656    -2115.835   -17692.848   -9860.3144     5784.276    17716.699   -21182.439    83.015256 
   21600    774.50466   -106.47493    0.7007881   -105.77414     28062.56    4.3580378    4.3580378    4.3580378     28062.56    78858.831    6925.2218   -1596.3737   -10836.285    18291.895    1239.6066    82.770006 
   21700    1695.6923   -107.30111     1.534298   -105.76681   -3312.8571    4.3762234    4.3762234    4.3762234   -3312.8571    28195.198   -20634.161   -17499.609    -222.2161   -10989.262   -3588.5578    83.810504 
   21800    1424.5323   -107.05284    1.2889468    -105.7639   -8513.9847    4.3737368    4.3737368    4.3737368   -8513.9847    1474.2333   -23741.596   -3274.5908   -9680.5782    30706.432   -15304.481    83.667722 
   21900    1545.3562   -107.15448    1.3982707   -105.75621    14361.095    4.3651327    4.3651327    4.3651327    14361.095    80938.771   -28141.706   -9713.7798   -2921.5607   -4657.0437     2421.854    83.174914 
   22000    1232.9212   -106.89089     1.115573   -105.77532    33556.584    4.3616682    4.3616682    4.3616682    33556.584    86523.042   -23512.501    37659.213    9205.8193    9446.1553   -10305.649    82.977026 
   22100    1150.0876   -106.84294    1.0406234   -105.80231   -20260.997    4.3821779    4.3821779    4.3821779   -20260.997    30436.713   -47099.523   -44120.182   -5418.2027    17318.174   -1926.2562    84.153079 
   22200    2101.4013   -107.66941     1.901392   -105.76802     2274.562     4.374691     4.374691     4.374691     2274.562    22163.423   -30939.608    15599.871    2539.4503    1230.5433    4128.5156    83.722494 
   22300    538.50085    -106.2529   0.48724689   -105.76566    70780.689    4.3516973    4.3516973    4.3516973    70780.689    153552.34    31722.751    27066.975   -1572.1194    34847.586   -6514.3871    82.409265 
   22400    1709.1189    -107.3157    1.5464467   -105.76925    -28077.83    4.3784062    4.3784062    4.3784062    -28077.83   -12410.813   -23484.136   -48338.542   -1514.8797    15810.903    7949.9387    83.935976 
   22500    1298.3214   -106.93652    1.1747485   -105.76177     28391.59    4.3724695    4.3724695    4.3724695     28391.59    96913.396   -21975.584    10236.959   -89.971679    8579.9476   -3049.7108    83.595014 
   22600      1411.68   -107.04316    1.2773177   -105.76584   -6203.8906    4.3726438    4.3726438    4.3726438   -6203.8906    18344.442   -17636.251   -19319.863    -4738.865    28228.268    11933.718    83.605013 
   22700    1871.9477   -107.45387    1.6937776    -105.7601   -1016.0164    4.3727274    4.3727274    4.3727274   -1016.0164    54292.307   -50352.287   -6988.0693   -775.96242   -15513.737    5544.7062    83.609804 
   22800    1147.4522   -106.81996    1.0382389   -105.78173   -16233.333    4.3741433    4.3741433    4.3741433   -16233.333     15976.21    -43661.57   -21014.639   -9210.1429      28136.2      608.764     83.69105 
   22900    1621.9277   -107.25026    1.4675543   -105.78271    -2270.381    4.3836723    4.3836723    4.3836723    -2270.381    18759.061   -31214.466    5644.2617    11555.254    240.36514    2427.1463      84.2392 
   23000    1298.5212   -106.96178    1.1749293   -105.78685    1219.0877    4.3796832    4.3796832    4.3796832    1219.0877    24333.825    3465.5503   -24142.113   -3020.5647    5513.6972     4969.093    84.009442 
   23100    1002.4562   -106.68649    0.9070434   -105.77945    7652.6801    4.3700843    4.3700843    4.3700843    7652.6801    15827.576   -9968.8832    17099.347    11606.471    28243.656    2385.3981    83.458282 
   23200    1945.1633   -107.52521    1.7600246   -105.76519   -3580.4492    4.3755976    4.3755976    4.3755976   -3580.4492    23862.229   -39806.991     5203.415   -3862.7509     -19015.8    498.33511    83.774553 
   23300    1168.8827     -106.825    1.0576297   -105.76737    2163.0126    4.3773535    4.3773535    4.3773535    2163.0126    15420.531     2137.427    -11068.92    1558.3734     19868.88    2769.5302     83.87545 
   23400    1602.1421   -107.21285    1.4496519    -105.7632    4549.7682    4.3772509    4.3772509    4.3772509    4549.7682    37593.193   -14445.743   -9498.1456    1753.8491    3030.5596   -5318.4607    83.869553 
   23500    1515.5559   -107.14515    1.3713068   -105.77384     -14070.3    4.3766403    4.3766403    4.3766403     -14070.3   -16407.623   -4576.9327   -21226.344    4187.1383     3549.158    4035.3868    83.834458 
   23600    1268.6102   -106.93486    1.1478652   -105.78699    17673.006    4.3721046    4.3721046    4.3721046    17673.006    47368.506   -4791.4339    10441.945    7294.4757    36053.213    1195.3172    83.574087 
   23700    1704.8244   -107.31774    1.5425609   -105.77518    10627.697    4.3777582    4.3777582    4.3777582    10627.697    72706.904   -1496.6085   -39327.204   -6822.6054   -8216.6046   -3899.5352    83.898716 
   23800    778.76743   -106.48706   0.70464514   -105.78242   -13410.446    4.3750407    4.3750407    4.3750407   -13410.446   -28734.038    30112.824   -41610.125   -866.63282    29627.743   -70.467173     83.74257 
   23900     1761.929   -107.35553    1.5942304    -105.7613    340.09482    4.3735127    4.3735127    4.3735127    340.09482   -7098.4286    24201.448   -16082.735   -1713.6403   -12237.665   -1348.3413     83.65486 
   24000     923.1771   -106.60194   0.83531004   -105.76663    11432.175    4.3793779    4.3793779    4.3793779    11432.175    23238.484    27627.495   -16569.454   -3162.9065    16038.692   -6722.8681    83.991872 
   24100    1711.1997    -107.2951    1.5483295   -105.74677   -12482.959    4.3824171    4.3824171    4.3824171   -12482.959   -8227.0371    8510.2016   -37732.042   -1850.9902    2926.1373   -4541.3861     84.16686 
   24200    1198.9397   -106.83207    1.0848258   -105.74725     20538.55    4.3826987    4.3826987    4.3826987     20538.55    61828.313    23774.251   -23986.913   -10918.964    4032.7805    -3676.336    84.183088 
   24300    645.61902   -106.35565   0.58416966   -105.77148    30447.872    4.3774942    4.3774942    4.3774942    30447.872    77744.144    43260.972     -29661.5   -18742.441     27743.81    -1778.512    83.883539 
   24400    2273.1624   -107.82761    2.0568051   -105.77081   -17061.453    4.3827874    4.3827874    4.3827874   -17061.453    5444.1102   -6558.5383   -50069.932    6801.4212    -17337.47   -9459.0889    84.188196 
   24500    1295.5991   -106.95613    1.1722853   -105.78385   -9926.6712    4.3844266    4.3844266    4.3844266   -9926.6712    574.95707    31224.206   -61579.176    11004.494    31011.737    3312.2696    84.282693 
   24600    1305.2546   -106.95033    1.1810218   -105.76931    21375.755     4.382848     4.382848     4.382848    21375.755    35669.023    43821.213   -15362.971    20966.396    1957.0986   -1630.5499    84.191688 
   24700     1432.155   -107.05605    1.2958439   -105.76021   -18190.048    4.3919882    4.3919882    4.3919882   -18190.048    27286.729   -23707.694    -58149.18    2010.1762    23482.324   -2194.1803    84.719519 
   24800    1784.9409   -107.36523     1.615052   -105.75018    -25096.01    4.3933627    4.3933627    4.3933627    -25096.01   -34600.048    19914.216   -60602.199    7306.1083   -1234.3994   -2990.3525    84.799089 
   24900    1132.3159   -106.77381    1.0245432   -105.74926    45814.642    4.3716025    4.3716025    4.3716025    45814.642    124260.94    33461.186   -20278.197    -11197.66    2405.7173   -4615.8722    83.545293 
   25000    1321.9818   -106.97088    1.1961569   -105.77472    5708.6574    4.3742946    4.3742946    4.3742946    5708.6574    47260.534    4902.5895   -35037.151    9975.5084    13398.364    3328.7657    83.699738 
   25100     1455.441   -107.10308    1.3169136   -105.78617   -5907.5704    4.3963798    4.3963798    4.3963798   -5907.5704    40350.592   -7152.4658   -50920.837   -4010.6284   -16255.801   -10362.046    84.973913 
   25200    1137.2145   -106.80368    1.0289755   -105.77471   -20925.648    4.4037635    4.4037635    4.4037635   -20925.648   -23474.308    20586.613   -59889.251   -4769.7556    33908.447     108.9482    85.402772 
   25300    1519.9927   -107.12468    1.3753213   -105.74936   -10965.772    4.3818055    4.3818055    4.3818055   -10965.772   -7942.0961    9659.8174   -34615.039    11615.514   -7687.7089    6402.8851    84.131627 
   25400    809.94937      -106.49   0.73285921   -105.75714    35451.613    4.3705288    4.3705288    4.3705288    35451.613     138094.1   -10229.164   -21510.102     20098.01    13820.251   -13273.318    83.483753 
   25500    1688.1092   -107.30982    1.5274367   -105.78239   -18934.231    4.3938534    4.3938534    4.3938534   -18934.231    16645.931   -18532.427   -54916.196    -16860.32    17012.847    6013.3165    84.827502 
   25600    1962.3268   -107.53926    1.7755545   -105.76371   -38053.498    4.4114062    4.4114062    4.4114062   -38053.498    -11608.61    -32033.78   -70518.104   -3455.9017   -8710.5354   -15054.881     85.84819 
   25700    1369.9921   -107.00128    1.2395977   -105.76168    13889.795    4.3798221    4.3798221    4.3798221    13889.795     98942.43   -8736.7507   -48536.293    8008.4463    28737.274    5175.7412    84.017435 
   25800    1104.5237   -106.76927   0.99939623   -105.76988     55634.94    4.3605667    4.3605667    4.3605667     55634.94    73306.709    71594.832    22003.278    13570.873   -12177.247   -6429.6241    82.914178 
   25900    1531.6466   -107.18991    1.3858661   -105.80404   -11538.263    4.3960585    4.3960585    4.3960585   -11538.263    46913.562   -27922.569   -53605.781   -1824.6887     10716.49   -6747.0638    84.955285 
   26000    1184.0506   -106.86421    1.0713539   -105.79286   -30971.651     4.407413     4.407413     4.407413   -30971.651    3349.9836   -16662.499   -79602.439    403.01668    28214.482    4662.1381     85.61527 
   26100    1454.0881   -107.08659    1.3156894    -105.7709    20664.628    4.3749872    4.3749872    4.3749872    20664.628    43520.244    20728.945   -2255.3051    7252.7283   -21416.802   -3378.2366    83.739499 
   26200    1674.1598   -107.29767     1.514815   -105.78285    -2633.168    4.3699371    4.3699371    4.3699371    -2633.168    34154.843    -7801.294   -34253.054     12460.76     19731.49   -3558.1173    83.449852 
   26300    1243.6314   -106.93033    1.1252638   -105.80507    3733.8061    4.3885042    4.3885042    4.3885042    3733.8061     14901.95    18188.103   -21888.635   -3612.3161    -12631.61   -4360.2392    84.518068 
   26400    1306.2694   -106.96378      1.18194   -105.78184     -5598.33    4.4142627    4.4142627    4.4142627     -5598.33    58131.932   -13653.577   -61273.345    3617.0358    203.77424    1451.3431    86.015064 
   26500    1626.7356   -107.24841    1.4719045    -105.7765   -33826.569    4.3809966    4.3809966    4.3809966   -33826.569    5003.3664   -52242.497   -54240.576    10342.539    19187.127   -17513.755    84.085042 
   26600    1145.1764   -106.78132    1.0361797   -105.74514    54027.704    4.3312756    4.3312756    4.3312756    54027.704    132017.68     3762.517    26302.918   -11116.186   -23358.834   -5602.5239    81.254508 
   26700      1445.26   -107.13429    1.3077016   -105.82658    13655.934    4.3713828    4.3713828    4.3713828    13655.934    85406.691   -19663.044   -24775.843   -196.37102    10704.283   -809.72261      83.5327 
   26800    1015.5568   -106.72141    0.9188971   -105.80252   -33637.342    4.4193061    4.4193061    4.4193061   -33637.342    46138.599   -86141.864   -60908.761    5771.6694   -2942.5762   -13820.427    86.310228 
   26900    1780.4846   -107.38897    1.6110198   -105.77795   -10190.468    4.3853802    4.3853802    4.3853802   -10190.468    19029.862   -48414.395   -1186.8718    808.89179   -13931.164    854.53126    84.337701 
   27000    1315.4264   -106.93625    1.1902255   -105.74603    40251.787    4.3448154    4.3448154    4.3448154    40251.787    117878.09   -12647.934    15525.201   -1269.3956    18306.392   -18484.087    82.018909 
   27100    993.63063    -106.6923   0.89905787   -105.79325    7935.4705     4.365971     4.365971     4.365971    7935.4705    44109.606   -30585.425    10282.231    5508.5036    1495.9904    590.64591    83.222841 
   27200    1721.4408   -107.34902    1.5575958   -105.79142   -13145.867     4.388931     4.388931     4.388931   -13145.867    43389.426   -40121.184   -42705.844   -8050.9183   -5303.3358   -6190.8134    84.542731 
   27300    1249.1442   -106.91887    1.1302519   -105.78862   -9067.8865    4.3910786    4.3910786    4.3910786   -9067.8865   -3840.3437   -34581.757    11218.441    11841.431    1071.6877   -9656.9105    84.666897 
   27400    1139.2356   -106.79935    1.0308044   -105.76854    14182.627    4.3789507    4.3789507    4.3789507    14182.627    111541.68   -28887.354   -40106.441    418.16128    11534.093    6412.0074    83.967298 
   27500    1420.1121   -107.04339    1.2849473   -105.75844     14331.48    4.3660016    4.3660016    4.3660016     14331.48     16149.03   -38070.003    64915.414    19732.171   -2534.6381   -14037.096     83.22459 
   27600    1440.1558    -107.0827    1.3030832   -105.77961    -32805.05    4.3824485    4.3824485    4.3824485    -32805.05   -3510.3733   -68876.319   -26028.457    15090.944    23363.979    6086.3055    84.168671 
   27700    1613.1146    -107.2207      1.45958   -105.76112   -16508.667    4.3838936    4.3838936    4.3838936   -16508.667    15807.666   -48596.728    -16736.94    7095.1323   -6018.8315    6331.5344    84.251963 
   27800    1205.7397    -106.8523    1.0909787   -105.76132   -6879.2641    4.3726025    4.3726025    4.3726025   -6879.2641   -20629.658   -15709.476    15701.342    17733.862    42582.534    5823.1004    83.602641 
   27900    1405.9963   -107.03598     1.272175    -105.7638    6507.3807    4.3709926    4.3709926    4.3709926    6507.3807    16301.881   -7042.3089     10262.57   -1773.0678   -12957.738    10763.621    83.510332 
   28000     1536.034   -107.15611    1.3898358   -105.76628    2434.4703    4.3840246    4.3840246    4.3840246    2434.4703   -8418.2058   -9720.5561    25442.173     20884.21    9341.9345   -3590.2653    84.259512 
   28100    849.72185   -106.52298   0.76884618   -105.75414   -8086.1426    4.3996984    4.3996984    4.3996984   -8086.1426    4219.8058    -31389.47     2911.236    7030.2875    12566.773    27713.734    85.166482 
   28200     1266.208   -106.86904    1.1456916   -105.72335   -7000.7741    4.3789956    4.3789956    4.3789956   -7000.7741   -2487.5824   -18460.791    -53.94874    4986.9419   -6835.9594   -2787.6001    83.969877 
   28300    1289.2191   -106.89096    1.1665125   -105.72445    5173.9761    4.3681459    4.3681459    4.3681459    5173.9761    11993.669   -15636.662    19164.922    15875.863    42717.495    -7099.558    83.347278 
   28400    1103.8927   -106.74957   0.99882535   -105.75074     2087.563    4.3930172    4.3930172    4.3930172     2087.563    19230.705   -45585.784    32617.768     6522.897    22882.996   -3956.8726    84.779083 
   28500    1711.7405   -107.28638    1.5488187   -105.73756   -34266.422    4.4057164    4.4057164    4.4057164   -34266.422    -22910.75   -61410.284   -18478.232    11508.996   -1804.3825   -14580.859    85.516438 
   28600     940.8711   -106.58195   0.85131994   -105.73063   -17748.835    4.4013445    4.4013445    4.4013445   -17748.835   -40113.817   -35047.919     21915.23   -7061.5813    16806.935     14527.99    85.262113 
   28700    2134.7642   -107.65046    1.9315795   -105.71888    11050.481    4.3629533    4.3629533    4.3629533    11050.481    10311.142    15823.323    7016.9784   -8139.7943   -22802.093    3219.1112    83.050392 
   28800    1084.4565   -106.73178   0.98123903   -105.75055    32967.388    4.3542203    4.3542203    4.3542203    32967.388   -10027.107    43338.083    65591.189      2198.73    39022.832   -3907.6113    82.552684 
   28900     1671.249    -107.2735    1.5121812   -105.76132   -15446.895    4.3936702    4.3936702    4.3936702   -15446.895   -22377.218   -12938.394   -11025.073   -15497.219   -646.63302    16886.109    84.816896 
   29000    941.30205   -106.59555   0.85170988   -105.74384    29559.838    4.3921928    4.3921928    4.3921928    29559.838   -27081.257    43983.198    71777.574    -311.3798    21262.324   -5408.0398    84.731364 
   29100      1825.27   -107.38603    1.6515426   -105.73449   -32054.315    4.3761556    4.3761556    4.3761556   -32054.315   -30307.396    -19483.68    -46371.87   -1537.0465    33835.262    7652.4532    83.806607 
   29200    1178.6343   -106.80026    1.0664531    -105.7338    51098.547     4.361624     4.361624     4.361624    51098.547     7351.783    51214.297    94729.562   -12033.619    520.66014   -6530.2542    82.974502 
   29300    1328.8359    -106.9711    1.2023586   -105.76874   -34851.377    4.3834701    4.3834701    4.3834701   -34851.377   -50402.151    14469.173   -68621.153   -312.94383    46226.229    14187.346    84.227547 
   29400    1602.4114   -107.18201    1.4498955   -105.73212   -2776.4135    4.3984918    4.3984918    4.3984918   -2776.4135   -12831.604   -26326.333    30828.697   -2596.6148    -12417.91    7932.7563    85.096436 
   29500    1564.3906   -107.12842    1.4154935   -105.71293   -16406.411    4.3853955    4.3853955    4.3853955   -16406.411   -39097.218    7852.8985   -17974.913   -11904.339    36318.187    6110.8738    84.338583 
   29600    1479.5558   -107.06043    1.3387331   -105.72169    3487.5919    4.3748278    4.3748278    4.3748278    3487.5919   -30713.688    34948.362    6228.1012   -5955.5823   -11496.566    675.93806    83.730347 
   29700    1147.6004   -106.78164     1.038373   -105.74327    4713.9048    4.3760323    4.3760323    4.3760323    4713.9048   -6565.9004   -3225.9254     23933.54   -5522.5115    30703.949   -5955.9637    83.799527 
   29800    2108.6906   -107.65603    1.9079875   -105.74805    -17574.11    4.3984986    4.3984986    4.3984986    -17574.11   -20846.827    11531.851   -43407.354    3464.1782   -9705.7358    7517.0052    85.096829 
   29900    1203.6054   -106.82807    1.0890474   -105.73902   -33959.942    4.4000097    4.4000097    4.4000097   -33959.942   -84373.742   -28886.224    11380.141   -5911.7738    5815.0084   -3613.1843    85.184565 
   30000    1746.2328   -107.28874    1.5800281   -105.70871   -13103.764    4.3765054    4.3765054    4.3765054   -13103.764   -28748.576   -13932.262    3369.5471   -13537.492    8336.2505    16906.537    83.826708 
   30100    1765.9759   -107.31327    1.5978921   -105.71537   -10441.046    4.3860082    4.3860082    4.3860082   -10441.046    21090.662   -43100.823   -9312.9766   -4650.6136   -6882.6698   -1991.4509    84.373939 
   30200    1811.4401   -107.35842    1.6390291   -105.71939   -40668.675    4.3900444    4.3900444    4.3900444   -40668.675   -57782.734   -47633.725   -16589.565   -13856.033    18323.091    11614.609    84.607089 
   30300     1653.143   -107.23258    1.4957986   -105.73678   -21900.523    4.3907165    4.3907165    4.3907165   -21900.523    13670.472   -48739.704   -30632.336   -2285.0326   -5514.1924    18078.185    84.645952 
   30400    1462.8851     -107.056    1.3236492   -105.73235   -13015.426    4.3907814    4.3907814    4.3907814   -13015.426    10835.148   -30568.191   -19313.236    3058.6812    13894.292   -4494.4633    84.649706 
   30500    1653.0212   -107.21287    1.4956883   -105.71719   -998.12583    4.3888248    4.3888248    4.3888248   -998.12583    26626.376     -23768.8   -5851.9539   -5367.4573   -1488.8982    13968.502    84.536593 
   30600     1611.065    -107.1709    1.4577255   -105.71318   -39782.785      4.38942      4.38942      4.38942   -39782.785   -37266.072   -44836.674   -37245.609    11869.378    13940.294     8184.985    84.570991 
   30700    1269.6795   -106.86228    1.1488327   -105.71345    33813.593    4.3815241    4.3815241    4.3815241    33813.593    56766.305    12851.771    31822.703   -4182.6241    2351.1841    971.29213    84.115418 
   30800    1595.0899    -107.1687    1.4432708   -105.72543   -13803.849    4.3923216    4.3923216    4.3923216   -13803.849   -38046.225   -13998.529    10633.206    1675.4659     9544.346   -3856.7565    84.738818 
   30900    1393.0717   -106.98094    1.2604806   -105.72046   -2310.7042     4.388496     4.388496     4.388496   -2310.7042    17812.151    -18832.04   -5912.2237     12380.62    21219.438     11993.71    84.517592 
   31000    1565.8386   -107.12575    1.4168037   -105.70895    15765.991    4.3760095    4.3760095    4.3760095    15765.991    20769.692   -11706.171    38234.452   -9746.2334    4858.2979   -1837.0072    83.798215 
   31100    1124.6618   -106.74927    1.0176176   -105.73165   -8537.1795    4.3814323    4.3814323    4.3814323   -8537.1795   -23535.319    42351.161   -44427.381     321.3017    20090.525   -87.437839    84.110131 
   31200    2046.2162    -107.5863    1.8514594   -105.73484    -21838.42    4.3801441    4.3801441    4.3801441    -21838.42   -9362.8384   -27884.598   -28267.822    835.28859       2349.8    17088.518    84.035968 
   31300    1189.0936   -106.83774    1.0759169   -105.76182    12216.104    4.3678845    4.3678845    4.3678845    12216.104    39894.977   -4401.5956    1154.9309   -4924.5737    4565.2053   -8102.8643    83.332311 
   31400    1402.9998   -107.04867    1.2694637   -105.77921     2139.672    4.3677394    4.3677394    4.3677394     2139.672   -21688.471    38840.977    -10733.49    7300.8518    23658.015   -2828.6773    83.324011 
   31500    1340.3621   -106.98504    1.2127878   -105.77225    9941.0897    4.3856585    4.3856585    4.3856585    9941.0897      30894.9   -37481.868    36410.237   -353.50146   -16854.092    -31473.56    84.353759 
   31600    1438.1351   -107.05594    1.3012549   -105.75468   -20221.415    4.3822493    4.3822493    4.3822493   -20221.415   -11645.234   -8449.2717    -40569.74    14862.182     31653.28   -16245.688    84.157192 
   31700    1300.8371   -106.91819    1.1770248   -105.74116    24109.375    4.3746685    4.3746685    4.3746685    24109.375    36894.222    24577.231    10856.672    10426.804    2420.2596    1794.9884    83.721202 
   31800    1224.9766   -106.85474    1.1083845   -105.74636   -12393.009    4.3814586    4.3814586    4.3814586   -12393.009   -30228.673   -7619.3426    668.98704    945.15313   -741.54121   -33138.867     84.11165 
   31900    1251.2285    -106.8708    1.1321379   -105.73866    14455.958    4.3757072    4.3757072    4.3757072    14455.958    3133.4733    51630.881   -11396.481    17038.811    25021.379   -5956.6267    83.780847 
   32000    1362.2196   -106.98111     1.232565   -105.74855    10570.011    4.3826851    4.3826851    4.3826851    10570.011   -15765.173    68509.662   -21034.456    2691.2204   -8201.4355    2417.8992    84.182304 
   32100    1234.8983   -106.85883    1.1173619   -105.74147   -28241.956    4.3985192    4.3985192    4.3985192   -28241.956   -37852.935    12203.797   -59076.729    -5901.133    8163.2509   -9159.9759    85.098022 
   32200    1369.9123   -106.96052    1.2395255     -105.721    33813.195    4.3728194    4.3728194    4.3728194    33813.195    11569.165    62374.504    27495.915    6517.1211   -8561.6105    20947.337     83.61508 
   32300    1466.5153   -107.06569    1.3269339   -105.73876    -16730.31    4.3632731    4.3632731    4.3632731    -16730.31    3549.6895    -39056.85   -14683.771   -3366.0226    2173.8171   -12462.694    83.068658 
   32400    1367.5972     -106.993    1.2374307   -105.75557   -19728.689    4.3831478    4.3831478    4.3831478   -19728.689   -10177.156   -10743.514   -38265.398   -18294.162    12865.753   -12147.489    84.208969 
   32500    1835.5736   -107.40639    1.6608655   -105.74553   -13469.981    4.3841292    4.3841292    4.3841292   -13469.981   -7839.6185   -22107.928   -10462.398   -3067.4503   -20129.813    8840.3021    84.265547 
   32600    1001.7398   -106.66242   0.90639523   -105.75602    3264.0633    4.3766549    4.3766549    4.3766549    3264.0633    49426.186   -54499.833    14865.836   -15800.706    16031.749   -23272.691    83.835299 
   32700    2123.0248   -107.65906    1.9209575   -105.73811   -9607.4203    4.3704785    4.3704785    4.3704785   -9607.4203    -5159.753   -31825.038    8162.5305   -5367.8978   -4156.6561   -4478.1494     83.48087 
   32800    1071.2276   -106.72225   0.96926921   -105.75298     4499.003    4.3774399    4.3774399    4.3774399     4499.003     34196.19   -47583.003    26883.822   -10198.465   -4679.1493   -21491.121    83.880415 
   32900    1438.1091    -107.0497    1.3012314   -105.74847   -23050.097     4.389127     4.389127     4.389127   -23050.097   -14353.445   -33626.772   -21170.074   -11086.561    13095.115   -6557.3001    84.554054 
   33000    1920.0967   -107.46122    1.7373438   -105.72387   -1497.3728    4.3764435    4.3764435    4.3764435   -1497.3728    9699.3629    10206.117   -24397.598    1929.8015   -1148.5637   -8020.6058    83.823149 
   33100    1119.7458   -106.75408    1.0131696   -105.74091   -27434.009    4.3876609    4.3876609    4.3876609   -27434.009    17890.106   -63897.207   -36294.927   -16014.655    12889.238   -26193.582    84.469354 
   33200    1825.4899   -107.37201    1.6517416   -105.72027   -31460.853    4.3958234    4.3958234    4.3958234   -31460.853   -33388.568   -44291.394   -16702.597    4387.9599    14350.125    11784.685    84.941652 
   33300    1599.3964   -107.16452    1.4471674   -105.71736    831.21578    4.3781851    4.3781851    4.3781851    831.21578   -4889.8339    16693.222   -9309.7411   -9682.8696    6847.4426   -24165.264     83.92326 
   33400    1241.8726   -106.85471    1.1236724   -105.73103   -24185.094    4.3742597    4.3742597    4.3742597   -24185.094   -24214.702   -19646.924   -28693.656   -5240.7165    45720.082    9476.5515    83.697733 
   33500    1655.3237   -107.23382    1.4977717   -105.73605    3116.7742    4.3656173    4.3656173    4.3656173    3116.7742    24341.202   -29065.306    14074.427   -297.67439   -8039.2913   -10203.036    83.202615 
   33600    1244.3188   -106.88394    1.1258858   -105.75806    2281.5946     4.370454     4.370454     4.370454    2281.5946   -20325.846    28507.184   -1336.5547    -5724.954    8238.2797   -26313.332    83.479465 
   33700    1393.9933   -107.01677    1.2613144   -105.75546    4132.3251    4.3873654    4.3873654    4.3873654    4132.3251    19362.962   -14344.812    7378.8259   -9309.4769    1023.8933    20180.342    84.452285 
   33800    1562.0673   -107.15495    1.4133914   -105.74156   -35330.228    4.3887988    4.3887988    4.3887988   -35330.228   -23449.941   -46101.808   -36438.935   -4310.6511   -4512.7748   -23573.102     84.53509 
   33900    1182.9662    -106.8109    1.0703727   -105.74053   -8238.6293    4.3681293    4.3681293    4.3681293   -8238.6293   -25225.472    23752.362   -23242.778    8054.0901    35586.681    7790.0335    83.346327 
   34000     1828.594   -107.38677    1.6545502   -105.73222    14822.167     4.354752     4.354752     4.354752    14822.167    17143.736    27274.431    48.332649   -13019.852   -1530.3977    10581.803    82.582931 
   34100    1203.0482   -106.85498    1.0885433   -105.76643   -2681.4256    4.3731561    4.3731561    4.3731561   -2681.4256   -2466.8823   -9528.6073     3951.213    5518.4406    13645.515   -19823.243    83.634396 
   34200    1310.4343   -106.94469    1.1857085   -105.75898   -17411.048     4.389177     4.389177     4.389177   -17411.048   -44723.461   -8215.3095    705.62839   -8673.9779    12981.296    20116.746    84.556947 
   34300    1220.0461    -106.8504    1.1039233   -105.74648   -10239.721    4.3772805    4.3772805    4.3772805   -10239.721   -18721.549    -40343.71    28346.095   -10923.402   -7759.5285   -14978.228    83.871255 
   34400    1385.4889   -106.99049    1.2536195   -105.73687    7202.9931    4.3519291    4.3519291    4.3519291    7202.9931    14027.078   -14414.397    21996.299    7746.7464    19492.062   -3653.1464    82.422434 
   34500    1810.6763   -107.39639     1.638338   -105.75805   -17525.579    4.3585455    4.3585455    4.3585455   -17525.579   -20097.271   -13557.896    -18921.57   -12939.185   -9786.6225    6888.4363    82.798936 
   34600     1083.465   -106.76438   0.98034191   -105.78403   -23609.719    4.3724206    4.3724206    4.3724206   -23609.719    639.79691   -53907.365   -17561.589   -10321.684   -8461.6755   -18638.476     83.59221 
   34700    1730.4138   -107.33328    1.5657147   -105.76757   -9544.2336    4.3713331    4.3713331    4.3713331   -9544.2336   -16770.918    842.08623   -12703.869     3149.075    18287.259    795.47058    83.529851 
   34800    1048.0057   -106.70811   0.94825762   -105.75985   -35649.474    4.3866875    4.3866875    4.3866875   -35649.474   -60242.838   -49558.593     2853.009   -22755.552   -13799.363   -11072.754    84.413149 
   34900    1227.2361     -106.858     1.110429   -105.74757   -7654.0556    4.3573674    4.3573674    4.3573674   -7654.0556    8870.5935   -20336.117   -11496.643   -2789.7402   -2039.6304   -22586.137    82.731812 
   35000     1414.069   -107.02453    1.2794793   -105.74505     49112.86    4.3475702    4.3475702    4.3475702     49112.86    8976.1525    22180.948    116181.48   -4471.2569   -527.19634    18202.802    82.175019 
   35100    1398.2943   -107.03891     1.265206    -105.7737   -44282.868    4.3857399    4.3857399    4.3857399   -44282.868   -75698.557   -49303.695   -7846.3516   -6325.1017   -15300.785   -16564.746    84.358454 
   35200     1555.945   -107.15608    1.4078517   -105.74823    7250.8596    4.3870701    4.3870701    4.3870701    7250.8596   -7419.4319   -9729.2989    38901.309    -1967.731    15491.518   -256.06393    84.435237 
   35300    1000.5386   -106.64083   0.90530838   -105.73552    34909.738    4.3732381    4.3732381    4.3732381    34909.738    14421.032    41644.438    48663.744   -4625.2391   -4570.0674    1732.3017    83.639102 
   35400    1809.4469   -107.37408    1.6372256   -105.73686    -7432.179     4.367415     4.367415     4.367415    -7432.179   -18687.856   -6675.2248     3066.544    8648.4549    7891.3682   -21443.569    83.305445 
   35500    1136.9979   -106.77627    1.0287796   -105.74749    51847.959    4.3637498    4.3637498    4.3637498    51847.959    37880.399    20648.273    97015.204   -14873.612   -3507.3328   -967.54966    83.095885 
   35600    1367.0452   -107.00074    1.2369312    -105.7638   -15924.527    4.3742244    4.3742244    4.3742244   -15924.527   -10835.478   -44808.527     7870.424    4207.3864    -6187.241   -6714.3434    83.695705 
   35700    1867.3395   -107.43347     1.689608   -105.74386    1149.7904    4.3770668    4.3770668    4.3770668    1149.7904    5804.6216   -31968.742    29613.492    6986.7568    3324.9391     11684.69    83.858968 
   35800    956.14127   -106.62012   0.86513671   -105.75498    2835.5824    4.3688323    4.3688323    4.3688323    2835.5824   -11672.743   -28426.535    48606.025   -1372.8477   -9126.2753   -3221.2266    83.386574 
   35900    1787.6985   -107.36591    1.6175472   -105.74836   -5638.5827    4.3676376    4.3676376    4.3676376   -5638.5827   -35598.199   -4335.4643    23017.916    15673.971   -8618.1144   -5887.4312    83.318183 
   36000    1437.5041   -107.05256    1.3006839   -105.75187    196.60368     4.369334     4.369334     4.369334    196.60368   -139.57179    -26670.44    27399.823   -14751.717    19243.796   -359.48637    83.415306 
   36100    1160.1685   -106.80474    1.0497448     -105.755   -13629.416    4.3692556    4.3692556    4.3692556   -13629.416   -32492.889   -16950.078    8554.7202    16224.001   -15723.194    4558.1578    83.410811 
   36200    1597.8119   -107.19183    1.4457337    -105.7461     12928.68    4.3717823    4.3717823    4.3717823     12928.68   -17597.214    15015.452    41367.803   -1332.5901    7113.2586   -7184.4568    83.555603 
   36300    1234.0731   -106.86955    1.1166153   -105.75294   -2793.4589    4.3728109    4.3728109    4.3728109   -2793.4589   -21129.596   -23571.382    36320.602    820.80733    9764.7369    12623.897    83.614596 
   36400    1528.1611    -107.1214    1.3827123   -105.73869    10523.834    4.3716749    4.3716749    4.3716749    10523.834   -2324.3281   -10398.423    44294.255    14245.758    765.53047    10253.622    83.549447 
   36500    1109.2575   -106.74988    1.0036795    -105.7462   -15391.066    4.3679915    4.3679915    4.3679915   -15391.066   -34390.613   -41808.091    30025.508   -23337.744     4019.594   -17046.185    83.338439 
   36600    1670.9195   -107.25966    1.5118831   -105.74777   -8292.0578    4.3587761    4.3587761    4.3587761   -8292.0578   -18158.819   -16579.393    9862.0389     23329.63    12075.346    17566.182    82.812077 
   36700    1651.7485   -107.25016    1.4945368   -105.75562   -489.33264    4.3715658    4.3715658    4.3715658   -489.33264    20669.308   -37853.995    15716.689   -10268.877    5548.4152   -16597.608    83.543193 
   36800    908.57309   -106.58761   0.82209602   -105.76552   -30434.406    4.3695643    4.3695643    4.3695643   -30434.406   -45169.184   -79032.151    32898.116    4747.1708    7375.4042    2173.2303    83.428492 
   36900    1659.6055   -107.24865    1.5016459   -105.74701    23559.967      4.36356      4.36356      4.36356    23559.967     51757.56   -8352.5972    27274.937    6262.2773   -3903.4015    883.74875    83.085043 
   37000    1062.7612   -106.72737   0.96160864   -105.76577   -11326.492    4.3779857    4.3779857    4.3779857   -11326.492   -41129.234     -57892.6    65042.358    3515.2488    3094.5618   -10515.143    83.911797 
   37100    1594.8627   -107.20052    1.4430653   -105.75745    10529.069    4.3688498    4.3688498    4.3688498    10529.069    58467.796   -22628.783   -4251.8057    13981.192   -1682.2089   -3463.8301    83.387572 
   37200    1282.8089   -106.92547    1.1607124   -105.76475    899.56409    4.3620101    4.3620101    4.3620101    899.56409   -10806.015   -25488.454    38993.161   -3441.0461   -11901.799    3790.8865     82.99654 
   37300    1177.4303   -106.83829    1.0653637   -105.77292    5887.8702    4.3623703    4.3623703    4.3623703    5887.8702    19831.425   -33568.969    31401.154     12762.01   -1412.9842   -13678.444    83.017104 
   37400    1833.8628   -107.41887    1.6593176   -105.75955    10353.614    4.3696175    4.3696175    4.3696175    10353.614    1103.0442   -2006.3924    31964.189   -15471.931    1988.6118    9182.9211    83.431539 
   37500    912.35009   -106.58958   0.82551354   -105.76406    203.44066    4.3717551    4.3717551    4.3717551    203.44066    7454.3539   -33328.508    26484.476    16096.308   -9384.1094   -5198.0471    83.554046 
   37600    1755.6077    -107.3293    1.5885107   -105.74079    10899.997    4.3712454    4.3712454    4.3712454    10899.997    2541.1312   -30246.358    60405.218   -9711.9878    -842.3644   -11740.031     83.52482 
   37700    1222.5936   -106.85783    1.1062284    -105.7516   -8039.6683    4.3680104    4.3680104    4.3680104   -8039.6683    7623.5476   -41356.098    9613.5453   -1258.2985    -6077.024    15288.164    83.339522 
   37800    1650.2875   -107.23748    1.4932148   -105.74427     12728.95     4.358864     4.358864     4.358864     12728.95    27463.706     -14094.5    24817.642   -876.54524    812.42512    -17435.29    82.817087 
   37900    1352.9601   -106.98466    1.2241868   -105.76048   -1168.4063    4.3698398    4.3698398    4.3698398   -1168.4063    62448.184   -54607.135   -11346.268   -3348.0946   -10506.235    26605.252    83.444276 
   38000    1392.9726   -107.01786    1.2603909   -105.75747   -15381.603      4.37526      4.37526      4.37526   -15381.603   -14125.155   -40595.912    8576.2588    2008.2824   -3123.4571   -9103.5004    83.755164 
   38100     1619.985   -107.21388    1.4657965   -105.74809   -5172.8491     4.375256     4.375256     4.375256   -5172.8491     11411.77   -15298.922   -11631.395    7461.3157   -9368.7756    22948.888    83.754937 
   38200    1075.5972   -106.72324   0.97322292   -105.75001   -16704.837    4.3780209    4.3780209    4.3780209   -16704.837   -25803.613   -46056.755    21745.856    14736.642    7954.4707    26403.296    83.913819 
   38300    1681.9528   -107.25324    1.5218662   -105.73137    8591.4229    4.3612014    4.3612014    4.3612014    8591.4229   -13437.772    1286.4636    37925.577   -2937.8887   -4314.3405   -1131.2991     82.95039 
   38400    1128.5613   -106.77964    1.0211459   -105.75849    863.53223    4.3694432    4.3694432    4.3694432    863.53223    19159.335   -14469.924    -2098.815    4073.8645    17323.884     37332.94    83.421559 
   38500    1403.4226   -107.02052    1.2698463   -105.75067    10323.796    4.3812859    4.3812859    4.3812859    10323.796   -9878.1979    9051.5051     31798.08    12093.485   -7841.6128   -17403.374      84.1017 
   38600    1108.5261   -106.75252    1.0030177    -105.7495   -2694.4761    4.3799199    4.3799199    4.3799199   -2694.4761    75683.639   -43806.761   -39960.307   -16931.518    5376.1006    30553.064    84.023061 
   38700    1273.6687   -106.89601    1.1524422   -105.74356    13372.008    4.3771046    4.3771046    4.3771046    13372.008    20748.679   -30347.969    49715.315   -1421.6654    22951.492    13061.355     83.86114 
   38800    1320.3301   -106.92923    1.1946624   -105.73457    12972.654    4.3735492    4.3735492    4.3735492    12972.654    51270.462    9338.0377   -21690.539    1442.1593    11450.228    9978.1405    83.656953 
   38900    1272.3086   -106.88915    1.1512115   -105.73794   -31223.647    4.3853068    4.3853068    4.3853068   -31223.647   -2923.7346   -48943.769   -41803.439   -1245.4734    3034.6227    31024.068    84.333464 
   39000    1561.6917   -107.13637    1.4130515   -105.72331    16850.199    4.3699375    4.3699375    4.3699375    16850.199    16200.694    11212.873    23137.031    1230.0396    2357.1778   -467.42268    83.449873 
   39100    934.47993   -106.57912   0.84553708   -105.73358    31032.918    4.3582352    4.3582352    4.3582352    31032.918    37525.428    64522.147   -8948.8196   -14886.061    16727.369     43960.93    82.781254 
   39200    1578.9527   -107.16506    1.4286695   -105.73639    446.59422    4.3811052    4.3811052    4.3811052    446.59422   -39564.015    32679.361    8224.4365    10163.203   -11911.669   -5382.6101    84.091296 
   39300    1438.5056   -107.03608    1.3015901   -105.73449   -3063.1975    4.3796441    4.3796441    4.3796441   -3063.1975   -2868.9747   -1617.0781   -4703.5397    426.70044    2337.2411    36008.115    84.007188 
   39400    1497.6842   -107.08556    1.3551361   -105.73042    22289.205     4.368246     4.368246     4.368246    22289.205    12146.698    13859.653    40861.265    -1677.568      9668.06    25891.258    83.353006 
   39500     1673.479   -107.25612     1.514199   -105.74192   -563.87029    4.3662371    4.3662371    4.3662371   -563.87029   -33654.656    2771.5688    29191.477    19074.255   -4217.6664   -3469.5135    83.238057 
   39600    839.82403   -106.52414   0.75989044   -105.76425    17000.252    4.3728578    4.3728578    4.3728578    17000.252    5858.2207    14592.052    30550.484    285.95884    21455.221    16674.974    83.617284 
   39700     1798.549    -107.3819    1.6273649   -105.75453   -6681.1805    4.3817618    4.3817618    4.3817618   -6681.1805   -25515.607     23725.98   -18253.914    6766.1429   -10694.086   -16318.253    84.129109 
   39800    1277.6795   -106.91022    1.1560713   -105.75415    5619.3288    4.3675104    4.3675104    4.3675104    5619.3288    -8888.133    20334.755    5411.3645     16403.43    7656.6917    14186.182    83.310904 
   39900    1289.8606   -106.92362     1.167093   -105.75653    16659.894    4.3649861    4.3649861    4.3649861    16659.894    18093.183     9651.167    22235.331    1205.9482   -352.22988    23934.248    83.166532 
   40000    1689.0749   -107.28753    1.5283104   -105.75922   -2487.8053    4.3772072    4.3772072    4.3772072   -2487.8053   -21220.272    8564.6013    5192.2548    9249.6962   -23775.567   -3014.3937    83.867039 
   40100     939.9327   -106.61676   0.85047086   -105.76629    23085.632    4.3800753    4.3800753    4.3800753    23085.632     6323.881   -1203.6833    64136.698   -2185.9749    2931.3902    38247.731    84.032007 
   40200    1587.6104   -107.19707    1.4365033   -105.76056    -12687.21    4.3732032    4.3732032    4.3732032    -12687.21    -31315.58   -11238.775    4492.7266    13271.826   -12937.285   -16143.622    83.637102 
   40300    931.40479   -106.59465   0.84275463   -105.75189    55436.722    4.3409324    4.3409324    4.3409324    55436.722     37923.57    62054.249    66332.347    16487.716    -6249.082    39371.778    81.799203 
   40400    1666.4321   -107.28646    1.5078228   -105.77864   -17932.438    4.3660935    4.3660935    4.3660935   -17932.438   -14463.352    640.28887    -39974.25    1931.2743    2839.7737    12839.999    83.229849 
   40500     1168.687   -106.81417    1.0574526   -105.75672   -7214.0434    4.3816861    4.3816861    4.3816861   -7214.0434   -20280.458    23548.255   -24909.927    13369.161   -26035.726   -6028.1208    84.124751 
   40600    1542.8157   -107.13664    1.3959721   -105.74067   -2343.9659    4.3571876    4.3571876    4.3571876   -2343.9659   -925.82918   -12246.449     6140.381    1448.5994    14370.234     37392.91    82.721569 
   40700    1111.4388   -106.76338    1.0056531   -105.75773    17844.907    4.3613218    4.3613218    4.3613218    17844.907   -44045.401    46893.598    50686.522    -370.3302    7670.1276   -8440.5297     82.95726 
   40800    1375.1972   -107.00529    1.2443073   -105.76099    942.80881    4.3689835    4.3689835    4.3689835    942.80881   -718.22298   -14752.049    18298.699    11037.669   -5687.3726    25208.964    83.395232 
   40900    1231.1507   -106.86505     1.113971   -105.75108     8288.295    4.3829271    4.3829271    4.3829271     8288.295    13023.287    14338.722   -2497.1239    3270.1415    13778.451    11178.686    84.196247 
   41000    1249.7473   -106.87234    1.1307976   -105.74154   -19744.763     4.379766     4.379766     4.379766   -19744.763   -26237.496   -986.42118   -32010.372   -2143.9071   -7979.2506    1170.3599    84.014204 
   41100    1248.8994   -106.85983    1.1300304    -105.7298    18390.669     4.351959     4.351959     4.351959    18390.669    78544.038   -20425.219   -2946.8108   -3285.4617    8400.3124    46566.197    82.424134 
   41200    1906.7376   -107.46998    1.7252563   -105.74472    609.85589    4.3622512    4.3622512    4.3622512    609.85589   -8323.2292    16529.597   -6376.7997    9196.5629   -7255.5327   -11627.626    83.010303 
   41300    1158.5289   -106.80631    1.0482613   -105.75805   -43344.784    4.3831953    4.3831953    4.3831953   -43344.784    7335.3692   -50743.818   -86625.902    89.915691   -15894.763    47594.147    84.211708 
   41400    1767.3918   -107.33099    1.5991732   -105.73182    15528.345    4.3718602    4.3718602    4.3718602    15528.345    34692.243    32149.062   -20256.272    5137.1004   -3759.3761   -9178.4665    83.560069 
   41500    1242.3281   -106.86371    1.1240846   -105.73963   -29913.621    4.3667383    4.3667383    4.3667383   -29913.621   -30332.783     -8563.83   -50844.251     10962.99   -21195.659     29975.13    83.266729 
   41600     1430.191   -107.04129    1.2940668   -105.74722   -1370.7423     4.353876     4.353876     4.353876   -1370.7423    29305.019    1021.3203   -34438.566    7376.0269   -16187.929    24240.253    82.533102 
   41700     1688.132   -107.28838    1.5274573   -105.76093    19638.078    4.3539015    4.3539015    4.3539015    19638.078    50120.335    21329.091   -12535.192   -5950.8331    4980.7857   -5230.8642    82.534554 
   41800    817.13887   -106.51765   0.73936443   -105.77828   -9410.7406    4.3721778    4.3721778    4.3721778   -9410.7406    45050.775    -12316.29   -60966.707     10064.22   -13002.214    41394.059    83.578284 
   41900    2007.2053   -107.56694    1.8161616   -105.75077   -6116.0811     4.370228     4.370228     4.370228   -6116.0811   -16616.412    26188.084   -27919.915   -6350.3218    -6481.193   -9311.3242    83.466518 
   42000    1234.4719   -106.86457    1.1169761    -105.7476   -7255.1989    4.3621525    4.3621525    4.3621525   -7255.1989    19593.337    19069.962   -60428.896   -8151.7322   -4631.4448    34488.744     83.00467 
   42100    1328.1943   -106.94835    1.2017781   -105.74657    4654.6289    4.3673801    4.3673801    4.3673801    4654.6289    8574.3486    32162.229   -26772.691    1444.0323   -14345.268    594.25324    83.303447 
   42200    1970.1211   -107.52706     1.782607   -105.74445   -8056.9685     4.366075     4.366075     4.366075   -8056.9685   -13199.271    16005.215    -26976.85   -10041.042   -3965.2908    18050.433     83.22879 
   42300    1144.0452   -106.79895    1.0351561   -105.76379    451.94322    4.3716344    4.3716344    4.3716344    451.94322   -7313.4625     71554.95   -62885.658   -9294.3433   -14507.647    22842.015    83.547121 
   42400    1419.4903   -107.03569    1.2843847    -105.7513    9098.3901    4.3735273    4.3735273    4.3735273    9098.3901   -29548.613    100415.34   -43571.556   -1824.1554    4796.7511   -13813.928    83.655695 
   42500     1363.832   -106.99642    1.2340238    -105.7624   -29322.874    4.3612012    4.3612012    4.3612012   -29322.874   -20757.716   -9741.1525   -57469.753    9603.0792   -27145.977    32591.393    82.950376 
   42600    1695.7852    -107.3014    1.5343821   -105.76701   -7892.8804    4.3558658    4.3558658    4.3558658   -7892.8804    1420.3223    4668.7676   -29767.731   -10696.185   -768.29472   -884.52902    82.646312 
   42700    1247.2023   -106.90593    1.1284948   -105.77744    426.45292    4.3652671    4.3652671    4.3652671    426.45292   -11477.672     66698.31   -53941.279   -202.54075    1510.4447    14679.865    83.182595 
   42800    1283.7507    -106.9442    1.1615646   -105.78264    -12769.67    4.3743826    4.3743826    4.3743826    -12769.67   -35843.401    56073.376   -58538.983    14248.242   -26457.443    12125.791    83.704787 
   42900    1676.2897   -107.28018    1.5167421   -105.76343   -2125.7045     4.372842     4.372842     4.372842   -2125.7045   -35385.435    48263.213   -19254.892   -32571.268    5679.7055   -10022.627    83.616379 
   43000    1004.5752   -106.68545   0.90896078   -105.77649    -27945.99    4.3518144    4.3518144    4.3518144    -27945.99   -12751.983   -7741.9443   -63344.043   -286.37812   -31443.568    32028.413    82.415918 
   43100    1547.4285   -107.17377    1.4001458   -105.77363    18078.345    4.3395951    4.3395951    4.3395951    18078.345    1882.1494     79790.04   -27437.154   -10565.712   -468.67067   -5299.0579    81.723628 
   43200    1415.1562   -107.06959    1.2804631   -105.78912   -10494.141    4.3672097    4.3672097    4.3672097   -10494.141   -52870.509     68409.81   -47021.724    -12141.83   -17748.936   -2812.7484    83.293696 
   43300    1381.5693    -107.0267     1.250073   -105.77663    -11989.42    4.3716756    4.3716756    4.3716756    -11989.42   -14957.247    28791.221   -49802.234    1711.6066   -13159.058    16879.556    83.549485 
   43400    1610.7571   -107.21246    1.4574469   -105.75502   -12007.709    4.3583785    4.3583785    4.3583785   -12007.709   -2399.0128    6429.0631   -40053.178    4069.9441    -1184.848   -13158.159    82.789418 
   43500    1120.8756   -106.78365    1.0141918   -105.76946   -2662.7665    4.3567727    4.3567727    4.3567727   -2662.7665   -36327.747    67207.316   -38867.868   -5186.0495   -27822.625    7319.2864    82.697942 
   43600    1891.0477   -107.47278    1.7110597   -105.76172    7278.1808    4.3623643    4.3623643    4.3623643    7278.1808    4386.4769    35139.402   -17691.336    8211.0498    2030.0054    17327.231     83.01676 
   43700    980.46314    -106.6484   0.88714366   -105.76125   -1418.9157    4.3751031    4.3751031    4.3751031   -1418.9157   -17894.996     30916.38   -17278.131   -15735.901   -15432.713   -1319.3765    83.746157 
   43800    1491.4957    -107.0951    1.3495367   -105.74557    -9188.117     4.377882     4.377882     4.377882    -9188.117   -17829.365    33728.577   -43463.563    35.825001   -2780.6343    19789.603    83.905833 
   43900    1790.2169   -107.37213    1.6198259    -105.7523   -5804.6655    4.3548571    4.3548571    4.3548571   -5804.6655    15196.826    2750.6769     -35361.5     393.3696   -12507.773   -7361.4169    82.588906 
   44000     1597.925   -107.22108    1.4458362   -105.77524    9970.0287    4.3577702    4.3577702    4.3577702    9970.0287    6486.5217    32964.459   -9540.8944   -20479.023   -13239.007   -6753.4623    82.754758 
   44100    1520.6706   -107.15262    1.3759348   -105.77669   -19183.161    4.3880706    4.3880706    4.3880706   -19183.161   -4362.5541   -2977.1194    -50209.81   -7724.6642   -4100.8684   -748.27085    84.493015 
   44200    1018.2062   -106.68499   0.92129435   -105.76369   -6426.9756    4.3812295    4.3812295    4.3812295   -6426.9756     39411.29   -18272.772   -40419.445    648.48896   -17646.608   -15987.711    84.098454 
   44300    1968.7942   -107.51828    1.7814063   -105.73688    16496.023    4.3579978    4.3579978    4.3579978    16496.023   -10390.583    57424.784    2453.8669   -27740.888    8404.5989   -2058.0136    82.767725 
   44400    1241.4211   -106.88408    1.1232639   -105.76081    20560.756    4.3638951    4.3638951    4.3638951    20560.756    64761.972    39754.188   -42833.893    29231.993   -8566.1225   -23086.195    83.104186 
   44500    1407.1452   -107.02974    1.2732145   -105.75653   -10868.118    4.3848614    4.3848614    4.3848614   -10868.118     16861.31   -10873.321   -38592.345   -5093.5743   -7407.4525    11824.621     84.30777 
   44600    1356.3862   -106.97299    1.2272867    -105.7457    5635.2421    4.3749377    4.3749377    4.3749377    5635.2421    39151.071    23539.439   -45784.784   -6738.3772    12050.576   -16104.767    83.736657 
   44700    1636.0239   -107.22352    1.4803088   -105.74321    801.61217     4.362727     4.362727     4.362727    801.61217    -3184.385    36622.301   -31033.079    13367.026    -30812.86   -6682.3341    83.037473 
   44800    1414.2231   -107.03756    1.2796188   -105.75794   -9933.8957    4.3644066    4.3644066    4.3644066   -9933.8957   -9987.4696    -5258.716   -14555.502   -5214.7511    5878.2563    1844.6048    83.133412 
   44900    1179.3854   -106.83403    1.0671327   -105.76689    19345.751    4.3705362    4.3705362    4.3705362    19345.751    65519.823    23402.408   -30884.977   -2548.3985   -11091.208   -4234.8489    83.484179 
   45000    1437.4695   -107.06761    1.3006526   -105.76696   -17114.336    4.3868535    4.3868535    4.3868535   -17114.336    29469.966   -15449.342   -65363.632   -1395.4545    394.86628    17047.357    84.422729 
   45100    1228.6453   -106.86099    1.1117041   -105.74928    17960.708    4.3771046    4.3771046    4.3771046    17960.708    39635.111    27116.257   -12869.244   -15366.004    10546.589   -9384.9603     83.86114 
   45200    1360.6865   -106.97087    1.2311778    -105.7397   -5502.7924    4.3763214    4.3763214    4.3763214   -5502.7924    11777.846   -11125.526   -17160.697   -1814.6402   -4575.9998    6545.1478    83.816134 
   45300    1215.6142   -106.83913    1.0999133   -105.73922   -11824.112    4.3665584    4.3665584    4.3665584   -11824.112   -21077.625    36942.966   -51337.676   -16388.914    40069.753   -695.79087    83.256437 
   45400    1788.8195   -107.35491    1.6185615   -105.73635    803.79501    4.3569091    4.3569091    4.3569091    803.79501   -6834.8066    2826.9268    6419.2649   -9431.6155   -5805.6854    2899.2591    82.705709 
   45500     1230.162   -106.87529    1.1130764   -105.76222   -16437.851    4.3805148    4.3805148    4.3805148   -16437.851   -30489.996    16341.726   -35165.281    4092.8603    26371.805    7968.5385    84.057304 
   45600    1425.6041   -107.03571    1.2899165   -105.74579   -27914.044    4.3752052    4.3752052    4.3752052   -27914.044   -25569.156    -4066.336   -54106.639   -3966.0352     23262.03   -7126.4622    83.752018 
   45700    1422.7564   -107.03136    1.2873399   -105.74402    5627.3821    4.3653152    4.3653152    4.3653152    5627.3821    64797.696   -36432.666   -11482.883    6081.6546   -18393.837    6802.4049    83.185347 
   45800    1146.8585   -106.79386    1.0377016   -105.75616   -12207.875    4.3702056    4.3702056    4.3702056   -12207.875   -3633.4382    6548.0069   -39538.194   -11475.302    29589.306   -1398.5857    83.465234 
   45900    1778.5419   -107.36081    1.6092621   -105.75154   -15767.381    4.3736915    4.3736915    4.3736915   -15767.381    3422.8689   -10372.578   -40352.433   -16751.594    -19049.53    1282.0853    83.665119 
   46000    1399.0952   -107.01946    1.2659307   -105.75353   -32566.433    4.3776986    4.3776986    4.3776986   -32566.433   -28810.207   -20787.657   -48101.436    3357.7421    34189.811    4870.1918     83.89529 
   46100    1337.0634   -106.95895    1.2098031   -105.74915    -3027.441     4.363601     4.363601     4.363601    -3027.441    -5831.131    3778.5065   -7029.6985   -21052.707    16146.086   -5487.2837    83.087384 
   46200    1573.6444   -107.17304    1.4238665   -105.74918    5.0312468    4.3587311    4.3587311    4.3587311    5.0312468    1863.8818    17089.314   -18938.102    35.345779    4367.6118    5223.1821    82.809513 
   46300     1256.274   -106.90781    1.1367031   -105.77111   -9844.3419    4.3791755    4.3791755    4.3791755   -9844.3419    -24374.54    25652.935   -30811.421    1632.2432    33966.066    2197.2903    83.980231 
   46400    1789.4621   -107.35932    1.6191429   -105.74017   -10100.111    4.3939893    4.3939893    4.3939893   -10100.111   -16355.126    13300.403   -27245.609   -9844.8581   -14119.303    11414.491    84.835378 
   46500    772.06706   -106.43981    0.6985825   -105.74123   -22027.404    4.3823059    4.3823059    4.3823059   -22027.404   -64564.012    46807.968    -48326.17    10788.437    38218.068    5837.3174    84.160456 
   46600    1778.2029   -107.32748    1.6089554   -105.71853    20310.602    4.3531537    4.3531537    4.3531537    20310.602   -7137.8233    43077.625    24992.004   -6785.9073   -6999.3128   -11843.848     82.49203 
   46700    1094.7967    -106.7581   0.99059505   -105.76751    4571.6608    4.3664726    4.3664726    4.3664726    4571.6608   -32157.394    46536.047   -663.67075    2708.5602    33294.799    10968.807    83.251529 
   46800     1121.234   -106.77882    1.0145161    -105.7643   -11098.266     4.390398     4.390398     4.390398   -11098.266   -40822.069     40036.66    -32509.39   -2661.0671   -2025.0216    8478.9646    84.627535 
   46900    1441.5352   -107.04214    1.3043314   -105.73781    9193.3102    4.3804962    4.3804962    4.3804962    9193.3102   -22136.037   -122.17177     49838.14    14889.533     15538.16   -17496.962    84.056231 
   47000    1053.7385   -106.69692   0.95344474   -105.74347    19229.756    4.3699616    4.3699616    4.3699616    19229.756    4266.8704    66634.794   -13212.396    19803.262    11798.501   -19011.251    83.451255 
   47100    1408.2198    -107.0138    1.2741869   -105.73962    29872.912    4.3706707    4.3706707    4.3706707    29872.912   -1611.1806    36588.965    54640.951    10925.561   -6586.6323    1955.0386    83.491884 
   47200    1147.3934   -106.78231    1.0381857   -105.74413    3006.5665    4.3892823    4.3892823    4.3892823    3006.5665   -1447.6718    43147.961    -32680.59     7131.642    33100.603   -2828.8462    84.563034 
   47300    1326.1191   -106.92367    1.1999004   -105.72377   -11492.909     4.390066     4.390066     4.390066   -11492.909   -15813.635   -23848.103    5183.0121     10422.43   -23109.639   -15567.986    84.608333 
   47400    1265.9846   -106.87317    1.1454894   -105.72768   -663.73314     4.365542     4.365542     4.365542   -663.73314      12849.7    15082.852   -29923.751    6739.0475    33809.462   -9391.6945     83.19831 
   47500    1450.4698   -107.04599    1.3124156   -105.73358    35096.257      4.36057      4.36057      4.36057    35096.257    31113.131    2738.2489     71437.39    14401.908    109.80881   -4859.8242    82.914368 
   47600    1162.8379   -106.80237    1.0521602   -105.75021   -19340.206    4.3922524    4.3922524    4.3922524   -19340.206    -14782.26   -27810.939   -15427.419    6204.1948    -2614.656    3994.1801    84.734812 
   47700    1415.1842   -107.00004    1.2804884   -105.71955   -17934.192    4.3962092    4.3962092    4.3962092   -17934.192   -17015.992   -29650.632    -7135.953    5362.0068    22054.267    -11103.64    84.964017 
   47800      1590.26   -107.14186    1.4389006   -105.70296   -1161.1699    4.3719918    4.3719918    4.3719918   -1161.1699    7937.3839   -25882.975    14462.082    2704.2656   -18414.786    13423.349    83.567615 
   47900    1657.2867   -107.21868    1.4995478   -105.71913    186.27788      4.36618      4.36618      4.36618    186.27788   -20672.263   -1770.9498    23002.047   -1195.3086    25114.237   -7202.7429    83.234794 
   48000     1665.941   -107.23956    1.5073784   -105.73218     1650.681    4.3664869    4.3664869    4.3664869     1650.681    22665.024   -32996.989    15284.007    23203.547   -9236.1543    5472.1372    83.252348 
   48100    1263.1867   -106.90121    1.1429579   -105.75825    153.66104    4.3851036    4.3851036    4.3851036    153.66104   -23282.623   -42494.543    66238.149   -5647.9588    5597.3092   -7317.4303    84.321744 
   48200    1632.3203   -107.22321    1.4769577   -105.74625   -40638.264    4.3906663    4.3906663    4.3906663   -40638.264   -58945.231   -54452.018   -8517.5446    20294.626    15251.834    8259.2614    84.643047 
   48300    1435.5201   -107.03072    1.2988887   -105.73183    12278.637    4.3603789    4.3603789    4.3603789    12278.637    7703.8211   -10494.507    39626.598    20161.724   -14985.292    30719.639    82.903468 
   48400    1495.1733   -107.09501    1.3528642   -105.74215    22293.311    4.3635612    4.3635612    4.3635612    22293.311   -395.31024    46985.652    20289.592    3792.7989    17064.732    5527.3476    83.085112 
   48500    942.16145   -106.60569   0.85248748    -105.7532   -25390.727    4.3874655    4.3874655    4.3874655   -25390.727   -63594.652     9503.427   -22080.957    44308.045    -7278.916    18772.111    84.458067 
   48600    1435.0034   -107.03382    1.2984212    -105.7354    16867.103    4.3673178    4.3673178    4.3673178    16867.103   -20927.202    100206.83   -28678.321    1057.4527    2923.2749    20245.306    83.299882 
   48700    1799.6536   -107.37446    1.6283644   -105.74609   -15888.248    4.3693959    4.3693959    4.3693959   -15888.248   -67694.795    216.54313    19813.508     20574.16   -5061.5761    -4381.787    83.418848 
   48800    1223.5316   -106.86441    1.1070771   -105.75733    -34336.34    4.3857658    4.3857658    4.3857658    -34336.34   -59405.711   -9550.9577   -34052.351    17703.731   -20185.833    2132.7548    84.359949 
   48900    1433.6186   -107.04278    1.2971682   -105.74561    22657.214    4.3710789    4.3710789    4.3710789    22657.214    10983.198    75056.527   -18068.085   -16314.637    5360.1791   -7945.5898    83.515277 
   49000    967.25943   -106.63064   0.87519666   -105.75545     29095.56    4.3657153    4.3657153    4.3657153     29095.56   -33169.813    103386.61    17069.889    26677.889   -8015.3328   -26414.584    83.208219 
   49100    1601.4913   -107.21287     1.449063   -105.76381   -39299.301    4.3856485    4.3856485    4.3856485   -39299.301   -29957.287   -24054.354   -63886.261   -9983.1502    3164.9819    12438.477    84.353181 
   49200    1823.4268   -107.39539    1.6498749   -105.74551    -21954.08    4.3767966    4.3767966    4.3767966    -21954.08   -34540.898    5649.4544   -36970.797    21690.472   -603.06539   -1174.4888    83.843439 
   49300    1023.8002   -106.67706   0.92635598   -105.75071    25285.399    4.3583834    4.3583834    4.3583834    25285.399    1853.1176    79107.901    -5104.822    12821.884   -6684.4081    4982.5761    82.789698 
   49400    1188.6299   -106.83809    1.0754973   -105.76259    28851.107    4.3621006    4.3621006    4.3621006    28851.107    466.03737    72071.595    14015.687   -20505.458    6841.8146    20031.892    83.001706 
   49500    1795.2736   -107.39569    1.6244013   -105.77129   -27322.447     4.379581     4.379581     4.379581   -27322.447   -57995.742   -5941.4706   -18030.127     31679.05   -11296.507   -7783.7415    84.003557 
   49600    1394.2304   -107.02192    1.2615289   -105.76039   -29315.781    4.3812644    4.3812644    4.3812644   -29315.781   -22721.645   -50627.621   -14598.078   -3877.6606      -598.18    40587.123    84.100462 
   49700    1417.4603   -107.02851    1.2825479   -105.74596    12435.768    4.3667556    4.3667556    4.3667556    12435.768   -3094.4211    58587.768   -18186.042    -3183.201   -1356.2576    3303.7864    83.267719 
   49800     1319.657   -106.94256    1.1940534   -105.74851    10658.763    4.3629591    4.3629591    4.3629591    10658.763    7057.0044     23691.18    1228.1053    17971.446   -6664.9568    17071.954    83.050727 
   49900    1134.9216   -106.78968    1.0269009   -105.76278    2918.9085    4.3647334    4.3647334    4.3647334    2918.9085   -9623.1529    58130.192   -39750.314    -2243.796    6842.8419    22296.492    83.152091 
   50000    1940.3661   -107.51719     1.755684    -105.7615   -29882.776    4.3870459    4.3870459    4.3870459   -29882.776   -48057.642   -20859.538   -20731.147    14853.377   -4141.1557   -33305.762    84.433841 
   50100    1533.8005   -107.13836    1.3878149   -105.75054   -33507.347    4.3793673    4.3793673    4.3793673   -33507.347    2135.3451    -52265.11   -50392.276    7378.4879   -708.06962    35275.368    83.991262 
   50200    1482.8484   -107.07219    1.3417124   -105.73048    8186.6212    4.3640504    4.3640504    4.3640504    8186.6212   -1897.3319    36266.713   -9809.5174    6586.5853   -5991.6067   -12154.004    83.113062 
   50300    1137.1394    -106.7753    1.0289076   -105.74639    6186.0957     4.385718     4.385718     4.385718    6186.0957   -16720.956    62519.328   -27240.085    15619.384   -8192.8672    8832.3783    84.357191 
   50400    1265.0994   -106.87872    1.1446885   -105.73403    -19198.58    4.3921904    4.3921904    4.3921904    -19198.58       -45906      29747.3   -41437.042   -3046.7958    7191.4253    48087.783    84.731221 
   50500     1397.343   -106.98608    1.2643453   -105.72173    16672.567    4.3633592    4.3633592    4.3633592    16672.567   -35738.076    24607.502    61148.276    943.88247    426.81362    -11199.43    83.073575 
   50600    1004.4978   -106.64634   0.90889068   -105.73745    14690.359    4.3561213    4.3561213    4.3561213    14690.359    1594.7966   -27519.471    69995.751    4090.2941     1649.395    56107.417    82.660857 
   50700    1618.6824   -107.22042    1.4646179   -105.75581    3832.1672    4.3729754    4.3729754    4.3729754    3832.1672   -35327.466   -32235.623    79059.591   -14943.354    3802.4314    13162.111    83.624032 
   50800    1384.7485   -107.01882    1.2529495   -105.76587   -15341.117    4.3728635    4.3728635    4.3728635   -15341.117   -18149.046   -2978.7722   -24895.534    -2616.681   -4242.8809   -17598.282    83.617613 
   50900    1307.8354   -106.94768     1.183357   -105.76432   -17478.327    4.3580381    4.3580381    4.3580381   -17478.327    -31269.27   -35456.812    14291.102   -1123.3717    5572.5375    31840.246     82.77002 
   51000    1800.6239   -107.39565    1.6292424    -105.7664    10909.976    4.3672281    4.3672281    4.3672281    10909.976   -35568.098   -4937.0206    73235.047   -2793.9727    4773.5625   -16353.474    83.294747 
   51100    1039.6165   -106.72044    0.9406669   -105.77977    1721.0862    4.3710817    4.3710817    4.3710817    1721.0862    23884.192    11240.886    -29961.82   -3498.5197    2101.9331    1447.9566    83.515438 
   51200    1324.6095   -106.96684    1.1985345    -105.7683    -5133.197    4.3685098    4.3685098    4.3685098    -5133.197   -907.24802   -22867.605    8375.2623    10973.504    20849.326    18579.537    83.368106 
   51300     1700.133   -107.29224    1.5383161   -105.75393    18830.814    4.3622615    4.3622615    4.3622615    18830.814   -14604.439    53419.017    17677.864    7381.1655    1214.1746    -13197.14    83.010891 
   51400    1147.9514   -106.81158    1.0386905   -105.77289   -22062.669    4.3672149    4.3672149    4.3672149   -22062.669    15715.951   -52147.513   -29756.445   -9716.5561    4775.2075    27210.899    83.293995 
   51500    1885.3104   -107.45915    1.7058685   -105.75328    6383.9519    4.3739109    4.3739109    4.3739109    6383.9519     -14815.9    34421.481   -453.72524     7986.037    12783.305   -11370.555    83.677714 
   51600    1129.6512   -106.77264    1.0221321   -105.75051    8440.7453     4.371778     4.371778     4.371778    8440.7453     21854.21   -6738.5343     10206.56    1145.4429   -9154.7424    18932.345     83.55536 
   51700    1355.5334   -106.98113    1.2265151   -105.75461   -23025.521    4.3634868    4.3634868    4.3634868   -23025.521   -13593.586   -27421.749   -28061.226    -17444.06    9322.7147     7984.764    83.080863 
   51800    1634.3074   -107.22929    1.4787557   -105.75054    27864.945    4.3524666    4.3524666    4.3524666    27864.945   -25365.412    71666.663    37293.583    8197.6549    -5305.839    6114.8403    82.452977 
   51900    1176.8554   -106.84442    1.0648435   -105.77958   -13608.451    4.3719229    4.3719229    4.3719229   -13608.451   -746.46508   -26268.851   -13810.037   -17695.618   -554.69292    26715.639    83.563664 
   52000    1609.4713    -107.2063    1.4562834   -105.75002   -9695.8948    4.3791881    4.3791881    4.3791881   -9695.8948   -47834.668    28603.091   -9856.1074   -9971.6614   -7055.3853    -15812.82    83.980953 
   52100    1032.8853   -106.68845   0.93457635   -105.75387   -29155.499    4.3578692    4.3578692    4.3578692   -29155.499   -35575.001   -18702.462   -33189.035     3672.841   -5396.8653    41381.932    82.760398 
   52200    1460.8019   -107.08429    1.3217643   -105.76253    9999.1241    4.3423668    4.3423668    4.3423668    9999.1241   -3728.2198      37624.8   -3899.2083   -12858.711    5757.0582    4895.3044    81.880317 
   52300     1603.744   -107.22813    1.4511013   -105.77703   -21956.554    4.3714198    4.3714198    4.3714198   -21956.554   -44368.301    6738.0237   -28239.386    19525.263   -23866.886    11952.882    83.534821 
   52400    765.73149   -106.46161   0.69284995   -105.76876   -31009.291    4.3795188    4.3795188    4.3795188   -31009.291   -22311.749   -18276.926   -52439.196    10756.472    4612.3843    32826.996    83.999981 
   52500    1858.4738   -107.41453    1.6815861   -105.73294      17543.5    4.3481246    4.3481246    4.3481246      17543.5   -18500.001     56722.12    14408.381   -7387.8461     -3479.29   -21959.833    82.206459 
   52600    1081.2742   -106.74015    0.9783596   -105.76179   -21423.341    4.3543594    4.3543594    4.3543594   -21423.341   -18353.273   -1040.9991   -44875.751    5373.6373   -9958.6128    46490.606    82.560597 
   52700    1747.7409   -107.34688    1.5813927   -105.76548   -21780.845    4.3723039    4.3723039    4.3723039   -21780.845   -516.13799   -34559.627   -30266.769    8820.1988   -2900.6133    446.72732    83.585516 
   52800    1268.8593   -106.91022    1.1480905   -105.76213    7357.7362     4.376034     4.376034     4.376034    7357.7362   -25485.141    59564.326   -12005.977   -8187.6062    -7259.163     17834.33    83.799623 
   52900    1284.7198   -106.92405    1.1624415    -105.7616   -30431.064    4.3635745    4.3635745    4.3635745   -30431.064   -27513.128   -45917.383   -17862.681    10637.454    5335.2536    43406.359    83.085872 
   53000    1725.2643   -107.30276    1.5610554   -105.74171    41151.408    4.3507487    4.3507487    4.3507487    41151.408     4417.368    106963.76      12073.1   -540.67184   -6069.8578   -6704.8867    82.355386 
   53100     1307.341   -106.95084    1.1829096   -105.76793    -21379.14    4.3697034    4.3697034    4.3697034    -21379.14    10068.946   -51881.871   -22324.494   -3922.2626    -3814.689    56946.295    83.436462 
   53200    1511.1083   -107.12261    1.3672825   -105.75533    10816.031    4.3742469    4.3742469    4.3742469    10816.031   -23746.308    33108.132    23086.269    15283.481    1853.8336   -6444.3394    83.696998 
   53300    1518.3517   -107.12262    1.3738365   -105.74878    15527.837      4.36099      4.36099      4.36099    15527.837    15706.664     20800.08    10076.768   -8973.4194   -308.53904    28154.667    82.938327 
   53400    913.90105   -106.58307   0.82691687   -105.75615    15535.024    4.3555746    4.3555746    4.3555746    15535.024     9348.396   -15949.887    53206.563    5572.5939   -4639.0487    19660.445    82.629738 
   53500    1781.4426   -107.36557    1.6118867   -105.75368    12324.129    4.3632125    4.3632125    4.3632125    12324.129     11077.81    26845.747   -951.16877    9153.7959    6163.6422   -5995.6622    83.065196 
   53600    1283.3129    -106.9224    1.1611685   -105.76123   -17681.324     4.377028     4.377028     4.377028   -17681.324   -18341.108   -31258.548   -3444.3164   -4351.4106   -5033.7809    51595.464    83.856739 
   53700    1400.5077   -107.02271    1.2672088    -105.7555   -21306.574    4.3680027    4.3680027    4.3680027   -21306.574   -50362.946    2661.7784   -16218.556        11932    27936.205    2661.2929    83.339078 
   53800    1271.2215    -106.8992    1.1502279   -105.74898    37248.899    4.3498919    4.3498919    4.3498919    37248.899   -1646.6965    69235.245    44158.149    -10054.05    19097.157    25513.241    82.306739 
   53900    1285.3814   -106.93117    1.1630401   -105.76813    2016.6969    4.3647359    4.3647359    4.3647359    2016.6969   -9403.1366    18126.746   -2673.5182    6421.0044   -2798.5211    24364.511     83.15223 
   54000    1194.2977   -106.84167    1.0806256   -105.76105   -22176.542    4.3877477    4.3877477    4.3877477   -22176.542   -81407.983   -26445.288    41323.645   -6034.6957    20576.327    2833.5406    84.474364 
   54100    1538.4562   -107.14508    1.3920275   -105.75306   -975.88105    4.3679466    4.3679466    4.3679466   -975.88105   -1627.9434    1503.5229   -2803.2227   -13376.367   -7063.0611    24713.403    83.335869 
   54200    1223.1688   -106.85324    1.1067489   -105.74649    31660.808    4.3413527    4.3413527    4.3413527    31660.808      12539.4    46163.514    36279.511    20744.337    13415.694   -3112.6185    81.822965 
   54300    1469.3008   -107.09519    1.3294542   -105.76573   -5825.2166    4.3547227    4.3547227    4.3547227   -5825.2166    1611.1058   -14494.065   -4592.6901   -11267.205    5986.4239    16407.952    82.581261 
   54400     1333.963    -106.9662    1.2069977    -105.7592   -25149.326    4.3829578    4.3829578    4.3829578   -25149.326   -32716.452   -22578.389   -20153.137   -2936.8912    1404.3935     24775.81    84.198021 
   54500    1849.1275   -107.41826    1.6731294   -105.74513   -27050.189    4.3656147    4.3656147    4.3656147   -27050.189     -45053.9    -30434.76   -5661.9074    21708.268    12330.197     344.6113    83.202469 
   54600    1299.4548   -106.92068     1.175774    -105.7449    14465.585    4.3448384    4.3448384    4.3448384    14465.585    41783.994   -5410.3979    7023.1593   -15390.025   -6489.0609     28746.29    82.020214 
   54700    1467.4758   -107.09102     1.327803   -105.76322   -30932.567    4.3652873    4.3652873    4.3652873   -30932.567   -44954.274   -17942.738   -29900.688   -9.1147672    16696.785     4779.056    83.183748 
   54800    1154.1993   -106.80435    1.0443438   -105.76001    5668.6177    4.3755355    4.3755355    4.3755355    5668.6177   -13543.092   -17364.786    47913.731    14247.052    6969.5872     15018.41    83.770987 
   54900    1901.9325   -107.47107    1.7209085   -105.75016    -17092.28    4.3731661    4.3731661    4.3731661    -17092.28   -5808.9191   -1826.7025   -43641.218   -12679.157   -11258.399    23183.896    83.634971 
   55000    1020.7565   -106.67999    0.9236019   -105.75639    10452.883    4.3565331    4.3565331    4.3565331    10452.883    1984.2666   -6415.2574    35789.638    27609.884     18040.95   -7381.8836    82.684303 
   55100    1123.6381   -106.78073    1.0166914   -105.76404     30563.63     4.354574     4.354574     4.354574     30563.63    109532.17    3483.6241   -21324.904     13242.05   -13407.265    30985.388    82.572801 
   55200    1849.8419   -107.43411    1.6737758   -105.76034   -9649.4773    4.3735441    4.3735441    4.3735441   -9649.4773    3739.3963   -55.136172   -32632.692    22029.685   -3650.4104   -7026.9188    83.656662 
   55300    916.85219   -106.59145   0.82958713   -105.76186   -647.38461    4.3662415    4.3662415    4.3662415   -647.38461    61767.436   -35436.815   -28272.774    27914.414     10608.33    25569.663     83.23831 
   55400    1735.8959   -107.32683    1.5706751   -105.75616   -2305.1579    4.3572108    4.3572108    4.3572108   -2305.1579    17882.791    17666.726   -42464.991   -14233.478   -11500.696    10886.225    82.722892 
   55500    1146.3841   -106.80791    1.0372724   -105.77064    24284.602    4.3585026    4.3585026    4.3585026    24284.602    84660.381     6590.883   -18397.459    6175.1533   -21539.931    2324.8163    82.796491 
   55600     986.3568   -106.67798   0.89247636   -105.78551   -12464.872    4.3747876    4.3747876    4.3747876   -12464.872    13508.047   -39702.734   -11199.928    1000.5884     13105.34     35554.99    83.728038 
   55700     1940.651   -107.50592    1.7559418   -105.74997   -5353.0786    4.3737617    4.3737617    4.3737617   -5353.0786    2117.9048    12299.152   -30476.292   -14406.908   -9289.1197   -15714.613    83.669151 
   55800    1054.6493   -106.70668   0.95426888   -105.75241     11692.99    4.3502764    4.3502764    4.3502764     11692.99    47526.737   -1399.8751   -11047.893    12822.274    941.56329    32266.195    82.328565 
   55900    1298.7299   -106.93586    1.1751181   -105.76074     10506.01    4.3515494    4.3515494    4.3515494     10506.01   -17337.826   -35.139984    48890.998    12007.891    4788.0398    5361.2258    82.400863 
   56000    1949.5283   -107.52988    1.7639742    -105.7659   -20866.368    4.3724087    4.3724087    4.3724087   -20866.368   -14922.241   -21236.975    -26439.89   -8265.1628   -7378.0194   -5140.3198    83.591524 
   56100    942.42409   -106.62093   0.85272513    -105.7682   -1479.1752    4.3730209    4.3730209    4.3730209   -1479.1752    15255.252   -58828.108    39135.331    21799.007   -5795.6131    15658.522    83.626641 
   56200    1876.0074   -107.44028     1.697451   -105.74282   -10360.138     4.362507     4.362507     4.362507   -10360.138   -7772.9293   -4805.0431   -18502.441    7433.6748   -370.41167   -10362.549    83.024911 
   56300    1430.5612   -107.04453    1.2944018   -105.75013   -4717.1981    4.3569984    4.3569984    4.3569984   -4717.1981    17025.935   -42357.754    11180.225    3725.5976   -9206.7125    29059.287    82.710794 
   56400    1423.3687   -107.04867    1.2878939   -105.76077    3956.1314    4.3702198    4.3702198    4.3702198    3956.1314    10623.454   -17129.751    18374.691    29447.081   -12305.778    11853.661    83.466043 
   56500    1878.7084   -107.44626    1.6998949   -105.74636   -16054.024    4.3843372    4.3843372    4.3843372   -16054.024   -9181.8494   -5987.9984   -32992.224    6736.8355   -569.29675    18827.413    84.277541 
   56600     1270.478    -106.8835    1.1495552   -105.73395   -3243.9845    4.3765637    4.3765637    4.3765637   -3243.9845   -12975.423   -19073.065    22316.534    28857.722    9547.8994     28117.26    83.830057 
   56700    1491.5192   -107.07002     1.349558   -105.72046    11794.159    4.3702953    4.3702953    4.3702953    11794.159    16742.673   -6815.6538    25455.457    8456.7939   -12787.111   -2279.5536    83.470372 
   56800    1573.9989    -107.1524    1.4241873   -105.72821   -5693.8591    4.3749507    4.3749507    4.3749507   -5693.8591   -1040.9996   -8700.7434   -7339.8342     9846.599     6740.615    41978.246    83.737402 
   56900    1442.2234    -107.0396     1.304954   -105.73465   -26275.875    4.3734559    4.3734559    4.3734559   -26275.875    -45833.62   -45523.065    12529.058    24917.987   -2279.0449   -14650.178    83.651599 
   57000    1311.2266   -106.92939    1.1864254   -105.74297     19813.53    4.3559369    4.3559369    4.3559369     19813.53    72935.784    16595.459   -30090.653   -4471.7665   -6623.6915    18387.984    82.650357 
   57100    1700.3315   -107.30008    1.5384957   -105.76158   -12615.839    4.3588341    4.3588341    4.3588341   -12615.839   -523.52371   -32088.592   -5235.4019    22690.126     -4839.96    16603.296    82.815384 
   57200    1440.9149   -107.06647    1.3037701    -105.7627   -11890.379    4.3736324    4.3736324    4.3736324   -11890.379   -50.553156    -6461.564   -29159.019    9277.9698   -6788.4477   -27978.651    83.661731 
   57300    1437.3689   -107.04827    1.3005616   -105.74771   -19904.505    4.3766827    4.3766827    4.3766827   -19904.505    36877.878   -34680.356   -61911.037    1426.7271    -2060.352    39821.632    83.836893 
   57400    967.06779   -106.62447   0.87502326   -105.74945   -5843.5827    4.3662371    4.3662371    4.3662371   -5843.5827   -6245.6253   -11948.454    663.33157    14351.355   -14280.498   -21329.446     83.23806 
   57500    1690.2122   -107.27384    1.5293395    -105.7445    9592.1517    4.3478819    4.3478819    4.3478819    9592.1517    19.466984    5831.9187    22925.069    4486.4345   -10963.066    -4840.854    82.192693 
   57600      1499.09   -107.12459    1.3564081   -105.76818   -10011.842    4.3628458    4.3628458    4.3628458   -10011.842   -36273.596    -17936.37     24174.44    20683.683    6835.7566    7081.0235    83.044257 
   57700    717.42891   -106.42115   0.64914476   -105.77201   -24431.526    4.3796781    4.3796781    4.3796781   -24431.526   -30033.761   -37293.212   -5967.6061    7359.6236   -4653.5911   -29882.791    84.009146 
   57800    1741.3997   -107.32433    1.5756551   -105.74868    9584.7213    4.3680315    4.3680315    4.3680315    9584.7213    10135.594    28447.821   -9829.2513   -2520.3675   -7312.7226   -598.10035    83.340727 
   57900    1234.3113   -106.87344    1.1168308   -105.75661   -15713.207    4.3638808    4.3638808    4.3638808   -15713.207   -18815.922   -32618.182    4294.4825    20090.724    7201.7948   -24948.035    83.103372 
   58000    1245.1721   -106.88336    1.1266579   -105.75671   -5198.8675    4.3600363    4.3600363    4.3600363   -5198.8675    10894.285   -16768.999    -9721.889   -6469.9346    -2150.721   -22571.744    82.883928 
   58100    1468.7756   -107.08745     1.328979   -105.75847   -2529.0074    4.3699729    4.3699729    4.3699729   -2529.0074    21286.161   -43594.613     14721.43    19000.434     7883.508    16576.158    83.451898 
   58200    935.56509     -106.616   0.84651896   -105.76948   -22980.664    4.3764654    4.3764654    4.3764654   -22980.664   -14559.831   -57327.733    2945.5736   -2914.8076    3588.3088   -42351.367    83.824408 
   58300    1763.1949   -107.34524    1.5953758   -105.74987   -20691.908    4.3656482    4.3656482    4.3656482   -20691.908   -21257.005   -24495.995   -16322.726    16600.207   -286.84104    19579.644    83.204386 
   58400    1034.5413   -106.69585   0.93607471   -105.75977   -3445.9845    4.3560648    4.3560648    4.3560648   -3445.9845    7260.4078   -56124.978    38526.617    26849.643    1127.4782   -10926.238    82.657638 
   58500    1578.7045   -107.19254     1.428445    -105.7641   -16764.007    4.3545705    4.3545705    4.3545705   -16764.007   -1026.1407   -12596.609   -36669.272    -15534.58    17837.181   -39191.429    82.572604 
   58600    1162.2577   -106.82339    1.0516352   -105.77176    -22725.66    4.3803959    4.3803959    4.3803959    -22725.66   -9963.4557   -53224.951   -4988.5737     20574.49   -3682.3407     31516.08    84.050459 
   58700    1302.8121   -106.94044    1.1788117   -105.76163   -21176.219    4.3675273    4.3675273    4.3675273   -21176.219     6070.732    -41467.42   -28131.969    18923.914    6913.5458   -26900.257    83.311872 
   58800    1541.0924   -107.14109    1.3944128   -105.74667    13687.534    4.3416708    4.3416708    4.3416708    13687.534    13072.874    26827.369     1162.359   -13691.372    22944.326   -5271.0636     81.84095 
   58900    1197.2049   -106.85412    1.0832562   -105.77086   -2195.0079    4.3676653    4.3676653    4.3676653   -2195.0079    24111.227   -37575.628    6879.3774     12476.21   -13234.393    9672.2533    83.319769 
   59000    1446.0326   -107.06092    1.3084007   -105.75251   -14849.096    4.3791836    4.3791836    4.3791836   -14849.096   -15790.802   -863.02187   -27893.464    -8408.618    4268.0442   -13432.589    83.980694 
   59100    1296.7461   -106.92777    1.1733231   -105.75445   -19451.253    4.3727913    4.3727913    4.3727913   -19451.253   -15456.641     -14580.9   -28316.217   -11128.836   -2080.0384    5834.5738    83.613473 
   59200    1615.0566   -107.21335    1.4613371   -105.75202     5472.656    4.3624789    4.3624789    4.3624789     5472.656    44296.423   -28060.249    181.79338     9631.346    5039.3263    -17021.78    83.023303 
   59300    1248.4145   -106.88884    1.1295916   -105.75925    17793.133    4.3498158    4.3498158    4.3498158    17793.133     15496.27    38971.889   -1088.7598   -27288.177    16049.276    9436.6561    82.302418 
   59400    1384.5507   -107.03146    1.2527706   -105.77869    -8685.913    4.3674518    4.3674518    4.3674518    -8685.913    12318.584   -23754.432   -14621.891    23147.187   -4619.0487   -4216.0946     83.30755 
   59500    1648.4472   -107.24926    1.4915497   -105.75771   -15382.841    4.3765548    4.3765548    4.3765548   -15382.841   -31493.835   -9633.6845   -5021.0027    2564.0446    10681.301    -6913.369    83.829548 
   59600    822.86812   -106.49902   0.74454837   -105.75447     23316.32     4.361049     4.361049     4.361049     23316.32   -3846.8756    62075.306    11720.531    -20778.05      11414.9     7571.168    82.941693 
   59700    2056.0278   -107.60039    1.8603371   -105.74005   -6647.1477    4.3720263    4.3720263    4.3720263   -6647.1477   -13735.039   -16860.676    10654.273    23914.072   -17581.836   -1930.6639    83.569594 
   59800    785.12472   -106.46388   0.71039734   -105.75349    3356.6037    4.3709163    4.3709163    4.3709163    3356.6037   -26161.225    52118.315   -15887.278   -24289.751    25432.799   -3972.0456     83.50596 
   59900    1276.3904    -106.9079    1.1549049   -105.75299    25775.976    4.3616647    4.3616647    4.3616647    25775.976    48332.437    5098.4258    23897.065   -13816.261   -25311.842    16217.231    82.976827 
   60000    1757.0125   -107.34644    1.5897818   -105.75666    10847.454    4.3711667    4.3711667    4.3711667    10847.454    35808.564   -132.64358   -3133.5579    5192.8689    10618.128   -2365.8832    83.520313 
   60100    995.71697   -106.66669   0.90094564   -105.76574    16630.743    4.3717402    4.3717402    4.3717402    16630.743    6507.6714     31293.99    12090.568   -17765.299    12796.595    5972.8873    83.553191 
   60200    1471.9993   -107.08295    1.3318959   -105.75105    10700.422    4.3802245    4.3802245    4.3802245    10700.422    2721.6525    14605.839    14773.775    1539.8753   -10341.465   -2056.7201    84.040591 
   60300    1725.3968   -107.31016    1.5611752   -105.74898   -30900.161    4.3722006    4.3722006    4.3722006   -30900.161   -48037.328    -20627.95   -24035.206   -6390.2741    33665.542   -5895.4426    83.579589 
   60400    1327.6328   -106.93989      1.20127   -105.73862    43187.086    4.3453055    4.3453055    4.3453055    43187.086    44862.572    76856.193    7842.4921   -1789.0617    5805.2302    14501.155    82.046666 
   60500    1820.7222   -107.41383    1.6474277    -105.7664   -20352.962    4.3726226    4.3726226    4.3726226   -20352.962   -20135.499    5571.0179   -46494.404   -1323.3774    6687.3142   -16309.027    83.603791 
   60600    1561.1469   -107.16597    1.4125585   -105.75341   -37136.396    4.3858899    4.3858899    4.3858899   -37136.396   -53903.886   -9878.7666   -47626.534    -8221.128    24369.184    7925.3149    84.367108 
   60700    1427.8857    -107.0365     1.291981   -105.74452    3803.6762    4.3573705    4.3573705    4.3573705    3803.6762    35103.427    12840.797   -36533.195    13372.681   -2459.7734   -8206.4964    82.731991 
   60800    1692.0403   -107.28051    1.5309936   -105.74952    9554.3378     4.359775     4.359775     4.359775    9554.3378    19976.994    10134.555   -1448.5362    2864.3693    6714.1744     1759.722    82.869023 
   60900    1656.3173   -107.25164    1.4986707   -105.75297   -39744.108    4.3806035    4.3806035    4.3806035   -39744.108   -37030.931   -29908.694   -52292.698    1800.9142    1136.2609    1638.5162    84.062411 
   61000    1161.8636   -106.79692    1.0512786   -105.74564   -14754.844    4.3841342    4.3841342    4.3841342   -14754.844    29967.272   -20710.783    -53521.02    10117.132   -6075.6847   -20658.221    84.265835 
   61100    1999.2629   -107.54348    1.8089751   -105.73451   -1506.1661    4.3653824    4.3653824    4.3653824   -1506.1661   -5296.9668     12983.57   -12205.101     -15336.1    7056.5743    19534.013    83.189189 
   61200    1242.4933   -106.86929    1.1242341   -105.74505    25694.533    4.3389185    4.3389185    4.3389185    25694.533     73220.74    34951.894   -31089.034    9042.5054   -10872.168   -35765.199    81.685408 
   61300    1311.0211   -106.97392    1.1862395   -105.78768   -4342.7224    4.3626074    4.3626074    4.3626074   -4342.7224    11149.368    5772.6303   -29950.165    6437.2193    12595.875    8552.6747    83.030641 
   61400     1594.362   -107.20203    1.4426122   -105.75941   -26138.615    4.3873066    4.3873066    4.3873066   -26138.615   -7049.3422   -20050.404   -51316.099    -2684.027    11701.229   -2501.2072    84.448895 
   61500     1217.811   -106.85024     1.101901   -105.74834   -7493.8815    4.3673248    4.3673248    4.3673248   -7493.8815    37241.172   -3871.7443   -55851.072   -3567.6912   -4382.9242   -26543.796    83.300281 
   61600    1672.6191   -107.26157    1.5134209   -105.74815   -3061.2797    4.3462463    4.3462463    4.3462463   -3061.2797     -172.636    1043.8983   -10055.101     7036.528    12647.263    29438.703     82.09997 
   61700    1244.6581   -106.88651    1.1261928   -105.76032    16192.604     4.344861     4.344861     4.344861    16192.604    28515.172    19414.308    648.33151   -27866.812    19244.758    -27520.53    82.021491 
   61800    1487.8298   -107.12228    1.3462197   -105.77606   -24579.207    4.3704843    4.3704843    4.3704843   -24579.207     23217.47   -34895.238   -62059.852    11362.981   -4991.7705    17776.461    83.481204 
   61900    1338.4301   -106.96914    1.2110397    -105.7581   -24640.906    4.3797148    4.3797148    4.3797148   -24640.906   -19883.652   -25368.677    -28670.39   -14895.119    3075.1865    11125.992    84.011261 
   62000    1328.5075   -106.94693    1.2020615   -105.74487    8630.7312    4.3528403    4.3528403    4.3528403    8630.7312    6607.4172   -5014.4586    24299.235   -15071.791    16285.687    -18272.47    82.474215 
   62100    1618.5365   -107.21847    1.4644859   -105.75398    17237.785    4.3428536    4.3428536    4.3428536    17237.785     66879.45   -2968.9281   -12197.166    7979.4825   -10816.432    30268.388    81.907859 
   62200    1269.3285   -106.92409    1.1485151   -105.77558   -12631.283    4.3601418    4.3601418    4.3601418   -12631.283   -38435.393    32521.497   -31979.954   -25307.719    15339.246   -6429.9602    82.889945 
   62300    1221.5836   -106.88865    1.1053146   -105.78333     -10631.7    4.3767883    4.3767883    4.3767883     -10631.7    29866.485   -38917.798   -22843.786    14874.029    286.46371    4707.7679    83.842966 
   62400     1699.856   -107.29707    1.5380655   -105.75901    2161.4372    4.3694128    4.3694128    4.3694128    2161.4372   -14080.594    16116.098     4448.808   -19043.029    -7981.795    15658.491    83.419817 
   62500    1008.7378   -106.67536   0.91272718   -105.76263   -4053.9832    4.3495624    4.3495624    4.3495624   -4053.9832   -3339.5468   -11891.025     3068.622   -16554.095   -1382.8286   -9610.5858    82.288033 
   62600    1796.7998   -107.39633    1.6257823   -105.77055     118.5175    4.3492036    4.3492036    4.3492036     118.5175    6676.2606    3560.9022   -9881.6102    3906.6314   -2072.7092    10901.428    82.267673 
   62700    1434.9562   -107.07674    1.2983785   -105.77837    8112.8422    4.3687718    4.3687718    4.3687718    8112.8422    43796.689   -28469.925    9011.7618   -23497.628    185.79802     685.4666    83.383111 
   62800    1083.7087   -106.76039   0.98056236   -105.77983   -33591.435    4.3749174    4.3749174    4.3749174   -33591.435   -36014.314   -43311.427   -21448.564    8714.4308   -11175.497   -8189.1814    83.735494 
   62900    1614.8488   -107.21858    1.4611491   -105.75743    24712.744    4.3508192    4.3508192    4.3508192    24712.744    72010.383    26751.778   -24623.928     -1668.28   -4159.0827    9107.8886    82.359389 
   63000    1595.2511   -107.20592    1.4434167    -105.7625   -19044.797     4.351005     4.351005     4.351005   -19044.797   -20591.255   -42364.228    5821.0921   -9894.3617   -3569.6189    -4332.084    82.369939 
   63100    937.47704    -106.6172   0.84824893   -105.76895    5774.0231    4.3630771    4.3630771    4.3630771    5774.0231    18922.793    19528.605   -21129.328    4266.0646   -6471.4302   -7548.4308    83.057462 
   63200    1652.5834   -107.25623    1.4952922   -105.76094   -4440.0426    4.3659932    4.3659932    4.3659932   -4440.0426   -22000.825   -2880.6995    11561.396   -4777.2505   -7279.8676    4523.2732    83.224113 
   63300    1277.0533   -106.92857    1.1555047   -105.77307   -24513.038    4.3623408    4.3623408    4.3623408   -24513.038   -17620.376   -59102.094    3183.3572    9639.1501    2287.1035   -8299.0242    83.015418 
   63400    1552.3279   -107.17358    1.4045789     -105.769    30272.302     4.350428     4.350428     4.350428    30272.302    49561.841    16582.941    24672.125    11643.923   -5777.7129   -2831.9808    82.337173 
   63500    1352.1286    -107.0017    1.2234344   -105.77826   -10446.736    4.3613302    4.3613302    4.3613302   -10446.736   -15191.789   -12659.256   -3489.1619   -2709.8814   -6611.1621    4791.6084    82.957741 
   63600    1045.3951   -106.72559   0.94589547   -105.77969   -16849.514    4.3634127    4.3634127    4.3634127   -16849.514   -3914.5912   -64880.472    18246.522    19240.715    5126.1259   -8908.7856    83.076628 
   63700    1855.0781   -107.44333    1.6785136   -105.76482    2327.1011    4.3623332    4.3623332    4.3623332    2327.1011    16181.426    3032.6831   -12232.806   -3907.5346   -24404.522    -2057.947    83.014989 
   63800    1197.5911    -106.8565    1.0836056    -105.7729   -5547.8696    4.3666136    4.3666136    4.3666136   -5547.8696   -39534.423   -52993.835    75884.649    14191.742   -2296.8034    8220.1691    83.259594 
   63900    1444.6201   -107.06966    1.3071226   -105.76253   -21197.159    4.3736846    4.3736846    4.3736846   -21197.159   -1081.4445   -46431.494   -16078.539    -7674.124   -7515.2407   -15146.033    83.664725 
   64000    1742.8534   -107.33815    1.5769704   -105.76118   -9928.3977    4.3567434    4.3567434    4.3567434   -9928.3977   -6644.0609   -22007.326   -1133.8058    10939.477    13603.469    4142.7846    82.696275 
   64100    1083.3927   -106.76461   0.98027644   -105.78434    4285.5074    4.3498348    4.3498348    4.3498348    4285.5074   -28936.549   -25592.442    67385.514     7991.818   -3022.8676    -1725.325    82.303497 
   64200    2002.6698   -107.59148    1.8120577   -105.77942   -19320.483    4.3666971    4.3666971    4.3666971   -19320.483    1427.7811   -42789.715   -16599.516   -14176.698    11862.423   -4451.8828     83.26437 
   64300    957.93358   -106.64452   0.86675844   -105.77776   -7610.1171    4.3742968    4.3742968    4.3742968   -7610.1171   -37934.161   -14909.044    30012.854     22285.26   -744.52388    12767.087    83.699862 
   64400    1355.8896     -106.988    1.2268374   -105.76117   -8811.0641     4.364418     4.364418     4.364418   -8811.0641   -43393.754   -23953.588    40914.149   -21528.476    12916.071   -7126.7188    83.134066 
   64500    1683.8214   -107.28332     1.523557   -105.75976    2437.8764    4.3578789    4.3578789    4.3578789    2437.8764   -9626.6727   -20689.332    37629.633    10185.393   -36370.195    14115.858     82.76095 
   64600    1031.8883   -106.71448   0.93367421    -105.7808    3761.4938    4.3660909    4.3660909    4.3660909    3761.4938   -43324.977   -18740.764    73350.222    2819.7825    18583.783   -11799.754    83.229698 
   64700    1585.8512   -107.19837    1.4349115   -105.76346   -16579.287    4.3749028    4.3749028    4.3749028   -16579.287   -40692.769   -8856.2783   -188.81318   -14324.456   -23575.941    10327.184     83.73465 
   64800    1102.7261    -106.7651   0.99776977   -105.76733   -18148.927    4.3619457    4.3619457    4.3619457   -18148.927   -19239.106   -47770.066     12562.39    16604.117   -14404.031    22353.523    82.992864 
   64900    1365.7569   -107.00321    1.2357656   -105.76744    12136.176    4.3546286    4.3546286    4.3546286    12136.176   -32046.566   -24554.504    93009.596   -11671.335   -7128.2637    955.02951    82.575908 
   65000    1535.4945   -107.15859    1.3893477   -105.76924   -35413.422    4.3712973    4.3712973    4.3712973   -35413.422   -24547.013   -34014.604   -47678.648    3638.3229   -17686.282    10490.227    83.527796 
   65100    1021.5963   -106.69497   0.92436179   -105.77061   -3327.4796    4.3584358    4.3584358    4.3584358   -3327.4796   -13344.261   -52508.445    55870.267    1096.8021    4439.0192    4065.4169    82.792684 
   65200     1848.291   -107.44046    1.6723726   -105.76808      6626.11    4.3555286    4.3555286    4.3555286      6626.11    44292.349    -23340.08   -1073.9398   -2975.7025    12965.284   -8847.3943     82.62712 
   65300    1193.3719   -106.86128    1.0797879   -105.78149   -12280.807    4.3681501    4.3681501    4.3681501   -12280.807    22381.054   -56048.513   -3174.9628    5402.9578   -14606.097    753.36852    83.347515 
   65400    1164.5218   -106.82551    1.0536838   -105.77183    3609.0563    4.3617774    4.3617774    4.3617774    3609.0563    -13145.12     -31496.2    55468.489    716.65031    16675.499    2052.2777     82.98326 
   65500    1448.5633   -107.08157    1.3106905   -105.77088     8201.211    4.3563158    4.3563158    4.3563158     8201.211    60645.058   -2480.6571   -33560.768    3723.3657    4750.2562   -24918.657    82.671929 
   65600    1838.3016   -107.43432    1.6633339   -105.77099    823.46034    4.3571455    4.3571455    4.3571455    823.46034    2194.2197   -25111.411    25387.572    14299.612   -10208.085    14251.074    82.719172 
   65700    1111.9156   -106.79769    1.0060846   -105.79161   -9970.8753     4.364186     4.364186     4.364186   -9970.8753    13983.835   -25855.319   -18041.142    259.22416     9645.962   -30489.486    83.120808 
   65800      1633.88   -107.25338     1.478369   -105.77501   -1064.3464    4.3721387    4.3721387    4.3721387   -1064.3464    41967.124    316.37865   -45476.542    5048.7827    -5428.614   -15564.176    83.576041 
   65900    1235.8404   -106.88442    1.1182143    -105.7662    17559.225     4.364044     4.364044     4.364044    17559.225    56076.212   -27184.069    23785.532   -4088.1967    1724.5431     3018.983    83.112693 
   66000    1308.1198   -106.95861    1.1836143   -105.77499   -11280.288    4.3568592    4.3568592    4.3568592   -11280.288    48083.699   -48296.727   -33627.835   -371.69578    6869.8325   -43899.598    82.702871 
   66100    1726.8668   -107.33326    1.5625054   -105.77076    11015.749    4.3704039    4.3704039    4.3704039    11015.749    25981.351   -18056.532    25122.428   -1932.1267    3072.2798    6073.0237    83.476594 
   66200    966.01514   -106.65619    0.8740708   -105.78211   -35524.915     4.376857     4.376857     4.376857   -35524.915   -43238.788   -47381.894   -15954.061   -1408.7086    8309.0097   -30974.983    83.846912 
   66300    1377.0461   -107.00848    1.2459802    -105.7625    10038.495    4.3699873    4.3699873    4.3699873    10038.495    34473.707   -18382.729    14024.506   -5128.6318    21907.539    60.441927    83.452727 
   66400    1821.6064   -107.40356    1.6482278   -105.75533    3078.7505    4.3586283    4.3586283    4.3586283    3078.7505    16965.614   -17628.641    9899.2783   -4116.7305   -7443.5403   -6622.0709    82.803657 
   66500    966.60104    -106.6524   0.87460094    -105.7778    2121.9048     4.355149     4.355149     4.355149    2121.9048    7101.4984    -28969.33    28233.546   -6338.5515    24881.677   -27334.489    82.605515 
   66600    1455.0329   -107.09504    1.3165443    -105.7785     9128.424    4.3705398    4.3705398    4.3705398     9128.424    10460.268    -3563.695    20488.699    3216.7269      10677.4    12632.026    83.484383 
   66700    1657.3687   -107.27363     1.499622   -105.77401   -31236.711    4.3778208    4.3778208    4.3778208   -31236.711   -13334.036   -44947.867    -35428.23   -6460.7594   -12199.315   -25306.284    83.902317 
   66800    890.14008   -106.58308   0.80541745   -105.77767    22831.065    4.3554669    4.3554669    4.3554669    22831.065    24777.401   -7702.8393    51418.633    -13306.34    13389.674   -6384.6318    82.623608 
   66900    1862.6933   -107.45801    1.6854041   -105.77261     14054.77    4.3525924    4.3525924    4.3525924     14054.77    52880.554   -3180.3284   -7535.9164    5525.7832   -23495.369    11050.856    82.460128 
   67000    1401.0969   -107.04696    1.2677419   -105.77922    4456.8951    4.3686336    4.3686336    4.3686336    4456.8951    25233.292   -27540.486     15677.88   -19779.805    20006.819   -30118.215    83.375196 
   67100    1389.1324   -107.02936    1.2569162   -105.77245   -21001.194     4.367011     4.367011     4.367011   -21001.194   -9993.0805   -37654.555   -15355.948   -20879.837    6554.8944    16029.194    83.282326 
   67200    1397.1563   -107.03639    1.2641763   -105.77221    9286.8525    4.3612955    4.3612955    4.3612955    9286.8525    33686.646    373.59086   -6199.6798    16977.564    4303.5313    7344.0826     82.95576 
   67300    1780.6015    -107.3926    1.6111257   -105.78147    26771.493    4.3519712    4.3519712    4.3519712    26771.493    64513.891    1546.5565    14254.032   -31917.372    21237.125    -15712.29    82.424824 
   67400    1261.4042    -106.9434     1.141345   -105.80205    3359.0148    4.3596743    4.3596743    4.3596743    3359.0148    27273.322   -23425.739    6229.4614   -1381.9841    1232.8224    31698.234    82.863284 
   67500    1504.6321   -107.15091    1.3614228   -105.78949    669.58815    4.3690772    4.3690772    4.3690772    669.58815    39803.564   -19370.885   -18423.914    21784.017   -8680.3337   -122.33632    83.400599 
   67600    1217.0076   -106.88463    1.1011741   -105.78346    30286.531    4.3513304    4.3513304    4.3513304    30286.531    76497.534    16898.144   -2536.0849    -20060.86     6295.664    14725.816    82.388423 
   67700    1602.0763   -107.23397    1.4495923   -105.78438   -4886.1539    4.3534871    4.3534871    4.3534871   -4886.1539    23480.626   -36196.957   -1942.1314    13250.033    3050.7535    16947.825    82.510989 
   67800    1453.9831   -107.09701    1.3155945   -105.78141    5994.2227    4.3655846    4.3655846    4.3655846    5994.2227    50373.984   -11798.346   -20592.971    11444.523   -10165.115   -2315.1207    83.200749 
   67900     1289.095   -106.94246    1.1664003   -105.77606    6742.8473    4.3568642    4.3568642    4.3568642    6742.8473    10871.941   -5561.0858    14917.687   -12113.486   -1396.5391      27350.6    82.703152 
   68000     1373.229   -107.01092    1.2425264    -105.7684    2918.8678    4.3563161    4.3563161    4.3563161    2918.8678    28437.038    -16663.36   -3017.0742    12698.455    12674.856    5434.9144    82.671945 
   68100    1304.1721   -106.95041    1.1800423   -105.77037    -8960.974    4.3541202    4.3541202    4.3541202    -8960.974    6644.0555   -7099.7212   -26427.256    2199.0371   -24648.755    9260.1753     82.54699 
   68200    1623.5877   -107.24346    1.4690563   -105.77441   -6473.8674    4.3577316    4.3577316    4.3577316   -6473.8674     9901.364   -23903.036   -5419.9302   -6919.4914    6414.9615    18374.628    82.752557 
   68300    1339.7874   -106.98652    1.2122678   -105.77425   -21929.968    4.3692455    4.3692455    4.3692455   -21929.968   -23530.851   -20755.707   -21503.345    7222.6419   -2543.8646   -2854.7364    83.410237 
   68400    1335.2085   -106.97692    1.2081247   -105.76879   -6255.6589    4.3486592    4.3486592    4.3486592   -6255.6589    22145.351    5975.6992   -46888.027    4239.3697   -35759.997    13126.958    82.236786 
   68500    1743.9736   -107.34513    1.5779839   -105.76715    31701.019     4.341905     4.341905     4.341905    31701.019    59490.022    4509.3243     31103.71   -7037.7938    6109.4696    5779.3651    81.854197 
   68600    998.91716   -106.69586   0.90384124   -105.79202   -13637.382    4.3606953    4.3606953    4.3606953   -13637.382   -5213.5108    7426.9022   -43125.539    10030.807   -41777.078   -6831.3129    82.921514 
   68700    1368.1241   -107.02404    1.2379075   -105.78613    7865.2958     4.372484     4.372484     4.372484    7865.2958    53734.231   -16873.604    -13264.74   -2765.5404   -6463.3459    11458.014    83.595846 
   68800    1882.9044   -107.47577    1.7036915   -105.77208   -2401.2455     4.359303     4.359303     4.359303   -2401.2455    -10978.25     12903.19   -9128.6771    3964.2013    -5337.052   -6110.6306    82.842114 
   68900    681.91621   -106.38945   0.61701212   -105.77244    31284.796     4.337908     4.337908     4.337908    31284.796    54337.689     17771.08    21745.618    4939.7124   -38321.383     1451.676    81.628349 
   69000    1732.1702   -107.34925     1.567304   -105.78194   -20093.945    4.3588674    4.3588674    4.3588674   -20093.945   -15235.099   -21744.543   -23302.194    1537.8752     38161.06    3264.1041    82.817284 
   69100    1464.5633   -107.10126    1.3251676    -105.7761    18139.618    4.3594644    4.3594644    4.3594644    18139.618     37299.94    17642.247    -523.3316    4240.3777   -16219.539   -4020.8378    82.851315 
   69200    1157.4521   -106.83215     1.047287   -105.78486   -10596.775    4.3632607    4.3632607    4.3632607   -10596.775   -27450.292   -5517.6604    1177.6285    265.56629   -7643.9186    9455.7868    83.067947 
   69300    1161.8047   -106.83536    1.0512253   -105.78413   -31987.719    4.3649019    4.3649019    4.3649019   -31987.719   -18798.626   -19519.606   -57644.924   -3989.6971    47871.006   -228.49758     83.16172 
   69400    2176.0046    -107.7293    1.9688947   -105.76041    32840.439     4.334722     4.334722     4.334722    32840.439    42218.695     34044.51    22258.111    -5391.826     -20761.2   -1891.8167    81.448625 
   69500    938.02643    -106.6482   0.84874603   -105.79945   -26585.877    4.3577574    4.3577574    4.3577574   -26585.877   -19765.254    4181.9366   -64174.315    8514.5233    35658.547     14606.64    82.754028 
   69600    1230.9002   -106.89673    1.1137444   -105.78298   -40108.072    4.3657201    4.3657201    4.3657201   -40108.072   -21039.094   -24011.078   -75274.043   -14219.995    26753.401   -6686.4272    83.208493 
   69700    1649.9714   -107.25337    1.4929288   -105.76044    30533.475    4.3530921    4.3530921    4.3530921    30533.475    17405.249    64449.739    9745.4387    17559.408   -5660.9909   -4283.5994    82.488528 
   69800    1254.0475    -106.9151    1.1346885   -105.78041   -23092.383    4.3576917    4.3576917    4.3576917   -23092.383   -5526.3566   -2535.0828   -61215.709    12459.686    35095.986    6999.1087    82.750285 
   69900    1143.7138   -106.81574    1.0348563   -105.78088     25642.66    4.3531157    4.3531157    4.3531157     25642.66     40401.22    41038.546   -4511.7862    6701.7158   -18455.058   -14909.085     82.48987 
   70000    1599.0453   -107.23055    1.4468498    -105.7837     6049.689    4.3666907    4.3666907    4.3666907     6049.689    14624.295    33072.245   -29547.474    21618.295   -6002.0177    4217.7134    83.264002 
   70100    928.05201   -106.62417   0.83972096   -105.78445    19704.232    4.3640504    4.3640504    4.3640504    19704.232    79222.843    2449.7636   -22559.911    4616.7784    12934.788   -10557.864     83.11306 
   70200    1127.3368   -106.78861     1.020038   -105.76857    35348.643    4.3557288    4.3557288    4.3557288    35348.643     43156.53    44987.371    17902.029    19134.462   -30545.857    1744.1284    82.638513 
   70300    1518.6214   -107.13662    1.3740806   -105.76254    10089.804    4.3756829    4.3756829    4.3756829    10089.804      51995.5   -1858.8423   -19867.245    10014.655   -3033.7136   -6214.4476    83.779456 
   70400     1160.265    -106.7983    1.0498321   -105.74847   -12160.484    4.3796147    4.3796147    4.3796147   -12160.484    9707.0585     11047.92   -57236.432    6235.1108    6776.8019   -7960.2601    84.005498 
   70500    1284.1218   -106.90042    1.1619004   -105.73852    30760.885    4.3565361    4.3565361    4.3565361    30760.885    5726.9458    55624.854    30930.856    2601.7632    -31575.74    17081.746    82.684473 
   70600    1479.0369   -107.09292    1.3382637   -105.75466    27721.453    4.3580612    4.3580612    4.3580612    27721.453    11913.107    79903.205   -8651.9522    10636.314    9803.1418   -2558.7686    82.771339 
   70700    914.25383   -106.60461   0.82723607   -105.77738   -33980.561    4.3736591    4.3736591    4.3736591   -33980.561   -41274.489    19665.163   -80332.358   -5308.8326   -19166.455   -8528.2563    83.663261 
   70800    1633.9634   -107.23452    1.4784444   -105.75607    2227.6389    4.3712462    4.3712462    4.3712462    2227.6389    25207.191    11133.501   -29657.775    6865.7174   -5803.5228    4926.2116    83.524866 
   70900    1712.7039   -107.30497    1.5496905   -105.75528    5240.3739    4.3682366    4.3682366    4.3682366    5240.3739    21233.125    10345.104   -15857.107    14266.333   -19402.663   -3136.0122    83.352467 
   71000    1020.0861   -106.68989   0.92299537    -105.7669   -6163.9049    4.3525993    4.3525993    4.3525993   -6163.9049    26101.342    -10847.45   -33745.607   -6949.4482    -22827.82      17174.9    82.460517 
   71100    1146.5164   -106.80917    1.0373921   -105.77178    32171.314    4.3522117    4.3522117    4.3522117    32171.314     26137.61    73817.833   -3441.5018    22930.398    21577.233    4552.6515    82.438494 
   71200     1688.531    -107.2987    1.5278183   -105.77089   -5923.8222    4.3713641    4.3713641    4.3713641   -5923.8222     7710.791   -15457.043   -10025.215   -21191.822   -15367.115    11591.412    83.531627 
   71300    901.91167   -106.58219   0.81606863   -105.76612    3675.1817    4.3700158    4.3700158    4.3700158    3675.1817    15344.796    26596.193   -30915.444   -614.70051    5295.1688    9461.5983    83.454356 
   71400    1795.9746   -107.37871    1.6250356   -105.75368   -11183.593    4.3673861    4.3673861    4.3673861   -11183.593   -8494.3207    1172.3986   -26228.856    4553.9837    17151.594   -9411.4184    83.303788 
   71500    1876.2339   -107.44895    1.6976559   -105.75129    13322.155    4.3546945    4.3546945    4.3546945    13322.155    31571.409    16251.225   -7856.1683   -27897.093   -8157.9072    8668.1999    82.579659 
   71600    801.71675     -106.502   0.72541016   -105.77659    2283.6986    4.3451563    4.3451563    4.3451563    2283.6986   -5649.0657    34124.996   -21624.835    13500.342    34692.309   -16153.234    82.038214 
   71700    1566.9964   -107.20247    1.4178513   -105.78462    3515.7662    4.3707607    4.3707607    4.3707607    3515.7662   -1353.1316    54535.152   -42634.722   -14384.869   -7026.6055    4530.7935    83.497042 
   71800    1819.3459   -107.40643    1.6461824   -105.76025    -14273.61    4.3728141    4.3728141    4.3728141    -14273.61    2982.8531    12659.943   -58463.626   -3106.9057    15776.834    -8676.562    83.614779 
   71900    859.02279   -106.54019   0.77726187   -105.76293     20453.24    4.3499034    4.3499034    4.3499034     20453.24      42082.5     66540.08   -47262.862    18308.705    10868.217   -10024.533    82.307394 
   72000    1439.0439   -107.07969    1.3020771   -105.77761   -8078.9437    4.3526045    4.3526045    4.3526045   -8078.9437    16218.405    10904.007   -51359.243    16056.409   -42239.291    2453.1351    82.460816 
   72100    1598.1455   -107.22214    1.4460357   -105.77611    30992.934    4.3498914    4.3498914    4.3498914    30992.934     59745.95    59970.282   -26737.431   -9275.8333    31348.062   -11578.647     82.30671 
   72200    675.54893   -106.41102   0.61125087   -105.79977   -39038.796    4.3732885    4.3732885    4.3732885   -39038.796   -32825.628    7446.9151   -91737.675    10251.189   -28948.817   -4764.4866    83.641993 
   72300    1854.3275   -107.45094    1.6778345    -105.7731   -17926.374    4.3613628    4.3613628    4.3613628   -17926.374    157.80598   -7396.8558   -46540.071    2643.8728   -3728.2199    8749.5215    82.959602 
   72400    1578.9478   -107.19922    1.4286652   -105.77055    39461.003    4.3306226    4.3306226    4.3306226    39461.003    88386.332    48377.981   -18381.303    -1946.639    -10814.03   -3203.6619    81.217763 
   72500    1078.7136   -106.78118   0.97604272   -105.80514   -91.885447    4.3400598    4.3400598    4.3400598   -91.885447    18998.691    23429.796   -42704.144    15427.849   -41337.148    10778.534    81.749884 
   72600    1515.4619   -107.17052    1.3712218    -105.7993   -348.11401     4.376898     4.376898     4.376898   -348.11401     69988.84     -22285.4   -48747.782   -3503.2344    23340.671   -49.728663    83.849267 
   72700    1596.1193   -107.23144    1.4442023   -105.78724   -24988.121    4.3658714    4.3658714    4.3658714   -24988.121   -26332.482    9960.2602   -58592.141   -8333.5883   -39364.443    3500.7708    83.217148 
   72800    991.01487    -106.6549   0.89669108   -105.75821     52879.53    4.3198969    4.3198969    4.3198969     52879.53    82289.724    79595.503   -3246.6391    9289.0889    7736.7928    11446.404    80.615796 
   72900    1544.9619   -107.19088     1.397914   -105.79297   -12959.859    4.3426662    4.3426662    4.3426662   -12959.859   -18759.992    1609.4738   -21729.061   -22401.632     41907.07   -4250.6955    81.897253 
   73000    1617.5187   -107.23899    1.4635649   -105.77542    19972.497    4.3668942    4.3668942    4.3668942    19972.497     40944.82    37790.958   -18818.287   -6209.5239   -12495.734    440.91093    83.275647 
   73100    855.99086   -106.55297   0.77451852   -105.77845   -35659.971    4.3790479    4.3790479    4.3790479   -35659.971    -37743.79    -25350.48   -43885.643     -1143.21    46006.277    9425.6287    83.972886 
   73200    1505.8851   -107.12845    1.3625565    -105.7659   -9461.7232    4.3586099    4.3586099    4.3586099   -9461.7232   -16311.398   -21317.384    9243.6116   -7709.0897    3961.5616   -3355.8502    82.802606 
   73300    1832.3164   -107.40229    1.6579184   -105.74437    29465.205    4.3359954    4.3359954    4.3359954    29465.205    18496.932    34725.222     35173.46    17412.238    12314.243    8930.6098    81.520424 
   73400     1023.326   -106.70912   0.92592689    -105.7832   -31511.432    4.3623875    4.3623875    4.3623875   -31511.432   -38374.603   -46219.689   -9940.0029   -15562.726    19458.305   -5147.4449    83.018086 
   73500    1527.9424    -107.1482    1.3825144   -105.76569   -25721.375    4.3748846    4.3748846    4.3748846   -25721.375   -27130.387   -37497.011   -12536.727   -9788.2005   -16292.709   -238.02544     83.73361 
   73600    1841.1286   -107.40341    1.6658919   -105.73752   -12552.785    4.3710807    4.3710807    4.3710807   -12552.785     9660.302   -2520.6488   -44798.008   -2710.3392    21556.501    12737.498    83.515382 
   73700    887.03901   -106.54668   0.80261154   -105.74407    -15958.26    4.3704504    4.3704504    4.3704504    -15958.26   -19583.999    9165.7022   -37456.483   -17085.304   -21386.778    3324.4343    83.479258 
   73800    1605.8585   -107.19787    1.4530145   -105.74485    8357.8018    4.3590856    4.3590856    4.3590856    8357.8018   -17613.854    80874.284   -38187.025     10561.67   -21087.653    12493.009    82.829722 
   73900    1665.6618   -107.25996    1.5071258   -105.75283    12894.516    4.3505927    4.3505927    4.3505927    12894.516    7753.3272    35299.316   -4369.0962    -13134.94    16093.804    6146.0008    82.346528 
   74000    647.19323   -106.36747   0.58559404   -105.78188   -14683.484    4.3694141    4.3694141    4.3694141   -14683.484   -8829.1401    24858.867   -60080.178   -17859.098   -39458.922   -5266.4275    83.419894 
   74100    2001.9343   -107.56296    1.8113922   -105.75157   -14586.001    4.3734023    4.3734023    4.3734023   -14586.001   -14325.126   -10093.047   -19339.829     14100.62    5085.5206    7991.3839    83.648524 
   74200    1313.0095    -106.9411    1.1880386   -105.75306   -1753.3304    4.3527458    4.3527458    4.3527458   -1753.3304   -13030.388    -12515.47    20285.868   -42344.756   -28164.536   -6056.0848    82.468844 
   74300    1416.7836   -107.04165    1.2819356   -105.75971   -6321.1804    4.3440162    4.3440162    4.3440162   -6321.1804    4066.7081    8887.1759   -31917.425    3903.5061   -6627.6765    2142.5108    81.973655 
   74400    1696.4748   -107.29975    1.5350061   -105.76474    7971.5492    4.3530683    4.3530683    4.3530683    7971.5492   -21930.828    35387.862    10457.613   -6723.1698    10680.587    -5711.271    82.487178 
   74500    929.54466   -106.62815   0.84107154   -105.78708   -3111.8885    4.3669849    4.3669849    4.3669849   -3111.8885   -19605.963   -2766.6686    13036.966   -30624.016   -41514.145    1835.0312    83.280837 
   74600    1738.1357   -107.33975    1.5727017   -105.76704   -16140.145    4.3701342    4.3701342    4.3701342   -16140.145   -34353.138    9794.8707   -23862.167    1103.8926    13055.455    -12149.52    83.461141 
   74700    1216.3232   -106.86504    1.1005548   -105.76449    24360.625    4.3478274    4.3478274    4.3478274    24360.625    -16484.98    64762.015    24804.841   -12942.602   -5555.6364    5665.8593    82.189605 
   74800    1146.3807   -106.81016    1.0372693    -105.7729    21832.747    4.3476862    4.3476862    4.3476862    21832.747   -34942.832    57440.562    43000.511   -15669.312   -19551.252   -10355.753    82.181594 
   74900    1564.2254   -107.17766     1.415344   -105.76231   -9736.9644    4.3741168    4.3741168    4.3741168   -9736.9644   -35517.079    57642.701   -51336.516     10652.41    19197.428   -4006.1406     83.68953 
   75000    1302.0367   -106.93399    1.1781101   -105.75588   -7338.5245     4.369122     4.369122     4.369122   -7338.5245   -31751.187    22717.786   -12982.172   -14340.995   -26651.608   -3771.3449    83.403164 
   75100    1435.1998   -107.04579    1.2985989   -105.74719   -3750.9102    4.3611199    4.3611199    4.3611199   -3750.9102   -8904.7886   -4397.1525    2049.2106    -5464.778    9826.9874   -4971.6435    82.945741 
   75200    1480.7581   -107.08914     1.339821   -105.74932    11133.277    4.3526509    4.3526509    4.3526509    11133.277    9573.9378    27370.928   -3545.0337    13301.506    2890.2583   -8791.5181    82.463453 
   75300    1005.2077   -106.68014   0.90953304    -105.7706    26796.869    4.3588921    4.3588921    4.3588921    26796.869    4749.2349    64366.089    11275.283   -17818.864   -12761.468   -5990.1015    82.818689 
   75400     1624.213   -107.22883     1.469622   -105.75921   -13529.801    4.3740267    4.3740267    4.3740267   -13529.801   -11274.003    11064.128   -40379.529    9034.2696    10379.138   -17337.489    83.684357 
   75500    1215.4045   -106.85365    1.0997235   -105.75393    7711.7595    4.3566917    4.3566917    4.3566917    7711.7595   -31471.674    79402.018   -24795.066    -13292.44   -12602.173    3545.5901     82.69333 
   75600    1346.7732   -106.98393    1.2185887   -105.76534   -9638.1563    4.3500456    4.3500456    4.3500456   -9638.1563   -38196.169   -10973.929    20255.629   -14841.285   -1047.1114   -7762.4312    82.315465 
   75700     1626.682   -107.24348    1.4718561   -105.77163   -234.23208    4.3568004    4.3568004    4.3568004   -234.23208   -4862.4423     40084.74   -35924.994    3318.0077   -3723.6046    6059.6495     82.69952 
   75800    1095.5535   -106.77208   0.99127979    -105.7808   -15073.822    4.3659178    4.3659178    4.3659178   -15073.822   -47120.206    43461.282   -41562.542   -21299.691   -10837.239    24890.913    83.219802 
   75900    1529.7818   -107.15165    1.3841788   -105.76748   -5619.8264    4.3505321    4.3505321    4.3505321   -5619.8264   -41190.602    19091.932    5239.1911   -3336.7774      2422.09   -9844.1691    82.343086 
   76000    1631.7094   -107.24776     1.476405   -105.77135   -11052.309    4.3473697    4.3473697    4.3473697   -11052.309   -11868.216    11590.284   -32878.995    13740.761   -9946.5581    22184.148    82.163649 
   76100    1486.7909   -107.12805    1.3452797   -105.78277   -17454.708    4.3624748    4.3624748    4.3624748   -17454.708   -54709.663    14419.096   -12073.557   -17986.647   -4238.2904   -84.088887    83.023072 
   76200    1251.7269    -106.9117    1.1325888   -105.77911    18742.938    4.3617741    4.3617741    4.3617741    18742.938   -28309.707    81708.901    2829.6189    22139.886   -163.51771   -8293.7875    82.983073 
   76300      1307.07   -106.95759    1.1826644   -105.77493   -5534.5606    4.3583914    4.3583914    4.3583914   -5534.5606    -19229.96    31925.989   -29299.712   -8512.9431   -11535.998    12639.141    82.790152 
   76400     1291.798   -106.93876     1.168846   -105.76991     36409.68    4.3402592    4.3402592    4.3402592     36409.68   -5089.4162    82687.369    31631.087   -6602.8684    5300.9026    -12018.42    81.761153 
   76500    1672.0966   -107.29315    1.5129481    -105.7802   -7245.3829     4.349669     4.349669     4.349669   -7245.3829   -32316.204    22334.101   -11754.046    5690.4503   -15497.643    3893.9461    82.294086 
   76600    1723.5901   -107.33639    1.5595406   -105.77685   -15738.635    4.3723206    4.3723206    4.3723206   -15738.635   -26667.973    27050.755   -47598.686   -16747.629   -7153.8356    3742.0411     83.58647 
   76700    943.92283   -106.61418   0.85408121    -105.7601    -31873.65    4.3866678    4.3866678    4.3866678    -31873.65   -48736.245   -17444.704       -29440     5096.285    1147.3226   -4290.5395    84.412008 
   76800    1716.9782    -107.3059     1.553558   -105.75234   -12931.167    4.3522207    4.3522207    4.3522207   -12931.167   -44217.696    35064.392   -29640.198    3350.5338   -30447.941   -2334.0887       82.439 
   76900    1782.8428   -107.34858    1.6131536   -105.73543     64298.27    4.3159673    4.3159673    4.3159673     64298.27    44936.132    104974.24    42984.442    -6125.983    12703.279   -5180.9039    80.396001 
   77000    861.23681   -106.57735   0.77926517   -105.79809    -28034.42    4.3519072    4.3519072    4.3519072    -28034.42   -69828.141   -809.03877   -13466.081    17162.365    -34486.53    1648.3805    82.421189 
   77100    1412.7897   -107.04478    1.2783218   -105.76646   -17792.788    4.3847229    4.3847229    4.3847229   -17792.788   -28949.218    33647.771   -58076.918    6514.6519    5883.6455   -2300.3834    84.299786 
   77200    1590.4555   -107.19347    1.4390776   -105.75439   -28454.879     4.370463     4.370463     4.370463   -28454.879   -37962.167   -8201.8956   -39200.574    14192.702    3379.4691    1624.9938    83.479979 
   77300    926.99345   -106.59336   0.83876315    -105.7546    9953.4987    4.3457017    4.3457017    4.3457017    9953.4987    2275.8974    36238.419   -8653.8203    7776.5847    -28835.88   -9646.8034    82.069112 
   77400    1535.2464   -107.15107    1.3891232   -105.76195    3423.9838    4.3329226    4.3329226    4.3329226    3423.9838    10550.873    34258.017   -34536.939    5516.5374    49528.575    18889.891    81.347233 
   77500    1600.6997   -107.23467    1.4483468   -105.78633     3283.041    4.3572219    4.3572219    4.3572219     3283.041    -1434.481    22786.989   -11503.385    11305.675   -16380.261   -18091.925    82.723523 
   77600    1330.6145   -106.97793     1.203968   -105.77397   -58238.345    4.3800759    4.3800759    4.3800759   -58238.345   -77603.913       -36540   -60571.121    6424.0013     25267.72    3067.3531     84.03204 
   77700    1093.2142   -106.75527   0.98916319   -105.76611   -5837.7072    4.3539546    4.3539546    4.3539546   -5837.7072    1888.6485    1358.9015   -20760.672   -7932.5139    28917.846    4447.4217    82.537571 
   77800    2201.9035   -107.73914    1.9923285   -105.74681    8922.1188    4.3345997    4.3345997    4.3345997    8922.1188      9990.72    206.06252    16569.574    9487.6181    418.28561   -29273.545     81.44173 
   77900    983.45457   -106.67203   0.88985036   -105.78218   -2283.6901    4.3543943    4.3543943    4.3543943   -2283.6901   -10206.794    19610.631   -16254.908   -7944.2027     40578.55      12663.7    82.562582 
   78000    1327.7081    -106.9776    1.2013382   -105.77626   -25034.276    4.3713284    4.3713284    4.3713284   -25034.276    8407.7907   -64022.704   -19487.914   -4908.7512   -5384.8209   -30316.155    83.529582 
   78100    1663.9933   -107.26793    1.5056161   -105.76231     5048.483    4.3617444    4.3617444    4.3617444     5048.483    28022.738   -21323.824    8446.5343     6038.619    14107.231   -8385.5392    82.981378 
   78200    1412.6159   -107.04489    1.2781646   -105.76673    23149.922    4.3397784    4.3397784    4.3397784    23149.922    32645.696    5330.8977    31473.172   -4879.0995    11032.321   -4505.4137    81.733982 
   78300    1046.7931   -106.73403    0.9471604   -105.78687    4271.4773    4.3505803    4.3505803    4.3505803    4271.4773    60355.969   -15626.197   -31915.341    10670.518   -28041.832   -20695.711    82.345824 
   78400     1681.386   -107.28691    1.5213534   -105.76556   -6477.2262    4.3720225    4.3720225    4.3720225   -6477.2262   -18028.596   -19598.339    18195.256    6817.1276   -15479.484    2331.3766    83.569377 
   78500    1208.8616   -106.84695    1.0938034   -105.75314    5402.9656    4.3681006    4.3681006    4.3681006    5402.9656    28277.208   -16184.415    4116.1039    970.10296   -14412.578   -12774.198    83.344683 
   78600    1151.0075   -106.79167    1.0414558   -105.75021    1533.3716     4.361383     4.361383     4.361383    1533.3716   -9168.4275    6131.8687    7636.6735    9631.5052   -32803.677   -6236.4623    82.960754 
   78700    1773.3431   -107.33165    1.6045581   -105.72709    20912.884    4.3656442    4.3656442    4.3656442    20912.884   -34184.383    33359.731    63563.303   -3310.5683    10126.565    12731.864    83.204154 
   78800    892.08819   -106.54761   0.80718014   -105.74043   -22138.778    4.3784779    4.3784779    4.3784779   -22138.778   -46380.441   -23732.956    3697.0641   -6130.6873   -30270.107   -10851.198    83.940102 
   78900    1266.2828   -106.88761    1.1457593   -105.74185   -9675.2698    4.3700989    4.3700989    4.3700989   -9675.2698     -29201.2   -9931.6875    10107.078   -6870.6778   -20.604852    14302.474     83.45912 
   79000    1716.4707   -107.28866    1.5530988   -105.73556    27106.385    4.3452573    4.3452573    4.3452573    27106.385    -21058.62     47865.66    54512.115   -11968.936    11662.414    15046.827    82.043938 
   79100    956.74673   -106.63834   0.86568455   -105.77266    1847.1305    4.3566197    4.3566197    4.3566197    1847.1305    -10200.15    62399.522    -46657.98   -2938.8425   -28639.394    -13390.16    82.689228 
   79200    1232.1163   -106.88634    1.1148448    -105.7715   -21734.397     4.372788     4.372788     4.372788   -21734.397   -46489.357    22080.281   -40794.115    12426.984     30067.28    27874.177    83.613282 
   79300    1755.7744   -107.33456    1.5886615    -105.7459    1244.4486      4.36646      4.36646      4.36646    1244.4486   -13769.467    31822.652    -14319.84   -5138.0477     1478.885   -9279.2925    83.250806 
   79400    990.95979   -106.65296   0.89664124   -105.75632   -7808.8221    4.3597851    4.3597851    4.3597851   -7808.8221   -9056.5754    21205.911   -35575.802    6717.3532    9136.4184   -2583.0278    82.869599 
   79500    1365.1722   -106.99486    1.2352365   -105.75962   -20561.803    4.3562413    4.3562413    4.3562413   -20561.803   -49116.958   -11236.973    -1331.477    1493.2723    32506.021    30652.945    82.667685 
   79600     1868.501   -107.45031     1.690659   -105.75965    8299.7126    4.3608039    4.3608039    4.3608039    8299.7126   -3581.9531    11584.963    16896.128   -2845.6177   -2716.1316   -18540.325    82.927712 
   79700    1150.8287   -106.81204     1.041294   -105.77074   -34512.006    4.3657599    4.3657599    4.3657599   -34512.006    -34116.01   -18862.014   -50557.995    1846.5712    37928.354    13801.327     83.21077 
   79800    860.12304   -106.54773    0.7782574   -105.76948    10193.318    4.3455232    4.3455232    4.3455232    10193.318   -25267.839    -25261.56    81109.353   -3790.0408    1314.5236    21706.262    82.059001 
   79900    1809.3722   -107.41254     1.637158   -105.77538    15319.768    4.3399074    4.3399074    4.3399074    15319.768   -8740.9845    13754.843    40945.444    1416.6326   -6789.2672   -4268.5812    81.741272 
   80000    1592.3588   -107.23302    1.4407997   -105.79222   -4933.1406    4.3655411    4.3655411    4.3655411   -4933.1406   -26345.217   -9077.9957    20623.791   -9969.6648    17449.112    1688.0822    83.198259 
   80100    907.66301   -106.59519   0.82127256   -105.77392    -34869.12    4.3756093    4.3756093    4.3756093    -34869.12   -70244.412   -30024.593   -4338.3539   -24522.911    -27850.41    10360.738    83.775227 
   80200    1591.9727   -107.19193    1.4404504   -105.75148    9881.7704    4.3450323    4.3450323    4.3450323    9881.7704   -9145.8284    30067.903     8723.237    4538.0003    -4781.511   -11593.678    82.031194 
   80300    1452.7104   -107.07516    1.3144429   -105.76072    15724.113    4.3435667    4.3435667    4.3435667    15724.113   -24994.724    58058.818    14108.247   -20987.304   -10257.038    3727.4221     81.94821 
   80400     1144.312   -106.80674    1.0353976   -105.77135   -33127.339    4.3748487    4.3748487    4.3748487   -33127.339   -60747.767   -21732.911   -16901.338   -14963.068   -32446.871   -12472.643    83.731547 
   80500    1749.3246    -107.3275    1.5828257   -105.74467    5012.5211    4.3727054    4.3727054    4.3727054    5012.5211    -3798.797    17930.842    905.51878    5431.0641     10924.02   -21391.919    83.608543 
   80600    1386.7063   -106.99823     1.254721   -105.74351    804.62923    4.3514373    4.3514373    4.3514373    804.62923   -19082.422    37503.597   -16007.288   -13068.897   -40385.572    11527.232    82.394494 
   80700    1215.4296   -106.85554    1.0997462   -105.75579   -7874.0397    4.3416846    4.3416846    4.3416846   -7874.0397   -20783.216   -6837.0148    3998.1116   -92.129475    -3528.237   -18053.296    81.841733 
   80800    1587.3239   -107.21301     1.436244   -105.77677    6420.5345    4.3527295    4.3527295    4.3527295    6420.5345   -2142.2634   -3919.6087    25323.475    14772.723    5047.0302   -13023.631     82.46792 
   80900    1985.3816   -107.56884     1.796415   -105.77242   -26052.137    4.3693106    4.3693106    4.3693106   -26052.137   -49899.827   -8923.1051    -19333.48   -6717.8099   -24286.902     7171.964    83.413966 
   81000    858.81767   -106.54586   0.77707628   -105.76878   -8902.0012    4.3618255    4.3618255    4.3618255   -8902.0012   -35535.337    -17024.56    25853.893    13513.729    18867.642   -24507.972    82.986006 
   81100     1939.314   -107.50498    1.7547321   -105.75024    1752.5469    4.3563366    4.3563366    4.3563366    1752.5469   -10981.553    303.95953    15935.234    11813.067    4574.1767   -4399.2843    82.673112 
   81200    1421.3993   -107.04994     1.286112   -105.76383    9611.2367    4.3561816    4.3561816    4.3561816    9611.2367   -17076.033    33291.371    12618.372   -13638.156   -895.18282    4661.3334     82.66429 
   81300    994.22478    -106.6832   0.89959548    -105.7836   -21592.618    4.3586744    4.3586744    4.3586744   -21592.618   -46243.831    5319.1008   -23853.123    13599.582    31098.232   -36651.923    82.806279 
   81400    2225.0195   -107.78318    2.0132444   -105.76993    871.33737    4.3576255    4.3576255    4.3576255    871.33737   -5385.7859    11108.226   -3108.4278   -8427.4089     5175.515    15518.969    82.746514 
   81500    1363.7021   -107.01005    1.2339063   -105.77614    12200.108    4.3550013    4.3550013    4.3550013    12200.108   -21023.161    27126.888    30496.597    699.01868    13459.096   -22045.324    82.597115 
   81600    1132.3658   -106.80306    1.0245884   -105.77848   -23035.005    4.3635625    4.3635625    4.3635625   -23035.005   -27831.966   -14201.999   -27071.051    2573.9705    16874.932   -9842.1913    83.085187 
   81700    1805.8622   -107.39309    1.6339821   -105.75911    1563.0703    4.3594725    4.3594725    4.3594725    1563.0703    547.44193    14157.408   -10015.639    -2087.977    -12255.77    11470.899    82.851779 
   81800    1373.5647   -107.01251    1.2428302   -105.76968   -2889.1098    4.3469447    4.3469447    4.3469447   -2889.1098   -18750.123   -4149.3666     14232.16    15707.014    24974.006   -37667.109    82.139554 
   81900    1200.9887   -106.86286    1.0866798   -105.77618   -3474.6345    4.3561248    4.3561248    4.3561248   -3474.6345   -36231.743    31895.395   -6087.5554    17047.416   -8543.9775     15083.65    82.661056 
   82000    1591.7061   -107.20872    1.4402091   -105.76851   -15775.827    4.3667763    4.3667763    4.3667763   -15775.827   -20464.213   -13430.215   -13433.054   -5724.4283   -1680.4734   -28784.315      83.2689 
   82100    1198.1701   -106.84819    1.0841295   -105.76407   -4314.6903    4.3611266    4.3611266    4.3611266   -4314.6903   -23618.064    25369.126   -14695.133     14761.69    23554.904   -11400.198    82.946119 
   82200    1269.0172   -106.91058    1.1482334   -105.76235   -12905.276    4.3458823    4.3458823    4.3458823   -12905.276   -45825.439   -4227.2786    11336.889     16280.33   -16082.794   -3768.4445    82.079344 
   82300    1421.0952   -107.06055    1.2858368   -105.77472    12295.095     4.342913     4.342913     4.342913    12295.095    7421.2812   -16599.569    46063.573   -11743.784   -1777.4266   -30595.745    81.911218 
   82400    1941.4309   -107.53959    1.7566475   -105.78294   -5252.6796      4.35988      4.35988      4.35988   -5252.6796   -30149.648   -26757.095    41148.705    30108.049    10860.684     5798.019     82.87501 
   82500    1121.5636    -106.7999    1.0148143   -105.78509   -8962.9323    4.3775215    4.3775215    4.3775215   -8962.9323   -50522.936   -41043.116    64677.255   -9616.7182    -4648.971   -4070.2413    83.885109 
   82600    1657.9546    -107.2614    1.5001522   -105.76125   -43400.621    4.3758006    4.3758006    4.3758006   -43400.621   -38736.866   -54001.028   -37463.969    11155.054    3641.0359   -34036.121    83.786217 
   82700    1784.9982   -107.35397    1.6151039   -105.73887    21235.327    4.3356025    4.3356025    4.3356025    21235.327   -21229.373    9281.8123    75653.541    22845.684    11156.809    23120.028    81.498267 
   82800    1412.6494   -107.03202    1.2781949   -105.75383   -998.02159    4.3472749    4.3472749    4.3472749   -998.02159    8635.2067   -11673.443    44.171793    -21220.64    339.92482   -32531.947    82.158272 
   82900    1413.4232   -107.03057     1.278895   -105.75168   -35432.446    4.3791421    4.3791421    4.3791421   -35432.446   -48802.124   -53898.113   -3597.1009     28387.53    21446.502     7845.407    83.978305 
   83000    1463.5291   -107.06218    1.3242319   -105.73795   -7760.2651    4.3702206    4.3702206    4.3702206   -7760.2651   -52051.121   -9103.2687    37873.594   -21432.043    620.95939   -4424.7378     83.46609 
   83100    1511.9659   -107.10843    1.3680585   -105.74037   -21294.718    4.3556593    4.3556593    4.3556593   -21294.718    -11325.41   -30305.399   -22253.345    16719.648    9961.1209   -21499.313    82.634556 
   83200    1176.9124   -106.81086    1.0648951   -105.74597    17358.845    4.3408064    4.3408064    4.3408064    17358.845   -20312.888   -2606.0586    74995.482   -7964.4069    14787.455    11200.991    81.792077 
   83300    1478.7185    -107.1096    1.3379756   -105.77163   -8009.7377    4.3561328    4.3561328    4.3561328   -8009.7377   -6299.3944    93.618357   -17823.437   -18100.575    3708.8326    -10149.07     82.66151 
   83400    1621.9951   -107.23024    1.4676152   -105.76262   -29945.354    4.3781294    4.3781294    4.3781294   -29945.354   -45803.392   -35016.211   -9016.4599    20045.003    12325.764   -16793.684    83.920062 
   83500    1313.2229   -106.94055    1.1882316   -105.75232   -5871.7424    4.3630102    4.3630102    4.3630102   -5871.7424   -24833.104    7575.8439   -357.96664   -23733.138    12358.901    3823.2039    83.053641 
   83600    1426.4386   -107.03875    1.2906716   -105.74808   -7075.1712    4.3521725    4.3521725    4.3521725   -7075.1712    18041.847   -24752.836   -14514.525    5466.9086   -826.14365   -35065.617    82.436265 
   83700    1732.5034   -107.32195    1.5676055   -105.75434    11231.545     4.352095     4.352095     4.352095    11231.545   -34431.774    56352.447    11773.962    7585.0721    9379.3406    2175.8038    82.431861 
   83800    1033.2238   -106.70858   0.93488264    -105.7737   -9191.9382    4.3657083    4.3657083    4.3657083   -9191.9382   -6000.6459   -15346.839   -6228.3296   -19863.474   -1692.4943   -45223.174    83.207819 
   83900     1596.279   -107.19542    1.4443468   -105.75108      667.013    4.3652411    4.3652411    4.3652411      667.013    10935.966   -1992.9517   -6941.9755     236.7678    11422.734   -843.56353    83.181109 
   84000    1181.9482   -106.82028    1.0694516   -105.75083    13868.058    4.3545446    4.3545446    4.3545446    13868.058    -21303.95    25391.467    37516.656   -7617.9263    3256.5551    -12518.83    82.571133 
   84100    1407.8323   -107.02922    1.2738363   -105.75539   -8086.5957     4.360245     4.360245     4.360245   -8086.5957    26278.718   -35783.171   -14755.334   -11445.589   -8396.4137   -39840.048     82.89583 
   84200    1779.2994   -107.36146    1.6099475   -105.75151    11013.647    4.3543886    4.3543886    4.3543886    11013.647    9645.9127    2973.2901    20421.738    5084.7395    19506.233    29903.118    82.562255 
   84300    993.89053   -106.66999   0.89929303    -105.7707    1900.1255    4.3523306    4.3523306    4.3523306    1900.1255    10082.861   -31569.583    27187.099   -24825.882   -10622.054   -31210.923    82.445247 
   84400    1793.6463   -107.38357    1.6229288   -105.76064   -4439.3067    4.3590916    4.3590916    4.3590916   -4439.3067    20695.718   -36387.878    2374.2405   -10544.904    849.34368   -5464.5766    82.830065 
   84500    1352.5165   -106.98685    1.2237853   -105.76306    6101.3523    4.3620278    4.3620278    4.3620278    6101.3523   -6413.3846   -3169.2888     27886.73    510.38157    13742.756    2823.3194    82.997552 
   84600    1313.0142   -106.95297    1.1880429   -105.76493   -27135.473    4.3658471    4.3658471    4.3658471   -27135.473    8591.4656   -69511.906    -20485.98       -29959   -4787.3425   -39955.792    83.215758 
   84700    1985.5304   -107.54717    1.7965496   -105.75062    7248.2248    4.3479943    4.3479943    4.3479943    7248.2248    14049.601    4777.8099    2917.2633    7490.7955    14882.485     6830.717    82.199071 
   84800    976.08529   -106.65505   0.88318248   -105.77186    5443.5068    4.3579732    4.3579732    4.3579732    5443.5068    24002.579   -22467.741    14795.683     -21109.3    7924.3369   -20897.968    82.766326 
   84900    1503.1706   -107.11115    1.3601004   -105.75105   -33270.949    4.3773773    4.3773773    4.3773773   -33270.949    -31066.11   -52816.614   -15930.122   -3497.4585    5474.4115   -19364.133     83.87682 
   85000    1596.4611   -107.18986    1.4445116   -105.74535    33514.046    4.3395126    4.3395126    4.3395126    33514.046    71273.713    44750.509   -15482.085    10616.143    3997.6272    3052.2131    81.718968 
   85100    1011.2989   -106.68126   0.91504453   -105.76622     12680.05    4.3385098    4.3385098    4.3385098     12680.05    48084.527   -18536.678       8492.3   -21164.339    13526.798    -20393.32    81.662326 
   85200    1488.1476    -107.1158    1.3465072   -105.76929   -9013.5924    4.3657254    4.3657254    4.3657254   -9013.5924    20450.362   -29606.066   -17885.073    21102.801   -11409.089    328.71084    83.208795 
   85300    1588.8523   -107.19574    1.4376269   -105.75811   -4282.7383    4.3687073    4.3687073    4.3687073   -4282.7383   -1536.8275   -5027.0968   -6284.2905   -7159.6498    9041.2872   -21541.288    83.379418 
   85400    1257.3444   -106.89777    1.1376717    -105.7601   -26757.373    4.3619627    4.3619627    4.3619627   -26757.373   -26225.117   -59685.885    5638.8821      865.407    -3857.982   -6250.9412    82.993839 
   85500    1668.8521   -107.26341    1.5100124    -105.7534    1745.3801    4.3418466    4.3418466    4.3418466    1745.3801    8904.1257   -23823.213    20155.227    19620.074   -8511.0885     2154.661    81.850895 
   85600    1338.1771   -106.98019    1.2108107   -105.76938    12645.656    4.3526494    4.3526494    4.3526494    12645.656    59238.833   -34307.394    13005.528   -10856.067    10931.665   -25118.415    82.463365 
   85700    1362.0365   -106.99761    1.2323992   -105.76521   -34053.394    4.3765841    4.3765841    4.3765841   -34053.394   -39219.183   -74995.697    12054.698    13209.639   -12531.722    9015.7583    83.831232 
   85800    1015.9391   -106.67991   0.91924301   -105.76067    2742.6873    4.3566088    4.3566088    4.3566088    2742.6873    100982.45   -56841.349    -35913.04   -4271.7435   -4824.9843   -42888.764    82.688612 
   85900    2008.9777   -107.55867    1.8177652    -105.7409    28213.021    4.3378167    4.3378167    4.3378167    28213.021    48188.072   -11039.493    47490.483     683.3194    1421.2499     8268.515    81.623193 
   86000    875.91458   -106.57525   0.79254592   -105.78271   -20838.301    4.3647869    4.3647869    4.3647869   -20838.301    33534.883   -77618.852   -18430.933    16274.738    8183.5911   -42890.107    83.155146 
   86100    1564.1527   -107.17691    1.4152782   -105.76164   -14270.762    4.3702176    4.3702176    4.3702176   -14270.762    29674.904   -52315.372   -20171.817   -4982.3046   -11756.855   -23242.058     83.46592 
   86200    1766.0086   -107.34708    1.5979217   -105.74916    21204.609    4.3493214    4.3493214    4.3493214    21204.609    40262.424   -3.1682481    23354.572    17480.712    19952.625     14973.74    82.274358 
   86300    875.09834   -106.56043   0.79180737   -105.76862    -7089.289    4.3536735    4.3536735    4.3536735    -7089.289    53513.545   -57222.362    -17559.05    5167.8993    4323.0185   -52002.856    82.521588 
   86400    1709.7641    -107.3075    1.5470305   -105.76047     3171.397    4.3562936    4.3562936    4.3562936     3171.397    4573.6095     17297.29   -12356.708    8181.2278   -2073.8602    26397.891    82.670667 
   86500    1421.5777   -107.05714    1.2862734   -105.77087    19717.771     4.357669     4.357669     4.357669    19717.771    76038.061   -29609.295    12724.546   -2145.0908    19104.239   -15768.863    82.748994 
   86600    1334.5788   -106.98197     1.207555   -105.77442   -5211.9448    4.3590746    4.3590746    4.3590746   -5211.9448   -2037.8629   -17343.105    3745.1334     12530.75   -10144.258    -6981.544     82.82909 
   86700    1416.4755   -107.04783    1.2816568   -105.76618    18720.227    4.3523714    4.3523714    4.3523714    18720.227    7885.2093    21435.567    26839.904    958.26233   -7378.1091    31295.342    82.447565 
   86800    1610.0032   -107.22219    1.4567647   -105.76542   -11065.389    4.3639582    4.3639582    4.3639582   -11065.389    28131.214   -38699.686   -22627.695    10369.589    2834.9552   -23669.249    83.107794 
   86900    876.82495   -106.56301   0.79336964   -105.76964   -7954.5641    4.3632577    4.3632577    4.3632577   -7954.5641   -20841.503    5160.1267   -8182.3161    12810.642   -9975.7606    30292.486     83.06778 
   87000    1707.3574   -107.29772    1.5448528   -105.75287    11451.033    4.3432597    4.3432597    4.3432597    11451.033    19930.656    8571.3953    5851.0474   -17212.588    -7476.255    8951.7364    81.930838 
   87100    1385.4474    -107.0273    1.2535819   -105.77372   -23007.824    4.3578461    4.3578461    4.3578461   -23007.824   -28834.106   -50145.347    9955.9807    37149.806    3956.6465     -9586.19     82.75908 
   87200    1259.5263   -106.90758    1.1396459   -105.76793   -967.80616    4.3642855    4.3642855    4.3642855   -967.80616    -8105.813    20749.698   -15547.304    2714.1616   -8396.2646    30528.365    83.126495 
   87300     1438.038   -107.06462     1.301167   -105.76346    4469.9263    4.3564916    4.3564916    4.3564916    4469.9263   -22619.257   -7393.6727    43422.708   -18444.745    2246.7754   -10078.371    82.681936 
   87400    1356.2882   -106.99174     1.227198   -105.76454   -17906.353    4.3670065    4.3670065    4.3670065   -17906.353   -38502.144   -27464.261    12247.347    51854.255   -1201.4267    3474.9433    83.282073 
   87500    1697.0627   -107.28518     1.535538   -105.74964    22890.469     4.345896     4.345896     4.345896    22890.469   -4360.6546    69144.296    3887.7662   -21631.688   -6642.0845    18635.868    82.080121 
   87600    779.02846   -106.48254   0.70488132   -105.77766    1510.5523    4.3495752    4.3495752    4.3495752    1510.5523   -33901.824   -18636.705    57070.186    29624.422    7976.7037   -11711.683     82.28876 
   87700    1994.6637   -107.56245    1.8048136   -105.75764   -13513.276     4.365628     4.365628     4.365628   -13513.276    -24730.47    1094.9005   -16904.257    21269.157    1062.3158    9632.9881    83.203228 
   87800    1118.5336   -106.77251    1.0120727   -105.76044    33613.166     4.354403     4.354403     4.354403    33613.166    1647.7645    78396.206    20795.529    3552.2783   -5041.2019    3984.2094    82.563073 
   87900    1145.0489   -106.80958    1.0360643   -105.77351    -34931.76    4.3663967    4.3663967    4.3663967    -34931.76    -56070.48   -49537.272    812.47134      23755.9    3134.1235   -8384.2262    83.247185 
   88000    2120.0516   -107.66894    1.9182672   -105.75067    8480.2297    4.3531065    4.3531065    4.3531065    8480.2297    18508.941    27945.025   -21013.277   -4825.0908   -3412.6664    25917.256    82.489352 
   88100    998.59051   -106.67018   0.90354568   -105.76664    5674.9381    4.3459895    4.3459895    4.3459895    5674.9381   -16901.109    75.961325    33849.962    32088.983    1299.7907   -11777.004    82.085421 
   88200    1443.4507    -107.0718    1.3060645   -105.76573   -29515.716    4.3714297    4.3714297    4.3714297   -29515.716   -15072.425   -30649.937   -42824.787   -21883.163    339.23244    13581.917     83.53539 
   88300    1532.8174   -107.14445    1.3869254   -105.75752   -17235.666    4.3628224    4.3628224    4.3628224   -17235.666   -21196.488   -26696.081   -3814.4304     24014.41   -1605.7709    27176.173    83.042918 
   88400    1492.4084   -107.10724    1.3503625   -105.75688   -10660.022    4.3466773    4.3466773    4.3466773   -10660.022   -13781.783   -36553.127    18354.843    15155.885    2335.1696   -16640.747    82.124398 
   88500    1044.5953   -106.71682   0.94517182   -105.77165   -2703.0542    4.3508601    4.3508601    4.3508601   -2703.0542     617.1909   -12405.657    3679.3037    -13824.14    -5210.978    31610.209    82.361712 
   88600    1698.8161   -107.30445    1.5371245   -105.76732    -13808.03    4.3605242    4.3605242    4.3605242    -13808.03   -14206.839   -12684.806   -14532.444    22838.558   -2818.8476    3445.1356    82.911756 
   88700    1127.5331   -106.78495    1.0202156   -105.76474   -10077.983    4.3704632    4.3704632    4.3704632   -10077.983    1836.0145   -36501.602     4431.638   -7902.1471    3209.7929    -9099.593    83.479996 
   88800    1370.4955   -106.99877    1.2400532   -105.75871   -15225.853    4.3557619    4.3557619    4.3557619   -15225.853    13956.958   -18197.952   -41436.564   -4378.1114   -19442.552    39079.868    82.640399 
   88900    1680.6658    -107.2691    1.5207017    -105.7484    24248.973    4.3475157    4.3475157    4.3475157    24248.973    30765.345    12497.941    29483.634   -7611.1813    12143.773   -16560.481    82.171925 
   89000    1037.5825   -106.70538   0.93882649   -105.76656   -29748.994    4.3578376    4.3578376    4.3578376   -29748.994    6153.6001   -48335.828   -47064.753   -10688.135     -11454.9    24042.756    82.758595 
   89100    1557.1337   -107.16901    1.4089273   -105.76008    16904.195    4.3592747    4.3592747    4.3592747    16904.195    37704.739     -3031.39    16039.236   -7277.8989   -5039.0998    26791.391      82.8405 
   89200    1570.5559   -107.19145     1.421072   -105.77038   -12405.261    4.3597438    4.3597438    4.3597438   -12405.261    -18397.56     16422.79   -35241.014   -11305.082    3304.4004   -15363.387    82.867248 
   89300    835.93139   -106.53382   0.75636829   -105.77745    6726.0623    4.3505588    4.3505588    4.3505588    6726.0623     25212.49   -31587.582     26553.28   -13525.058   -9427.6625    43135.648    82.344599 
   89400     2012.264   -107.58026    1.8207388   -105.75952    9291.9055    4.3584556    4.3584556    4.3584556    9291.9055   -14952.644    59497.012   -16668.651    13544.389    5375.8627   -13789.136    82.793814 
   89500    916.00676   -106.59747   0.82882217   -105.76865   -20360.286    4.3656588    4.3656588    4.3656588   -20360.286   -12900.817   -36920.265   -11259.775    -26521.64   -4355.9321     26615.44    83.204987 
   89600    1736.7527   -107.32474    1.5714504   -105.75329    12216.051    4.3430306    4.3430306    4.3430306    12216.051    16373.128    28102.977   -7827.9507    6967.8774    3531.7806    14295.021    81.917872 
   89700    1438.7377    -107.0718    1.3018001      -105.77    18551.213    4.3509549    4.3509549    4.3509549    18551.213   -2466.6807    37838.013    20282.307    17678.259      1373.73   -9351.8258    82.367092 
   89800    1317.2766   -106.96314    1.1918995   -105.77124   -26291.931    4.3699971    4.3699971    4.3699971   -26291.931   -5411.4447   -6824.8346   -66639.512   -19964.471   -2825.1977    32081.483    83.453286 
   89900    1469.3256   -107.08739    1.3294767   -105.75791    30571.007    4.3576011    4.3576011    4.3576011    30571.007   -11282.554    52906.304    50089.271    34557.855    92.431505   -12054.307    82.745126 
   90000    1511.3255    -107.1292    1.3674791   -105.76172    14460.167    4.3528679    4.3528679    4.3528679    14460.167    26431.816      47422.9   -30474.216    31.641541    -528.6196    20582.793    82.475785 
   90100    1101.3756   -106.76426   0.99654782   -105.76772    5805.9318    4.3613186    4.3613186    4.3613186    5805.9318   -14154.796    38327.299   -6754.7077    11013.294    -7947.226    19741.894    82.957078 
   90200     1712.405   -107.30109      1.54942   -105.75167   -7968.2498     4.357983     4.357983     4.357983   -7968.2498   -44438.463    18353.363    2180.3506    39475.002    6782.8862    -3605.832    82.766884 
   90300    1220.2165    -106.8668    1.1040775   -105.76272    11456.213    4.3567139    4.3567139    4.3567139    11456.213    27859.181     44316.01   -37806.552   -7667.9893   -891.93146    24839.249    82.694595 
   90400      1406.57   -107.04305    1.2726941   -105.77036   -18807.316    4.3600153    4.3600153    4.3600153   -18807.316   -23686.534   -43887.538    11152.124    50991.414    912.17635     8616.199    82.882731 
   90500    1295.0103   -106.93932    1.1717526   -105.76757    1141.6555      4.35357      4.35357      4.35357    1141.6555   -11411.689    15330.319    -493.6643   -20006.775   -2131.6053    2184.7278    82.515699 
   90600    1301.1549   -106.94465    1.1773123   -105.76734   -30329.019    4.3679349    4.3679349    4.3679349   -30329.019   -36221.683   -12042.211   -42723.163    13931.878   -15153.041    26741.741    83.335197 
   90700    1581.9385   -107.18511    1.4313712   -105.75374    -2217.284    4.3590847    4.3590847    4.3590847    -2217.284   -9302.5767   -14183.675      16834.4    27125.287    10821.361   -8033.8971    82.829666 
   90800    956.54654   -106.61955   0.86550342   -105.75404    27498.549    4.3458491    4.3458491    4.3458491    27498.549    8471.2112    48397.363    25627.073   -31930.093   -17796.559    20416.566    82.077464 
   90900    2004.7124   -107.56249    1.8139059   -105.74859   -31753.617    4.3701329    4.3701329    4.3701329   -31753.617   -40892.044   -14317.678   -40051.129    21691.009   -4631.8721    3667.6212    83.461066 
   91000     1260.678   -106.89806     1.140688   -105.75738    7172.3687    4.3599299    4.3599299    4.3599299    7172.3687    2641.6818   -9730.0394    28605.464   -16217.335    8001.6664   -505.54254    82.877859 
   91100      949.193   -106.61645   0.85884978    -105.7576    37763.311    4.3455371    4.3455371    4.3455371    37763.311     34258.04    82865.068   -3833.1745   -9409.0081   -20690.561    11299.547    82.059789 
   91200    2327.5799   -107.84691    2.1060432   -105.74087   -21152.704    4.3707339    4.3707339    4.3707339   -21152.704   -38404.545   -1460.5479   -23593.021   -1326.6083    9352.6842   -4354.4272    83.495507 
   91300    1034.2633   -106.69548   0.93582314   -105.75965   -6785.8836     4.355068     4.355068     4.355068   -6785.8836    -20625.27    19678.712   -19411.093   -26980.221   -3189.9411    16477.456     82.60091 
   91400    1522.3641   -107.13077    1.3774671    -105.7533    25062.723    4.3474133    4.3474133    4.3474133    25062.723    47970.934    30100.012   -2882.7781    19565.902   -783.06637    -13710.79    82.166123 
   91500    1418.4245    -107.0418    1.2834203   -105.75838   -23715.514      4.36291      4.36291      4.36291   -23715.514   -47120.113   -12067.841   -11958.589    24538.426    6087.7002    9633.0694     83.04792 
   91600    1282.0335   -106.91782    1.1600109   -105.75781    5244.0849    4.3561674    4.3561674    4.3561674    5244.0849    6378.9777    30536.244   -21182.967     -25032.1   -8203.5456    7892.0708    82.663478 
   91700    1378.8545   -107.00074    1.2476165   -105.75312   -6621.3517      4.36835      4.36835      4.36835   -6621.3517   -24314.358   -4769.8289    9220.1318    46480.503    2520.7117   -1170.9868    83.358956 
   91800    1379.0677   -106.99991    1.2478095    -105.7521   -23089.257    4.3572435    4.3572435    4.3572435   -23089.257   -30675.704   -14416.405   -24175.661   -11403.126    1654.2007    20131.178    82.724753 
   91900    1391.1653   -107.00757    1.2587556   -105.74881     21038.16    4.3513974    4.3513974    4.3513974     21038.16    40693.753    13344.331    9076.3949    16291.248    1574.0089   -2062.9751    82.392226 
   92000     1521.021   -107.13177    1.3762517   -105.75552   -34416.567    4.3632006    4.3632006    4.3632006   -34416.567   -55710.251   -56187.235    8647.7852    44663.697   -5074.8661    18012.009    83.064515 
   92100    1146.2374   -106.78748    1.0371397   -105.75035    39119.136    4.3530621    4.3530621    4.3530621    39119.136    88462.669    48594.818   -19700.079   -23001.151     15430.59    15835.608    82.486825 
   92200    1582.2613   -107.18892    1.4316633   -105.75726   -37862.712    4.3683907    4.3683907    4.3683907   -37862.712   -52724.935   -60310.016   -553.18511    54912.615     3630.449   -3194.4934    83.361287 
   92300    1628.1835   -107.22693    1.4732146   -105.75371    5657.2047    4.3615495    4.3615495    4.3615495    5657.2047    30105.395    12026.761   -25160.541   -7349.9963    4068.9794    29593.034    82.970251 
   92400    1105.5047   -106.75281    1.0002839   -105.75252     29140.65    4.3483202    4.3483202    4.3483202     29140.65    41534.267     29225.58    16662.102    39892.565    13770.456   -5855.3012    82.217553 
   92500    1703.2991    -107.2971    1.5411808   -105.75592   -14017.844    4.3629522    4.3629522    4.3629522   -14017.844   -34158.188   -16419.147    8523.8033    26773.077   -10707.174    10867.214    83.050329 
   92600    1320.7624   -106.94599    1.1950536   -105.75093    35607.071    4.3585814    4.3585814    4.3585814    35607.071    80442.696     41756.12   -15377.604   -7.3278694    617.48673    15708.633    82.800983 
   92700     1149.372   -106.79941    1.0399759   -105.75943   -2972.0455    4.3596648    4.3596648    4.3596648   -2972.0455    -41612.25    7355.3036     25340.81    52645.199    11519.819   -6343.2889    82.862743 
   92800    2094.3242   -107.63425    1.8949885   -105.73926    2786.3171    4.3592464    4.3592464    4.3592464    2786.3171     18609.18     32446.28   -42696.509   -15415.591   -33.457378     3139.758    82.838886 
   92900    699.86456   -106.38624   0.63325216   -105.75299    25264.918    4.3515352    4.3515352    4.3515352    25264.918    27176.582    38708.799    9909.3735    67545.324   -1299.6336    2532.7367    82.400057 
   93000    1987.0743   -107.54703    1.7979466   -105.74908   -30142.874    4.3659188    4.3659188    4.3659188   -30142.874   -29421.351   -22577.915   -38429.357     3740.059    2216.4007   -7446.1826    83.219859 
   93100    1239.9051   -106.87608    1.1218922   -105.75419    19254.288    4.3553838    4.3553838    4.3553838    19254.288    18065.727    47365.016   -7667.8782    31355.559    4915.8299    6366.4624     82.61888 
   93200    1310.3904   -106.94644    1.1856688   -105.76077    4605.9247    4.3520133    4.3520133    4.3520133    4605.9247    23695.122   -20923.357    11046.009    48649.717    2854.0253    5265.3953    82.427218 
   93300    1851.0657   -107.42546    1.6748832   -105.75057    16350.583    4.3585172    4.3585172    4.3585172    16350.583    14681.558    42331.648   -7961.4558   -15449.363    1844.0446    188.02537    82.797325 
   93400    808.90677   -106.50084   0.73191585   -105.76892    1413.6496    4.3604848    4.3604848    4.3604848    1413.6496    21104.976   -39280.422    22416.395    75966.242    268.34004      7554.76    82.909508 
   93500    2075.7929   -107.62269    1.8782211   -105.74447    5116.1748    4.3631239    4.3631239    4.3631239    5116.1748    19473.535     922.6461   -5047.6571   -24006.034     19345.35   -3810.6207    83.060137 
   93600    836.52875   -106.51781   0.75690879    -105.7609    32445.557    4.3505607    4.3505607    4.3505607    32445.557    14392.783    28470.294    54473.593    60923.077    -9204.658    9771.4729    82.344707 
   93700    1934.2745   -107.50443    1.7501722   -105.75425    -8665.038    4.3609484    4.3609484    4.3609484    -8665.038    -17488.25   -10486.592    1979.7281   -2543.9003    12151.678   -4293.9286    82.935954 
   93800    1185.5722   -106.82448    1.0727306   -105.75175    3883.2386     4.362637     4.362637     4.362637    3883.2386   -19909.345    21701.263    9857.7986    29036.222    3880.2968    3476.7724    83.032329 
   93900    1352.9404   -106.96968    1.2241689   -105.74551    15488.723    4.3607657    4.3607657    4.3607657    15488.723    38027.214    5650.9505    2788.0041    43352.191   -5861.2901    -2395.698    82.925531 
   94000    1681.0711   -107.25858    1.5210685   -105.73751    -6260.152    4.3638692    4.3638692    4.3638692    -6260.152   -2404.9958    4245.8217   -20621.282    316.51058     8139.927   -14622.858    83.102711 
   94100    1044.5068   -106.69027   0.94509174   -105.74517    7367.3826    4.3533039    4.3533039    4.3533039    7367.3826   -3768.6865   -5182.6318    31053.466    71015.835    -553.9777    10421.111    82.500571 
   94200    1793.4855   -107.35905    1.6227833   -105.73627    20079.117    4.3557143    4.3557143    4.3557143    20079.117     24235.38    52294.026   -16292.055   -11827.873   -3220.8539   -14033.397     82.63769 
   94300    946.05839   -106.61283   0.85601351   -105.75682   -26379.552    4.3560594    4.3560594    4.3560594   -26379.552   -69393.315   -48133.918    38388.577    69838.122     11328.38    10754.529     82.65733 
   94400    1820.3101   -107.38728    1.6470548   -105.74022    31128.799    4.3532686    4.3532686    4.3532686    31128.799    38558.265    50270.232    4557.8998   -12660.128   -5849.0837   -3711.3711    82.498562 
   94500    1082.5175   -106.73414   0.97948459   -105.75466   -50993.938    4.3672496    4.3672496    4.3672496   -50993.938   -101058.09   -42989.287   -8934.4374     58277.95   -8747.5655    4953.6254    83.295979 
   94600    1331.4183   -106.95173    1.2046953   -105.74704    13617.568    4.3523277    4.3523277    4.3523277    13617.568   -561.23935    27132.186    14281.759    26815.948    10592.994   -1423.5857    82.445082 
   94700    1648.1767   -107.23365    1.4913049   -105.74235   -16198.229    4.3543283    4.3543283    4.3543283   -16198.229   -48481.872    27518.161   -27630.977    16921.516     -18840.7    638.19781    82.558829 
   94800    719.40721   -106.40905   0.65093476   -105.75811    -28445.36     4.360992     4.360992     4.360992    -28445.36   -73671.811   -7386.8353   -4277.4347    67651.209    7312.1495    1112.6704    82.938444 
   94900    2286.8907   -107.80826    2.0692268   -105.73904   -1850.6785     4.355859     4.355859     4.355859   -1850.6785    316.23197    11191.071   -17059.338   -22834.551   -12349.314    2438.1888    82.645927 
   95000    508.87392   -106.22957   0.46043981   -105.76913   -24349.759    4.3648405    4.3648405    4.3648405   -24349.759   -59751.976   -36390.534    23093.232    76113.628   -13744.461   -7988.8162     83.15821 
   95100    1819.3735   -107.38979    1.6462074   -105.74358    19356.529    4.3571011    4.3571011    4.3571011    19356.529    5152.0499    55208.822   -2291.2841   -22238.256    1843.8243   -2493.2831    82.716646 
   95200    816.29686   -106.49509   0.73860256   -105.75649   -1133.5661    4.3639291    4.3639291    4.3639291   -1133.5661    -31036.75     1101.836    26534.216    51156.671   -16200.718   -4668.5175    83.106129 
   95300    1618.7732   -107.20825       1.4647   -105.74355   -18722.398    4.3658033    4.3658033    4.3658033   -18722.398   -55732.424    17575.859   -18010.628    27048.888    2848.5382    2691.1216    83.213254 
   95400    1486.0476   -107.07677    1.3446071   -105.73217    10078.443    4.3636671    4.3636671    4.3636671    10078.443    10856.089    13027.615    6351.6258    32613.214    2051.0379   -4771.4567     83.09116 
   95500     1035.321   -106.67484   0.93678018   -105.73806   -26112.511    4.3723085    4.3723085    4.3723085   -26112.511   -40269.294   -48802.778    10734.539    43183.128   -20028.398    1140.5089    83.585779 
   95600     1672.085   -107.22715    1.5129376   -105.71421    39143.985    4.3527846    4.3527846    4.3527846    39143.985    63859.049    25491.127    28081.781    8476.2592   -2505.1284    18655.464    82.471052 
   95700    895.08887    -106.5583   0.80989522   -105.74841    1339.3686    4.3579678    4.3579678    4.3579678    1339.3686   -41125.665   -2741.8945    47885.665    65019.294   -4070.1327   -8499.8678    82.766013 
   95800    2217.7916   -107.72993    2.0067044   -105.72322   -15640.136    4.3680286    4.3680286    4.3680286   -15640.136   -5697.9964    -5425.573    -35796.84   -26463.765   -22957.808    12685.493    83.340563 
   95900    807.30038   -106.47269   0.73046235   -105.74223    11620.444    4.3536532    4.3536532    4.3536532    11620.444   -26755.908   -7342.2185    68959.459    74992.803    14538.706    5806.6236    82.520432 
   96000    2044.7803   -107.57825    1.8501602   -105.72809    2230.9492    4.3566768    4.3566768    4.3566768    2230.9492   -1509.0744    30641.337   -22439.415    -27386.96   -24559.046   -2358.7938    82.692481 
   96100    760.68497   -106.43889   0.68828375   -105.75061   -15396.197     4.366293     4.366293     4.366293   -15396.197   -17538.613   -57456.927    28806.949     58829.99   -2788.3264   -4878.0996    83.241255 
   96200     1876.989   -107.43635    1.6983391   -105.73801    12547.275    4.3568711    4.3568711    4.3568711    12547.275    34050.957    -16584.32    20175.189    10284.381   -11131.958    1595.1276    82.703549 
   96300    1304.6454   -106.92872    1.1804706   -105.74825   -9978.0761    4.3628091    4.3628091    4.3628091   -9978.0761   -18750.115    -40765.98    29581.868      38487.3   -12380.922    66.998845    83.042156 
   96400    1404.8681    -107.0067    1.2711542   -105.73555   -25038.417    4.3613069    4.3613069    4.3613069   -25038.417   -12071.544   -62672.292     -371.417    56914.017    2254.2893   -5155.8257    82.956411 
   96500    1886.0851   -107.43477    1.7065694    -105.7282    15470.725     4.345398     4.345398     4.345398    15470.725   -1900.2647    18577.793    29734.645   -4226.3652    1601.8672    1268.5731    82.051908 
   96600    965.53526   -106.63344   0.87363659    -105.7598    1483.0015    4.3574117    4.3574117    4.3574117    1483.0015   -21612.049   -44894.345    70955.399    60035.717   -15442.677    6002.1686    82.734336 
   96700    1796.6485   -107.36663    1.6256453   -105.74099   -9218.4791    4.3716533    4.3716533    4.3716533   -9218.4791   -4610.8621    12074.374   -35118.949   -21980.961    26059.685    7420.0612     83.54821 
   96800    866.39152   -106.53138   0.78392926   -105.74745    1262.4345    4.3584794    4.3584794    4.3584794    1262.4345    968.88111   -3608.2368    6426.6593     36080.55    11169.018   -1299.8508     82.79517 
   96900    1488.7725   -107.08392    1.3470727   -105.73685    20081.585    4.3519352    4.3519352    4.3519352    20081.585    14038.222    36699.472    9507.0611     5320.161   -9055.8954    3572.7947    82.422783 
   97000    1414.0436   -107.02565    1.2794564   -105.74619   -30241.292    4.3647222    4.3647222    4.3647222   -30241.292   -57087.848    13874.718   -47510.747    11489.365    32049.311    1302.9758    83.151451 
   97100    1130.6824   -106.77405    1.0230652   -105.75098   -2112.9464    4.3578393    4.3578393    4.3578393   -2112.9464    14214.969   -42744.268     22190.46     50915.36    -14875.23    5627.5176    82.758693 
   97200     1884.943   -107.44592     1.705536   -105.74038   -3048.2747    4.3540207    4.3540207    4.3540207   -3048.2747    5389.5479    15380.755   -29915.127   -7992.0618     30356.04   -8906.8051    82.541328 
   97300    920.66362   -106.58902   0.83303579   -105.75598     10662.53    4.3550722    4.3550722    4.3550722     10662.53    30607.431   -6512.0172    7892.1768    56496.744    8111.0363    5813.1023    82.601145 
   97400    2002.7875   -107.55494    1.8121642   -105.74278   -10752.347     4.360721     4.360721     4.360721   -10752.347   -16903.897    2212.4183   -17565.562   -3567.6948     4898.511    1082.8455    82.922979 
   97500    1187.2101   -106.82601    1.0742126    -105.7518   -34313.054    4.3657753    4.3657753    4.3657753   -34313.054   -49228.847   -35827.053   -17883.262    42243.789     33190.31    4585.0774    83.211652 
   97600     1680.422   -107.26464    1.5204812   -105.74416   -1450.3996    4.3509459    4.3509459    4.3509459   -1450.3996    14084.805   -6128.7636    -12307.24    27439.446   -5738.7849    7211.5842    82.366586 
   97700    1598.9558   -107.19401    1.4467688   -105.74725   -15411.355    4.3620284    4.3620284    4.3620284   -15411.355   -16578.072   -8893.5921   -20762.402   -4476.4694    12311.578    4369.9221    82.997587 
   97800     914.6407   -106.57148   0.82758613   -105.74389   -12992.337    4.3621324    4.3621324    4.3621324   -12992.337      -6071.6   -50156.637    17251.225    56816.079     11396.81    5281.1557    83.003523 
   97900    2248.4627   -107.76521    2.0344563   -105.73075     -7115.66    4.3574098    4.3574098    4.3574098     -7115.66   -4434.8414    -7031.583   -9880.5555   -26832.831   -14522.154      9495.26     82.73423 
   98000    807.10651   -106.48678   0.73028693   -105.75649   -35921.604    4.3625684    4.3625684    4.3625684   -35921.604   -50336.489    -46336.25   -11092.073    66506.399    15583.264    -2626.905    83.028416 
   98100    2104.4937   -107.64381    1.9041901   -105.73962    580.64072    4.3501632    4.3501632    4.3501632    580.64072    3077.8984   -723.08109   -612.89515   -12740.985    400.82677    8264.7577    82.322142 
   98200    1194.6738   -106.83447     1.080966    -105.7535   -28122.752    4.3634682    4.3634682    4.3634682   -28122.752   -36625.615   -40357.962   -7384.6776    46899.007   -2146.7585     594.4219    83.079798 
   98300    1447.5368   -107.04841    1.3097617   -105.73865   -20499.959     4.372009     4.372009     4.372009   -20499.959   -28333.557   -9805.7438   -23360.577    8368.7083    17891.953    -752.2324    83.568602 
   98400    1584.1463   -107.16238    1.4333688   -105.72901   -4518.3216    4.3544086    4.3544086    4.3544086   -4518.3216    7558.1416   -21180.379    67.272411    11436.477   -10577.974    2836.0149    82.563396 
   98500    1466.0126   -107.06248     1.326479     -105.736   -12458.316    4.3518766    4.3518766    4.3518766   -12458.316   -49790.894   -23508.721    35924.669    41432.776   -5122.9785   -2069.5682     82.41945 
   98600    1323.1255    -106.9409    1.1971918   -105.74371   -9934.9244    4.3568861    4.3568861    4.3568861   -9934.9244   -20928.279    11810.306     -20686.8   -30735.709    12953.227    1427.9869    82.704399 
   98700     1498.393   -107.10626    1.3557775   -105.75049    8171.6185    4.3578222    4.3578222    4.3578222    8171.6185   -17923.623   -17049.863    59488.342    36438.637    -6457.518    13937.878    82.757719 
   98800    1464.0694   -107.07786    1.3247208   -105.75314   -11047.306    4.3602419    4.3602419    4.3602419   -11047.306   -18207.789   -7585.2127   -7348.9164   -24950.151    9766.8458   -2251.4659    82.895651 
   98900    1239.0676   -106.87395    1.1211344   -105.75282    13888.728    4.3489491    4.3489491    4.3489491    13888.728    8781.9722    -15892.75    48776.962   -8304.3917    16094.475   -3724.8043     82.25323 
   99000    1431.8349   -107.04334    1.2955543   -105.74779     18426.74    4.3604327    4.3604327    4.3604327     18426.74    18817.373    1705.4674    34757.379    4461.6667    14026.342    2978.7182    82.906533 
   99100     764.0509   -106.45355   0.69132931   -105.76222   -32028.763    4.3661906    4.3661906    4.3661906   -32028.763   -33263.837   -24016.785   -38805.667   -35359.015    25637.219    28.802049      83.2354 
   99200    1987.8675   -107.53416    1.7986643    -105.7355    37445.938    4.3474652    4.3474652    4.3474652    37445.938    52508.978      44.4702    59784.364      7643.44   -669.00511    5385.2809    82.169062 
   99300    876.58182    -106.5567   0.79314965   -105.76355   -2801.2666    4.3522242    4.3522242    4.3522242   -2801.2666   -6698.6521   -21297.069    19591.922   -33642.223    43316.329    5070.2228      82.4392 
   99400    1459.0617   -107.06894    1.3201897   -105.74875    3915.9252    4.3667303    4.3667303    4.3667303    3915.9252    22597.565    -17566.17    6716.3802   -19096.379   -12795.853    4189.0929     83.26627 
   99500    1706.1865   -107.28374    1.5437934   -105.73994    3318.2731    4.3579056    4.3579056    4.3579056    3318.2731   -7062.6707    3497.8942    13519.596    11689.213    24162.216    7930.5203    82.762471 
   99600    936.10552   -106.60522   0.84700795   -105.75821    1823.2126    4.3538532    4.3538532    4.3538532    1823.2126   -16580.469    36970.041   -14919.933   -27711.376    14884.175    6881.2128    82.531807 
   99700     1857.215   -107.42449    1.6804472   -105.74404    848.68076    4.3575224    4.3575224    4.3575224    848.68076   -19588.706    27215.725   -5080.9768    17493.913   -3394.0538    5838.5376    82.740641 
   99800    725.48919   -106.42352   0.65643786   -105.76708    620.34692    4.3516053    4.3516053    4.3516053    620.34692   -17208.023    22901.377   -3832.3136    9498.5565    35224.613   -2016.2348    82.404036 
   99900    2091.4074   -107.64955    1.8923494    -105.7572    -21978.04    4.3579758    4.3579758    4.3579758    -21978.04   -29036.097   -13593.394   -23304.628   -30774.596   -7884.4951    5704.7136    82.766469 
  100000    1263.5493   -106.90262     1.143286   -105.75933    -19523.06    4.3559412    4.3559412    4.3559412    -19523.06   -26685.988    1698.8671   -33582.059    45526.656    26835.802    5516.3601    82.650605 
Loop time of 21.4218 on 1 procs for 100000 steps with 8 atoms

Pair  time (%) = 6.55755 (30.6116)
Kspce time (%) = 5.24413 (24.4803)
Neigh time (%) = 0.109937 (0.513201)
Comm  time (%) = 0.974497 (4.54909)
Outpt time (%) = 0.0227132 (0.106028)
Other time (%) = 8.51298 (39.7398)

Nlocal:    8 ave 8 max 8 min
Histogram: 1 0 0 0 0 0 0 0 0 0
Nghost:    1864 ave 1864 max 1864 min
Histogram: 1 0 0 0 0 0 0 0 0 0
Neighs:    2136 ave 2136 max 2136 min
Histogram: 1 0 0 0 0 0 0 0 0 0

Total # of neighbors = 2136
Ave neighs/atom = 267
Neighbor list builds = 1363
Dangerous builds = 0
unfix 20
unfix 21
print "seeds:8590425"
seeds:8590425
