LAMMPS (16 Mar 2018)
# ---- initialize simulations
clear
units metal
dimension 3
boundary p p p
atom_style charge
atom_modify map array
# ---- create atoms
read_data /home/manuelesp/repos/pypospack/dev/MgO_iterative_conditioner/MgO_condition_by_a0/rank_0/MgO_NaCl.lmps_min_all/lammps.structure
  triclinic box = (0 0 0) to (4.2565 4.2565 4.2565) with tilt (0 0 0)
  1 by 1 by 1 MPI processor grid
  reading atoms ...
  8 atoms
# ---- define interatomic potential
include potential.mod
mass 1 24.305
mass 2 15.999

group Mg type 1
4 atoms in group Mg
group O type 2
4 atoms in group O

set group Mg charge 2.0306397248688364
  4 settings made for charge
set group O charge -2.0306397248688364
  4 settings made for charge

variable R_cut equal 10.0

pair_style buck/coul/long ${R_cut}
pair_style buck/coul/long 10
pair_coeff 1 1 0.0 0.5 0.0 ${R_cut}
pair_coeff 1 1 0.0 0.5 0.0 10
pair_coeff 1 2 984.9627421449446 0.2926162890476923 0.0 ${R_cut}
pair_coeff 1 2 984.9627421449446 0.2926162890476923 0.0 10
pair_coeff 2 2 9364.731711034323 0.11177352626295374 67.67542120127403 ${R_cut}
pair_coeff 2 2 9364.731711034323 0.11177352626295374 67.67542120127403 10

kspace_style pppm 1.0e-5

neighbor 1.0 bin
neigh_modify every 1 delay 0 check yes
# ---- define settings
compute eng all pe/atom
compute eatoms all reduce sum c_eng
# ---- run minimization
reset_timestep 0
fix 1 all box/relax aniso 0.0 vmax 0.001
thermo 10
thermo_style custom step pe xhi xlo yhi ylo zhi xy xz yz press pxx pyy pzz pxy pxz pyz c_eatoms
min_style cg
minimize 1e-25 1e-25 5000 10000
PPPM initialization ...
  using 12-bit tables for long-range coulomb (../kspace.cpp:321)
  G vector (1/distance) = 0.35498
  grid = 8 8 8
  stencil order = 5
  estimated absolute RMS force accuracy = 5.48654e-05
  estimated relative force accuracy = 3.81019e-06
  using double precision FFTs
  3d grid and FFT values/proc = 3375 512
Neighbor list info ...
  update every 1 steps, delay 0 steps, check yes
  max neighbors/atom: 2000, page size: 100000
  master list distance cutoff = 11
  ghost atom cutoff = 11
  binsize = 5.5, bins = 1 1 1
  1 neighbor lists, perpetual/occasional/extra = 1 0 0
  (1) pair buck/coul/long, perpetual
      attributes: half, newton on
      pair build: half/bin/newton/tri
      stencil: half/bin/3d/newton/tri
      bin: standard
Per MPI rank memory allocation (min/avg/max) = 4.909 | 4.909 | 4.909 Mbytes
Step PotEng Xhi Xlo Yhi Ylo Zhi Xy Xz Yz Press Pxx Pyy Pzz Pxy Pxz Pyz c_eatoms 
       0   -181.10938       4.2565            0       4.2565            0       4.2565            0            0            0   -622339.27   -622339.27   -622339.27   -622339.27 -3.5259162e-10 -1.1668899e-10 -2.8062713e-10   -181.10938 
      10   -181.98793    4.2352175    0.0212825    4.2352175    0.0212825    4.2352175            0            0            0    -605967.5    -605967.5    -605967.5    -605967.5 6.1845436e-11 8.299509e-11 -3.6413829e-10   -181.98793 
      20   -182.82291     4.213935     0.042565     4.213935     0.042565     4.213935            0            0            0   -585263.59   -585263.59   -585263.59   -585263.59 -1.3490211e-10 -1.216091e-10 7.4787799e-11   -182.82291 
      30   -183.60941    4.1926525    0.0638475    4.1926525    0.0638475    4.1926525            0            0            0   -559669.05   -559669.05   -559669.05   -559669.05 -2.5047986e-10 -4.4829916e-10 3.0533053e-11   -183.60941 
      40    -184.3418      4.17137      0.08513      4.17137      0.08513      4.17137            0            0            0   -528558.03   -528558.03   -528558.03   -528558.03 -4.3513924e-11 -1.7729568e-10 -2.5885985e-10    -184.3418 
      50   -185.01721    4.1500875    0.1064125    4.1500875    0.1064125    4.1500875            0            0            0   -491320.07   -491320.07   -491320.07   -491320.07 -2.9178384e-10 3.6623331e-10 -2.0385729e-10   -185.01721 
      60   -185.62317     4.128805     0.127695     4.128805     0.127695     4.128805            0            0            0   -446993.57   -446993.57   -446993.57   -446993.57 -1.4625099e-10 -9.361624e-11 -1.1604044e-09   -185.62317 
      70   -186.15605    4.1075225    0.1489775    4.1075225    0.1489775    4.1075225            0            0            0   -394912.58   -394912.58   -394912.58   -394912.58 -1.2163809e-09 -6.1873132e-10 -9.0790499e-10   -186.15605 
      80   -186.61631      4.08624      0.17026      4.08624      0.17026      4.08624            0            0            0   -334219.67   -334219.67   -334219.67   -334219.67 -1.1039303e-09 2.9232343e-09 2.5949103e-09   -186.61631 
      90   -186.97869    4.0649575    0.1915425    4.0649575    0.1915425    4.0649575            0            0            0   -263286.87   -263286.87   -263286.87   -263286.87 3.4010551e-10 -1.0692509e-09 -1.799125e-09   -186.97869 
     100   -187.24327     4.043675     0.212825     4.043675     0.212825     4.043675            0            0            0   -181330.88   -181330.88   -181330.88   -181330.88 3.0610837e-10 7.5300276e-10 6.7749755e-10   -187.24327 
     110   -187.39986    4.0223925    0.2341075    4.0223925    0.2341075    4.0223925            0            0            0   -86814.976   -86814.976   -86814.976   -86814.976 1.8815591e-09 2.1640043e-09 1.6152273e-09   -187.39986 
     120   -187.44068    4.0051297   0.25137027    4.0051297   0.25137027    4.0051297            0            0            0    50.601683    50.601683    50.601683    50.601683 1.2743064e-09 4.2826739e-11 5.042135e-10   -187.44068 
     124   -187.44069    4.0051393   0.25136075    4.0051393   0.25136075    4.0051393            0            0            0  -0.21265437  -0.21265435  -0.21265433  -0.21265444 4.3509287e-09 -2.0271157e-09 -2.3649681e-09   -187.44069 
Loop time of 0.0842681 on 1 procs for 124 steps with 8 atoms

99.4% CPU use with 1 MPI tasks x no OpenMP threads

Minimization stats:
  Stopping criterion = linesearch alpha is zero
  Energy initial, next-to-last, final = 
        -181.109376672     -187.440687409     -187.440687409
  Force two-norm initial, final = 51.8842 0.000244462
  Force max component initial, final = 29.9554 6.92494e-05
  Final line search alpha, max atom move = 0.125 8.65618e-06
  Iterations, force evaluations = 124 139

MPI task timing breakdown:
Section |  min time  |  avg time  |  max time  |%varavg| %total
---------------------------------------------------------------
Pair    | 0.025884   | 0.025884   | 0.025884   |   0.0 | 30.72
Kspace  | 0.019326   | 0.019326   | 0.019326   |   0.0 | 22.93
Neigh   | 0.00011206 | 0.00011206 | 0.00011206 |   0.0 |  0.13
Comm    | 0.0016685  | 0.0016685  | 0.0016685  |   0.0 |  1.98
Output  | 0.00021887 | 0.00021887 | 0.00021887 |   0.0 |  0.26
Modify  | 0          | 0          | 0          |   0.0 |  0.00
Other   |            | 0.03706    |            |       | 43.98

Nlocal:    8 ave 8 max 8 min
Histogram: 1 0 0 0 0 0 0 0 0 0
Nghost:    2189 ave 2189 max 2189 min
Histogram: 1 0 0 0 0 0 0 0 0 0
Neighs:    2952 ave 2952 max 2952 min
Histogram: 1 0 0 0 0 0 0 0 0 0

Total # of neighbors = 2952
Ave neighs/atom = 369
Neighbor list builds = 1
Dangerous builds = 0
# ---- define output variables ----
variable natoms equal "count(all)"
variable tot_energy equal "c_eatoms"
variable a11 equal "xhi-xlo"
variable a22 equal "yhi-ylo"
variable a33 equal "zhi-zlo"
variable tilt_xy equal "xy"
variable tilt_xz equal "xz"
variable tilt_yz equal "yz"
variable tot_press equal "press"
variable press_xx equal "pxx"
variable press_yy equal "pyy"
variable press_zz equal "pzz"
variable press_xy equal "pxy"
variable press_xz equal "pxz"
variable press_yz equal "pyz"

# ---- output ----
print "pypospack:output_section:begin"
pypospack:output_section:begin
print "tot_energy = ${tot_energy}"
tot_energy = -187.440687408946
print "num_atoms = ${natoms}"
num_atoms = 8
print "a11 = ${a11}"
a11 = 3.75377850957345
print "a22 = ${a22}"
a22 = 3.75377850957345
print "a33 = ${a33}"
a33 = 3.75377850957349
print "a12 = ${tilt_xy}"
a12 = 0
print "a13 = ${tilt_xz}"
a13 = 0
print "a23 = ${tilt_yz}"
a23 = 0
print "tot_press = ${tot_press}"
tot_press = -0.212654373553297
print "pxx = ${press_xx}"
pxx = -0.212654352381089
print "pyy = ${press_yy}"
pyy = -0.212654330703189
print "pzz = ${press_zz}"
pzz = -0.212654437575615
print "pxy = ${press_xy}"
pxy = 4.35092873135767e-09
print "pxz = ${press_xz}"
pxz = -2.02711566564685e-09
print "pyz = ${press_yz}"
pyz = -2.36496805143579e-09
print "pypospack:output_section:done"
pypospack:output_section:done
print "pypospack:lammps_sim:done"
pypospack:lammps_sim:done
Total wall time: 0:00:00
