LAMMPS (10 Feb 2015)
# ---- initialize simulations
clear
units metal
dimension 3
boundary p p p
atom_style charge
atom_modify map array
# ---- create atoms
read_data /Users/eugeneragasa/pyflamestk_git/pypospack/tests/tests_integration/workflow/WorkflowLammpsThermalExpansion/param_6993/MgO_NaCl_unit.npt.T1200/lammps.structure
  triclinic box = (0 0 0) to (4.2565 4.2565 4.2565) with tilt (0 0 0)
  1 by 1 by 1 MPI processor grid
  reading atoms ...
  8 atoms
# ---- define interatomic potential
include potential.mod
mass 1 24.305
mass 2 15.999

group Mg type 1
4 atoms in group Mg
group O type 2
4 atoms in group O

set group Mg charge 1.61814101446
  4 settings made for charge
set group O charge -1.61814101446
  4 settings made for charge

variable R_cut equal 10.0

pair_style buck/coul/long ${R_cut}
pair_style buck/coul/long 10
pair_coeff 1 1 0.0 0.5 0.0 ${R_cut}
pair_coeff 1 1 0.0 0.5 0.0 10
pair_coeff 1 2 1169.10574889 0.285525631363 0.0 ${R_cut}
pair_coeff 1 2 1169.10574889 0.285525631363 0.0 10
pair_coeff 2 2 5328.19415446 0.197938803692 16.6059399876 ${R_cut}
pair_coeff 2 2 5328.19415446 0.197938803692 16.6059399876 10

kspace_style pppm 1.0e-5

neighbor 1.0 bin
neigh_modify every 1 delay 0 check yes
# ---- define settings
compute eng all pe/atom
compute eatoms all reduce sum c_eng
# ---- run minimization
reset_timestep 0
fix 1 all box/relax iso 0.0 vmax 0.001
thermo 10
thermo_style custom step pe lx ly lz xy xz yz press pxx pyy pzz pxy pxz pyz c_eatoms
min_style cg
minimize 1e-25 1e-25 5000 10000
PPPM initialization ...
  G vector (1/distance) = 0.352506
  grid = 8 8 8
  stencil order = 5
  estimated absolute RMS force accuracy = 3.81426e-05
  estimated relative force accuracy = 2.64886e-06
  using double precision FFTs
  3d grid and FFT values/proc = 3375 512
Neighbor list info ...
  1 neighbor list requests
  update every 1 steps, delay 0 steps, check yes
  master list distance cutoff = 11
Memory usage per processor = 4.06549 Mbytes
Step PotEng Lx Ly Lz Xy Xz Yz Press Pxx Pyy Pzz Pxy Pxz Pyz eatoms 
       0   -108.09373       4.2565       4.2565       4.2565            0            0            0    -32837.55    -32837.55    -32837.55    -32837.55 6.8800808e-12 1.9793426e-10 1.5308399e-10   -108.09373 
       9   -108.11055     4.226584     4.226584     4.226584            0            0            0    13.792758    13.792758    13.792758    13.792758 -4.4920118e-11 -8.154534e-11 2.0970287e-11   -108.11055 
Loop time of 0.0097301 on 1 procs for 9 steps with 8 atoms

Minimization stats:
  Stopping criterion = linesearch alpha is zero
  Energy initial, next-to-last, final = 
         -108.09372829     -108.110551709     -108.110551709
  Force two-norm initial, final = 4.74176 0.0024943
  Force max component initial, final = 4.74176 0.00196378
  Final line search alpha, max atom move = 0.00390625 7.67103e-06
  Iterations, force evaluations = 9 28

Pair  time (%) = 0.00271702 (27.9238)
Kspce time (%) = 0.00156403 (16.0741)
Neigh time (%) = 0 (0)
Comm  time (%) = 0.000289917 (2.97959)
Outpt time (%) = 0 (0)
Other time (%) = 0.00515914 (53.0225)

Nlocal:    8 ave 8 max 8 min
Histogram: 1 0 0 0 0 0 0 0 0 0
Nghost:    2189 ave 2189 max 2189 min
Histogram: 1 0 0 0 0 0 0 0 0 0
Neighs:    2344 ave 2344 max 2344 min
Histogram: 1 0 0 0 0 0 0 0 0 0

Total # of neighbors = 2344
Ave neighs/atom = 293
Neighbor list builds = 0
Dangerous builds = 0
unfix 1
# ---- define output variables ----
variable natoms equal "count(all)"
variable tot_energy equal "c_eatoms"
variable length_x equal "lx"
variable length_y equal "ly"
variable length_z equal "lz"
variable tilt_xy equal "xy"
variable tilt_xz equal "xz"
variable tilt_yz equal "yz"
variable tot_press equal "press"
variable press_xx equal "pxx"
variable press_yy equal "pyy"
variable press_zz equal "pzz"
variable press_xy equal "pxy"
variable press_xz equal "pxz"
variable press_yz equal "pyz"

# ---- output ----
print "pypospack:output_section:begin"
pypospack:output_section:begin
print "tot_energy = ${tot_energy}"
tot_energy = -108.110551708828
print "num_atoms = ${natoms}"
num_atoms = 8
print "xx = ${length_x}"
xx = 4.22658398474032
print "yy = ${length_y}"
yy = 4.22658398474032
print "zz = ${length_z}"
zz = 4.22658398474032
print "xy = ${tilt_xy}"
xy = 0
print "xz = ${tilt_xz}"
xz = 0
print "yz = ${tilt_yz}"
yz = 0
print "tot_press = ${tot_press}"
tot_press = 13.7927584127517
print "pxx = ${press_xx}"
pxx = 13.7927584125475
print "pyy = ${press_yy}"
pyy = 13.7927584121258
print "pzz = ${press_zz}"
pzz = 13.7927584135819
print "pxy = ${press_xy}"
pxy = -4.49201179574407e-11
print "pxz = ${press_xz}"
pxz = -8.15453399591787e-11
print "pyz = ${press_yz}"
pyz = 2.09702873442201e-11
print "pypospack:output_section:done"
pypospack:output_section:done
print "pypospack:lammps_sim:done"
pypospack:lammps_sim:done
#------------------------------------------------------------------------------
# RUN THERMOSTAT
# running using an NPT Nose-Hoover style thermostat
#------------------------------------------------------------------------------
variable tempdamp equal 0.1
variable pressdamp equal 1.0
# set initial velocities
velocity all create 1200 8676308 mom yes dist gaussian loop all
# fix for Nose-Hoover style thermostat
fix 20 all npt temp 1200 1200 0.1 aniso 0.0 0.0 1.0 drag 1.0 couple xyz
variable boxx equal lx
variable boxy equal ly
variable boxz equal lz
variable boxp equal press
variable boxt equal temp
# calculate averages every 10000 steps
reset_timestep 0
fix 21 all ave/time 10 10 100 v_boxx v_boxy v_boxz v_boxp v_boxt file lattice.out
thermo_style custom step temp pe ke etotal press lx ly lz press pxx pyy pzz pxy pxz pyz vol
thermo_modify flush yes
thermo 100
run 100000
PPPM initialization ...
  G vector (1/distance) = 0.352801
  grid = 8 8 8
  stencil order = 5
  estimated absolute RMS force accuracy = 3.76353e-05
  estimated relative force accuracy = 2.61363e-06
  using double precision FFTs
  3d grid and FFT values/proc = 3375 512
Memory usage per processor = 3.06549 Mbytes
Step Temp PotEng KinEng TotEng Press Lx Ly Lz Press Pxx Pyy Pzz Pxy Pxz Pyz Volume 
       0         1200   -108.11055    1.0857852   -107.02476    15374.239     4.226584     4.226584     4.226584    15374.239    17762.691    14007.812    14352.214   -3791.8468    1217.7025    1684.2762    75.503748 
     100    448.19998   -107.28615   0.40554076   -106.88061   -10313.456      4.24482      4.24482      4.24482   -10313.456   -2990.5718   -29960.354    2010.5587    25128.186    1872.3669    10891.158    76.485275 
     200    522.81298   -107.05441   0.47305217   -106.58135   -16883.188    4.2532791    4.2532791    4.2532791   -16883.188   -2161.8287     -43850.3   -4637.4368    16851.756    4199.3947    9177.0783    76.943448 
     300    1517.3058   -107.69491    1.3728902   -106.32202    3121.4478    4.2506199    4.2506199    4.2506199    3121.4478    17360.899   -2237.1533   -5759.4027   -12704.081    778.24341   -8548.8339    76.799223 
     400    623.59025   -106.69715   0.56423756   -106.13292   -29565.647    4.2624271    4.2624271    4.2624271   -29565.647   -15445.437   -66014.832   -7236.6719    48171.442    4993.6192    15637.097     77.44099 
     500    825.42309   -106.73808   0.74686016   -105.99122    1360.7809    4.2501385    4.2501385    4.2501385    1360.7809    15787.986   -23019.454    11313.811    5197.5927    3421.5332    24295.631    76.773131 
     600    1679.6372   -107.44061     1.519771   -105.92084    17423.356    4.2500255    4.2500255    4.2500255    17423.356    12496.363    2081.5312    37692.173   -14938.073   -8439.1278   -22284.746    76.767007 
     700    1067.1231   -106.87399   0.96555543   -105.90844   -25949.388    4.2728822    4.2728822    4.2728822   -25949.388   -37675.284   -61421.259    21248.378    44575.409   -98.886166    11785.672    78.012242 
     800     1099.779   -106.89441   0.99510317   -105.89931   -1733.3491     4.264397     4.264397     4.264397   -1733.3491    11890.285   -28954.143    11863.811   -8334.4677     7486.919    12433.442    77.548408 
     900    1263.6001   -107.03967    1.1433319   -105.89634    17149.882    4.2539872    4.2539872    4.2539872    17149.882    13945.532    12917.112        24587    7450.7817   -10939.803   -12064.003    76.981884 
    1000    861.62327   -106.69164   0.77961484   -105.91203    -444.7513    4.2594848    4.2594848    4.2594848    -444.7513    13062.937   -17681.951    3284.7604    34220.666   -2603.2227    15622.142     77.28073 
    1100    1228.2018   -107.02508    1.1113028   -105.91378   -5645.5145    4.2612552    4.2612552    4.2612552   -5645.5145    4673.6936   -4884.4288   -16725.808   -12494.436    17435.534    12705.907    77.377132 
    1200    1328.1163   -107.11504    1.2017076   -105.91334    3135.9292    4.2624493    4.2624493    4.2624493    3135.9292   -13464.216   -1959.3334    24831.337    2878.0891   -14847.241   -2843.9943    77.442199 
    1300    896.52628   -106.73009   0.81119582   -105.91889   -7547.7814    4.2580331    4.2580331    4.2580331   -7547.7814    177.39685   -30609.415     7788.674    26113.569    7562.2338     17730.78    77.201741 
    1400    1169.0673   -106.97598    1.0577967   -105.91818   -5163.1749    4.2561602    4.2561602    4.2561602   -5163.1749    8815.1052   -12357.702   -11946.928   -10818.897    15962.241     20859.83    77.099916 
    1500    1573.4182   -107.33842    1.4236619   -105.91476   -845.82433     4.260679     4.260679     4.260679   -845.82433    2349.1266    -17441.91    12555.311   -3391.4812   -7923.7935   -7045.1703    77.345746 
    1600    835.71521   -106.68197   0.75617269    -105.9258    3497.0567    4.2555961    4.2555961    4.2555961    3497.0567    6181.6024   -6761.3109    11070.879    28318.689      17907.5    16905.301    77.069263 
    1700    1386.7233   -107.17836    1.2547364   -105.92362   -7414.7963    4.2572755    4.2572755    4.2572755   -7414.7963    -20949.19    23110.841    -24406.04   -10467.356    33065.048    21154.969    77.160543 
    1800    1539.0949   -107.30598    1.3926054   -105.91337   -7982.8555    4.2679271    4.2679271    4.2679271   -7982.8555   -33963.665    -376.2287    10391.327    7961.5135   -9799.6514   -13305.937    77.741155 
    1900    733.23269   -106.58267   0.66344434   -105.91922   -24076.122    4.2615888    4.2615888    4.2615888   -24076.122   -31887.171   -28485.175   -11856.021     20165.81    25763.814    25410.221    77.395305 
    2000    1262.7405   -107.05878    1.1425541   -105.91623    7385.5451    4.2519551    4.2519551    4.2519551    7385.5451   -2569.3231    27137.004   -2411.0458   -7007.3844     32668.64     4045.355    76.871615 
    2100    1861.5274   -107.59905    1.6843491    -105.9147    69.720424    4.2556446    4.2556446    4.2556446    69.720424    8358.5959   -18081.599    9932.1642    14198.157   -10898.893   -14148.009    77.071899 
    2200    652.85334   -106.52232   0.59071542   -105.93161   -2242.8289    4.2599797    4.2599797    4.2599797   -2242.8289   -15555.402    8526.9801    299.93573    9095.0636    34344.903    32530.133    77.307669 
    2300    1464.0667   -107.24667    1.3247183   -105.92195   -7695.8788    4.2632262    4.2632262    4.2632262   -7695.8788   -14859.833    14006.552   -22234.355    2181.5773    17746.035   -10776.688    77.484554 
    2400    1378.3144   -107.16169    1.2471279   -105.91456    6648.5951    4.2626199    4.2626199    4.2626199    6648.5951   -16074.688    9817.9562    26202.517    2357.9346   -12116.823    -2445.625      77.4515 
    2500    710.02952   -106.57234   0.64244963   -105.92989    -15699.88    4.2509591    4.2509591    4.2509591    -15699.88   -14058.691    6507.6775   -39548.626    7235.5027    47040.242    31032.736    76.817608 
    2600    1215.9488   -107.02845     1.100216   -105.92823    26667.836    4.2484817    4.2484817    4.2484817    26667.836     20181.84    45163.662    14658.006   -7240.4336     8356.601   -7766.0111    76.683382 
    2700    1902.4572   -107.64399    1.7213832    -105.9226   -6111.0284    4.2646186    4.2646186    4.2646186   -6111.0284   -3047.0562   -11545.763   -3740.2656   -1499.6863    2839.6985     8360.628      77.5605 
    2800     472.7689   -106.36542   0.42777124   -105.93765    1621.5922    4.2612538    4.2612538    4.2612538    1621.5922    835.72074    21982.667   -17953.611    16612.638    36731.253     11665.84    77.377055 
    2900    1327.7676    -107.1225     1.201392   -105.92111     15416.39    4.2569079    4.2569079    4.2569079     15416.39    4433.7745    32102.203    9713.1917   -11913.886   -10777.355     11220.57    77.140556 
    3000    1348.6944   -107.13653     1.220327    -105.9162   -7680.8993    4.2657957    4.2657957    4.2657957   -7680.8993   -34767.219    8823.3489    2901.1725   -1422.6888    10015.744    -6911.744    77.624739 
    3100    642.44167   -106.50436   0.58129473   -105.92307    51.450681    4.2520378    4.2520378    4.2520378    51.450681    9582.5559    24588.202   -34016.406    8826.1414     28548.59    13221.341    76.876103 
    3200    1356.7305   -107.14533    1.2275982   -105.91773    28240.893    4.2538949    4.2538949    4.2538949    28240.893    26244.295    28845.038    29633.346   -9722.1098   -15916.872    13601.859    76.976872 
    3300    1506.2065    -107.2831    1.3628473   -105.92025   -13320.689    4.2634557    4.2634557    4.2634557   -13320.689   -10579.838    1868.3792   -31250.607    1269.4063    8599.1026   -24359.161    77.497066 
    3400    834.95071   -106.67732   0.75548095   -105.92184    23447.273    4.2504682    4.2504682    4.2504682    23447.273    22996.715    21118.736    26226.369    3826.2265    27474.473    16276.057    76.790996 
    3500    1416.6534   -107.19864    1.2818177   -105.91682    421.78415    4.2630721    4.2630721    4.2630721    421.78415   -11322.284    11230.031    1357.6057    4850.1556    -17859.62    3172.0672    77.476149 
    3600     1021.266   -106.83713   0.92406298   -105.91307   -23910.938    4.2685318    4.2685318    4.2685318   -23910.938    -39966.54   -2664.7589   -29101.515    1362.8335    13499.534   -19369.236    77.774202 
    3700    1300.9547   -107.08313    1.1771311     -105.906    12441.188    4.2400402    4.2400402    4.2400402    12441.188   -1732.8491    29415.032     9641.382    2414.1504    29524.696    18901.054    76.227195 
    3800    1315.9425   -107.10954    1.1906924   -105.91885     11892.67    4.2505554    4.2505554    4.2505554     11892.67    19753.637     15719.35    205.02222    5802.7843   -26337.807   -6755.2133    76.795725 
    3900    1164.3355   -106.97138    1.0535152   -105.91787   -29506.409    4.2705712    4.2705712    4.2705712   -29506.409   -15427.925   -12945.325   -60145.978    -7536.275    7047.2925   -13653.241    77.885729 
    4000    1328.4494   -107.11451    1.2020089    -105.9125    25559.574    4.2536825    4.2536825    4.2536825    25559.574    34394.869    1784.0236     40499.83     5800.939    19383.704    9690.1702    76.965343 
    4100    1126.9391    -106.9359    1.0196782   -105.91622    18247.766     4.250521     4.250521     4.250521    18247.766    13491.311     16580.94    24671.046     3607.288   -34085.031   -5662.7153     76.79386 
    4200    791.44801   -106.64008   0.71611879   -105.92396   -12701.335    4.2608961    4.2608961    4.2608961   -12701.335     -21311.4    -3476.901   -13315.704   -3646.4507     1160.977   -14891.067    77.357574 
    4300     1304.104   -107.09756    1.1799807   -105.91758   -32.928814    4.2588196    4.2588196    4.2588196   -32.928814   -9970.7571   -26920.177    36792.148     24463.17    19981.039   -1689.3919    77.244529 
    4400    1359.6174      -107.15    1.2302104   -105.91979    5126.2859    4.2502945    4.2502945    4.2502945    5126.2859    8709.3941    5323.6028    1345.8608    3830.4809   -38450.264   -2900.5598    76.781586 
    4500    1144.5254    -106.9606    1.0355907   -105.92501   -3881.8674    4.2579955    4.2579955    4.2579955   -3881.8674   -4907.8203    5510.2575   -12248.039    -3320.249    12473.171   -17248.188    77.199695 
    4600    1284.9462   -107.07685    1.1626464    -105.9142   -8552.2131    4.2696639    4.2696639    4.2696639   -8552.2131   -26406.442   -33333.387     34083.19    29001.196    13685.984    7178.2578    77.836099 
    4700    1126.3146   -106.93047    1.0191131   -105.91136   -5271.1789    4.2574931    4.2574931    4.2574931   -5271.1789   -11177.568   -7002.6573    2366.6887   -3872.5122   -25572.493   -8709.4134    77.172375 
    4800    1010.8945    -106.8264    0.9146786   -105.91173    9908.5861    4.2408671    4.2408671    4.2408671    9908.5861   -14004.117    26481.907    17247.968    2440.4934    14924.184   -24400.309    76.271796 
    4900      1405.89   -107.19398    1.2720788    -105.9219   -7535.1814    4.2592046    4.2592046    4.2592046   -7535.1814    -32014.09   -21111.029    30519.574    31170.422    2340.7358    6994.0281    77.265481 
    5000    1349.1603   -107.13615    1.2207486    -105.9154   -20097.605    4.2687061    4.2687061    4.2687061   -20097.605   -24620.014   -10547.606   -25125.195   -7655.7566   -28354.075   -12757.679    77.783732 
    5100    1164.6686    -106.9636    1.0538166   -105.90978    18016.364    4.2487755    4.2487755    4.2487755    18016.364   -10392.057     29567.23    34873.918     2373.218    4454.2086   -14621.049     76.69929 
    5200    1362.2505   -107.14606    1.2325929   -105.91346   -7732.6977     4.252397     4.252397     4.252397   -7732.6977   -35428.962   -12298.228    24529.096    22805.744    1504.0204    15461.465    76.895586 
    5300    751.06168   -106.59891   0.67957639   -105.91933   -507.66656    4.2613915    4.2613915    4.2613915   -507.66656   -26043.567    12736.104    11784.463   -7497.5638    -27222.56   -6642.5363    77.384558 
    5400    1217.6224   -107.01592    1.1017303   -105.91419    3393.2774    4.2570936    4.2570936    4.2570936    3393.2774     -11467.9    4349.9831    17297.749    6243.7101    5557.8692   -20220.866    77.150651 
    5500    1455.1397   -107.23053     1.316641   -105.91389   -10951.631    4.2616838    4.2616838    4.2616838   -10951.631    -25369.76   -15199.965     7714.833    15655.263   -12406.945    20836.586    77.400486 
    5600    1218.5746   -107.01993    1.1025919   -105.91733    4736.6404    4.2509183    4.2509183    4.2509183    4736.6404    3932.2312    16552.509   -6274.8194   -11368.592   -29866.944   -1771.9993    76.815396 
    5700    1226.1429   -107.02964    1.1094398    -105.9202    12353.547    4.2475346    4.2475346    4.2475346    12353.547    6624.0672     2678.255     27758.32     12708.32    6292.9154   -29061.832    76.632109 
    5800    1262.7045   -107.06348    1.1425216   -105.92096   -23207.362     4.267703     4.267703     4.267703   -23207.362   -46832.586   -17983.198   -4806.3027    15382.658   -21359.509    10452.353    77.728908 
    5900    968.85203   -106.79518   0.87663768   -105.91854    6552.9707    4.2550128    4.2550128    4.2550128    6552.9707   -10097.976    20341.245    9415.6441   -6467.3931   -24234.565   -9681.5702    77.037578 
    6000     1205.987   -107.00622    1.0912024   -105.91502    15478.386    4.2458271    4.2458271    4.2458271    15478.386    18715.866    128.48461    27590.808    18597.437    5932.0369   -13848.261    76.539725 
    6100    1415.6251    -107.1978    1.2808873   -105.91691   -7466.7561    4.2615838    4.2615838    4.2615838   -7466.7561   -9941.9391   -1129.1549   -11329.174    466.81407    -26532.19    2742.6233    77.395035 
    6200    1278.8194   -107.07086    1.1571027   -105.91376    20137.328    4.2552792    4.2552792    4.2552792    20137.328    16904.467    34125.827     9381.689   -803.85102   -24513.639   -13701.678     77.05205 
    6300    1231.8168   -107.03234    1.1145738   -105.91776    3522.0168    4.2563071    4.2563071    4.2563071    3522.0168   -10762.407   -6769.3615    28097.819    31680.943    12295.403   -2796.5529    77.107896 
    6400    995.61471   -106.81854   0.90085311   -105.91768   -20952.798    4.2608256    4.2608256    4.2608256   -20952.798    -58835.76    10339.519   -14362.155   -5398.7336    -26022.13    7156.0607    77.353731 
    6500    1076.1269   -106.88864    0.9737022   -105.91494    18808.692    4.2458742    4.2458742    4.2458742    18808.692    3269.4328    26424.826    26731.818   -8582.0138   -14799.776    -13205.32    76.542277 
    6600    1548.9903   -107.31893     1.401559   -105.91737    14668.685    4.2587916    4.2587916    4.2587916    14668.685    13652.502    4440.8703    25912.684    12021.603    8740.7642   -9276.0431    77.243007 
    6700    1151.2606   -106.96375    1.0416848   -105.92206   -11582.253    4.2656561    4.2656561    4.2656561   -11582.253   -7097.3647    2326.5695   -29975.963    5016.1076    -25406.14    7151.9725    77.617118 
    6800    1171.0463   -106.97414    1.0595873   -105.91455    31245.809    4.2461895    4.2461895    4.2461895    31245.809    49782.907    18817.353    25137.167   -9721.3998    9770.4391   -9318.6531    76.559329 
    6900    1492.2814    -107.2617    1.3502476   -105.91145      11711.2     4.251515     4.251515     4.251515      11711.2    4450.5544    33079.301   -2396.2554   -1762.2938   -13082.971   -11618.052    76.847749 
    7000    731.32185   -106.58393   0.66171537   -105.92222   -5107.4279    4.2604329    4.2604329    4.2604329   -5107.4279    1000.5946    28298.285   -44621.163   -1281.5099   -28404.373    2939.7581    77.332345 
    7100    1327.9748   -107.11273    1.2015795   -105.91115   -3622.3407    4.2632182    4.2632182    4.2632182   -3622.3407    13765.184   -17127.846   -7504.3603   -15508.966    17226.493   -5438.0164    77.484119 
    7200    1205.5506   -107.00448    1.0908075   -105.91367    4338.8723    4.2572259    4.2572259    4.2572259    4338.8723    4846.1471    21438.452   -13267.982    15710.338   -27530.815   -2419.1261    77.157842 
    7300     1270.315   -107.06261    1.1494077    -105.9132     12391.57    4.2415002    4.2415002    4.2415002     12391.57     42217.74    15396.591   -20439.621   -6222.2722   -17565.986   -3162.1218    76.305962 
    7400     1555.328   -107.32659    1.4072934   -105.91929    1682.3261    4.2531327    4.2531327    4.2531327    1682.3261    14962.719   -7195.7064   -2720.0338   -13583.077    10769.191   -5085.9858    76.935503 
    7500     902.7642   -106.74104   0.81684002    -105.9242   -17643.292    4.2686605    4.2686605    4.2686605   -17643.292   -41938.771    4932.8637   -15923.968    27997.979    -32349.26   -6034.1807    77.781237 
    7600    1164.2611   -106.96894     1.053448   -105.91549    6038.0241    4.2529465    4.2529465    4.2529465    6038.0241    4885.9959    24737.281   -11509.205   -5359.3772    1650.3508    1545.3585    76.925397 
    7700    1406.7785   -107.18323    1.2728828   -105.91034    9615.2767    4.2453955    4.2453955    4.2453955    9615.2767    22974.871    8030.2625   -2159.3038    2772.6132    8464.0852    1888.7764    76.516389 
    7800    659.10992   -106.52238   0.59637651     -105.926    6831.6021    4.2554872    4.2554872    4.2554872    6831.6021   -170.57206    22792.177   -2126.7988    19405.508   -35434.584   -855.78346    77.063345 
    7900    1369.1109   -107.15479    1.2388003   -105.91599    4816.9284    4.2636757    4.2636757    4.2636757    4816.9284    23653.028    4020.7698   -13223.012    1416.7207    19458.745    10737.651    77.509067 
    8000    1478.5974   -107.24997     1.337866    -105.9121    118.16388    4.2620569    4.2620569    4.2620569    118.16388    19094.773   -5799.7278   -12940.554    6742.5625    1055.6378   -702.73674    77.420814 
    8100    949.92281   -106.78067   0.85951012   -105.92116   -4927.3749    4.2436591    4.2436591    4.2436591   -4927.3749   -16795.177     16360.89   -14347.838    14600.171   -41795.966    1368.5488    76.422542 
    8200    1326.0212    -107.1193    1.1998119   -105.91948    19355.803    4.2420121    4.2420121    4.2420121    19355.803    13374.613    39900.236    4792.5607   -1193.5791    22054.034    1282.3528    76.333592 
    8300    1067.2559   -106.88957   0.96567557   -105.92389   -16069.048    4.2647494    4.2647494    4.2647494   -16069.048   -11865.961   -12455.144   -23886.039   -21294.049    1773.4469   -4649.2866    77.567635 
    8400    716.10625   -106.57088   0.64794798   -105.92293   -14015.505    4.2609634    4.2609634    4.2609634   -14015.505    -17114.14    7796.4953   -32728.872    20487.291   -32248.499    9719.2325     77.36124 
    8500    1570.9162   -107.32934     1.421398   -105.90794    14240.881    4.2460837    4.2460837    4.2460837    14240.881    -4572.211    20434.583     26860.27    -11711.32    13202.351   -4591.0885    76.553604 
    8600     1147.422     -106.958    1.0382116   -105.91978   -9719.7213    4.2532657    4.2532657    4.2532657   -9719.7213   -10278.158   -21862.355    2981.3485   -27691.314   -9884.6887   -4222.6902    76.942721 
    8700    955.77703   -106.78889   0.86480714   -105.92408    -8392.875     4.258734     4.258734     4.258734    -8392.875   -23358.343    9382.6549   -11202.937    19528.356   -28790.046    6503.5486    77.239871 
    8800    1662.9087   -107.41402    1.5046348   -105.90938   -3518.3303     4.258997     4.258997     4.258997   -3518.3303   -28745.022    -11393.39    29583.421   -24661.892    16977.492   -2274.7184    77.254183 
    8900    790.68995   -106.63368   0.71543288   -105.91825   -13940.988    4.2597626    4.2597626    4.2597626   -13940.988   -31220.416    255.79916   -10858.348   -13388.328   -27400.936   -36.339441    77.295855 
    9000    1003.8353   -106.82539   0.90829125   -105.91709   -726.76063    4.2489063    4.2489063    4.2489063   -726.76063    2338.9628    1602.8777   -6122.1225     11391.62   -19163.618   -3649.5539    76.706375 
    9100     1409.198   -107.19024     1.275072   -105.91516    14865.528    4.2511658    4.2511658    4.2511658    14865.528   -1993.1416     14078.39    32511.336   -17187.939    21380.109    2887.7527    76.828813 
    9200    1378.1494   -107.16431    1.2469786   -105.91733   -24651.765    4.2644148    4.2644148    4.2644148   -24651.765   -36427.385   -11219.557   -26308.353   -5637.6372   -37195.709    259.80932    77.549377 
    9300      1190.66   -106.99384    1.0773341   -105.91651    8304.3562    4.2548465    4.2548465    4.2548465    8304.3562    7095.8696    1182.1698    16635.029    6453.1227   -6934.0688    -3582.266    77.028546 
    9400    1296.7502   -107.08619    1.1733269   -105.91287    -8349.189    4.2562596    4.2562596    4.2562596    -8349.189   -14528.855    -23358.31    12839.598   -17429.418    18953.904    3911.1021     77.10532 
    9500    1237.9462   -107.03135    1.1201197   -105.91124   -14177.455    4.2586412    4.2586412    4.2586412   -14177.455   -34770.925     9229.498   -16990.939   -3620.8565   -44758.338   -2374.3316    77.234823 
    9600    1086.8283   -106.89269    0.9833851   -105.90931    25776.147    4.2460265    4.2460265    4.2460265    25776.147    20874.997    23337.949    33115.495    3654.6076    11874.262   -2751.5946    76.550511 
    9700    921.70122   -106.75809   0.83397463   -105.92412   -9158.9597    4.2591145    4.2591145    4.2591145   -9158.9597   -21017.629   -1265.9072   -5193.3429   -21289.686    13934.305    7016.8042    77.260579 
    9800    1667.1348   -107.41759    1.5084586   -105.90913   -9537.6587    4.2668648    4.2668648    4.2668648   -9537.6587   -24668.146   -2173.3748   -1771.4548    5672.8589   -29823.567   -9631.7436    77.683118 
    9900    1215.3246   -107.01414    1.0996513   -105.91448    9509.6976    4.2480526    4.2480526    4.2480526    9509.6976    3213.5801   -4492.7805    29808.293   -5118.6645    19633.858    3196.6866    76.660148 
   10000    1113.9316   -106.93141    1.0079087    -105.9235   -4634.3855    4.2497721    4.2497721    4.2497721   -4634.3855   -10341.551   -1360.0421   -2201.5633   -23876.643    14350.646    10369.185    76.753278 
   10100    1876.1513   -107.60811    1.6975811   -105.91053   -6834.7928    4.2637142    4.2637142    4.2637142   -6834.7928   -8324.4745   -5872.9052   -6306.9987    14353.514   -9320.1717   -11643.582    77.511164 
   10200    574.45995   -106.44339   0.51978344   -105.92361   -4471.0587    4.2602449    4.2602449    4.2602449   -4471.0587   -206.50656   -1440.1728   -11766.497   -12583.517    26749.917   -2005.9321    77.322112 
   10300    1063.9878   -106.88057   0.96271849   -105.91785   -189.90592    4.2580132    4.2580132    4.2580132   -189.90592   -3824.8991    1308.9709    1946.2104   -21819.698    10270.819    3073.9608    77.200657 
   10400    1679.8005   -107.42514    1.5199188   -105.90522   -8660.1553    4.2637096    4.2637096    4.2637096   -8660.1553    -14260.95   -8654.4988   -3065.0168    7224.4892   -5699.9895   -4012.8617    77.510915 
   10500    850.06516   -106.68537   0.76915682   -105.91622    -7516.992    4.2590912    4.2590912    4.2590912    -7516.992    1354.9548   -16461.738   -7444.1931   -14510.628    24436.373   -5544.0332    77.259311 
   10600    1479.6376   -107.24589    1.3388072   -105.90708    17988.847    4.2567686    4.2567686    4.2567686    17988.847   -8806.4311    18917.354    43855.618   -17620.252   -2823.8267   -267.66628    77.132986 
   10700    1496.3038   -107.26141    1.3538871   -105.90752    6082.8385    4.2562855    4.2562855    4.2562855    6082.8385   -23786.934    23239.308    18796.141    8989.8921   -13452.315    2803.3444    77.106725 
   10800    897.89652   -106.72821   0.81243564   -105.91578    7916.9471     4.254056     4.254056     4.254056    7916.9471   -7589.9994     38219.71   -6878.8691   -17209.998    25309.426   -6334.4214     76.98562 
   10900    1208.8824   -107.00422    1.0938222    -105.9104   -2987.0688    4.2621632    4.2621632    4.2621632   -2987.0688   -17834.901     3069.659    5804.0358   -12225.855   -22749.111    4585.3927    77.426609 
   11000    1086.5847   -106.89132   0.98316467   -105.90816    -2024.172    4.2600989    4.2600989    4.2600989    -2024.172     -28621.8    31187.855   -8638.5704    7683.7857   -7131.0738    -8716.895    77.314158 
   11100    1227.6217   -107.01867    1.1107779   -105.90789    2015.2422    4.2495759    4.2495759    4.2495759    2015.2422   -5099.6451    10095.107    1050.2645    -28273.54     21879.26   -8951.5253    76.742645 
   11200    1087.2389   -106.89827   0.98375659   -105.91452    8809.8668    4.2539034    4.2539034    4.2539034    8809.8668   -16699.006    34168.752    8959.8547    2100.9726       -50343      8606.29    76.977337 
   11300    1561.3387   -107.32093    1.4127321    -105.9082    1020.4138    4.2581254    4.2581254    4.2581254    1020.4138   -25205.869    10869.872    17397.238    231.01383    7100.1195   -14322.365    77.206763 
   11400     993.9941   -106.81586   0.89938675   -105.91648   -3124.3841    4.2573964    4.2573964    4.2573964   -3124.3841   -28227.776    19880.917   -1026.2934   -26340.585    3174.6729   -5722.0582    77.167115 
   11500    1138.4805   -106.94586    1.0301211   -105.91573    -11961.74     4.259368     4.259368     4.259368    -11961.74   -37455.577     30169.21   -28598.853   -1281.2323   -59646.014   -1889.8853    77.274372 
   11600    1819.9449   -107.54946    1.6467244   -105.90274    -3625.768    4.2567033    4.2567033    4.2567033    -3625.768   -16888.496   -10678.018     16689.21   -3327.4411    21849.325   -6350.5595    77.129435 
   11700    742.25212   -106.58795   0.67160532   -105.91635   -16989.879    4.2591768    4.2591768    4.2591768   -16989.879   -52175.093    8604.2512   -7398.7937    -12947.93   -34051.957   -7145.0894    77.263965 
   11800    1281.2621   -107.06994    1.1593129   -105.91063   -14688.974    4.2689527    4.2689527    4.2689527   -14688.974   -37437.336    -13642.84    7013.2552    1314.8695   -12342.943   -6618.0788    77.797211 
   11900    1364.5788   -107.14432    1.2346995   -105.90962    2060.0987    4.2590778    4.2590778    4.2590778    2060.0987   -21093.085   -17939.807    45213.188    3406.7976    6748.6748   -8083.8237    77.258577 
   12000    726.07151   -106.57382   0.65696476   -105.91685    26850.748    4.2414773    4.2414773    4.2414773    26850.748   -22775.539    54891.315    48436.469   -7806.3906   -39006.539   -15477.873    76.304729 
   12100    1429.3873   -107.21665    1.2933397   -105.92331   -5200.0106    4.2643913    4.2643913    4.2643913   -5200.0106   -24690.873   -7607.7291    16698.571    9349.1621    14906.514     1594.925    77.548097 
   12200    1245.7922   -107.03762     1.127219    -105.9104   -6098.7235    4.2752099    4.2752099    4.2752099   -6098.7235   -47713.676    8437.4259    20980.079     16329.78   -7445.5112   -7847.9491    78.139803 
   12300    1165.0166   -106.95629    1.0541315   -105.90216    8309.3383    4.2563722    4.2563722    4.2563722    8309.3383    -31810.26    40123.333    16614.942   -12055.445   -27036.752   -13886.128    77.111437 
   12400    1085.5176   -106.88467   0.98219916   -105.90248    5653.3343    4.2526049    4.2526049    4.2526049    5653.3343    2457.3278   -28606.113    43108.788    21046.454    20448.695   -250.47756    76.906865 
   12500    987.41183   -106.80774   0.89343098   -105.91431   -11180.311    4.2585113    4.2585113    4.2585113   -11180.311   -15550.103   -21511.589    3520.7583    13610.042    -11535.16    3287.4254    77.227753 
   12600    1234.8898   -107.03764    1.1173543   -105.92028   -15553.763    4.2640055    4.2640055    4.2640055   -15553.763   -28757.214   -13551.368   -4352.7073   -23169.155   -28909.577   -84.695456    77.527054 
   12700    1336.1844   -107.12957    1.2090078   -105.92057    735.08958     4.254135     4.254135     4.254135    735.08958    8038.7783    -5648.856   -184.65364    27418.757     13212.09    765.55333     76.98991 
   12800      1342.49   -107.13723    1.2147132   -105.92251   -803.39325     4.250508     4.250508     4.250508   -803.39325   -11791.313    14292.644   -4911.5109    6140.5616   -8311.9352    20826.266    76.793154 
   12900    1115.4973   -106.93389    1.0093254   -105.92457   -19996.221    4.2652792    4.2652792    4.2652792   -19996.221   -44827.871   -848.78462   -14312.008   -41500.794    -33431.76   -1623.0568    77.596549 
   13000    1429.9374   -107.20713    1.2938374   -105.91329   -16685.983    4.2625232    4.2625232    4.2625232   -16685.983   -2652.0722   -25263.237    -22142.64    16968.087    11699.773    2147.5629    77.446228 
   13100     1080.336    -106.8948   0.97751074   -105.91729   -14159.562    4.2545727    4.2545727    4.2545727   -14159.562   -8678.6998   -18628.976   -15171.008   -8768.6108   -1577.9444    15160.877    77.013676 
   13200    1020.6051   -106.84877   0.92346497   -105.92531   -19011.004     4.255427     4.255427     4.255427   -19011.004   -16208.217   -31893.989   -8930.8065   -39799.404   -32188.016   -6416.6729    77.060078 
   13300       1627.4   -107.39009    1.4725058   -105.91759    3784.3535     4.261015     4.261015     4.261015    3784.3535    60476.095   -14665.833   -34457.201     12530.04    6879.7228    2858.8357    77.364049 
   13400    905.86994   -106.74454   0.81965016   -105.92489   -2795.1646     4.268357     4.268357     4.268357   -2795.1646    24143.287   -9186.1742   -23342.607    -23856.35    4567.3113    2370.2729     77.76465 
   13500    795.97886   -106.64146    0.7202184   -105.92124   -10654.131    4.2662766    4.2662766    4.2662766   -10654.131   -1300.3783   -4248.1325   -26413.883   -23762.325   -24726.085   -4216.6471    77.650997 
   13600    1553.8781   -107.31202    1.4059816   -105.90603    9678.8176    4.2539014    4.2539014    4.2539014    9678.8176    38539.117    4449.3367   -13952.001    11182.071    3982.9138    4041.6273    76.977226 
   13700    1179.8119   -106.98788    1.0675186   -105.92037    4768.8227    4.2525302    4.2525302    4.2525302    4768.8227   -12749.387    1744.9758    25310.879   -27384.729    22070.656   -2962.4821    76.902813 
   13800    1044.0321   -106.86909   0.94466214   -105.92443   -4643.2522    4.2700637    4.2700637    4.2700637   -4643.2522    965.63732    3278.2166    -18173.61   -6125.4846   -14269.176   -12721.576    77.857966 
   13900    1277.8936   -107.06807     1.156265    -105.9118   -10498.726    4.2677491    4.2677491    4.2677491   -10498.726   -3815.8921   -5604.3395   -22075.948    26694.973   -2966.3267    -5193.026    77.731429 
   14000    1232.7374   -107.02207    1.1154067   -105.90666    11584.982    4.2483571    4.2483571    4.2483571    11584.982   -7291.6181    26499.889    15546.676   -18441.907    13429.747    1279.6066    76.676637 
   14100    933.85612   -106.76071   0.84497264   -105.91574    14614.876     4.255078     4.255078     4.255078    14614.876    45344.668    2170.5172   -3670.5573     3899.482    2309.9204   -18105.222    77.041115 
   14200     948.0911   -106.77417   0.85785275   -105.91632   -10817.019    4.2729118    4.2729118    4.2729118   -10817.019    15392.313   -34928.117   -12915.253    42569.922   -91.665899   -7024.1165    78.013865 
   14300    1349.1855   -107.12591    1.2207714   -105.90514    13999.773    4.2614225    4.2614225    4.2614225    13999.773    26906.405    16895.737   -1802.8231   -11222.859    18824.288    3295.2933    77.386245 
   14400    960.48652   -106.78146   0.86906839   -105.91239    11656.701    4.2503888    4.2503888    4.2503888    11656.701    14375.508   -12944.317    33538.911    28412.468    11271.109   -15307.139    76.786694 
   14500    1057.2105   -106.88278   0.95658629   -105.92619     5603.104    4.2574194    4.2574194    4.2574194     5603.104    -10325.68   -27445.247     54580.24    32227.438   -9504.2132   -11375.741    77.168368 
   14600    1485.2467   -107.25927    1.3438824   -105.91539    22446.473     4.263074     4.263074     4.263074    22446.473    6702.2047    25442.474    35194.741   -4282.2151    15541.248   -8074.6414    77.476252 
   14700    577.52238   -106.44666   0.52255439    -105.9241    14682.187    4.2719032    4.2719032    4.2719032    14682.187    -18125.15   -25302.939     87474.65    34403.029    13257.729   -21755.478     77.95863 
   14800    1235.3511   -107.01192    1.1177717   -105.89415   -6319.7411    4.2744398    4.2744398    4.2744398   -6319.7411    -12101.73   -24228.892    17371.398   -8866.6485   -8030.9286   -7220.9776    78.097587 
   14900    1042.8282   -106.83708   0.94357289    -105.8935    20209.318    4.2524543    4.2524543    4.2524543    20209.318    2109.7519    18666.712    39851.489    16460.264    8537.2826    7090.4186    76.898695 
   15000    1022.5566   -106.83331   0.92523072   -105.90808    22517.754    4.2533135    4.2533135    4.2533135    22517.754   -4871.8678    14687.421    57737.708    24866.985     9306.113   -19544.246    76.945314 
   15100    1567.3442   -107.32311     1.418166   -105.90494   -2220.6189    4.2717688    4.2717688    4.2717688   -2220.6189   -16962.797   -2206.1828    12507.123   -11790.708   -16829.814   -6368.4077    77.951276 
   15200     953.7203    -106.7749   0.86294617   -105.91195    5145.0479     4.264861     4.264861     4.264861    5145.0479   -9326.9223    4345.3573    20416.709    21474.476    15881.488    6588.6899    77.573725 
   15300    1169.4754   -106.96437    1.0581659   -105.90621    15983.489    4.2477252    4.2477252    4.2477252    15983.489    6325.7442    3051.4361    38573.286    4691.7507    10814.795   -11516.342    76.642428 
   15400    1473.9705   -107.24543    1.3336795   -105.91175     201.9748    4.2496338    4.2496338    4.2496338     201.9748   -280.38473    19170.591   -18284.282   -4902.7134   -19256.197   -5912.8578    76.745784 
   15500    851.18161   -106.69758     0.770167   -105.92742   -23599.013    4.2647366    4.2647366    4.2647366   -23599.013   -27929.192    -6619.635    -36248.21    25779.368     31468.48    11639.048    77.566937 
   15600    1521.0216   -107.28937    1.3762523   -105.91312   -5895.0626    4.2678547    4.2678547    4.2678547   -5895.0626   -7243.6235     111.3474   -10552.912   -2958.2597    17222.078   -461.30168    77.737199 
   15700    1460.7079   -107.23221    1.3216792   -105.91054   -10462.059    4.2573754    4.2573754    4.2573754   -10462.059   -23817.598   -17386.268    9817.6888    7652.6709   -19673.536    -6451.866    77.165974 
   15800    677.88727    -106.5324   0.61336664   -105.91904   -7055.4532    4.2389945    4.2389945    4.2389945   -7055.4532    -39498.79    20547.502   -2215.0713    21065.134    33138.347    6757.2054    76.170806 
   15900    1235.1972   -107.04976    1.1176324   -105.93212    7537.2471    4.2574121    4.2574121    4.2574121    7537.2471     778.5478   -10925.526     32758.72   -8509.8003     18663.18   -2567.5855    77.167967 
   16000    1546.2399   -107.31964    1.3990704   -105.92057   -9442.9275    4.2708296    4.2708296    4.2708296   -9442.9275   -17680.756   -35241.982    24593.955     10463.72    -12120.98    -13148.83    77.899868 
   16100    694.23478   -106.55342   0.62815822   -105.92526     22417.06     4.241616     4.241616     4.241616     22417.06   -31237.129     45635.13     52853.18    17029.393    35640.769    4656.3253    76.312215 
   16200    1331.2295   -107.12998    1.2045244   -105.92546    13242.946    4.2532688    4.2532688    4.2532688    13242.946   -9926.5962    17148.429    32507.004   -6232.8112    5193.4964    6424.3313    76.942888 
   16300    1215.8761   -107.01059    1.1001502   -105.91044    246.03623     4.268977     4.268977     4.268977    246.03623   -29934.254   -27028.715    57701.078    18554.421   -4878.2306   -8484.4457    77.798542 
   16400    650.31662   -106.50058   0.58842014   -105.91216   -2481.2865    4.2568018    4.2568018    4.2568018   -2481.2865   -32395.017     29326.53    -4375.373    6466.9305    42749.689    5255.1473    77.134789 
   16500    1438.2161   -107.20684    1.3013282   -105.90551   -588.32831    4.2554269    4.2554269    4.2554269   -588.32831   -13438.952    29119.182   -17445.215    -7163.473    -18006.14    13949.519    77.060069 
   16600    1434.5761   -107.20645    1.2980346   -105.90842    370.17424    4.2568163    4.2568163    4.2568163    370.17424   -33900.905    40689.008   -5677.5804    16985.902    10182.957   -12701.956    77.135577 
   16700    1006.0279   -106.82958   0.91027519   -105.91931     -16657.9    4.2595971    4.2595971    4.2595971     -16657.9    -33306.74    28726.395   -45393.354   -248.73871    43186.699    12969.551    77.286845 
   16800    1434.2403   -107.20789    1.2977308   -105.91016   -12739.184    4.2597768    4.2597768    4.2597768   -12739.184   -12676.024    9515.8017    -35057.33   -60.607522   -24421.231    23577.269    77.296624 
   16900    909.23688   -106.73816   0.82269664   -105.91546    -37.36991    4.2514364    4.2514364    4.2514364    -37.36991   -33941.321    36981.214   -3152.0027    13421.658    27313.613   -3216.3774    76.843487 
   17000    1074.7165   -106.89399   0.97242603   -105.92156   -10227.744    4.2539745    4.2539745    4.2539745   -10227.744   -19038.058   -4080.1693   -7565.0049    5269.0897    31894.591     14743.54    76.981192 
   17100    1514.1027   -107.28556    1.3699919   -105.91556    4253.2925    4.2634017    4.2634017    4.2634017    4253.2925    27400.475   -8666.3809   -5974.2171   -4302.5416   -25577.867    27517.501    77.494121 
   17200    869.42685   -106.70789   0.78667569   -105.92122    953.98197    4.2589147    4.2589147    4.2589147    953.98197   -24849.209    25070.584    2640.5701    11956.061    38615.188   -1474.9561    77.249705 
   17300    1226.2949   -107.02156    1.1095774   -105.91199    1637.2879    4.2552867    4.2552867    4.2552867    1637.2879    1969.0165    -6174.239    9117.0863    18647.856    10735.681    14881.336    77.052455 
   17400    1452.8816   -107.22128    1.3145978   -105.90668   -243.00505    4.2600175    4.2600175    4.2600175   -243.00505   -4953.3419    558.86661    3665.4602   -4338.1388   -4600.2025    18104.373    77.309729 
   17500    463.29427   -106.34247   0.41919839   -105.92327    1375.3934    4.2560647    4.2560647    4.2560647    1375.3934   -13383.351     22381.59   -4872.0581    15466.295    48111.144   -10796.808    77.094726 
   17600    1300.2648   -107.09643    1.1765069   -105.91992    6581.5097    4.2496128    4.2496128    4.2496128    6581.5097    16178.115   -15683.947    19250.361    9608.3699   -3037.8747    5153.7851    76.744647 
   17700    1544.5271   -107.31505    1.3975205   -105.91753    10322.239    4.2567874    4.2567874    4.2567874    10322.239    8428.5771    4689.9291     17848.21   -3226.8519    1454.0539    12115.506    77.134004 
   17800    922.85426   -106.75492   0.83501793    -105.9199   -7825.0163    4.2655134    4.2655134    4.2655134   -7825.0163   -13395.594    698.30977   -10777.764    27308.479    31317.946   -10675.462    77.609332 
   17900    1479.7905   -107.24717    1.3389456   -105.90822    4550.8132    4.2539723    4.2539723    4.2539723    4550.8132    -2229.682   -4677.9318    20560.054   -4600.2947   -19540.716    3644.1818    76.981074 
   18000    1235.1328   -107.03054    1.1175741   -105.91297     6180.981    4.2439921    4.2439921    4.2439921     6180.981   -34028.887    35481.296    17090.534   -615.55837    16913.562    2468.9114    76.440529 
   18100    677.02138   -106.54498   0.61258317    -105.9324   -9410.5981    4.2526929    4.2526929    4.2526929   -9410.5981   -674.68285   -12358.049   -15199.063    32190.954    30338.636   -11447.369    76.911639 
   18200    1368.5185   -107.16259    1.2382643   -105.92433    4124.6356    4.2554919    4.2554919    4.2554919    4124.6356    10835.196   -6668.6063    8207.3167    7341.9189   -12553.048   -3550.3321      77.0636 
   18300    1300.4216   -107.09991    1.1766488   -105.92326   -6590.7318    4.2574939    4.2574939    4.2574939   -6590.7318   -16745.057    21026.169   -24053.307   -927.14373    13632.877    3365.2948    77.172415 
   18400    1018.7309   -106.84659   0.92176911   -105.92482   -20921.409    4.2538124    4.2538124    4.2538124   -20921.409   -25042.732   -29112.854   -8608.6417    29096.772    23577.187   -13133.964    76.972397 
   18500    1626.7806   -107.38479    1.4719452   -105.91284     9497.371    4.2445643    4.2445643    4.2445643     9497.371    3078.9211    2394.7021     23018.49    1873.5789   -6954.8411   -13937.761    76.471455 
   18600      1054.74   -106.88017   0.95435094   -105.92582   -12581.574    4.2543388    4.2543388    4.2543388   -12581.574   -40179.366    22869.695   -20435.052    196.33156    7007.9799    11599.479    77.000976 
   18700    791.99169   -106.64256   0.71661072   -105.92595   -28944.129     4.259423     4.259423     4.259423   -28944.129   -54134.633   -18361.989   -14335.764    34639.659    17249.013   -11646.623    77.277366 
   18800    1299.0892   -107.09064    1.1754432    -105.9152    19407.299    4.2466882    4.2466882    4.2466882    19407.299    39996.018    971.38153    17254.497   -12037.385   -3701.4266   -20864.762    76.586309 
   18900    1304.5344   -107.10216    1.1803702   -105.92179   -8942.0008    4.2524329    4.2524329    4.2524329   -8942.0008   -38882.845    22962.101   -10905.258    69.351208    12490.827    6533.7061    76.897531 
   19000    1001.3047   -106.82797   0.90600156   -105.92197   -5223.7617    4.2582767    4.2582767    4.2582767   -5223.7617   -16973.794    2407.8404   -1105.3312    28066.858    6207.3575   -13862.371    77.214991 
   19100    1465.0953   -107.23841     1.325649   -105.91276    5530.7482    4.2533752    4.2533752    4.2533752    5530.7482   -6984.0345    6464.4716    17111.807    -24696.13   -7872.2928   -15647.078    76.948664 
   19200    1209.0681    -107.0068    1.0939902   -105.91281   -10436.089    4.2573952    4.2573952    4.2573952   -10436.089   -36738.062    3175.9592    2253.8362    11210.588    25586.127    6676.1071    77.167049 
   19300     976.8347   -106.79927   0.88386057   -105.91541   -16659.509     4.251489     4.251489     4.251489   -16659.509   -44612.872   -3950.4252   -1415.2285    18466.936    4080.4739   -12661.821     76.84634 
   19400    1087.5847   -106.90304   0.98406951   -105.91897    19780.391    4.2475734    4.2475734    4.2475734    19780.391     11714.14    28690.747    18936.285   -34425.235   -10549.572   -12533.601     76.63421 
   19500    1543.4394   -107.31174    1.3965364   -105.91521   -2079.3847    4.2593559    4.2593559    4.2593559   -2079.3847   -10495.047    7557.7405   -3300.8475      18391.5    20948.979    2518.1185    77.273717 
   19600    1087.4432   -106.90673   0.98394145   -105.92279   -12501.733    4.2555217    4.2555217    4.2555217   -12501.733   -24086.427   -14274.657    855.88669    10537.717    815.16279   -2115.9784    77.065222 
   19700    1431.3989   -107.20916    1.2951598     -105.914    8034.6809    4.2526602    4.2526602    4.2526602    8034.6809    8512.5416    14709.249    882.25194   -28495.773   -12222.155   -10294.725    76.909863 
   19800    1322.7143   -107.10762    1.1968197    -105.9108   -15715.897    4.2647232    4.2647232    4.2647232   -15715.897   -15163.308   -21274.046   -10710.338    29255.421    7034.8805    8793.6375    77.566204 
   19900     948.0669   -106.77194   0.85783085   -105.91411   -23114.578    4.2581115    4.2581115    4.2581115   -23114.578   -38915.715   -35804.071    5376.0512   -4492.5835    9271.4947   -3650.2195    77.206005 
   20000    1494.1875   -107.25902    1.3519723   -105.90705    765.97252    4.2498778    4.2498778    4.2498778    765.97252   -10331.351    16596.962   -3967.6934   -16346.494   -20346.847   -9218.8715    76.759005 
   20100    1181.7593   -106.98045    1.0692806   -105.91117   -13979.716    4.2652026    4.2652026    4.2652026   -13979.716   -10022.955    -20550.06   -11366.132    30737.344   -432.06934    9280.1595    77.592365 
   20200      1301.86   -107.08185    1.1779503    -105.9039   -1485.1079    4.2659907    4.2659907    4.2659907   -1485.1079    4373.5642   -28383.188      19554.3   -5305.9978    12169.621   -4057.3707    77.635383 
   20300     1259.363   -107.03713    1.1394981   -105.89763    5586.7193    4.2591838    4.2591838    4.2591838    5586.7193   -15286.672     27349.69    4697.1396     3973.229   -34665.319   -5976.7134     77.26435 
   20400    1142.5667   -106.93118    1.0338184   -105.89737   -1541.1424     4.258635     4.258635     4.258635   -1541.1424   -27482.517     -8442.74     31301.83    21211.839    10790.022    8167.0054    77.234488 
   20500    1132.0102   -106.92199    1.0242666   -105.89772    9818.8397    4.2544576    4.2544576    4.2544576    9818.8397   -18705.536   -4507.0964    52669.152   -11616.953   -3175.9972    1872.8754    77.007425 
   20600    923.94902   -106.74748   0.83600849   -105.91147     4550.439    4.2550409    4.2550409    4.2550409     4550.439   -41752.832     29496.11     25908.04    11691.299   -50499.306   -5930.5017    77.039102 
   20700     1576.017   -107.33529    1.4260133   -105.90927    11954.368    4.2540488    4.2540488    4.2540488    11954.368   -12125.343   -1379.7337    49368.181    12355.287    14439.365    3389.2447    76.985229 
   20800    1274.8286   -107.07451    1.1534917   -105.92102   -2619.5657    4.2532775    4.2532775    4.2532775   -2619.5657   -10688.275    8695.5266   -5865.9486   -9662.1012   -30371.774    -1813.869    76.943364 
   20900    1223.3967   -107.02637    1.1069551   -105.91942   -1941.3796    4.2574017    4.2574017    4.2574017   -1941.3796   -18687.862    16522.857    -3659.133    10836.046   -43856.845   -2814.6917    77.167401 
   21000     1472.598   -107.24114    1.3324376    -105.9087    9140.7755    4.2574244    4.2574244    4.2574244    9140.7755   -2865.8435    13668.761    16619.409    5089.6996    10735.621   -532.21493    77.168639 
   21100    612.74362   -106.47034    0.5544233   -105.91591   -15126.284     4.264719     4.264719     4.264719   -15126.284   -38463.221     28178.67   -35094.301   -4802.6339    -46922.73    4340.7605    77.565979 
   21200     1450.683   -107.21637    1.3126085   -105.90376    16123.799    4.2595161    4.2595161    4.2595161    16123.799    3851.4521    25629.761    18890.184    8410.9395    1164.1843   -8236.2548    77.282434 
   21300    1384.7842   -107.15812    1.2529818   -105.90514     26263.61    4.2481504    4.2481504    4.2481504     26263.61     16484.86    50465.728    11840.241    8486.7236   -12831.769   -11852.568    76.665445 
   21400    853.51761   -106.69745   0.77228067   -105.92517   -4639.9237    4.2570383    4.2570383    4.2570383   -4639.9237   -21185.483    18464.756   -11199.044   -6801.1844   -42019.108    2962.7288    77.147647 
   21500    1608.9579   -107.36578     1.455819   -105.90996    7823.0492    4.2610865    4.2610865    4.2610865    7823.0492   -297.61769   -9266.7104    33033.476   -1880.3143    23954.294    -12365.91    77.367942 
   21600    833.94937   -106.67022   0.75457492   -105.91565    12173.528    4.2511264    4.2511264    4.2511264    12173.528   -16898.106    42821.649    10597.041    6818.9489   -28358.395   -8400.5116    76.826677 
   21700     731.5285   -106.58167   0.66190236   -105.91977     -4988.08    4.2574082    4.2574082    4.2574082     -4988.08   -31067.353    21305.574   -5202.4608   -8611.6508   -22705.871    9763.2486    77.167756 
   21800    1559.2671   -107.31706    1.4108577    -105.9062    6794.4738    4.2571996    4.2571996    4.2571996    6794.4738    25410.274   -13885.234    8858.3806    -6892.387     23037.05   -21914.924    77.156416 
   21900    1151.1374   -106.95495    1.0415733   -105.91338    1570.2865    4.2560205    4.2560205    4.2560205    1570.2865    2147.5474    31093.845   -28530.533    9239.0264   -35397.668   -2077.3426    77.092326 
   22000    1207.9245   -107.00408    1.0929555   -105.91112   -5742.2166    4.2599784    4.2599784    4.2599784   -5742.2166   -2005.8453    4224.0616   -19444.866   -18998.492   -14525.752    6782.7058    77.307603 
   22100    1427.4728   -107.19846    1.2916074   -105.90685   -903.13811    4.2513523    4.2513523    4.2513523   -903.13811    3631.6914     1917.371   -8258.4768   -2786.6589    6356.3282   -26832.134    76.838926 
   22200    949.39555   -106.77878   0.85903304   -105.91975   -11425.394    4.2551881    4.2551881    4.2551881   -11425.394   -50304.248    26260.303   -10232.239    5112.7657   -43530.063    5326.3625      77.0471 
   22300    1188.8069   -106.99328    1.0756575   -105.91762   -5776.5415    4.2550133    4.2550133    4.2550133   -5776.5415   -14469.508    13292.744    -16152.86   -22811.769    -3160.275    11913.041    77.037605 
   22400    1358.7498    -107.1459    1.2294254   -105.91648    4452.2818    4.2551712    4.2551712    4.2551712    4452.2818    7167.8024    4766.3907    1422.6522    -3985.868   -10023.011   -27585.269    77.046179 
   22500     1378.165    -107.1579    1.2469927   -105.91091   -15864.714    4.2638413    4.2638413    4.2638413   -15864.714   -26772.149    17851.884   -38673.875   -3608.8763   -41749.241    6447.4458    77.518094 
   22600    1202.0291   -106.99265    1.0876212   -105.90502   -3367.1635     4.257153     4.257153     4.257153   -3367.1635    12746.635   -5076.0615   -17772.064   -17622.605    10681.856    18828.655    77.153883 
   22700    1310.5691   -107.09069    1.1858305   -105.90486   -11749.805    4.2572998    4.2572998    4.2572998   -11749.805   -17131.182   -7148.2686   -10969.963   -4725.9594   -20440.995   -26924.979    77.161862 
   22800    1305.4709   -107.08348    1.1812175   -105.90226   -12841.098    4.2662794    4.2662794    4.2662794   -12841.098   -26377.914    11267.293   -23412.673     2338.718   -24330.612    16333.306    77.651148 
   22900    1185.0111   -106.97284    1.0722229   -105.90062   -8881.5134    4.2628094    4.2628094    4.2628094   -8881.5134    12482.017   -19446.494   -19680.063   -10391.806     3385.305    17434.827    77.461831 
   23000    1282.5252   -107.06007    1.1604557   -105.89962    3280.6409    4.2544091    4.2544091    4.2544091    3280.6409    16974.154    3982.8644   -11115.096   -3333.1137   -30867.531   -21528.133    77.004793 
   23100    1290.4777   -107.06977    1.1676514   -105.90212     9721.961    4.2587656    4.2587656    4.2587656     9721.961    27107.704    5320.7844   -3262.6056    5434.6153    1825.4003    27213.078    77.241592 
   23200     1009.633   -106.81872   0.91353715   -105.90519   -12935.761    4.2721014    4.2721014    4.2721014   -12935.761    667.81687   -23016.497   -16458.604   -19962.064   -7997.8871     2894.962    77.969485 
   23300    1360.2648   -107.12988    1.2307962   -105.89909    8029.9811    4.2613654    4.2613654    4.2613654    8029.9811   -8217.1479    27658.638    4648.4534   -5572.2838   -18482.364   -9424.4216    77.383136 
   23400    1080.7467   -106.87844   0.97788232   -105.90056    17453.443    4.2459698    4.2459698    4.2459698    17453.443    2405.0835    32215.187    17740.058    13691.167    11756.597     23097.41    76.547444 
   23500    1053.7514   -106.86685   0.95345637    -105.9134   -803.29857    4.2578201    4.2578201    4.2578201   -803.29857   -18936.604    23749.652   -7222.9435   -19317.054   -16478.442    789.87236    77.190155 
   23600    1483.8794   -107.24124    1.3426453    -105.8986    9335.8192    4.2675782    4.2675782    4.2675782    9335.8192   -8137.9833    48539.359   -12393.919    5288.5817    2226.1174    2229.8067    77.722089 
   23700    956.53386    -106.7719   0.86549193    -105.9064   -12615.723    4.2654355    4.2654355    4.2654355   -12615.723    -17056.25   -27815.351     7024.432     13760.36    5730.5579    20440.675    77.605078 
   23800    1376.0917   -107.14981    1.2451167    -105.9047    2091.4123    4.2432438    4.2432438    4.2432438    2091.4123   -21982.718    13637.883    14619.071   -30743.814    -19671.51   -2720.0248    76.400104 
   23900    1311.7459   -107.09559    1.1868953    -105.9087      22928.5    4.2372039    4.2372039    4.2372039      22928.5    23412.627    13943.806    31429.066      19856.1    8600.8844    3808.6053    76.074322 
   24000    884.30832   -106.72094   0.80014075    -105.9208   -35003.596    4.2731289    4.2731289    4.2731289   -35003.596   -27812.614   -67400.495   -9797.6781    9936.1623   -6718.5617    28403.908    78.025753 
   24100    1590.4855    -107.3403    1.4391047    -105.9012    -16830.66    4.2651719    4.2651719    4.2651719    -16830.66   -29732.366   -6612.5449    -14147.07   -20871.963   -10243.978   -1045.7035    77.590691 
   24200    1013.7635   -106.81626   0.91727456   -105.89898    10630.693    4.2317077    4.2317077    4.2317077    10630.693     34440.83   -10711.856    8163.1062    30391.274    8970.0141   -2426.1521    75.778669 
   24300    1115.0669   -106.92956    1.0089359   -105.92062   -3400.8295    4.2440305    4.2440305    4.2440305   -3400.8295     23765.53   -34649.625    681.60604    2250.2468   -1091.0407    32450.245    76.442606 
   24400    1937.3491   -107.66044    1.7529542   -105.90749   -2934.7431    4.2607031    4.2607031    4.2607031   -2934.7431    -10608.86   -10928.142    12732.773    4478.2052    224.17391   -11069.074    77.347058 
   24500    663.40233   -106.52352   0.60026037   -105.92326   -17851.103    4.2611265    4.2611265    4.2611265   -17851.103   -7282.6969   -60416.292     14145.68    40179.485   -5173.3176    7139.0553    77.370125 
   24600    1146.1883   -106.95104    1.0370953   -105.91394   -3663.1323    4.2536145    4.2536145    4.2536145   -3663.1323    14186.344   -21509.769   -3665.9722   -9530.7728    12931.579    24246.089    76.961654 
   24700    1379.3831   -107.15431    1.2480949   -105.90622    23246.198     4.243142     4.243142     4.243142    23246.198     8856.695    10978.693    49903.205    9434.0763    1071.3106   -10885.453    76.394608 
   24800    856.73263     -106.699   0.77518969   -105.92381    -18823.79      4.25224      4.25224      4.25224    -18823.79   -25007.792   -41769.652    10306.074    35715.878    473.87721    17764.583    76.887069 
   24900    1520.2429   -107.28856    1.3755478   -105.91302   -2011.3116    4.2633617    4.2633617    4.2633617   -2011.3116    3681.5486    11765.329   -21480.812   -11473.701    13525.126    8035.0984    77.491941 
   25000     1402.596   -107.17946    1.2690983   -105.91036   -175.90383    4.2540651    4.2540651    4.2540651   -175.90383   -30924.188   -7225.1449    37621.621    11354.875   -11148.967   -792.69537    76.986115 
   25100    987.63011   -106.80695   0.89362848   -105.91332    944.71167    4.2474784    4.2474784    4.2474784    944.71167   -6995.6573   -16603.343    26433.135    16507.022    5671.1194    18573.019    76.629067 
   25200    1671.2143    -107.4165    1.5121498   -105.90435   -2663.1111    4.2526371    4.2526371    4.2526371   -2663.1111   -31203.665    18819.204    4395.1274   -6488.1724    1566.9972    369.61593    76.908612 
   25300    662.55489   -106.52471   0.59949359   -105.92522   -14823.941    4.2557321    4.2557321    4.2557321   -14823.941   -46589.143   -36238.568    38355.889    23325.147   -7539.5735    2289.5295    77.076653 
   25400    1128.4861   -106.94328    1.0210779    -105.9222    5362.4146    4.2493846    4.2493846    4.2493846    5362.4146    2596.4527   -4711.7728    18202.564    9930.7139    -2750.021    15235.986    76.732285 
   25500     1804.547    -107.5443     1.632792   -105.91151    3716.4919    4.2525955    4.2525955    4.2525955    3716.4919   -24556.384    28330.707    7375.1526    1729.1017   -2063.9282   -826.61648    76.906356 
   25600    719.92768   -106.57971   0.65140569    -105.9283    -12773.13    4.2568792    4.2568792    4.2568792    -12773.13    -35052.45   -32178.812    28911.872    22195.267    1343.1021    5765.4225    77.138996 
   25700    1589.0763   -107.34626    1.4378296   -105.90843    13881.007    4.2512137    4.2512137    4.2512137    13881.007   -13900.508    44395.533    11147.995   -9337.9386   -901.71282    12918.052    76.831411 
   25800    1100.3466   -106.90771   0.99561671    -105.9121   -14327.444    4.2577916    4.2577916    4.2577916   -14327.444   -55603.697    7771.8659    4849.5008    11264.866    12094.791   -4250.4233    77.188606 
   25900    626.05917   -106.48878   0.56647149    -105.9223   -31250.774    4.2518342    4.2518342    4.2518342   -31250.774   -83454.742   -44518.714    34221.134    16934.952   -3613.9451   -1271.5594    76.865061 
   26000    1741.6206   -107.48352    1.5758549   -105.90766     28113.15    4.2368075    4.2368075    4.2368075     28113.15    8634.7989    51150.032    24554.618   -13913.069     -655.783    5324.9012    76.052972 
   26100    1012.1215   -106.84351   0.91578877   -105.92772   -9769.6772    4.2573858    4.2573858    4.2573858   -9769.6772   -28000.021   -204.07225   -1104.9389    27693.859    11345.599   -7978.9076    77.166541 
   26200     1220.685   -107.02476    1.1045014   -105.92026   -28920.987    4.2619138    4.2619138    4.2619138   -28920.987   -51688.984    -45855.26    10781.284    10186.086   -12146.974    655.83274    77.413016 
   26300    1539.0456    -107.2946    1.3925608   -105.90204    25459.457    4.2453791    4.2453791    4.2453791    25459.457    17906.246    63118.254   -4646.1282   -10514.554     4163.934   -3086.7813    76.515503 
   26400    770.74325   -106.61631   0.69738469   -105.91892   -25235.966    4.2513675    4.2513675    4.2513675   -25235.966   -39055.802   -33425.373   -3226.7237    36307.967    3330.8907    -18698.14    76.839752 
   26500    1019.5116   -106.83881   0.92247553   -105.91634   -12078.882    4.2537984    4.2537984    4.2537984   -12078.882   -58330.808    52.306939    22041.855      1087.47   -11096.414     3297.411    76.971637 
   26600    1434.1593   -107.20936    1.2976575    -105.9117   -7282.2664    4.2580872    4.2580872    4.2580872   -7282.2664   -22857.871    9605.3123   -8594.2409   -188.86055    795.61409    -4713.341    77.204685 
   26700    863.28799   -106.70465   0.78112111   -105.92353   -17168.188    4.2558499    4.2558499    4.2558499   -17168.188   -6027.6812   -58955.516    13478.633    47252.405   -6461.2978   -16514.936     77.08305 
   26800     1763.179   -107.50206    1.5953614    -105.9067     20984.76    4.2418706    4.2418706    4.2418706     20984.76    16330.446    10820.847    35802.986   -7724.1571   -6110.2958    4130.0684    76.325958 
   26900    1067.6994   -106.88499   0.96607682   -105.91891    -1243.233    4.2577762    4.2577762    4.2577762    -1243.233    21399.879   -28536.165    3406.5866    14172.488    -7091.285   -5765.4283    77.187769 
   27000    618.13901   -106.48059   0.55930517   -105.92128   -22916.325     4.261112     4.261112     4.261112   -22916.325   -13880.919   -71096.094     16228.04    49188.181    4122.3375   -16305.707    77.369332 
   27100    1530.8527   -107.28776    1.3851477   -105.90261    22551.474    4.2429355    4.2429355    4.2429355    22551.474    13108.981    23459.698    31085.743   -15706.275   -11485.514    2785.4927    76.383455 
   27200    965.01331   -106.79856   0.87316433   -105.92539   -16793.079    4.2536989    4.2536989    4.2536989   -16793.079   -8512.8844   -42861.603    995.25029    25535.155   -13608.116   -3900.5565    76.966235 
   27300    860.57949    -106.7047    0.7786704   -105.92603   -5410.2024    4.2581692    4.2581692    4.2581692   -5410.2024    1852.6569   -43053.035    24969.771    42844.494    2330.0081   -17333.874    77.209143 
   27400     1789.023   -107.52329    1.6187456   -105.90454    12080.586    4.2507881    4.2507881    4.2507881    12080.586    10677.893    8675.9667    16887.898   -28367.436   -19334.114    2998.7822    76.808336 
   27500    677.24502   -106.53173   0.61278553   -105.91894   -25112.875    4.2599496    4.2599496    4.2599496   -25112.875   -7817.0742    -56486.35   -11035.201    34684.842   -1678.0686   -9433.4743     77.30603 
   27600    948.06127   -106.77138   0.85782576   -105.91356   -1550.2177    4.2490188    4.2490188    4.2490188   -1550.2177    9561.9684   -12925.352   -1287.2696     25717.06   -332.74549   -6810.5875    76.712471 
   27700    1385.9833   -107.16364    1.2540668   -105.90957    17291.183    4.2414568    4.2414568    4.2414568    17291.183   -5027.9316    6170.3719    50731.109   -34684.114   -11743.023   -4455.7471    76.303623 
   27800    1172.4414   -106.98297    1.0608497   -105.92212   -23151.936    4.2624335    4.2624335    4.2624335   -23151.936   -34305.984     -56792.3    21642.475    42503.127    457.75099   -6100.7943    77.441338 
   27900    1387.7604   -107.16609    1.2556748   -105.91041    266.48754    4.2567379    4.2567379    4.2567379    266.48754   -19466.387    2564.9583    17700.891    7720.8573    705.32723   -4980.2791    77.131312 
   28000    1170.6851    -106.9678    1.0592605   -105.90854   -2461.2435    4.2472552    4.2472552    4.2472552   -2461.2435   -24470.631    -108.1951    17195.096   -32361.527    530.13026    7798.5232    76.616985 
   28100    1058.9508   -106.86802   0.95816093   -105.90986   -13010.834    4.2572168    4.2572168    4.2572168   -13010.834   -15803.547   -16021.662    -7207.294    39963.282   -9388.1072    -7556.824    77.157351 
   28200    1013.9372   -106.82418   0.91743169   -105.90675   -3216.6051    4.2560583    4.2560583    4.2560583   -3216.6051   -18445.709    26349.777   -17553.883   -15041.196    9705.4095   -13859.359     77.09438 
   28300    933.64465   -106.75987    0.8447813   -105.91509    116.28172    4.2540549    4.2540549    4.2540549    116.28172   -24548.683    -9755.455    34652.983   -29113.481   -5928.0596    12233.298    76.985558 
   28400    1885.3494   -107.61234    1.7059038   -105.90644     1915.792    4.2502234    4.2502234    4.2502234     1915.792    10898.485   -5408.9071    257.79846     23670.44    -14372.47   -7239.6652    76.777733 
   28500    892.53437   -106.73129   0.80758386   -105.92371    14772.933    4.2450626    4.2450626    4.2450626    14772.933   -32828.289    52268.319    24878.771   -31286.585    25417.865   -2619.1288    76.498393 
   28600    1305.6897   -107.10685    1.1814155   -105.92543   -12769.528     4.257527     4.257527     4.257527   -12769.528   -34117.512   -6440.2665    2249.1934   -24024.688   -8930.7202   -5776.5673    77.174217 
   28700    1656.5193   -107.40849    1.4988535   -105.90964   -4308.3267    4.2607799    4.2607799    4.2607799   -4308.3267    807.71749   -8239.0035   -5493.6942    8084.5917   -4612.3376   -1150.3586    77.351242 
   28800    610.55669   -106.47803   0.55244452   -105.92559   -504.29408    4.2415186    4.2415186    4.2415186   -504.29408   -40363.799    52000.455   -13149.539   -36139.846    31991.298    3746.3924    76.306955 
   28900    1178.7774   -106.99056    1.0665825   -105.92398     24704.47    4.2423857    4.2423857    4.2423857     24704.47    10818.702    24399.309      38895.4   -12163.738    -8214.192   -2656.8662    76.353765 
   29000    1449.9214   -107.22812    1.3119193    -105.9162   -2844.5158     4.262808     4.262808     4.262808   -2844.5158   -3751.6073   -17192.283    12410.343    5655.1314    2177.4669    14110.468    77.461753 
   29100    792.53447   -106.64156   0.71710185   -105.92446   -10522.175    4.2566687    4.2566687    4.2566687   -10522.175   -55557.613    20001.737    3989.3509   -36344.224    30223.219   -2943.3406    77.127552 
   29200    1744.4367   -107.48524     1.578403   -105.90683    18686.485    4.2463487    4.2463487    4.2463487    18686.485    7055.0243    26479.143    22525.288    1340.1908   -4018.8495    10139.105    76.567939 
   29300    1215.2198   -107.02115    1.0995565   -105.92159   -12824.842    4.2523921    4.2523921    4.2523921   -12824.842   -33297.025    -21200.93    16023.429    1071.3255    6088.4245    7228.4032    76.895318 
   29400    956.30606   -106.79162   0.86528582   -105.92633   -6640.5019    4.2445469    4.2445469    4.2445469   -6640.5019   -50103.347    27097.817     3084.025   -37031.991    37083.294    5715.9417    76.470511 
   29500    1640.2727   -107.40281    1.4841532   -105.91866    13460.975    4.2511453    4.2511453    4.2511453    13460.975    8458.9443    24809.029    7114.9516    9943.3769   -6046.6012    27.411488    76.827702 
   29600     1030.397   -106.85685   0.93232484   -105.92453   -35418.804    4.2600726    4.2600726    4.2600726   -35418.804   -44660.337   -37491.993   -24104.083   -12002.142    8175.7203    5598.4294    77.312731 
   29700    919.14191   -106.75389   0.83165892   -105.92223   -3786.4856    4.2393351    4.2393351    4.2393351   -3786.4856   -32821.499    10168.583     11293.46   -26403.905    29668.977    7177.6943    76.189169 
   29800     1266.596   -107.06838    1.1460427   -105.92234    6714.9325    4.2476956    4.2476956    4.2476956    6714.9325   -10774.235    33397.495   -2478.4626    11329.062    -30111.02   -10174.431    76.640823 
   29900    1039.9613   -106.86249   0.94097885   -105.92151   -29910.104    4.2628571    4.2628571    4.2628571   -29910.104   -55747.223   -38277.515     4294.426   -25837.946   -981.49509    13689.306    77.464427 
   30000    1430.8123   -107.20726    1.2946291   -105.91263    6754.3067    4.2446506    4.2446506    4.2446506    6754.3067   -31581.295      15952.8    35891.415   -11641.477    13731.823   -93.803158    76.476116 
   30100    1197.4584   -107.00104    1.0834856   -105.91756   -6646.0894    4.2539914    4.2539914    4.2539914   -6646.0894   -14654.016    15797.015   -21081.268    6446.9873   -31268.143   -9163.6855    76.982111 
   30200    1190.1543   -106.99324    1.0768766   -105.91636    -22843.22    4.2596751    4.2596751    4.2596751    -22843.22   -20383.893   -29119.934   -19025.833   -27557.823   -1380.6445    23004.899    77.291089 
   30300    1443.8421   -107.21582    1.3064186   -105.90941    18680.248    4.2410519    4.2410519    4.2410519    18680.248    16703.152    33360.338    5977.2536   -13795.299    3426.0306   -7066.5524     76.28177 
   30400     1096.584   -106.91329   0.99221221   -105.92107   -1035.9577    4.2514204    4.2514204    4.2514204   -1035.9577    13045.939    4255.0845   -20408.896    7828.0934   -20839.674   -9134.8427    76.842621 
   30500    894.94138   -106.72943   0.80976177   -105.91967    -4695.156    4.2562736    4.2562736    4.2562736    -4695.156   -16235.737   -13294.256    15444.525   -24931.123    1208.1242    26991.594    77.106075 
   30600    1380.2542   -107.15984     1.248883   -105.91096    11956.984    4.2457315    4.2457315    4.2457315    11956.984    4361.3988    10127.828    21381.726    277.55929    3235.6465   -8247.7247    76.534557 
   30700    1193.9794   -106.99777    1.0803376   -105.91743   -9172.3608    4.2540832    4.2540832    4.2540832   -9172.3608    8958.9702   -11004.239   -25471.813    7587.0966   -18233.603   -8682.5553    76.987097 
   30800    1299.8226    -107.0929    1.1761068    -105.9168   -4705.0656    4.2523318    4.2523318    4.2523318   -4705.0656    4071.5024   -19565.956     1379.257   -24487.943   -175.22697    24232.249    76.892051 
   30900    1243.2264   -107.03711    1.1248973   -105.91221    16676.515    4.2457809    4.2457809    4.2457809    16676.515    28518.514    3472.1457    18038.885    23481.247   -10249.224   -8098.4048     76.53723 
   31000    1084.4494   -106.90308   0.98123263   -105.92185   -13995.324    4.2551719    4.2551719    4.2551719   -13995.324    28479.459    -32108.18   -38357.253    8035.8626   -8134.6576    7609.5691     77.04622 
   31100    1296.2887   -107.08639    1.1729093   -105.91348    11391.015    4.2516981    4.2516981    4.2516981    11391.015    37163.082    4886.0245   -7876.0625   -18404.051    4667.7461    23048.796    76.857678 
   31200    1020.9456   -106.84254     0.923773   -105.91877    1144.7128    4.2493804    4.2493804    4.2493804    1144.7128    1588.5994   -10539.261    12384.801    31859.382   -14690.608   -16159.737    76.732058 
   31300    921.63089   -106.75864   0.83391099   -105.92473   -19977.121    4.2561204    4.2561204    4.2561204   -19977.121   -15406.112     -15515.8    -29009.45    1838.6988   -9202.6328     15979.17    77.097755 
   31400    1750.0649   -107.49193    1.5834955   -105.90843    9576.5665    4.2499799    4.2499799    4.2499799    9576.5665    37272.281   -2641.0532   -5901.5285    1867.1274    53.482549    22921.399    76.764538 
   31500    1002.8929   -106.83035   0.90743854   -105.92291   -9280.2889    4.2530945    4.2530945    4.2530945   -9280.2889    6085.8503    -15056.17   -18870.547    23946.539   -3147.1138   -19068.949    76.933429 
   31600    1014.4288   -106.84084   0.91787648   -105.92297   -20548.201     4.257386     4.257386     4.257386   -20548.201   -3016.5052   -17336.321   -41291.776     1935.442   -16079.925    19528.922    77.166547 
   31700     1659.636   -107.40945    1.5016735   -105.90778    13309.642    4.2497775    4.2497775    4.2497775    13309.642    33140.034   -8502.2299    15291.122   -5808.5408    9842.9618    5294.1533    76.753569 
   31800    965.16541   -106.79731   0.87330194   -105.92401   -14779.079    4.2552787    4.2552787    4.2552787   -14779.079   -7337.4467   -26429.924   -10569.865    20950.609   -10760.869   -11607.767     77.05202 
   31900    1340.6011   -107.13086    1.2130041   -105.91785    2648.4004    4.2503159    4.2503159    4.2503159    2648.4004    10696.373   -389.50493   -2361.6665    5804.6366   -6403.6025    9100.6392    76.782743 
   32000    1169.5405    -106.9762    1.0582248   -105.91797    18947.804    4.2501793    4.2501793    4.2501793    18947.804    48869.262   -7015.5123    14989.663   -33795.617    14590.935   -7556.9217    76.775341 
   32100     1074.442   -106.89098   0.97217767   -105.91881   -17293.897    4.2629713    4.2629713    4.2629713   -17293.897    6132.7954   -14680.398   -43334.089    21001.115   -12244.791   -13881.445    77.470656 
   32200    1095.0314   -106.90324   0.99080739   -105.91243    6280.7675    4.2496379    4.2496379    4.2496379    6280.7675    35237.022   -5708.1407   -10686.579   -18728.262   -9818.2396    3652.4735    76.746007 
   32300    1205.6056   -107.00615    1.0908573    -105.9153     723.9727    4.2461657    4.2461657    4.2461657     723.9727    116.13712   -5201.4026    7257.1836   -41246.566    4663.2781   -8556.4731     76.55804 
   32400    1537.4246   -107.30316    1.3910941   -105.91207   -3602.1526    4.2630009    4.2630009    4.2630009   -3602.1526    18609.357   -10582.057   -18833.759    23992.332   -8633.4062   -6971.3397    77.472266 
   32500    847.93929   -106.68458   0.76723329   -105.91734    1610.0048    4.2601843    4.2601843    4.2601843    1610.0048    5008.4234   -29202.199     29023.79   -49168.911   -2342.3004   -723.81609    77.318809 
   32600    1441.5888   -107.21383    1.3043798   -105.90945    5956.7659    4.2534297    4.2534297    4.2534297    5956.7659    25830.416   -19006.683    11046.564     -14936.4    15542.935   -17402.161    76.951621 
   32700    1338.3036   -107.12189    1.2109253   -105.91096    12887.224    4.2496379    4.2496379    4.2496379    12887.224    44639.006    -2525.775   -3451.5596    2704.4468   -10905.752   -10080.182    76.746003 
   32800    753.47936   -106.60955   0.68176396   -105.92779   -19033.798    4.2536831    4.2536831    4.2536831   -19033.798   -42697.435   -37396.346    22992.388   -65342.577   -8310.6973    1168.9418    76.965375 
   32900    1336.1162   -107.12558     1.208946   -105.91663   -17223.262    4.2615379    4.2615379    4.2615379   -17223.262   -833.77231   -23651.018   -27184.996    17441.106    12613.502    -14385.44    77.392535 
   33000    994.97864   -106.81822   0.90027758   -105.91794   -9649.4664    4.2531958    4.2531958    4.2531958   -9649.4664   -5503.3799   -35438.683    11993.663   -21347.165    2915.8232   -5057.7962     76.93893 
   33100    1176.2576   -106.98182    1.0643026   -105.91752    5985.4816    4.2444558    4.2444558    4.2444558    5985.4816   -13592.966   -10410.468    41959.878   -46063.833    -13392.11    5615.7282    76.465589 
   33200     1626.224    -107.3875    1.4714417   -105.91606   -220.53647    4.2596384    4.2596384    4.2596384   -220.53647    26000.559   -10098.742   -16563.426    28419.373    9440.4911    -3198.462     77.28909 
   33300    988.67027   -106.81597   0.89456964    -105.9214   -9826.0559    4.2632154    4.2632154    4.2632154   -9826.0559   -23509.253   -37687.425     31718.51   -36688.116    9671.0268   -10465.837    77.483965 
   33400    1215.2877   -107.01228    1.0996178   -105.91266    15746.335    4.2473991    4.2473991    4.2473991    15746.335   -5523.8791    14280.873    38482.013   -19036.594   -22700.524     5607.472    76.624775 
   33500    1324.3088    -107.1074    1.1982624   -105.90914     7158.857    4.2529436    4.2529436    4.2529436     7158.857    34411.305    10813.038   -23747.771    14034.066    1019.1351   -7887.1044    76.925242 
   33600    785.36259   -106.62796   0.71061257   -105.91734   -20367.987    4.2643528    4.2643528    4.2643528   -20367.987   -39254.282   -29494.927    7645.2474   -39435.477    -1870.348   -4270.8499    77.545996 
   33700    1098.6375   -106.90604   0.99407031   -105.91197    14434.223    4.2531173    4.2531173    4.2531173    14434.223   -6267.6424    20573.702    28996.611    486.34909   -23558.376    6776.5651    76.934665 
   33800    1329.9832   -107.11165    1.2033967   -105.90825    10508.398    4.2498219    4.2498219    4.2498219    10508.398    39887.459   -20566.683    12204.418    -9255.745   -914.54212   -13001.549    76.755975 
   33900    1236.6273   -107.03596    1.1189264   -105.91704   -10545.962    4.2555761    4.2555761    4.2555761   -10545.962   -30962.733   -25228.368    24553.214   -37432.455   -14148.152    4402.7176    77.068178 
   34000    1604.0205   -107.36263    1.4513514   -105.91128    7163.0698    4.2521541    4.2521541    4.2521541    7163.0698   -18621.905    13753.692    26357.423    8358.0995   -32264.865   -2481.1396    76.882407 
   34100    1076.9719   -106.89142   0.97446678   -105.91696   -1618.9665    4.2573478    4.2573478    4.2573478   -1618.9665    12662.502   -14230.824   -3288.5774    -18599.75    6900.6559   -7365.2533    77.164472 
   34200    1031.3329   -106.84598   0.93317165    -105.9128   -17945.216    4.2590367    4.2590367    4.2590367   -17945.216   -25257.022   -10893.525   -17685.101   -27520.046   -21283.546    1191.2801    77.256343 
   34300     1435.836   -107.20515    1.2991746   -105.90597    18972.707    4.2431557    4.2431557    4.2431557    18972.707   -2856.6536    27983.478    31791.297    7454.8553   -20494.398   -1656.3547    76.395346 
   34400    1164.1646   -106.97484    1.0533606   -105.92148   -9509.9272    4.2513845    4.2513845    4.2513845   -9509.9272    174.55866   -30910.811     2206.471    -28776.87    6648.9358    2436.9152    76.840672 
   34500    1207.4585   -107.01516    1.0925338   -105.92262    -12322.22    4.2604929    4.2604929    4.2604929    -12322.22   -13785.839   -17347.076    -5833.745   -19757.663   -19142.115   -1285.8641    77.335614 
   34600    1513.2898   -107.28367    1.3692564   -105.91441    14818.135    4.2454087    4.2454087    4.2454087    14818.135     713.6662    14293.217    29447.521    21978.494   -9400.0825    2736.5383    76.517102 
   34700    935.62125   -106.76816   0.84656977   -105.92159   -51.288738    4.2526892    4.2526892    4.2526892   -51.288738    13350.231   -10503.764   -3000.3336   -35432.492    3624.7142    5105.1249    76.911441 
   34800    1182.9639    -106.9827    1.0703706   -105.91233   -13721.005    4.2649943    4.2649943    4.2649943   -13721.005   -7349.7088   -12774.211   -21039.094   -3887.3275    638.38425    3091.7536    77.580997 
   34900    1118.4815   -106.92283    1.0120256    -105.9108     19817.42    4.2482412    4.2482412    4.2482412     19817.42    21000.171   -2496.2406    40948.329    34090.506   -4457.3282    149.18989    76.670361 
   35000    1329.2169   -107.11588    1.2027034   -105.91317    13594.484    4.2494211    4.2494211    4.2494211    13594.484    30024.326   -8259.1741      19018.3   -23482.161    5362.5728    11946.339    76.734259 
   35100    1379.9776   -107.15998    1.2486328   -105.91135   -10928.398    4.2617072    4.2617072    4.2617072   -10928.398   -4030.7168   -20427.014   -8327.4624    19762.781    8845.6441    4988.3311    77.401761 
   35200    964.43615   -106.78937    0.8726421   -105.91673    11300.881    4.2499757    4.2499757    4.2499757    11300.881    5017.4557   -867.26033    29752.448    37391.083   -8866.9097   -1890.8693    76.764307 
   35300    1513.6493   -107.27976    1.3695817   -105.91018    1558.7083      4.25384      4.25384      4.25384    1558.7083    32053.978   -7974.2232    -19403.63   -18375.345    1676.3772    10343.122    76.973893 
   35400    944.07829   -106.77417   0.85422188   -105.91994   -31130.066    4.2603734    4.2603734    4.2603734   -31130.066   -43873.651   -26947.396   -22569.151    40999.159    19768.625   -2268.0965    77.329107 
   35500    1062.4426   -106.88111   0.96132035   -105.91979    692.73594    4.2449473    4.2449473    4.2449473    692.73594    1192.2774     4408.415   -3522.4846    24603.841   -3719.6373    5042.0605    76.492159 
   35600    1715.9672   -107.46643    1.5526432   -105.91379     6653.802    4.2554222    4.2554222    4.2554222     6653.802    28108.509   -7011.8895   -1135.2131   -13450.986   -2343.7693    2293.3898    77.059814 
   35700    1044.1482   -106.86351   0.94476726   -105.91874   -23143.421    4.2653274    4.2653274    4.2653274   -23143.421   -53821.486   -12295.802   -3312.9761    34233.479    24528.357    1878.0616    77.599178 
   35800    1360.5052   -107.13668    1.2310137   -105.90567     10891.88    4.2510744    4.2510744    4.2510744     10891.88    5864.5933     28825.27   -2014.2231    908.05752    3018.6496    8717.7742    76.823858 
   35900    1260.5484   -107.04714    1.1405707   -105.90657    26.988911     4.255281     4.255281     4.255281    26.988911    -4694.208    -3185.354    7960.5287   -15152.611    4366.9204     -1254.61    77.052146 
   36000    872.83288   -106.70121   0.78975753   -105.91145   -14106.128    4.2565007    4.2565007    4.2565007   -14106.128   -37521.676    8095.9505   -12892.659    19833.022    23195.913    5216.7264    77.118421 
   36100    1220.2979    -107.0084    1.1041512   -105.90425    7049.4892     4.251417     4.251417     4.251417    7049.4892    28104.796      22748.7   -29705.029   -8152.1847   -1165.8952    3715.3729    76.842436 
   36200    1032.7937   -106.84346   0.93449349   -105.90897   -30374.192    4.2657375    4.2657375    4.2657375   -30374.192   -40627.129   -38328.685   -12166.762   -14122.065    8694.6192     3061.909    77.621562 
   36300    1349.5436   -107.12494    1.2210954   -105.90384   -4043.5439    4.2541854    4.2541854    4.2541854   -4043.5439   -31903.264    10280.609    9492.0229    21643.148    23555.571    2541.2913    76.992647 
   36400      1392.52   -107.16366    1.2599814   -105.90368     9774.204      4.24142      4.24142      4.24142     9774.204    33005.989   -1813.9306    -1869.446   -28346.071   -1810.7204    4993.8671    76.301632 
   36500    1203.2009   -107.00374    1.0886815   -105.91505    -20240.82    4.2593269    4.2593269    4.2593269    -20240.82   -25856.681   -33621.076   -1244.7025   -6416.9986    4756.3666    -8607.183    77.272135 
   36600    1726.3082   -107.46063    1.5619999   -105.89863   -7103.0807    4.2599813    4.2599813    4.2599813   -7103.0807   -26346.454    3358.3803    1678.8319    11686.135    11388.783   -1626.4753    77.307756 
   36700    696.30321    -106.5456   0.63002978   -105.91557   -14306.049    4.2532656    4.2532656    4.2532656   -14306.049    965.66289   -40174.689   -3709.1212   -33534.334   -4231.8349    6764.8357    76.942715 
   36800    1044.1713   -106.86211   0.94478812   -105.91732   -3106.2791    4.2558092    4.2558092    4.2558092   -3106.2791   -623.73585    -23484.69    14789.589    5029.5096    695.39829   -21927.569    77.080842 
   36900    1591.2943   -107.34613    1.4398365    -105.9063    7609.8674    4.2568717    4.2568717    4.2568717    7609.8674   -10133.002   -11347.437    44310.041   -4326.2879    11766.195    5200.1273    77.138586 
   37000    726.91803   -106.58132   0.65773071   -105.92359   -13995.478    4.2591531    4.2591531    4.2591531   -13995.478   -16121.223   -54122.732    28257.521   -29325.775   -12422.552    13273.699    77.262678 
   37100    1741.3326   -107.48097    1.5755943   -105.90537    3606.1073    4.2566622    4.2566622    4.2566622    3606.1073    65.124122   -2576.8535    13330.051    2315.0928    -8415.947   -18160.098    77.127201 
   37200    1295.8472   -107.08148    1.1725098   -105.90897     6848.169    4.2499212    4.2499212    4.2499212     6848.169   -11656.531   -5343.4477    37544.486   -12408.265    15017.638    17119.455    76.761354 
   37300    633.64833   -106.49694   0.57333833    -105.9236   -14849.968    4.2579975    4.2579975    4.2579975   -14849.968    -25137.72    -3044.188   -16367.995   -31323.708   -14588.052    11767.553    77.199807 
   37400    1436.3686   -107.20712    1.2996565   -105.90747    5238.9176    4.2619791    4.2619791    4.2619791    5238.9176   -28180.314    79334.627    -35437.56    5714.9308   -1009.2097   -8855.5358    77.416573 
   37500    931.18307   -106.76018   0.84255401   -105.91762   -10918.529    4.2576719    4.2576719    4.2576719   -10918.529    -43102.61    1522.1164    8824.9066   -14162.088    10539.201    13284.348    77.182096 
   37600    1220.2301     -107.023    1.1040898   -105.91891   -4141.4717    4.2510779    4.2510779    4.2510779   -4141.4717   -34140.595    -488.3034    22204.483   -26139.857    -14633.24    9743.9689    76.824051 
   37700    1832.5202   -107.56387    1.6581027   -105.90577   -415.43512    4.2542026    4.2542026    4.2542026   -415.43512   -35452.763    43235.474   -9029.0165   -583.97492    11033.659    7435.7463    76.993578 
   37800    826.02888   -106.66786   0.74740829   -105.92045    -43270.86     4.264935     4.264935     4.264935    -43270.86   -65237.237   -59413.969   -5161.3742   -25220.731     10211.22    19640.149    77.577763 
   37900     1521.679   -107.28687    1.3768471   -105.91003    3435.4723    4.2500026    4.2500026    4.2500026    3435.4723    1192.6199   -7400.5004    16514.298   -8578.3637   -9065.7944    6830.4537    76.765766 
   38000    1387.5974   -107.16615    1.2555273   -105.91062   -1058.6789    4.2523157    4.2523157    4.2523157   -1058.6789   -1215.4286    28738.971   -30699.579    892.61252    5772.9495   -7057.4576    76.891174 
   38100    589.34469      -106.46   0.53325146   -105.92675   -34436.314    4.2600561    4.2600561    4.2600561   -34436.314   -53216.434   -30940.406   -19152.102    -28595.97    7858.5067    17141.063    77.311829 
   38200    1400.2626   -107.18572     1.266987   -105.91874    23923.451    4.2455879    4.2455879    4.2455879    23923.451    7627.0539    59685.949    4457.3504   -2893.1564   -11293.251    2831.9814    76.526793 
   38300    1279.4991   -107.08494    1.1577177   -105.92722    761.64246    4.2565584    4.2565584    4.2565584    761.64246    5755.3956    24988.833   -28459.301   -2150.5626   -177.83413   -27629.352    77.121556 
   38400    1256.3202   -107.06066     1.136745   -105.92391   -18568.076    4.2605656    4.2605656    4.2605656   -18568.076   -42276.521   -6169.5726   -7258.1347   -26916.759    7939.9766    2996.9328    77.339575 
   38500    1558.6624   -107.32417    1.4103105   -105.91386     7315.036    4.2484948    4.2484948    4.2484948     7315.036   -2448.5915    32004.231    -7610.531    14131.715   -21765.843   -4435.1767    76.684092 
   38600    1339.2548   -107.13103    1.2117859   -105.91924   -9808.7448    4.2543189    4.2543189    4.2543189   -9808.7448    15064.064   -22037.578    -22452.72   -5245.4395   -459.93729   -35770.788    76.999894 
   38700     1034.924   -106.86013   0.93642101   -105.92371   -6794.1161    4.2498124    4.2498124    4.2498124   -6794.1161   -22500.487    11025.693   -8907.5544   -24975.662   -11372.928    6602.1607    76.755461 
   38800    931.86117   -106.77073   0.84316757   -105.92757   -36.115938     4.253028     4.253028     4.253028   -36.115938   -25394.931    45640.389   -20353.805    9124.0112   -31101.724   -4251.0911    76.929821 
   38900    1280.0873   -107.07593    1.1582499   -105.91768   -18877.098     4.264321     4.264321     4.264321   -18877.098   -12299.398   -20796.314   -23535.582    10908.521    8755.8598   -23871.132    77.544263 
   39000     982.5368    -106.8091   0.88901994   -105.92008    6458.6477    4.2455587    4.2455587    4.2455587    6458.6477   -14965.636    42224.368   -7882.7883   -20874.186   -30372.794    8875.7747    76.525216 
   39100    1249.5365   -107.05327    1.1306069   -105.92266     7343.503    4.2451653    4.2451653    4.2451653     7343.503    2179.6651    29595.509   -9744.6646   -2927.5797    -26148.76    3492.0111    76.503945 
   39200    1659.4551   -107.41627    1.5015098   -105.91476   -15377.318    4.2622474    4.2622474    4.2622474   -15377.318   -19901.177   -21399.141   -4831.6362    22813.781    10730.722   -12504.349    77.431193 
   39300    999.12389   -106.82866   0.90402829   -105.92463   -6320.6362    4.2519336    4.2519336    4.2519336   -6320.6362    -33979.68    31926.621   -16908.849    -12705.13   -36389.178    3661.6951    76.870447 
   39400    1205.7794   -107.01161    1.0910145   -105.92059   -3453.7822    4.2475989    4.2475989    4.2475989   -3453.7822   -1515.9547     263.6239   -9109.0158   -29.056778    -11466.38    10249.509    76.635587 
   39500    1058.0917   -106.87945   0.95738365   -105.92207   -7608.9398    4.2508318    4.2508318    4.2508318   -7608.9398   -19412.553   -11125.227    7710.9605    32323.396   -671.40633   -15786.717    76.810707 
   39600    866.15756   -106.71117   0.78371756   -105.92745   -10615.482    4.2483391    4.2483391    4.2483391   -10615.482   -41904.434        19629   -9571.0135    -8142.063   -38517.804    970.85713    76.675661 
   39700    1421.8612   -107.20993    1.2865299    -105.9234   -15943.612    4.2590061    4.2590061    4.2590061   -15943.612   -14960.462   -22619.735   -10250.638       -14214    2874.5088    8157.4965     77.25468 
   39800    1134.5642   -106.95673    1.0265775   -105.93015    -5108.581     4.250185     4.250185     4.250185    -5108.581   -19254.265   -18554.144    22482.666    31893.376   -4569.0465   -11153.814     76.77565 
   39900    1222.7593   -107.03312    1.1063783   -105.92674    17969.958    4.2374967    4.2374967    4.2374967    17969.958    5827.7054    38145.175    9936.9939   -4593.3797   -35759.743   -5171.5279    76.090096 
   40000    1710.8618   -107.47021    1.5480237   -105.92219   -9625.5861    4.2613629    4.2613629    4.2613629   -9625.5861   -10252.839   -16722.153   -1901.7664   -16576.879    7796.4798    13719.093    77.383001 
   40100    961.65657   -106.79999   0.87012708   -105.92987   -15627.737    4.2565417    4.2565417    4.2565417   -15627.737   -30244.416   -11013.703   -5625.0911    27137.897   -14286.999   -3816.4826    77.120649 
   40200    681.86022   -106.54199   0.61696146   -105.92503    28668.705    4.2348391    4.2348391    4.2348391    28668.705    30989.788     43587.81    11428.517    4838.6902   -25617.873   -28437.055    75.947022 
   40300    1562.7677   -107.33451     1.414025   -105.92048   -963.74973     4.253383     4.253383     4.253383   -963.74973   -6180.8468   -2315.4028    5605.0004   -18318.588    11567.549    5734.9333    76.949087 
   40400    934.13069   -106.77424   0.84522108   -105.92902    -5070.837    4.2559113    4.2559113    4.2559113    -5070.837   -19160.005    18010.096   -14062.603    15497.107   -24138.385    1306.1695     77.08639 
   40500    901.97249   -106.74664   0.81612367   -105.93051    15259.831    4.2481047    4.2481047    4.2481047    15259.831    15134.023    27761.537    2883.9343    11018.724   -17491.439   -32963.294    76.662968 
   40600    1867.6138   -107.60581    1.6898562   -105.91595    2442.9227    4.2572481    4.2572481    4.2572481    2442.9227   -9862.4468    11051.601    6139.6141   -12846.458    11131.295    3718.9432    77.159052 
   40700    1202.7005   -107.01709    1.0882287   -105.92887   -5855.5474    4.2456335    4.2456335    4.2456335   -5855.5474   -21616.546     29597.05   -25547.146    5989.5616    -29300.34   -9442.4969     76.52926 
   40800    921.35342   -106.76876   0.83365994    -105.9351   -6259.7955    4.2436086    4.2436086    4.2436086   -6259.7955   -592.01052   -11453.652   -6733.7236    19902.657   -8064.6415   -40859.432     76.41981 
   40900    1737.3642   -107.49379    1.5720036   -105.92179   -11477.888    4.2610507    4.2610507    4.2610507   -11477.888   -20210.266   -3804.7462   -10418.651   -2031.8498    3938.7277    12326.803    77.365996 
   41000    949.57918   -106.79189   0.85919919   -105.93269     -9910.44    4.2525024    4.2525024    4.2525024     -9910.44   -23460.498     16386.11   -22656.932    6140.2815   -28168.478   -16298.594    76.901305 
   41100    729.08842   -106.59333   0.65969452   -105.93364    3025.1609    4.2469318    4.2469318    4.2469318    3025.1609   -3070.7598   -6664.4251    18810.668    20348.441   -4349.2413   -40228.702    76.599489 
   41200    1974.1338   -107.69621    1.7862378   -105.90997   -5361.6282    4.2618832    4.2618832    4.2618832   -5361.6282   -15939.467    5606.4115   -5751.8296   -2513.1319    3739.4223    15048.038    77.411348 
   41300    1022.1486   -106.84777   0.92486153   -105.92291    -4304.032    4.2550411    4.2550411    4.2550411    -4304.032    4436.5557     9311.125   -26659.777    7669.9267   -20356.166   -25343.252    77.039116 
   41400    1042.7549   -106.87078   0.94350655   -105.92727     8873.314    4.2491391    4.2491391    4.2491391     8873.314    14338.758    15890.069   -3608.8858     20652.47   -2592.4892    -27799.63    76.718983 
   41500    1771.9128   -107.51785     1.603264   -105.91458    8613.3568    4.2576612    4.2576612    4.2576612    8613.3568   -18499.799    43139.814    1200.0553   -2849.6572    2063.6198    17034.133    77.181513 
   41600     761.7012   -106.61722   0.68920326   -105.92802    3247.8165    4.2549004    4.2549004    4.2549004    3247.8165   -16377.529    35237.904   -9116.9251    2766.5054   -13587.241   -33673.271    77.031471 
   41700    741.05785   -106.59807   0.67052472   -105.92754    1094.9554     4.259283     4.259283     4.259283    1094.9554   -13136.049    2170.6504    14250.265    17735.796    2234.0581   -15550.529    77.269746 
   41800    1613.4355   -107.37183    1.4598703   -105.91196    5385.2031    4.2535582    4.2535582    4.2535582    5385.2031   -21631.601    21873.311      15913.9   -1531.2399    8814.4419    12760.681    76.958598 
   41900     1101.647   -106.92272   0.99679336   -105.92593   -3517.1772    4.2405414    4.2405414    4.2405414   -3517.1772     15974.12   -18466.053   -8059.5988    2958.8726   -11838.375   -46121.757    76.254226 
   42000    1072.9351   -106.91099   0.97081422   -105.94017       -12317    4.2503307    4.2503307    4.2503307       -12317   -1622.6058   -35055.437   -272.95613    26221.616    7824.1007   -16022.211    76.783549 
   42100    1888.9578   -107.62927    1.7091687    -105.9201    -4872.153    4.2609007    4.2609007    4.2609007    -4872.153   -4234.9202   -9235.2787   -1146.2602   -13128.025   -464.24488    5112.6642    77.357826 
   42200    1014.3501   -106.83832   0.91780526   -105.92052    -22983.01    4.2652303    4.2652303    4.2652303    -22983.01    206.53059   -43751.403   -25404.158    8269.9523   -11971.249   -47472.501    77.593879 
   42300    969.96375   -106.78933   0.87764359   -105.91169   -3802.1049    4.2523023    4.2523023    4.2523023   -3802.1049   -20243.351    3425.5052    5411.5309    22407.126    8372.1967    987.48295    76.890449 
   42400    1333.1118   -107.11219    1.2062275   -105.90597    22458.695    4.2323543    4.2323543    4.2323543    22458.695     11198.73    31610.957    24566.396   -20411.778    1620.9306   -4217.8214    75.813413 
   42500    748.81196    -106.6095   0.67754079   -105.93196   -5343.0452    4.2533008    4.2533008    4.2533008   -5343.0452   -20284.227    13878.718   -9623.6269    10188.685   -4504.9832   -41808.429    76.944627 
   42600    1392.3022   -107.17586    1.2597843   -105.91608   -24579.252    4.2672872    4.2672872    4.2672872   -24579.252   -42172.943   -832.78545   -30732.027    14726.755   -7942.0402    9474.4149    77.706191 
   42700    1142.5221   -106.94875     1.033778   -105.91497    15681.884    4.2453565    4.2453565    4.2453565    15681.884    34287.055    28215.206   -15456.608   -12595.549     2143.904   -4468.5272    76.514279 
   42800    1160.9599   -106.97021    1.0504609   -105.91974   -1495.9035    4.2412729    4.2412729    4.2412729   -1495.9035    22062.739   -11970.913   -14579.537   -5662.4745   -6436.9268   -38204.612    76.293698 
   42900    1764.9569   -107.51285    1.5969701   -105.91588    13531.249    4.2473504    4.2473504    4.2473504    13531.249    -1974.965    43960.687   -1391.9754    1630.8792   -15448.484    11249.817    76.622141 
   43000    991.21378   -106.82909   0.89687106   -105.93221   -6003.3854    4.2572456    4.2572456    4.2572456   -6003.3854    22526.678   -9256.4495   -31280.384   -3337.9407    5142.3188    -10946.06    77.158915 
   43100    876.52377   -106.71813   0.79309713   -105.92504   -19879.536    4.2581035    4.2581035    4.2581035   -19879.536   -8407.9042   -3836.4009   -47394.304    -8040.502   -17273.047   -34338.972    77.205573 
   43200    1529.7001   -107.29635    1.3841048   -105.91224    10158.891    4.2401789    4.2401789    4.2401789    10158.891   -14029.901    56966.515   -12459.942    10211.478   -15878.464    14766.931    76.234671 
   43300    825.14776   -106.67424   0.74661104   -105.92763   -825.55672    4.2419978    4.2419978    4.2419978   -825.55672    37555.415   -1489.9164   -38542.169    -8359.191    5156.6127   -27496.666    76.332822 
   43400    875.92912   -106.72213   0.79255908   -105.92957   -20034.735    4.2558762    4.2558762    4.2558762   -20034.735    3010.6412   -19215.917   -43898.929   -6195.2869    -22907.29   -23377.168    77.084481 
   43500    1549.0619     -107.317    1.4016237   -105.91537     -3253.15    4.2532901    4.2532901    4.2532901     -3253.15   -13421.282    6428.4406   -2766.6083    28951.459   -6137.3854     8382.263    76.944046 
   43600    1304.7676   -107.10053    1.1805811   -105.91995   -17262.895    4.2505915    4.2505915    4.2505915   -17262.895    21394.194   -38336.676   -34846.204   -2817.2022    3349.5682   -31004.264     76.79768 
   43700    1233.1718   -107.03538    1.1157997   -105.91958   -1222.4696    4.2447313    4.2447313    4.2447313   -1222.4696    4575.6099    3950.6044   -12193.623   -9542.0025   -25909.204   -5101.2783     76.48048 
   43800    1287.2374   -107.08736    1.1647194   -105.92264    3269.2092    4.2447805    4.2447805    4.2447805    3269.2092    -8043.806    4302.4201    13549.013    32978.944    -8887.534    2238.2179    76.483139 
   43900    1075.7872   -106.89904   0.97339483   -105.92565   -4619.5491    4.2569331    4.2569331    4.2569331   -4619.5491     16335.06    6399.0923   -36592.799   -5174.2031    3008.8725   -32947.952    77.141928 
   44000     981.9402   -106.80808   0.88848013    -105.9196   -3211.5217    4.2521463    4.2521463    4.2521463   -3211.5217     9576.612    16136.009   -35347.186   -6213.8645   -13050.198   -5726.4214    76.881986 
   44100     725.5415   -106.57746    0.6564852   -105.92097    9466.4658    4.2481678    4.2481678    4.2481678    9466.4658   -369.89077    4297.8023    24471.486    39129.161   -6181.5073    2028.4858    76.666388 
   44200    1361.7156   -107.14603    1.2321089   -105.91392    438.71293    4.2540547    4.2540547    4.2540547    438.71293    17635.283   -1134.8124   -15184.332     -11440.2    2568.9933   -28500.188     76.98555 
   44300    1218.1872   -107.02173    1.1022414   -105.91949    -6369.302    4.2499394    4.2499394    4.2499394    -6369.302   -16290.268    6574.5809    -9392.219    1526.9191   -7691.0208   -2315.9107     76.76234 
   44400    1148.2598   -106.96834    1.0389696   -105.92937    -6761.007    4.2473789    4.2473789    4.2473789    -6761.007   -41810.425   -13676.037    35203.441    57693.184   -3188.4321    7475.6007    76.623679 
   44500    2005.1235    -107.7293    1.8142779   -105.91503    6760.4159    4.2486483    4.2486483    4.2486483    6760.4159    797.99646    14302.246    5181.0049   -14587.595    2849.9078   -15024.964    76.692404 
   44600    926.82598   -106.76843   0.83861163   -105.92982   -24963.117    4.2565721    4.2565721    4.2565721   -24963.117   -51489.676    -23791.18    391.50645    25775.226   -17063.932    8113.5371      77.1223 
   44700    955.03997   -106.79042   0.86414023   -105.92628   -15587.102    4.2517782    4.2517782    4.2517782   -15587.102    -33225.87   -5472.6751   -8062.7611    45570.295   -3474.1753    7504.7129     76.86202 
   44800    1673.5463   -107.42538    1.5142599   -105.91112    12674.229     4.242572     4.242572     4.242572    12674.229    5606.3355    35227.245    -2810.895   -15380.242    11568.545   -13150.354    76.363823 
   44900    490.12662   -106.37462   0.44347687   -105.93115   -4375.2618    4.2498518    4.2498518    4.2498518   -4375.2618    -37817.65    -2402.649    27094.513    42008.142   -13953.823    7508.4885    76.757593 
   45000    1084.9543   -106.90719   0.98168946    -105.9255   -14447.071    4.2587085    4.2587085    4.2587085   -14447.071   -20972.705    4387.6796   -26756.189    15170.775     1252.742    6423.6922    77.238485 
   45100    1527.5769   -107.29543    1.3821837   -105.91325    10809.131    4.2481808    4.2481808    4.2481808    10809.131    9048.7682    43725.496    -20346.87   -3155.3315    20873.171   -4425.2982    76.667087 
   45200    1066.0232   -106.88565   0.96456022   -105.92109    3897.4512    4.2471527    4.2471527    4.2471527    3897.4512   -20379.894    11678.863    20393.385    43707.127   -6282.7615    1591.4946    76.611443 
   45300    1599.9254   -107.36066    1.4476462   -105.91301   -5453.5135    4.2568598    4.2568598    4.2568598   -5453.5135   -8636.0921    830.38932   -8554.8378   -7330.8232    8119.7395    4929.5046    77.137942 
   45400    1134.1644   -106.94133    1.0262158   -105.91512     8186.246    4.2480464    4.2480464    4.2480464     8186.246    17487.591    12869.942   -5798.7953    5834.0222    17847.998    2718.4406    76.659812 
   45500    956.91004   -106.78759   0.86583232   -105.92176   -10203.393    4.2445594    4.2445594    4.2445594   -10203.393   -28555.608   -9733.1564    7678.5852    39230.572   -19589.962   -1092.7756    76.471187 
   45600    1177.2336   -106.98378    1.0651857   -105.91859    7689.0605    4.2471993    4.2471993    4.2471993    7689.0605    14098.552    9351.8782   -383.24842   -5105.5115   -738.23534    8953.2072    76.613963 
   45700    1163.6126   -106.97458    1.0528611   -105.92172   -8048.5737    4.2497096    4.2497096    4.2497096   -8048.5737    1401.6694   -11040.211   -14507.179    12876.554    18721.478    3918.5324    76.749892 
   45800    942.51069   -106.77741   0.85280348   -105.92461   -22646.763     4.257229     4.257229     4.257229   -22646.763   -39148.729   -18252.255   -10539.304     38363.93   -30284.131   -4027.8354    77.158016 
   45900    1843.6786   -107.57802    1.6681992   -105.90982   -6185.8504    4.2496916    4.2496916    4.2496916   -6185.8504   -3002.9591    608.00912   -16162.601   -14400.804   -7442.4377    10313.073    76.748915 
   46000    1420.4084   -107.20331    1.2852154    -105.9181     2171.224    4.2416732    4.2416732    4.2416732     2171.224   -8275.6849   -9486.3201    24275.677    23806.033    14488.056   -3692.4287    76.315298 
   46100    932.80542   -106.77152   0.84402195    -105.9275   -18203.863    4.2520047    4.2520047    4.2520047   -18203.863   -48529.412   -2599.8013   -3482.3763    35382.799   -36259.494    354.12941    76.874305 
   46200    1512.3011   -107.28333    1.3683618   -105.91497    -5356.611    4.2548878    4.2548878    4.2548878    -5356.611   -4953.4245    8100.5821   -19216.991   -22980.838    -8378.406    8960.6879    77.030786 
   46300     826.5302   -106.66961    0.7478619   -105.92174   -1874.1067    4.2503295    4.2503295    4.2503295   -1874.1067   -27425.495   -8723.4269    30526.602    35313.666    4533.9146   -7042.9747    76.783479 
   46400     945.8437   -106.77835   0.85581926   -105.92253   -15889.177    4.2463188    4.2463188    4.2463188   -15889.177   -39342.028    18577.791   -26903.292    25916.792   -40316.081    4836.8907    76.566322 
   46500    1475.1509    -107.2519    1.3347475   -105.91715    12712.161    4.2443202    4.2443202    4.2443202    12712.161    11671.091    26941.602   -476.21068   -26728.946    1851.3466   -7201.4346    76.458263 
   46600    1162.2641   -106.97639     1.051641   -105.92475   -7763.5307    4.2526221    4.2526221    4.2526221   -7763.5307   -44248.215    3516.1511    17441.472    40603.725   -4898.1871    6590.2473      76.9078 
   46700    1279.8711   -107.07937    1.1580543   -105.92132   -1774.2859    4.2575702    4.2575702    4.2575702   -1774.2859   -25613.552    20919.395   -628.70117    8443.1753   -29122.057   -2075.6238    77.176564 
   46800    1495.9635   -107.26479    1.3535792   -105.91121    3223.0559    4.2484665    4.2484665    4.2484665    3223.0559   -8689.0003    13656.498    4701.6699   -15428.567    18409.482   -10188.053    76.682556 
   46900    826.75724   -106.66708   0.74806732   -105.91901    4637.5418    4.2442158    4.2442158    4.2442158    4637.5418    -35922.35    12038.586    37796.389    44927.381   -7909.6504    17085.022     76.45262 
   47000    1168.3623   -106.97282    1.0571588   -105.91566   -6411.2557    4.2530193    4.2530193    4.2530193   -6411.2557   -6796.2638     16357.08   -28794.583   -5009.2217   -15138.769   -20529.194    76.929347 
   47100    1050.1808   -106.86625   0.95022569   -105.91602   -9519.6773    4.2570813    4.2570813    4.2570813   -9519.6773   -20139.648   -5395.5299   -3023.8544    834.57031    12843.353    317.77636    77.149983 
   47200     1221.145   -107.01952    1.1049176   -105.91461   -14479.145    4.2534368    4.2534368    4.2534368   -14479.145   -42304.478   -4810.1645    3677.2069     34639.69   -6093.7024    8793.9119    76.952006 
   47300    1587.8913   -107.35009    1.4367574   -105.91334     2741.235    4.2413308    4.2413308    4.2413308     2741.235   -387.67755    9415.4425    -804.0601     -7958.98   -13815.686   -34807.602    76.296821 
   47400    1319.4828   -107.11405    1.1938958   -105.92015    1819.4594    4.2445465    4.2445465    4.2445465    1819.4594   -23105.157    5357.3739    23206.161    17829.353      6949.64    4441.8369    76.470494 
   47500    1164.6611   -106.97039    1.0538098   -105.91658   -17633.674    4.2642006    4.2642006    4.2642006   -17633.674   -44504.906    -14136.13     5740.015    26169.654    6130.7931    -2259.603    77.537692 
   47600    1113.2555   -106.92052     1.007297   -105.91323   -12059.458    4.2540293    4.2540293    4.2540293   -12059.458    8076.7259   -2648.4698   -41606.631   -11193.268   -12027.588   -38660.315    76.984172 
   47700     1123.181   -106.92509    1.0162778   -105.90881    4571.1544    4.2359822    4.2359822    4.2359822    4571.1544   -16306.099     37949.37   -7929.8072    26220.744    3656.2661    2837.1686     76.00854 
   47800    1171.5461   -106.98015    1.0600395   -105.92012   -3310.9599     4.246442     4.246442     4.246442   -3310.9599   -21872.421    19393.332   -7453.7901     18303.32    5788.7716   -8615.2161    76.572985 
   47900    1208.9134   -107.01685    1.0938502     -105.923     -9563.57    4.2575488    4.2575488    4.2575488     -9563.57    5175.9726    12272.208   -46138.891   -12240.257   -8306.6032   -34934.487    77.175405 
   48000    1455.1928   -107.22972     1.316689   -105.91303    4473.0864    4.2535128    4.2535128    4.2535128    4473.0864   -25624.026     20663.54    18379.745    23047.309    8292.5768    4157.6753     76.95613 
   48100    1144.1318   -106.95243    1.0352345   -105.91719   -8903.3405    4.2472636    4.2472636    4.2472636   -8903.3405   -6134.9301   -11362.071   -9213.0208    2931.2182   -4069.3238   -27439.491    76.617443 
   48200    812.12642   -106.65814   0.73482906   -105.92332    14667.039    4.2451384    4.2451384    4.2451384    14667.039    42609.081   -10739.001    12131.036   -8728.3965      -7774.8   -31052.426    76.502487 
   48300    1582.5344   -107.34694    1.4319103   -105.91503    5545.6714    4.2526285    4.2526285    4.2526285    5545.6714    411.44851    25096.818    -8871.252    17356.031    5553.3242    20462.932    76.908143 
   48400    945.34277   -106.78101     0.855366   -105.92564   -15844.801    4.2593733    4.2593733    4.2593733   -15844.801    6032.7898   -15550.296   -38016.896   -10085.803    -1098.161    -42870.49    77.274664 
   48500    1117.9802   -106.93657     1.011572     -105.925   -3762.2161    4.2429832    4.2429832    4.2429832   -3762.2161    30849.451   -18391.427   -23744.672   -6316.7798   -1225.3114   -8639.6316     76.38603 
   48600     1545.124   -107.31745    1.3980607   -105.91939     23548.46    4.2390874    4.2390874    4.2390874     23548.46    27365.798    22878.178    20401.403    7221.8811    730.40481    33882.776    76.175816 
   48700      1282.98   -107.08623    1.1608672   -105.92536   -13828.448    4.2571756    4.2571756    4.2571756   -13828.448    6380.3019   -23585.709   -24279.936   -7250.0862     -283.545   -52070.117    77.155107 
   48800    825.65709    -106.6715   0.74707189   -105.92443   -7226.6721    4.2586546    4.2586546    4.2586546   -7226.6721    11263.292   -32118.406   -824.90234   -6198.5375   -720.62865    22086.161    77.235554 
   48900    1407.5944   -107.18594     1.273621   -105.91231   -8862.3162    4.2495771    4.2495771    4.2495771   -8862.3162    1676.2244   -574.99475   -27688.178    8940.3162    4884.4531    24327.889     76.74271 
   49000    1091.7753   -106.90093   0.98786121   -105.91307   -66.127573    4.2442474    4.2442474    4.2442474   -66.127573     25591.69   -6806.2994   -18983.773    1160.8844   -4860.0337   -46342.658     76.45433 
   49100    984.69454   -106.81145   0.89097232   -105.92047   -9727.5037     4.250863     4.250863     4.250863   -9727.5037    30719.373   -35869.606   -24032.278   -8545.6898    6582.5923    39640.331    76.812397 
   49200     1486.601   -107.25879    1.3451078   -105.91369    -18364.54    4.2608006    4.2608006    4.2608006    -18364.54    -27046.95   -31760.056    3713.3866    29325.693   -1773.5477    8266.7502    77.352372 
   49300    1446.2228   -107.22216    1.3085728   -105.91358    194.17278    4.2458226    4.2458226    4.2458226    194.17278    2627.8372   -8131.4187    6086.0999    252.02495   -978.50018   -18223.047    76.539487 
   49400     875.9532   -106.71238   0.79258086    -105.9198    11241.866    4.2407591    4.2407591    4.2407591    11241.866    39008.138   -9995.3498    4712.8098   -11689.452    6774.1855    42526.214    76.265974 
   49500    1221.4012   -107.02349    1.1051494   -105.91834   -14324.911    4.2587092    4.2587092    4.2587092   -14324.911   -36175.392   -11266.159    4466.8173        43552   -1008.5588   -3964.7653    77.238525 
   49600     1367.133   -107.14722    1.2370107   -105.91021   -5297.5501    4.2541599    4.2541599    4.2541599   -5297.5501   -5093.5308    15627.167   -26426.286     2723.456    2632.4451    8011.3993    76.991261 
   49700    807.26141   -106.64539   0.73042709   -105.91496    -1185.503    4.2477428    4.2477428    4.2477428    -1185.503    19008.425   -14986.796   -7578.1379     1378.032   -2937.6699     34179.62     76.64338 
   49800    1219.1488   -107.02091    1.1031115    -105.9178    -881.6548    4.2513239    4.2513239    4.2513239    -881.6548   -25495.426   -6150.1247    29000.587    37740.884    1309.6098   -20921.385    76.837385 
   49900    1681.9026    -107.4351    1.5218208   -105.91328    11931.338    4.2478609    4.2478609    4.2478609    11931.338   -4108.5133    30850.206     9052.321    -8193.788   -5523.3096     21271.68    76.649769 
   50000    1325.8697   -107.12241    1.1996748   -105.92274   -4870.0248    4.2488257    4.2488257    4.2488257   -4870.0248   -25796.038   -9978.3837    21164.348    23823.708    -6811.437    20463.447    76.702011 
   50100    868.92632   -106.71236    0.7862228   -105.92614    -7638.875    4.2545771    4.2545771    4.2545771    -7638.875   -31689.193   -16703.393    25475.961    19886.776    6679.5145   -27729.761    77.013912 
   50200    1408.7657   -107.18797    1.2746808   -105.91329   -5144.2058    4.2515426    4.2515426    4.2515426   -5144.2058   -1153.8412    22857.107   -37135.883   -20091.134   -8949.4356    7202.0718    76.849243 
   50300    1102.6804   -106.91445   0.99772844   -105.91672    -12847.94    4.2459842    4.2459842    4.2459842    -12847.94   -33032.072   -4225.5805   -1286.1669    38845.692    -1346.569    6070.8152    76.548227 
   50400    755.57752   -106.61238   0.68366242   -105.92871   -11806.269    4.2490384    4.2490384    4.2490384   -11806.269   -27981.427   -1587.6322   -5849.7481    8576.2134    2739.6034   -23173.399    76.713529 
   50500     1534.573   -107.30955    1.3885139   -105.92103    1280.0507    4.2557601    4.2557601    4.2557601    1280.0507   -6286.6499    26362.608   -16235.807   -14955.611   -3256.9101   -6802.7078    77.078175 
   50600    1465.8174   -107.24271    1.3263024   -105.91641   -993.18739    4.2527996    4.2527996    4.2527996   -993.18739   -39794.144    14609.563    22205.019     43069.15    707.77301    10044.988    76.917429 
   50700    1053.4156   -106.86989   0.95315255   -105.91673   -16661.357    4.2559285    4.2559285    4.2559285   -16661.357   -31883.741   -10044.872   -8055.4575   -11165.392    4475.3098   -25179.436    77.087324 
   50800    1370.7131    -107.1491      1.24025   -105.90885   -634.82746    4.2508569    4.2508569    4.2508569   -634.82746     8076.533    7055.6226   -17036.638   -6541.3394    4443.5003   -248.99834    76.812068 
   50900    1034.5701   -106.85012   0.93610075   -105.91402    6620.0785    4.2454683    4.2454683    4.2454683    6620.0785   -7409.5508   -3693.0323    30962.819    32120.975   -5070.5569    19998.935    76.520324 
   51000    1198.5413    -107.0015    1.0844654   -105.91704   -21208.224    4.2597279    4.2597279    4.2597279   -21208.224    -24981.09   -13693.685   -24949.898   -17452.418    4075.8666    -23514.39    77.293961 
   51100    1363.7821   -107.14719    1.2339787   -105.91321   -957.89806    4.2531334    4.2531334    4.2531334   -957.89806    4761.4839    6006.9988   -13642.177   -1569.0401    8456.4885    19736.521    76.935544 
   51200    1201.6613   -106.99874    1.0872884   -105.91145    22058.831     4.247282     4.247282     4.247282    22058.831   -5687.7465    28989.073    42875.167    20026.639   -1168.5991    18829.029    76.618436 
   51300    1380.6758   -107.15926    1.2492645      -105.91    2905.0208     4.259112     4.259112     4.259112    2905.0208   -7444.9467    8491.9812    7668.0278   -15409.685    2117.8474   -15811.625    77.260441 
   51400    891.66325   -106.72169   0.80679565    -105.9149    6945.4667    4.2524094    4.2524094    4.2524094    6945.4667    38322.535    20890.541   -38376.677    6816.9097    -4204.885    46330.133    76.896257 
   51500    1296.9254   -107.08402    1.1734853   -105.91054     1443.198    4.2479158    4.2479158    4.2479158     1443.198   -6417.6235    22164.877    -11417.66    17109.501    -3923.327    2267.6947    76.652745 
   51600    1174.4942   -106.97843    1.0627071   -105.91572   -13842.953    4.2571173    4.2571173    4.2571173   -13842.953    4786.7249   -15386.452   -30929.133   -20539.291   -771.14283    8509.6118    77.151942 
   51700    953.12025   -106.78016   0.86240324   -105.91775   -11704.382    4.2562927    4.2562927    4.2562927   -11704.382    52470.975    -28850.02   -58734.101    4155.9712    -9303.276    52046.616    77.107114 
   51800    1637.0068   -107.38844    1.4811982   -105.90724    8096.1087    4.2514352    4.2514352    4.2514352    8096.1087    463.30726    4740.3552    19084.664    6205.7009   -1597.6917   -21763.014    76.843419 
   51900    1309.0029   -107.09921    1.1844134    -105.9148   -9480.1809    4.2547242    4.2547242    4.2547242   -9480.1809   -705.27974   -26339.979   -1395.2836   -19667.429    260.65192     26832.78    77.021904 
   52000    1091.3837   -106.90288   0.98750691   -105.91537     17922.64    4.2472406    4.2472406    4.2472406     17922.64    51923.951    15608.702   -13764.733   -1804.4604   -9745.7189    23046.057    76.616199 
   52100    928.93748   -106.76094   0.84052215   -105.92042    13007.067    4.2518589    4.2518589    4.2518589    13007.067    29452.485    20410.974   -10842.259   -2990.5452   -5292.4459    -34536.79    76.866401 
   52200    1236.6587   -107.03502    1.1189548   -105.91606   -12683.454    4.2601452    4.2601452    4.2601452   -12683.454   -12814.815    10585.007   -35820.553   -19187.967    2208.9392    14120.386    77.316679 
   52300    1263.4372   -107.05886    1.1431845   -105.91568    14930.678    4.2431471    4.2431471    4.2431471    14930.678    23658.295    48071.719   -26937.979    3590.9156   -12680.195   -6685.5778    76.394881 
   52400    803.33077   -106.65947   0.72687056    -105.9326    8129.0583    4.2444763    4.2444763    4.2444763    8129.0583    32293.496    9717.2337   -17623.555   -4355.4871   -511.07973   -33532.144    76.466697 
   52500    1719.2686   -107.47037    1.5556303   -105.91474    8018.6716    4.2592348    4.2592348    4.2592348    8018.6716   -4435.3616     18108.43    10382.946   -6373.8866    885.49994    5706.1411    77.267126 
   52600    1322.7565   -107.11516    1.1968579    -105.9183   -28.851424     4.252875     4.252875     4.252875   -28.851424   -5950.7897     35705.05   -29840.814     1076.097    -20975.48   -20187.567     76.92152 
   52700    777.08241   -106.62707    0.7031205   -105.92395   -231.64981    4.2461434    4.2461434    4.2461434   -231.64981    6246.0704    -8755.605    1814.5851    171.40079    10619.061   -18428.483    76.556838 
   52800    1173.6012   -106.98097     1.061899   -105.91907    4489.0552    4.2425062    4.2425062    4.2425062    4489.0552    12214.315    -2450.409    3703.2592   -9078.6684    -1439.137    20612.572    76.360268 
   52900    963.56159   -106.79935   0.87185078    -105.9275   -1478.1447    4.2488608    4.2488608    4.2488608   -1478.1447   -6136.9095    37147.431   -35444.955   -2478.9358   -22303.059   -3195.8598    76.703909 
   53000    1431.3507   -107.21313    1.2951162   -105.91801   -12715.747    4.2615882    4.2615882    4.2615882   -12715.747    -15464.84   -4843.8467   -17838.555    283.02675    3509.0524   -9020.7135    77.395272 
   53100    1122.9275   -106.94233    1.0160484   -105.92628   -6104.2378    4.2465034    4.2465034    4.2465034   -6104.2378   -2409.6885   -15705.763   -197.26163   -7154.4484   -2306.1231    38485.695     76.57631 
   53200     1123.816   -106.94308    1.0168523   -105.92623    16316.187    4.2404464    4.2404464    4.2404464    16316.187   -10503.279    63830.053   -4378.2139   -1091.8266   -21684.026    11373.072    76.249101 
   53300    1793.6863   -107.53693    1.6229651   -105.91396     -1993.94     4.254854     4.254854     4.254854     -1993.94    4663.7589    7775.5579   -18421.137   -3532.7438     4431.683   -6337.2031     77.02895 
   53400    580.02505   -106.45509   0.52481886   -105.93027     9391.701    4.2485009    4.2485009    4.2485009     9391.701    8662.2113    5297.2545    14215.637   -1106.0723   -16082.641    34029.818    76.684419 
   53500    961.39901   -106.79883   0.86989403   -105.92893   -5786.5719    4.2515774    4.2515774    4.2515774   -5786.5719   -12297.027     26521.04   -31583.729   -10571.951   -28919.326    8467.1966    76.851131 
   53600    1651.9915   -107.40803    1.4947566   -105.91328    6464.9877    4.2536475    4.2536475    4.2536475    6464.9877    17744.138    538.63274    1112.1924   -1864.6343    10768.904   -14322.387    76.963444 
   53700    873.71266   -106.71592   0.79055358   -105.92536    14409.026    4.2473476    4.2473476    4.2473476    14409.026    2433.5887     20702.23    20091.258    3181.7407   -26137.426     33542.16    76.621985 
   53800    1413.3541   -107.19805    1.2788325   -105.91922   -201.52576    4.2541546    4.2541546    4.2541546   -201.52576   -11762.491    12166.327   -1008.4136   -14012.312   -27750.551   -157.72727    76.990974 
   53900    1623.6083   -107.38313    1.4690749   -105.91405    13585.707    4.2483327    4.2483327    4.2483327    13585.707    18684.478    9943.8229    12128.822    -35.50889    9198.6652   -19280.374    76.675311 
   54000    898.05499   -106.74067   0.81257903   -105.92809   -52.770005    4.2422631    4.2422631    4.2422631   -52.770005    9857.0776    9338.0951   -19353.483     1675.286   -34781.899    32627.332    76.347146 
   54100    1020.7202   -106.85224    0.9235691   -105.92867   -6383.6735    4.2500137    4.2500137    4.2500137   -6383.6735   -21417.776   -10837.035     13103.79   -6100.5171   -9619.8461   -4012.2387    76.766369 
   54200    1388.2245   -107.17614    1.2560947   -105.92005   -5686.8457    4.2565429    4.2565429    4.2565429   -5686.8457   -5684.8775   -20533.109    9157.4497   -3409.7124    6487.5116   -16794.247    77.120717 
   54300    1132.1005   -106.93967    1.0243484   -105.91532   -17845.852    4.2611745    4.2611745    4.2611745   -17845.852   -10378.879   -10039.381   -33119.297    334.90727   -38487.873    23941.129    77.372738 
   54400    1359.8761   -107.14126    1.2304445   -105.91082    -1545.176    4.2458324    4.2458324    4.2458324    -1545.176   -13373.492   -18394.003    27131.967   -1626.6745    22154.548   -5686.8862    76.540013 
   54500    1268.9544   -107.06155    1.1481766   -105.91337    6015.1156    4.2364669    4.2364669    4.2364669    6015.1156    364.78314   -497.95537    18178.519   -13477.244    3023.0621   -6998.5473    76.034633 
   54600    1428.1237   -107.21213    1.2921963   -105.91994    -7945.726    4.2556157    4.2556157    4.2556157    -7945.726   -3662.4198    18071.953   -38246.711    5169.1575    -23782.54    14230.615    77.070328 
   54700    944.92397   -106.77526   0.85498707   -105.92028   -8640.5511    4.2597452    4.2597452    4.2597452   -8640.5511   -45411.659    5778.0175    13711.989   -2942.9713    35050.152    -8820.822    77.294905 
   54800    1052.5029   -106.86956   0.95232675   -105.91723    5393.7475    4.2495006    4.2495006    4.2495006    5393.7475    -31369.38    12889.232     34661.39   -18754.436   -2907.5637   -8436.7155    76.738569 
   54900    1653.6768   -107.40457    1.4962815   -105.90829    12161.357    4.2470914    4.2470914    4.2470914    12161.357   -3219.8361    38588.882    1115.0255      13628.4    3800.1567    9903.6329    76.608123 
   55000    521.87651   -106.39909   0.47220484   -105.92688    17804.252    4.2454965    4.2454965    4.2454965    17804.252   -24528.701    28544.983    49396.474   -2588.6304    34711.796   -5353.2533    76.521851 
   55100    1203.3171   -107.00866    1.0887866   -105.91987    5524.9023    4.2600775    4.2600775    4.2600775    5524.9023   -13999.291   -12076.132     42650.13   -14462.518   -10907.769   -5171.8934    77.312997 
   55200    1589.0781   -107.34186    1.4378313   -105.90403    4268.4075    4.2603144    4.2603144    4.2603144    4268.4075   -33738.826    56847.002   -10302.954    11771.865    12448.314    11030.558    77.325895 
   55300    880.69972   -106.70873   0.79687561   -105.91185    812.60381    4.2461047    4.2461047    4.2461047    812.60381   -41256.898    29956.898    13737.812   -6414.1421    20786.823   -6163.1042    76.554744 
   55400    1229.0012   -107.02344    1.1120261   -105.91141     15054.18    4.2449632    4.2449632    4.2449632     15054.18    4132.9811    16372.714    24656.844     -13019.8    -16145.31   -15704.132    76.493015 
   55500    1210.4153    -107.0119    1.0952092   -105.91669   -3069.2592    4.2560259    4.2560259    4.2560259   -3069.2592   -17071.241    24804.846   -16941.382    14393.976    5768.9238    6449.6411    77.092616 
   55600    868.06584   -106.70633   0.78544421   -105.92088   -24016.926    4.2618459    4.2618459    4.2618459   -24016.926    -36680.73   -51980.188    16610.139   -9731.3013    12601.135   -1492.9229    77.409317 
   55700    1323.5065   -107.10711    1.1975365   -105.90958    7385.2654    4.2440121    4.2440121    4.2440121    7385.2654    2904.5784    1731.3769    17519.841   -8775.0129    -25627.06   -9179.5095    76.441612 
   55800    1215.7524   -107.01561    1.1000383   -105.91557    6542.8965    4.2421931    4.2421931    4.2421931    6542.8965    6458.4884    34665.093   -21494.892    2625.3083   -389.43501    4489.7313    76.343363 
   55900    1240.3478   -107.04172    1.1222928   -105.91942   -7192.0782    4.2588603    4.2588603    4.2588603   -7192.0782    -25238.56   -10523.492    14185.817   -11482.922    13736.089   -2107.1405    77.246742 
   56000    1325.4678   -107.11161    1.1993111    -105.9123    2838.3782    4.2566026    4.2566026    4.2566026    2838.3782   -11044.484    16848.132    2711.4869   -3187.8144   -42114.797   -7368.3642    77.123961 
   56100    1094.9351   -106.90326   0.99072025   -105.91254    2962.8087     4.255582     4.255582     4.255582    2962.8087    12691.692    19392.957   -23196.222   -5474.6083    5915.2258    8677.4384    77.068497 
   56200     1164.359   -106.96753    1.0535365     -105.914    -4954.947    4.2544456    4.2544456    4.2544456    -4954.947   -9389.7067   -11877.411     6402.277   -13273.732    3349.8831    4572.1729    77.006771 
   56300    1361.0154   -107.14513    1.2314753   -105.91366    26019.623    4.2405835    4.2405835    4.2405835    26019.623        11638    33975.362    32445.506    1007.6632   -40569.215   -10493.753      76.2565 
   56400    1332.6113   -107.12823    1.2057747   -105.92245    16744.711     4.251563     4.251563     4.251563    16744.711    18012.866    36364.742   -4143.4754   -7449.5202    10733.552    6195.5835    76.850351 
   56500     806.2651   -106.65639   0.72952561   -105.92686   -20740.084    4.2626165    4.2626165    4.2626165   -20740.084   -50558.641    5291.9277   -16953.539   -23668.188   -7735.1489    9377.9514    77.451316 
   56600     903.2475   -106.74313   0.81727732   -105.92585    11493.611    4.2422641    4.2422641    4.2422641    11493.611   -24822.211    34063.279    25239.764    11515.529     -37206.7   -5642.9574      76.3472 
   56700    1493.2187   -107.27005    1.3510957   -105.91895    27612.489     4.245181     4.245181     4.245181    27612.489    23356.167    41451.922    18029.377    4411.0204    7563.0178    206.77631    76.504792 
   56800    1090.2682   -106.91046   0.98649755   -105.92396   -11373.552    4.2626658    4.2626658    4.2626658   -11373.552   -29263.639     16837.11   -21694.127   -26416.092   -32156.515    8145.4733    77.454001 
   56900    1149.6528   -106.95672      1.04023   -105.91649    3510.7749    4.2536759    4.2536759    4.2536759    3510.7749   -34722.571    12268.678    32986.218    15125.485   -23665.835   -3663.8689    76.964983 
   57000    1516.0685   -107.27876    1.3717707   -105.90698    15559.663    4.2497261    4.2497261    4.2497261    15559.663   -3718.4932     27360.24    23037.244    15303.866     2767.633    9337.6676    76.750784 
   57100    979.08044   -106.80479   0.88589256    -105.9189   -10039.677    4.2511742    4.2511742    4.2511742   -10039.677   -34895.083    36468.062    -31692.01   -12814.404   -34451.022    9248.4595     76.82927 
   57200    678.11755   -106.54315   0.61357501   -105.92958   -989.39634    4.2417618    4.2417618    4.2417618   -989.39634   -37822.482    21522.549    13331.744    19274.573   -15306.235   -6855.6736    76.320083 
   57300    1269.4575   -107.07966    1.1486318   -105.93102   -1222.2786    4.2493322    4.2493322    4.2493322   -1222.2786   -18834.738    23630.496   -8462.5937    10414.403    15504.208   -1121.9758    76.729446 
   57400    1461.7258   -107.24892    1.3226003   -105.92632   -11604.905    4.2560954    4.2560954    4.2560954   -11604.905   -24425.608     26113.99   -36503.097    1182.3167    -19435.04    4173.3317    77.096392 
   57500    1088.0975   -106.91473   0.98453344    -105.9302    -7044.109    4.2475504    4.2475504    4.2475504    -7044.109   -29280.396   -14401.736    22549.805     20808.56   -12673.669   -8662.9505    76.632966 
   57600    1285.2751   -107.08904    1.1629439    -105.9261   -7927.1455    4.2511004    4.2511004    4.2511004   -7927.1455   -36848.759    16944.976   -3877.6527    1878.4835    31957.204   -7558.0926    76.825267 
   57700    1565.5319   -107.33037    1.4165261   -105.91384   -10887.998    4.2521162    4.2521162    4.2521162   -10887.998   -39921.106    22486.429   -15229.317   -254.17351     891.9938   -124.00505    76.880356 
   57800    826.57876   -106.66973   0.74790583   -105.92182   -12386.464    4.2467953    4.2467953    4.2467953   -12386.464   -45194.768   -14470.714     22506.09    18727.889   -7058.4414    -10619.83    76.592099 
   57900    921.68456    -106.7629   0.83395956   -105.92894   -20814.872    4.2559769    4.2559769    4.2559769   -20814.872    -47372.83     18468.43   -33540.216   -5273.6647    37421.643   -5217.1354    77.089951 
   58000    1758.5546   -107.50669    1.5911772   -105.91551   -1384.4828    4.2526651    4.2526651    4.2526651   -1384.4828   -8588.1652    17138.447   -12703.731    292.20598    1367.1312    4473.1989     76.91013 
   58100    1217.0023   -107.02549    1.1011692   -105.92432    5201.8732    4.2388787    4.2388787    4.2388787    5201.8732   -13658.491   -6268.5569    35532.668     18077.35    7214.1551     -13905.2    76.164564 
   58200    813.12585   -106.67371   0.73573336   -105.93798    -11590.86    4.2478017    4.2478017    4.2478017    -11590.86   -42908.351    17423.862   -9288.0911   -5568.4264    45648.174   -6838.8761    76.646566 
   58300    1497.6155    -107.2751     1.355074   -105.92003   -4145.9457    4.2570965    4.2570965    4.2570965   -4145.9457   -10916.984    2206.0644   -3726.9178    2929.2729   -12149.592    12647.854    77.150809 
   58400    1077.1785    -106.8939   0.97465372   -105.91924   -4786.5115    4.2526488    4.2526488    4.2526488   -4786.5115   -22330.182    2017.6196    5953.0279    6966.3538    22988.972   -12079.794    76.909247 
   58500    955.84267   -106.78527   0.86486653    -105.9204   -9434.9893    4.2533003    4.2533003    4.2533003   -9434.9893    -32683.94    6351.8855   -1972.9135   -5210.4045    24968.139   -1396.2247    76.944599 
   58600    1560.2422   -107.32531    1.4117399   -105.91357     9115.886    4.2460536    4.2460536    4.2460536     9115.886    13891.852    15488.977    -2033.171    8246.7839   -36434.633    19363.396    76.551979 
   58700    1402.8981   -107.18673    1.2693717   -105.91736     16144.56    4.2431795    4.2431795    4.2431795     16144.56    14785.707    16872.186    16775.787    1693.6163    25204.476   -9702.0815    76.396634 
   58800    927.74456   -106.76174   0.83944278    -105.9223   -15258.177    4.2619636    4.2619636    4.2619636   -15258.177   -30560.638   -18531.266    3317.3739   -4295.0563    -350.6349    4472.1755     77.41573 
   58900    1141.2342   -106.94661    1.0326127   -105.91399   -10536.527    4.2547015    4.2547015    4.2547015   -10536.527   -18149.537   -7768.8071    -5691.236    5523.0782   -38582.766    10639.092    77.020671 
   59000    1254.8554   -107.04369    1.1354195   -105.90827    17196.093    4.2374752    4.2374752    4.2374752    17196.093    8043.4231    20556.115    22988.742   -1140.2402    38423.423   -4273.5765    76.088938 
   59100    842.63422   -106.68576   0.76243315   -105.92333   -11251.065    4.2491392    4.2491392    4.2491392   -11251.065   -38402.177    2279.9828    2368.9974   -1547.1395   -21768.111    6381.6937    76.718992 
   59200    1298.1871    -107.0964    1.1746269   -105.92178   -10971.799    4.2550814    4.2550814    4.2550814   -10971.799   -19654.519    5261.6586   -18522.538   -275.13979   -30764.047    1182.0176    77.041305 
   59300     1744.321   -107.49102    1.5782983   -105.91272    5716.4217    4.2551095    4.2551095    4.2551095    5716.4217    3601.5822   -122.45874    13670.142   -2850.3797    30861.063   -3566.2717     77.04283 
   59400    889.95923   -106.73183   0.80525381   -105.92657   -11716.324    4.2508454    4.2508454    4.2508454   -11716.324   -43287.762    6911.3481    1227.4432   -3744.0293   -49051.759    9962.4056    76.811446 
   59500    1176.9392   -106.99086    1.0649194   -105.92594   -1289.6001    4.2376784    4.2376784    4.2376784   -1289.6001   -29764.401   -3899.5206    29795.121    13497.854   -23485.746    2388.0747    76.099883 
   59600    1673.8685   -107.43668    1.5145514   -105.92213    12883.758    4.2463786    4.2463786    4.2463786    12883.758   -16837.294    3080.7343    52407.834    4843.1077    2180.2976   -4865.1518    76.569558 
   59700    828.82416   -106.68332   0.74993751   -105.93338   -21728.613    4.2602651    4.2602651    4.2602651   -21728.613   -73222.214    8032.8787    3.4969343   -8129.2486   -52616.087    6871.0202    77.323208 
   59800    960.75929   -106.79687   0.86931519   -105.92755   -8558.2903    4.2481286    4.2481286    4.2481286   -8558.2903   -41882.324   -15854.435    32061.889    15913.049   -8763.7937    5348.1468    76.664261 
   59900    1550.9127   -107.31866    1.4032984   -105.91536    6948.5246    4.2450014    4.2450014    4.2450014    6948.5246   -8758.0021     26030.01    3573.5656    11449.675    2127.0831   -1873.3631    76.495082 
   60000    1012.7781   -106.84021    0.9163829   -105.92382   -9314.2939    4.2512957    4.2512957    4.2512957   -9314.2939   -29304.416    32053.117   -30691.583   -4477.3142   -35768.526     8881.691    76.835855 
   60100    938.38238   -106.77628    0.8490681   -105.92721   -7321.2764    4.2496206    4.2496206    4.2496206   -7321.2764   -9677.9493   -14997.429    2711.5491    4755.8699     1812.707    16048.384    76.745068 
   60200    1444.6834   -107.23151    1.3071799   -105.92433   -5791.7685    4.2501481    4.2501481    4.2501481   -5791.7685   -21914.051    23471.842   -18933.097    6034.5686    25274.325   -3287.9411     76.77365 
   60300    1376.9718   -107.16649     1.245913   -105.92058    5145.8791     4.251025     4.251025     4.251025    5145.8791   -13392.009    40228.541   -11398.894   -1522.0547   -19068.393    2082.8093     76.82118 
   60400    912.68258    -106.7513   0.82581438   -105.92549   -560.21993    4.2526748    4.2526748    4.2526748   -560.21993   -21134.369      8580.38    10873.329    6565.7414    1755.7602    9625.6261    76.910659 
   60500    1063.1859      -106.89   0.96199294   -105.92801   -13591.539     4.250045     4.250045     4.250045   -13591.539   -23674.756    20779.314   -37879.176    6238.3435    47000.388    -9012.172    76.768062 
   60600    1703.7837   -107.46042    1.5416193    -105.9188    15175.526     4.242218     4.242218     4.242218    15175.526     29480.91    30440.203   -14394.536   -8317.9698   -6339.3479   -4737.5687    76.344708 
   60700    849.81342   -106.70444   0.76892904   -105.93551   -3413.7822     4.250301     4.250301     4.250301   -3413.7822   -28918.081    27773.203   -9096.4685    1531.4773    28039.623    8314.0181    76.781938 
   60800    800.19127   -106.65874   0.72402988   -105.93471   -19298.458     4.257776     4.257776     4.257776   -19298.458   -51821.574    10875.132   -16948.933    1928.0735    44362.569    488.54325    77.187757 
   60900    1858.3065   -107.59105    1.6814348   -105.90961    5762.4461    4.2501176    4.2501176    4.2501176    5762.4461   -3289.0441    3392.8434    17183.539    5762.2334   -19897.224   -14502.143    76.771997 
   61000    849.02105   -106.69187   0.76821209   -105.92366   -13550.898    4.2475993    4.2475993    4.2475993   -13550.898   -55660.985    25088.201   -10079.911    1126.5431    54599.212    6302.8791    76.635611 
   61100    877.81227   -106.72218   0.79426299   -105.92792   -6066.8758    4.2461218    4.2461218    4.2461218   -6066.8758   -37683.376    12479.113    7003.6355    2208.4415    20146.752   -7184.8518    76.555665 
   61200    1568.5745   -107.34292    1.4192792   -105.92364   -984.75723    4.2485499    4.2485499    4.2485499   -984.75723    -2708.294    12748.201   -12994.179    1443.1837   -30599.358   -16990.208    76.687072 
   61300     1383.714   -107.17673    1.2520136   -105.92471   -1853.8075    4.2551452    4.2551452    4.2551452   -1853.8075   -28599.627     31971.52   -8933.3158    2144.4017    42357.573    6924.1466    77.044768 
   61400    1084.2024   -106.90298   0.98100907   -105.92197    3182.5958     4.251882     4.251882     4.251882    3182.5958   -30662.806    13071.103     27139.49   -1688.7492   -4229.5053   -9660.8701    76.867653 
   61500    1093.1688   -106.90816   0.98912211   -105.91904   -4239.0492    4.2509399    4.2509399    4.2509399   -4239.0492   -21884.035    27462.573   -18295.686   -6052.7107   -24719.699   -18281.817    76.816569 
   61600    1373.9488   -107.15498    1.2431777    -105.9118    3990.7968    4.2519528    4.2519528    4.2519528    3990.7968   -18296.053    22156.417    8112.0264   -1920.9091    29840.444    6166.7418    76.871492 
   61700    883.60307   -106.72771   0.79950263    -105.9282   -15178.248    4.2460488    4.2460488    4.2460488   -15178.248   -34571.083   -17388.988    6425.3263    941.56586   -22336.488   -8817.6989    76.551719 
   61800    982.44949   -106.82796   0.88894094   -105.93902    -802.4854     4.242212     4.242212     4.242212    -802.4854   -9941.9261    24401.293   -16866.823   -11946.325   -29101.275    -19252.71    76.344386 
   61900    2056.8836   -107.78526    1.8611115   -105.92415    13122.958    4.2545402    4.2545402    4.2545402    13122.958   -231.88184    31395.353     8205.402     2805.104     11813.02    14751.096    77.011911 
   62000     897.6503   -106.74624   0.81221286   -105.93403   -15955.082    4.2608469    4.2608469    4.2608469   -15955.082   -40614.569    5718.8292   -12969.507   -2667.6004   -37379.113   -1651.8809    77.354895 
   62100    873.26234   -106.71069   0.79014612   -105.92054    10361.744    4.2512625    4.2512625    4.2512625    10361.744   -14017.014    53324.079   -8221.8336    -4715.373   -11301.444   -15179.851    76.834058 
   62200    1629.1184   -107.38203    1.4740605   -105.90797    9427.0342    4.2443088    4.2443088    4.2443088    9427.0342   -814.38435    15298.985    13796.502    3916.5161    14509.285    13475.812    76.457648 
   62300    1013.3843   -106.84386   0.91693139   -105.92693   -890.61388    4.2398621    4.2398621    4.2398621   -890.61388   -7073.6583    15454.006    -11052.19    421.69263   -45761.553    5921.5637    76.217586 
   62400    1181.1774   -107.00157    1.0687541   -105.93281    -1696.438    4.2540195    4.2540195    4.2540195    -1696.438    -10358.33     28726.12   -23457.104   -4971.1876    8496.0229   -11497.848    76.983635 
   62500    1509.6785   -107.28307    1.3659889   -105.91708   -21057.769    4.2639736    4.2639736    4.2639736   -21057.769   -27956.422    2469.8817   -37686.767   -2225.7752    22775.828    10177.886     77.52531 
   62600    1170.9521   -106.97381     1.059502   -105.91431   -8162.4663     4.246507     4.246507     4.246507   -8162.4663   -15260.112    16990.009   -26217.296    -2603.731    -42950.81    8002.1354    76.576503 
   62700    1151.2588   -106.95486    1.0416832   -105.91318   -2490.1005    4.2418557    4.2418557    4.2418557   -2490.1005   -20002.065    27100.324    -14568.56   -695.29577    26327.022   -9724.7234    76.325152 
   62800     1115.681   -106.93078    1.0094917   -105.92129   -12210.624    4.2521416    4.2521416    4.2521416   -12210.624   -27828.919     17463.98   -26266.934   -2170.2857    24950.095    10989.518    76.881733 
   62900    1498.0349   -107.27548    1.3554535   -105.92003    189.06525    4.2514354    4.2514354    4.2514354    189.06525   -1797.9607    6074.1986   -3709.0422   -1061.5698   -31417.935    16706.169    76.843433 
   63000    999.65021   -106.83259   0.90450452   -105.92809   -13784.754    4.2527044    4.2527044    4.2527044   -13784.754   -39918.918   -2739.7255    1304.3832   -825.47653    42396.521    911.53087    76.912265 
   63100    1215.4985   -107.02302    1.0998086   -105.92321    -8947.977    4.2455705    4.2455705    4.2455705    -8947.977   -28786.695    7948.8561   -6006.0925   -2931.9232    20727.465    1762.0004    76.525853 
   63200    1515.4636   -107.28543    1.3712233    -105.9142    3767.5026    4.2476958    4.2476958    4.2476958    3767.5026    350.42989    6713.0672    4239.0108    3892.0628   -17872.282     12366.06    76.640832 
   63300    525.63709   -106.40035   0.47560748   -105.92475   -35750.247     4.263851     4.263851     4.263851   -35750.247   -87439.327   -8127.5814   -11683.832    -6933.774    50226.113   -352.53491    77.518625 
   63400    1064.0322   -106.88748   0.96275874   -105.92472   -3311.6472    4.2422912    4.2422912    4.2422912   -3311.6472   -27276.998   -595.61669    17937.673   -5862.4112    10360.314    521.53002    76.348664 
   63500    1609.5682   -107.37252    1.4563711   -105.91615    25981.946    4.2282507    4.2282507    4.2282507    25981.946    29559.782    36542.019    11844.036    7415.2999    2430.9281    13325.329    75.593105 
   63600    998.16331    -106.8375   0.90315914   -105.93434   -28550.943    4.2581267    4.2581267    4.2581267   -28550.943   -73147.482   -1418.6731   -11086.674   -11088.733    48665.178    856.83695    77.206833 
   63700    1402.0241   -107.19321    1.2685808   -105.92463   -5210.1003    4.2533634    4.2533634    4.2533634   -5210.1003   -24513.113   -22106.467    30989.279   -9206.2016   -3150.6262    3275.1335    76.948022 
   63800    1568.4813   -107.33586    1.4191948   -105.91666    3256.9241    4.2398281    4.2398281    4.2398281    3256.9241   -53.414572     23422.05   -13597.863    1826.8506     21222.52    13537.305    76.215752 
   63900    873.20237   -106.71642   0.79009185   -105.92633   -24509.897    4.2525986    4.2525986    4.2525986   -24509.897   -49427.355     828.8011   -24931.137   -13296.526    39248.778    2772.7679    76.906521 
   64000    1229.0204   -107.03131    1.1120435   -105.91927   -876.70296    4.2471431    4.2471431    4.2471431   -876.70296    -10042.13   -25213.523    32625.543    533.97089   -7630.5911   -7433.9201    76.610923 
   64100    1251.7925   -107.05246    1.1326482   -105.91982   -150.47027    4.2485915    4.2485915    4.2485915   -150.47027   -3289.8818    40396.053   -37557.582    5183.6905    14554.209    2737.8724    76.689328 
   64200    869.97177   -106.71335   0.78716874   -105.92618   -28315.779     4.256129     4.256129     4.256129   -28315.779   -42653.266   -15188.121   -27105.949   -23001.657    20795.791    1086.0393    77.098221 
   64300    1278.8011   -107.07772    1.1570861   -105.92063    4960.8905    4.2422577    4.2422577    4.2422577    4960.8905    16473.513   -31742.839    30151.997   -7141.5995   -4484.5586   -7997.3265     76.34685 
   64400    1393.7043   -107.18322    1.2610529   -105.92216    4531.0016    4.2466817    4.2466817    4.2466817    4531.0016   -4603.2802    46197.987   -28001.702    8843.1734    7419.5865   -3005.4899    76.585953 
   64500    1103.7993   -106.92477    0.9987408   -105.92603   -17812.359    4.2582385    4.2582385    4.2582385   -17812.359   -36782.735    11003.104   -27657.445   -30527.458    11942.979   -2202.1453    77.212914 
   64600    1562.7213   -107.33037    1.4139831   -105.91639    5651.5628    4.2459547    4.2459547    4.2459547    5651.5628    17540.212   -10443.628    9858.1045   -17083.392   -3084.7095   -3912.9496    76.546629 
   64700    988.78719    -106.8177   0.89467543   -105.92303    6748.2241    4.2454666    4.2454666    4.2454666    6748.2241    4060.7195    44696.333    -28512.38    7372.3744    9782.9794    3429.3613    76.520232 
   64800    656.39719    -106.5233   0.59392197   -105.92937   -13065.607    4.2555607    4.2555607    4.2555607   -13065.607   -36851.958     18931.86   -21276.724   -30398.565    1223.2307   -507.87089    77.067339 
   64900    1766.9069   -107.51013    1.5987345    -105.9114    6139.7294    4.2529756    4.2529756    4.2529756    6139.7294    32858.776   -11310.192   -3129.3961   -1663.5919   -3797.0532    783.90461    76.926977 
   65000    1245.6179   -107.04951    1.1270612   -105.92245    2755.6011    4.2471722    4.2471722    4.2471722    2755.6011    6670.6172    13908.973   -12312.787   -2767.4377    9220.3955    7291.3511    76.612498 
   65100    791.60709   -106.64907   0.71626273   -105.93281    686.51158     4.244957     4.244957     4.244957    686.51158   -28699.155    23711.728    7046.9621   -43562.834   -965.36179    2127.0825    76.492681 
   65200    1519.7012   -107.29899    1.3750576   -105.92393    10624.985    4.2498237    4.2498237    4.2498237    10624.985    9721.8002     2311.064    19842.091    21923.041    -2452.878    -5087.283    76.756073 
   65300    1154.6601   -106.96965    1.0447607   -105.92489    8436.5815    4.2556275    4.2556275    4.2556275    8436.5815    7613.6741    12001.381    5694.6892    2596.0955    2581.3318    5391.0154    77.070971 
   65400    950.00015   -106.78494    0.8595801   -105.92536    3047.9137    4.2497694    4.2497694    4.2497694    3047.9137    3766.4604    8945.3959   -3568.1152   -38942.899    797.43241    697.42707     76.75313 
   65500    1237.1933   -107.03997    1.1194385   -105.92054    16553.805    4.2432013    4.2432013    4.2432013    16553.805    30091.018    7431.6932    12138.704    42736.091   -4638.9753   -9455.1468    76.397807 
   65600    1482.4635   -107.25928    1.3413641   -105.91791    9863.5533    4.2538067    4.2538067    4.2538067    9863.5533    24144.609     12570.69   -7124.6391   -4230.3076    6737.2742    7516.3883    76.972087 
   65700     1202.092   -107.00674    1.0876781   -105.91906   -19419.158    4.2583909    4.2583909    4.2583909   -19419.158   -14467.774   -26140.268   -17649.433   -28360.906     5867.402   -535.62682    77.221204 
   65800    935.84277   -106.76906    0.8467702   -105.92229   -732.98337    4.2415903    4.2415903    4.2415903   -732.98337   -19551.832    12021.817    5331.0643    37839.368   -1486.9761   -20794.324    76.310827 
   65900    1476.9202   -107.25675    1.3363484    -105.9204    17531.762    4.2394355    4.2394355    4.2394355    17531.762    16570.183    27762.878    8262.2273   -6693.2381   -2606.9019    13205.857    76.194585 
   66000    1431.7356    -107.2199    1.2954645   -105.92444   -11390.929    4.2578389    4.2578389    4.2578389   -11390.929    10941.115    -30861.42   -14252.482   -7902.2268    2455.5519   -3220.1224    77.191181 
   66100     673.1304   -106.53912   0.60906253   -105.93006    -18871.06    4.2585418    4.2585418    4.2585418    -18871.06   -21154.672   -7412.4346   -28046.073    30067.376   -1465.6022   -20392.993    77.229414 
   66200    1492.8099   -107.26543    1.3507258   -105.91471    8322.2425    4.2485663    4.2485663    4.2485663    8322.2425    12733.726    38441.691    -26208.69   -9015.0539   -13847.177    6371.9277    76.687964 
   66300     1435.629   -107.21624    1.2989873   -105.91725   -3238.8247    4.2455403    4.2455403    4.2455403   -3238.8247    12489.683   -19196.707   -3009.4493    20215.543    7260.4917   -11136.964     76.52422 
   66400    646.49043    -106.5228   0.58495813   -105.93784   -5439.2194    4.2416594    4.2416594    4.2416594   -5439.2194   -23520.502    9273.9834   -2071.1398    23113.325    -5275.286   -16731.695    76.314555 
   66500    1627.4288   -107.40532    1.4725318   -105.93278   -2411.9615    4.2568707    4.2568707    4.2568707   -2411.9615   -8967.8874    13823.219   -12091.216   -9170.2566   -14386.664    7534.2654    77.138532 
   66600    1535.8494     -107.313    1.3896688   -105.92333   -14700.793    4.2602017    4.2602017    4.2602017   -14700.793    4001.0494    -43411.33   -4692.0995    9840.5777    2656.7105   -14456.537    77.319759 
   66700    863.04634   -106.70506   0.78090247   -105.92415    4825.2398    4.2367656    4.2367656    4.2367656    4825.2398    14577.721    10469.045   -10571.046    22598.804   -10430.586   -20719.472    76.050715 
   66800    1168.5069    -106.9795    1.0572896   -105.92221   -1198.9162    4.2452301    4.2452301    4.2452301   -1198.9162    6030.3881    20305.828   -29932.965   -13661.364   -5050.3332    11183.518    76.507444 
   66900    1167.9652   -106.97255    1.0567995   -105.91575   -18983.194    4.2586029    4.2586029    4.2586029   -18983.194   -5896.2959   -35938.418   -15114.867   -7766.2699    1971.3344   -2952.5195    77.232739 
   67000    1246.3641   -107.03915    1.1277365   -105.91142    6244.7417    4.2488609    4.2488609    4.2488609    6244.7417    11542.283    9924.7037   -2732.7617    17475.555   -11490.694   -19276.715    76.703918 
   67100    1083.0927   -106.89905   0.98000508   -105.91905   -14163.956    4.2523988    4.2523988    4.2523988   -14163.956   -5486.8191   -21161.259    -15843.79   -23837.298    3115.8623    17623.061    76.895681 
   67200    1402.7584   -107.19078    1.2692453   -105.92154    -3088.834    4.2448533    4.2448533    4.2448533    -3088.834     9901.331   -32286.331    13118.498   -21456.656    6262.1795    16726.002    76.487076 
   67300    1725.6899   -107.47956    1.5614405   -105.91812    18147.102    4.2378403    4.2378403    4.2378403    18147.102    19819.143    28280.027    6342.1361    14286.438   -14795.558   -11158.717    76.108607 
   67400    602.13543   -106.48093   0.54482479   -105.93611   -30375.226    4.2587014    4.2587014    4.2587014   -30375.226    -10446.46   -47572.464   -33106.754   -39906.971   -34.755741    25721.207    77.238097 
   67500    1216.6604   -107.02413    1.1008599   -105.92327   -11204.525    4.2567321    4.2567321    4.2567321   -11204.525    12163.916   -28414.526   -17362.965   -15558.962    -934.0264    10919.239    77.130998 
   67600    1533.6699    -107.2948    1.3876967    -105.9071    1567.4713    4.2483301    4.2483301    4.2483301    1567.4713    5805.0362    21433.079   -22535.702    11034.525   -5352.2099    -7776.095    76.675173 
   67700    578.52583   -106.44821   0.52346233   -105.92475   -27407.884    4.2502677    4.2502677    4.2502677   -27407.884    -17483.41   -38727.049   -26013.193   -47614.761    3801.1761    30567.147    76.780131 
   67800    1528.7123   -107.30529     1.383211   -105.92208   -3283.7778    4.2462374    4.2462374    4.2462374   -3283.7778    10022.612   -11894.598   -7979.3479    683.93984   -6457.0712    4841.8181    76.561918 
   67900    1670.3964   -107.43151    1.5114097    -105.9201   -6663.5138    4.2552198    4.2552198    4.2552198   -6663.5138   -9546.3577   -5029.2558   -5414.9279    9386.0265   -3986.3798   -9710.1597    77.048822 
   68000    642.86185   -106.51663   0.58167491   -105.93495   -28273.449    4.2533686    4.2533686    4.2533686   -28273.449   -17558.116   -52517.545   -14744.685    -47911.05    613.64359    30809.694    76.948304 
   68100     1399.039    -107.1891    1.2658799   -105.92322    11339.519    4.2416833    4.2416833    4.2416833    11339.519    33773.769    13533.269    -13288.48    9027.6026   -4822.8725    2325.4116    76.315844 
   68200    1658.6799    -107.4168    1.5008084   -105.91599   -15850.237     4.259045     4.259045     4.259045   -15850.237   -12305.068   -18547.857   -16697.787   -10547.228    619.14936    3047.1925    77.256797 
   68300    844.88387   -106.68509   0.76446868   -105.92062   -20933.176    4.2584681    4.2584681    4.2584681   -20933.176    -22649.15    -26253.85   -13896.529   -39086.748   -897.68105    28918.521    77.225406 
   68400     1527.456    -107.2895    1.3820743   -105.90743    12417.401    4.2400183    4.2400183    4.2400183    12417.401    18649.935    24991.339   -6389.0709    17483.732   -4218.6343     -11699.9    76.226014 
   68500    1199.3482   -107.00305    1.0851954   -105.91785   -7938.9018    4.2462739    4.2462739    4.2462739   -7938.9018    -5495.036   -21894.428     3572.758   -26082.412   -7287.3735    3044.4869    76.563891 
   68600     904.8586   -106.74281   0.81873508   -105.92408    218.51053    4.2483855    4.2483855    4.2483855    218.51053    38944.701   -33735.279   -4553.8903   -22206.895    -1359.813    27276.006    76.678171 
   68700    1134.7941   -106.94961    1.0267856   -105.92282   -9999.8192    4.2556451    4.2556451    4.2556451   -9999.8192    12696.446   -9555.7479   -33140.156    19541.262    2939.1446   -12507.592    77.071924 
   68800    1162.8493   -106.97597    1.0521705    -105.9238   -15904.297    4.2540347    4.2540347    4.2540347   -15904.297   -15408.022   -6701.5821   -25603.288   -34331.051   -8546.9291   -4976.8852    76.984461 
   68900    1678.9416    -107.4322    1.5191416   -105.91306    27916.721    4.2313743    4.2313743    4.2313743    27916.721    53174.224    17071.454    13504.484    7011.1536    198.18343    6338.2317    75.760761 
   69000    1003.2504   -106.84321   0.90776206   -105.93545   -14193.973    4.2488869    4.2488869    4.2488869   -14193.973   -18737.525    18028.932   -41873.325    26767.412    16691.922   -4242.5034    76.705324 
   69100    1344.8718   -107.13324    1.2168683   -105.91637   -22542.033    4.2632801    4.2632801    4.2632801   -22542.033   -16337.955    -2406.161   -48881.982   -27413.151   -10197.967   -4158.1196    77.487489 
   69200    1465.8198   -107.23545    1.3263046   -105.90915    3209.4031    4.2425964    4.2425964    4.2425964    3209.4031    15897.518   -29774.749     23505.44    31689.181    4243.0489    4271.9172    76.365139 
   69300    652.63719   -106.51405   0.59051985   -105.92353   -19831.046    4.2390893    4.2390893    4.2390893   -19831.046    -32775.41   -9321.4654   -17396.263    17608.412    5921.3662   -8267.4503    76.175919 
   69400    1175.4759   -106.98524    1.0635953   -105.92165   -10850.838    4.2447892    4.2447892    4.2447892   -10850.838   -652.62241   -2148.7438   -29751.149   -8218.3632   -11722.513   -8605.4328    76.483609 
   69500    1119.3524   -106.93864    1.0128135   -105.92583    -7404.299    4.2577999    4.2577999    4.2577999    -7404.299   -6289.7372   -30777.923    14854.763    45678.146    6478.7428    6770.2134    77.189056 
   69600    1448.4534   -107.23082    1.3105911   -105.92022   -7306.7251    4.2545795    4.2545795    4.2545795   -7306.7251   -10954.968     13260.24   -24225.447   -2968.8496     2514.569   -3948.9052    77.014046 
   69700    1367.5158   -107.15265     1.237357   -105.91529     13597.67    4.2333527    4.2333527    4.2333527     13597.67    22259.425    35948.648   -17415.063    20631.551   -8258.2365   -6234.1218    75.867078 
   69800    1053.7748   -106.88304   0.95347761   -105.92956   -5230.6725    4.2486575    4.2486575    4.2486575   -5230.6725    4925.0276   -31575.756    10958.711    50728.698   -1701.5661    8894.0088      76.6929 
   69900    1625.6882   -107.37773    1.4709568   -105.90677   -15943.148    4.2650043    4.2650043    4.2650043   -15943.148   -11680.816   -16565.827     -19582.8   -17306.207    2436.3806   -7861.3411    77.581545 
   70000    696.71685   -106.54763   0.63040405   -105.91722   -8946.1054    4.2488908    4.2488908    4.2488908   -8946.1054   -25692.746   -18829.289    17683.719    42311.591   -11749.719    2360.1684    76.705534 
   70100    1045.4702   -106.86712   0.94596342   -105.92116    1423.3934    4.2424564    4.2424564    4.2424564    1423.3934    11964.207   -25481.342    17787.315    23653.969   -310.22441    8183.2975    76.357581 
   70200    1802.5464   -107.54398    1.6309819     -105.913    18423.886     4.246958     4.246958     4.246958    18423.886    33511.323    9113.7037    12646.631   -9179.7131   -6267.4222   -7715.4444    76.600905 
   70300    961.55703   -106.80373   0.87003701   -105.93369    1642.5981    4.2499636    4.2499636    4.2499636    1642.5981   -399.51275   -2473.7558    7801.0628    55823.862   -7978.4932    2888.7947     76.76365 
   70400    1163.8917   -106.97982    1.0531136   -105.92671   -5725.6921    4.2567583    4.2567583    4.2567583   -5725.6921     9821.237      8922.64   -35920.953   -5137.0154    3817.5592    15522.679    77.132425 
   70500    1356.2094    -107.1429    1.2271268   -105.91578    6130.0016    4.2465483    4.2465483    4.2465483    6130.0016     2489.564    19.843592    15880.597    15452.237    949.64267   -10338.641    76.578739 
   70600    907.38553   -106.73907    0.8210215   -105.91805    15648.505     4.240849     4.240849     4.240849    15648.505    1883.6659   -2652.2154    47714.065     43722.38   -6038.1022   -8093.7727    76.270821 
   70700    1229.7179   -107.02608    1.1126746    -105.9134   -6993.4045    4.2584414    4.2584414    4.2584414   -6993.4045    -21613.69    8345.1831   -7711.7062   -21229.982   -1752.6997    14059.736    77.223951 
   70800    738.58603   -106.58935   0.66828816   -105.92107   -8338.9983    4.2537521    4.2537521    4.2537521   -8338.9983   -40499.568   -19270.938    34753.511    40609.878    6531.4566   -8539.2633     76.96912 
   70900    1465.5687   -107.23882    1.3260774   -105.91274    17465.858    4.2428025    4.2428025    4.2428025    17465.858    2652.8681    13732.146     36012.56    12362.461   -1491.5903   -14685.786    76.376269 
   71000    1503.7445   -107.27506    1.3606196   -105.91444   -577.60685    4.2511689    4.2511689    4.2511689   -577.60685   -21420.779    26286.062    -6598.103   -6414.0502    1845.1444    514.83608    76.828984 
   71100    566.84742   -106.44763   0.51289546   -105.93473   -8660.9607    4.2465012    4.2465012    4.2465012   -8660.9607   -30063.105   -19417.303    23497.526    54927.487    2900.5503   -6723.3377    76.576188 
   71200    1303.4253   -107.10443    1.1793666   -105.92506    6889.8722    4.2492774    4.2492774    4.2492774    6889.8722    24658.789    2171.6584   -6160.8306   -6446.7961   -2102.4438   -21845.083    76.726477 
   71300    1316.9814   -107.11151    1.1916324   -105.91987   -6174.5156    4.2553451    4.2553451    4.2553451   -6174.5156   -35313.206   -654.10166    17443.761    19140.774   -760.70872   -3566.4287    77.055626 
   71400     716.7426   -106.57491   0.64852376   -105.92639    4920.7573    4.2432056    4.2432056    4.2432056    4920.7573   -21309.094    298.42419    35772.942    45274.943    7990.7489   -15514.263    76.398044 
   71500    1511.8814   -107.28232    1.3679821   -105.91434     12561.74    4.2480682    4.2480682    4.2480682     12561.74    22913.113    12645.729    2126.3766   -15061.718   -2825.4554   -9451.8319    76.660993 
   71600    1321.8023   -107.11162    1.1959945   -105.91562   -11776.289    4.2584618    4.2584618    4.2584618   -11776.289   -42779.669   -30089.937    37540.739    41963.366   -1791.3851    13542.099    77.225064 
   71700    1194.5555   -106.99475     1.080859   -105.91389    9598.0375    4.2439267    4.2439267    4.2439267    9598.0375   -791.91568     14497.44    15088.588    17396.417     11344.27   -18381.249    76.436996 
   71800    1102.7139   -106.91447   0.99775875   -105.91671    1114.6782    4.2422011    4.2422011    4.2422011    1114.6782    21916.046    -1216.026   -17355.985   -2449.4457    1109.9175   -9499.5228    76.343799 
   71900    835.66645   -106.68137   0.75612856   -105.92524   -12417.257    4.2513122    4.2513122    4.2513122   -12417.257   -30628.476    -32358.09    25734.795    49302.814    662.55569     16184.31    76.836754 
   72000    1361.6593   -107.14563    1.2320579   -105.91357    11194.831    4.2469841    4.2469841    4.2469841    11194.831   -139.25705    28043.806    5679.9427   -9414.2468    2561.1355   -15672.228    76.602316 
   72100    986.07462   -106.81561   0.89222104   -105.92339   -12638.206    4.2518706    4.2518706    4.2518706   -12638.206   -5689.4911   -31358.315   -866.81242    14348.945   -583.80225   -5254.6402    76.867035 
   72200     1144.278   -106.95429    1.0353668   -105.91893    1484.0977    4.2510517    4.2510517    4.2510517    1484.0977   -29614.487   -19155.127    53221.907    37441.931    -5966.087     13679.95    76.822627 
   72300    1744.5583    -107.4873     1.578513   -105.90879     10864.58    4.2447374    4.2447374    4.2447374     10864.58    8496.7998    969.79512    23127.146   -31173.731   -8355.9777   -2081.2776    76.480812 
   72400    876.43921   -106.71751   0.79302062   -105.92449    -11405.68    4.2503652    4.2503652    4.2503652    -11405.68   -308.91636   -44474.811    10566.686    32833.289    3940.9749   -8351.7701    76.785414 
   72500    1127.4812   -106.93976    1.0201687   -105.91959    3853.7562    4.2427504    4.2427504    4.2427504    3853.7562   -5938.8164   -2361.2458    19861.331     20244.52   -15286.554    4850.0749    76.373458 
   72600    1310.9778   -107.10609    1.1862002   -105.91989    2637.5251    4.2476044    4.2476044    4.2476044    2637.5251    4231.9459    8943.1779   -5262.5484   -24727.199   -1574.0691   -2251.8178    76.635888 
   72700    728.14595   -106.58365   0.65884176   -105.92481   -24352.196    4.2567703    4.2567703    4.2567703   -24352.196   -33196.215   -40298.395    438.02272    50020.794    6615.4025   -9069.5789    77.133077 
   72800     1204.311   -107.00575    1.0896859   -105.91606    11523.662    4.2401122    4.2401122    4.2401122    11523.662    3341.6039    21684.364    9545.0185   -2799.9211   -18647.839    722.62178    76.231076 
   72900    1406.8152   -107.18907     1.272916   -105.91615    4175.0795    4.2474753    4.2474753    4.2474753    4175.0795   -7010.7386   -12555.064    32091.041    6628.0556     3284.741    2276.1693    76.628897 
   73000    1175.8845   -106.98368     1.063965   -105.91971   -19423.965    4.2550953    4.2550953    4.2550953   -19423.965   -19245.782   -56738.278    17712.165    53456.554    2184.3108   -9719.4514    77.042056 
   73100    1645.5965   -107.40036    1.4889703   -105.91139    21822.911     4.238888     4.238888     4.238888    21822.911    47022.139    15063.658    3382.9349   -19337.111   -23864.796   -1843.7507    76.165064 
   73200    1011.1311    -106.8399   0.91489267     -105.925    -8394.109    4.2502539    4.2502539    4.2502539    -8394.109   -21435.715   -30017.724    26271.112     44402.24    -4576.148    8360.6839    76.779385 
   73300    1043.0859    -106.8634   0.94380604   -105.91959   -13966.968    4.2510622    4.2510622    4.2510622   -13966.968   -6614.9262   -37693.646    2407.6685    30169.686    3571.7526   -8739.3382    76.823197 
   73400    1188.0852   -106.98997    1.0750045   -105.91497    14081.296    4.2369552    4.2369552    4.2369552    14081.296    41125.995    16709.238   -15591.345   -9720.7877     -14852.2   -18110.042    76.060927 
   73500    796.37765   -106.64868   0.72057923    -105.9281   -19319.914    4.2505474    4.2505474    4.2505474   -19319.914   -44451.601     -31206.7    17698.559     56363.16   -2046.3452    8264.8101    76.795289 
   73600    1143.8377   -106.95774    1.0349684   -105.92277   -5517.9294    4.2479493    4.2479493    4.2479493   -5517.9294    5118.7459   -24699.069    3026.5346   -1863.6148    3219.1924   -3727.4404    76.654555 
   73700    1284.6626   -107.08484    1.1623897   -105.92245    9682.8443    4.2414473    4.2414473    4.2414473    9682.8443    27314.981    6025.0477   -4291.4956   -6369.0495    -5725.333   -21908.886    76.303106 
   73800    1579.1624   -107.35022    1.4288594   -105.92136   -14081.206    4.2512158    4.2512158    4.2512158   -14081.206   -36060.763   -34792.079    28609.225    47649.579   -3192.8891   -637.26406    76.831523 
   73900    1171.1401   -106.98668    1.0596722     -105.927    12734.675    4.2381325    4.2381325    4.2381325    12734.675   -5562.2967   -8756.6766    52522.997   -22695.004    19.520196   -6243.7928    76.124348 
   74000    1048.0729   -106.88412   0.94831834    -105.9358   -5396.3853    4.2453881    4.2453881    4.2453881   -5396.3853    4225.7566   -26828.641    6413.7285   -11494.735   -10707.943   -16723.677    76.515991 
   74100    1673.0428   -107.43092    1.5138043   -105.91711   -9313.0375    4.2573405    4.2573405    4.2573405   -9313.0375   -27082.509    -12757.75    11901.147    17524.692   -6122.0839    8738.7656    77.164075 
   74200     798.6639   -106.65294   0.72264788    -105.9303    11631.163    4.2350595    4.2350595    4.2350595    11631.163   -290.06444    -12362.45    47546.002   -35553.617     603.0572   -15329.723    75.958881 
   74300    693.69891   -106.56826   0.62767336   -105.94058   -2041.0504    4.2390005    4.2390005    4.2390005   -2041.0504    29353.018   -22753.373   -12722.797   -10839.253   -558.81711   -14864.158    76.171133 
   74400    1744.7765   -107.49908    1.5787104   -105.92036     2472.219    4.2531156    4.2531156    4.2531156     2472.219   -12528.683    9895.2344    10050.106    1151.8528   -1433.9266    16731.497    76.934578 
   74500    987.04391   -106.82142   0.89309807   -105.92833    10797.515    4.2488162    4.2488162    4.2488162    10797.515   -25380.078   -2094.6986     59867.32   -31317.743     -1332.66   -25129.208    76.701495 
   74600    1315.6865    -107.1152    1.1904608   -105.92474   -2967.1082    4.2489903    4.2489903    4.2489903   -2967.1082     6040.832   -28594.099    13651.942   -2893.4628   -138.60578   -9896.2886    76.710926 
   74700    1717.6134   -107.46897    1.5541327   -105.91484    26894.336    4.2384619    4.2384619    4.2384619    26894.336   -6379.7377    49056.038    38006.708     8910.529   -1447.0564    11974.949    76.142098 
   74800    749.91052   -106.61504    0.6785348   -105.93651   -6268.5028    4.2416679    4.2416679    4.2416679   -6268.5028   -11179.862   -16077.594    8451.9483   -18482.808    6562.0967   -27301.369    76.315012 
   74900    1260.6443   -107.07051    1.1406574   -105.92985   -14708.843    4.2525965    4.2525965    4.2525965   -14708.843   -2975.5504   -11860.389    -29290.59   -14746.945    -26.17713   -17528.674    76.906411 
   75000    1481.7862   -107.26008    1.3407513   -105.91933     6233.911    4.2477661    4.2477661    4.2477661     6233.911   -29068.623    31624.932    16145.424    13646.165   -6347.1722    10382.417    76.644641 
   75100    505.23432   -106.39019   0.45714663   -105.93304   -20353.636    4.2491338    4.2491338    4.2491338   -20353.636   -26878.972   -35790.362    1608.4251   -14644.255    8751.2697   -36990.094    76.718697 
   75200    1494.5107    -107.2761    1.3522647   -105.92384    644.06948    4.2410107    4.2410107    4.2410107    644.06948   -16437.974    22184.267   -3814.0849   -13334.555   -2417.4925   -12838.447    76.279547 
   75300    1459.2606   -107.24515    1.3203697   -105.92479     15266.14    4.2409966    4.2409966    4.2409966     15266.14   -24639.117     44871.58    25565.956    8895.0842    -8120.488    14713.454    76.278785 
   75400    796.34778   -106.65347   0.72055221   -105.93292    -18411.07     4.254923     4.254923     4.254923    -18411.07   -11138.326   -34135.008   -9959.8755   -16508.214     3789.543   -41373.038    77.032699 
   75500    1416.7982   -107.20056    1.2819488   -105.91862    6327.7016    4.2483788    4.2483788    4.2483788    6327.7016    13419.452    34934.128   -29370.475   -1799.8227   -6809.2883    8370.9952    76.677807 
   75600    1401.2857   -107.18294    1.2679128   -105.91503     12653.78     4.242936     4.242936     4.242936     12653.78    8683.5029    21765.343    7512.4936   -743.46333   -442.63191    20117.407    76.383481 
   75700     1020.444   -106.84529   0.92331918   -105.92198    -650.3582    4.2437084    4.2437084    4.2437084    -650.3582   -2900.8642    -11130.84     12080.63   -22857.313    5256.1872   -44400.758    76.425205 
   75800    1059.0865     -106.883   0.95828368   -105.92472    2915.8191    4.2444896    4.2444896    4.2444896    2915.8191    4381.2307    18831.755   -14465.528    -2093.115   -7388.5305      26554.1    76.467417 
   75900    1213.2569    -107.0201    1.0977803   -105.92232    3035.5861    4.2503826    4.2503826    4.2503826    3035.5861    -5090.127   -2718.1866    16915.072    6067.5182   -6479.7271    16443.983    76.786359 
   76000    1191.0159   -106.99968    1.0776562   -105.92202   -4102.3592    4.2470473    4.2470473    4.2470473   -4102.3592   -6263.7219   -9126.6539    3083.2982   -18379.406    5667.4192   -43313.915    76.605735 
   76100    982.50926   -106.81278   0.88899503   -105.92378    9708.3611    4.2385976    4.2385976    4.2385976    9708.3611    40916.506    3516.1976   -15307.621   -8399.9245   -11261.823    36183.066    76.149415 
   76200    1494.6219   -107.27376    1.3523653   -105.92139    4321.8904    4.2467738    4.2467738    4.2467738    4321.8904    28470.493   -13756.263   -1748.5595    13077.434   -4230.5748    4195.4236    76.590939 
   76300    1368.1592   -107.15768    1.2379392   -105.91974   -6117.6223    4.2544059    4.2544059    4.2544059   -6117.6223   -1864.8169   -14089.827   -2398.2235   -15904.523    8295.5363   -30691.716    77.004617 
   76400    1245.2116    -107.0463    1.1266936   -105.91961    3863.3341    4.2416275    4.2416275    4.2416275    3863.3341    21556.371    2551.6169   -12517.985   -15558.346   -20082.832    29273.412    76.312835 
   76500    1215.2775   -107.01978    1.0996086   -105.92017    9386.3214    4.2372011    4.2372011    4.2372011    9386.3214    2722.3598    3494.9269    21941.678    29847.358    2192.2342    933.39067    76.074173 
   76600    952.75748   -106.78759   0.86207499   -105.92551   -5799.6871    4.2489729    4.2489729    4.2489729   -5799.6871   -25376.167   -7930.2786    15907.384   -16246.225    7848.6749   -11040.956     76.70998 
   76700    1120.5467   -106.93481    1.0138942   -105.92092   -5536.6471    4.2516436    4.2516436    4.2516436   -5536.6471    16324.969   -22855.434   -10079.476   -21233.491   -12717.783    18817.626     76.85472 
   76800    1233.4192   -107.03703    1.1160236     -105.921   -4935.4563    4.2438344    4.2438344    4.2438344   -4935.4563   -5719.0012   -18467.472    9380.1042    49650.731    4649.2704    2185.7983    76.432012 
   76900    1133.0299   -106.95031    1.0251892   -105.92512   -1958.6914    4.2385233    4.2385233    4.2385233   -1958.6914   -18594.523   -14940.222    27658.671   -30878.988    5068.2932   -7766.1166     76.14541 
   77000     1574.441   -107.34533    1.4245873   -105.92074   -3538.1932    4.2463405    4.2463405    4.2463405   -3538.1932    4658.8802   -16426.831    1153.3707   -13102.381   -3002.0406    6632.2659    76.567495 
   77100    1126.8146   -106.94412    1.0195655   -105.92456   -19707.895    4.2530357    4.2530357    4.2530357   -19707.895   -44056.159   -16902.804    1835.2779     48458.63    8393.3531    7501.2526    76.930238 
   77200    763.79205   -106.61919    0.6910951    -105.9281   -10614.528      4.24022      4.24022      4.24022   -10614.528   -49929.554   -21946.286    40032.255   -51950.742    7206.5095   -6940.2794    76.236888 
   77300    1292.0337   -107.09084    1.1690592   -105.92178    10300.646    4.2398753    4.2398753    4.2398753    10300.646    34788.907   -17953.901    14066.932   -7058.8692   -4847.3036     -4209.98    76.218298 
   77400    1282.9334   -107.08583    1.1608251     -105.925   -6918.5348    4.2482487    4.2482487    4.2482487   -6918.5348    6997.0224    -32971.77    5219.1429    23666.671   -3417.7984    9098.0756    76.670767 
   77500    1050.9208   -106.87851   0.95089527   -105.92761   -626.16322    4.2478573    4.2478573    4.2478573   -626.16322    12905.101   -38251.386    23467.795   -51759.217    9890.7113    -3846.302    76.649577 
   77600    1273.5573   -107.07118    1.1523414   -105.91884   -4664.1453    4.2525413    4.2525413    4.2525413   -4664.1453    14018.951   -7347.3994   -20663.988    2601.1199   -24370.703   -11996.224    76.903416 
   77700    1208.4027   -107.01268    1.0933882   -105.91929    516.80503    4.2383202    4.2383202    4.2383202    516.80503   -9408.7022    6100.7923    4858.3251     7175.847   -11637.923    6133.5763    76.134463 
   77800      933.512    -106.7686   0.84466127   -105.92394    10783.823    4.2371275    4.2371275    4.2371275    10783.823    4701.2978   -8267.1815    35917.352   -29866.525    8354.1228   -10839.545    76.070207 
   77900      1114.98   -106.92828    1.0088573   -105.91943   -14241.997     4.261909     4.261909     4.261909   -14241.997   -2195.9135   -6965.2033   -33564.874    672.26164   -38290.761   -23499.231    77.412754 
   78000    1680.5775   -107.42697    1.5206218   -105.90634    1032.0231    4.2536266    4.2536266    4.2536266    1032.0231    23098.402   -13130.932   -6871.3998   -6987.1134   -623.74689     9177.405    76.962311 
   78100    1143.5486   -106.94717    1.0347068   -105.91246    4041.8756    4.2364709    4.2364709    4.2364709    4041.8756    22233.479   -19474.273    9366.4204   -23329.454   -4493.2652   -11492.707    76.034849 
   78200    894.40327   -106.73686   0.80927487   -105.92758   -6473.7187    4.2404968    4.2404968    4.2404968   -6473.7187    3065.7039    14876.012   -37362.872    4961.0582   -40917.077   -28428.866    76.251823 
   78300    1524.9081    -107.3011    1.3797689   -105.92134    12299.916    4.2473985    4.2473985    4.2473985    12299.916    13264.403    14264.345    9371.0017   -10117.446    6500.0995    4566.3727     76.62474 
   78400    964.50032    -106.8044   0.87270016    -105.9317   -10461.517    4.2560761    4.2560761    4.2560761   -10461.517   -19418.536   -6269.0818   -5696.9342   -13375.941   -13360.818   -10939.389    77.095346 
   78500    975.62937   -106.81358   0.88276996   -105.93081   -10626.465    4.2487241    4.2487241    4.2487241   -10626.465   -5321.1349    7406.1491    -33964.41    12026.486   -36656.345   -29585.562    76.696507 
   78600    1845.1929    -107.5776    1.6695693   -105.90803    26799.918    4.2397499    4.2397499    4.2397499    26799.918    25293.142    31146.813      23959.8   -1767.6457    14031.244    6903.4063    76.211535 
   78700    875.79924    -106.7157   0.79244156   -105.92326   -17608.509    4.2550893    4.2550893    4.2550893   -17608.509   -9358.3276   -1248.3932   -42218.805   -12644.831   -25116.293   -4453.8926    77.041731 
   78800    763.07781   -106.61613   0.69044884   -105.92568    -14598.94    4.2507735    4.2507735    4.2507735    -14598.94   -16971.183    4195.0532   -31020.691    15934.371    -24014.09    -17757.98    76.807547 
   78900    1637.3362   -107.39431    1.4814962   -105.91281    30857.751    4.2332492    4.2332492    4.2332492    30857.751    9239.9308    31580.791    51752.531    15874.895    16244.486    3528.4084    75.861513 
   79000    1182.0217   -106.99896    1.0695181   -105.92944     2883.949    4.2459836    4.2459836    4.2459836     2883.949   -15383.042    11888.089      12146.8   -13650.325   -27173.781   -6540.9353     76.54819 
   79100    864.53668   -106.71373   0.78225096   -105.93148   -7964.1519    4.2553131    4.2553131    4.2553131   -7964.1519   -19400.112   -20104.985    15612.642    31800.262   -14006.709   -11782.411    77.053886 
   79200    1582.8319   -107.34664    1.4321796   -105.91446    11806.678    4.2478691    4.2478691    4.2478691    11806.678    8037.8549   -18.584883    27400.765    21504.779    12045.501    8274.9935    76.650216 
   79300    1040.0161   -106.85986   0.94102846   -105.91883    2644.7704    4.2443122    4.2443122    4.2443122    2644.7704   -1634.8765    22518.436   -12949.248   -12112.444   -20676.407   -12620.932     76.45783 
   79400    454.21654   -106.34379   0.41098467   -105.93281   -8541.9578    4.2391054    4.2391054    4.2391054   -8541.9578   -12561.589   -22812.245    9747.9606    51994.173   -9397.1046   -10358.188    76.176788 
   79500    1543.3872   -107.32381    1.3964892   -105.92732    14671.611    4.2443217    4.2443217    4.2443217    14671.611     24592.79    2170.1542    17251.888    4938.4079    5524.0702    5328.5955    76.458344 
   79600    1575.9567   -107.35259    1.4259587   -105.92663   -838.09278    4.2522149    4.2522149    4.2522149   -838.09278    -12519.48   -9244.6908    19249.893    1813.2389   -17719.761   -5615.3394    76.885708 
   79700    723.74362   -106.59106   0.65485844   -105.93621    5853.5878    4.2441272    4.2441272    4.2441272    5853.5878    -19816.18   -14011.087     51388.03    56039.542   -6005.6882   -15574.918    76.447831 
   79800    1518.0011   -107.29284    1.3735193   -105.91932    12642.793    4.2430315    4.2430315    4.2430315    12642.793    15651.512   -1666.4087    23943.275   -17285.379    10276.109   -2199.8502    76.388638 
   79900    1053.0711   -106.87623   0.95284087   -105.92339    728.17906    4.2468627    4.2468627    4.2468627    728.17906   -27670.435    4625.3176    25229.655    16972.904    -16148.75    6654.3016     76.59575 
   80000    864.75352    -106.7116   0.78244716   -105.92915   -484.63122    4.2464342    4.2464342    4.2464342   -484.63122    -21734.87    2599.5315    17681.445    43713.259   -6752.9469   -24834.794    76.572566 
   80100    1592.4089   -107.35668     1.440845   -105.91584     15931.76    4.2456345    4.2456345    4.2456345     15931.76    22963.493    21800.746    3031.0411   -18086.474    7891.9012   -7648.2505    76.529312 
   80200    1101.1767   -106.92152   0.99636783   -105.92515   -1035.1367    4.2459992    4.2459992    4.2459992   -1035.1367   -23261.692     -11205.4    31361.682    32221.772   -13515.293    14851.832    76.549036 
   80300    767.49856   -106.62399   0.69444883   -105.92954    3919.6588    4.2460322    4.2460322    4.2460322    3919.6588   -14573.531    3849.6532    22482.854    28826.588   -3251.5769    -28854.43    76.550822 
   80400    1387.7102   -107.17731    1.2556293   -105.92168    10248.063    4.2426901    4.2426901    4.2426901    10248.063    13764.975    5271.9493    11707.264   -12975.371     7437.398   -483.00129    76.370203 
   80500    1157.4256   -106.97443     1.047263   -105.92717    5357.9016    4.2448899    4.2448899    4.2448899    5357.9016   -15061.605   -3986.1665    35121.476    31895.287   -6243.1899    21520.015    76.489056 
   80600    1031.4436    -106.8612   0.93327188   -105.92793     3097.385     4.250697     4.250697     4.250697     3097.385   -699.40391    16126.325   -6134.7661    16011.665   -3334.7369   -34148.983    76.803398 
   80700    1649.2018   -107.40645    1.4922324   -105.91422    3839.7221     4.249117     4.249117     4.249117    3839.7221    13368.556    5355.5243   -7204.9142   -11625.081     8145.638   -6049.5324    76.717787 
   80800    1043.8033   -106.86606   0.94445518   -105.92161    5422.2271    4.2430702    4.2430702    4.2430702    5422.2271    1472.4908   -10338.054    25132.244    38703.934   -2812.1895    16472.137    76.390726 
   80900    840.94693   -106.68846   0.76090646   -105.92756    3692.5768    4.2438947    4.2438947    4.2438947    3692.5768    14928.952    -1102.761   -2748.4602    7757.6012   -7599.7477   -38320.648    76.435271 
   81000      1387.71   -107.17528    1.2556291   -105.91965   -1019.1986    4.2486204    4.2486204    4.2486204   -1019.1986    2458.2802   -20130.159    14614.283   -9266.5054    5828.5465    -9216.986    76.690892 
   81100    1058.0044   -106.88235   0.95730461   -105.92504    2711.2484    4.2485989    4.2485989    4.2485989    2711.2484   -994.40496   -8044.7574    17172.908    36689.212   -316.00725    13788.951     76.68973 
   81200    1393.9268   -107.18234    1.2612543   -105.92108    3552.7913    4.2460161    4.2460161    4.2460161    3552.7913    13186.037    17664.277    -20191.94   -716.16158   -11232.069   -25336.151    76.549951 
   81300    1458.0491   -107.23809    1.3192734   -105.91881    10482.834    4.2404832    4.2404832    4.2404832    10482.834    19926.294   -7798.4253    19320.634   -10334.823    1098.5363   -3367.6211    76.251085 
   81400    811.73808   -106.66425   0.73447768   -105.92977    7099.9811    4.2465486    4.2465486    4.2465486    7099.9811    19773.274   -8216.9096     9743.579    32703.884   -1936.6364    15380.637    76.578752 
   81500    1291.0756   -107.09025    1.1681924   -105.92206   -14601.131    4.2531504    4.2531504    4.2531504   -14601.131    13889.328   -27440.697   -30252.023   -4040.4007   -11763.993   -7461.9551    76.936463 
   81600    1004.7247   -106.83327   0.90909605   -105.92417    6969.7537     4.240196     4.240196     4.240196    6969.7537    20815.164   -28516.034    28610.131   -8451.6127    1595.0278   -731.77812    76.235595 
   81700    960.39067   -106.80246   0.86898166   -105.93348    76.355906    4.2422922    4.2422922    4.2422922    76.355906    12018.008   -26634.475    14845.536    36394.197    1754.1801    18931.893    76.348714 
   81800    2015.9649   -107.74382    1.8240874   -105.91974   -1106.1687    4.2493693    4.2493693    4.2493693   -1106.1687    19251.009    2516.4611   -25085.976   -857.75021   -5725.4175   -1665.1349    76.731455 
   81900    1220.2087   -107.03571    1.1040705   -105.93164    12032.895    4.2405221    4.2405221    4.2405221    12032.895    22741.626   -15741.104    29098.163   -1785.8534   -5680.4049   -8313.4964    76.253184 
   82000    596.47448   -106.48196   0.53970265   -105.94226   -10711.487    4.2476596    4.2476596    4.2476596   -10711.487   -3066.5109   -43629.855    14561.903    31876.929    10418.017    23121.085    76.638875 
   82100    1617.7715   -107.38711    1.4637936   -105.92332   -2926.8532    4.2475573    4.2475573    4.2475573   -2926.8532    36659.959   -34287.836   -11152.683   -2736.7428    5581.6747   -440.34664    76.633337 
   82200    885.80489    -106.7317   0.80149488    -105.9302    13501.403    4.2374616    4.2374616    4.2374616    13501.403    35028.483   -30870.662    36346.388    13184.259   -7874.1511   -7882.1925    76.088203 
   82300    880.16201   -106.73089   0.79638908    -105.9345   -12708.809    4.2515385    4.2515385    4.2515385   -12708.809   -16176.572   -35761.117    13811.261    20367.401    11907.015    15947.603    76.849025 
   82400    1687.6462   -107.44752    1.5270178   -105.92051   -1835.5564    4.2484742    4.2484742    4.2484742   -1835.5564    30451.186   -7651.4072   -28306.448    -8557.926    5028.4442   -20725.632    76.682976 
   82500    1367.2845   -107.15637    1.2371477   -105.91922    18405.584     4.236757     4.236757     4.236757    18405.584    29873.832    7217.1085    18125.812    19052.075   -3860.7814   -10269.869    76.050255 
   82600    1087.5822   -106.90828   0.98406726   -105.92421   -6993.7258    4.2498045    4.2498045    4.2498045   -6993.7258    -11593.74   -23174.793    13787.356    8872.8393    6493.7238    11432.486     76.75503 
   82700    1004.3365   -106.83476   0.90874474   -105.92601   -12986.049    4.2457613    4.2457613    4.2457613   -12986.049    32690.824   -33668.572   -37980.398    -8104.347    202.45134   -39797.206    76.536171 
   82800    1283.5425   -107.08277    1.1613762   -105.92139    14162.977     4.237238     4.237238     4.237238    14162.977    38031.079   -18191.624    22649.477    13890.388    896.45964   -8595.2823    76.076158 
   82900    1176.2122    -106.9931    1.0642615   -105.92884   -12104.791    4.2497685    4.2497685    4.2497685   -12104.791    845.98033   -40388.824    3228.4695   -1268.4084    3787.8903    3140.4479    76.753083 
   83000    859.50527   -106.71344   0.77769843   -105.93574   -15828.252    4.2494809    4.2494809    4.2494809   -15828.252    28800.297   -31891.691   -44393.362   -7775.0968    3404.2932   -50779.199    76.737501 
   83100    2094.5029   -107.80817    1.8951502   -105.91302    13264.547    4.2463965    4.2463965    4.2463965    13264.547    11468.015    12307.268    16018.358    7832.9685   -3239.2691    9735.1967    76.570526 
   83200    1001.6141   -106.83662   0.90628153   -105.93034   -22300.002     4.251926     4.251926     4.251926   -22300.002   -9050.4782   -33899.335   -23950.194   -3468.4653   -910.67902   -27398.137     76.87004 
   83300    419.24699   -106.31891   0.37934349   -105.93957   -9375.2936    4.2401689    4.2401689    4.2401689   -9375.2936    33466.131   -42578.148   -19013.864   -12134.867    8803.9563    -39859.27    76.234136 
   83400    1693.8486   -107.45858    1.5326298   -105.92595    17102.382    4.2390338    4.2390338    4.2390338    17102.382    31554.712   -17677.181    37429.617    2147.6333   -10265.477    15131.067    76.172927 
   83500    1186.4578   -107.00815    1.0735319   -105.93461   -6886.0527    4.2498319    4.2498319    4.2498319   -6886.0527    34372.567   -28107.016   -26923.709    2646.6486     118.0897   -41128.305    76.756516 
   83600    1031.0413   -106.86662   0.93290784   -105.93371    3068.3216    4.2433494    4.2433494    4.2433494    3068.3216    46236.797   -21989.169   -15042.663   -15459.397    6632.4173    -17561.51    76.405807 
   83700    1452.9972   -107.23889    1.3147024   -105.92419    6364.5358    4.2412142    4.2412142    4.2412142    6364.5358     18859.56   -19895.984    20130.031    11626.287   -6207.0201    8407.5993    76.290528 
   83800     1281.846   -107.08367    1.1598412   -105.92383    177.82175     4.247243     4.247243     4.247243    177.82175    24869.081   -7651.1988   -16684.417    7623.9413    4086.9221   -39433.996    76.616327 
   83900    1121.9247   -106.93883     1.015141   -105.92369    9628.4796    4.2436583    4.2436583    4.2436583    9628.4796    39939.745   -18889.835    7835.5291   -17914.613    853.36707    7254.5385    76.422497 
   84000    808.52031   -106.66083   0.73156616   -105.92927    1583.8852    4.2433965    4.2433965    4.2433965    1583.8852    18771.647   -43597.551     29577.56    21120.535    2353.0659    12587.243    76.408352 
   84100    1589.5658   -107.36074    1.4382726   -105.92247    6012.0052    4.2456338    4.2456338    4.2456338    6012.0052    36189.729   -12981.487   -5172.2261    4465.6518    2687.9647   -19782.373    76.529274 
   84200    1285.7706   -107.09226    1.1633922   -105.92887    4049.5462    4.2430149    4.2430149    4.2430149    4049.5462     42986.03   -28501.183   -2336.2086   -2315.5762    116.36805    18173.915     76.38774 
   84300     656.3385   -106.53456   0.59386887   -105.94069   -14887.105    4.2448441    4.2448441    4.2448441   -14887.105   -21191.941   -50716.047    27246.672    21698.955    5465.1464    8323.8974    76.486577 
   84400    1668.7443   -107.43257    1.5099149   -105.92266    3400.7114    4.2443851    4.2443851    4.2443851    3400.7114    15121.862    3632.4285    -8552.156    629.93814   -16790.969   -2943.3269    76.461768 
   84500    1227.5479   -107.04035    1.1107112   -105.92964    -2678.869    4.2421683    4.2421683    4.2421683    -2678.869    35857.686   -29033.583    -14860.71    14883.044   -1312.7359     27529.56    76.342028 
   84600     749.0921   -106.61443   0.67779428   -105.93664   -14382.579     4.245423     4.245423     4.245423   -14382.579    -7849.509   -63792.748    28494.519    28746.747    3148.3726    6721.7798    76.517876 
   84700    1587.0524   -107.35983    1.4359984   -105.92383    2713.6182    4.2462623    4.2462623    4.2462623    2713.6182    38787.553   -23094.716   -7551.9821   -14157.323   -10438.185   -12254.845    76.563265 
   84800    1187.9113   -107.00163    1.0748471   -105.92678   -6407.6917    4.2467578    4.2467578    4.2467578   -6407.6917    36750.233   -35338.354   -20634.954    27022.594    3190.9726    13802.348     76.59007 
   84900    940.53944   -106.78108   0.85101985   -105.93006   -11182.761    4.2409828    4.2409828    4.2409828   -11182.761   -27651.419   -34082.626    28185.762    30703.937   -3400.7386    9378.8137    76.278044 
   85000    1515.2569   -107.29434    1.3710363   -105.92331    4794.2676    4.2410177    4.2410177    4.2410177    4794.2676    30239.246     -1125.85   -14730.593   -33181.364   -1633.4339   -15140.392    76.279927 
   85100    1029.5168   -106.86028    0.9315284   -105.92875   -15993.232    4.2515508    4.2515508    4.2515508   -15993.232    18238.154   -39693.731   -26524.118     39608.16    3136.9967    3242.3571    76.849688 
   85200    1034.4816   -106.86691   0.93602073   -105.93089   -9753.1057    4.2441929    4.2441929    4.2441929   -9753.1057   -15916.228   -34030.657    20687.568    30949.312   -89.072378    10003.158     76.45138 
   85300    1613.1004   -107.37994    1.4595672   -105.92037    14973.536    4.2396321    4.2396321    4.2396321    14973.536    45670.008   -51.248425   -698.15028    -31683.99   -439.38955   -19346.084    76.205185 
   85400    957.71733   -106.79938   0.86656276   -105.93282   -18612.077    4.2479616    4.2479616    4.2479616   -18612.077   -9009.5541   -50649.446    3822.7688     51624.52   -6640.4373   -1521.6226     76.65522 
   85500    1121.4388   -106.94854    1.0147014   -105.93384   -8523.5748    4.2438806    4.2438806    4.2438806   -8523.5748   -34115.637   -479.83173    9024.7447    34352.524    5879.3022    18288.711    76.434508 
   85600    1717.3675   -107.47403    1.5539102   -105.92012    10999.991    4.2427011    4.2427011    4.2427011    10999.991   -5487.8915    40580.181   -2092.3169   -12237.958    4321.7022   -13414.874    76.370796 
   85700    592.01646   -106.47547   0.53566894    -105.9398   -9976.6101     4.247637     4.247637     4.247637   -9976.6101   -13509.095   -18164.507    1743.7711    50500.815   -4884.6856    801.98398    76.637652 
   85800    991.08401   -106.83328   0.89675364   -105.93653   -6279.4856    4.2443866    4.2443866    4.2443866   -6279.4856    13261.075   -1468.3173   -30631.214    12113.348    6103.3082    24082.821     76.46185 
   85900     1655.662    -107.4205    1.4980778   -105.92242    15242.285    4.2423787    4.2423787    4.2423787    15242.285    17365.023    36878.552   -8516.7186   -1537.2672   -381.50102   -4069.0025    76.353388 
   86000    1134.4757   -106.95959    1.0264974   -105.93309   -12481.269    4.2489964    4.2489964    4.2489964   -12481.269   -7219.1676   -28635.941   -1588.6998    49764.747    -2228.808     10271.43    76.711256 
   86100    1170.5715   -106.98842    1.0591577   -105.92927   -17226.924     4.247508     4.247508     4.247508   -17226.924    16157.855   -30685.992   -37152.636   -4361.3167    5846.3335    24469.645    76.630671 
   86200     1277.814   -107.08102     1.156193   -105.92483     1709.188    4.2360931    4.2360931    4.2360931     1709.188   -17011.553    14501.977    7637.1401   -19026.841    3479.3064   -9808.2058     76.01451 
   86300    1058.5344   -106.88967   0.95778415   -105.93189   -9600.9339    4.2424852    4.2424852    4.2424852   -9600.9339   -10003.855   -16063.101    -2735.846    32377.404   -1438.2777    17048.009    76.359137 
   86400    988.63422   -106.82604   0.89453702    -105.9315   -6490.5937    4.2489557    4.2489557    4.2489557   -6490.5937    41574.954   -21887.803   -39158.932    528.39423    2791.7919    32741.067    76.709049 
   86500    1322.1157   -107.12135    1.1962781   -105.92507     8318.529    4.2443838    4.2443838    4.2443838     8318.529    12098.967    3593.1687    9263.4515   -33519.951    4343.2878   -18039.604      76.4617 
   86600      1288.74    -107.0932    1.1660791   -105.92712   -6256.8323    4.2439647    4.2439647    4.2439647   -6256.8323    15753.912    -26308.46   -8215.9486    17194.411     2282.056    24220.836    76.439054 
   86700     1204.105   -107.01825    1.0894995   -105.92875    4212.0962    4.2422552    4.2422552    4.2422552    4212.0962    52542.369    -12398.04    -27508.04    8419.0619    721.73305     37706.87    76.346718 
   86800    1451.4332   -107.23783    1.3132873   -105.92454    6170.1026    4.2440971    4.2440971    4.2440971    6170.1026    33.620576   -395.57783    18872.265   -37305.215   -1565.5851   -23270.649    76.446207 
   86900     867.1148   -106.71807   0.78458369   -105.93348   -11916.942    4.2480997    4.2480997    4.2480997   -11916.942   -8319.7127   -20939.561   -6491.5522    1125.0894   -1469.6666    29905.699      76.6627 
   87000    1028.9574   -106.86137   0.93102228   -105.93035   -4604.4004    4.2454153    4.2454153    4.2454153   -4604.4004    17645.205   -16959.753   -14498.653    16410.433   -5220.3047    36408.956    76.517462 
   87100    1536.3959   -107.31177    1.3901633   -105.92161    13709.746    4.2422605    4.2422605    4.2422605    13709.746    8467.0727   -3441.4251     36103.59   -24864.497      1588.92   -17941.305    76.347003 
   87200    910.91311   -106.75963   0.82421332   -105.93542   -14269.467    4.2455014    4.2455014    4.2455014   -14269.467      22223.2    -55484.49   -9547.1095   -2104.7285    3058.2634    28446.566    76.522116 
   87300    1030.3787   -106.86989   0.93230831   -105.93759   -9514.0629    4.2465284    4.2465284    4.2465284   -9514.0629    10443.519   -46254.123    7268.4153    38357.201   -8092.4508    23694.485    76.577663 
   87400    1851.5567   -107.59752    1.6753274   -105.92219    12322.401    4.2443387    4.2443387    4.2443387    12322.401    16154.274   -561.61753    21374.545   -2160.1226    9381.2471   -8381.2609    76.459264 
   87500    951.87195   -106.80071   0.86127374   -105.93943   -10815.177    4.2461896    4.2461896    4.2461896   -10815.177    16759.841   -27819.307   -21386.065    10900.795    2626.9213    32956.433    76.559334 
   87600    762.22454   -106.63439   0.68967678   -105.94472   -15956.281    4.2439623    4.2439623    4.2439623   -15956.281   -14414.926   -54142.556    20688.639    46870.216   -4281.3656    3389.7117    76.438924 
   87700      1778.75   -107.53584    1.6094504   -105.92639    18698.204    4.2418861    4.2418861    4.2418861    18698.204    18467.601     8666.159    28960.853   -8671.9956    6407.1183   -8298.5265    76.326792 
   87800     1194.578   -107.01223    1.0808793   -105.93135   -6471.2272    4.2509321    4.2509321    4.2509321   -6471.2272    12107.854   -23490.402   -8031.1334    17867.775   -3679.3127    27959.647    76.816143 
   87900    656.11689   -106.52857   0.59366835    -105.9349   -13170.022    4.2464185    4.2464185    4.2464185   -13170.022   -1717.5294   -47573.652    9781.1141    44456.956   -1492.5549    -4227.909    76.571718 
   88000    1337.8472   -107.13552    1.2105122   -105.92501    14443.213    4.2391024    4.2391024    4.2391024    14443.213    18022.677    13697.544    11609.418   -31176.703   -4116.9719   -14871.596    76.176627 
   88100    1309.7271   -107.11321    1.1850686   -105.92814   -4115.7637    4.2470066    4.2470066    4.2470066   -4115.7637    5134.8646   -11797.852   -5684.3034    17224.572   -142.80528     9978.319    76.603535 
   88200    1076.5158   -106.90882   0.97405415   -105.93477   -2508.1979    4.2421949    4.2421949    4.2421949   -2508.1979    11918.157   -28086.226    8643.4751    39530.312    1734.6075    8369.3053    76.343462 
   88300    1354.3706   -107.15856     1.225463    -105.9331    3901.8669    4.2423659    4.2423659    4.2423659    3901.8669    14657.657   -20934.257    17982.201   -45888.532   -6749.3508    -20841.25    76.352697 
   88400    1297.2788   -107.10157    1.1738052   -105.92777   -10340.244    4.2506954    4.2506954    4.2506954   -10340.244   -11882.899   -36444.627    17306.793    13285.743    6407.5169   -5446.9151    76.803316 
   88500    1102.1799   -106.92276   0.99727553   -105.92549   -1794.0854    4.2436308    4.2436308    4.2436308   -1794.0854    1360.0522   -21519.345    14777.037    31556.676    1475.2382    22610.277    76.421009 
   88600     1090.341   -106.91445   0.98656348   -105.92789   -6515.9419    4.2450771    4.2450771    4.2450771   -6515.9419    645.65386   -19134.529   -1058.9504   -45276.473     400.6162   -15656.032    76.499172 
   88700    1382.2389   -107.17506    1.2506788   -105.92438    -4728.847    4.2475656    4.2475656    4.2475656    -4728.847    2953.7976   -17195.365    55.026771    8598.9221    5288.8772   -19126.111    76.633787 
   88800     1428.099   -107.21798     1.292174   -105.92581    6796.8937     4.240818     4.240818     4.240818    6796.8937    18061.359    926.09927     1403.223    19138.881   -12052.357    30214.254     76.26915 
   88900    988.41423   -106.82989   0.89433797   -105.93555   -11282.618    4.2451881    4.2451881    4.2451881   -11282.618    18542.913   -35145.464   -17245.302   -34107.926    747.22324   -10149.135    76.505175 
   89000    1178.9691    -106.9974     1.066756   -105.93065   -322.75932    4.2457946    4.2457946    4.2457946   -322.75932    18196.946   -24372.384    5207.1599    852.78269     1995.878   -39705.057    76.537968 
   89100    1392.5458   -107.18411    1.2600047   -105.92411    3117.6162    4.2422642    4.2422642    4.2422642    3117.6162   -13163.844    1234.8285    21281.864    6822.7203   -6040.2693     31908.19    76.347206 
   89200     479.5212   -106.37384   0.43388086   -105.93996   -27807.617    4.2481887    4.2481887    4.2481887   -27807.617   -7464.5582   -58646.555   -17311.737   -27404.987    1922.5629   -17702.231    76.667517 
   89300    1210.7866    -107.0333    1.0955451   -105.93775   -7632.1294     4.246106     4.246106     4.246106   -7632.1294    7965.7261   -38546.008    7683.8934    -9862.858   -5199.9458   -42816.297    76.554811 
   89400    2120.6363   -107.84195    1.9187962   -105.92316    21134.217    4.2397038    4.2397038    4.2397038    21134.217    18471.537    6319.1678    38611.946    4810.6065    5973.4337    19982.363    76.209048 
   89500    819.30034   -106.68828   0.74132017   -105.94696   -16020.498    4.2442702    4.2442702    4.2442702   -16020.498    27956.169   -65678.842   -10338.821   -22758.873    1780.1582   -48812.494    76.455558 
   89600    989.44137   -106.83867   0.89526734    -105.9434   -9873.3084    4.2459135    4.2459135    4.2459135   -9873.3084    12131.445    -48043.52    6292.1499   -6717.9654   -1430.7439    -14378.47      76.5444 
   89700    1617.8913   -107.39133    1.4639021   -105.92743    7533.4775    4.2458728    4.2458728    4.2458728    7533.4775    18.671135    -8920.006    31501.767    19730.988    5781.7866    10363.806    76.542201 
   89800    1083.1996   -106.91396   0.98010172   -105.93386   -2083.4325    4.2448973    4.2448973    4.2448973   -2083.4325    14296.771   -39299.696    18752.627    -16823.14   -8672.2259   -48498.465    76.489456 
   89900    1061.4432   -106.89566   0.96041615   -105.93524   -2374.3532    4.2430813    4.2430813    4.2430813   -2374.3532   -15888.458   -24124.377    32889.776   -7892.8645    2282.0838    69.391649    76.391328 
   90000    1364.6065   -107.16452    1.2347246   -105.92979    4397.3441    4.2447037    4.2447037    4.2447037    4397.3441    -8032.818   -25.297757    21250.148    27162.879    5845.6764    16532.247    76.478989 
   90100    1289.9284   -107.09605    1.1671543    -105.9289   -801.90022    4.2462313    4.2462313    4.2462313   -801.90022    19623.022    1747.7077    -23776.43   -10931.975   -10124.163   -27557.965     76.56159 
   90200    831.36809   -106.68453   0.75223932   -105.93229   -9191.1967    4.2457224    4.2457224    4.2457224   -9191.1967   -14532.399   -7060.2705   -5980.9205   -19254.981    144.70664   -3229.6518    76.534064 
   90300    971.33569   -106.80924   0.87888494   -105.93036   -4199.0703    4.2443125    4.2443125    4.2443125   -4199.0703    13987.284   -12720.549   -13863.945    36516.529   -846.74003    21841.151    76.457846 
   90400    1415.3272   -107.20817    1.2806178   -105.92755   -745.20272    4.2439245    4.2439245    4.2439245   -745.20272    19898.488   -13031.462   -9102.6348   -8995.6696   -2246.5524   -5010.7837     76.43688 
   90500    1190.0177   -107.01063     1.076753   -105.93388    2228.0178    4.2426486    4.2426486    4.2426486    2228.0178   -3693.8371   -30012.294    40390.184   -28487.809   -229.83633   -8935.7917    76.367962 
   90600    1233.0484   -107.05255    1.1156881   -105.93686   -10978.939     4.246204     4.246204     4.246204   -10978.939   -2550.5462   -52318.393    21932.123    37584.496   -3604.9977    27448.212    76.560111 
   90700    1598.7694   -107.37512    1.4466002   -105.92852    23.020266    4.2462746    4.2462746    4.2462746    23.020266    19520.514   -18437.651   -1013.8025   -2506.6145   -8659.1637    11255.846    76.563932 
   90800    1313.7004   -107.11933    1.1886638   -105.93066    4573.4451    4.2407583    4.2407583    4.2407583    4573.4451    13368.743    -16890.32    17241.912   -22769.738   -7684.0841   -5769.6066    76.265931 
   90900     494.7866   -106.39069   0.44769332     -105.943   -15987.409    4.2431403    4.2431403    4.2431403   -15987.409    16652.912   -66686.316    2071.1777    32713.121     831.2681    33741.335    76.394515 
   91000    1244.3941   -107.06336    1.1259539   -105.93741   -2069.4198    4.2460197    4.2460197    4.2460197   -2069.4198    32216.005   -26688.309   -11735.955    9393.5431    -9127.649    8957.5712    76.550144 
   91100    1705.6627   -107.47335    1.5433195   -105.93003    3010.8197    4.2450036    4.2450036    4.2450036    3010.8197    7378.2691   -10783.744    12437.934   -8514.4952   -8888.6205   -7128.7097    76.495202 
   91200    846.58719   -106.70945   0.76600988   -105.94344   -14685.684    4.2431288    4.2431288    4.2431288   -14685.684   -22706.626   -54972.434    33622.007    34707.072    1248.2079     36147.09    76.393894 
   91300    974.57567    -106.8217   0.88181655   -105.93989   -881.21192    4.2395885    4.2395885    4.2395885   -881.21192   -6096.5359   -19770.807    23223.707     8402.199   -7986.6469   -11805.247    76.202835 
   91400    1453.8102    -107.2483     1.315438   -105.93287    4337.8678     4.244967     4.244967     4.244967    4337.8678    2092.6906   -637.77475    11558.687    -4198.086    1198.6367   -23507.107    76.493224 
   91500    1198.7392   -107.01622    1.0846444   -105.93158   -6773.2371    4.2517937    4.2517937    4.2517937   -6773.2371   -19524.223    -37197.75    36402.262    36063.616    3393.0996    26419.751    76.862864 
   91600    1157.4527    -106.9777    1.0472876   -105.93041    -4300.224    4.2448212    4.2448212    4.2448212    -4300.224    19135.387   -34658.027    2621.9687    963.74178    -4913.595   -23001.057     76.48534 
   91700    1362.7297   -107.16035    1.2330265   -105.92732    6811.1178    4.2411837    4.2411837    4.2411837    6811.1178   -220.49379   -1703.5082    22357.355   -7526.5187   -7096.7181   -19636.206    76.288881 
   91800    1259.3741   -107.06707    1.1395081   -105.92756   -9824.0576    4.2491708    4.2491708    4.2491708   -9824.0576   -39017.566   -14041.448    23586.841    28264.659    10295.068     6683.444    76.720703 
   91900    936.05015   -106.77816   0.84695785    -105.9312   -6469.6183    4.2461729    4.2461729    4.2461729   -6469.6183   -11489.002   -21892.181    13972.328    3901.3902    3061.8524   -21247.883    76.558428 
   92000    1170.0294   -106.98851    1.0586672   -105.92984    1541.1941    4.2384366    4.2384366    4.2384366    1541.1941   -35418.257    6582.0078    33459.832   -15343.375   -6447.1285   -8327.7219    76.140735 
   92100    1079.2036   -106.91201   0.97648611   -105.93553   -7144.1008    4.2445141    4.2445141    4.2445141   -7144.1008    -59740.31    7905.3545    30402.653    14276.279    17314.737   -237.18725    76.468742 
   92200    1012.5901   -106.85435   0.91621282   -105.93814   -5078.5901    4.2473307    4.2473307    4.2473307   -5078.5901    6450.1275   -16526.077   -5159.8205    9248.7195    5903.7552   -14805.814    76.621076 
   92300    1448.5127   -107.24086    1.3106448   -105.93022    4264.9703    4.2488339    4.2488339    4.2488339    4264.9703    1879.1873   -22854.697    33770.421   -17539.635    30.235958   -4172.8897    76.702454 
   92400    1726.4584   -107.48532    1.5621359   -105.92319   -4190.3682    4.2500666    4.2500666    4.2500666   -4190.3682   -21120.617   -16654.379    25203.891   -520.47339    13649.456   -1608.7707    76.769235 
   92500     1007.444   -106.84319   0.91155654   -105.93163    9018.8767     4.238744     4.238744     4.238744    9018.8767    28436.261   -6389.4395    5009.8086    3743.7574   -3220.6119   -27639.622    76.157302 
   92600    899.57321   -106.75027   0.81395274   -105.93632    765.51366    4.2443585    4.2443585    4.2443585    765.51366   -20322.614   -15996.681    38615.836    -26506.85   -5145.6949    8515.3556    76.460333 
   92700    1450.9705   -107.23674    1.3128686   -105.92387    -10602.45    4.2564036    4.2564036    4.2564036    -10602.45   -39883.934   -12595.137    20671.721   -7383.6632    2438.1135    271.21759    77.113142 
   92800    1198.6589   -107.01818    1.0845718   -105.93361    3367.0014    4.2371377    4.2371377    4.2371377    3367.0014     14937.91   -11225.848    6388.9421       7782.3   -2498.6768    -38440.56    76.070754 
   92900    605.09545   -106.49151   0.54750308   -105.94401   -1846.1112    4.2321736    4.2321736    4.2321736   -1846.1112   0.36238129   -26140.911    20602.215   -35280.526   -6803.2526    18459.309    75.803701 
   93000    1160.2693   -106.99474     1.049836    -105.9449    -18106.04    4.2494113    4.2494113    4.2494113    -18106.04   -17778.111   -23978.153   -12561.856   -17028.813    2639.4589    13562.301     76.73373 
   93100    1720.8112   -107.48564    1.5570261   -105.92861    2014.3389    4.2512562    4.2512562    4.2512562    2014.3389    31050.271   -11964.361   -13042.894    7580.3498    4202.8357   -17449.436    76.833715 
   93200    671.08828   -106.54676   0.60721478   -105.93954   -14622.828    4.2516255    4.2516255    4.2516255   -14622.828    11517.805   -48444.561   -6941.7261   -34562.633   -6719.1219    24246.605    76.853741 
   93300    1186.8877   -107.00673    1.0739209    -105.9328   -4192.2712    4.2475313    4.2475313    4.2475313   -4192.2712    1293.1588    -20748.91    6878.9374   -14872.515    1620.3694    16979.307    76.631932 
   93400    2148.1101   -107.86087    1.9436551   -105.91721    19578.505    4.2402061    4.2402061    4.2402061    19578.505    24980.919   -1133.6247     34888.22   -1745.0928    13415.287   -4241.8314    76.236139 
   93500     950.9582   -106.80448   0.86044696   -105.94403   -15056.903    4.2464162    4.2464162    4.2464162   -15056.903     -11592.7    -45597.09    12019.081   -31187.352   -2762.2925    29618.507    76.571593 
   93600    808.74347   -106.67762   0.73176809   -105.94585   -11637.826    4.2414721    4.2414721    4.2414721   -11637.826   -3363.6069   -17546.483   -14003.388   -12062.712    1437.7765    10582.573    76.304443 
   93700    1296.7285   -107.11096    1.1733072   -105.93766    5775.7182    4.2392865    4.2392865    4.2392865    5775.7182    31384.116   -8980.9558   -5076.0056    5478.6626    3484.3876   -36708.131    76.186552 
   93800    1231.3582   -107.04923    1.1141588   -105.93507   -9697.1705    4.2504018    4.2504018    4.2504018   -9697.1705   -17175.437   -32099.269    20183.194   -26676.434   -4852.4232    19025.914    76.787402 
   93900    800.01828   -106.66128   0.72387336   -105.93741    931.29158    4.2451432    4.2451432    4.2451432    931.29158    16787.477   -27019.918    13026.315   -7103.0124    1575.1444   -6207.7903    76.502747 
   94000    1108.6649   -106.94136    1.0031433   -105.93822   -4099.2482    4.2428349    4.2428349    4.2428349   -4099.2482    15647.722   -28778.083    832.61588    4576.2786    2462.4127   -39334.627    76.378023 
   94100    1915.7451   -107.66169    1.7334064   -105.92828    2645.0557    4.2441267    4.2441267    4.2441267    2645.0557   -26256.714   -13916.035    48107.916   -16746.083    844.35949    13494.294    76.447804 
   94200    1297.1574   -107.11106    1.1736953   -105.93736    -1472.805    4.2409257    4.2409257    4.2409257    -1472.805    13480.957   -20328.662    2429.2895   -1974.8559   -3780.1764   -32266.893     76.27496 
   94300    673.78119   -106.55293   0.60965138   -105.94328   -20912.541    4.2480557    4.2480557    4.2480557   -20912.541    9001.1473   -16796.331   -54942.438    4993.4276    8532.0144   -19540.319    76.660314 
   94400    1144.3028   -106.96942    1.0353892   -105.93403    -10195.53    4.2484799    4.2484799    4.2484799    -10195.53   -27405.881    6838.3468   -10019.055   -10110.277    8573.9784    19772.796    76.683283 
   94500    1515.9462   -107.29943      1.37166   -105.92777    8000.3732    4.2406189    4.2406189    4.2406189    8000.3732     9512.767    -7902.127     22390.48   -5796.9591   -8870.7909   -30316.375    76.258407 
   94600    1378.2087   -107.17971    1.2470322   -105.93268    76.017317    4.2413632    4.2413632    4.2413632    76.017317   -701.55978   -13827.602    14757.213    3958.8562    8396.7669   -2869.6794    76.298566 
   94700    638.03294   -106.52207   0.57730561   -105.94477     -13786.2    4.2471175    4.2471175    4.2471175     -13786.2   -45656.556    16108.376    -11810.42   -8498.6169    9306.1373    22097.389    76.609533 
   94800    1381.7093   -107.18434    1.2501996   -105.93414   -1699.0829    4.2478423    4.2478423    4.2478423   -1699.0829   -26988.085    8121.3895    13769.447   -11735.851   -8560.2671   -11035.089    76.648764 
   94900     1461.439    -107.2516    1.3223407   -105.92926   -909.17722    4.2455528    4.2455528    4.2455528   -909.17722    1594.3422     -5875.01    1553.1361    1561.9418     4967.231    8232.2447    76.524894 
   95000    579.34751   -106.46831   0.52420581   -105.94411    -15045.16    4.2441286    4.2441286    4.2441286    -15045.16   -32826.346    27388.558   -39697.691    -6204.184    5666.7223    19023.454    76.447907 
   95100     1516.764   -107.30825       1.3724   -105.93585      1463.91    4.2427215    4.2427215    4.2427215      1463.91   -25718.472    15050.349    15059.853   -6601.0994   -698.35488   -14589.085    76.371898 
   95200    1794.5797   -107.55009    1.6237734   -105.92631    -3359.364    4.2502055    4.2502055    4.2502055    -3359.364   -11554.703   -17414.306    18890.917    4203.0382    819.32645   -1901.6275    76.776763 
   95300    1026.7336   -106.86179   0.92901013   -105.93278   -19883.371    4.2493097    4.2493097    4.2493097   -19883.371   -40859.106     14380.55   -33171.557   -1358.7791   -2162.4222    23093.597    76.728227 
   95400    845.20923   -106.69529   0.76476307   -105.93053    871.58967      4.23744      4.23744      4.23744    871.58967   -2190.1373     21093.97   -16289.064   -5618.4361    7029.7012   -26699.021    76.087037 
   95500    1210.0085   -107.02606    1.0948411   -105.93122   -7249.6672    4.2458521    4.2458521    4.2458521   -7249.6672    86.078887   -19749.656   -2085.4246    7217.0271    1593.4106   -25741.256    76.541079 
   95600    1483.7921   -107.26855    1.3425663   -105.92599   -8137.4009    4.2536819    4.2536819    4.2536819   -8137.4009   -30893.989    7.0583589     6474.728    1757.6639   -2811.9071    19669.602    76.965308 
   95700    861.78527   -106.71638   0.77976142   -105.93662   -2759.6203    4.2432273    4.2432273    4.2432273   -2759.6203    6850.0477   -5655.4849   -9473.4237   -4422.4146     6873.707   -34491.887    76.399215 
   95800    1403.9607   -107.20635    1.2703332   -105.93602    1879.6617    4.2401617    4.2401617    4.2401617    1879.6617   -735.53763   -21766.467     28140.99    10009.863    9274.0934   -17122.905    76.233747 
   95900    1802.2148   -107.55544    1.6306819   -105.92476    6055.4279    4.2479997    4.2479997    4.2479997    6055.4279   -203.03662   -6858.4934    25227.814    -1016.562   -6596.1019    3950.6166    76.657287 
   96000    532.98182   -106.41866   0.48225315   -105.93641   -12045.691    4.2556246    4.2556246    4.2556246   -12045.691    16825.361   -7854.8348     -45107.6    3833.0537    5241.8418   -47551.215    77.070813 
   96100    835.37455   -106.68089   0.75586445   -105.92502   -5211.4887    4.2531988    4.2531988    4.2531988   -5211.4887   -10540.329    9780.3729    -14874.51    9012.3183     5753.328    15386.621    76.939091 
   96200    1592.3071   -107.35506     1.440753   -105.91431    10362.037    4.2426678    4.2426678    4.2426678    10362.037    11207.248   -5152.6164    25031.478    1250.7355   -4680.0744   -12024.588    76.368997 
   96300    1612.7601   -107.37909    1.4592593   -105.91983    11174.319    4.2382564    4.2382564    4.2382564    11174.319      22909.9   -6495.9187    17108.976    3193.2737    7654.7606   -37923.119    76.131023 
   96400    709.60672   -106.58047   0.64206707    -105.9384   -9716.6415    4.2475093    4.2475093    4.2475093   -9716.6415   -14294.517    11809.692   -26665.099    8814.9203     714.8102    27352.761    76.630741 
   96500    878.83456   -106.73768   0.79518798   -105.94249    -15851.98    4.2540255    4.2540255    4.2540255    -15851.98   -10033.548    -5657.214   -31865.179    3955.7016   -7637.5699    6247.1869    76.983963 
   96600    1752.4351   -107.51237    1.5856401   -105.92673    20801.619    4.2394563    4.2394563    4.2394563    20801.619     21389.44     9422.231    31593.186   -822.71676    3895.4298   -12218.496    76.195705 
   96700     912.5948   -106.77143   0.82573496   -105.94569    7152.1305    4.2372327    4.2372327    4.2372327    7152.1305    516.17495    23920.981    -2980.765    8178.7218   -7955.2297    24003.465    76.075876 
   96800    992.23349   -106.84248   0.89779371   -105.94469    -7915.938    4.2550889    4.2550889    4.2550889    -7915.938   -21675.269    8235.8724   -10308.417     3060.261   -4260.7728    7776.8678    77.041711 
   96900    1754.5083   -107.50231     1.587516    -105.9148   -1737.2525      4.25807      4.25807      4.25807   -1737.2525   -6086.7519   -24179.568    25054.562   -11322.071    2611.2818   -13740.663    77.203747 
   97000    976.99223   -106.80026   0.88400311   -105.91626   -4512.0216    4.2464936    4.2464936    4.2464936   -4512.0216   -6632.8148    13516.648   -20419.898    1878.1995   -14533.336    20642.747    76.575778 
   97100    886.86444   -106.71957   0.80245358   -105.91712   -7195.5109    4.2406155    4.2406155    4.2406155   -7195.5109   -6731.4493    13583.413   -28438.497   -4672.7822   -1248.3185    4057.6623    76.258225 
   97200    1207.8976   -107.01587    1.0929312   -105.92294    2482.0834    4.2441609    4.2441609    4.2441609    2482.0834    17032.018    -9953.948    368.18036   -11247.408      2998.24   -39311.101    76.449655 
   97300    1662.4782   -107.42451    1.5042452   -105.92027    3672.9991     4.253224     4.253224     4.253224    3672.9991   -15714.195    20329.351     6403.842   -1799.8419   -16292.245    22542.149    76.940458 
   97400    1093.8546   -106.91923   0.98974261   -105.92949   -6737.8297    4.2487007    4.2487007    4.2487007   -6737.8297   -19738.056    4322.7291   -4798.1622   -6710.7979    501.60259   -4699.2615    76.695243 
   97500    822.02513   -106.67584   0.74378561   -105.93206    7423.5821    4.2360176    4.2360176    4.2360176    7423.5821    9283.4655    3341.6638    9645.6169   -11802.411    7278.3307    -56190.03    76.010446 
   97600    1715.7277   -107.47546    1.5524265   -105.92304     11118.86    4.2458497    4.2458497    4.2458497     11118.86   -5281.9114    20401.863     18236.63   -2363.8699   -7323.7751    19985.802     76.54095 
   97700    925.52049   -106.77769   0.83743039   -105.94026   -16069.329    4.2517207    4.2517207    4.2517207   -16069.329    4387.7525   -20633.969   -31961.772   -514.64811   -2709.6082   -33104.875    76.858901 
   97800    718.03939   -106.59618   0.64969713   -105.94649   -1451.1025     4.239423     4.239423     4.239423   -1451.1025    9270.3493   -12576.479   -1047.1776   -13119.458    3363.6643   -39344.157    76.193908 
   97900    1900.0903   -107.65056    1.7192416   -105.93132    12614.104    4.2430048    4.2430048    4.2430048    12614.104   -3941.7562    4617.8431    37166.226   -5372.9947   -807.80587    26465.993    76.387198 
   98000    1286.2271   -107.09447    1.1638053   -105.93067    7143.4853    4.2490466    4.2490466    4.2490466    7143.4853    13224.038   -9204.1089    17410.527    2370.1565   -1121.0105   -49512.027    76.713973 
   98100    649.38633   -106.51674    0.5875784   -105.92916   -1908.1998    4.2517269    4.2517269    4.2517269   -1908.1998   -14003.684   -2590.5466    10869.631   -17643.217    5670.8185   -13478.494    76.859237 
   98200    1016.6217   -106.83973   0.91986072   -105.91987    -10998.45    4.2511418    4.2511418    4.2511418    -10998.45    -9611.771   -3700.5156   -19683.065   -2216.0123   -1473.7579    35179.001    76.827515 
   98300    1461.1996   -107.23712    1.3221241     -105.915    19671.575    4.2324173    4.2324173    4.2324173    19671.575    27932.736   -1905.1644    32987.153   -3365.6635   -3215.3929   -35100.398    75.816796 
   98400    1163.9835   -106.98246    1.0531967   -105.92926    -1976.053    4.2429525    4.2429525    4.2429525    -1976.053   -6253.3476   -2433.2611    2758.4496   -14712.611     6008.242   -1149.2043    76.384373 
   98500    1035.3724   -106.86723   0.93682673   -105.93041   -32613.915    4.2592287    4.2592287    4.2592287   -32613.915   -24545.034   -20395.748   -52900.964    6440.8299   -7921.0832     40605.48    77.266794 
   98600    1720.1833   -107.47592     1.556458   -105.91947     17456.67    4.2362574    4.2362574    4.2362574     17456.67    533.60564    10712.924    41123.481   -6661.7594    -4635.918   -9364.5887    76.023355 
   98700    1063.6303   -106.89392   0.96239501   -105.93152    275.09457    4.2337148    4.2337148    4.2337148    275.09457    -2791.188    5117.8742   -1501.4025   -15245.676    7795.2613    16064.208    75.886549 
   98800    605.17289   -106.48978   0.54757315   -105.94221   -18882.506    4.2469629    4.2469629    4.2469629   -18882.506   -18073.114    1071.9023   -39646.306    2868.5964   -2909.2016    38009.208    76.601172 
   98900     1383.547   -107.17808    1.2518624   -105.92622    6712.8781    4.2514247    4.2514247    4.2514247    6712.8781   -20661.037   -1182.0507    41981.722   -9220.0943   -7310.2695   -16873.388     76.84285 
   99000    1403.6429   -107.19535    1.2700456   -105.92531   -9821.7165    4.2497339    4.2497339    4.2497339   -9821.7165   -651.12103   -31933.641    3119.6124   -15065.088    3391.8711    4328.3653    76.751208 
   99100    1512.4411   -107.29135    1.3684885   -105.92286    16738.246    4.2324744    4.2324744    4.2324744    16738.246    13923.778    12914.958    23376.004    3853.6452    3405.2821    27261.639    75.819865 
   99200    1179.2989   -107.00185    1.0670544    -105.9348    11455.038    4.2353234    4.2353234    4.2353234    11455.038    15412.994   -10440.026    29392.147   -1768.5501   -5041.7792   -24743.032    75.973078 
   99300    1261.4338   -107.07502    1.1413718   -105.93365   -17621.508    4.2554708    4.2554708    4.2554708   -17621.508   -759.87947   -36977.394    -15127.25    -17458.94    1368.5878   -21087.687    77.062456 
   99400    1583.5976   -107.35337    1.4328724    -105.9205    7224.3804    4.2478741    4.2478741    4.2478741    7224.3804   -4215.5208    4597.0778    21291.584    2631.8172    11965.231    11736.721    76.650485 
   99500    710.20424   -106.57463   0.64260772   -105.93202   -1669.9704    4.2370236    4.2370236    4.2370236   -1669.9704    4653.5581   -23006.264    13342.795   -2035.5021   -6151.2506   -36727.233    76.064611 
   99600    805.00469     -106.663   0.72838516   -105.93462   -4707.7325     4.239194     4.239194     4.239194   -4707.7325   -19155.447   -19398.621    24430.871    -19973.95   -4975.4296   -15508.675    76.181563 
   99700    1425.4855   -107.21711    1.2898092    -105.9273   -895.49187    4.2474607    4.2474607    4.2474607   -895.49187   -17257.536    1553.4491    13017.611    2836.1827     19673.74     17193.64     76.62811 
   99800    1251.8171   -107.06085    1.1326704   -105.92818   -14890.542    4.2542241    4.2542241    4.2542241   -14890.542     -4835.87   -24880.829   -14954.927   -7390.3474   -4918.8875   -35805.134    76.994744 
   99900    1231.0272   -107.04344    1.1138593   -105.92958   -879.60998    4.2409224    4.2409224    4.2409224   -879.60998     3515.104   -22723.475    16569.541    -21291.48    1949.5156   -3165.6311    76.274784 
  100000    1374.0343   -107.17368    1.2432551   -105.93043    12302.116    4.2342311    4.2342311    4.2342311    12302.116    30433.905    4578.5939    1893.8479    4994.0722    29164.934    30046.794    75.914314 
Loop time of 23.3773 on 1 procs for 100000 steps with 8 atoms

Pair  time (%) = 7.78946 (33.3207)
Kspce time (%) = 5.52096 (23.6168)
Neigh time (%) = 0 (0)
Comm  time (%) = 1.09319 (4.67628)
Outpt time (%) = 0.0257671 (0.110223)
Other time (%) = 8.94787 (38.276)

Nlocal:    8 ave 8 max 8 min
Histogram: 1 0 0 0 0 0 0 0 0 0
Nghost:    2189 ave 2189 max 2189 min
Histogram: 1 0 0 0 0 0 0 0 0 0
Neighs:    2472 ave 2472 max 2472 min
Histogram: 1 0 0 0 0 0 0 0 0 0

Total # of neighbors = 2472
Ave neighs/atom = 309
Neighbor list builds = 0
Dangerous builds = 0
unfix 20
unfix 21
print "seeds:8676308"
seeds:8676308
