LAMMPS (10 Feb 2015)
# ---- initialize simulations
clear
units metal
dimension 3
boundary p p p
atom_style charge
atom_modify map array
# ---- create atoms
read_data /Users/eugeneragasa/pyflamestk_git/pypospack/tests/tests_integration/workflow/WorkflowLammpsThermalExpansion/param_5262/MgO_NaCl_unit.npt.T1200/lammps.structure
  triclinic box = (0 0 0) to (4.2565 4.2565 4.2565) with tilt (0 0 0)
  1 by 1 by 1 MPI processor grid
  reading atoms ...
  8 atoms
# ---- define interatomic potential
include potential.mod
mass 1 24.305
mass 2 15.999

group Mg type 1
4 atoms in group Mg
group O type 2
4 atoms in group O

set group Mg charge 1.695400086
  4 settings made for charge
set group O charge -1.695400086
  4 settings made for charge

variable R_cut equal 10.0

pair_style buck/coul/long ${R_cut}
pair_style buck/coul/long 10
pair_coeff 1 1 0.0 0.5 0.0 ${R_cut}
pair_coeff 1 1 0.0 0.5 0.0 10
pair_coeff 1 2 1303.37543516 0.290482854228 0.0 ${R_cut}
pair_coeff 1 2 1303.37543516 0.290482854228 0.0 10
pair_coeff 2 2 9936.88636401 0.22003654812 26.9596347598 ${R_cut}
pair_coeff 2 2 9936.88636401 0.22003654812 26.9596347598 10

kspace_style pppm 1.0e-5

neighbor 1.0 bin
neigh_modify every 1 delay 0 check yes
# ---- define settings
compute eng all pe/atom
compute eatoms all reduce sum c_eng
# ---- run minimization
reset_timestep 0
fix 1 all box/relax iso 0.0 vmax 0.001
thermo 10
thermo_style custom step pe lx ly lz xy xz yz press pxx pyy pzz pxy pxz pyz c_eatoms
min_style cg
minimize 1e-25 1e-25 5000 10000
PPPM initialization ...
  G vector (1/distance) = 0.353118
  grid = 8 8 8
  stencil order = 5
  estimated absolute RMS force accuracy = 4.08652e-05
  estimated relative force accuracy = 2.83793e-06
  using double precision FFTs
  3d grid and FFT values/proc = 3375 512
Neighbor list info ...
  1 neighbor list requests
  update every 1 steps, delay 0 steps, check yes
  master list distance cutoff = 11
Memory usage per processor = 4.06549 Mbytes
Step PotEng Lx Ly Lz Xy Xz Yz Press Pxx Pyy Pzz Pxy Pxz Pyz eatoms 
       0   -115.99413       4.2565       4.2565       4.2565            0            0            0    97842.713    97842.713    97842.713    97842.713 -3.9648682e-11 -1.4130262e-10 -2.4072873e-11   -115.99413 
      10   -116.09248     4.299065     4.299065     4.299065            0            0            0    39915.456    39915.456    39915.456    39915.456 -6.718901e-11 1.6759609e-10 -1.4910019e-10   -116.09248 
      20   -116.11494    4.3319944    4.3319944    4.3319944            0            0            0    7.4200549    7.4200549    7.4200549    7.4200549 -9.9303313e-12 -1.50322e-10 -3.7717238e-11   -116.11494 
      22   -116.11494    4.3320008    4.3320008    4.3320008            0            0            0  0.022500426  0.022500427  0.022500425  0.022500427 -1.5011423e-10 -9.5142159e-11 1.463096e-10   -116.11494 
Loop time of 0.0144331 on 1 procs for 22 steps with 8 atoms

Minimization stats:
  Stopping criterion = linesearch alpha is zero
  Energy initial, next-to-last, final = 
        -115.994127563     -116.114943198     -116.114943198
  Force two-norm initial, final = 14.1285 3.9258e-05
  Force max component initial, final = 14.1285 8.20487e-06
  Final line search alpha, max atom move = 0.5 4.10243e-06
  Iterations, force evaluations = 22 41

Pair  time (%) = 0.00388765 (26.9356)
Kspce time (%) = 0.00232744 (16.1257)
Neigh time (%) = 0 (0)
Comm  time (%) = 0.000469685 (3.25421)
Outpt time (%) = 3.0756e-05 (0.213093)
Other time (%) = 0.00771761 (53.4714)

Nlocal:    8 ave 8 max 8 min
Histogram: 1 0 0 0 0 0 0 0 0 0
Nghost:    2189 ave 2189 max 2189 min
Histogram: 1 0 0 0 0 0 0 0 0 0
Neighs:    2344 ave 2344 max 2344 min
Histogram: 1 0 0 0 0 0 0 0 0 0

Total # of neighbors = 2344
Ave neighs/atom = 293
Neighbor list builds = 0
Dangerous builds = 0
unfix 1
# ---- define output variables ----
variable natoms equal "count(all)"
variable tot_energy equal "c_eatoms"
variable length_x equal "lx"
variable length_y equal "ly"
variable length_z equal "lz"
variable tilt_xy equal "xy"
variable tilt_xz equal "xz"
variable tilt_yz equal "yz"
variable tot_press equal "press"
variable press_xx equal "pxx"
variable press_yy equal "pyy"
variable press_zz equal "pzz"
variable press_xy equal "pxy"
variable press_xz equal "pxz"
variable press_yz equal "pyz"

# ---- output ----
print "pypospack:output_section:begin"
pypospack:output_section:begin
print "tot_energy = ${tot_energy}"
tot_energy = -116.114943197766
print "num_atoms = ${natoms}"
num_atoms = 8
print "xx = ${length_x}"
xx = 4.33200077919323
print "yy = ${length_y}"
yy = 4.33200077919323
print "zz = ${length_z}"
zz = 4.33200077919323
print "xy = ${tilt_xy}"
xy = 0
print "xz = ${tilt_xz}"
xz = 0
print "yz = ${tilt_yz}"
yz = 0
print "tot_press = ${tot_press}"
tot_press = 0.0225004262556315
print "pxx = ${press_xx}"
pxx = 0.0225004265502418
print "pyy = ${press_yy}"
pyy = 0.0225004253807009
print "pzz = ${press_zz}"
pzz = 0.0225004268359518
print "pxy = ${press_xy}"
pxy = -1.50114228566484e-10
print "pxz = ${press_xz}"
pxz = -9.5142158828828e-11
print "pyz = ${press_yz}"
pyz = 1.46309599907844e-10
print "pypospack:output_section:done"
pypospack:output_section:done
print "pypospack:lammps_sim:done"
pypospack:lammps_sim:done
#------------------------------------------------------------------------------
# RUN THERMOSTAT
# running using an NPT Nose-Hoover style thermostat
#------------------------------------------------------------------------------
variable tempdamp equal 0.1
variable pressdamp equal 1.0
# set initial velocities
velocity all create 1200 9282534 mom yes dist gaussian loop all
# fix for Nose-Hoover style thermostat
fix 20 all npt temp 1200 1200 0.1 aniso 0.0 0.0 1.0 drag 1.0 couple xyz
variable boxx equal lx
variable boxy equal ly
variable boxz equal lz
variable boxp equal press
variable boxt equal temp
# calculate averages every 10000 steps
reset_timestep 0
fix 21 all ave/time 10 10 100 v_boxx v_boxy v_boxz v_boxp v_boxt file lattice.out
thermo_style custom step temp pe ke etotal press lx ly lz press pxx pyy pzz pxy pxz pyz vol
thermo_modify flush yes
thermo 100
run 100000
PPPM initialization ...
  G vector (1/distance) = 0.352343
  grid = 8 8 8
  stencil order = 5
  estimated absolute RMS force accuracy = 4.23631e-05
  estimated relative force accuracy = 2.94196e-06
  using double precision FFTs
  3d grid and FFT values/proc = 3375 512
Memory usage per processor = 3.06549 Mbytes
Step Temp PotEng KinEng TotEng Press Lx Ly Lz Press Pxx Pyy Pzz Pxy Pxz Pyz Volume 
       0         1200   -116.11495    1.0857852   -115.02917    14263.841    4.3320008    4.3320008    4.3320008    14263.841     19835.41    8062.9928     14893.12   -7213.2378    12406.431    -2702.429    81.295326 
     100    356.26939   -115.21524   0.32236003   -114.89288    21286.056    4.3580295    4.3580295    4.3580295    21286.056    30719.672    17784.582    15353.913     11351.91   -15740.082   -3007.9896     82.76953 
     200    721.46006   -115.24005   0.65279223   -114.58726   -33985.144    4.3906014    4.3906014    4.3906014   -33985.144   -39387.471   -36765.649   -25802.312    646.53382   -17162.278   -3390.7744    84.639297 
     300    1253.7982   -115.46662    1.1344629   -114.33216    13278.259    4.3690089    4.3690089    4.3690089    13278.259    21881.355   -15703.912    33657.336   -9280.8843    5074.2091    802.69982    83.396683 
     400     941.4899   -114.98354   0.85187984   -114.13166    40445.204    4.3532489    4.3532489    4.3532489    40445.204     26040.82    27652.208    67642.585    11779.609   -18144.404    3937.9442    82.497443 
     500    898.07026   -114.83533   0.81259284   -114.02273   -29924.241    4.3936484    4.3936484    4.3936484   -29924.241   -45169.223   -22948.718   -21654.784   -296.69537   -33990.063   -5913.0162     84.81563 
     600    1258.7838   -115.06192     1.138974   -113.92294   -11148.787    4.4060527    4.4060527    4.4060527   -11148.787    18203.039   -49750.463   -1898.9379   -2800.6339   -3526.3472   -1468.4705    85.536027 
     700    1408.2583   -115.16667    1.2742217   -113.89245    48.148572    4.3755008    4.3755008    4.3755008    48.148572    13223.936      4602.82    -17682.31    3884.0307    8313.8491    3904.0215    83.768994 
     800    728.30789   -114.56748   0.65898828   -113.90849    10823.977    4.3717494    4.3717494    4.3717494    10823.977    3151.2104    13042.746    16277.974    3253.6201   -32599.028   -3312.1911    83.553719 
     900     1624.678    -115.3866    1.4700428   -113.91655    -13561.59    4.3959632    4.3959632    4.3959632    -13561.59   -28095.912    -45464.69    32875.833    589.64424    7476.8292     335.7041     84.94976 
    1000    1245.2809   -115.04003    1.1267563   -113.91327     49.86231    4.3974555    4.3974555    4.3974555     49.86231   -20835.946    4645.7288    16339.804   -4568.1055   -2865.3098    8788.6003      85.0363 
    1100    932.70625   -114.74443   0.84393221   -113.90049    22572.136    4.3747005    4.3747005    4.3747005    22572.136   -26704.145    48846.156    45574.398    14021.047   -28371.436   -9829.3667    83.723039 
    1200    1660.9714   -115.40135    1.5028819   -113.89847    4239.2837    4.3853522    4.3853522    4.3853522    4239.2837   -5152.0353   -15714.837    33584.723   -10585.738    5001.4496    1227.7662    84.336082 
    1300    1314.4178   -115.09164    1.1893128   -113.90232   -28341.906    4.3973576    4.3973576    4.3973576   -28341.906    -45179.66    7043.8744   -46889.934     4489.005   -15507.407    3563.3762    85.030623 
    1400    888.22575   -114.70997   0.80368533   -113.90629    6838.8988    4.3693717    4.3693717    4.3693717    6838.8988   -35784.604    26909.183    29392.117    28759.723    -28280.36   -7803.1695    83.417465 
    1500     1731.925   -115.48905    1.5670822   -113.92197    2398.7935    4.3737532    4.3737532    4.3737532    2398.7935   -7930.9816    11510.155    3617.2075    5011.7283    3010.5497   -2411.0064     83.66866 
    1600    1019.2713   -114.85295   0.92225805   -113.93069   -10033.108    4.3982003    4.3982003    4.3982003   -10033.108   -36806.459    18810.238   -12103.102   -10440.159   -9235.8789   -16568.549    85.079516 
    1700    1090.9051   -114.90738   0.98707385    -113.9203   -31003.168    4.3853279    4.3853279    4.3853279   -31003.168   -41909.987   -10199.258   -40900.258    14267.952   -18842.831    9842.3012    84.334686 
    1800    1234.5769   -115.02602    1.1170711   -113.90894    27996.329    4.3669071    4.3669071    4.3669071    27996.329    1697.8554    61640.134    20650.997    5648.5129    10170.977   -7759.4193    83.276382 
    1900    1258.3413   -115.06351    1.1385736   -113.92494   -16523.136    4.3823528    4.3823528    4.3823528   -16523.136   -34375.993    23833.202   -39026.617   -4000.9118   -12542.793   -11302.135    84.163155 
    2000     762.6152   -114.61706   0.69003026   -113.92703   -14598.423    4.3950634    4.3950634    4.3950634   -14598.423   -29565.788    26091.785   -40321.268     13658.44   -11350.037    10885.726    84.897606 
    2100    1618.9207   -115.37433    1.4648334    -113.9095    258.37581    4.3777082    4.3777082    4.3777082    258.37581   -19496.807   -8255.2673    28527.201    4117.0586    8718.1156   -6740.8366    83.895843 
    2200    1117.7631   -114.93658    1.0113755    -113.9252    15130.813    4.3666872    4.3666872    4.3666872    15130.813   -20440.166    67756.307   -1923.7031   -10597.943   -21886.793    10210.671    83.263807 
    2300    966.47119   -114.81605   0.87448344   -113.94157    8068.3907    4.3807444    4.3807444    4.3807444    8068.3907    -11002.37    22442.634    12764.908   -571.85744   -1280.6866   -16808.633    84.070521 
    2400    1617.3717   -115.38383    1.4634319    -113.9204   -13332.541    4.3945722    4.3945722    4.3945722   -13332.541   -41281.822   -25544.993    26829.193    5830.3609    4284.3214    5630.2884     84.86914 
    2500    1028.2556   -114.84824    0.9303873   -113.91785    10856.785    4.3722042    4.3722042    4.3722042    10856.785   -18022.895    75444.012   -24850.762   -4366.5109   -21579.087    910.95941    83.579797 
    2600    1269.4132   -115.06624    1.1485917   -113.91765    14705.532    4.3644641    4.3644641    4.3644641    14705.532   -21998.602   -134.80754    66250.005    3560.4131    2253.1578    2904.3668    83.136699 
    2700     1505.807   -115.28493    1.3624859   -113.92244   -35215.891    4.3965229    4.3965229    4.3965229   -35215.891   -36293.382   -50893.805   -18460.488    8274.6218    6710.3921   -3571.0712    84.982212 
    2800     718.2536   -114.56873   0.64989095   -113.91884    15239.883    4.3789591    4.3789591    4.3789591    15239.883    1097.2953    7616.8962    37005.458    -8266.745   -22372.747   -6699.1921    83.967781 
    2900    1362.7226   -115.14517      1.23302   -113.91215   -6211.7319    4.3638819    4.3638819    4.3638819   -6211.7319    -47371.35    8528.2106    20207.944    2136.1762    4763.3251    7318.1949    83.103432 
    3000    1252.1742   -115.05567    1.1329936   -113.92268   -19995.779    4.3867215    4.3867215    4.3867215   -19995.779   -19874.006    -52268.76    12155.428     3438.302    12484.753   -26253.299    84.415107 
    3100    1186.1567   -114.98858    1.0732595   -113.91532    17702.133    4.3709015    4.3709015    4.3709015    17702.133   -9623.0036    12742.222    49987.182   -3041.8641   -15655.877    -15622.62    83.505113 
    3200    986.55229   -114.82199   0.89265324   -113.92933   -7819.9147    4.3802454    4.3802454    4.3802454   -7819.9147   -51486.188    274.49806    27751.946   -2061.2115    16037.895    15276.157    84.041797 
    3300    1623.5159   -115.38797    1.4689913   -113.91898   -25028.032    4.3874379    4.3874379    4.3874379   -25028.032   -43581.819   -11101.848   -20400.428   -3692.4293     14790.84    2892.4998    84.456474 
    3400    1469.6682   -115.24437    1.3297866   -113.91458    17235.198     4.371465     4.371465     4.371465    17235.198    5553.0572   -10743.047    56895.585   -2895.5132   -12257.254    10411.198    83.537412 
    3500    872.46642   -114.72048   0.78942595   -113.93106   -20896.248    4.3844927    4.3844927    4.3844927   -20896.248   -59576.691    -16422.08    13310.027    1488.3506    15293.096    4137.2848    84.286506 
    3600     1116.906   -114.93937       1.0106   -113.92877    4650.8446    4.3811833    4.3811833    4.3811833    4650.8446   -50139.959   -1888.4962    65980.989    4867.7111    14877.324    4458.9507    84.095793 
    3700     1740.685   -115.49836    1.5750083   -113.92336    9997.2317    4.3753902    4.3753902    4.3753902    9997.2317    215.79314    -11990.55    41766.452   -11192.795   -5281.1105    -12100.23    83.762642 
    3800     1358.846   -115.16205    1.2295124   -113.93254   -12980.609     4.384936     4.384936     4.384936   -12980.609   -50112.649   -5671.2135    16842.037   -901.03034    17565.961   -6500.2492    84.312075 
    3900    720.24725   -114.58781   0.65169485   -113.93611    389.57649    4.3877978    4.3877978    4.3877978    389.57649   -54923.209    12295.185    43796.754    4067.1666    8533.8127    2275.0791    84.477263 
    4000    1418.6602   -115.20768    1.2836336   -113.92405    4708.4291    4.3694649    4.3694649    4.3694649    4708.4291   -10850.142   -24111.071    49086.501    4392.1924   -10867.477    11262.387    83.422799 
    4100     1543.953   -115.32498    1.3970011   -113.92798   -434.09035    4.3696999    4.3696999    4.3696999   -434.09035   -19899.451    11013.915    7583.2651   -7940.9764    14589.939   -4810.4663     83.43626 
    4200    1083.6047   -114.91715   0.98046834   -113.93668   -31745.515    4.3862213    4.3862213    4.3862213   -31745.515   -71498.168    7034.9842    -30773.36    -874.3723    14173.632    15250.354    84.386234 
    4300    973.53083   -114.81219   0.88087116   -113.93132    17719.787    4.3661581    4.3661581    4.3661581    17719.787   -19286.109   -1465.8038    73911.274     4346.148    -12747.91    4680.9676    83.233539 
    4400    1443.9746   -115.24294    1.3065385    -113.9364    9226.6395    4.3785394    4.3785394    4.3785394    9226.6395   -5232.7413   -13448.028    46360.688   -547.18751    12077.927   -807.31135    83.943637 
    4500    1100.5831   -114.92503    0.9958307    -113.9292    1935.7574    4.3954795    4.3954795    4.3954795    1935.7574   -45767.019    7983.8056    43590.485    4192.7083    633.83433   -13171.691    84.921718 
    4600    1221.2004   -115.02809    1.1049678   -113.92312   -11800.217    4.3746864    4.3746864    4.3746864   -11800.217    -40262.74   -15290.945    20153.034    -9921.705   -23092.546    9004.9047    83.722229 
    4700    898.11286   -114.74142   0.81263139   -113.92879    24980.862    4.3617195    4.3617195    4.3617195    24980.862    28313.882   -12558.285    59186.989    4066.5706   -3557.1865    7180.0662    82.979956 
    4800    1359.8417   -115.16648    1.2304133   -113.93607    -14926.63    4.3856701    4.3856701    4.3856701    -14926.63   -30726.516   -30674.958    16621.585    1928.0219   -8607.8574      -4866.7    84.354426 
    4900    1043.8649   -114.86987   0.94451093   -113.92536   -27114.636     4.392555     4.392555     4.392555   -27114.636   -77464.656    19237.504   -23116.756   -11108.049   -30939.297    10994.006    84.752328 
    5000    1286.7001    -115.0795    1.1642333   -113.91526   -8268.8464    4.3730359    4.3730359    4.3730359   -8268.8464    -18101.48   -14872.882     8167.823    363.22303    1151.7018   -6377.7996    83.627503 
    5100    1287.2347   -115.08806     1.164717   -113.92335    21825.819    4.3643527    4.3643527    4.3643527    21825.819    847.77175   -16729.091    81358.776    4763.1223    7539.4355   -6574.4555    83.130331 
    5200     1393.789   -115.19968    1.2611296   -113.93855    18766.223    4.3676835    4.3676835    4.3676835    18766.223   -11389.995    6144.7502    61543.913   -10698.916   -3424.9653   -10780.003    83.320812 
    5300    1221.6311   -115.05561    1.1053575   -113.95025    -21401.15    4.3951781    4.3951781    4.3951781    -21401.15   -38352.915   -25162.596    -687.9386    68.881971   -293.59031   -3624.7883    84.904252 
    5400    1249.6025   -115.06551    1.1306666   -113.93484   -23246.705    4.3863706    4.3863706    4.3863706   -23246.705   -16970.631   -37463.281   -15306.204    4005.0179    12748.616   -29212.271    84.394855 
    5500    1381.5321   -115.16599    1.2500393   -113.91595    21660.346    4.3573335    4.3573335    4.3573335    21660.346   -6156.5107   -17850.713    88988.261   -15957.775   -5754.6267    4586.8772    82.729882 
    5600    1358.6355   -115.16469     1.229322   -113.93537    7935.4125    4.3834286    4.3834286    4.3834286    7935.4125   -18359.304   -12047.365    54212.907   -7372.7888   -11556.912    10324.742    84.225154 
    5700    1298.5873   -115.09988    1.1749891   -113.92489   -29005.632    4.3959713    4.3959713    4.3959713   -29005.632   -17378.137   -35417.184   -34221.574    2668.2533    8069.3754   -4678.6234    84.950226 
    5800    1095.5789   -114.90933   0.99130279   -113.91803    -16778.83    4.3702499    4.3702499    4.3702499    -16778.83    11533.657   -46379.346   -15490.802   -7557.0535    200.94217   -17588.881    83.467772 
    5900    1375.3978   -115.16694    1.2444888   -113.92245    29662.813    4.3734707    4.3734707    4.3734707    29662.813    14069.368   -5566.0781    80485.148    -4920.193   -5183.4222    7161.0396    83.652452 
    6000    1096.0105   -114.90816   0.99169336   -113.91646   -33080.286    4.4048762    4.4048762    4.4048762   -33080.286   -55914.353   -50281.709    6955.2052   -3114.5072    12402.481   -13019.315    85.467525 
    6100    601.90904   -114.46497   0.54461995   -113.92035   -2900.9062    4.3732609    4.3732609    4.3732609   -2900.9062   -15885.982    -55035.49    62218.753   -13523.312    17374.806   -24954.124    83.640414 
    6200    1419.9911   -115.20997    1.2848378   -113.92513    23311.076    4.3601763    4.3601763    4.3601763    23311.076   -3262.7012    10784.057    62411.873   -8825.6947   -8134.7456   -10308.674    82.891913 
    6300    1569.6232   -115.34968    1.4202281   -113.92945   -19378.819    4.3874066    4.3874066    4.3874066   -19378.819    -21476.06   -17946.512   -18713.885    6896.0554    15423.625    4201.4052    84.454665 
    6400    843.01235   -114.69076   0.76277529   -113.92798    2576.8533     4.386402     4.386402     4.386402    2576.8533    -5058.912   -28693.376    41482.847   -8564.7792    11124.661   -23033.933    84.396667 
    6500    1035.1306    -114.8588   0.93660796    -113.9222    -5465.093    4.3886596    4.3886596    4.3886596    -5465.093   -32128.263    640.90493    15092.079   -2434.9972   -4778.4471    6358.8937    84.527045 
    6600    1296.5525   -115.08876    1.1731479   -113.91561    20181.752    4.3675119    4.3675119    4.3675119    20181.752   -15977.849    5977.2935     70545.81    8293.5263    125.46796    30314.535    83.310988 
    6700    1038.2658    -114.8725   0.93944473   -113.93305    5889.1388    4.3691397    4.3691397    4.3691397    5889.1388    4235.0268    26866.386   -13433.996    -5628.586    12088.683   -19154.152    83.404173 
    6800    888.53797   -114.73548   0.80396783   -113.93151   -22665.336    4.3919329    4.3919329    4.3919329   -22665.336   -6906.4492   -7471.1804    -53618.38   -2806.4899    -14973.93   -20232.398    84.716319 
    6900    1317.7771   -115.10665    1.1923524   -113.91429    6048.6847    4.3746372    4.3746372    4.3746372    6048.6847   -3833.4207    23802.092   -1822.6173    14689.379    5135.8245    9344.5056    83.719404 
    7000    1219.5562   -115.02362      1.10348   -113.92014    3204.5286    4.3832694    4.3832694    4.3832694    3204.5286   -5196.2726   -7395.8084    22205.667    4267.8351    2936.8265   -15979.231    84.215978 
    7100    1481.3707   -115.25685    1.3403753   -113.91648    -19781.19    4.3886183    4.3886183    4.3886183    -19781.19    3798.7393   -41601.229   -21541.081    -394.3716   -15174.833   -32778.052    84.524661 
    7200    983.13416   -114.80234   0.88956045   -113.91278      19845.6    4.3779766    4.3779766    4.3779766      19845.6    29371.266    -32460.96    62626.493    11554.834   -4416.8233    6577.1529    83.911271 
    7300     1292.742   -115.08568    1.1697001   -113.91598   -6206.9588    4.3874802    4.3874802    4.3874802   -6206.9588    15929.556   -50090.641    15540.208    15582.979   -517.03273    13626.284    84.458917 
    7400    1416.4462    -115.1878    1.2816303   -113.90617    12749.574    4.3859286    4.3859286    4.3859286    12749.574    43239.713   -26903.692    21912.701     1427.149   -8438.5767   -14058.599    84.369343 
    7500    1299.2584   -115.08536    1.1755963   -113.90976   -15630.611    4.3839155    4.3839155    4.3839155   -15630.611    -17924.98   -32240.152    3273.3001    11464.977   -4518.9979    8258.4017    84.253222 
    7600    929.04768   -114.75218   0.84062187   -113.91156   -13813.686    4.3699254    4.3699254    4.3699254   -13813.686   -12501.275    -57171.73    28231.947    25857.584    1677.5075    19797.062    83.449181 
    7700    1678.8842   -115.44239    1.5190897    -113.9233     3225.535    4.3744895    4.3744895    4.3744895     3225.535    18049.763   -1200.1136   -7173.0442   -4231.0095    18168.145   -9148.4602    83.710923 
    7800    1239.3216   -115.04538    1.1213642   -113.92402   -25697.923      4.39349      4.39349      4.39349   -25697.923   -1849.7434   -55547.324   -19696.702    23961.276   -7873.2176    9562.0332    84.806457 
    7900    786.76917   -114.63734   0.71188528   -113.92545     9690.392    4.3507903    4.3507903    4.3507903     9690.392    42898.639   -35359.696    21532.233    19993.241    3310.7869    27036.897    82.357746 
    8000    1089.0586   -114.93386   0.98540307   -113.94846    18591.482     4.367091     4.367091     4.367091    18591.482    28943.523    6774.9764    20055.946   -6791.0059    3512.5165     9862.962    83.286903 
    8100    1553.3845   -115.32353    1.4055349     -113.918   -15639.921    4.3918513    4.3918513    4.3918513   -15639.921    11570.062   -24091.495   -34398.329   -11951.375    3073.6221   -6017.1913    84.711602 
    8200    926.93592   -114.75213    0.8387111   -113.91342    30677.745    4.3550117    4.3550117    4.3550117    30677.745    72385.686    10877.453    8770.0954    19027.923    474.94955    23456.668    82.597705 
    8300    916.79341   -114.76647   0.82953394   -113.93693   -13820.114    4.3789698    4.3789698    4.3789698   -13820.114   -34549.929   -2422.8963   -4487.5152    8673.0737   -3540.5412    7646.3565    83.968395 
    8400    1601.8207   -115.35907    1.4493611   -113.90971   -19181.242    4.3881759    4.3881759    4.3881759   -19181.242   -15864.583    2854.7595   -44533.904   -14424.013    10988.618     -9725.31    84.499099 
    8500    1062.6022   -114.87039   0.96146484   -113.90892    30365.437    4.3659013    4.3659013    4.3659013    30365.437    88395.475     12572.51   -9871.6738     19432.92    -9602.784    14533.744    83.218855 
    8600    1021.1006   -114.84761   0.92391329   -113.92369   -9180.1358    4.3830234    4.3830234    4.3830234   -9180.1358   -6179.8549   -22146.818    786.26527    396.04289   -2887.8695    5717.6005    84.201797 
    8700    1470.0674    -115.2426    1.3301479   -113.91246   -4504.5125     4.387901     4.387901     4.387901   -4504.5125    1197.7632    19169.596   -33880.897   -4263.8085    2627.1102   -9101.5915    84.483219 
    8800    1003.8411   -114.82524   0.90829649   -113.91694   -5795.0206    4.3828292    4.3828292    4.3828292   -5795.0206    9416.9855    33100.486   -59902.533   -10838.584   -4643.0293    12641.004    84.190608 
    8900    920.30998   -114.75356   0.83271581   -113.92084   -7957.4818    4.3704018    4.3704018    4.3704018   -7957.4818   -14185.699    4031.4827   -13718.229    26968.301    1006.2988      8609.63    83.476474 
    9000    1697.0843   -115.44918    1.5355576   -113.91362    12098.557    4.3620114    4.3620114    4.3620114    12098.557   -3264.4633    19704.219    19855.914    8131.9509   -398.02688   -9181.9055    82.996616 
    9100    1085.9478     -114.914   0.98258836   -113.93142   -39334.557    4.3886367    4.3886367    4.3886367   -39334.557   -128.30082   -54316.532   -63558.838    2492.8503   -17068.411    12995.074    84.525723 
    9200    906.09358   -114.75349   0.81985251   -113.93364   -26499.354    4.3752077    4.3752077    4.3752077   -26499.354   -36438.439   -11603.792   -31455.832    34081.643   -698.03831    11598.821    83.752163 
    9300    1492.8302   -115.26898    1.3507441   -113.91824    45661.541    4.3531058    4.3531058    4.3531058    45661.541    23710.691    70801.631      42472.3   -5571.4855     1113.972    5992.9866    82.489307 
    9400    1148.5469   -114.98143    1.0392293    -113.9422    7983.2116    4.3787253    4.3787253    4.3787253    7983.2116    39263.952    28067.495   -43381.812   -9906.3754   -5866.6761     9217.715    83.954331 
    9500    897.61141   -114.73981   0.81217767   -113.92763    -26810.34    4.3968101    4.3968101    4.3968101    -26810.34   -26274.765   -14695.933   -39460.321    25636.012    8645.9574    7667.6892    84.998863 
    9600    1664.5513   -115.40028     1.506121   -113.89415    -1111.723     4.381147     4.381147     4.381147    -1111.723    16693.454    4082.5574   -24111.181    1175.2085   -7011.2278   -1541.9042    84.093702 
    9700    1274.3276   -115.05088    1.1530384   -113.89784    2100.7815    4.3665746    4.3665746    4.3665746    2100.7815    9396.7821   -5712.3721    2617.9346   -3245.0768   -6474.4181    8396.3224    83.257364 
    9800    1082.4844   -114.89801   0.97945461   -113.91856   -21551.144     4.377349     4.377349     4.377349   -21551.144   -20892.376   -16645.635   -27115.421    26595.068    3808.4855     1088.384    83.875189 
    9900    1131.8173   -114.94443    1.0240921   -113.92033    6657.9559    4.3866607    4.3866607    4.3866607    6657.9559     18033.87    1510.7297    429.26773    7485.5783   -3976.6381   -3014.2211    84.411602 
   10000    1429.3354   -115.21186    1.2932927   -113.91857   -2913.5149    4.3705062    4.3705062    4.3705062   -2913.5149   -19359.756    15388.386   -4769.1749   -21772.007    5794.1947    7787.6391    83.482455 
   10100    910.06748    -114.7446   0.82344818   -113.92115    24699.481    4.3637325    4.3637325    4.3637325    24699.481    45646.756    10470.016    17981.673    10014.168    2164.6951    15231.875    83.094897 
   10200    1201.7277   -115.01049    1.0873485   -113.92314    -6198.946    4.3863941    4.3863941    4.3863941    -6198.946   -5540.6412   -16553.693    3497.4957    2554.6069    3365.2067   -7253.9462    84.396208 
   10300    1407.2879   -115.18429    1.2733436   -113.91095   -17024.289    4.3816184    4.3816184    4.3816184   -17024.289   -17667.161   -25187.941   -8217.7654   -39991.887    2577.9414    7168.4701    84.120848 
   10400    1235.5564   -115.02136    1.1179574   -113.90341     25766.36    4.3591147    4.3591147    4.3591147     25766.36     54945.42   -5308.1421    27661.801    16457.969   -8452.3942    10484.923    82.831377 
   10500    1388.4812   -115.17696    1.2563269   -113.92063   -19594.243    4.3712431    4.3712431    4.3712431   -19594.243   -27091.277   -29399.171   -2292.2792    6404.1357    7270.3999   -8025.8589     83.52469 
   10600    1123.8316   -114.94123    1.0168664   -113.92436    8528.9829    4.3780128    4.3780128    4.3780128    8528.9829    23833.888   -19634.719    21387.779   -27491.598   -5116.2459    5650.6285    83.913354 
   10700     1554.083   -115.32009    1.4061669   -113.91392   -12655.576    4.3826025    4.3826025    4.3826025   -12655.576   -8991.9154   -23413.907   -5560.9052    16405.507   -1204.3443   -7638.4715    84.177544 
   10800    961.91865   -114.79088   0.87036421   -113.92052    3628.7618    4.3646266    4.3646266    4.3646266    3628.7618    33072.996   -22622.899    436.18782   -2022.9668   -3262.3773   -969.22078    83.145984 
   10900    891.48697   -114.73914   0.80663615    -113.9325    6023.3237     4.371662     4.371662     4.371662    6023.3237   -25251.966    21438.188    21883.749   -44423.035   -3733.3014   -4117.6585    83.548709 
   11000    1462.0358   -115.23537    1.3228807   -113.91249   -1911.2026    4.3879535    4.3879535    4.3879535   -1911.2026   -8844.6396    5890.4114   -2779.3795    4035.8775    6287.6391   -2118.7125    84.486253 
   11100    959.27124   -114.78544   0.86796878   -113.91747    17652.709    4.3592561    4.3592561    4.3592561    17652.709   -17789.486    78298.947   -7551.3329   -18795.531   -3005.5941    1602.0947     82.83944 
   11200    691.35572   -114.56288   0.62555318   -113.93732   -14265.125    4.3680706    4.3680706    4.3680706   -14265.125    -51928.96   -23144.553    32278.138    -33001.81    4353.0446    648.59393    83.342967 
   11300     1409.919    -115.1952    1.2757244   -113.91947   -5524.8461    4.3777117    4.3777117    4.3777117   -5524.8461   -13629.847    8232.8779    -11177.57    1829.7376    13911.737    12417.472     83.89604 
   11400    1449.3847   -115.22798    1.3114338   -113.91655   -5062.8483    4.3728656    4.3728656    4.3728656   -5062.8483   -9274.2532    3968.8673    -9883.159   -11117.075   -3922.0729   -3040.4732    83.617734 
   11500    1052.9801   -114.87194   0.95275853   -113.91918   -27204.252    4.3876196    4.3876196    4.3876196   -27204.252   -42832.567   -45504.998     6724.809   -20010.418   -4097.2799   -4449.1301    84.466969 
   11600    1365.5841   -115.14157    1.2356092   -113.90596     882.7041    4.3690587    4.3690587    4.3690587     882.7041    27017.856    3050.6016   -27420.345    20276.476    18011.207    7558.6821    83.399537 
   11700    1297.3102   -115.09142    1.1738335   -113.91759    9711.7862    4.3623662    4.3623662    4.3623662    9711.7862    36431.383     12151.43   -19447.454   -13600.997     13149.03    7541.6731    83.016869 
   11800     1179.907    -114.9979    1.0676047   -113.93029   -21937.084     4.389082     4.389082     4.389082   -21937.084   -14626.782    -42697.78   -8486.6889   -40478.567   -8298.2667   -918.31373    84.551453 
   11900    1398.6034   -115.17761    1.2654857   -113.91212   -1094.6914    4.3801411    4.3801411    4.3801411   -1094.6914    39141.307   -4070.5343   -38354.847    15827.298   -4355.9868   -900.96518    84.035794 
   12000    1181.5092   -114.98105    1.0690543     -113.912   -8120.8362    4.3658758    4.3658758    4.3658758   -8120.8362   -10067.586    12259.956   -26554.878   -11089.343    31468.054    11697.531    83.217398 
   12100    912.96716   -114.75527   0.82607187    -113.9292   -5027.1093    4.3666966    4.3666966    4.3666966   -5027.1093   -22752.686    17070.792   -9399.4347   -25121.161   -20214.018   -6121.0634    83.264342 
   12200    1241.7839   -115.05607    1.1235921   -113.93247    6272.3652    4.3799237    4.3799237    4.3799237    6272.3652     53021.05    6903.6409   -41107.595    142.61495   -12958.825    1528.7112    84.023279 
   12300     1533.261   -115.31385    1.3873268   -113.92653   -19727.204     4.380292     4.380292     4.380292   -19727.204    2236.4253   -16228.078   -45189.958    1032.7032    17046.842    16042.513    84.044481 
   12400    680.87023   -114.53612   0.61606569   -113.92005    34273.772     4.354076     4.354076     4.354076    34273.772    63174.125    10018.048    29629.141   -18009.208   -3781.4884     -5199.46    82.544477 
   12500    1080.0296   -114.91634    0.9772335   -113.93911   -15113.343     4.375824     4.375824     4.375824   -15113.343   -18666.502    5262.3545   -31935.881   -9155.6023   -15659.051   -4299.1826    83.787559 
   12600    1722.3206   -115.47343    1.5583918   -113.91503   -21504.558    4.3851426    4.3851426    4.3851426   -21504.558    5367.0304   -39219.824   -30660.881    18625.364     16272.58    10575.055     84.32399 
   12700    947.88727   -114.77142   0.85766832   -113.91375    6789.1372    4.3691037    4.3691037    4.3691037    6789.1372    16360.902   -910.17383    4916.6834   -27568.706    1443.3744   -6914.1002    83.402116 
   12800     718.9267   -114.57395   0.65049999   -113.92345    5905.9979    4.3709577    4.3709577    4.3709577    5905.9979    32081.054    5218.6059   -19581.666   -11093.896   -12539.279   -2811.7366    83.508333 
   12900    1193.1998   -114.99709    1.0796322   -113.91746   -2945.2323    4.3809742    4.3809742    4.3809742   -2945.2323     27464.95   -25858.599   -10442.048    20743.512   -5874.9608    16751.936     84.08375 
   13000    1551.5363   -115.31581    1.4038626   -113.91194   -17950.663     4.377532     4.377532     4.377532   -17950.663   -17732.908   -30582.688   -5536.3916   -32194.993    6088.6257   -3732.3621    83.885711 
   13100    959.02279    -114.7899   0.86774397   -113.92215   -8098.2382    4.3702179    4.3702179    4.3702179   -8098.2382   -12320.496    11772.462   -23746.681   -8169.5873   -42248.198    164.50447    83.465937 
   13200    1116.2997   -114.93185    1.0100514    -113.9218    4487.8515    4.3595031    4.3595031    4.3595031    4487.8515     23699.42   -7144.1361   -3091.7298    15183.107   -23368.611    10373.843    82.853519 
   13300    1426.0002   -115.22125    1.2902749   -113.93097     7080.752    4.3680485    4.3680485    4.3680485     7080.752     34897.97   -25409.559    11753.845   -10364.335    15165.747    3303.0977    83.341702 
   13400    1386.0404     -115.181    1.2541185   -113.92689   -13588.635    4.3851778    4.3851778    4.3851778   -13588.635    590.10046   -6188.4774   -35167.527   -11439.195   -8671.9786   -5390.2339    84.326024 
   13500    1025.2316    -114.8485   0.92765112   -113.92085   -919.40356    4.3752554    4.3752554    4.3752554   -919.40356    9192.5887   -12678.201    727.40146    28831.815   -12420.339    10296.376      83.7549 
   13600    1608.6579   -115.36869    1.4555475   -113.91314   -17179.432    4.3730858    4.3730858    4.3730858   -17179.432   -13669.863    -21042.93   -16825.504   -7641.1702    14908.493   -4474.4905    83.630365 
   13700    1235.3623   -115.02987    1.1177818   -113.91209   -11477.844    4.3766334    4.3766334    4.3766334   -11477.844   -8246.7953   -765.78542   -25420.951   -5632.4194   -10501.039    1319.6079    83.834062 
   13800    781.95131   -114.62221   0.70752598   -113.91468    7785.5254    4.3641685    4.3641685    4.3641685    7785.5254    32472.753   -7165.8433   -1950.3334    28365.244    -24476.79    9178.9324    83.119809 
   13900    1210.6996   -115.01625    1.0954664   -113.92078   -15868.983    4.3746771    4.3746771    4.3746771   -15868.983   -3792.0255     -29167.9   -14647.023   -6852.5204    20282.261    4777.7731    83.721696 
   14000    1410.5779   -115.19363    1.2763205   -113.91731   -9912.0858    4.3767035    4.3767035    4.3767035   -9912.0858   -4826.5907   -16305.297   -8604.3696     587.8297    10183.472   -1527.5656    83.838089 
   14100    1015.9386   -114.84622   0.91924257   -113.92698   -28896.216    4.3733241    4.3733241    4.3733241   -28896.216   -37666.411   -16046.369   -32975.869    17651.834   -41219.523    3459.2462    83.644037 
   14200    1099.2442   -114.91939   0.99461929   -113.92477   -15769.436     4.370757     4.370757     4.370757   -15769.436   -35118.296   -14955.838     2765.826    2815.4077    26897.065    8559.4157     83.49683 
   14300    1508.8947   -115.28241    1.3652796   -113.91713    8407.4802     4.360439     4.360439     4.360439    8407.4802    12728.218    15483.242   -2989.0197   -3616.3669    13546.155   -9228.4974    82.906894 
   14400    860.45761   -114.71431   0.77856013   -113.93575    9640.3261    4.3736024    4.3736024    4.3736024    9640.3261    33454.737   -18252.428    13718.669    19049.442   -28941.622    6274.6021    83.660007 
   14500    1123.7249   -114.93826    1.0167699   -113.92149   -11528.354    4.3946085    4.3946085    4.3946085   -11528.354   -1054.7573    -36064.94    2534.6345    5662.3796    13204.962   -3475.9083    84.871243 
   14600    1478.6799    -115.2478    1.3379407   -113.90986      5042.75    4.3708895    4.3708895    4.3708895      5042.75    27793.932    331.92241   -12997.604   -2157.3902    17717.918   -6394.7594    83.504425 
   14700    770.26227    -114.6152   0.69694949   -113.91825    18554.936    4.3535175    4.3535175    4.3535175    18554.936    -10755.12    18268.163    48151.764    20242.907   -32349.563    8798.4709    82.512717 
   14800    1430.3578   -115.22412    1.2942178    -113.9299   -28789.284    4.3804182    4.3804182    4.3804182   -28789.284   -32023.268   -34791.315   -19553.268    14173.359   -21598.812    4716.0175    84.051743 
   14900    1541.1251    -115.3054    1.3944424   -113.91095   -5913.3446    4.3865399    4.3865399    4.3865399   -5913.3446   -13325.727   -22227.498    17813.191    721.05131    12109.665   -16028.855    84.404627 
   15000    973.90326   -114.79713   0.88120813   -113.91592   -24939.658     4.373505     4.373505     4.373505   -24939.658   -45315.872   -5220.1622   -24282.938    19633.615   -23558.865    3857.0969     83.65442 
   15100    787.26262   -114.63326   0.71233176   -113.92093    -6485.665    4.3670343    4.3670343    4.3670343    -6485.665   -41351.114    -7276.262    29170.381    11972.275   -22582.854    7423.5347    83.283659 
   15200    1848.0698   -115.58985    1.6721724   -113.91768   -12882.397    4.3743291    4.3743291    4.3743291   -12882.397   -15251.554   -16339.383    -7056.253   -2159.3127     14728.25   -9610.8356    83.701717 
   15300     921.2994   -114.76876   0.83361106   -113.93514   -21836.555     4.384688     4.384688     4.384688   -21836.555   -49360.977   -28554.261    12405.573    12704.387   -21480.434    115.22576    84.297771 
   15400    1084.0727   -114.91039   0.98089174    -113.9295     14963.32    4.3588188    4.3588188    4.3588188     14963.32   -14503.794    28758.744     30635.01    7249.2444   -23303.129     7356.051    82.814512 
   15500    1380.3282   -115.17625      1.24895    -113.9273    18721.028    4.3650419    4.3650419    4.3650419    18721.028   -23966.649    27157.016    52972.716    3969.7427    16581.564    3418.2903    83.169721 
   15600    1394.8299   -115.18454    1.2620714   -113.92247   -20756.664    4.3829214    4.3829214    4.3829214   -20756.664   -41336.506   -17148.375   -3785.1112   -5985.3539    5211.1555   -13096.003    84.195918 
   15700    1350.9726   -115.13861    1.2223884   -113.91623    27067.847    4.3595327    4.3595327    4.3595327    27067.847    5484.3996    29612.742      46106.4    16929.658   -29338.034   -3262.8298    82.855207 
   15800    1109.2332   -114.93454    1.0036576   -113.93088   -7953.6454    4.3725861    4.3725861    4.3725861   -7953.6454   -32422.437    7306.1429    1255.3585    2975.2522    37118.219    6949.4827    83.601702 
   15900    1149.9669   -114.96663    1.0405142   -113.92611    -21973.28    4.3730895    4.3730895    4.3730895    -21973.28    -44616.85   -19377.835   -1925.1546    -13223.66    36908.744   -10357.661    83.630577 
   16000    1613.4399   -115.37806    1.4598744   -113.91819    7147.1692    4.3587911    4.3587911    4.3587911    7147.1692     25240.73   -14298.184    10498.962   -142.44552   -20627.808    8076.6698    82.812936 
   16100    874.32509   -114.72509   0.79110771   -113.93398    -30491.62    4.3804501    4.3804501    4.3804501    -30491.62   -63215.681    1818.0769   -30077.257    19606.001    32733.186    -7549.942    84.053578 
   16200    1109.5251   -114.94088    1.0039217   -113.93696   -18029.005    4.3606568    4.3606568    4.3606568   -18029.005   -41472.673   -13826.737    1212.3962   -17081.487    23530.845    7643.1862    82.919318 
   16300    1408.6154   -115.21311    1.2745448   -113.93857     19382.15    4.3626663    4.3626663    4.3626663     19382.15   -5235.4729    17566.859    45815.062   -25253.982   -994.75576   -11728.756    83.034005 
   16400    1471.9919   -115.26281    1.3318892   -113.93092   -11231.048    4.3815635    4.3815635    4.3815635   -11231.048   -35238.983     8266.687   -6720.8478    10751.535    13158.778   -6914.3217     84.11769 
   16500    997.56405   -114.83414   0.90261692   -113.93152    1335.9483    4.3626594    4.3626594    4.3626594    1335.9483   -40993.208     20735.58    24265.473   -15325.568    34182.575    4379.9279    83.033609 
   16600    1027.9021   -114.86149   0.93006745   -113.93142     12417.39    4.3705726    4.3705726    4.3705726     12417.39   -8598.7729    13803.137    32047.806   -22145.067   -17525.881   -7931.8634     83.48626 
   16700    1667.3816   -115.42194    1.5086819   -113.91326   -10604.221    4.3796623    4.3796623    4.3796623   -10604.221   -33222.325    19457.596   -18047.935    4072.1624   -1305.6548    15011.562    84.008238 
   16800    1006.5739   -114.82674   0.91076918   -113.91597    13915.385    4.3684011    4.3684011    4.3684011    13915.385   -24067.926    11651.178    54162.904    -32083.81    23239.553   -5844.6853    83.361882 
   16900     883.6245   -114.71928   0.79952202   -113.91976   -8530.9997    4.3810059    4.3810059    4.3810059   -8530.9997   -27070.015   -27455.273    28932.289   -18080.078   -3428.8156    6272.4346    84.085575 
   17000    1226.5119   -115.01602    1.1097738   -113.90625    5041.6908    4.3815062    4.3815062    4.3815062    5041.6908   -16656.371   -1863.7593    33645.202    8092.4976   -8433.4912   -163.78586    84.114388 
   17100    1010.5831   -114.81926    0.9143968   -113.90486    19295.238    4.3730965    4.3730965    4.3730965    19295.238   -631.25281    6741.0349    51775.932   -31746.085    17614.887    10436.625    83.630977 
   17200    1089.2739   -114.89254    0.9855979   -113.90695    9988.2541    4.3843253    4.3843253    4.3843253    9988.2541   -27571.354    12925.629    44610.488   -16656.031   -5753.3344    5831.7808    84.276852 
   17300     1084.408   -114.88373   0.98119514   -113.90254    13576.941    4.3827285    4.3827285    4.3827285    13576.941   -27460.158    44356.235    23834.747    10287.016   -13456.903    13338.392    84.184803 
   17400    1172.3844   -114.96393     1.060798   -113.90313    21071.129    4.3595935    4.3595935    4.3595935    21071.129   -3625.1693     40716.67    26121.887   -33925.093     8708.135    12703.873    82.858678 
   17500    1082.5957   -114.89587   0.97955534   -113.91631    10269.676    4.3744809    4.3744809    4.3744809    10269.676   -8957.3867    19942.281    19824.135    -22958.84    2912.3467    2290.3692     83.71043 
   17600    1599.8848   -115.35388    1.4476094   -113.90627   -9486.3596    4.3808695    4.3808695    4.3808695   -9486.3596    -23005.64    15122.138   -20575.577    9197.2319   -6053.7192     12975.25    84.077727 
   17700    532.84834   -114.40114   0.48213237     -113.919     25327.82    4.3702042    4.3702042    4.3702042     25327.82    18584.739   -16221.126    73619.848   -44856.137    6212.3516    1480.7039     83.46515 
   17800     1278.635    -115.0734    1.1569358   -113.91646   -11837.211    4.3707821    4.3707821    4.3707821   -11837.211   -24123.126    -17983.08     6594.573   -20605.522    30542.265    12577.066     83.49827 
   17900    1533.0257   -115.29683    1.3871138   -113.90971    16683.082     4.361727     4.361727     4.361727    16683.082     45858.28    25.887498    4165.0792    2099.0834   -3759.8267   -8092.5962    82.980383 
   18000    722.25068   -114.58437   0.65350759   -113.93087   -22436.649    4.3852616    4.3852616    4.3852616   -22436.649   -22804.061   -51256.495    6750.6086    -51075.87   -4982.0834     11570.26     84.33086 
   18100    823.33885   -114.66208   0.74497429   -113.91711   -4006.0315    4.3785742    4.3785742    4.3785742   -4006.0315   -7110.4253   -3695.1479   -1212.5214   -5806.1959    24007.138    16623.896    83.945641 
   18200    1440.9696   -115.20029    1.3038196   -113.89647    10839.496    4.3590162    4.3590162    4.3590162    10839.496    42105.185    2388.0533   -11974.751   -6163.2928    3263.0798   -5715.0722    82.825762 
   18300    849.93568   -114.68315   0.76903966   -113.91411   -13981.129    4.3844729    4.3844729    4.3844729   -13981.129   -29671.759   -17914.901    5643.2724   -57968.746   -5140.9028    5765.3713    84.285365 
   18400    929.89553    -114.7477   0.84138902   -113.90631    4010.8821    4.3800146    4.3800146    4.3800146    4010.8821    29884.992    22750.543   -40602.889   -6680.7194    7696.4545     4414.142    84.028512 
   18500    1220.7757   -115.00512    1.1045836   -113.90054   -1584.7667    4.3722203    4.3722203    4.3722203   -1584.7667    -9894.253    26458.486   -21318.533    2929.6496    11204.282    3557.2911    83.580722 
   18600    1137.3257   -114.93415    1.0290762   -113.90508   -5364.9674    4.3752011    4.3752011    4.3752011   -5364.9674   -16288.299    7483.4986   -7290.1013   -30841.392   -2992.4266     3581.244    83.751784 
   18700    1305.7353     -115.091    1.1814568   -113.90955   -6892.2376    4.3740392    4.3740392    4.3740392   -6892.2376   -7569.3704    35996.707    -49104.05    3127.7258    13271.892   -661.63733    83.685077 
   18800    1442.4587   -115.21695     1.305167   -113.91178   -20541.074    4.3813479    4.3813479    4.3813479   -20541.074   -15972.581   -25398.093    -20252.55    13690.502    2341.5915    3556.0148    84.105271 
   18900    1258.8762   -115.04878    1.1390576   -113.90972   -12431.617    4.3712311    4.3712311    4.3712311   -12431.617   -25159.415   -22058.187    9922.7509   -423.04182   -1429.0638    3668.0431    83.524005 
   19000    1489.7879   -115.25904    1.3479914   -113.91105   -4924.3953    4.3746088    4.3746088    4.3746088   -4924.3953    4406.2491    22766.721   -41946.156   -6813.2294    5102.9874    6053.7074    83.717773 
   19100    1338.4329   -115.12285    1.2110422   -113.91181   -965.50036    4.3800453    4.3800453    4.3800453   -965.50036    26697.221   -8827.3677   -20766.355    6259.2033    -1702.516    4783.9938    84.030278 
   19200    724.56913   -114.57213   0.65560537   -113.91652    18413.411    4.3623043    4.3623043    4.3623043    18413.411   -17437.377    13863.775    58813.835    -3011.807   -4098.5117    3448.0282    83.013337 
   19300    1126.0488   -114.93327    1.0188726    -113.9144    18494.787    4.3730172    4.3730172    4.3730172    18494.787    19130.141    47158.024   -10803.802   -17887.199    2747.9332    3018.3855    83.626432 
   19400    1546.2318   -115.30287     1.399063   -113.90381   -7194.0591    4.3772815    4.3772815    4.3772815   -7194.0591   -12849.263    21987.479   -30720.394    3467.8524    5895.0052   -3296.4576     83.87131 
   19500    607.58537   -114.46879   0.54975601   -113.91903    4226.1614    4.3618292    4.3618292    4.3618292    4226.1614   -21641.284    -7162.233    41482.001    2217.9189   -1014.2489    1253.7329    82.986217 
   19600    1196.8665   -115.00493      1.08295   -113.92198    3144.7838    4.3739623    4.3739623    4.3739623    3144.7838   -16177.982    12244.433      13367.9   -7496.9168    7192.4359   -3581.8212    83.680661 
   19700    1673.8485   -115.42362    1.5145333   -113.90909   -9387.8878    4.3795753    4.3795753    4.3795753   -9387.8878    6233.8379    -9803.999   -24593.502    5357.4025   -3271.1593   -16629.302    84.003231 
   19800     853.5896   -114.69034   0.77234581     -113.918   -18200.309    4.3661719    4.3661719    4.3661719   -18200.309   -55734.845   -9071.8033     10205.72    12391.223   -2273.9614    5586.1438     83.23433 
   19900    1330.6889   -115.11957    1.2040353   -113.91553   -2863.2285    4.3698746    4.3698746    4.3698746   -2863.2285   -15602.714   -10374.029    17387.058   -7469.7146    919.97666    -10925.08    83.446272 
   20000    1432.3367   -115.20367    1.2960083   -113.90766   -2073.7473    4.3789297    4.3789297    4.3789297   -2073.7473    21119.465    7384.5344   -34725.241   -3069.1925   -2303.4737   -9303.4802    83.966091 
   20100      825.975   -114.66619   0.74735954   -113.91883    6107.3058    4.3613706    4.3613706    4.3613706    6107.3058   -20484.758    22963.313    15843.362    -5272.383   -3583.3764    6030.1293    82.960046 
   20200    1115.2866   -114.94152    1.0091348   -113.93239     4513.017    4.3701976    4.3701976    4.3701976     4513.017    8953.0685    -1054.244    5640.2264   -3666.8136   -5442.6556   -6603.5946    83.464773 
   20300    1582.7759   -115.34234    1.4321289   -113.91021   -11603.078    4.3830613    4.3830613    4.3830613   -11603.078   -867.21907    7921.3146   -41863.329    -2019.032   -1530.5204    7518.7435     84.20398 
   20400    980.92556   -114.79984   0.88756206   -113.91228   -7726.4569    4.3653173    4.3653173    4.3653173   -7726.4569    1848.0352   -38805.969    13778.563    2464.5129   -12557.403   -6183.9321    83.185465 
   20500    1270.7831   -115.06451    1.1498313   -113.91468   -10789.336    4.3651729    4.3651729    4.3651729   -10789.336   -32274.997    -17978.34    17885.328    16377.292    315.64064    277.95037    83.177208 
   20600    1648.9928   -115.40222    1.4920433   -113.91017   -23813.572    4.3893467    4.3893467    4.3893467   -23813.572    304.01354   -20714.238   -51030.491    7230.1947   -3909.6177    9068.9093    84.566754 
   20700    1171.1508   -114.96739    1.0596819   -113.90771   -13867.664    4.3805231    4.3805231    4.3805231   -13867.664   -32087.976   -17822.466    8307.4498   -355.60457   -2251.7308   -15594.998    84.057784 
   20800     1057.806   -114.86315   0.95712512   -113.90603    4479.6575     4.363431     4.363431     4.363431    4479.6575   -1725.6484   -404.62573    15569.247   -2109.8018   -11698.327    5357.0597    83.077676 
   20900    1421.1976   -115.20077    1.2859294   -113.91484   -3306.1226    4.3817284    4.3817284    4.3817284   -3306.1226    46903.488    681.51458    -57503.37   -4674.1876    9333.5309    215.16044    84.127188 
   21000    958.25341     -114.781   0.86704782   -113.91395   -4347.7669    4.3848274    4.3848274    4.3848274   -4347.7669   -2472.7486   -8552.6918   -2017.8603   -4836.2771   -1959.9594   -6772.1608    84.305811 
   21100    871.24028   -114.69348   0.78831652   -113.90516     15289.84    4.3690568    4.3690568    4.3690568     15289.84    17998.055    4023.7756     23847.69    1512.9404   -5811.6008     1202.572     83.39943 
   21200     1705.053   -115.44462    1.5427678   -113.90186   -11208.086    4.3729053    4.3729053    4.3729053   -11208.086   -18619.935    21552.896   -36557.218   -1562.1755    13689.737   -4144.8661    83.620011 
   21300    1004.0614    -114.8228   0.90849584   -113.91431    19508.704    4.3624664    4.3624664    4.3624664    19508.704   -10762.542    41390.885    27897.769   -3412.1559    9787.6317   -4624.7288     83.02259 
   21400    904.16018    -114.7442   0.81810314    -113.9261   -2402.2165    4.3742894    4.3742894    4.3742894   -2402.2165   -27420.604   -8885.9376    29099.892    12323.179    820.29121   -6227.4734    83.699437 
   21500    1385.6996   -115.16297    1.2538101   -113.90916   -5994.9512    4.3848785    4.3848785    4.3848785   -5994.9512    1260.3253    4181.8342   -23427.013    12949.423    7954.7214     708.4289    84.308757 
   21600    1135.6064   -114.93911    1.0275206   -113.91159    19801.029    4.3560264    4.3560264    4.3560264    19801.029    23641.307    3850.2025    31911.576   -10875.816    14427.788    4115.1488    82.655452 
   21700    944.15422   -114.78175   0.85429058   -113.92746   -10230.418    4.3674501    4.3674501    4.3674501   -10230.418   -21376.376   -46715.485    37400.608   -5894.3152    6575.3363   -5990.0149    83.307452 
   21800    1568.0228   -115.33271      1.41878   -113.91393   -10161.216    4.3766317    4.3766317    4.3766317   -10161.216   -5655.6893   -696.44526   -24131.515    3128.7577   -16473.227    6262.8303    83.833967 
   21900    1219.1474   -115.01939    1.1031102   -113.91628    5152.1251    4.3689968    4.3689968    4.3689968    5152.1251    1604.3565   -8044.1929    21896.212   -18406.444   -7476.4705    5171.4987    83.395992 
   22000    1220.8273   -115.02298    1.1046302   -113.91835   -11175.492    4.3724552    4.3724552    4.3724552   -11175.492   -19109.891   -32273.184    17856.598   -2398.0775    1453.6854   -7745.4589     83.59419 
   22100    1240.7444   -115.03709    1.1226516   -113.91444    22272.182    4.3623307    4.3623307    4.3623307    22272.182     60579.27    32393.338   -26156.063    12959.961   -25836.408    10367.487    83.014842 
   22200    1204.5375    -115.0117    1.0898908   -113.92181    10931.233     4.377265     4.377265     4.377265    10931.233    11218.391    27083.968   -5508.6604   -7120.9903   -3044.0481    10875.951    83.870363 
   22300    1204.2188   -114.99849    1.0896025   -113.90888    -7719.392    4.3825661    4.3825661    4.3825661    -7719.392   -21246.635   -14470.616    12559.075    10122.645    -4612.764    -2389.846    84.175446 
   22400     1120.089   -114.91801      1.01348   -113.90453    1557.9235    4.3593489    4.3593489    4.3593489    1557.9235    2739.8478    23125.775   -21191.852    10155.411   -24105.063    20106.983     82.84473 
   22500    1101.4587   -114.91818   0.99662299   -113.92155    11292.883    4.3637746    4.3637746    4.3637746    11292.883    37307.207    21402.788   -24831.344    -11427.01   -11939.465     10307.83    83.097301 
   22600    1315.2276   -115.11055    1.1900456    -113.9205   -12857.673    4.3899517    4.3899517    4.3899517   -12857.673   -6225.2391   -23202.201   -9145.5794   -10685.078    13149.081   -6698.5475    84.601726 
   22700    678.43147   -114.53249   0.61385905   -113.91863   -22669.154    4.3907051    4.3907051    4.3907051   -22669.154    31162.012    -37972.39   -61197.083    3988.5618   -24533.002    19031.681    84.645292 
   22800    1324.8137   -115.10535    1.1987193   -113.90664    6676.7978    4.3549718    4.3549718    4.3549718    6676.7978    31181.203    2656.6239   -13807.434   -5868.2885   -19640.958    7267.1863    82.595432 
   22900    1578.6043    -115.3461    1.4283543   -113.91775     12999.32    4.3601644    4.3601644    4.3601644     12999.32    23705.622   -695.50538    15987.842   -21134.553    20472.961   -7048.8174    82.891231 
   23000    966.55043   -114.79493   0.87455514   -113.92037   -43259.889    4.3986881    4.3986881    4.3986881   -43259.889   -47378.459   -43527.952   -38873.257    7658.5176   -16167.874    19325.947    85.107826 
   23100    1486.8869   -115.25484    1.3453665   -113.90947   -12004.503    4.3761773    4.3761773    4.3761773   -12004.503     11007.42    -12829.52   -34191.411    6848.0631   -15728.206    1579.4266    83.807854 
   23200    1808.7572    -115.5314    1.6366015    -113.8948    33856.778    4.3375501    4.3375501    4.3375501    33856.778     43445.51    26051.941    32072.883   -25781.023    13225.609   -13071.322    81.608148 
   23300    751.55641   -114.62049   0.68002404   -113.94047    7804.0796    4.3633479    4.3633479    4.3633479    7804.0796    51804.932   -18660.577   -9732.1158   -138.79213   -27095.588    23580.725     83.07293 
   23400    1040.2756    -114.8689   0.94126321   -113.92763   -29260.318    4.3982034    4.3982034    4.3982034   -29260.318    -36261.92   -39165.245    -12353.79   -397.05281   -22985.332    607.63124    85.079696 
   23500    1624.1901   -115.37876    1.4696013   -113.90916    3286.1801    4.3740112    4.3740112    4.3740112    3286.1801    7782.3995   -14659.241    16735.382     6239.131    8224.1578   -8445.5958     83.68347 
   23600    945.43208   -114.76531   0.85544681   -113.90986    12936.925     4.343272     4.343272     4.343272    12936.925    18195.713   -16527.878    37142.939    5494.5654   -18009.974    25690.925    81.931531 
   23700    666.93134     -114.544   0.60345349   -113.94054   -3517.4776    4.3612024    4.3612024    4.3612024   -3517.4776    13591.671   -6593.5754   -17550.528    4601.8314   -32235.967    15809.772    82.950445 
   23800    1641.3929    -115.4041    1.4851668   -113.91893   -9290.3058    4.3851252    4.3851252    4.3851252   -9290.3058   -23007.018   -10352.189    5488.2906    8919.6858    11828.901   -6182.5343    84.322991 
   23900    1213.2754   -115.01749    1.0977971    -113.9197   -24916.565    4.3778121    4.3778121    4.3778121   -24916.565   -15853.716   -28482.464   -30413.514   -4957.2698   -11247.653    21355.136    83.901816 
   24000     756.8917   -114.60732   0.68485151   -113.92247   -8003.5405    4.3541445    4.3541445    4.3541445   -8003.5405    10223.053    -493.8559   -33739.818    4666.1946   -44060.605    20413.392     82.54837 
   24100    1708.4899   -115.47118    1.5458776    -113.9253    19195.307    4.3533794    4.3533794    4.3533794    19195.307   -6494.3369    39095.306    24984.952   -8193.2139    9164.0871   -7290.8247    82.504862 
   24200    1214.4769   -115.03238    1.0988842   -113.93349   -768.18325    4.3843325    4.3843325    4.3843325   -768.18325    15436.156   -25665.055    7924.3487   -4731.3998   -2744.9679    18367.952    84.277268 
   24300    704.78843   -114.56474   0.63770738   -113.92703    6676.8205    4.3784045    4.3784045    4.3784045    6676.8205    2530.6844    4051.8619    13447.915   -366.78819   -39743.897    8205.6598    83.935879 
   24400    1255.4443   -115.03973    1.1359523   -113.90378    19876.291    4.3697678    4.3697678    4.3697678    19876.291   -9738.2537    27830.824    41536.304   -10499.119   -554.02593   -10048.702    83.440149 
   24500    1541.1764   -115.29821    1.3944888   -113.90372    7926.3155    4.3658526    4.3658526    4.3658526    7926.3155    16372.718   -10663.004    18069.233    3966.2923   -962.01333    8024.7623    83.216071 
   24600    788.03989   -114.64058   0.71303505   -113.92755     17954.14    4.3599415    4.3599415    4.3599415     17954.14    16837.356    43542.935   -6517.8721    1044.9992   -31893.464    19312.396    82.878521 
   24700    1096.2393   -114.92492   0.99190039   -113.93302   -17567.211    4.3732671    4.3732671    4.3732671   -17567.211   -33174.385   -159.88592   -19367.363   -3052.0499   -14948.025   -13258.025    83.640768 
   24800    1556.1377   -115.33106    1.4080261   -113.92303    5072.3703    4.3663577    4.3663577    4.3663577    5072.3703     36163.41   -21280.363    334.06402    1834.1517    11234.571   -13357.628     83.24496 
   24900     1373.258   -115.17045    1.2425527    -113.9279    1939.7257     4.361741     4.361741     4.361741    1939.7257   -18474.067    36508.486   -12215.242   -6389.4506   -37445.198    21924.156    82.981183 
   25000    848.60227   -114.70233   0.76783317    -113.9345   -17863.679    4.3685634    4.3685634    4.3685634   -17863.679    1897.3093   -19224.924   -36263.422     7958.359   -17234.918   -10661.305    83.371176 
   25100    1204.7991   -115.01897    1.0901275   -113.92884   -7475.9543    4.3644517    4.3644517    4.3644517   -7475.9543    4473.2507    -44471.57    17570.456    2749.4408    9539.6642   -23353.603    83.135988 
   25200    1438.3613   -115.22387    1.3014595   -113.92241   -13406.359    4.3698034    4.3698034    4.3698034   -13406.359   -15732.646    13078.305   -37564.738    4498.3449    -21845.36    9413.7274    83.442189 
   25300    1105.6708   -114.92681    1.0004341   -113.92638    -16958.37    4.3624723    4.3624723    4.3624723    -16958.37    -3832.042   -11507.304   -35535.764   -2760.3592   -17320.804   -18374.398    83.022926 
   25400    821.51454   -114.67735   0.74332362   -113.93403    13806.956    4.3614299    4.3614299    4.3614299    13806.956    56269.629   -27105.667    12256.906    4724.5645    8862.8685   -24245.344     82.96343 
   25500    1390.9385   -115.18176    1.2585504   -113.92321   -18461.404    4.3772716    4.3772716    4.3772716   -18461.404   -19462.366   -2032.8396   -33889.008    13845.765   -18456.648    14591.499    83.870741 
   25600    1048.9319   -114.87593   0.94909565   -113.92684    21653.256    4.3590851    4.3590851    4.3590851    21653.256    87085.206   -3742.1701   -18383.268    -9739.596    -20350.32   -13399.698    82.829691 
   25700    1331.9935   -115.13772    1.2052157    -113.9325   -1281.5562    4.3622452    4.3622452    4.3622452   -1281.5562     10614.48   -16999.801    2540.6524    6608.4339    5474.4464   -22359.974    83.009964 
   25800    898.68763   -114.74391   0.81315145   -113.93076    2542.5486    4.3742866    4.3742866    4.3742866    2542.5486    40352.048    -17593.28   -15131.122    25070.745    2600.7902    21116.625    83.699276 
   25900    1451.8774   -115.23489    1.3136892    -113.9212    -5353.435    4.3657566    4.3657566    4.3657566    -5353.435   -3917.8963   -7517.1598   -4625.2489    -8639.058   -27832.378    1785.4163     83.21058 
   26000    1240.5863   -115.04707    1.1225086   -113.92456    5118.3905    4.3640152    4.3640152    4.3640152    5118.3905    25227.798   -9949.9576    77.331395    4578.5779    1122.2337   -18253.479    83.111048 
   26100    1108.2368   -114.93439    1.0027559   -113.93164   -2223.8614    4.3639068    4.3639068    4.3639068   -2223.8614   -6482.8421   -25684.553    25495.811    35469.043    7878.2729    19385.833    83.104856 
   26200    1086.3197   -114.91395   0.98292492   -113.93102    2645.2231    4.3734933    4.3734933    4.3734933    2645.2231    13197.238   -10727.604    5466.0355   -18963.204   -12325.814    9860.7026    83.653749 
   26300    1662.1072   -115.42273    1.5039095   -113.91882   -5112.7052    4.3666136    4.3666136    4.3666136   -5112.7052   -11781.757   -145.55032   -3410.8086    1106.8098   -11049.063   -19907.286    83.259595 
   26400     692.2269   -114.55772   0.62634145   -113.93138    14928.717    4.3607357    4.3607357    4.3607357    14928.717    61575.281   -37062.289     20273.16     34277.23    4591.8305    15534.749    82.923816 
   26500    1306.0354     -115.115    1.1817283   -113.93328   -19659.591    4.3717961    4.3717961    4.3717961   -19659.591   -25182.301   -26685.769   -7110.7018    8486.0925   -7362.0912     18933.95    83.556396 
   26600    1332.5152   -115.12888    1.2056878   -113.92319    17817.102     4.369703     4.369703     4.369703    17817.102    62218.205    2973.8457   -11740.744   -5309.3419   -8273.3222   -15148.932    83.436438 
   26700    1184.8152    -114.9969    1.0720457   -113.92485    -27048.85    4.3745792    4.3745792    4.3745792    -27048.85   -30909.543   -40967.244   -9269.7622    27482.379   -3873.5354    15440.407    83.716076 
   26800    1056.6214   -114.87365    0.9560532   -113.91759    4151.7021    4.3649799    4.3649799    4.3649799    4151.7021    39799.052   -19735.862   -7608.0833    6023.0827    6446.3744     10571.38    83.166175 
   26900    1541.4497   -115.31353    1.3947361   -113.91879    -13603.47    4.3625261    4.3625261    4.3625261    -13603.47   -30656.662    12549.096   -22702.843   -21708.513   -16618.137   -6538.5114    83.025999 
   27000    998.80502   -114.83232   0.90373977   -113.92858   -13243.368    4.3714487    4.3714487    4.3714487   -13243.368   -15489.302   -15668.816    -8571.987     22032.95   -14254.272    14861.368     83.53648 
   27100     1192.453    -115.0052    1.0789565   -113.92625   -13337.974    4.3720255    4.3720255    4.3720255   -13337.974   -15266.807   -34901.737    10154.623    10406.836    6080.5838    25884.847    83.569549 
   27200    1323.3688    -115.1174    1.1974119   -113.91999    3612.2316     4.366605     4.366605     4.366605    3612.2316   -6284.3876   -9419.4294    26540.512   -26817.249     7806.092   -7052.4516    83.259102 
   27300    984.12635   -114.81475    0.8904582   -113.92429    20462.195    4.3591221    4.3591221    4.3591221    20462.195   -10482.065    12548.901     59319.75     11925.12    -8376.775    2145.9381    82.831799 
   27400    1060.6713   -114.89324   0.95971765   -113.93353   -11520.219    4.3724369    4.3724369    4.3724369   -11520.219    4728.8025   -40853.871    1564.4116   -245.45581    931.42923    28029.272    83.593141 
   27500    1230.1183   -115.03453    1.1130369    -113.9215    10297.958    4.3737104    4.3737104    4.3737104    10297.958    6486.9246   -29981.039    54387.988   -26951.392    13734.835   -6346.3511    83.666204 
   27600    1399.7363   -115.18103    1.2665108   -113.91452   -5877.0596     4.371843     4.371843     4.371843   -5877.0596    24330.094   -15036.732   -26924.542    9663.9658   -12307.959    10851.823    83.559087 
   27700    410.08861   -114.29368   0.37105679   -113.92262   -11352.956    4.3767117    4.3767117    4.3767117   -11352.956    29304.346   -41952.293    -21410.92   -8369.3151   -6857.3628    32875.811     83.83856 
   27800    1310.4751   -115.09267    1.1857454   -113.90693    8424.1898    4.3642187    4.3642187    4.3642187    8424.1898    22841.403   -20891.369    23322.535   -27066.859   -1741.3959    902.02986    83.122675 
   27900    1369.7647   -115.15448    1.2393919   -113.91509   -3555.1803    4.3740706    4.3740706    4.3740706   -3555.1803    35395.654   -37017.254   -9043.9416    5940.9756    -6874.378   -5110.0519    83.686876 
   28000    960.96176   -114.79175   0.86949839   -113.92225   -30055.169    4.3786085    4.3786085    4.3786085   -30055.169   -20259.499    -48105.88   -21800.128   -11523.423   -20455.743    24089.447    83.947611 
   28100    1339.3408    -115.1245    1.2118637   -113.91264    15643.204    4.3676591    4.3676591    4.3676591    15643.204   -13369.795     127.6131    60171.794   -21070.363   -6723.2758   -4977.5896    83.319413 
   28200    1608.3651   -115.36254    1.4552825   -113.90725   -19527.845    4.3804389    4.3804389    4.3804389   -19527.845   -2056.3396    -35762.64   -20764.556    7216.5729     5973.963   -9111.8469    84.052934 
   28300    1176.5335    -114.9798    1.0645523   -113.91525   -208.40134    4.3616172    4.3616172    4.3616172   -208.40134   -5481.1217    -19815.92    24671.837   -4656.5462   -6963.6009    29395.986    82.974115 
   28400    1192.5822   -115.00268    1.0790734   -113.92361    12837.844     4.359902     4.359902     4.359902    12837.844    8702.1509    12178.459    17632.921   -21625.184   -554.19977   -12195.597    82.876266 
   28500    1231.3567   -115.03434    1.1141574   -113.92019    -8819.246    4.3770693    4.3770693    4.3770693    -8819.246   -5007.7611   -17029.532   -4420.4449    8588.5708    12264.042   -10004.935    83.859116 
   28600    1061.5172   -114.87664   0.96048309   -113.91615    14923.775    4.3656793    4.3656793    4.3656793    14923.775    40133.103   -32506.167    37144.388   -1853.2334    9734.7549    30256.773    83.206161 
   28700    1430.2251   -115.20698    1.2940978   -113.91288   -6617.4365    4.3727466    4.3727466    4.3727466   -6617.4365   -1966.0032   -29717.554    11831.248   -25402.579   -4651.5714   -3443.5102    83.610909 
   28800    1327.4527    -115.1146    1.2011071   -113.91349    13260.123    4.3608239    4.3608239    4.3608239    13260.123    12194.168   -22445.019    50031.219    15834.714    3938.7818    180.09232    82.928849 
   28900    871.71786   -114.71637   0.78874864   -113.92762    11000.419    4.3596562    4.3596562    4.3596562    11000.419    40918.679   -20211.149    12293.728   -4427.1333    2946.4447    28584.864     82.86225 
   29000    1346.4219   -115.14041    1.2182709   -113.92214     -30335.8     4.381303     4.381303     4.381303     -30335.8   -31730.539   -59175.166   -101.69401   -26482.167    4481.2192    358.72394    84.102688 
   29100    1453.3506    -115.2279    1.3150221   -113.91288    12761.203    4.3601125    4.3601125    4.3601125    12761.203    3992.7152   -23786.929    58077.822    20952.319   -3040.6009   -2075.9189    82.888271 
   29200    824.94612   -114.67385   0.74642859   -113.92742   -4427.0124    4.3650927    4.3650927    4.3650927   -4427.0124    12039.911   -33030.194    7709.2455    2789.4943    2526.1873    31225.365    83.172625 
   29300    1079.6721   -114.89469   0.97691002   -113.91778   -17918.807    4.3810644    4.3810644    4.3810644   -17918.807   -35611.724    -32169.43    14024.732   -14026.406    5504.9898    2435.7888    84.088945 
   29400    1115.2819   -114.91939    1.0091305   -113.91026    18567.509    4.3638347    4.3638347    4.3638347    18567.509   -10193.462   -24475.789    90371.778    29165.051   -6943.8784    5437.0903    83.100735 
   29500    1187.3525   -114.98595    1.0743415   -113.91161    26417.761    4.3626399    4.3626399    4.3626399    26417.761    43886.968   -16864.475    52230.789    3992.0789   -10361.208    16877.893      83.0325 
   29600    1006.7936   -114.82884   0.91096802   -113.91787    8745.2744    4.3739885    4.3739885    4.3739885    8745.2744    7261.3763   -27271.167    46245.614   -13601.255   -10400.358     5861.517    83.682164 
   29700    987.93928   -114.81175   0.89390822   -113.91784    -4976.116    4.3733516    4.3733516    4.3733516    -4976.116    15272.789   -57793.844    27592.707    31638.738   -2997.0727   -4530.5724    83.645618 
   29800    1631.2457   -115.38535    1.4759854   -113.90937    12682.695     4.358765     4.358765     4.358765    12682.695    37588.412   -23525.637     23985.31    3131.9425   -6952.8777    12008.254    82.811446 
   29900    1275.2968   -115.08403    1.1539153   -113.93012   -16879.411    4.3676173    4.3676173    4.3676173   -16879.411   -5655.5391   -37115.211   -7867.4833   -5491.9408    21117.132     2085.019    83.317022 
   30000    786.20586   -114.64424   0.71137559   -113.93287   -30043.444    4.3763782    4.3763782    4.3763782   -30043.444   -41424.793     -63746.4    15040.861    31244.603   -1526.5378   -8387.5532    83.819398 
   30100    1648.0022   -115.40209     1.491147   -113.91095    14610.844    4.3667998    4.3667998    4.3667998    14610.844    52555.602   -16760.945    8037.8753    9516.4314    12712.967   -8201.1968    83.270244 
   30200    1258.3183   -115.05612    1.1385528   -113.91756   -9446.8395    4.3673012    4.3673012    4.3673012   -9446.8395    10631.298   -28646.737   -10325.079   -6042.6502   -1869.6966    3892.4883    83.298935 
   30300    669.85045   -114.53547   0.60609476   -113.92937    8480.5942    4.3535288    4.3535288    4.3535288    8480.5942    40729.525    -37571.89    22284.148    31963.038   -1956.7503   -7870.3589    82.513357 
   30400     1468.914     -115.272    1.3291042   -113.94289   -4009.8855    4.3666614    4.3666614    4.3666614   -4009.8855    13677.167   -39033.427    13326.603    5765.4747   -2617.6518   -9640.2088    83.262329 
   30500    1470.3934   -115.26369    1.3304429   -113.93325   -9009.0992    4.3835111    4.3835111    4.3835111   -9009.0992    11612.945   -14252.457   -24387.786   -11725.799   -2539.5994    9416.7894     84.22991 
   30600    945.80093   -114.78801   0.85578055   -113.93223   -591.30847    4.3670637    4.3670637    4.3670637   -591.30847   -646.64705   -31540.757    30413.479    24666.841    3879.6419   -9009.0638    83.285343 
   30700    986.48776   -114.81983   0.89259486   -113.92723    22028.105    4.3519248    4.3519248    4.3519248    22028.105    51004.472   -25786.849    40866.691     16607.82    1878.8331   -1609.3435     82.42219 
   30800    1637.6422   -115.41233    1.4817731   -113.93056    4417.9606    4.3664988    4.3664988    4.3664988    4417.9606     21865.86   -11638.874     3026.896   -15243.253    6157.4921     18967.43     83.25303 
   30900     1162.085   -114.98301     1.051479   -113.93153     -11501.5    4.3833393    4.3833393    4.3833393     -11501.5   -42303.903   -31325.412    39124.817    19984.994    3016.3999   -9799.3933    84.220006 
   31000    1016.7477   -114.84972   0.91997466   -113.92975   -18003.022    4.3668363    4.3668363    4.3668363   -18003.022   -17043.291   -50794.341    13828.565    26438.235    4069.6663    4127.1304    83.272334 
   31100    1344.8664    -115.1432    1.2168633   -113.92634    25267.604     4.345025     4.345025     4.345025    25267.604    53959.224    4257.6237    17585.963   -8722.9275   -15957.533    22570.681    82.030779 
   31200      1761.71   -115.53072    1.5940322   -113.93669   -7781.0922    4.3614387    4.3614387    4.3614387   -7781.0922   -22171.583   -24887.359    23715.665    9140.8824    8582.9744   -6139.8723     82.96393 
   31300    815.58903   -114.68148   0.73796209   -113.94352   -23441.115    4.3789171    4.3789171    4.3789171   -23441.115   -2384.9808   -53749.572   -14188.792    23342.563     1763.816    5112.2454    83.965362 
   31400    973.67137    -114.8179   0.88099832    -113.9369    -8955.928    4.3601126    4.3601126    4.3601126    -8955.928    32983.045   -30996.395   -28854.434    4297.3588      4195.57    7780.1458    82.888277 
   31500    1180.0358   -114.99938    1.0677212   -113.93166     14821.51     4.360885     4.360885     4.360885     14821.51    -4578.644   -14478.139    63521.312   -12818.762   -2031.0068   -319.83601    82.932335 
   31600    1368.3103   -115.16457    1.2380759    -113.9265   -7336.9576    4.3710247    4.3710247    4.3710247   -7336.9576   -4467.6888   -41153.645    23610.461    21314.203    2577.4095    4197.2082     83.51217 
   31700     1131.373   -114.95437    1.0236901   -113.93068    2565.5995    4.3605057    4.3605057    4.3605057    2565.5995    7171.7107   -16649.561    17174.648    11446.499    1141.5129    11398.342    82.910697 
   31800    749.40039   -114.61959   0.67807322   -113.94152   -1549.3902    4.3625538    4.3625538    4.3625538   -1549.3902   -8804.3205   -12018.678    16174.828   -28813.498   -6376.8343   -2379.6173    83.027582 
   31900    1263.0962   -115.07898    1.1428759    -113.9361   -13035.503    4.3674642    4.3674642    4.3674642   -13035.503   -35523.434   -1613.1754   -1969.8992   -1533.0425    8705.1549   -62.822182    83.308258 
   32000    1590.8066    -115.3688    1.4393952    -113.9294   -10225.876      4.36797      4.36797      4.36797   -10225.876    -15319.73   -12873.178    -2484.721    13039.656    3507.6694    10480.427    83.337208 
   32100    1056.6343   -114.89214    0.9560649   -113.93607   -3693.5603    4.3613297    4.3613297    4.3613297   -3693.5603   -13814.678   -10813.682    13547.678   -19586.762    -1539.601    9092.6556    82.957713 
   32200    978.72012   -114.82369   0.88556653   -113.93813   -1843.5778     4.354813     4.354813     4.354813   -1843.5778    -17230.21   -2201.7631     13901.24   -18495.221    3136.8897   -11955.731    82.586397 
   32300     1196.773   -115.02277    1.0828653    -113.9399   -4700.1022    4.3703232    4.3703232    4.3703232   -4700.1022   -43238.624    36774.078   -7635.7599    3844.8936    4548.1282    1454.3159    83.471972 
   32400    1468.7574   -115.25939    1.3289625   -113.93043   -1382.5522    4.3685992    4.3685992    4.3685992   -1382.5522    -33280.59    2049.4136    27083.519    2312.3112   -2664.2328    14816.057    83.373228 
   32500    1096.9557   -114.92473   0.99254858   -113.93218    3269.3128    4.3522931    4.3522931    4.3522931    3269.3128    -861.5794   -9555.4484    20224.966   -15413.962    6891.6948   -12753.813    82.443115 
   32600    739.52628   -114.61428   0.66913892   -113.94514   -1381.5264    4.3598271    4.3598271    4.3598271   -1381.5264   -26366.206    46916.082   -24694.455   -7665.5926   -2092.5481   -8250.4138    82.871996 
   32700    1306.8115   -115.12251    1.1824305   -113.94008   -5389.4354    4.3691026    4.3691026    4.3691026   -5389.4354   -34249.579    14499.358    3581.9145    18192.143     -2443.26   -2154.9002    83.402052 
   32800    1798.5394   -115.55831    1.6273563   -113.93095    2519.6443    4.3643011    4.3643011    4.3643011    2519.6443    -3127.224   -18645.258    29331.414    4340.2288    9643.7415   -405.72804    83.127385 
   32900    1061.0249   -114.90021   0.96003759   -113.94018    8122.0075    4.3595008    4.3595008    4.3595008    8122.0075   -24567.813    52084.861   -3151.0262    -8863.838    3843.3487   -4291.6969    82.853388 
   33000    654.68549   -114.54015   0.59237319   -113.94778   -7406.3961    4.3638808    4.3638808    4.3638808   -7406.3961   -48869.263    11352.281    15297.794    21099.268   -5119.0716   -8367.5616    83.103368 
   33100    1492.4412    -115.2909    1.3503922   -113.94051   -8933.2252    4.3721379    4.3721379    4.3721379   -8933.2252    -31347.61   -29022.687    33570.621    8907.0943   -3997.9603    8727.7423    83.575992 
   33200    1876.6757   -115.62862    1.6980556   -113.93056    3439.2971    4.3594891    4.3594891    4.3594891    3439.2971   -24265.722     10563.23    24020.383   -10741.668    8432.1182    2539.8212    82.852725 
   33300    1009.6615   -114.85869    0.9135629   -113.94513   -4037.6009    4.3524691    4.3524691    4.3524691   -4037.6009   -41090.541    27083.306    1894.4322    17214.075   -10257.338    630.90493     82.45312 
   33400    659.22417   -114.55064   0.59647988   -113.95416    -8726.175    4.3716444    4.3716444    4.3716444    -8726.175   -59905.719    6817.0578    26910.136    11502.695   -5428.8381     2729.673    83.547698 
   33500    1424.1937   -115.21412    1.2886404   -113.92548   -12617.237    4.3796074    4.3796074    4.3796074   -12617.237   -43785.235   -5981.1637    11914.688    -21989.32   -250.66266    7068.6336     84.00508 
   33600    1385.7071   -115.16847    1.2538169   -113.91466   -3974.3302    4.3614321    4.3614321    4.3614321   -3974.3302   -46231.402    12832.791     21475.62    6913.0841   -3353.1585   -13627.824    82.963552 
   33700    687.32459   -114.54741   0.62190573    -113.9255    15045.907    4.3539485    4.3539485    4.3539485    15045.907   -28441.047    27041.822    46536.947    6811.2253   -9819.6495   -10543.802    82.537225 
   33800    880.96431   -114.73273   0.79711502   -113.93562   -3954.2718    4.3672711    4.3672711    4.3672711   -3954.2718   -20302.275     5960.928    2478.5315   -33488.855      932.733    5545.7028     83.29721 
   33900    1610.4605   -115.38026    1.4571785   -113.92308    7155.3777    4.3723969    4.3723969    4.3723969    7155.3777   -20833.874    25183.708    17116.299   -3949.3103     2772.919      1946.72    83.590846 
   34000    1320.3715    -115.1186    1.1946999    -113.9239   -2781.3692    4.3725013    4.3725013    4.3725013   -2781.3692    -45112.75    16050.714    20717.928     7516.244   -9982.6686   -10983.682    83.596835 
   34100    743.68052   -114.60478   0.67289777   -113.93189   -21685.838    4.3619059    4.3619059    4.3619059   -21685.838   -39421.253   -29525.978    3889.7174   -38801.759    22.715304    15190.068    82.990595 
   34200     1476.988    -115.2713    1.3364098   -113.93489    9921.4612    4.3573553    4.3573553    4.3573553    9921.4612   -14442.079    33173.153     11033.31   -12475.378    3310.2565    17184.292    82.731121 
   34300    1809.6866   -115.56854    1.6374425    -113.9311    84.479168    4.3687331    4.3687331    4.3687331    84.479168   -31553.424    22594.046    9212.8149    11131.115   -4788.9692   -12379.256    83.380891 
   34400    685.85807   -114.56253    0.6205788   -113.94195    15672.776     4.359359     4.359359     4.359359    15672.776    -35582.18    45281.823    37318.684   -32492.525    3149.0661   -2666.4718    82.845306 
   34500    850.46077   -114.71078   0.76951478   -113.94126    2032.3301    4.3762884    4.3762884    4.3762884    2032.3301   -44353.381    16990.811     33459.56   -4798.0106    7694.4564    7207.1004    83.814239 
   34600    1694.3151   -115.45238    1.5330519   -113.91933   -5126.4838    4.3711984    4.3711984    4.3711984   -5126.4838   -37921.041    8661.9971    13879.593    4640.8111   -4420.0616   -7051.8954    83.522131 
   34700    1199.4128    -115.0039    1.0852539   -113.91864    19687.632    4.3430103    4.3430103    4.3430103    19687.632   -1015.5013   -11588.839    71667.236   -32340.777    3232.7571   -1853.3266    81.916723 
   34800    907.91786   -114.76051   0.82150316   -113.93901   -15730.094    4.3662583    4.3662583    4.3662583   -15730.094   -42672.489   -11310.653    6792.8584   -3597.5313    5665.4708    12598.976    83.239272 
   34900     1335.843   -115.13498    1.2086988   -113.92628   -16383.402    4.3759814    4.3759814    4.3759814   -16383.402   -36705.779   -10868.241   -1576.1864    4670.6215   -12339.429    8534.0963    83.796598 
   35000    1529.6585   -115.30038    1.3840672   -113.91632    10814.903    4.3667628    4.3667628    4.3667628    10814.903   -10019.156   -17943.126     60406.99   -24930.658    -5719.371    5218.7728    83.268126 
   35100    1460.1478   -115.23888    1.3211724   -113.91771   -5414.0012    4.3648488    4.3648488    4.3648488   -5414.0012   -22427.755    6025.2299    160.52152    122.91494    6743.6979    7300.4801    83.158684 
   35200    893.90053   -114.73386   0.80881998   -113.92504    23076.501     4.356224     4.356224     4.356224    23076.501   -18136.672     19251.86    68114.315    13534.606   -18147.339    13425.864    82.666699 
   35300    1433.3852   -115.22694     1.296957   -113.92998    4411.2074    4.3732634    4.3732634    4.3732634    4411.2074    -17324.46    26771.826    3786.2565   -16778.714    -13167.01   -3965.2243    83.640555 
   35400    1558.5947   -115.33301    1.4102492   -113.92276    9000.9509    4.3685925    4.3685925    4.3685925    9000.9509   -23388.168    17697.665    32693.356    2676.9219    3995.4639   -6453.2774    83.372844 
   35500    863.60065   -114.71106   0.78140402   -113.92966    6649.6153    4.3531076    4.3531076    4.3531076    6649.6153   -32870.175    30239.224    22579.797    13067.191   -21301.102    9714.6646     82.48941 
   35600    746.02983     -114.612   0.67502347   -113.93697     -3486.84    4.3693057    4.3693057    4.3693057     -3486.84   -25929.417    54393.538   -38924.641   -14488.703    144.89248   -7445.7234    83.413682 
   35700    1533.6287   -115.30545    1.3876594    -113.9178     -9307.46    4.3701703    4.3701703    4.3701703     -9307.46   -11890.733   -9149.6703   -6881.9769    453.04691    7824.5083   -14900.779    83.463212 
   35800    868.67699   -114.71167    0.7859972   -113.92567    9978.4131    4.3614384    4.3614384    4.3614384    9978.4131   -26687.997    37286.701    19336.535     13031.14   -18043.667   -1528.6716    82.963916 
   35900    1077.7459   -114.90828   0.97516711   -113.93311    3496.4315    4.3578492    4.3578492    4.3578492    3496.4315    -7546.837    20275.307   -2239.1756    222.81742   -1523.7588    15413.014    82.759257 
   36000     986.8161   -114.83012   0.89289194   -113.93723    24345.099    4.3646183    4.3646183    4.3646183    24345.099     19863.44    17771.585    35400.271   -9645.2489    8172.7422   -19537.286     83.14551 
   36100    1241.1874   -115.05274    1.1230525   -113.92969   -2617.8319    4.3744096    4.3744096    4.3744096   -2617.8319    3659.0653   -25087.985    13575.424    4833.7823   -2735.5583   -12622.063    83.706338 
   36200    1378.2883   -115.16756    1.2471042   -113.92045    28167.887    4.3569468    4.3569468    4.3569468    28167.887    -1922.539    18980.886    67445.315    7600.4805    -12067.76    11746.449     82.70786 
   36300    1194.0406   -115.00863     1.080393   -113.92824    20958.487    4.3573977    4.3573977    4.3573977    20958.487     48443.79   -1570.1819    16001.854   -9472.7226    3840.2092   -23080.755    82.733538 
   36400    1014.0694   -114.84702   0.91755134   -113.92947   -13889.884    4.3758554    4.3758554    4.3758554   -13889.884    24583.644   -58149.167   -8104.1284    -3228.466    6263.0251   -17335.603    83.789362 
   36500    1012.8888   -114.84132   0.91648306   -113.92483    4132.5305    4.3630265    4.3630265    4.3630265    4132.5305   -9153.2758   -27654.751    49205.618    15489.457   -11259.618    11502.395    83.054573 
   36600    1536.7093   -115.31319    1.3904469   -113.92275   -2505.0233    4.3537848    4.3537848    4.3537848   -2505.0233    18454.122   -16000.331   -9968.8613    11482.127    1004.7346   -8880.5363    82.527915 
   36700    1435.9242   -115.23046    1.2992544   -113.93121   -12479.074    4.3670216    4.3670216    4.3670216   -12479.074   -3381.6957   -36137.815    2082.2891   -9155.3166     3540.437   -12239.339    83.282933 
   36800    704.11326   -114.57793   0.63709648   -113.94084   -20812.984      4.36736      4.36736      4.36736   -20812.984   -39536.492   -69171.242    46268.783    17454.541   -5493.8436    18901.414    83.302297 
   36900    1252.9353   -115.06884    1.1336822   -113.93516   -7672.0162    4.3653653    4.3653653    4.3653653   -7672.0162    3627.7472   -40786.884    14143.088     18788.96   -281.63759      10232.2    83.188211 
   37000    2153.6672   -115.86828    1.9486834   -113.91959   -2642.7422    4.3690864    4.3690864    4.3690864   -2642.7422   -334.41848   -13950.346    6356.5378   -1830.1932    2545.1288   -7483.1545    83.401125 
   37100     1157.995   -114.98451    1.0477782   -113.93673    3990.2904    4.3611317    4.3611317    4.3611317    3990.2904   -4104.2295   -27234.381    43309.482    21080.036    264.04463    15667.729    82.946412 
   37200    772.86548   -114.64125   0.69930493   -113.94194   -5649.4814    4.3635202    4.3635202    4.3635202   -5649.4814   -3422.3708   -28625.893     15099.82    19891.929   -2992.0876    19394.865    83.082773 
   37300    1488.5244   -115.27838    1.3468482   -113.93153    957.27911    4.3687624    4.3687624    4.3687624    957.27911    989.01827    -1827.811      3710.63   -8673.2045    3568.1402   -19927.193    83.382571 
   37400    1495.7113   -115.27655     1.353351    -113.9232    14283.596    4.3615815    4.3615815    4.3615815    14283.596    1951.0737    18531.961    22367.753    8628.9418    6081.9596   -8352.7927    82.972077 
   37500    983.73549   -114.81645   0.89010454   -113.92635   -1320.7593    4.3669652    4.3669652    4.3669652   -1320.7593   -6283.1968   -12471.876    14792.795     21836.76   -4969.1702    18569.114    83.279706 
   37600     928.1234   -114.76368   0.83978556    -113.9239    7494.8135    4.3662219    4.3662219    4.3662219    7494.8135    2236.4952   -12309.935     32557.88   -6826.9956    226.42518   -20943.004     83.23719 
   37700    1519.4162   -115.29852    1.3747997   -113.92372   -2826.3087    4.3586075    4.3586075    4.3586075   -2826.3087    11799.454    -11463.19   -8815.1909   -5743.6014     944.8724   -27193.612     82.80247 
   37800     1510.517   -115.29503    1.3667475   -113.92828    5411.7752    4.3574268    4.3574268    4.3574268    5411.7752   -13352.981     832.1739    28756.132    8206.4696   -11389.411    6993.3579    82.735197 
   37900    979.12484   -114.82512   0.88593273   -113.93919   -15057.169    4.3679616    4.3679616    4.3679616   -15057.169   -16048.315   -51320.625    22197.432    5318.9899   -1478.9003   -13086.802    83.336727 
   38000    1045.5778   -114.88172   0.94606079   -113.93566   -20933.978    4.3697867    4.3697867    4.3697867   -20933.978   -1707.3114   -59753.434     -1341.19   -11608.813    5566.6543   -24456.285    83.441233 
   38100    1518.4297   -115.29957    1.3739071   -113.92566     2379.346    4.3564871    4.3564871    4.3564871     2379.346   -22825.466    12729.313    17234.191    1507.5901   -21429.297    12833.416     82.68168 
   38200     1460.068   -115.25147    1.3211002   -113.93037   -5845.3996    4.3654745    4.3654745    4.3654745   -5845.3996   -27448.564   -15176.102    25088.467    1294.3011   -9912.3907   -14462.059    83.194451 
   38300    998.40046   -114.83807   0.90337372   -113.93469   -7726.2253    4.3690331    4.3690331    4.3690331   -7726.2253   -11846.416   -50519.201    39186.941   -8369.9831    8069.7573   -14216.406    83.398071 
   38400    1013.8002   -114.84699   0.91730775   -113.92968    1606.0744    4.3581635    4.3581635    4.3581635    1606.0744   -23627.426    159.77138    28285.878   -5928.1709   -22708.744    17797.617    82.777169 
   38500    1337.9246    -115.1408    1.2105823   -113.93021    2630.9651    4.3594015    4.3594015    4.3594015    2630.9651    -42370.64    13364.801    36898.734    2673.0118    -5165.877    5040.4089    82.847731 
   38600    1386.5295   -115.18574    1.2545611   -113.93118    15031.548    4.3599341    4.3599341    4.3599341    15031.548   -17192.564    1647.5691     60639.64   -5424.2316    14023.257   -3866.1186    82.878096 
   38700    1055.0225   -114.89295   0.95460653   -113.93834   -12898.816    4.3667716    4.3667716    4.3667716   -12898.816   -18411.391   -25857.316    5572.2598   -9473.6783   -20787.068    6595.1118    83.268634 
   38800    756.70883   -114.62101   0.68468605   -113.93633   -12582.078    4.3676884    4.3676884    4.3676884   -12582.078   -38198.263    6871.5609   -6419.5333    4381.8036   -8110.2511     14914.45    83.321092 
   38900    1393.2949   -115.18576    1.2606825   -113.92508   -233.34143    4.3592083    4.3592083    4.3592083   -233.34143   -38122.119    17120.548    20301.547   -2666.2594    26429.168   -11396.301    82.836712 
   39000    1494.6598   -115.27221    1.3523996   -113.91981    4653.7718    4.3638601    4.3638601    4.3638601    4653.7718   -19183.319   -3419.5421    36564.176   -13891.396    -827.1714   -2460.0822    83.102186 
   39100     1135.344   -114.95257    1.0272831   -113.92528   -7771.8084    4.3664422    4.3664422    4.3664422   -7771.8084   -28054.992    6510.3024   -1770.7351   -3146.2435   -8130.8785    19284.831    83.249789 
   39200    860.71853   -114.71271   0.77879622   -113.93391   -11878.115    4.3645595    4.3645595    4.3645595   -11878.115   -43730.584    26017.814   -17921.577    -744.2748    25521.234   -13986.454    83.142151 
   39300    1493.4517   -115.28156    1.3513065   -113.93025    2646.3989    4.3641963    4.3641963    4.3641963    2646.3989   -23807.941    8755.9217    22991.216   -8561.3913   -1747.8693   -14575.058    83.121398 
   39400    1722.3113   -115.48189    1.5583834   -113.92351     3810.757    4.3650644    4.3650644    4.3650644     3810.757   -29020.975    14487.907    25965.339    6979.0745    2381.4031    756.05822    83.171009 
   39500     764.2025   -114.62437   0.69146649    -113.9329   -6550.5099    4.3708519    4.3708519    4.3708519   -6550.5099   -58313.101    44151.584   -5490.0119    4124.3522    22650.117    6430.6504    83.502266 
   39600    908.11513   -114.75267   0.82168166   -113.93098   -15712.184    4.3685422    4.3685422    4.3685422   -15712.184   -27545.145   -21855.124    2263.7156    2125.2167   -6398.6231   -34354.449    83.369961 
   39700    1363.7921   -115.15861    1.2339877   -113.92462    15170.206    4.3530715    4.3530715    4.3530715    15170.206    885.81013    12072.417     32552.39    5596.1325    3856.2682   -7661.2703    82.487358 
   39800    1331.8465   -115.13606    1.2050827   -113.93098    2930.3179    4.3575798    4.3575798    4.3575798    2930.3179   -39453.251    55909.575   -7665.3708    1402.7262    20670.033    10288.886    82.743911 
   39900    855.96738   -114.70659   0.77449727   -113.93209   -23054.542    4.3723495    4.3723495    4.3723495   -23054.542   -38415.367   -11025.258       -19723    2512.2346   -10163.181    -37471.91    83.588132 
   40000    924.31331   -114.76676   0.83633811   -113.93043    2072.3783    4.3640105    4.3640105    4.3640105    2072.3783    1622.0828   -17724.492    22319.544    5323.0002   -5753.4062   -2106.8714    83.110781 
   40100    1515.5959   -115.29035     1.371343   -113.91901    15808.177    4.3511959    4.3511959    4.3511959    15808.177   -12008.281    30796.141     28636.67   -5302.3605    7409.0286     23408.74    82.380784 
   40200    1242.6747   -115.05555    1.1243982   -113.93115     2855.824    4.3626186    4.3626186    4.3626186     2855.824   -23263.916   -2979.2694    34810.657    7069.0378   -8131.9597   -31527.157    83.031279 
   40300     728.7477   -114.59783   0.65938624   -113.93845   -24523.693    4.3708098    4.3708098    4.3708098   -24523.693     14502.73   -39604.127   -48469.681    609.59043   -603.95901   -13630.316    83.499858 
   40400    1208.2386   -115.02606    1.0932397   -113.93282    10963.237    4.3503624    4.3503624    4.3503624    10963.237    17850.187    10712.635      4326.89    -10945.54   -293.53998    45183.552    82.333447 
   40500    1783.8767   -115.54463    1.6140891   -113.93054   -3484.8075    4.3623787    4.3623787    4.3623787   -3484.8075   -16519.548     -4447.71    10512.836    7194.6841   -1911.2372   -15826.021    83.017584 
   40600    935.37535    -114.7818   0.84634728   -113.93546   -12830.461    4.3708337    4.3708337    4.3708337   -12830.461    9470.3342    -26314.02   -21647.699   -7511.3907   -4601.7842   -9738.9098    83.501225 
   40700     894.7113   -114.74114   0.80955359   -113.93159    10207.619    4.3560446    4.3560446    4.3560446    10207.619    34317.907   -45495.588    41800.538    8522.4749    5075.4507     39261.21    82.656487 
   40800    1599.8261    -115.3717    1.4475562   -113.92414   -2115.1658    4.3616601    4.3616601    4.3616601   -2115.1658   -15487.583    3927.6161      5214.47   -2943.2684    24725.938    5225.7664    82.976566 
   40900    1557.5318   -115.33593    1.4092875   -113.92664    10661.231    4.3570838    4.3570838    4.3570838    10661.231    17536.745   -24665.598    39112.546   -5201.9031   -3672.5617   -3530.6684    82.715663 
   41000    810.61851   -114.67123   0.73346466   -113.93776   -15627.682    4.3734277    4.3734277    4.3734277   -15627.682     13513.99   -44448.676    -15948.36   -3094.1437    974.58574    39431.169    83.649985 
   41100    1326.9566   -115.12893    1.2006583   -113.92827   -19356.191    4.3651327    4.3651327    4.3651327   -19356.191   -30664.372   -12854.847   -14549.354    3531.7776     32080.51    5920.8912    83.174914 
   41200    1530.2007   -115.29953    1.3845578   -113.91497    30667.333    4.3472047    4.3472047    4.3472047    30667.333    13518.161    7713.6128    70770.226    1614.7612   -1734.6322   -2109.4067    82.154297 
   41300    1115.5999   -114.94138    1.0094182   -113.93196   -23450.209    4.3680983    4.3680983    4.3680983   -23450.209    19576.474   -61931.412   -27995.688   -3766.2376   -6513.2184    45897.676    83.344552 
   41400    1012.0356   -114.84625   0.91571105   -113.93054   -5181.1793    4.3605939    4.3605939    4.3605939   -5181.1793    1417.3215   -7756.1142   -9204.7453   -684.44228    25200.256    1344.4409    82.915728 
   41500    1370.2209   -115.16512    1.2398046   -113.92532   -771.58074    4.3599588    4.3599588    4.3599588   -771.58074   -15100.644   -5768.7761    18554.678   -8729.6461    -311.5893   -4910.1519    82.879506 
   41600    1125.9971    -114.9456    1.0188259   -113.92678   -9323.6322    4.3650048    4.3650048    4.3650048   -9323.6322   -12904.506   -23230.806    8164.4151    3829.4006   -21012.515    33083.197      83.1676 
   41700    998.98596   -114.83183   0.90390349   -113.92793    19510.053    4.3539188    4.3539188    4.3539188    19510.053    26568.696   -13239.042    45200.504   -565.85672    13672.722    -6870.374    82.535538 
   41800     1071.699   -114.90082   0.96969575   -113.93113   -13925.648    4.3690307    4.3690307    4.3690307   -13925.648   -16847.086   -11264.384   -13665.474     79.01785    -5640.892   -10401.822    83.397934 
   41900    1279.8897    -115.0834    1.1580711   -113.92533   -18535.151    4.3629903    4.3629903    4.3629903   -18535.151   -47588.025   -3218.9644   -4798.4625    6798.8969   -31408.357    8913.2339    83.052504 
   42000    1371.1204   -115.16385    1.2406185   -113.92324    21302.081    4.3488281    4.3488281    4.3488281    21302.081    9182.8201    8580.4871    46142.937   -8443.5804    7491.1102   -10696.676    82.246369 
   42100    939.97515   -114.78701   0.85050927    -113.9365    2539.2564    4.3636817    4.3636817    4.3636817    2539.2564   -4777.2664   -17432.897    29827.933    5129.6327   -10118.965   -20043.283    83.091996 
   42200    926.06932   -114.76875   0.83792698   -113.93082   -6882.5775     4.374627     4.374627     4.374627   -6882.5775   -46549.719   -3501.0004    29402.987    15485.407   -31606.552    940.09717    83.718819 
   42300    1619.1753   -115.37969    1.4650638   -113.91463     15315.03    4.3579944    4.3579944    4.3579944     15315.03    7717.5793    18949.759    19277.753   -8415.9387    8080.4068   -3598.8057    82.767534 
   42400    1193.4318   -115.00221    1.0798422   -113.92237    14228.701    4.3525744    4.3525744    4.3525744    14228.701    24926.847    428.38795    17330.867   -8923.1176   -11072.338    -13622.45    82.459102 
   42500     976.8054   -114.81395   0.88383405   -113.93011   -31213.174    4.3696751    4.3696751    4.3696751   -31213.174   -44716.169   -258.07338    -48665.28    13873.213   -31839.656   -6195.8086    83.434843 
   42600     1596.753   -115.36222    1.4447757   -113.91744    3615.0606    4.3610069    4.3610069    4.3610069    3615.0606   -5771.2606     23370.82   -6754.3771    709.52163    14897.489      16740.6    82.939292 
   42700    1277.2532    -115.0773    1.1556855   -113.92161    4410.6989    4.3661729    4.3661729    4.3661729    4410.6989    6441.9146   -398.20153    7188.3837   -17393.992   -541.98962   -5242.6776    83.234386 
   42800    1248.2683   -115.04967    1.1294594   -113.92021   -13003.004    4.3681599    4.3681599    4.3681599   -13003.004   -33457.104   -4792.7757   -759.13089    9629.4675   -31878.103   -10111.835    83.348076 
   42900     1058.394   -114.87996   0.95765709    -113.9223    24598.913    4.3522493    4.3522493    4.3522493    24598.913    1327.7489    13419.697    59049.293    3.5873597    5315.6632    18822.453    82.440628 
   43000    1053.0621   -114.88887   0.95283267   -113.93603    1429.8213    4.3601268    4.3601268    4.3601268    1429.8213   -11044.533   -19208.261    34542.258   -25883.854    28163.841    8005.8733     82.88909 
   43100     1423.914   -115.21815    1.2883873   -113.92976   -11630.741    4.3650009    4.3650009    4.3650009   -11630.741   -35772.545   -5569.3489    6449.6719    3595.3286   -24910.496   -7884.5089    83.167379 
   43200    1009.2665   -114.84376   0.91320556   -113.93055   -15736.336    4.3696215    4.3696215    4.3696215   -15736.336   -22260.182    1963.3858   -26912.211    4098.7311   -12730.682     3053.672    83.431768 
   43300     829.1957   -114.67423   0.75027369   -113.92396   -14880.034    4.3689667    4.3689667    4.3689667   -14880.034   -27087.512   -374.27282   -17178.316   -27200.043    28322.486    16363.467    83.394266 
   43400    1486.8753   -115.26174     1.345356   -113.91639    813.18559    4.3606632    4.3606632    4.3606632    813.18559   -26762.394    7834.5508      21367.4   -2468.5751   -5936.3119   -8130.4539    82.919682 
   43500    1462.2298   -115.24544    1.3230563   -113.92239    14607.837      4.35089      4.35089      4.35089    14607.837    10127.834    21166.539    12529.137   -792.88191   -12192.573    -17581.46    82.363408 
   43600    420.75686    -114.3319   0.38070965   -113.95119    15199.064    4.3588522    4.3588522    4.3588522    15199.064   -20658.255    14578.435    51677.013   -20198.053    17507.144    14919.162    82.816415 
   43700    1129.9564   -114.96595    1.0224083   -113.94354   -21437.831    4.3762634    4.3762634    4.3762634   -21437.831   -47371.276   -21102.104    4159.8862   -6139.6711    27477.489    5324.7301    83.812802 
   43800    1924.8628   -115.66381    1.7416563   -113.92215    31203.224    4.3507105    4.3507105    4.3507105    31203.224    32396.133    19827.337    41386.204    2010.0654   -12378.455    -11589.21    82.353216 
   43900     1093.541   -114.93261    0.9894589   -113.94315   -12401.744    4.3576657    4.3576657    4.3576657   -12401.744   -20935.167    1535.9493   -17806.015   -20680.634    21963.799    11283.498    82.748807 
   44000    659.63207   -114.53852   0.59684896   -113.94167   -33197.893    4.3692604    4.3692604    4.3692604   -33197.893   -47088.132   -4443.9759   -48061.571   -22375.781    19963.063    16972.611    83.411091 
   44100    1610.1941     -115.377    1.4569375   -113.92006    9937.1718    4.3568153    4.3568153    4.3568153    9937.1718    10785.849    2424.8831    16600.783    24682.784   -15692.109   -8236.6313    82.700368 
   44200    1257.4649   -115.05934    1.1377807   -113.92156    -26179.46    4.3720163    4.3720163    4.3720163    -26179.46   -47089.179   -26094.422   -5354.7791   -9914.2676    15175.676    6782.3738    83.569022 
   44300    936.48251   -114.78121   0.84734906   -113.93386    638.66548    4.3486028    4.3486028    4.3486028    638.66548   -11155.039    1782.0254     11289.01   -26915.616    30752.379    13439.827    82.233583 
   44400    1014.6125   -114.85748   0.91804272   -113.93944    27566.317     4.346645     4.346645     4.346645    27566.317    23807.627     18697.97    40193.353    19980.832    792.91164   -108.38735    82.122566 
   44500    1328.2495    -115.1362    1.2018281   -113.93437   -18239.853    4.3727426    4.3727426    4.3727426   -18239.853    -25796.65   -10356.053   -18566.856    15354.036   -18774.512   -11932.709    83.610677 
   44600    795.75409   -114.65148   0.72001502   -113.93146    34090.153    4.3555067    4.3555067    4.3555067    34090.153    43830.247    29087.253     29352.96    -19450.71    30639.331    7416.8304    82.625871 
   44700    1264.0709   -115.07048    1.1437579   -113.92672    3387.6782    4.3633815    4.3633815    4.3633815    3387.6782    1022.9254    13792.349   -4652.2398   -1743.8316     18750.38    6103.6303    83.074847 
   44800     1655.732    -115.4143    1.4981411   -113.91616    6719.9829      4.36401      4.36401      4.36401    6719.9829    31795.024   -4109.2569   -7525.8185    17802.916   -24460.623   -5734.7691     83.11075 
   44900    873.70934   -114.72169   0.79055057   -113.93114    4890.3676    4.3518599    4.3518599    4.3518599    4890.3676   -10734.938    27900.459   -2494.4177   -12415.865    13890.251    4134.7074    82.418501 
   45000    741.59007   -114.61904   0.67100628   -113.94804   -28103.109    4.3653596    4.3653596    4.3653596   -28103.109   -36982.038   -16694.382   -30632.906   -23095.287    34346.457     9715.886    83.187882 
   45100    1984.1821   -115.72845    1.7953297   -113.93312    3970.0168     4.358752     4.358752     4.358752    3970.0168    38972.671   -16990.349   -10072.272    5792.2778   -10097.352    9361.7924    82.810703 
   45200    1639.4355   -115.42442    1.4833957   -113.94102    12687.784    4.3501291    4.3501291    4.3501291    12687.784    10448.612    27430.683     184.0573    1723.9086    16478.166   -661.45742    82.320204 
   45300      625.666   -114.52274   0.56611575   -113.95662    3437.1688    4.3568016    4.3568016    4.3568016    3437.1688    46209.654   -10755.698   -25142.449    -23764.86    31795.078    13906.641    82.699588 
   45400    1073.4951   -114.92179   0.97132096   -113.95047   -20552.531    4.3706673    4.3706673    4.3706673   -20552.531   -84.860116   -37097.565   -24475.169   -11889.842   -2583.4398     8030.837    83.491689 
   45500    1571.3502     -115.352    1.4217907   -113.93021    400.18575    4.3576096    4.3576096    4.3576096    400.18575    7679.2441    1848.9814   -8327.6683    25624.406   -10672.743   -8711.9969    82.745607 
   45600    1203.9689   -115.01841    1.0893764   -113.92903   -17155.724    4.3561764    4.3561764    4.3561764   -17155.724    -13793.71   -14507.138   -23166.324   -28368.379    29984.133    14600.614    82.663991 
   45700    647.89773    -114.5249   0.58623149   -113.93867   -35364.517    4.3634526    4.3634526    4.3634526   -35364.517   -37635.287   -29150.189   -39308.075   -16358.754    1069.3127     16426.84    83.078911 
   45800    1100.6578   -114.93526   0.99589826   -113.93936    9150.4865    4.3489833    4.3489833    4.3489833    9150.4865    21467.533    15239.047   -9255.1208    22056.516    -21492.93   -8873.9758    82.255174 
   45900    1444.3372   -115.25129    1.3068667   -113.94442    422.36106    4.3602014    4.3602014    4.3602014    422.36106     8079.997    11898.401   -18711.314    1194.1102    -6422.382    3984.5742    82.893344 
   46000    1333.3334   -115.14929    1.2064281   -113.94286    16059.237    4.3573876    4.3573876    4.3573876    16059.237    39139.393    18112.795   -9074.4757   -13599.214    11864.652    19354.071    82.732965 
   46100    716.87065   -114.59758   0.64863963   -113.94894    2763.9376    4.3598501    4.3598501    4.3598501    2763.9376    3367.1732    37311.429    -32386.79    6987.9135   -22039.694   -4654.7402    82.873305 
   46200     897.1992   -114.75811   0.81180469   -113.94631   -27258.997    4.3650838    4.3650838    4.3650838   -27258.997   -40100.007    3432.1721   -45109.157    26765.712   -20130.285   -8959.9502    83.172116 
   46300    1842.9524   -115.59852     1.667542   -113.93098    21446.363    4.3458233    4.3458233    4.3458233    21446.363    35013.405    26986.052    2339.6331    1918.9091    13170.692    10392.351    82.075999 
   46400    1512.1955   -115.31604    1.3682662   -113.94778   -11563.601     4.361407     4.361407     4.361407   -11563.601     5264.156   -12024.986   -27929.974   -7669.7204   -19153.907   -75.774274     82.96212 
   46500    562.77452   -114.46851   0.50921021    -113.9593   -2880.7508    4.3598641    4.3598641    4.3598641   -2880.7508    14803.322    795.84809   -24241.422    23529.055   -20663.885   -18741.521    82.874109 
   46600    1172.9051   -115.01196    1.0612692   -113.95069    14599.024    4.3563444    4.3563444    4.3563444    14599.024    39836.365   -6718.5456    10679.252    1955.6149    12469.641    -1276.436    82.673556 
   46700    1724.6548   -115.49497    1.5605039   -113.93447    1095.6697    4.3610232    4.3610232    4.3610232    1095.6697    10364.503   -21069.458    13991.964   -24481.766    955.69263    6390.8866    82.940222 
   46800    1372.3407   -115.17651    1.2417227   -113.93479    8218.7289    4.3534328    4.3534328    4.3534328    8218.7289    20624.165    7382.2372   -3350.2154    13953.542   -18926.563   -22274.632    82.507899 
   46900    977.23973   -114.82476   0.88422704   -113.94053   -18852.466    4.3652902    4.3652902    4.3652902   -18852.466   -43130.463   -8493.6673    -4933.268    8217.9508    3286.5638   -1645.8694    83.183918 
   47000    1149.0736   -114.97942    1.0397059   -113.93971   -7679.4756    4.3515002    4.3515002    4.3515002   -7679.4756   -25107.352   -25690.639    27759.564   -32329.167    11775.657    16065.141    82.398067 
   47100    1383.8179   -115.18957    1.2521075   -113.93746    21389.229     4.355257     4.355257     4.355257    21389.229    53402.675    5888.6242    4876.3882   -15058.396    8681.9681   -13888.651    82.611662 
   47200    1636.0305   -115.41143    1.4803148   -113.93112   -10213.168    4.3682681    4.3682681    4.3682681   -10213.168    18290.342   -24136.277   -24793.569    7339.0499   -7618.3332    -16297.16    83.354271 
   47300    795.49716   -114.66365   0.71978254   -113.94387    14331.745    4.3440115    4.3440115    4.3440115    14331.745    46617.847   -10825.338    7202.7252   -29974.972    9276.6936    8330.9809    81.973392 
   47400    541.58494   -114.45096   0.49003743   -113.96093   -21026.464    4.3526161    4.3526161    4.3526161   -21026.464   -33698.147   -13450.265   -15930.981   -17748.388    6473.9783   -8874.8798    82.461472 
   47500    1382.1057   -115.20126    1.2505583    -113.9507   -11039.156    4.3597668    4.3597668    4.3597668   -11039.156    13689.045   -16355.306   -30451.206    17600.322   -9674.5226   -21270.818    82.868559 
   47600    1613.0503   -115.40238    1.4595218   -113.94286    7195.6821     4.360533     4.360533     4.360533    7195.6821     29086.97   -12838.488    5338.5644   -3001.8675    2096.7488    2682.3003    82.912257 
   47700    1167.5752   -115.00241    1.0564465   -113.94596   -1578.0771     4.359883     4.359883     4.359883   -1578.0771   -1159.3607   -4545.1289    970.25826   -26045.684    8570.6629   -2588.5924    82.875183 
   47800    627.19285   -114.51315   0.56749727   -113.94565     18969.11    4.3542162    4.3542162    4.3542162     18969.11    71938.974   -25901.344      10869.7    18927.883   -2236.8845   -21634.283    82.552451 
   47900    1446.7225   -115.24677    1.3090249   -113.93775    1341.3944     4.361928     4.361928     4.361928    1341.3944    3201.2549   -18492.435    19315.363    31146.279   -8394.1073   -359.69402    82.991855 
   48000    1825.6134   -115.57917    1.6518534   -113.92732    21480.598    4.3541456    4.3541456    4.3541456    21480.598    43374.927     302.9419    20763.924   -21099.452    8738.9492    970.40942    82.548436 
   48100     928.9113    -114.7865   0.84049847     -113.946   -27182.418    4.3625358    4.3625358    4.3625358   -27182.418   -16574.605   -40797.489    -24175.16    19652.269    11802.455    -17253.44    83.026554 
   48200    434.05542   -114.35122   0.39274247   -113.95848   -10912.892    4.3502183    4.3502183    4.3502183   -10912.892   -16440.758   -27840.841    11542.922     37200.29   -6349.5469    1312.9628    82.325269 
   48300    1378.0329   -115.19643    1.2468731   -113.94955     26086.99    4.3442626    4.3442626    4.3442626     26086.99    55338.685   -1508.4333    24430.717    -14651.59    -14155.15    5823.4969    81.987605 
   48400    1646.1544   -115.43058    1.4894751    -113.9411   -16732.282    4.3693237    4.3693237    4.3693237   -16732.282   -9997.7762   -25393.102   -14805.969    3394.9834    5601.0869   -7629.3272    83.414712 
   48500    861.90518   -114.72364   0.77986992   -113.94377    29792.236    4.3515532    4.3515532    4.3515532    29792.236    83451.254   -8823.6356    14749.089     37705.44    3173.0129   -5256.7539     82.40108 
   48600    891.18691    -114.7511   0.80636465   -113.94473   -12869.476    4.3530252    4.3530252    4.3530252   -12869.476   -32875.705   -22719.232     16986.51   -17193.743   -17749.107    4425.5084    82.484729 
   48700    1073.1054   -114.91403   0.97096828   -113.94306   -5644.1139    4.3560581    4.3560581    4.3560581   -5644.1139   -24441.307    9224.9285   -1715.9632   -28494.958   -5852.0011   -207.77954    82.657257 
   48800    1621.3178    -115.4047    1.4670025    -113.9377    11920.932    4.3565427    4.3565427    4.3565427    11920.932     47096.09    4688.7646   -16022.058    15103.698    11274.583   -11561.824    82.684848 
   48900    1375.7837   -115.18936     1.244838   -113.94453   -12490.683    4.3638967    4.3638967    4.3638967   -12490.683   -3328.3953   -24542.738   -9600.9172   -6345.5815   -9172.9107   -10258.867    83.104276 
   49000    785.20292    -114.6566    0.7104681   -113.94614    26948.805    4.3426376    4.3426376    4.3426376    26948.805    48936.365    26290.339    5619.7109   -31585.888   -8446.5817     4940.411     81.89564 
   49100    1149.1862   -114.99314    1.0398078   -113.95334    -19725.92    4.3580081    4.3580081    4.3580081    -19725.92   -3575.6853   -1754.4552   -53847.619   -163.33571    25126.436   -7950.5923    82.768314 
   49200    1312.6914    -115.1337    1.1877508   -113.94594    -2973.672    4.3576003    4.3576003    4.3576003    -2973.672    46350.609   -19609.364   -35662.261    11054.947    2982.8279   -21938.292    82.745081 
   49300    1502.7884   -115.30301    1.3597545   -113.94325    3819.5198    4.3511288    4.3511288    4.3511288    3819.5198    18872.275    -4070.451   -3343.2646   -35956.145   -1334.3838    3670.8725    82.376974 
   49400    1043.4497   -114.89591   0.94413518   -113.95178   -25756.498    4.3595284    4.3595284    4.3595284   -25756.498    -39698.75    17717.372   -55288.118   -11949.474    27115.071    -2384.111    82.854964 
   49500    912.33481   -114.77472   0.82549971   -113.94922    13638.423    4.3481912    4.3481912    4.3481912    13638.423    64629.386    24102.007   -47816.125    16270.727     10312.53    -21744.85    82.210236 
   49600    1313.2094   -115.13367    1.1882195   -113.94545   -3258.0144    4.3638631    4.3638631    4.3638631   -3258.0144    27273.868   -2997.6716   -34050.239   -3064.7931   -6939.9229    2242.9054    83.102361 
   49700    1258.3142   -115.08376    1.1385491   -113.94521    12602.446    4.3545499    4.3545499    4.3545499    12602.446    34880.286    16084.025   -13156.975   -17280.853    13271.097    12453.352     82.57143 
   49800    1511.0698     -115.306    1.3672477   -113.93875    16674.161    4.3436406    4.3436406    4.3436406    16674.161    21193.678     41414.23   -12585.425   -5141.9475    20937.492   -6189.8865    81.952395 
   49900     1115.423   -114.95562    1.0092582   -113.94636   -23108.062      4.36575      4.36575      4.36575   -23108.062   -13598.898   -6296.1746   -49429.112    19702.881   -16527.031    1256.6049    83.210204 
   50000     867.3367   -114.73285   0.78478448   -113.94807   -2977.0807    4.3534569    4.3534569    4.3534569   -2977.0807    8248.5187      4437.85   -21617.611     2155.559   -8103.5446    18940.415    82.509268 
   50100     1209.194   -115.04271    1.0941042   -113.94861    3340.7607    4.3511688    4.3511688    4.3511688    3340.7607   -11522.682    30992.369   -9447.4047   -14685.863    27554.338    1167.5997     82.37924 
   50200    1691.1022   -115.47202    1.5301448   -113.94187   -7030.8053    4.3560781    4.3560781    4.3560781   -7030.8053   -23641.767    25181.388   -22632.037   -4961.9362    4341.2491    -3247.964    82.658398 
   50300    1444.9022   -115.25358    1.3073779    -113.9462    7620.9589    4.3536894    4.3536894    4.3536894    7620.9589    14487.423    13442.452   -5066.9976    14263.311   -14627.277    17800.866    82.522488 
   50400    787.66739   -114.66569   0.71269801   -113.95299   -18024.821    4.3665337    4.3665337    4.3665337   -18024.821   -29059.941   -21251.244   -3763.2776   -4406.0881    13433.137    -271.7522    83.255025 
   50500    1198.9858   -115.03393    1.0848676   -113.94906   -1784.2411    4.3508698    4.3508698    4.3508698   -1784.2411   -18897.129    11565.147    1979.2591    -26390.17    19296.513   -11806.509    82.362262 
   50600    1795.9417   -115.56337    1.6250058   -113.93836    30800.854    4.3485179    4.3485179    4.3485179    30800.854    44410.471    31289.865    16702.226    -1866.567   -2961.4476    1514.8097    82.228768 
   50700    1567.0614   -115.36324    1.4179101   -113.94533   -6593.2801    4.3651866    4.3651866    4.3651866   -6593.2801   -32323.334    15360.194   -2816.7003    23878.659   -6064.5107    3916.2812    83.177991 
   50800    512.87641   -114.42127   0.46406136   -113.95721    3124.9972    4.3562373    4.3562373    4.3562373    3124.9972    9427.0766    3176.2558    -3228.341   -19057.325    15895.995   -12251.526    82.667459 
   50900    1161.8734   -115.00673    1.0512874   -113.95544   -6546.8576    4.3537959    4.3537959    4.3537959   -6546.8576   -15096.668   -1578.1698   -2965.7354   -19296.148    10960.132   -19367.086    82.528545 
   51000     1993.078   -115.74805    1.8033789   -113.94467    19773.359    4.3489526    4.3489526    4.3489526    19773.359    18407.593    41777.019   -864.53487    7958.1002   -9348.8125     9392.961    82.253432 
   51100    1506.2738   -115.32203    1.3629082   -113.95912    8690.6728    4.3554568    4.3554568    4.3554568    8690.6728    -6185.267    25928.595    6328.6904    -5605.318     6935.789   -4160.2343    82.623032 
   51200    588.33174   -114.49886   0.53233492   -113.96653   -16564.363    4.3640034    4.3640034    4.3640034   -16564.363   -38446.421   -3454.8397   -7791.8294   -21952.795     13184.09   -23194.706    83.110376 
   51300    1088.2166   -114.93716   0.98464128   -113.95252     7351.936    4.3544669    4.3544669    4.3544669     7351.936    3338.6072    35762.008   -17044.807   -2613.5576   -610.96313    3270.6938    82.566711 
   51400    1779.8366   -115.54956    1.6104335   -113.93913    9096.4781    4.3512831    4.3512831    4.3512831    9096.4781   -11464.028    32190.175    6563.2869    19000.655    1174.1468    12064.319    82.385735 
   51500    1323.7343   -115.14237    1.1977426   -113.94463   -13072.713    4.3596556    4.3596556    4.3596556   -13072.713   -39058.215    28400.281   -28560.205   -14702.637    21285.983   -8986.7107    82.862215 
   51600    829.59017   -114.69748   0.75063062   -113.94685   -14236.058    4.3592538    4.3592538    4.3592538   -14236.058   -28438.603    8836.4385   -23106.011   -16883.669    5563.8076   -9431.6662     82.83931 
   51700    980.87139   -114.83467   0.88751305   -113.94716   -17551.547    4.3508727    4.3508727    4.3508727   -17551.547   -26568.674   -23380.727   -2705.2407    37000.348   -7810.9228    15922.863    82.362424 
   51800    1215.0748   -115.04964    1.0994252   -113.95022   -2748.6983     4.356244     4.356244     4.356244   -2748.6983   -36628.369      50853.4   -22471.126    9720.2965    24045.633    3654.8359    82.667839 
   51900     1779.152   -115.54927    1.6098141   -113.93946   -2310.0429    4.3573276    4.3573276    4.3573276   -2310.0429   -20567.708    37540.015   -23902.435    -16806.77    7833.9631    81.228694    82.729548 
   52000    897.31523   -114.76555   0.81190968   -113.95364    779.59249    4.3502321    4.3502321    4.3502321    779.59249   -22602.931    24494.271    447.43709    34493.342   -10977.683    6968.5884    82.326053 
   52100    482.21702   -114.39903   0.43632009   -113.96271   -24908.959    4.3585019    4.3585019    4.3585019   -24908.959    -23827.07    -23072.02   -27827.788    14476.588    14807.302    13830.999    82.796449 
   52200    1292.2546   -115.12071    1.1692591   -113.95145   -1782.9382    4.3542941    4.3542941    4.3542941   -1782.9382    21972.267    11907.715   -39228.796   -13431.146    7907.5654   -6940.6946    82.556883 
   52300    1699.4343   -115.48008    1.5376839   -113.94239    13473.191    4.3522524    4.3522524    4.3522524    13473.191    6284.6737    38891.152   -4756.2536     15096.58   -1307.0387   -7985.1572    82.440804 
   52400    1435.9305   -115.24791    1.2992601   -113.94865   -3939.6717    4.3561201    4.3561201    4.3561201   -3939.6717    987.12052    1609.4798   -14415.615    16071.136   -623.73259    16446.232    82.660788 
   52500    531.44608   -114.44177   0.48086358   -113.96091   -1002.1755    4.3554604    4.3554604    4.3554604   -1002.1755    33417.296    6642.3005   -43066.123   -10480.139     14342.24   -2305.1063    82.623238 
   52600    1196.4139   -115.03866    1.0825405   -113.95612   -18341.389    4.3604186    4.3604186    4.3604186   -18341.389   -3501.4092   -5677.5127   -45845.246   -18637.214    8858.4593   -24805.071    82.905733 
   52700    1949.6334   -115.70406    1.7640692   -113.93999    10297.684    4.3508244    4.3508244    4.3508244    10297.684    3097.9534    41693.616   -13898.518    7012.1245   -14451.299    1445.1462    82.359681 
   52800    1332.3851   -115.15749      1.20557   -113.95192   -8573.1206    4.3534653    4.3534653    4.3534653   -8573.1206   -6852.1997    17850.254   -36717.416     -3116.94    5620.2533   -3798.8279    82.509746 
   52900    587.27671   -114.49058   0.53138031    -113.9592   -26669.026    4.3579736    4.3579736    4.3579736   -26669.026   -7464.4237   -30671.017   -41871.638   -16053.347    11673.789   -26809.379    82.766349 
   53000    841.00642    -114.7178   0.76096029   -113.95684   -7065.4648    4.3514704    4.3514704    4.3514704   -7065.4648   -25603.569     24956.91   -20549.735   -2369.8165   -22147.534    5882.0986    82.396372 
   53100    1389.8838   -115.20591     1.257596   -113.94832   -3661.7123    4.3572304    4.3572304    4.3572304   -3661.7123   -16690.555    24228.331   -18522.913    13947.521   -11449.613    6732.5277    82.724011 
   53200    1565.5442   -115.35854    1.4165373     -113.942    -1340.431    4.3543594    4.3543594    4.3543594    -1340.431   -10767.739    25005.842   -18259.396   -2311.2086    17041.898   -17211.884    82.560593 
   53300    759.25433   -114.63898   0.68698927   -113.95199    -10350.78    4.3573753    4.3573753    4.3573753    -10350.78   -17676.629    3418.2805    -16793.99   -9040.3645   -9051.5347    1411.0906    82.732263 
   53400    619.97505   -114.51891   0.56096646   -113.95795   -22002.414    4.3599721    4.3599721    4.3599721   -22002.414   -26147.979    -23185.26   -16674.003    24228.224   -26725.796    17109.367    82.880264 
   53500    1561.9959   -115.36257    1.4133267   -113.94925    16650.998    4.3466958    4.3466958    4.3466958    16650.998   -1943.1433    33291.433    18604.703    5903.0159    10503.249    177.86833    82.125449 
   53600    1825.8824   -115.59878    1.6520968   -113.94669    6361.6597    4.3550797    4.3550797    4.3550797    6361.6597   -2829.3927    30286.514   -8372.1422   -5753.3845    7123.1768   -3380.6281    82.601576 
   53700    856.38783   -114.72972    0.7748777   -113.95484    3277.5183    4.3616138    4.3616138    4.3616138    3277.5183   -346.42936    22052.871   -11873.887    17027.709   -20970.864    15407.973     82.97392 
   53800    893.19734   -114.75413   0.80818372   -113.94595    1067.2754    4.3588301    4.3588301    4.3588301    1067.2754    3064.0068   -12090.524    12228.343    5262.5912   -4709.6114   -1310.2157    82.815153 
   53900    1423.0033   -115.22274    1.2875633   -113.93518   -4584.5378    4.3559876    4.3559876    4.3559876   -4584.5378   -10883.232    -1549.638   -1320.7438   -11713.566    4343.9947   -10042.074    82.653242 
   54000    1504.2699   -115.29639     1.361095   -113.93529    4653.0246    4.3492511    4.3492511    4.3492511    4653.0246   -14168.938    32504.346   -4376.3338   -5641.4999   -16596.249    4162.7943    82.270367 
   54100    1277.1762   -115.09863    1.1556159   -113.94301    1155.2154    4.3566648    4.3566648    4.3566648    1155.2154   -9753.9063   -4625.4372     17844.99    21428.169   -7451.9854    6766.2529    82.691797 
   54200    923.27195    -114.7832   0.83539587   -113.94781   -15637.798    4.3619599    4.3619599    4.3619599   -15637.798   -17427.889   -26337.078   -3148.4279   -1681.6641    15198.911   -8411.3502    82.993678 
   54300    934.82789   -114.79356   0.84585192   -113.94771    6192.3453    4.3540611    4.3540611    4.3540611    6192.3453   -21943.723    30522.522     9998.236   -27219.753   -10197.549   -10546.464    82.543629 
   54400    1805.4077   -115.57134    1.6335708   -113.93777    13821.668    4.3484936    4.3484936    4.3484936    13821.668    -11264.81    37902.677    14827.135    10531.354    -14115.94    14591.106    82.227391 
   54500    1483.5209   -115.28795    1.3423209   -113.94563   -2072.6992    4.3595476    4.3595476    4.3595476   -2072.6992   -31711.968    16433.948    9059.9225    3173.1363    2103.8296   -13076.863    82.856062 
   54600    647.21353   -114.53898    0.5856124   -113.95337   -27613.156    4.3668238    4.3668238    4.3668238   -27613.156   -52211.362    -26877.22   -3750.8859   -27615.505   -938.08779   -6661.1444    83.271619 
   54700    907.21429    -114.7707   0.82086655   -113.94984   -357.25617    4.3456365    4.3456365    4.3456365   -357.25617    8020.1925    2183.0765   -11275.038   -6273.7863   -8372.4087    32769.355    82.065418 
   54800    1561.4202   -115.36123    1.4128058   -113.94843    14374.013    4.3461096    4.3461096    4.3461096    14374.013    11420.973    38835.566   -7134.4995    4.0499962   -1761.5424    10187.097    82.092225 
   54900    1442.1893   -115.25076    1.3049232   -113.94583   -324.43659    4.3659459    4.3659459    4.3659459   -324.43659   -35393.093    32074.797    2344.9869   -18327.755   -1032.7411   -13975.783    83.221406 
   55000    678.60867   -114.56306   0.61401939   -113.94904   -5628.4334    4.3627816    4.3627816    4.3627816   -5628.4334    7024.9751    17927.282   -41837.558   -8073.0006   -13954.066    20299.461     83.04059 
   55100    752.22015   -114.62265    0.6806246   -113.94203    -1386.022    4.3591631    4.3591631    4.3591631    -1386.022    37738.204   -13830.378   -28065.892    6659.5378   -2619.1656    12879.101    82.834136 
   55200    1693.2819   -115.45364    1.5321171   -113.92152    5357.3707    4.3551921    4.3551921    4.3551921    5357.3707   -2593.9414    18733.055   -67.001467   -17812.065    6390.7843   -17537.699    82.607971 
   55300    1356.9842   -115.15947    1.2278278   -113.93164   -10022.424    4.3584627    4.3584627    4.3584627   -10022.424   -4989.2478    6502.4101   -31580.435   -5715.0409   -8188.9562    28339.966    82.794219 
   55400    615.27008   -114.50275    0.5567093   -113.94605   -9860.7734    4.3581391    4.3581391    4.3581391   -9860.7734    17888.731    -6163.052   -41307.999    6453.3248   -4456.0731    15231.946    82.775775 
   55500    921.82662   -114.78396   0.83408809   -113.94988    4796.9365    4.3542755    4.3542755    4.3542755    4796.9365    25968.555    16748.641   -28326.386    4906.8081    5775.0593    -33977.57    82.555822 
   55600    1764.8767   -115.53712    1.5968975   -113.94022    4919.4549    4.3553493    4.3553493    4.3553493    4919.4549   -10515.193    34297.792    -9024.234    10001.692    12034.808    233.28378    82.616913 
   55700    1610.1935   -115.40102    1.4569369   -113.94408    804.81459    4.3570546    4.3570546    4.3570546    804.81459    15051.643    1202.2363   -13839.436   -5175.0429   -174.50663    4189.9865    82.713999 
   55800    689.72529   -114.58036   0.62407794   -113.95628   -16621.569    4.3569496    4.3569496    4.3569496   -16621.569    26246.748   -34917.267   -41194.189    10223.273    8637.4237   -38284.723    82.708015 
   55900    908.57261   -114.77636   0.82209559   -113.95426    6856.1106    4.3575898    4.3575898    4.3575898    6856.1106   -5326.9073     24148.95    1746.2886    2000.3087    17686.478   -7782.5759    82.744482 
   56000      1901.01   -115.65533    1.7200738   -113.93525   -1074.2822    4.3660305    4.3660305    4.3660305   -1074.2822     -16822.4    15827.547   -2227.9927   -10531.018    -9923.718    8348.2031    83.226246 
   56100    1531.6742   -115.32745     1.385891   -113.94156     10076.86    4.3503107    4.3503107    4.3503107     10076.86     19253.21    7422.8829    3554.4859    12237.258    3126.8349   -27221.471    82.330514 
   56200    598.60425   -114.49843    0.5416297    -113.9568    8880.0282    4.3466011    4.3466011    4.3466011    8880.0282   -8766.2569    42215.848   -6809.5063    1168.4303    22668.813   -12187.675    82.120077 
   56300    967.85242   -114.83056   0.87573321   -113.95483   -26183.508    4.3674354    4.3674354    4.3674354   -26183.508   -22741.175   -14389.445   -41419.904   -5139.5595    2546.5068    24106.998    83.306613 
   56400    1717.6397   -115.49082    1.5541565   -113.93666    4522.8239    4.3583528    4.3583528    4.3583528    4522.8239    917.17511    9941.5375    2709.7592    2051.1919   -8576.8964    14252.212    82.787955 
   56500    1455.4252   -115.25259    1.3168993   -113.93569    5525.9791    4.3570526    4.3570526    4.3570526    5525.9791   -19913.884    43216.063   -6724.2419    6901.5841    23104.922   -8954.7138     82.71388 
   56600     768.6096   -114.63872   0.69545412   -113.94326   -20669.604    4.3617908    4.3617908    4.3617908   -20669.604    -1081.401   -9953.1708   -50974.239   -8960.8909    6874.5881    27413.612    82.984022 
   56700    966.60341   -114.81506   0.87460308   -113.94046    7382.5296    4.3574279    4.3574279    4.3574279    7382.5296    24932.793    36424.171   -39209.376   -6568.8108   -10163.386    19489.252    82.735258 
   56800    1852.7848   -115.60239    1.6764386   -113.92595   -4775.9189    4.3629216    4.3629216    4.3629216   -4775.9189   -8786.6908    27414.301   -32955.367    3978.8074    11131.669   -22892.717    83.048584 
   56900    1355.9103   -115.16133    1.2268562   -113.93447    11015.093    4.3508182    4.3508182    4.3508182    11015.093    14945.725    34074.404   -15974.849   -7375.6978    3625.2212    26318.255    82.359329 
   57000    730.34124    -114.6093    0.6608281   -113.94847   -5758.4056    4.3554767    4.3554767    4.3554767   -5758.4056    16075.294    -3585.309   -29765.202   -3410.4078   -10817.288    20235.896    82.624164 
   57100     1214.543   -115.04329     1.098944   -113.94435   -15246.758    4.3646478    4.3646478    4.3646478   -15246.758   -6762.4602   -1288.2071   -37689.606   -4648.6986   -2913.6147   -42593.677    83.147199 
   57200    1626.0681    -115.4063    1.4713006     -113.935    31923.429    4.3468157    4.3468157    4.3468157    31923.429    16607.852    43254.557    35907.877    715.43089    2638.6513     8781.008    82.132242 
   57300    1417.8943   -115.22898    1.2829405   -113.94603    4698.4528    4.3570321    4.3570321    4.3570321    4698.4528    10291.394    13737.268   -9933.3036    5766.5008    2820.3006    28246.487    82.712716 
   57400    667.88071   -114.55162    0.6043125   -113.94731   -24806.367    4.3709567    4.3709567    4.3709567   -24806.367   -6047.6822   -31428.379   -36943.039    -8592.613   -5030.6293   -37949.139    83.508273 
   57500    1316.7664   -115.13129    1.1914379   -113.93986   -1056.5394    4.3505324    4.3505324    4.3505324   -1056.5394   -8381.2293    1282.3602    3929.2508    9806.7468   -2432.6912   -15196.583    82.343099 
   57600    1960.4315   -115.70457    1.7738396   -113.93073    11562.507    4.3517814    4.3517814    4.3517814    11562.507    6343.3578    20973.618    7370.5454    3248.9264    5170.2024    8846.7844    82.414043 
   57700    1285.4269   -115.10562    1.1630812   -113.94254   -18956.098    4.3677902    4.3677902    4.3677902   -18956.098    2854.8753   -15490.372   -44232.798   -5102.2642   -4267.9018   -40728.909    83.326914 
   57800    696.09761   -114.56893   0.62984375   -113.93908    2311.9443    4.3624523    4.3624523    4.3624523    2311.9443    1950.0431    10054.253   -5068.4634    18283.718   -6415.3635    -14052.57    83.021787 
   57900    1505.1826   -115.28565    1.3619208   -113.92373    905.88433    4.3649221    4.3649221    4.3649221    905.88433   -5775.4729    11812.669   -3319.5427    7556.4978   -1666.7507    19918.694    83.162872 
   58000     1555.867   -115.32909    1.4077812   -113.92131      14629.7    4.3507848    4.3507848    4.3507848      14629.7     18194.16     18915.06    6779.8793   -7677.4341    -390.1179   -7067.6208    82.357435 
   58100    911.66387   -114.76369   0.82489263   -113.93879    10844.751    4.3519921    4.3519921    4.3519921    10844.751    1157.7723    3054.0652    28322.415    11550.638   -413.24867   -28638.253    82.426014 
   58200    846.71123   -114.70288   0.76612211   -113.93676   -11112.829    4.3662989    4.3662989    4.3662989   -11112.829   -16281.258   -39282.774    22225.543    10443.942   -4563.2763    21936.693    83.241593 
   58300    1351.3605   -115.15039    1.2227394   -113.92765    7011.6028     4.354027     4.354027     4.354027    7011.6028    12297.285   -6179.1242    14916.648   -8662.2709    3621.8656    37195.155    82.541687 
   58400     1478.907   -115.26687    1.3381461   -113.92873    5388.8613    4.3547042    4.3547042    4.3547042    5388.8613    6106.1084    9994.1154    66.359999    9476.7152   -177.73807    -25020.31    82.580209 
   58500    787.19414   -114.65311    0.7122698   -113.94084   -2330.7439    4.3581614    4.3581614    4.3581614   -2330.7439    9858.8931    1039.8486   -17890.973    14953.396   -2777.4569    21651.928    82.777048 
   58600    791.08726   -114.66129   0.71579238    -113.9455   -7930.3678    4.3641816    4.3641816    4.3641816   -7930.3678     6293.228     6749.966   -36834.297   -12405.754    3388.8386    46155.832    83.120556 
   58700    1700.6302   -115.46865    1.5387659   -113.92988    6661.7898    4.3584814    4.3584814    4.3584814    6661.7898   -7627.8215    8996.0767    18617.114   -739.37664   -5915.1117   -16115.345    82.795282 
   58800    1131.1497   -114.95936     1.023488   -113.93587    28729.203    4.3474783    4.3474783    4.3474783    28729.203    32297.837    16674.538    37215.234    9084.0577    2302.2413    27895.191     82.16981 
   58900    646.55361   -114.53187   0.58501529   -113.94686   -14115.045    4.3673914    4.3673914    4.3673914   -14115.045    7700.9485   -43557.923   -6488.1616    -5657.791   -4038.0712    49014.687    83.304095 
   59000    1403.2615   -115.19955    1.2697005   -113.92985   -10116.577    4.3622357    4.3622357    4.3622357   -10116.577   -22643.459   -19601.518    11895.246   -8924.3505    -6148.461   -23466.815    83.009418 
   59100    1394.4893   -115.18559    1.2617632   -113.92382    5176.7205     4.349933     4.349933     4.349933    5176.7205    10351.245     15197.19   -10018.273   -5166.5529    -2622.178    12054.853    82.309071 
   59200    1270.9091    -115.0789    1.1499453   -113.92896   -5522.6742    4.3597412    4.3597412    4.3597412   -5522.6742    10608.178   -63.903319   -27112.297     3117.394   -4796.0428    49778.178    82.867099 
   59300    1002.2918   -114.83801   0.90689471   -113.93111    2849.0979    4.3641574    4.3641574    4.3641574    2849.0979   -17666.146   -2076.3382    28289.778   -5959.5164    -571.9103   -29261.541    83.119176 
   59400    1139.3967   -114.96048    1.0309501   -113.92953    2512.1448    4.3605612    4.3605612    4.3605612    2512.1448   -10835.416   -9185.3609    27557.211   -1281.3963   -647.41984   -18854.486    82.913867 
   59500    1646.9582   -115.41045    1.4902024   -113.92024    18599.857    4.3566152    4.3566152    4.3566152    18599.857   -899.85644    10574.243    46125.185    638.74333   -5836.9771    24920.125    82.688977 
   59600    1064.1379   -114.89801   0.96285434   -113.93515    1910.5429    4.3618641    4.3618641    4.3618641    1910.5429   -14523.579   -16598.063    36853.271   -8612.3783   -2717.2698   -11492.478    82.988206 
   59700    603.88387   -114.48752   0.54640682   -113.94111   -19550.845    4.3670593    4.3670593    4.3670593   -19550.845   -26283.954    -41978.11    9609.5296    11410.857   -6170.3844   -33241.971    83.285093 
   59800     1683.681   -115.44912      1.52343   -113.92569    16859.217    4.3542125    4.3542125    4.3542125    16859.217    9218.0053    36070.133     5289.512    10595.039   -5175.2296    7939.0414    82.552237 
   59900    1589.4196   -115.36916    1.4381403   -113.93102    6874.5841    4.3548913    4.3548913    4.3548913    6874.5841   -3197.6404    11665.643    12155.749   -7527.3026    -1365.666    4095.2672    82.590855 
   60000    628.49012   -114.51393   0.56867106   -113.94526   -31466.536    4.3672114    4.3672114    4.3672114   -31466.536   -25384.365   -55944.039   -13071.204    10211.223   -3103.0887   -40265.792    83.293793 
   60100    1097.5517   -114.92951   0.99308785   -113.93642   -2214.7675     4.356019     4.356019     4.356019   -2214.7675   -4304.3738   -8187.7514    5847.8226    12525.572   -367.00384    7158.7067    82.655029 
   60200    1470.5205   -115.25693    1.3305579   -113.92637   -3642.6716    4.3574271    4.3574271    4.3574271   -3642.6716    14622.585   -6196.3995   -19354.201   -5242.2387    2106.3453    35669.087    82.735212 
   60300    1280.5751   -115.08549    1.1586913    -113.9268    -7553.361    4.3622655    4.3622655    4.3622655    -7553.361   -22466.818   -22582.398    22389.133    9326.3995    1755.7127   -28423.912    83.011122 
   60400    975.21255   -114.81482    0.8823928   -113.93242    12157.136    4.3525293    4.3525293    4.3525293    12157.136    3364.6253    5820.9752    27285.806    11701.099    312.19012   -7915.0426    82.456541 
   60500    911.82697   -114.76356    0.8250402   -113.93852    5262.6576    4.3609629    4.3609629    4.3609629    5262.6576    17400.114   -4991.8479    3379.7068    -3660.409   -233.10679    58149.292    82.936782 
   60600    1833.8125   -115.57683    1.6592721   -113.91756   -7696.6673    4.3709359    4.3709359    4.3709359   -7696.6673   -24156.292   -1032.3257    2098.6159    4597.8544    1455.4478   -4237.0306    83.507083 
   60700    1193.6451   -115.00684    1.0800351    -113.9268    18791.517    4.3560133    4.3560133    4.3560133    18791.517     16910.29    30763.971    8700.2897    3987.7403   -993.94529   -1159.7849    82.654705 
   60800    523.20915    -114.4096   0.47341063   -113.93619   -12776.076    4.3593158    4.3593158    4.3593158   -12776.076     36531.65   -35520.098   -39339.781   -197.19609   -920.49676    59591.946     82.84284 
   60900    1616.8124   -115.38504    1.4629259   -113.92211   -3420.7182    4.3657432    4.3657432    4.3657432   -3420.7182   -15769.244    12963.162    -7456.072   -1240.9319   -1144.7657   -11366.507    83.209813 
   61000    1647.2069   -115.41029    1.4904274   -113.91987    1201.2119    4.3602781    4.3602781    4.3602781    1201.2119   -6985.2839    14911.914   -4322.9941     1512.895   -3339.4622     14194.35    82.897717 
   61100    768.32532   -114.63155    0.6951969   -113.93635   -2436.6542    4.3555241    4.3555241    4.3555241   -2436.6542    22908.323   -28942.202   -1276.0838    5625.7369   -1855.8566    45192.774    82.626862 
   61200    915.00896   -114.76615   0.82791934   -113.93823     8972.641    4.3522725    4.3522725    4.3522725     8972.641   -10789.274    18950.152    18757.044   -3245.5969    4570.0167   -17414.524    82.441947 
   61300    1449.6917   -115.24873    1.3117115   -113.93702    582.60435    4.3586807    4.3586807    4.3586807    582.60435   -17208.831   -2050.3025    21006.946    3894.0497    7221.7041    -6852.293    82.806642 
   61400    1532.9895   -115.31998    1.3870811    -113.9329    15178.857    4.3576704    4.3576704    4.3576704    15178.857   -762.15668    37091.819    9206.9077   -2559.3265   -5755.7741    29737.303    82.749073 
   61500    914.83492   -114.77183   0.82776186   -113.94407   -7218.4645    4.3557386    4.3557386    4.3557386   -7218.4645   -20557.332   -4662.7852    3564.7236   -5600.1588    2805.2525    1849.5361    82.639074 
   61600    659.54348   -114.54285    0.5967688   -113.94608   -14431.599    4.3603948    4.3603948    4.3603948   -14431.599   -30420.112   -32615.134    19740.448    8588.9967    8334.6503    -24043.46    82.904373 
   61700    1730.7072   -115.49287    1.5659802   -113.92689    4599.2985    4.3599957    4.3599957    4.3599957    4599.2985   -3020.3802    31771.502   -14953.226    4567.0422   -4857.3969   -1201.4193     82.88161 
   61800    1431.3894   -115.22506    1.2951512   -113.92991   -7892.7779    4.3633482    4.3633482    4.3633482   -7892.7779   -22641.239    10933.446   -11970.541   -5006.2933   -4584.5746    1449.3693    83.072947 
   61900    710.30737   -114.57971   0.64270104   -113.93701    1518.3406    4.3548172    4.3548172    4.3548172    1518.3406    6700.2574     6417.095   -8562.3307    403.99436    8918.4774   -33557.871    82.586638 
   62000    1108.4124   -114.93429    1.0029148   -113.93138    5332.5886    4.3589117    4.3589117    4.3589117    5332.5886    4665.7249    25687.294   -14355.254    9966.5459    2707.8884   -2104.7149    82.819805 
   62100    1401.4068   -115.19016    1.2680223   -113.92214    2664.7408     4.364521     4.364521     4.364521    2664.7408    1625.2479    3074.7887    3294.1858   -812.55835   -11973.252    21484.074    83.139951 
   62200    1358.3759   -115.15421    1.2290871   -113.92512    14543.059    4.3510277    4.3510277    4.3510277    14543.059    14580.315    16219.273     12829.59    -4584.575     12833.04   -29111.407    82.371229 
   62300    887.00532   -114.74032   0.80258105   -113.93774     1830.736    4.3572203    4.3572203    4.3572203     1830.736    20657.501   -31605.178    16439.885    7803.4943    6636.3665   -2295.2274    82.723432 
   62400    1085.3299   -114.91874   0.98202929   -113.93671    -15048.64    4.3642305    4.3642305    4.3642305    -15048.64    7423.6857   -27153.581   -25416.024   -3246.1062   -15543.646    34256.725    83.123353 
   62500    1702.6958   -115.46478    1.5406349   -113.92414    12117.872    4.3580608    4.3580608    4.3580608    12117.872    9795.6771    25991.223    566.71434   -2480.0353    4513.4675   -7815.8167    82.771318 
   62600    1518.2843   -115.30072    1.3737756   -113.92695   -1803.7904    4.3630875    4.3630875    4.3630875   -1803.7904     9621.416    3654.6695   -18687.457     1481.463    3937.6664   -2322.0043    83.058058 
   62700    703.94508   -114.57608    0.6369443   -113.93914    6265.5253    4.3574503    4.3574503    4.3574503    6265.5253    9925.1277    18318.392   -9446.9434   -2134.6511   -15093.134    35528.651    82.736535 
   62800    1168.0967   -114.99702    1.0569185   -113.94011    4588.8824    4.3579186    4.3579186    4.3579186    4588.8824   -8775.2728    28840.431   -6298.5111   -12536.935    1138.9309    223.98603    82.763215 
   62900     1762.302    -115.5238    1.5945679   -113.92923    12124.199     4.357721     4.357721     4.357721    12124.199    13443.535    31085.598   -8156.5371   -7452.5496     8872.311   -12932.272    82.751958 
   63000    1094.5527   -114.92924   0.99037425   -113.93886     7092.427    4.3607632    4.3607632    4.3607632     7092.427    12712.924   -7130.3024    15694.659    6862.9544   -13977.737    22404.422    82.925388 
   63100    781.63843   -114.64156   0.70724287   -113.93432   -25118.861    4.3701579    4.3701579    4.3701579   -25118.861   -23399.834   -36049.414   -15907.336   -5729.5419   -11044.403    2309.4052    83.462501 
   63200    1304.1249    -115.1002    1.1799996    -113.9202    9180.6335    4.3535271    4.3535271    4.3535271    9180.6335    23756.198    13162.906   -9377.2042    484.69163     5868.983   -27135.314    82.513264 
   63300    1365.0644   -115.15823     1.235139    -113.9231     6271.831    4.3558328    4.3558328    4.3558328     6271.831    4038.1042    14127.057    650.33184    10444.602   -8605.7775   -3473.9638     82.64443 
   63400    1018.9254   -114.85528   0.92194513   -113.93333     6470.421    4.3580198    4.3580198    4.3580198     6470.421   -25070.421    44994.741   -513.05743   -931.70377   -15647.804     22258.53    82.768982 
   63500    548.79238    -114.4412   0.49655887   -113.94464    3120.2154    4.3544533    4.3544533    4.3544533    3120.2154    18280.616    3888.2559   -12808.226   -3245.0782    2214.3501   -41288.325    82.565938 
   63600    1327.6041   -115.14181    1.2012441   -113.94057   -8559.6401    4.3626791    4.3626791    4.3626791   -8559.6401    9340.6283   -4879.7626   -30139.786   -3902.6969   -299.88521   -19931.948    83.034736 
   63700    1809.4529    -115.5646     1.637231   -113.92737    7017.4893    4.3594193    4.3594193    4.3594193    7017.4893   -2037.6554    31711.218   -8621.0951    3659.9543    -3611.294    9473.4941    82.848744 
   63800    814.38865   -114.67662   0.73687596   -113.93975   -7356.7978    4.3610979    4.3610979    4.3610979   -7356.7978    29977.831   -25756.527   -26291.697   -2781.3783   -1788.9037   -58243.086    82.944487 
   63900    983.73322   -114.82187   0.89010249   -113.93177    573.20075    4.3638271    4.3638271    4.3638271    573.20075    31792.595    5354.0288   -35427.022   -9599.3632    4004.1482   -409.21369    83.100304 
   64000    1496.6207   -115.27264    1.3541739   -113.91847    12324.776    4.3609577    4.3609577    4.3609577    12324.776   -551.63476     41303.39    -3777.426    2293.8959   -3543.8008    33193.477    82.936483 
   64100    1362.1974   -115.15431    1.2325448   -113.92176    11721.594    4.3519524    4.3519524    4.3519524    11721.594    19247.197     24415.24   -8497.6537   -7192.6633   -2433.0455   -49491.371    82.423755 
   64200     1209.909   -115.02824    1.0947511   -113.93349   -12036.856    4.3586865    4.3586865    4.3586865   -12036.856    4980.3853   -20847.724   -20243.229   -9199.3078    6210.1969    -5361.843    82.806971 
   64300    1026.4505    -114.8664   0.92875398   -113.93765   -6625.4139    4.3626437    4.3626437    4.3626437   -6625.4139   -12316.315   -1999.0189   -5560.9082    890.00386   -3325.5438    44500.588    83.032713 
   64400    1302.8947    -115.1099    1.1788865   -113.93101    8956.4129    4.3626201    4.3626201    4.3626201    8956.4129    -22091.16     51973.45   -3013.0512    6551.7415   -1426.7181   -20404.989    83.031366 
   64500    1422.4246   -115.21001    1.2870397   -113.92297    2833.3003    4.3628669    4.3628669    4.3628669    2833.3003   -1757.3878    43472.034   -33214.746   -1382.2833   -4620.7301   -2961.2013    83.045462 
   64600    785.79083   -114.64538   0.71100005   -113.93438   -24812.175    4.3606034    4.3606034    4.3606034   -24812.175   -13519.533   -29169.122   -31747.871   -3385.4433   -1779.0242    44456.612    82.916272 
   64700    1160.2818   -114.98292    1.0498474   -113.93308   -2024.9597    4.3510402    4.3510402    4.3510402   -2024.9597   -26623.692    11849.985    8698.8282    18496.503    1239.2547    708.64719    82.371938 
   64800    1576.5419   -115.35864    1.4264883   -113.93215    13472.785    4.3566779    4.3566779    4.3566779    13472.785   -16251.465    67998.085   -11328.265    9010.8206   -4883.2209    5691.6215    82.692546 
   64900    1112.0452   -114.94614    1.0062019   -113.93993   -4764.3511    4.3620885    4.3620885    4.3620885   -4764.3511    3323.2891    24607.194   -42223.537   -1355.6246    4031.7629    47251.988    83.001015 
   65000    989.89264   -114.83164   0.89567566   -113.93596   -3994.6346    4.3544339    4.3544339    4.3544339   -3994.6346   -23163.758     1125.515     10054.34    20013.566   -4220.8725    9604.8686    82.564832 
   65100    1126.2022   -114.95371    1.0190114    -113.9347   -5907.7394    4.3577972    4.3577972    4.3577972   -5907.7394   -41251.023    5061.7879    18466.017    39.858631   -6546.7626   -17135.607    82.756295 
   65200    1127.7141   -114.95105    1.0203794   -113.93067   -4302.7676     4.366378     4.366378     4.366378   -4302.7676   -1757.5447    15347.809   -26498.567   -13500.406     4620.857    27643.603    83.246118 
   65300    1221.3346   -115.03297    1.1050892   -113.92788   -2352.5021    4.3545136    4.3545136    4.3545136   -2352.5021   -22814.223   -3558.5176    19315.235    25678.874   -3442.2987    11012.795    82.569366 
   65400    775.90385   -114.63709   0.70205411   -113.93503   -78.695648    4.3527434    4.3527434    4.3527434   -78.695648   -34828.591   -18872.684    53465.188   -2290.4816   -3801.1157   -13487.903    82.468711 
   65500    1377.9032   -115.17509    1.2467557   -113.92833    -12241.33     4.363896     4.363896     4.363896    -12241.33   -24123.137   -12118.495   -482.35688   -26901.951    658.32282    7762.7537    83.104241 
   65600    1455.1591   -115.24145    1.3166585   -113.92479     6036.472    4.3613076    4.3613076    4.3613076     6036.472   -14817.998    29240.029    3687.3852    20181.834   -2664.8464    4016.7959    82.956452 
   65700    843.18813   -114.69801   0.76293434   -113.93507    5767.7313    4.3496238    4.3496238    4.3496238    5767.7313   -41194.503    1763.6035    56734.094   -426.04997    4637.8156   -220.12138    82.291522 
   65800    1210.5583    -115.0327    1.0953386   -113.93737     2309.248    4.3550746    4.3550746    4.3550746     2309.248   -28604.655    8650.8806    26881.518   -33875.654   -367.30493   -6646.3072    82.601282 
   65900    1953.7093   -115.69048    1.7677572   -113.92272   -3784.1343    4.3667158    4.3667158    4.3667158   -3784.1343   -21879.525    25314.232    -14787.11    13629.818    5920.9917   -624.65204    83.265441 
   66000    1021.9577   -114.86185   0.92468884   -113.93716   -7587.3252    4.3569774    4.3569774    4.3569774   -7587.3252   -57281.176   -6607.7241    41126.925   -9227.4767    5449.0475    4210.1923      82.7096 
   66100    764.80142   -114.62912    0.6920084   -113.93711    13339.845    4.3493598    4.3493598    4.3493598    13339.845   -38734.331     26080.58    52673.285   -37638.251    -3668.286   -12250.916    82.276538 
   66200    1994.7465   -115.72709    1.8048885    -113.9222    1981.3014    4.3593241    4.3593241    4.3593241    1981.3014   -9059.2284     32792.57   -17789.438    10991.743    4154.0933    10877.806    82.843317 
   66300    1000.9073   -114.84064   0.90564195     -113.935    6611.0466    4.3603203    4.3603203    4.3603203    6611.0466   -29347.587    14900.929    34279.798   -19330.812   -877.88559    6778.8676    82.900124 
   66400    705.73403   -114.57149   0.63856298   -113.93293    -14362.24    4.3620352    4.3620352    4.3620352    -14362.24   -64483.448   -20459.607    41856.335   -32063.559    293.72623   -6900.4042    82.997974 
   66500    1410.2523    -115.1946    1.2760259   -113.91858    19051.249    4.3506692    4.3506692    4.3506692    19051.249    11225.544    36927.436    9000.7663    16278.322   -4692.0098    8261.8291     82.35087 
   66600    1263.1016    -115.0675    1.1428808   -113.92461    4688.1784    4.3512753    4.3512753    4.3512753    4688.1784   -5852.1519   -6764.0875    26680.775   -23772.737    576.25917    14461.672    82.385292 
   66700    709.73384   -114.57684    0.6421821   -113.93466   -9704.0455    4.3669767    4.3669767    4.3669767   -9704.0455   -46025.197    -23711.46    40624.521   -22391.452   -5167.6364   -3962.4694    83.280367 
   66800    1523.9643   -115.29921    1.3789149    -113.9203   -2046.2045     4.359008     4.359008     4.359008   -2046.2045   -28569.146    6221.0376    16209.495    25786.587   -7209.2278   -6570.2522    82.825297 
   66900    1261.6981   -115.06089    1.1416109   -113.91928    19448.705    4.3482929    4.3482929    4.3482929    19448.705    15912.157    9633.0227    32800.935   -20465.866     3511.609    31938.823    82.216007 
   67000    1109.5715   -114.93422    1.0039636   -113.93026   -13096.634    4.3575437    4.3575437    4.3575437   -13096.634   -48811.463    -17232.77     26754.33   -25069.576   -2366.4995    7266.0877    82.741856 
   67100    1429.6073   -115.21528    1.2935387   -113.92174   -124.11832    4.3632252    4.3632252    4.3632252   -124.11832   -31660.282   -1275.2138    32563.141    25508.407    2391.2959   -427.74825    83.065921 
   67200    1488.6626   -115.26766    1.3469732   -113.92068   -8724.2462    4.3613195    4.3613195    4.3613195   -8724.2462   -6255.3104    -15022.19   -4895.2381   -2615.3444    982.16728    21837.426    82.957128 
   67300    869.56846   -114.71603   0.78680382   -113.92922    835.22223    4.3524799    4.3524799    4.3524799    835.22223   -20033.146   -5829.2272     28368.04   -41834.959    11614.584    4189.6228    82.453734 
   67400    1443.0474   -115.23029    1.3056996    -113.9246    6419.1751    4.3546285    4.3546285    4.3546285    6419.1751   -33817.217    21104.742        31970     8314.949    7394.7568    3239.2144    82.575904 
   67500    1432.0831   -115.21933    1.2957789   -113.92355   -15992.837    4.3652898    4.3652898    4.3652898   -15992.837   -13790.979   -27899.062   -6288.4716    9874.4439   -7711.1341    9314.6493    83.183894 
   67600    519.26041   -114.40351   0.46983773   -113.93367   -4358.9154    4.3576353    4.3576353    4.3576353   -4358.9154   -24878.777   -26937.371    38739.401       -45661    8726.0693    9144.4469    82.747071 
   67700     1551.659   -115.32955    1.4039737   -113.92558    14736.193    4.3498716    4.3498716    4.3498716    14736.193    4689.3906    8771.8125    30747.375   -7279.7825   -4799.7514   -15558.132    82.305587 
   67800    1459.2791   -115.24585    1.3203864   -113.92547    17393.013    4.3575143    4.3575143    4.3575143    17393.013   -139.37092    8238.9453    44079.466    5341.5862   -4064.8102    20183.532     82.74018 
   67900    475.16338    -114.3705   0.42993781   -113.94056   -18185.059    4.3664726    4.3664726    4.3664726   -18185.059   -18048.263    -54392.23    17885.315   -45158.467    385.36317    10325.451    83.251529 
   68000    1301.9499   -115.10526    1.1780316   -113.92722    1796.5395    4.3614548    4.3614548    4.3614548    1796.5395    2576.9642    -29657.62    32470.274   -8664.8293    634.99707   -13931.663    82.964851 
   68100    1764.8202   -115.51325    1.5968464   -113.91641    19522.709    4.3512166    4.3512166    4.3512166    19522.709   -1612.7669    25401.007    34779.888    11380.121    2112.8942    10413.191    82.381958 
   68200    734.01145   -114.60145   0.66414898    -113.9373   -8446.1175    4.3578608    4.3578608    4.3578608   -8446.1175   -14515.343   -38141.345    27318.335   -53062.911   -8255.1748    16522.958     82.75992 
   68300    1397.4523    -115.1928    1.2644442   -113.92835   -2990.1984    4.3602219    4.3602219    4.3602219   -2990.1984    6709.8736   -19388.463    3707.9941    -10135.57    2423.6079    13451.312    82.894513 
   68400    1629.5052   -115.39338    1.4744105   -113.91897    4358.1556    4.3616967    4.3616967    4.3616967    4358.1556   -16155.442    4038.0168    25191.892    29457.417   -7905.5857   -19159.477    82.978657 
   68500    842.57475   -114.69023   0.76237934   -113.92785   -16647.749    4.3595275    4.3595275    4.3595275   -16647.749    -31046.24   -36780.293    17883.287   -39926.536   -1358.2651    20618.158    82.854913 
   68600    1322.3348   -115.12124    1.1964763   -113.92476    5137.8644    4.3507148    4.3507148    4.3507148    5137.8644    10496.875    2126.7285    2789.9898   -16457.987   -1116.2615    26286.404    82.353456 
   68700    1668.8895   -115.42867    1.5100462   -113.91862   -7956.4039    4.3655297    4.3655297    4.3655297   -7956.4039   -31917.594    2373.6519    5674.7307    20164.729    -466.1907   -13252.081    83.197607 
   68800    837.44735   -114.68564   0.75773997    -113.9279   -9818.4703    4.3622966    4.3622966    4.3622966   -9818.4703   -36307.906   -24066.643    30919.138   -37316.603    5855.9822    8298.0538    83.012897 
   68900    955.16402   -114.78982   0.86425248   -113.92556    9102.3047    4.3547926    4.3547926    4.3547926    9102.3047    24571.429     11502.92   -8767.4347   -14027.096   -4565.4309    19844.701     82.58524 
   69000    1643.3804   -115.40085    1.4869651   -113.91388   -420.82991    4.3595114    4.3595114    4.3595114   -420.82991   -8401.1733    7468.7448   -330.06122    4884.5825    8851.1884   -6972.4383    82.853996 
   69100    978.43751   -114.81165   0.88531082   -113.92634    9509.6352    4.3530094    4.3530094    4.3530094    9509.6352   -14736.382    20744.974    22520.313   -36438.439    -491.8612   -653.86588    82.483831 
   69200    1011.2472   -114.84872   0.91499775   -113.93373   -17123.072    4.3660027    4.3660027    4.3660027   -17123.072   -20663.781   -18168.776    -12536.66   -14442.076    3538.0093    24508.811    83.224654 
   69300    1354.5059   -115.14724    1.2255854   -113.92165    14761.176    4.3593037    4.3593037    4.3593037    14761.176    35026.918    25646.816   -16390.208    11394.568    6879.2365   -4885.1634    82.842156 
   69400    1181.9049   -114.99466    1.0694124   -113.92525    4701.9589    4.3558379    4.3558379    4.3558379    4701.9589   -10929.335    16734.314    8300.8982   -27541.567   -1507.7345   -12934.287    82.644724 
   69500    1225.0311   -115.03143    1.1084339   -113.92299   -10432.708    4.3667672    4.3667672    4.3667672   -10432.708   -6572.7245   -21957.659   -2767.7403   -15066.633    1936.8769    24025.047     83.26838 
   69600    1471.1655   -115.24938    1.3311415   -113.91824    15178.002    4.3519003    4.3519003    4.3519003    15178.002    20806.718    39980.177   -15252.891     15255.75    520.66561   -6133.0484    82.420798 
   69700    930.30884   -114.77235   0.84176299   -113.93058   -8268.1565    4.3622385    4.3622385    4.3622385   -8268.1565    14185.932   -13725.763   -25264.639    -21178.56     9630.715    -29922.46    83.009583 
   69800    1242.4249   -115.04487    1.1241721    -113.9207    -6077.504    4.3636954    4.3636954    4.3636954    -6077.504   -18643.393    16221.949   -15811.069   -28593.071   -1818.2755    13616.376     83.09278 
   69900    1521.9504   -115.29021    1.3770927   -113.91312    3410.0997    4.3582299    4.3582299    4.3582299    3410.0997    18166.202    8016.9708   -15952.874    12772.615    2415.6488   -2491.6624    82.780948 
   70000    764.85882   -114.61505   0.69206033   -113.92299   -34336.448    4.3697886    4.3697886    4.3697886   -34336.448   -5156.7826   -51680.059   -46172.503   -31266.817    5773.1117   -37820.217     83.44134 
   70100    1055.9947   -114.87552   0.95548619   -113.92003    9552.4178    4.3507562    4.3507562    4.3507562    9552.4178    8939.9475    19972.115   -254.80916   -17646.144    2894.5847    2480.2573     82.35581 
   70200    1558.7168   -115.32934    1.4103597   -113.91898    7422.4818    4.3571492    4.3571492    4.3571492    7422.4818    29784.533    13296.914   -20814.002    15107.569   -752.02946   -3451.3979    82.719386 
   70300    1019.8916   -114.84967    0.9228194   -113.92685   -21603.372    4.3679972    4.3679972    4.3679972   -21603.372    12282.902   -41679.695   -35413.324   -27391.767    5097.6978   -36148.477    83.338761 
   70400    757.95572   -114.61173   0.68581426   -113.92591    18423.562    4.3555579    4.3555579    4.3555579    18423.562     17801.41    35679.629    1789.6475   -26885.425    8212.6345    3193.3821    82.628786 
   70500    1792.7568   -115.53376    1.6221241   -113.91163   -7639.8162    4.3643229    4.3643229    4.3643229   -7639.8162    8046.2978    1060.6401   -32026.386    5392.5906   -15949.544   -4377.2353    83.128631 
   70600    1161.8196   -114.97311    1.0512388   -113.92188    9316.1162    4.3552362    4.3552362    4.3552362    9316.1162    29982.775    4864.4598   -6898.8865   -17184.324    1829.1408   -19509.242    82.610479 
   70700    946.95965   -114.78856   0.85682899   -113.93173     403.3684    4.3624766    4.3624766    4.3624766     403.3684    6610.1635    3215.1867    -8615.245   -26228.688     1221.269   -5375.1195    83.023172 
   70800    1737.7894   -115.48664    1.5723883   -113.91425   -19451.679     4.373035     4.373035     4.373035   -19451.679   -8332.5062   -14536.405   -35486.125    11241.423   -1227.1307     13250.25    83.627453 
   70900    1107.6307   -114.91657    1.0022075   -113.91437    24020.663    4.3522924    4.3522924    4.3522924    24020.663    69114.932   -15011.031    17958.087   -23436.774   -14763.201   -4419.3252    82.443076 
   71000     1141.688   -114.95255    1.0330233   -113.91953   -1017.4164     4.361983     4.361983     4.361983   -1017.4164    2622.5457   -12114.852    6440.0566   -33306.053    10630.135   -5641.4737    82.994998 
   71100    1445.1485   -115.21733    1.3076007   -113.90973   -6791.0298    4.3698406    4.3698406    4.3698406   -6791.0298    16223.209   -5110.5588    -31485.74     19366.77    11072.951    20673.493    83.444322 
   71200    1337.8474   -115.12395    1.2105125   -113.91344   -4341.1364    4.3599826    4.3599826    4.3599826   -4341.1364   -6580.6112   -9737.0946    3294.2966   -30943.841   -6086.6936     430.0816    82.880865 
   71300    1234.2427   -115.03842    1.1167687   -113.92165    5032.5228    4.3574032    4.3574032    4.3574032    5032.5228    16191.381   -24447.252    23353.439   -40480.456    10241.854   -8529.8178    82.733853 
   71400    1027.0478   -114.85604    0.9292944   -113.92675   -2098.7025    4.3681227    4.3681227    4.3681227   -2098.7025    34893.407    1894.6379   -43084.152    6654.3633     25909.33     23390.02    83.345945 
   71500    921.90794   -114.75282   0.83416168   -113.91866   -1634.0297    4.3730208    4.3730208    4.3730208   -1634.0297    19947.805    2412.5407   -27262.434   -13362.788   -4736.3068    8066.9284    83.626635 
   71600    1139.7022   -114.93301    1.0312265   -113.90178     30037.47    4.3607295    4.3607295    4.3607295     30037.47    70419.476   -6519.0039    26211.938   -22137.735     7064.496    2800.1714    82.923463 
   71700    1063.2452    -114.8695   0.96204657   -113.90746   -19314.977     4.371108     4.371108     4.371108   -19314.977    277.17244   -14070.537   -44151.566    16366.717    30872.839    27683.843     83.51695 
   71800    1014.7033   -114.82634   0.91812483   -113.90822   -305.78172     4.359981     4.359981     4.359981   -305.78172   -6585.4072    11406.176   -5738.1144   -11596.497    -7560.267    4278.7425    82.880773 
   71900    1555.7887   -115.31453    1.4077103   -113.90682    10882.486    4.3530083    4.3530083    4.3530083    10882.486    25675.193     73.94001    6898.3248   -15881.421    -5478.993    7594.5811    82.483766 
   72000     775.9375   -114.62953   0.70208455   -113.92745   -21046.376    4.3686189    4.3686189    4.3686189   -21046.376    1777.5209   -15484.566   -49432.085    16488.995    23163.594    30763.131    83.374353 
   72100    1154.2569   -114.96763    1.0443959   -113.92324    6406.0057    4.3613608    4.3613608    4.3613608    6406.0057    24984.507     6670.821   -12437.311   -398.66783    5271.2101    1619.2744    82.959486 
   72200    1824.4683   -115.55997    1.6508172   -113.90915    2761.4779    4.3622902    4.3622902    4.3622902    2761.4779    12376.521    -8952.038    4859.9502    420.33131   -19422.624   -750.59413    83.012535 
   72300    691.87912   -114.55557   0.62602677   -113.92954   -9488.0282    4.3541752    4.3541752    4.3541752   -9488.0282    13257.323   -7817.0702   -33904.338    8452.5517    28964.348    23870.716    82.550118 
   72400     1049.233   -114.88831   0.94936809   -113.93894    3813.4324    4.3554812    4.3554812    4.3554812    3813.4324   -2739.0018    -4552.509    18731.808    17506.929    8788.2559     3899.807     82.62442 
   72500    1790.8974   -115.54018    1.6204416   -113.91974    15170.011    4.3661618    4.3661618    4.3661618    15170.011    37413.938   -3697.1033    11793.199   -1422.1558   -11150.226   -4868.1419    83.233752 
   72600    832.06005   -114.68501   0.75286541   -113.93215    8986.7768    4.3574852    4.3574852    4.3574852    8986.7768    5721.3512    5662.2707    15576.709     677.7389    18359.769    22135.317     82.73852 
   72700    757.06734   -114.61508   0.68501044   -113.93007   -9932.2139    4.3653178    4.3653178    4.3653178   -9932.2139    -10075.06    1044.9938   -20766.575    16313.867    21740.215    4992.4146    83.185495 
   72800    1655.5622   -115.40238    1.4979875   -113.90439   -1080.2771    4.3625219    4.3625219    4.3625219   -1080.2771   -17093.238    6011.8302    7840.5767   -11567.589    -6270.162    595.74023    83.025758 
   72900      771.518   -114.61677    0.6980857   -113.91869      12693.4    4.3570214    4.3570214    4.3570214      12693.4    30992.678     13184.06   -6096.5401   -2342.0986    717.19235    12637.229    82.712108 
   73000     1191.346    -114.9963    1.0779549   -113.91835    -15546.71    4.3624441    4.3624441    4.3624441    -15546.71   -10575.558   -4332.0985   -31732.475    4325.7559    42230.611    11540.788    83.021319 
   73100     1451.215   -115.22855    1.3130899   -113.91546    14071.951    4.3548238    4.3548238    4.3548238    14071.951    14136.645     22581.27    5497.9385   -4019.7678   -32514.427   -1738.1211    82.587017 
   73200    954.34552   -114.79205   0.86351188   -113.92854   -1194.8523     4.362915     4.362915     4.362915   -1194.8523    24627.555     6493.699   -34705.811   -13520.561    1690.6524    7115.0461    83.048208 
   73300    1295.9988    -115.0877    1.1726469   -113.91505   -13704.128      4.37408      4.37408      4.37408   -13704.128    8144.3228   -8962.2583    -40294.45    837.69198    40141.424    19111.366    83.687415 
   73400    1535.5902   -115.29518    1.3894343   -113.90575    22364.187    4.3531915    4.3531915    4.3531915    22364.187    40626.293    15847.097    10619.171    3693.3354   -34463.419   -8590.5094    82.494181 
   73500    1120.9656   -114.93235    1.0142732   -113.91807   -5648.9765    4.3523296    4.3523296    4.3523296   -5648.9765    3588.8785    11061.372    -31597.18   -13198.123   -5546.3721    13362.002    82.445189 
   73600    1084.7592   -114.90333   0.98151288   -113.92182   -3638.3866     4.369949     4.369949     4.369949   -3638.3866    29354.798   -11278.984   -28990.974    2328.6663    34041.195    17640.263    83.450529 
   73700    1628.7997   -115.38561    1.4737722   -113.91184   -7844.3533    4.3619942    4.3619942    4.3619942   -7844.3533   -11114.569   -5930.6013   -6487.8894   -4130.2577   -9464.3667   -16793.921    82.995637 
   73800    751.07727   -114.60071    0.6795905   -113.92112    9228.3295     4.355204     4.355204     4.355204    9228.3295    41173.991    7970.0581    -21459.06   -7862.6749   -14141.769    9141.3172    82.608649 
   73900     1357.926   -115.14722    1.2286799   -113.91854   -11443.543    4.3600791    4.3600791    4.3600791   -11443.543   -10973.771   -507.01065   -22849.847   -9083.3601    26942.046    20325.491    82.886369 
   74000    1177.7717   -114.98506    1.0656726   -113.91939     4764.309    4.3615076    4.3615076    4.3615076     4764.309    12512.206    6996.0527    -5215.332    21214.152   -12876.597   -25342.977    82.967862 
   74100    882.52954   -114.72089   0.79853128   -113.92236   -18797.903    4.3702798    4.3702798    4.3702798   -18797.903   -28517.446    11576.573   -39452.835   -6459.4381   -3865.0294    2057.1449    83.469485 
   74200    1399.4522   -115.17836    1.2662537   -113.91211    8167.3728    4.3553609    4.3553609    4.3553609    8167.3728    26663.493    4052.4592   -6213.8339   -19357.309    9313.9239    16481.425    82.617577 
   74300    1047.4795   -114.86469   0.94778148   -113.91691    15782.495    4.3484913    4.3484913    4.3484913    15782.495    20170.133    39718.405   -12541.053    31983.985   -6847.7782   -29240.967    82.227262 
   74400    820.63326   -114.67309   0.74252622   -113.93057   -38619.586    4.3715751    4.3715751    4.3715751   -38619.586   -34782.083   -39732.462   -41344.212   -3172.1791   -12166.818   -13951.307    83.543726 
   74500    1685.6703   -115.43892    1.5252299   -113.91369     5494.021    4.3548195    4.3548195    4.3548195     5494.021   -171.55902    16957.576   -303.95443   -25517.482   -6129.2719    10864.568    82.586771 
   74600    1052.6254   -114.87439    0.9524376   -113.92195   -5580.0887      4.36122      4.36122      4.36122   -5580.0887    24030.923   -28580.115   -12191.074    32033.115    7642.8622   -24950.252     82.95145 
   74700    776.98371   -114.62874   0.70303119   -113.92571   -37624.777    4.3682342    4.3682342    4.3682342   -37624.777   -33720.304   -46447.935   -32706.091    10804.394   -19058.296   -18455.725     83.35233 
   74800    1655.2022   -115.40588    1.4976617   -113.90822    30202.097    4.3410225    4.3410225    4.3410225    30202.097     24332.12    29919.487    36354.682   -27563.714   -10072.283    5825.8048    81.804296 
   74900    1209.3925   -115.02451    1.0942837   -113.93023   -13940.515    4.3648195    4.3648195    4.3648195   -13940.515   -14719.406   -23931.047   -3171.0909    27447.889    14597.855    -9568.748    83.157011 
   75000    877.10476   -114.72502   0.79362282   -113.93139   -12764.223    4.3656755    4.3656755    4.3656755   -12764.223    -3446.705   -22693.127   -12152.839        15874   -5072.3374   -22148.041    83.205944 
   75100    1604.3924   -115.36481     1.451688   -113.91312    32963.426    4.3497843    4.3497843    4.3497843    32963.426    3358.0643    34098.398    61433.816   -7031.3565   -5430.6522     3388.939    82.300631 
   75200    1041.4133   -114.86404   0.94229264   -113.92175    -8332.258    4.3704796    4.3704796    4.3704796    -8332.258    365.15633   -7885.3091   -17476.621    11989.675    15187.817   -8589.9662    83.480931 
   75300     985.1853   -114.80958   0.89141636   -113.91816   -414.65885    4.3581321    4.3581321    4.3581321   -414.65885   -3469.4777   -19429.701    21655.202    19640.256   -3047.6749   -24986.498    82.775379 
   75400    1533.6368   -115.29686    1.3876668   -113.90919    14107.725    4.3583254    4.3583254    4.3583254    14107.725   -10451.108    14321.111    38453.171   -7330.2846   -5681.6489    4588.8175    82.786394 
   75500    1108.3884   -114.92318    1.0028931   -113.92028   -27572.448    4.3672233    4.3672233    4.3672233   -27572.448   -49172.538   -9422.4414   -24122.364    10342.707    29117.342   -5501.7046    83.294478 
   75600    512.75009   -114.39363   0.46394706   -113.92968     27643.86    4.3457064    4.3457064    4.3457064     27643.86    29388.483   -7206.5547    60749.653     30011.26    13184.316   -22533.803     82.06938 
   75700    1597.9205   -115.37304    1.4458321   -113.92721    2725.6498    4.3600186    4.3600186    4.3600186    2725.6498     1519.541   -4437.7264    11095.135   -10265.807   -14097.931   -7908.9728    82.882917 
   75800    1224.1121   -115.03115    1.1076024   -113.92355   -3281.7884    4.3690713    4.3690713    4.3690713   -3281.7884   -16817.447   -2141.7877    9113.8694    9503.7735    25551.947    5458.1609    83.400256 
   75900    656.99583   -114.51627   0.59446364    -113.9218      7587.97    4.3639224    4.3639224    4.3639224      7587.97    14149.824   -1030.9338    9645.0192    26660.332    8879.3777   -23661.734    83.105745 
   76000    1531.1048   -115.28691    1.3853758   -113.90154    3206.6953    4.3680549    4.3680549    4.3680549    3206.6953     24631.95   -7040.8311   -7971.0329     -4448.49   -15842.804   -9824.7942    83.342065 
   76100    1604.6861   -115.35956    1.4519537   -113.90761     6996.296    4.3489757    4.3489757    4.3489757     6996.296   -2198.0666    18743.245    4443.7095    8875.6727    17990.513    8916.9483    82.254744 
   76200    851.14319   -114.70369   0.77013224   -113.93356   -1476.6332    4.3531942    4.3531942    4.3531942   -1476.6332    18137.577   -8832.0033   -13735.474    17382.268    18674.444   -38649.027    82.494335 
   76300    1462.3546   -115.25164    1.3231692   -113.92847   -15177.247    4.3700853    4.3700853    4.3700853   -15177.247    7729.7538   -26025.964    -27235.53    1898.8909   -8235.8941   -20612.551    83.458339 
   76400    1502.5973    -115.2741    1.3595816   -113.91452    154.23864    4.3703333    4.3703333    4.3703333    154.23864   -1950.3936    6573.8527   -4160.7432   -4848.1574   -5126.0728    7283.3293    83.472552 
   76500    866.40475   -114.69438   0.78394123   -113.91044   -8545.8834     4.369258     4.369258     4.369258   -8545.8834    2503.9926   -37524.935    9383.2924    12172.357    24581.804   -40340.723    83.410952 
   76600     1236.567   -115.01846    1.1188718   -113.89958    2630.6822    4.3636703    4.3636703    4.3636703    2630.6822    3834.8501   -10591.174    14648.371   -4923.4259   -15137.004   -20687.447    83.091347 
   76700     1317.684   -115.09596    1.1922681   -113.90369    -615.7873    4.3593819    4.3593819    4.3593819    -615.7873   -27001.362    12436.249    12717.752    5771.1933   -16523.133     7897.915    82.846613 
   76800     812.5286   -114.65892   0.73519295   -113.92373   -22762.481    4.3605262    4.3605262    4.3605262   -22762.481   -3371.0263   -40136.433   -24779.984    15320.035    17555.708    -38987.03    82.911865 
   76900    1203.5304   -115.01305    1.0889796   -113.92407     127.1588    4.3623117    4.3623117    4.3623117     127.1588    17266.516   -1569.4229   -15315.617   -2350.6742   -7285.4776   -19609.131    83.013757 
   77000    1566.2672   -115.32879    1.4171915    -113.9116   -6914.5065    4.3717707    4.3717707    4.3717707   -6914.5065   -19384.337     9698.841   -11058.024    11728.604   -23418.126    14380.485    83.554937 
   77100    617.61928   -114.47771    0.5588349   -113.91888   -16215.418    4.3681515    4.3681515    4.3681515   -16215.418    12663.454   -20866.952   -40442.757    23663.554    14097.692   -39325.765    83.347595 
   77200    1237.1221    -115.0302     1.119374   -113.91083    11096.387    4.3527506    4.3527506    4.3527506    11096.387    31741.616    1690.2568    -142.7112    9994.7887    2982.2523    -11623.18    82.469119 
   77300    1685.9279   -115.43295     1.525463   -113.90749    20923.635    4.3609778    4.3609778    4.3609778    20923.635    7912.1249    14247.838    40610.942    396.46725   -19206.272    16597.207    82.937633 
   77400    644.22369   -114.51019   0.58290713   -113.92729    -24135.22    4.3758134    4.3758134    4.3758134    -24135.22    7056.2091   -70610.643   -8851.2261    13374.586    3195.2514    -45122.25    83.786948 
   77500    967.38471    -114.7994   0.87531002   -113.92409    2235.1266    4.3577283    4.3577283    4.3577283    2235.1266    25701.635    -23925.69    4929.4349    1069.4925    7246.4049   -19249.552     82.75237 
   77600    1875.3469   -115.60626    1.6968533    -113.9094    24836.592    4.3447435    4.3447435    4.3447435    24836.592     33321.02    12646.422    28542.335   -5857.5334   -4558.1092    10368.128    82.014835 
   77700    744.84533   -114.60721    0.6739517   -113.93326   -23075.144    4.3705908    4.3705908    4.3705908   -23075.144    23696.665   -55566.335   -37355.761    11097.125    -4293.766    -52456.98    83.487306 
   77800    1011.5853    -114.8351   0.91530366    -113.9198    -16911.21    4.3721618    4.3721618    4.3721618    -16911.21    4302.0923   -19434.906   -35600.817    -4316.733    20299.404   -13865.368    83.577365 
   77900    1689.7621   -115.42908    1.5289322   -113.90015    10075.871    4.3577544    4.3577544    4.3577544    10075.871    11362.404    4432.6428    14432.567   -3641.9524     586.0235    12588.418    82.753861 
   78000    683.94527    -114.5376   0.61884805   -113.91875   -6427.1477    4.3609024    4.3609024    4.3609024   -6427.1477    24630.887   -42912.637   -999.69295     15601.51    49.238847   -51110.769    82.933332 
   78100    901.04625   -114.73966   0.81528558   -113.92438   -2845.8824     4.364297     4.364297     4.364297   -2845.8824   -11134.566   -7973.0024    10569.921   -9109.5921    18677.173   -10732.949    83.127149 
   78200    1580.8379   -115.34371    1.4303754   -113.91333    9205.9253    4.3583195    4.3583195    4.3583195    9205.9253   -8007.5954     6583.573    29041.798   -7808.1023     10644.61    9755.9389    82.786058 
   78300    1012.9803   -114.84386   0.91656588    -113.9273   -17061.121     4.362402     4.362402     4.362402   -17061.121    16564.829   -40335.233    -27412.96    9403.5566   -2958.9778    -49222.91    83.018916 
   78400    1166.3097   -114.97907    1.0553016   -113.92377   -14808.731    4.3640282    4.3640282    4.3640282   -14808.731   -4517.5525   -8728.5594   -31180.081    5234.5794    12654.728   -24177.831    83.111792 
   78500    1808.2905   -115.54614    1.6361793   -113.90996   -218.68745    4.3610348    4.3610348    4.3610348   -218.68745   -14433.413    22515.061   -8737.7103    1203.8519    15773.077    5677.1395    82.940884 
   78600      646.872   -114.51183   0.58530338   -113.92652   -8923.0707    4.3627338    4.3627338    4.3627338   -8923.0707    18807.311   -3180.9395   -42395.584   -659.85089   -14453.699   -47041.419    83.037859 
   78700    1234.6121   -115.03894     1.117103   -113.92184   -2984.9756    4.3563003    4.3563003    4.3563003   -2984.9756   -10219.809    7879.9368   -6615.0541    17405.507    12704.954   -7752.8499    82.671048 
   78800    1709.6288   -115.46113     1.546908   -113.91423   -7450.4674    4.3690106    4.3690106    4.3690106   -7450.4674   -32246.887    18369.322   -8473.8378     414.3703     7584.916    7784.9233    83.396782 
   78900    741.12611   -114.59873   0.67058648   -113.92814   -30343.651    4.3658595    4.3658595    4.3658595   -30343.651   -654.67105   -37448.185   -52928.098    4182.5727   -8193.0833   -46907.931    83.216465 
   79000    972.59933   -114.79783   0.88002832    -113.9178    17698.383    4.3499359    4.3499359    4.3499359    17698.383    17177.276    47202.483   -11284.609    24051.196    647.81479    1005.2816    82.309235 
   79100    1563.6453   -115.32607    1.4148191   -113.91125   -11427.229    4.3675409    4.3675409    4.3675409   -11427.229    -19446.74    3942.3704   -18777.319   -10089.547    3.0099283    5062.2646    83.312651 
   79200    759.89561   -114.60626   0.68756952   -113.91869    5074.8909    4.3632429    4.3632429    4.3632429    5074.8909    1927.9114    26521.006   -13224.245   -1547.4008    1242.6312   -47601.107    83.066934 
   79300    1068.8985   -114.88505   0.96716187   -113.91789    -4417.716    4.3598794    4.3598794    4.3598794    -4417.716    2828.6365   -1750.2112   -14331.573    23184.215   -5339.9128    6860.2694    82.874978 
   79400    1403.9619   -115.18632    1.2703342   -113.91598     465.4038    4.3561316    4.3561316    4.3561316     465.4038   -5942.6182   -283.37874    7622.2084   -10844.604    6359.3716    18009.491    82.661442 
   79500     1035.244   -114.86228   0.93671049   -113.92557   -1980.0277    4.3631593    4.3631593    4.3631593   -1980.0277   -13339.572    6763.8006    635.68804   -19719.307   -1598.9603   -36988.217     83.06216 
   79600    1154.5649   -114.96392    1.0446745   -113.91924   -15755.277     4.371071     4.371071     4.371071   -15755.277    -15474.51   -21211.894   -10579.426    25357.635   -11283.109    8380.5471    83.514829 
   79700    1282.6218   -115.07297    1.1605432   -113.91243    26099.205    4.3451295    4.3451295    4.3451295    26099.205    11375.299    59290.935    7631.3818   -13143.833     10457.73      20019.7    82.036699 
   79800    1208.9295   -115.01985    1.0938649   -113.92599   -4719.1421    4.3572638    4.3572638    4.3572638   -4719.1421    -5882.325   -18053.163    9778.0614   -36298.698    9557.3418   -24777.523    82.725913 
   79900    1180.2292   -114.98492    1.0678962   -113.91702   -10191.538    4.3715728    4.3715728    4.3715728   -10191.538   -11032.653    3406.6328   -22948.594    14292.917   -10595.081    5873.9469    83.543591 
   80000    1262.6504   -115.05913    1.1424726   -113.91665    1097.3826    4.3532399    4.3532399    4.3532399    1097.3826    2269.5152    6190.1581   -5167.5255   -72.924643    3908.5513    13742.251    82.496934 
   80100    1171.7626   -114.98345    1.0602354   -113.92322     1522.843     4.355169     4.355169     4.355169     1522.843   -19848.039    836.02752     23580.54   -37118.946    9809.7288   -8783.6565    82.606657 
   80200    1485.6226   -115.26137    1.3442225   -113.91715    8188.6601    4.3617789    4.3617789    4.3617789    8188.6601    1278.6607    23942.199   -654.87996    9277.4371   -12857.399   -185.13629    82.983348 
   80300    835.45564   -114.68185   0.75593782   -113.92591   -3949.5266    4.3686169    4.3686169    4.3686169   -3949.5266   -7505.7729    6953.7773   -11296.584    1953.9748    1697.7283    12644.012    83.374238 
   80400     1136.914    -114.9458    1.0287037    -113.9171   -14363.836    4.3671534    4.3671534    4.3671534   -14363.836   -41299.343   -16938.053    15145.889   -40838.433    13411.919    3266.3246    83.290473 
   80500    1726.6996   -115.46598    1.5623541   -113.90363    17713.145    4.3473834    4.3473834    4.3473834    17713.145    5545.7878    36191.937     11401.71    11080.588   -13517.511   -8568.5296    82.164427 
   80600    936.92607   -114.77719    0.8477504   -113.92944   -17919.165    4.3573434    4.3573434    4.3573434   -17919.165   -31974.132   -3404.3553   -18379.007   -7348.1298   -14583.301    14571.005    82.730443 
   80700    715.14461   -114.58064   0.64707787   -113.93356   -18150.065    4.3650044    4.3650044    4.3650044   -18150.065    -18182.94   -35153.858   -1113.3972    -39832.08    8826.8466    15745.683    83.167577 
   80800    1391.6043   -115.17974    1.2591528   -113.92058   -5891.1936    4.3650214    4.3650214    4.3650214   -5891.1936    5273.0161    4193.3046   -27139.901     12160.12     -15168.1   -19997.434    83.168551 
   80900    1021.5216   -114.83867   0.92429424   -113.91437   -7479.0779    4.3684555    4.3684555    4.3684555   -7479.0779   -18651.184    22656.519   -26442.569   -3801.7406    -17325.29    7306.4478       83.365 
   81000    871.81103   -114.69967   0.78883294   -113.91084    4203.7384    4.3555309    4.3555309    4.3555309    4203.7384    814.96258    4790.9549    7005.2977   -24615.889     8737.741    16770.315     82.62725 
   81100    1025.8687   -114.84535   0.92822753   -113.91712   -4492.9956    4.3643998    4.3643998    4.3643998   -4492.9956    43337.098   -24322.281   -32493.804    5157.7438    -12634.98   -32738.285    83.133024 
   81200    1553.1846   -115.31367     1.405354   -113.90832   -7715.6871    4.3649203    4.3649203    4.3649203   -7715.6871    9882.2517   -4266.8499   -28762.463    11452.699   -6172.1707     3022.704    83.162771 
   81300    943.49345   -114.77169    0.8536927     -113.918    8359.0418    4.3511743    4.3511743    4.3511743    8359.0418    16069.468     4966.584    4041.0731   -28031.303    9399.0462    7784.9195    82.379557 
   81400    960.25134   -114.79918    0.8688556   -113.93032   -20333.938    4.3656123    4.3656123    4.3656123   -20333.938    45304.586   -44075.269   -62231.132   -7998.2651    5319.3796   -47402.704    83.202329 
   81500    1664.4346   -115.41356    1.5060154   -113.90755    2831.1433    4.3685209    4.3685209    4.3685209    2831.1433    27093.409    8164.2149   -26764.194    7352.3602    -6481.155   -5676.5148    83.368743 
   81600    1079.8326   -114.89434   0.97705527   -113.91728   -7907.0086    4.3611748    4.3611748    4.3611748   -7907.0086    7022.8937   -16790.964   -13952.955   -25279.647    5773.0381    8679.2985    82.948873 
   81700    694.56184   -114.55694   0.62845415   -113.92849   -2252.5788    4.3558747    4.3558747    4.3558747   -2252.5788    34402.507   -345.52662   -40814.717   -18929.285    7435.7281   -35859.946    82.646818 
   81800    1577.0075   -115.35118    1.4269095   -113.92427    10669.854     4.353918     4.353918     4.353918    10669.854    28148.492    22911.077   -19050.006    9372.1735   -7087.0028   -12537.103    82.535492 
   81900    1393.3194   -115.19358    1.2607047   -113.93287   -13177.152    4.3648569    4.3648569    4.3648569   -13177.152   -20612.986   -10431.451   -8487.0182    12109.317     1313.321    937.33036    83.159148 
   82000    810.83416   -114.66704   0.73365978   -113.93338   -20619.366    4.3676665    4.3676665    4.3676665   -20619.366    7560.2037   -24598.641    -44819.66   -14627.793    4813.5904   -44581.705    83.319835 
   82100    1579.2188   -115.34317    1.4289104   -113.91426   -2696.4207    4.3558615    4.3558615    4.3558615   -2696.4207    12861.058   -1640.7379   -19309.582    11247.437    186.79777   -10128.423    82.646066 
   82200    1368.2622   -115.15553    1.2380324   -113.91749   -9996.7568    4.3653438    4.3653438    4.3653438   -9996.7568   -28167.657   -5925.9169    4103.3035    15618.558   -7274.0422    7142.6295     83.18698 
   82300    859.67584   -114.70264   0.77785277   -113.92479   -11735.572    4.3649868    4.3649868    4.3649868   -11735.572   -8533.2202   -13950.486   -12723.011   -24244.882    4202.1476   -31356.315    83.166572 
   82400    1093.3874   -114.91268   0.98931993   -113.92336    2344.3718    4.3594846    4.3594846    4.3594846    2344.3718   -4807.7468   -2556.2416    14397.104    7532.8942   -4183.5639   -8238.9171    82.852467 
   82500    1491.7645   -115.26584    1.3497799   -113.91606   -2409.1993    4.3656388    4.3656388    4.3656388   -2409.1993    -35320.02   -1779.6952    29872.117    17495.783   -7916.7069     12007.78    83.203846 
   82600    692.97487   -114.55524   0.62701822   -113.92822   -1394.9192        4.359        4.359        4.359   -1394.9192   -13665.508   -52102.237    61582.988   -33041.985    1569.6768    -15408.45    82.824842 
   82700     816.0687   -114.66866   0.73839611   -113.93027    1935.0499    4.3564066    4.3564066    4.3564066    1935.0499    31013.492   -28577.189    3368.8471   -7420.3369   -5757.1188    -32555.87    82.677099 
   82800    1716.1232    -115.4685    1.5527843   -113.91572    2969.3827    4.3618581    4.3618581    4.3618581    2969.3827   -7619.6977   -9987.7716    26515.617     9832.167   -3681.7866    15324.448    82.987864 
   82900    1012.1724   -114.84542   0.91583484   -113.92959    -21123.26    4.3620208    4.3620208    4.3620208    -21123.26   -27662.953   -60461.116     24754.29   -38800.007    309.89945   -21592.908    82.997153 
   83000    621.58961   -114.50049   0.56242734   -113.93806   -3394.8004    4.3514413    4.3514413    4.3514413   -3394.8004    53225.799   -39031.447   -24378.753   -16377.318    7899.3838   -33208.028    82.394723 
   83100    1691.4608   -115.45736    1.5304693   -113.92689    4632.5593    4.3610376    4.3610376    4.3610376    4632.5593   -889.46452   -680.79224    15467.935    9417.4791    -10401.03    7664.4405    82.941044 
   83200     1252.461   -115.06067    1.1332531   -113.92742   -18456.799     4.372392     4.372392     4.372392   -18456.799   -30610.928   -52770.515    28011.047   -20105.973    3236.6555   -5542.5365     83.59057 
   83300    640.65168   -114.50976    0.5796751   -113.93009    17155.416    4.3473044    4.3473044    4.3473044    17155.416    50913.785   -14912.116    15464.579   -15984.247    466.58141   -30118.801    82.159946 
   83400    1194.1217   -115.01181    1.0804664   -113.93134    10665.761    4.3509455    4.3509455    4.3509455    10665.761    5240.8608   -12438.419    39194.842    24356.791   -655.91726    4676.6517    82.366559 
   83500    1486.8232    -115.2695    1.3453089    -113.9242   -4480.7133    4.3661129    4.3661129    4.3661129   -4480.7133   -9376.4413   -21653.054    17587.356    16143.041    2155.5598    3077.5479    83.230959 
   83600     1029.331   -114.85743   0.93136029   -113.92607    7019.9544    4.3618159    4.3618159    4.3618159    7019.9544    55999.537   -13852.799   -21086.875   -12545.649    -984.5252   -31748.093    82.985459 
   83700    928.25408   -114.76181    0.8399038    -113.9219   -10612.966    4.3638101    4.3638101    4.3638101   -10612.966   -3412.7363   -41812.284    13386.124     33482.05    13190.366    -3714.418    83.099329 
   83800    1385.6172   -115.16681    1.2537356   -113.91307    7908.1245    4.3573774    4.3573774    4.3573774    7908.1245    11749.091    -14323.15    26298.432    22074.435   -12818.224    5682.0334    82.732381 
   83900    1521.6847    -115.2933    1.3768523   -113.91644    6296.6639    4.3544566    4.3544566    4.3544566    6296.6639    53069.871   -15669.198   -18510.681   -13980.705    2221.8248   -32529.226    82.566124 
   84000    991.11626   -114.82826   0.89678282   -113.93148   -20914.616    4.3605809    4.3605809    4.3605809   -20914.616   -13888.747   -49721.615    866.51565    31528.811    9572.6548   -11351.276    82.914991 
   84100    863.21682   -114.71323   0.78105672   -113.93218    8082.8133    4.3567929    4.3567929    4.3567929    8082.8133    20002.964   -24643.938    28889.414    26569.943   -3071.2818    8223.0179    82.699093 
   84200    1695.0344   -115.45634    1.5337027   -113.92263   -4731.8952    4.3631803    4.3631803    4.3631803   -4731.8952    7719.6667   -21364.928   -550.42434   -26542.162   -377.16797   -16617.831    83.063354 
   84300    1140.6233   -114.95493    1.0320599   -113.92287    4417.4675     4.363961     4.363961     4.363961    4417.4675    13956.483   -33123.522    32419.442    35460.936   -3348.3698   -12588.334    83.107951 
   84400    968.75654   -114.79982   0.87655127   -113.92327   -4161.4268    4.3612373    4.3612373    4.3612373   -4161.4268   -20395.134   -40336.569    48247.422    20195.348    12863.968    2365.0329    82.952437 
   84500    1332.4565   -115.12441    1.2056346   -113.91878    2166.5232    4.3599996    4.3599996    4.3599996    2166.5232    2206.4411   -17346.151    21639.279   -47696.856   -5448.1273    672.51169    82.881831 
   84600    1455.2501   -115.23701    1.3167409   -113.92027     8921.785    4.3584718    4.3584718    4.3584718     8921.785    10473.137   -4077.2979    20369.516    26920.306   -6820.7455   -11906.659    82.794732 
   84700    1275.8764   -115.07973    1.1544397   -113.92529     2518.251    4.3604386    4.3604386    4.3604386     2518.251   -1556.1457   -15309.286    24420.184    16957.949    7429.4754   -3291.3168    82.906869 
   84800    857.60059   -114.70587   0.77597504   -113.92989    4408.9308     4.359574     4.359574     4.359574    4408.9308    12264.264   -13118.233    14080.762   -46471.402     2066.672    2371.3483    82.857562 
   84900    1419.7182   -115.20974    1.2845909   -113.92514    4725.7451    4.3630762    4.3630762    4.3630762    4725.7451   -3706.8651    2770.1212    15113.979    4555.9976   -5401.4757    2976.7517    83.057412 
   85000     1650.722    -115.4117     1.493608    -113.9181    8508.8294    4.3602567    4.3602567    4.3602567    8508.8294    16614.285   -9073.6185    17985.822    5292.3563   -849.88164   -11284.715    82.896496 
   85100    808.65393   -114.66205   0.73168707   -113.93036   -11162.113    4.3571189    4.3571189    4.3571189   -11162.113   -13168.765   -29028.517    8710.9429   -45022.644    9930.7109    7618.6076     82.71766 
   85200     1112.133   -114.93542    1.0062813   -113.92914   -11599.096    4.3612453    4.3612453    4.3612453   -11599.096   -18759.028   -5001.9753   -11036.285   -5953.9362   -26260.586    4249.6162    82.952893 
   85300    1645.8218   -115.41012    1.4891741   -113.92095    9295.0997    4.3565345    4.3565345    4.3565345    9295.0997    6850.7909    415.16842     20619.34    8199.7364   -15469.846   -7530.2981    82.684379 
   85400    1257.7627   -115.06818    1.1380501   -113.93013   -8194.0905    4.3567028    4.3567028    4.3567028   -8194.0905   -14988.309   -20408.957    10814.995   -37424.997    16863.153   -6250.5232    82.693964 
   85500    925.24228   -114.76917   0.83717865   -113.93199    4726.8849    4.3582348    4.3582348    4.3582348    4726.8849   -13380.235    8610.8351    18950.055   -13481.376    -11675.52    7328.2628    82.781227 
   85600      1441.77   -115.22867    1.3045438   -113.92413   -5642.4516    4.3610355    4.3610355    4.3610355   -5642.4516    117.05481    -2426.811   -14617.598    20753.218   -9160.2382     9299.544    82.940925 
   85700    1017.5689   -114.84754   0.92071776   -113.92683     11148.58    4.3582873    4.3582873    4.3582873     11148.58     5536.274   -21242.155    49151.622   -8054.9854     3952.435   -19413.855    82.784219 
   85800    1259.1832   -115.06179    1.1393354   -113.92245    7622.7383    4.3555137    4.3555137    4.3555137    7622.7383      3962.83    13249.641    5655.7439   -21953.281   -3043.5227    4301.8471     82.62627 
   85900    1064.0137   -114.88954   0.96274194   -113.92679   -6537.4304    4.3596138    4.3596138    4.3596138   -6537.4304   -9742.9779   -3855.9613   -6013.3519    36621.201   -1073.0513    2012.2318    82.859834 
   86000     999.4998   -114.83292   0.90436842   -113.92855    8678.2377    4.3589152    4.3589152    4.3589152    8678.2377    -367.9823   -28368.137    54770.832    23937.308    -8082.345   -10330.916    82.820006 
   86100    1607.7219   -115.37104    1.4547005   -113.91634    4814.1649    4.3607663    4.3607663    4.3607663    4814.1649    1438.5251    7308.6277     5695.342    -20082.45      7772.79   -12767.652    82.925564 
   86200    788.51036   -114.64286   0.71346074    -113.9294     -8394.72    4.3586567    4.3586567    4.3586567     -8394.72   -30668.696    -2820.113    8304.6485    35666.137    2415.5616    7622.2203    82.805274 
   86300    972.72141   -114.81376   0.88013877   -113.93362   -1580.0692    4.3534529    4.3534529    4.3534529   -1580.0692    -12864.47   -15720.757     23845.02     34669.17   -1074.1147   -19114.769    82.509042 
   86400    1731.0325   -115.48999    1.5662746   -113.92372    10038.409    4.3608591    4.3608591    4.3608591    10038.409    12615.511     10393.11    7106.6055   -17088.519    -5027.896   -11359.473    82.930857 
   86500    1153.2874   -114.97294    1.0435187   -113.92942   -13811.597    4.3665241    4.3665241    4.3665241   -13811.597   -24901.982   -25917.664    9384.8548    35631.182   -4043.4814    4149.2443    83.254473 
   86600    990.63388   -114.82193   0.89634635   -113.92558   -1590.4873     4.359246     4.359246     4.359246   -1590.4873   -20221.925   -4129.8041    19580.267    35591.028    4811.8321   -3737.7851    82.838865 
   86700    1685.6843   -115.44165    1.5252426    -113.9164    350.26081    4.3551261    4.3551261    4.3551261    350.26081    3882.0827    7254.9788   -10086.279   -32527.448   -7965.7184   -4443.0846    82.604216 
   86800    1027.6512   -114.85527   0.92984042   -113.92543    1930.8815    4.3576689    4.3576689    4.3576689    1930.8815   -18095.826   -8865.6069    32754.078    13550.264    7786.2677    -12910.63    82.748988 
   86900     1178.305   -114.99292    1.0661551   -113.92677   -10235.964    4.3616003    4.3616003    4.3616003   -10235.964   -36198.387    -1836.136    7326.6305    39248.044    -2212.054     18069.98    82.973153 
   87000    1356.5225   -115.14693    1.2274101   -113.91952   -5310.3708    4.3635986    4.3635986    4.3635986   -5310.3708   -17751.245    1437.1081    383.02492   -37862.092   -10103.166    -2281.986    83.087247 
   87100    1124.7339   -114.93628    1.0176828   -113.91859   -4965.7279     4.358267     4.358267     4.358267   -4965.7279    -15252.44    -17194.96    17550.216   -6942.7787    6208.9618   -11274.136    82.783063 
   87200    985.70763   -114.81229   0.89188898    -113.9204    3845.0842    4.3558084    4.3558084    4.3558084    3845.0842   -7716.1474    2685.3476    16566.052    41456.453    3199.1053    13115.227    82.643042 
   87300    1163.9702   -114.97235    1.0531847   -113.91917   -15599.911    4.3684428    4.3684428    4.3684428   -15599.911   -18976.836   -9928.4613   -17894.436   -26656.261    5919.0588    9616.8475    83.364269 
   87400     1215.533   -115.01758    1.0998398   -113.91774   -6855.5052     4.362018     4.362018     4.362018   -6855.5052   -20612.406   -16342.544    16388.434   -22244.356   -6633.5515    265.31879    82.996994 
   87500    1226.4192   -115.02535    1.1096899   -113.91566    17954.727    4.3509469    4.3509469    4.3509469    17954.727    17925.532    21919.759    14018.891    33210.979    3224.7798    3170.5712    82.366639 
   87600    1208.2383   -115.01806    1.0932394   -113.92482   -20936.271    4.3643523    4.3643523    4.3643523   -20936.271   -9389.3669    -23881.14   -29538.305   -2363.7379    11762.646    32050.609     83.13031 
   87700    1360.0096   -115.15288    1.2305653   -113.92232    1797.7325    4.3628052    4.3628052    4.3628052    1797.7325    1878.4429    5264.8789   -1750.1243   -33134.574    246.03509   -23.533505    83.041935 
   87800       1650.6   -115.40952    1.4934976   -113.91602    4793.2397    4.3602269    4.3602269    4.3602269    4793.2397    6876.7108    6226.9729    1276.0354    21831.446    7257.5585    5267.6701    82.894795 
   87900    1203.6135   -115.00982    1.0890548   -113.92077   -13925.219    4.3620618    4.3620618    4.3620618   -13925.219    22295.626   -38925.774   -25145.509    7302.4258     5379.008    38180.723    82.999496 
   88000    1136.4946   -114.94797    1.0283242   -113.91964    20905.007    4.3562259    4.3562259    4.3562259    20905.007    44447.097    17022.628    1245.2954   -36269.496    4455.7745    -2783.819     82.66681 
   88100     1561.125   -115.32532    1.4125387   -113.91278    364.91851     4.366271     4.366271     4.366271    364.91851    7097.6936    21852.677   -27855.615    9491.6541   -2299.8103    9022.5926    83.240001 
   88200    1127.6466   -114.94089    1.0203184   -113.92057   -8809.1864    4.3607907    4.3607907    4.3607907   -8809.1864    34332.389   -28107.423   -32652.525    1336.8808    7327.6391    36777.121    82.926954 
   88300    1045.0114   -114.86731   0.94554824   -113.92176    15222.414    4.3496239    4.3496239    4.3496239    15222.414    16838.589    40640.061   -11811.407   -16883.604   -622.60195     3671.788    82.291529 
   88400    1145.9905   -114.96103    1.0369163   -113.92411    511.05217    4.3650307    4.3650307    4.3650307    511.05217    2997.9127    35344.758   -36809.514   -7763.9401   -14638.326     512.3088    83.169081 
   88500    970.65489   -114.79959   0.87826894   -113.92132   -925.17887    4.3655559    4.3655559    4.3655559   -925.17887    29406.797     13411.35   -45593.684    2026.9045   -1887.5183    32871.358    83.199108 
   88600     1073.617   -114.88752   0.97143126   -113.91609    3018.8321     4.362604     4.362604     4.362604    3018.8321    18569.247    13512.543   -23025.294   -20566.063    3019.5155   -2010.9305    83.030445 
   88700    1435.2332   -115.20856    1.2986291   -113.90993   -3255.2026     4.357969     4.357969     4.357969   -3255.2026   -20271.245    29754.424   -19248.787   -12973.672   -16368.324    1466.3464    82.766084 
   88800    782.24242    -114.6322   0.70778938   -113.92441    8241.6847    4.3550283    4.3550283    4.3550283    8241.6847    60175.652   -7277.2651   -28173.333    12586.428   -4133.8367    37208.521    82.598647 
   88900    1242.5494   -115.04812    1.1242848   -113.92384   -19879.963    4.3646299    4.3646299    4.3646299   -19879.963    4600.8242   -30495.792   -33744.921   -23661.475    10308.168   -19048.798    83.146173 
   89000    1487.1678   -115.26266    1.3456207   -113.91704    323.87888    4.3584782    4.3584782    4.3584782    323.87888   -6475.5431    2356.6138    5090.5659    336.35413   -8565.5417   -6082.3376    82.795102 
   89100    1116.0177   -114.93464    1.0097963   -113.92485    201.90908    4.3539854    4.3539854    4.3539854    201.90908    29869.546   -9876.9383    -19386.88    15037.859   -1630.9351    44140.676    82.539325 
   89200    1165.6177   -114.97617    1.0546754    -113.9215    1371.9622    4.3620407    4.3620407    4.3620407    1371.9622     31885.05     -9430.38   -18338.784   -14026.702   -2747.2528   -16782.855     82.99829 
   89300    1461.6367   -115.23745    1.3225196   -113.91493   -10434.955    4.3663379    4.3663379    4.3663379   -10434.955   -22273.503   -10248.058    1216.6963     10917.26    5472.3995   -15216.154    83.243823 
   89400    1128.8991   -114.93985    1.0214516    -113.9184    6797.5858    4.3510388    4.3510388    4.3510388    6797.5858    21577.285   -13204.436    12019.908    11510.409   -4689.9594    43216.151    82.371858 
   89500    1268.4665   -115.07108    1.1477351   -113.92335    13407.128    4.3492794    4.3492794    4.3492794    13407.128    19593.791    18954.207    1673.3864    -7030.349   -22045.389   -4745.2563    82.271975 
   89600    1478.1721   -115.25904    1.3374811   -113.92155    5136.3878    4.3645232    4.3645232    4.3645232    5136.3878    2283.8642   -11550.919    24676.218   -1744.8422    10916.135   -21682.359    83.140074 
   89700     972.5114   -114.80064   0.87994875   -113.92069   -3471.2436    4.3683054    4.3683054    4.3683054   -3471.2436   -4131.7045    1399.7357   -7681.7621     12173.45    8667.2501    33607.712    83.356405 
   89800    1162.5299   -114.96612    1.0518815   -113.91424    13306.527    4.3558088    4.3558088    4.3558088    13306.527    19127.005    7771.7625    13020.814    -1448.632   -26595.276    7105.5155    82.643066 
   89900    1740.3052   -115.48323    1.5746647   -113.90857    13620.407    4.3465671    4.3465671    4.3465671    13620.407    10539.909    12156.978    18164.333   -1997.8089   -276.71341   -14600.145     82.11815 
   90000    815.05239   -114.66929   0.73747653   -113.93181   -14631.511    4.3587148    4.3587148    4.3587148   -14631.511   -15698.866    873.74035   -29069.407    20353.643    19460.091    22044.836    82.808583 
   90100    875.72062   -114.72773   0.79237042   -113.93536    -4941.907    4.3617133    4.3617133    4.3617133    -4941.907   -9595.8107    -339.1612   -4890.7491   -807.85369   -20975.599    23778.581      82.9796 
   90200    1670.7684   -115.43189    1.5117464   -113.92015    12260.773    4.3610593    4.3610593    4.3610593    12260.773   -5836.0429    2725.8238    39892.539   -5531.6738   -3693.9548   -8911.7702    82.942281 
   90300    1108.0567    -114.9325     1.002593   -113.92991    14273.188    4.3506956    4.3506956    4.3506956    14273.188    11893.389    1960.5545    28965.619    20049.019    11507.977    10876.481     82.35237 
   90400    882.40771   -114.73619   0.79842104   -113.93777   -445.20989    4.3571953    4.3571953    4.3571953   -445.20989    358.08453   -15317.315    13623.601     387.1365    -8416.798     27208.21    82.722009 
   90500    1577.5746   -115.34945    1.4274226   -113.92203   -12109.284    4.3658877    4.3658877    4.3658877   -12109.284   -27069.034   -4376.8288   -4881.9891   -4208.1401   -15428.662   -10078.847    83.218079 
   90600    1180.1569   -114.98929    1.0678307   -113.92145    8951.7033    4.3539094    4.3539094    4.3539094    8951.7033    38375.124   -30093.469    18573.455    8803.3949    7055.1518   -11937.464    82.535003 
   90700    1374.9284   -115.16433    1.2440641   -113.92026    -14889.83    4.3628309    4.3628309    4.3628309    -14889.83   -10766.773   -23585.994   -10316.725    9997.9235    6471.8459    27055.445    83.043403 
   90800    1365.8541   -115.15387    1.2358535   -113.91802   -7506.0961    4.3586513    4.3586513    4.3586513   -7506.0961    5347.3668    -11030.92   -16834.735   -14101.136   -12167.768   -11993.347    82.804962 
   90900    971.16103   -114.80621   0.87872691   -113.92749   -4495.6982    4.3569509    4.3569509    4.3569509   -4495.6982    24827.111   -44282.249    5968.0433    1581.2121   -1240.3474   -35306.547    82.708093 
   91000    1592.5999   -115.36057    1.4410179   -113.91955   -10501.313    4.3656858    4.3656858    4.3656858   -10501.313   -11247.362   -25145.023    4888.4447    20457.401    757.94691    7429.8512    83.206536 
   91100    1508.4514   -115.28001    1.3648786   -113.91513   -4876.4434    4.3617767    4.3617767    4.3617767   -4876.4434     6071.446   -17578.363   -3122.4127   -17657.773   -2403.4212   -10615.792    82.983222 
   91200    1019.6552   -114.84336   0.92260547   -113.92076     -15696.9    4.3598788    4.3598788    4.3598788     -15696.9    16851.773   -49731.466   -14211.008   -4671.0323   -7132.8905   -41953.875    82.874947 
   91300    1502.4781   -115.27606    1.3594737   -113.91659   -4513.6811    4.3592922    4.3592922    4.3592922   -4513.6811   -49.265924   -22934.697    9442.9197     19859.61   -6055.2908    11624.809    82.841497 
   91400    1488.7222    -115.2618    1.3470272   -113.91477   -7556.3951    4.3623505    4.3623505    4.3623505   -7556.3951    15358.181   -12675.994   -25351.372    5130.0401    21871.932   -6872.6086    83.015974 
   91500    1406.2806   -115.18638    1.2724322   -113.91395   -9457.1058    4.3667989    4.3667989    4.3667989   -9457.1058    20371.376   -36077.139   -12665.554   -13008.231   -9063.4171   -23114.227    83.270197 
   91600    1211.4737   -115.00503    1.0961668   -113.90886   -14352.448    4.3651962    4.3651962    4.3651962   -14352.448   -10896.105   -34498.881    2337.6437    18274.177    5665.5213    8421.1476    83.178541 
   91700    1112.1435   -114.91902    1.0062908   -113.91273   -8307.7058    4.3604436    4.3604436    4.3604436   -8307.7058    14322.231   -20141.781   -19103.567    4318.3238    16120.416    8329.9174    82.907158 
   91800    1259.8638   -115.05554    1.1399513   -113.91558   -2815.0983    4.3590053    4.3590053    4.3590053   -2815.0983    24727.592   -29089.414   -4083.4733   -7150.5871    -5432.733   -15064.731    82.825141 
   91900    1039.8776   -114.86426   0.94090313   -113.92335    15342.921    4.3522291    4.3522291    4.3522291    15342.921    22453.728   -17828.847    41403.882    4670.6961    2883.8281   -3557.3058    82.439481 
   92000    1042.6457   -114.87631   0.94340776    -113.9329    3922.7805     4.362466     4.362466     4.362466    3922.7805    11248.519   -22711.424    23231.247    12670.126    10665.369    21152.961    83.022566 
   92100    1383.2696   -115.17347    1.2516114   -113.92185    2796.3926    4.3640064    4.3640064    4.3640064    2796.3926    32056.573   -17819.768   -5847.6274   -10077.295    15688.868    2810.7768    83.110545 
   92200    961.47459   -114.79242   0.86996241   -113.92246    18101.482    4.3529012    4.3529012    4.3529012    18101.482    2411.9115   -9983.0296    61875.565    4753.8159    -14178.88    -9120.852    82.477678 
   92300    1045.6435   -114.87544   0.94612024   -113.92932   -18734.116    4.3567264    4.3567264    4.3567264   -18734.116   -3696.1142   -44632.569   -7873.6657    19337.419    2674.9153    38745.581    82.695305 
   92400    1566.1879   -115.33987    1.4171197   -113.92275    11222.734    4.3505646    4.3505646    4.3505646    11222.734    35629.401   -9486.0514    7524.8533   -5559.9671    2176.6411     25634.72    82.344932 
   92500    1340.7342   -115.14584    1.2131245   -113.93271   -13017.183    4.3633706    4.3633706    4.3633706   -13017.183    -37525.17   -23201.727    21675.347    3211.2262   -13940.156   -12282.365    83.074225 
   92600    728.53113   -114.59129   0.65919028    -113.9321   -20279.653    4.3651201    4.3651201    4.3651201   -20279.653   -25427.443   -49031.288    13619.772    8996.6678   -158.90805    25854.854    83.174194 
   92700    1579.0622   -115.34308    1.4287687   -113.91431    12383.401    4.3454267    4.3454267    4.3454267    12383.401    44990.006   -15725.757    7885.9527   -1525.9235    -6632.673    18513.075    82.053533 
   92800    1180.0235   -114.99355      1.06771   -113.92584   -9363.6895    4.3577274    4.3577274    4.3577274   -9363.6895   -8435.4406   -19912.207    256.57939    7418.7237    5920.4058   -23911.684    82.752322 
   92900    971.85201   -114.80859   0.87935212   -113.92924   -1316.0702    4.3582597    4.3582597    4.3582597   -1316.0702   -2609.2906   -26123.635    24784.715    3940.8149   -23950.576    9549.9509    82.782648 
   93000    1371.7543   -115.16285    1.2411922   -113.92165     11446.96    4.3589452    4.3589452    4.3589452     11446.96    36514.851   -20124.585    17950.613   -5450.9245    12514.601    4280.7231    82.821715 
   93100    889.08279   -114.73068   0.80446079   -113.92622   -16028.654    4.3616231    4.3616231    4.3616231   -16028.654   -1771.9593   -8865.4353   -37448.567     8826.793    27104.112   -24779.365    82.974452 
   93200    1080.2643   -114.90034   0.97744582   -113.92289    11809.206     4.342206     4.342206     4.342206    11809.206    14689.394    6092.5537    14645.671    4786.5572   -34365.172   -1284.3343    81.871223 
   93300    1434.7867   -115.22552    1.2982252    -113.9273   -1281.8849    4.3594721    4.3594721    4.3594721   -1281.8849   -18193.933   -9131.4788    23479.757    1126.1126    1799.3761    6054.3859    82.851756 
   93400    1091.5646    -114.9154   0.98767059   -113.92773   -8943.4224    4.3640252    4.3640252    4.3640252   -8943.4224   -5393.0894    1550.1028   -22987.281    189.57716     38594.89   -22260.093     83.11162 
   93500    1121.5837   -114.93897    1.0148325   -113.92413    12676.901    4.3525078    4.3525078    4.3525078    12676.901   -7069.7898    20281.033    24819.458    4544.3754   -25334.372   -8939.2529    82.455319 
   93600    1632.1202   -115.39459    1.4767766   -113.91781   -10275.292    4.3589976    4.3589976    4.3589976   -10275.292   -35101.252    12137.295   -7861.9185      2439.28    -25379.58    9126.4307    82.824705 
   93700    966.85713   -114.80174   0.87483265    -113.9269    13841.831    4.3486708    4.3486708    4.3486708    13841.831   -5854.5236    41141.666     6238.352   -1577.0391    42825.681   -11594.177    82.237441 
   93800       1167.4   -114.98992    1.0562881   -113.93364   -4955.6711    4.3601902    4.3601902    4.3601902   -4955.6711   -17147.833    20167.675   -17886.855    8168.3155    1557.3831   -16566.431    82.892706 
   93900    1667.4782   -115.42728    1.5087693   -113.91851   -352.02463    4.3630349    4.3630349    4.3630349   -352.02463   -14074.342    12848.294    169.97404   -9842.9405   -22848.681    14698.288    83.055052 
   94000    837.57076   -114.68729   0.75785162   -113.92943     783.8451    4.3454174    4.3454174    4.3454174     783.8451    5350.7071    44934.178   -47933.349   -1599.4507    37331.693      3187.76    82.053008 
   94100     874.4933   -114.72998   0.79125992   -113.93872   -18850.887    4.3572258    4.3572258    4.3572258   -18850.887    6598.6049    1345.7473   -64497.013   -2036.2047    22652.144   -36201.387    82.723748 
   94200    1899.9286   -115.63538    1.7190953   -113.91629   -366.00906     4.361789     4.361789     4.361789   -366.00906   -10374.998    14583.475   -5306.5038   -9561.9023   -7142.1394    -587.4671    82.983925 
   94300    1014.2975   -114.84505   0.91775768   -113.92729   -13386.084    4.3608168    4.3608168    4.3608168   -13386.084    -16634.26    16544.547   -40068.537   -279.10955    32865.078   -570.28126    82.928445 
   94400    592.76227   -114.46952   0.53634376   -113.93317    -19716.54    4.3553321    4.3553321    4.3553321    -19716.54    11290.029    -6138.009   -64301.641   -2534.0573    21965.636    -34548.84    82.615937 
   94500    1329.6069   -115.13078    1.2030563   -113.92772    10674.804    4.3491834    4.3491834    4.3491834    10674.804   -5983.5606    41289.653   -3281.6804    1932.5068   -19429.779   -5391.0042    82.266528 
   94600    1250.5236    -115.0606       1.1315    -113.9291    5898.5775    4.3603097    4.3603097    4.3603097    5898.5775   -27609.231    56908.723    -11603.76    -5632.369    8501.1893    11718.723    82.899519 
   94700     929.7086   -114.76786   0.84121988   -113.92664   -15870.052    4.3679397    4.3679397    4.3679397   -15870.052   -321.72991   -12485.756    -34802.67   -618.61606    29188.866   -34050.903    83.335472 
   94800    1109.9686   -114.92399    1.0043229   -113.91966   -1448.1785    4.3551574    4.3551574    4.3551574   -1448.1785   -6739.7469    15820.903   -13425.692   -346.37324   -30769.867   -6085.1775    82.605997 
   94900    1505.0349   -115.27899    1.3617872   -113.91721    10156.428    4.3467512    4.3467512    4.3467512    10156.428   -5235.0555    42676.283   -6971.9433   -1283.1916   -22388.582    6813.4571    82.128585 
   95000    1356.3679   -115.15256    1.2272702   -113.92529   -128.29369    4.3612778    4.3612778    4.3612778   -128.29369     5581.803   -228.96831   -5737.7157    2664.8114     19609.61   -29098.418     82.95475 
   95100    972.46576   -114.80956   0.87990746   -113.92965   -8488.9736    4.3641807    4.3641807    4.3641807   -8488.9736   -4126.3599    4934.3079   -26274.869   -4689.6801   -22696.348   -25412.678    83.120507 
   95200    1266.6583   -115.06553    1.1460991   -113.91943    29093.562    4.3534502    4.3534502    4.3534502    29093.562    26961.863    28902.508    31416.314    3916.4867   -35933.644    14126.863    82.508891 
   95300    1546.3614   -115.31728    1.3991803    -113.9181      8527.04    4.3561574    4.3561574    4.3561574      8527.04    24283.959   -18431.452    19728.612   -4014.7974     8909.276   -26120.656    82.662911 
   95400    1011.5749   -114.84531   0.91529426   -113.93001    7002.8815    4.3510589    4.3510589    4.3510589    7002.8815    29772.009    7905.7367   -16669.101   -679.08777   -16927.048   -26372.201    82.372998 
   95500    935.46689   -114.78223    0.8464301    -113.9358   -463.67019    4.3586096    4.3586096    4.3586096   -463.67019   -5874.2711    14801.884   -10318.623   -4444.0858   -37294.627    16939.858    82.802591 
   95600     1243.802   -115.04956    1.1254182   -113.92414   -5453.3318    4.3664331    4.3664331    4.3664331   -5453.3318    23054.144     -29466.4   -9947.7391   -4474.7937    15987.693   -2916.3669    83.249267 
   95700    1229.7378   -115.03299    1.1126926    -113.9203    11427.506    4.3447423    4.3447423    4.3447423    11427.506    26201.101    11030.032   -2948.6165    3628.4284   -22240.483    -24141.48    82.014769 
   95800    986.99328   -114.82346   0.89305226   -113.93041    -2944.959    4.3519195    4.3519195    4.3519195    -2944.959   -14837.767    25294.251   -19291.362   -3541.9647   -42376.088     7535.663    82.421886 
   95900    1608.5453   -115.37368    1.4554456   -113.91824   -5018.9217    4.3640015    4.3640015    4.3640015   -5018.9217   -506.46474   -17844.125    3293.8246    4866.2975    20775.174    15112.677    83.110269 
   96000    1038.9903   -114.86362   0.94010028   -113.92352    1256.1696    4.3601755    4.3601755    4.3601755    1256.1696    5325.1119   -8309.2801     6752.677   -1408.6918   -27829.808   -11778.721    82.891865 
   96100    1082.4673   -114.90752   0.97943915   -113.92808   -12351.133    4.3561774    4.3561774    4.3561774   -12351.133   -12487.113    13154.591   -37720.875    789.70418   -55421.259   -12742.582    82.664049 
   96200    1976.7808   -115.70271    1.7886328   -113.91408    22773.493    4.3464313    4.3464313    4.3464313    22773.493    25962.353    5574.1651    36783.962   -5745.3932    24574.158    3163.7512    82.110454 
   96300    1097.5962   -114.93097   0.99312808   -113.93784   -12858.359     4.358453     4.358453     4.358453   -12858.359    -19020.63    6059.6238   -25614.071    3248.5267    -33716.78    3193.8423    82.793665 
   96400    531.27635   -114.42457      0.48071   -113.94386   -18675.065    4.3628099    4.3628099    4.3628099   -18675.065   -23773.629    5164.4739    -37416.04    865.65214   -48784.149       -23045    83.042202 
   96500    1605.0232   -115.37442    1.4522587   -113.92216    17245.212    4.3518964    4.3518964    4.3518964    17245.212    12109.885   -3432.8289    43058.579   -220.95753    16495.736   -10271.969    82.420574 
   96600    1280.7178   -115.08682    1.1588204     -113.928    13502.041    4.3489557    4.3489557    4.3489557    13502.041   -1472.1304    31624.521    10353.733    111.95687   -31750.822    8265.4453    82.253606 
   96700    620.57878   -114.49655   0.56151272   -113.93504   -8914.7438    4.3619983    4.3619983    4.3619983   -8914.7438   -38491.957    11382.221    365.50433    6032.5387   -31148.924   -15372.208     82.99587 
   96800     1135.647   -114.95289    1.0275573   -113.92533   -18720.762    4.3614196    4.3614196    4.3614196   -18720.762    5068.0125   -37705.925   -23524.374    8864.3963    10236.495   -10829.948    82.962838 
   96900     1276.094   -115.07531    1.1546366   -113.92068    10792.046    4.3464633    4.3464633    4.3464633    10792.046   -11372.859    28317.699    15431.298   -5729.4503   -11786.765     12790.38     82.11227 
   97000    1306.4345   -115.10662    1.1820894   -113.92453    -9724.375    4.3568574    4.3568574    4.3568574    -9724.375   -17402.319    7344.8818   -19115.688    7393.1615   -34985.407   -10844.065    82.702764 
   97100    1140.2009   -114.95858    1.0316777    -113.9269   -11416.251    4.3578451    4.3578451    4.3578451   -11416.251    20619.065   -32195.696   -22672.121    3652.4742    8545.2392   -25016.448    82.759026 
   97200    1154.5402   -114.97283    1.0446522   -113.92818    845.55224    4.3571772    4.3571772    4.3571772    845.55224   -1492.9504    -3643.264    7672.8711   -1582.6963   -3916.7862    16482.622    82.720979 
   97300    1604.7643   -115.37376    1.4520245   -113.92173   -9586.3264    4.3572334    4.3572334    4.3572334   -9586.3264   -12884.066   -1368.2805   -14506.633   -10311.674   -30756.235   -4092.2522    82.724181 
   97400    1149.3517   -114.96316    1.0399576    -113.9232    26832.327    4.3438512    4.3438512    4.3438512    26832.327    48237.693    19400.113    12859.176    759.91534    5575.2358   -45130.896    81.964316 
   97500    1191.9199    -115.0065    1.0784742   -113.92802   -7952.7462     4.364717     4.364717     4.364717   -7952.7462    240.63281   -28561.115    4462.2437    4610.5986   -5347.7272    20485.447     83.15115 
   97600    1225.8617   -115.03014    1.1091854   -113.92096   -1225.8308     4.362961     4.362961     4.362961   -1225.8308    -8579.753    24725.085   -19822.825   -6111.9245   -16200.183    9485.5364    83.050835 
   97700    1072.1988   -114.88986   0.97014798   -113.91971    28703.769    4.3369505    4.3369505    4.3369505    28703.769    42328.588    11084.047    32698.673   -11684.516     5762.928   -52918.676    81.574306 
   97800    1262.0685   -115.06891    1.1419461   -113.92696    4760.4385    4.3528289    4.3528289    4.3528289    4760.4385    25534.459   -10231.229   -1021.9141    867.22469   -6179.7822    10599.665    82.473568 
   97900    1237.0541    -115.0407    1.1193126   -113.92139   -6914.3082     4.366495     4.366495     4.366495   -6914.3082    -9436.046    12609.961    -23916.84    2291.8549    -5560.437    16934.304    83.252812 
   98000    942.41159   -114.77488   0.85271381   -113.92217   -885.70271    4.3570878    4.3570878    4.3570878   -885.70271    6801.0853   -30632.563    21174.369   -19181.445    917.40067   -50443.724     82.71589 
   98100    1442.1902   -115.22318     1.304924   -113.91826    7041.5149     4.345716     4.345716     4.345716    7041.5149    33731.483   -10020.095   -2586.8426    4039.8963     3448.631   -2516.5958    82.069924 
   98200    1449.2061   -115.23576    1.3112722   -113.92449    1233.5249    4.3502063    4.3502063    4.3502063    1233.5249     1968.309   -3626.5685    5358.8342    273.30316   -3651.5526    37634.875    82.324584 
   98300    811.78684   -114.67038   0.73452179   -113.93585   -21526.926    4.3634943    4.3634943    4.3634943   -21526.926    -22881.49   -28149.957   -13549.332    -21464.75   -18956.465   -43028.626    83.081293 
   98400    1410.9614   -115.20178    1.2766675   -113.92511   -13798.875    4.3618399    4.3618399    4.3618399   -13798.875    3699.0985   -10149.049   -34946.674    7832.5487    14872.016   -14770.786    82.986825 
   98500    1625.2683   -115.38389    1.4705769   -113.91332    10989.975    4.3493378    4.3493378    4.3493378    10989.975    9305.2704     15067.33    8597.3237   -1706.7044   -5080.2492    27977.875    82.275288 
   98600    849.77356    -114.6997   0.76889298    -113.9308   -11065.693    4.3497636    4.3497636    4.3497636   -11065.693   -13620.788    8087.3229   -27663.613   -18657.201    -30233.74   -35222.107    82.299456 
   98700    937.58927   -114.78669   0.84835047   -113.93834   -5590.2428    4.3598463    4.3598463    4.3598463   -5590.2428   -3546.2243    13115.741   -26340.245   -7094.4826    15665.397   -28551.142    82.873092 
   98800     1835.459   -115.58246    1.6607619    -113.9217     1264.204    4.3600034    4.3600034    4.3600034     1264.204   -16607.428    23569.872   -3169.8323    2034.6914    3868.0274    4007.3196    82.882051 
   98900    762.39096   -114.61939   0.68982736   -113.92956    3376.5945    4.3600466    4.3600466    4.3600466    3376.5945     53.86426    9401.8401    674.07896   -13129.022   -31010.753   -24671.044    82.884514 
   99000    878.03864   -114.71121   0.79446782   -113.91674   -9506.0447    4.3681226    4.3681226    4.3681226   -9506.0447    -18238.17   -21793.184    11513.219   -4921.2158    9449.0486    -30243.18    83.345939 
   99100    1521.6757   -115.27735    1.3768442   -113.90051    3005.7816    4.3631137    4.3631137    4.3631137    3005.7816   -20558.716   -502.48241    30078.543    3516.1602    6126.1598     9012.326    83.059553 
   99200    723.40215   -114.57414   0.65454947   -113.91959   -11340.387     4.353061     4.353061     4.353061   -11340.387   -22341.212   -12841.275    1161.3263   -15439.995   -36883.837    -15741.27    82.486761 
   99300    901.78197     -114.747   0.81595127   -113.93105   -15084.928    4.3533216    4.3533216    4.3533216   -15084.928   -5333.0966   -38089.543   -1832.1445   -16685.104   -9992.0285   -35656.336    82.501576 
   99400    2000.3267   -115.72682    1.8099377   -113.91689   -4880.6332    4.3652776    4.3652776    4.3652776   -4880.6332    -7784.722   -9070.2022    2213.0245    5011.0977    4626.3263    10893.347    83.183196 
   99500    834.57671   -114.67598   0.75514254   -113.92084   -13357.325    4.3756081    4.3756081    4.3756081   -13357.325   -27424.998   -24086.883    11439.906   -12708.042   -31748.636   -13537.653    83.775158 
   99600    1196.0786   -114.99072    1.0822371   -113.90848   -12336.797    4.3654533    4.3654533    4.3654533   -12336.797    2475.8334   -29095.723   -10390.501   -8572.2993   -5169.8154   -27400.629    83.193241 
   99700     2044.219   -115.73939    1.8496523   -113.88974    24863.633    4.3423899    4.3423899    4.3423899    24863.633    22282.011    17155.569    35153.321   -457.11886    5194.7283    15423.829    81.881623 
   99800    884.60929   -114.72504   0.80041308   -113.92463   -6182.3938    4.3549137    4.3549137    4.3549137   -6182.3938    2470.6974   -19785.495   -1232.3835   -5631.2611   -20787.349   -24014.705    82.592131 
   99900    988.00943   -114.81619    0.8939717   -113.92222   -26483.492    4.3706397    4.3706397    4.3706397   -26483.492    -1251.601   -35306.377   -42892.497   -11252.489   -14465.124   -37710.998    83.490106 
  100000    1616.9554   -115.37111    1.4630552   -113.90806    8960.4814    4.3527948    4.3527948    4.3527948    8960.4814    12772.981    20250.215   -6141.7522    524.07921    28413.579    16860.414    82.471632 
Loop time of 21.7987 on 1 procs for 100000 steps with 8 atoms

Pair  time (%) = 6.80318 (31.2091)
Kspce time (%) = 5.28362 (24.2383)
Neigh time (%) = 0.0331485 (0.152067)
Comm  time (%) = 1.028 (4.71588)
Outpt time (%) = 0.0239298 (0.109777)
Other time (%) = 8.6268 (39.5749)

Nlocal:    8 ave 8 max 8 min
Histogram: 1 0 0 0 0 0 0 0 0 0
Nghost:    2056 ave 2056 max 2056 min
Histogram: 1 0 0 0 0 0 0 0 0 0
Neighs:    2051 ave 2051 max 2051 min
Histogram: 1 0 0 0 0 0 0 0 0 0

Total # of neighbors = 2051
Ave neighs/atom = 256.375
Neighbor list builds = 390
Dangerous builds = 0
unfix 20
unfix 21
print "seeds:9282534"
seeds:9282534
