LAMMPS (10 Feb 2015)
# ---- initialize simulations
clear
units metal
dimension 3
boundary p p p
atom_style charge
atom_modify map array
# ---- create atoms
read_data /Users/eugeneragasa/pyflamestk_git/pypospack/tests/tests_integration/workflow/WorkflowLammpsThermalExpansion/param_3101/MgO_NaCl_unit.npt.T1600/lammps.structure
  triclinic box = (0 0 0) to (4.2565 4.2565 4.2565) with tilt (0 0 0)
  1 by 1 by 1 MPI processor grid
  reading atoms ...
  8 atoms
# ---- define interatomic potential
include potential.mod
mass 1 24.305
mass 2 15.999

group Mg type 1
4 atoms in group Mg
group O type 2
4 atoms in group O

set group Mg charge 1.61886676565
  4 settings made for charge
set group O charge -1.61886676565
  4 settings made for charge

variable R_cut equal 10.0

pair_style buck/coul/long ${R_cut}
pair_style buck/coul/long 10
pair_coeff 1 1 0.0 0.5 0.0 ${R_cut}
pair_coeff 1 1 0.0 0.5 0.0 10
pair_coeff 1 2 1642.32869573 0.278339228763 0.0 ${R_cut}
pair_coeff 1 2 1642.32869573 0.278339228763 0.0 10
pair_coeff 2 2 10249.6145692 0.172187509684 14.0611166933 ${R_cut}
pair_coeff 2 2 10249.6145692 0.172187509684 14.0611166933 10

kspace_style pppm 1.0e-5

neighbor 1.0 bin
neigh_modify every 1 delay 0 check yes
# ---- define settings
compute eng all pe/atom
compute eatoms all reduce sum c_eng
# ---- run minimization
reset_timestep 0
fix 1 all box/relax iso 0.0 vmax 0.001
thermo 10
thermo_style custom step pe lx ly lz xy xz yz press pxx pyy pzz pxy pxz pyz c_eatoms
min_style cg
minimize 1e-25 1e-25 5000 10000
PPPM initialization ...
  G vector (1/distance) = 0.352512
  grid = 8 8 8
  stencil order = 5
  estimated absolute RMS force accuracy = 3.81673e-05
  estimated relative force accuracy = 2.65057e-06
  using double precision FFTs
  3d grid and FFT values/proc = 3375 512
Neighbor list info ...
  1 neighbor list requests
  update every 1 steps, delay 0 steps, check yes
  master list distance cutoff = 11
Memory usage per processor = 4.06549 Mbytes
Step PotEng Lx Ly Lz Xy Xz Yz Press Pxx Pyy Pzz Pxy Pxz Pyz eatoms 
       0   -105.55076       4.2565       4.2565       4.2565            0            0            0    126453.59    126453.59    126453.59    126453.59 4.0363335e-11 4.044677e-11 1.0723156e-10   -105.55076 
      10   -105.69165     4.299065     4.299065     4.299065            0            0            0    68786.015    68786.015    68786.015    68786.015 -1.0242962e-10 -4.708445e-11 -3.569371e-11   -105.69165 
      20   -105.75532      4.34163      4.34163      4.34163            0            0            0    18126.479    18126.479    18126.479    18126.479 7.5197513e-11 1.703257e-11 -3.0007315e-11   -105.75532 
      27   -105.76066    4.3583247    4.3583247    4.3583247            0            0            0    1.3863117    1.3863117    1.3863117    1.3863117 -6.2572681e-11 -1.3142723e-10 -3.2118437e-11   -105.76066 
Loop time of 0.0153551 on 1 procs for 27 steps with 8 atoms

Minimization stats:
  Stopping criterion = linesearch alpha is zero
  Energy initial, next-to-last, final = 
        -105.550764672     -105.760658065     -105.760658065
  Force two-norm initial, final = 18.26 0.000217628
  Force max component initial, final = 18.26 0.000209876
  Final line search alpha, max atom move = 0.25 5.24691e-05
  Iterations, force evaluations = 27 40

Pair  time (%) = 0.00423241 (27.5635)
Kspce time (%) = 0.00251007 (16.3468)
Neigh time (%) = 0 (0)
Comm  time (%) = 0.000466824 (3.04018)
Outpt time (%) = 2.28882e-05 (0.149059)
Other time (%) = 0.00812292 (52.9004)

Nlocal:    8 ave 8 max 8 min
Histogram: 1 0 0 0 0 0 0 0 0 0
Nghost:    2189 ave 2189 max 2189 min
Histogram: 1 0 0 0 0 0 0 0 0 0
Neighs:    2344 ave 2344 max 2344 min
Histogram: 1 0 0 0 0 0 0 0 0 0

Total # of neighbors = 2344
Ave neighs/atom = 293
Neighbor list builds = 0
Dangerous builds = 0
unfix 1
# ---- define output variables ----
variable natoms equal "count(all)"
variable tot_energy equal "c_eatoms"
variable length_x equal "lx"
variable length_y equal "ly"
variable length_z equal "lz"
variable tilt_xy equal "xy"
variable tilt_xz equal "xz"
variable tilt_yz equal "yz"
variable tot_press equal "press"
variable press_xx equal "pxx"
variable press_yy equal "pyy"
variable press_zz equal "pzz"
variable press_xy equal "pxy"
variable press_xz equal "pxz"
variable press_yz equal "pyz"

# ---- output ----
print "pypospack:output_section:begin"
pypospack:output_section:begin
print "tot_energy = ${tot_energy}"
tot_energy = -105.760658064539
print "num_atoms = ${natoms}"
num_atoms = 8
print "xx = ${length_x}"
xx = 4.35832471527479
print "yy = ${length_y}"
yy = 4.35832471527479
print "zz = ${length_z}"
zz = 4.35832471527479
print "xy = ${tilt_xy}"
xy = 0
print "xz = ${tilt_xz}"
xz = 0
print "yz = ${tilt_yz}"
yz = 0
print "tot_press = ${tot_press}"
tot_press = 1.38631174704167
print "pxx = ${press_xx}"
pxx = 1.38631174709188
print "pyy = ${press_yy}"
pyy = 1.38631174731354
print "pzz = ${press_zz}"
pzz = 1.3863117467196
print "pxy = ${press_xy}"
pxy = -6.25726806975275e-11
print "pxz = ${press_xz}"
pxz = -1.31427228854923e-10
print "pyz = ${press_yz}"
pyz = -3.21184365171528e-11
print "pypospack:output_section:done"
pypospack:output_section:done
print "pypospack:lammps_sim:done"
pypospack:lammps_sim:done
#------------------------------------------------------------------------------
# RUN THERMOSTAT
# running using an NPT Nose-Hoover style thermostat
#------------------------------------------------------------------------------
variable tempdamp equal 0.1
variable pressdamp equal 1.0
# set initial velocities
velocity all create 1600 5427701 mom yes dist gaussian loop all
# fix for Nose-Hoover style thermostat
fix 20 all npt temp 1600 1600 0.1 aniso 0.0 0.0 1.0 drag 1.0 couple xyz
variable boxx equal lx
variable boxy equal ly
variable boxz equal lz
variable boxp equal press
variable boxt equal temp
# calculate averages every 10000 steps
reset_timestep 0
fix 21 all ave/time 10 10 100 v_boxx v_boxy v_boxz v_boxp v_boxt file lattice.out
thermo_style custom step temp pe ke etotal press lx ly lz press pxx pyy pzz pxy pxz pyz vol
thermo_modify flush yes
thermo 100
run 100000
PPPM initialization ...
  G vector (1/distance) = 0.351503
  grid = 8 8 8
  stencil order = 5
  estimated absolute RMS force accuracy = 3.99806e-05
  estimated relative force accuracy = 2.7765e-06
  using double precision FFTs
  3d grid and FFT values/proc = 3375 512
Memory usage per processor = 3.06549 Mbytes
Step Temp PotEng KinEng TotEng Press Lx Ly Lz Press Pxx Pyy Pzz Pxy Pxz Pyz Volume 
       0         1600   -105.76067    1.4477136   -104.31296    18677.787    4.3583247    4.3583247    4.3583247    18677.787    17497.657    27920.659    10615.045   -12034.945    3065.4048    6459.9482    82.786353 
     100     468.4452   -104.56853   0.42385906   -104.14467    34526.733    4.3923722    4.3923722    4.3923722    34526.733    56054.802     28498.85    19026.547    15432.321   -5006.5989   -1465.1187    84.741743 
     200    1179.6527   -104.80724    1.0673745   -103.73986   -36225.998    4.4502135    4.4502135    4.4502135   -36225.998   -4382.2334    -47979.51   -56316.251    -9368.369   -5835.8762    7935.2142    88.133809 
     300    1371.2622   -104.63399    1.2407469   -103.39324   -9784.5884    4.4516911    4.4516911    4.4516911   -9784.5884    39895.756   -25535.315   -43714.206    18388.083   -9634.5707     3099.878    88.221627 
     400    1249.0068   -104.22709    1.1301276   -103.09696   -76.412112    4.4311814    4.4311814    4.4311814   -76.412112   -11930.724   -4965.8315    16667.319    16945.173   -7114.6765   -2642.5318    87.007882 
     500    2229.7849    -104.9403    2.0175562   -102.92274   -11089.108    4.4344059    4.4344059    4.4344059   -11089.108    20916.115   -21982.999   -32200.439   -3453.0987   -5105.8222    13454.829    87.197963 
     600    993.10576   -103.74273   0.89858296   -102.84415   -12360.098    4.4615351    4.4615351    4.4615351   -12360.098    31322.083   -53752.853   -14649.525    23101.191    8534.5121   -8199.7797    88.808173 
     700    1814.4127   -104.41579    1.6417187   -102.77407   -4664.2462    4.4553919    4.4553919    4.4553919   -4664.2462    30571.957   -49241.988    4677.2927   -9285.4414   -5154.7523    -2492.994    88.441834 
     800    1595.5424   -104.20547    1.4436803   -102.76179    -2005.765    4.4419245    4.4419245    4.4419245    -2005.765   -8949.1937   -7151.1048    10083.004    17968.388     8510.174    7197.0355    87.642248 
     900    1260.6385   -103.90545    1.1406522    -102.7648    12203.879    4.4348464    4.4348464    4.4348464    12203.879    60958.355   -43669.355    19322.636    13751.367    11782.713   -6731.6519    87.223948 
    1000    1413.0446   -104.06026    1.2785525   -102.78171    35897.951    4.4383274    4.4383274    4.4383274    35897.951     8421.822    15852.024    83420.007    16430.402    2357.3979   -23506.098    87.429505 
    1100    1823.5568   -104.45551    1.6499925   -102.80552   -29257.063     4.466737     4.466737     4.466737   -29257.063   -27551.382   -39666.451   -20553.355     478.3676   -10999.186   -7444.4256     89.11917 
    1200    1816.4197    -104.4124    1.6435347   -102.76886   -13397.213    4.4654053    4.4654053    4.4654053   -13397.213     502.0574   -29003.226   -11690.471    12627.196     17612.21    17632.964    89.039486 
    1300    1303.0312   -103.94516      1.17901   -102.76615    33528.248    4.4305926    4.4305926    4.4305926    33528.248    27812.596    30517.715    42254.431    4657.6342    4286.4333   -12399.219    86.973201 
    1400    1770.5696   -104.41702    1.6020486   -102.81498    16083.201    4.4330187    4.4330187    4.4330187    16083.201     15431.85    -35295.44    68113.191     2349.062   -21408.361   -7745.7384    87.116153 
    1500    1693.1162   -104.37793    1.5319671   -102.84596   -17930.578    4.4631143    4.4631143    4.4631143   -17930.578    4508.8051    -14413.36   -43887.179   -9433.2118    6847.1699   -18843.369    88.902513 
    1600    1553.0083   -104.20463    1.4051946   -102.79944   -27158.937     4.475097     4.475097     4.475097   -27158.937   -34945.855   -52342.674    5811.7189    8176.6914    -16195.11   -10339.984    89.620497 
    1700    1713.2948   -104.29988    1.5502251   -102.74966    -5661.842    4.4446939    4.4446939    4.4446939    -5661.842   -16152.203   -34971.707    34138.384    1608.7063     5515.527    -14559.59    87.806279 
    1800    1495.4374   -104.12681    1.3531032   -102.77371    26188.871    4.4356631    4.4356631    4.4356631    26188.871    7590.8353    23092.425    47883.351    -13941.62    6545.8858   -10021.484    87.272146 
    1900    1034.8418   -103.74549   0.93634663   -102.80914    311.92655    4.4663014    4.4663014    4.4663014    311.92655    5430.3606   -18724.125    14229.544   -6430.1074   -1157.2411    28316.228    89.093104 
    2000    1298.1104   -103.93506    1.1745576    -102.7605   -14639.212    4.4778081    4.4778081    4.4778081   -14639.212    34140.838   -19100.674   -58957.799   -14074.761    17826.453   -7484.2875    89.783478 
    2100    1138.9885   -103.75294    1.0305807   -102.72236    46237.762     4.445333     4.445333     4.445333    46237.762    29758.997    26732.076    82222.214   -7633.7044    22362.543   -381.16925    87.844162 
    2200    1873.0196    -104.4584    1.6947475   -102.76365   -17452.144    4.4410086    4.4410086    4.4410086   -17452.144    17796.178   -55299.342    -14853.27    5510.3702    10781.118   -9229.0302    87.588045 
    2300    1842.4541   -104.44858    1.6670912   -102.78149    17787.477    4.4529182    4.4529182    4.4529182    17787.477    16403.282    22192.363    14766.785    6561.3214   -4464.1759    5190.9045    88.294603 
    2400    1163.8965   -103.84627     1.053118   -102.79316    20827.805    4.4647629    4.4647629    4.4647629    20827.805    24372.294    61415.789   -23304.668    6879.7755   -855.04977   -29577.735    89.001066 
    2500    1886.4042   -104.47988    1.7068582   -102.77302   -7771.3758    4.4693028    4.4693028    4.4693028   -7771.3758   -27724.069   -17007.694    21417.636    12391.405    1072.1699    1143.9579    89.272835 
    2600     1782.197   -104.38092    1.6125693   -102.76835   -13853.522    4.4476207    4.4476207    4.4476207   -13853.522   -22778.968    12852.839   -31634.437    12684.017    1159.3909   -29576.609    87.979853 
    2700     1519.589   -104.15407     1.374956   -102.77912    31610.376    4.4328539    4.4328539    4.4328539    31610.376   -2059.3432    35262.057    61628.415   -6765.4369   -8770.5204    1625.4494    87.106438 
    2800    1584.5399   -104.23589     1.433725   -102.80217    23217.979    4.4294454    4.4294454    4.4294454    23217.979      34609.9    62887.237   -27843.199    6638.7108   -5913.8856   -28682.533    86.905659 
    2900    1624.5856     -104.295    1.4699592   -102.82504   -19208.456    4.4462542    4.4462542    4.4462542   -19208.456   -28469.319   -40782.756    11626.706   -11384.619    10060.827   -12305.578    87.898787 
    3000    2005.6185   -104.62859    1.8147258   -102.81386   -26711.183    4.4638805    4.4638805    4.4638805   -26711.183    -57428.37    4842.4765   -27547.655    1784.5349   -4013.9861   -374.86347    88.948306 
    3100    1607.1476   -104.25776    1.4541809   -102.80358   -35069.009     4.449861     4.449861     4.449861   -35069.009   -24497.009   -61236.814   -19473.203   -6485.7526     12358.58   -28477.067     88.11287 
    3200     1386.181   -104.05066    1.2542457   -102.79641    34586.221    4.4199767    4.4199767    4.4199767    34586.221     129.7077    16883.748    86745.208    3678.4528    12900.845    19908.819    86.349524 
    3300    1742.7201   -104.40453    1.5768497   -102.82768    6397.9476    4.4202696    4.4202696    4.4202696    6397.9476   -30944.357    17614.872    32523.328    -3737.632    -4331.309   -31182.147     86.36669 
    3400    1577.5086   -104.29028    1.4273629   -102.86292    -40031.31    4.4579998    4.4579998    4.4579998    -40031.31   -52427.853   -47033.067    -20633.01   -8863.9615    2585.7218    21974.225     88.59723 
    3500    1488.1046    -104.1657    1.3464684   -102.81924   -12747.228     4.460663     4.460663     4.460663   -12747.228    4638.9824   -41969.851   -910.81696   -2608.2974   -4131.6855    4739.8557    88.756107 
    3600    1417.7763   -104.07093    1.2828338   -102.78809   -551.24532    4.4299764    4.4299764    4.4299764   -551.24532    307.25657   -2190.0984    229.10585   -20064.963    8558.8672   -6676.0897    86.936915 
    3700    1633.8591   -104.26463    1.4783501   -102.78628    25686.944    4.4179475    4.4179475    4.4179475    25686.944    3042.6855    -357.5527    74375.699    3943.0911    816.78297    20973.742    86.230647 
    3800    1261.1758   -103.96487    1.1411384   -102.82373   -373.05655    4.4346127    4.4346127    4.4346127   -373.05655   -52749.934   -25292.424    76923.189   -31435.191   -1285.8971   -9330.6846    87.210163 
    3900    1903.9276   -104.54699    1.7227137   -102.82427   -8715.7147    4.4388362    4.4388362    4.4388362   -8715.7147   -4830.2875   -35002.747    13685.891    2670.1728    5077.1937    11556.778    87.459572 
    4000    1040.6071   -103.76579   0.94156317   -102.82422    13716.741    4.4447945    4.4447945    4.4447945    13716.741   -11849.445   -25758.895    78758.561   -22936.255   -10902.051    1153.8573     87.81224 
    4100    1948.6438   -104.55998    1.7631739    -102.7968   -37237.541    4.4386899    4.4386899    4.4386899   -37237.541   -26859.715    -46684.68    -38168.23   -3992.6906    5613.1115    9072.6482    87.450926 
    4200    1514.3044   -104.16069    1.3701744   -102.79051    18857.922    4.4224369    4.4224369    4.4224369    18857.922     24071.59   -1652.7685    34154.945    -12432.38   -20841.988    8197.8928     86.49379 
    4300    1380.5202   -104.06915    1.2491237   -102.82003    472.68085    4.4375158    4.4375158    4.4375158    472.68085    39659.649   -3346.6506   -34894.955    1690.4028   -2819.0576   -11906.184    87.381549 
    4400      1995.26   -104.60847    1.8053532   -102.80312   -28081.619    4.4556869    4.4556869    4.4556869   -28081.619   -26454.076   -29369.764   -28421.017   -19514.587    15011.194    10174.656      88.4594 
    4500    1316.5547   -103.97748    1.1912464   -102.78623   -5635.7711    4.4381075    4.4381075    4.4381075   -5635.7711    32428.304    -9405.188   -39930.429   -16032.597   -2254.3066   -4140.8552    87.416509 
    4600    1936.5241   -104.52563    1.7522077   -102.77343    2666.9113    4.4167886    4.4167886    4.4167886    2666.9113   -2210.3068   -22014.917    32225.957    1320.9463   -8771.2653    17233.952    86.162807 
    4700    1316.6261    -103.9948     1.191311   -102.80349    11298.797    4.4269064    4.4269064    4.4269064    11298.797    19338.572    8382.1291     6175.691   -22989.757    -9511.672   -10343.052    86.756298 
    4800      1850.53   -104.47608    1.6743984   -102.80168   -46849.324     4.449975     4.449975     4.449975   -46849.324    -14330.84   -56573.623   -69643.509    12667.976   -3010.3465     9152.838    88.119643 
    4900    1676.7198   -104.29596    1.5171313   -102.77883    -15941.94    4.4615262    4.4615262    4.4615262    -15941.94   -20753.192   -32026.975    4954.3469   -5833.4087   -7087.3591   -699.46695    88.807645 
    5000    1370.3343   -104.00024    1.2399073   -102.76033    26117.313    4.4368248    4.4368248    4.4368248    26117.313    43624.635   -17664.981    52392.286    7028.5097   -5796.1643    7235.0983    87.340736 
    5100    1325.4792   -103.96307    1.1993215   -102.76375    45408.582    4.4234785    4.4234785    4.4234785    45408.582    36269.354    111161.09   -11204.701    33131.315   -8776.9782    15838.793    86.554923 
    5200    1871.9578   -104.48488    1.6937867    -102.7911   -24749.389    4.4459733    4.4459733    4.4459733   -24749.389   -37740.173   -17647.135   -18860.858   -6165.7198   -3549.4263   -1738.4066    87.882125 
    5300    960.12547   -103.66637    0.8687417   -102.79763    16886.983    4.4386713    4.4386713    4.4386713    16886.983   -17695.214    50737.728    17618.435    9274.4912    7889.2512    3198.3279    87.449829 
    5400    2299.4526   -104.87659     2.080593     -102.796   -16378.266    4.4317577    4.4317577    4.4317577   -16378.266    -13709.62   -20985.838   -14439.339   -4491.8549   -3661.0435    4850.1801    87.041831 
    5500    1537.8875    -104.2088    1.3915129   -102.81729    -19167.85    4.4404776    4.4404776    4.4404776    -19167.85    -26539.82    4157.3414    -35121.07    22446.326   -5780.4352    18847.039    87.556635 
    5600     1409.792   -104.07908    1.2756094   -102.80347    9971.2135    4.4500545    4.4500545    4.4500545    9971.2135   -38223.782    24819.973     43317.45   -4632.9796    931.34936   -10487.642    88.124361 
    5700    1234.5917   -103.91918    1.1170845   -102.80209    6067.1065    4.4387544    4.4387544    4.4387544    6067.1065   -35627.359    71577.127   -17748.448    31105.899    3784.3596   -11307.127    87.454737 
    5800    1678.1784   -104.32415     1.518451    -102.8057    19249.549    4.4212209    4.4212209    4.4212209    19249.549   -10684.803    59838.145    8595.3053    7956.6146   -11966.809    17845.759    86.422464 
    5900    1702.8419   -104.36314    1.5407672   -102.82237   -931.32495     4.429695     4.429695     4.429695   -931.32495   -31507.392    42866.657    -14153.24      14315.3   -158.97285   -7120.4868    86.920349 
    6000    1469.1634   -104.14898    1.3293299   -102.81965   -17275.737    4.4511859    4.4511859    4.4511859   -17275.737   -8282.7078   -42830.186   -714.31693    23699.608   -16740.871   -3398.9611    88.191597 
    6100    1633.4919   -104.26961    1.4780178   -102.79159    17679.642    4.4518009    4.4518009    4.4518009    17679.642    5237.1059    93131.805   -45329.985   -416.84002    9659.6427   -11971.002    88.228157 
    6200    1394.5301    -104.0492    1.2618002    -102.7874   -9658.8961    4.4330158    4.4330158    4.4330158   -9658.8961    -50209.44    35396.177   -14163.426    15623.701   -31611.584   -6799.5189    87.115984 
    6300    1828.5725   -104.44852    1.6545308   -102.79399    25875.237     4.412571     4.412571     4.412571    25875.237    20981.062    35874.318     20770.33   -8064.2765    1854.2045   -1111.1368    85.916211 
    6400    1375.9972   -104.07323    1.2450312    -102.8282    28405.646    4.4246351    4.4246351    4.4246351    28405.646   -8208.1885    87390.564    6034.5618    25888.688   -24381.018    3561.1142    86.622832 
    6500    1305.1071   -104.00277    1.1808884   -102.82188   -5092.1247    4.4567711    4.4567711    4.4567711   -5092.1247    829.00379    3086.1181   -19191.496    6838.5687    4140.1869   -1527.3993    88.523989 
    6600    1549.7278   -104.19007    1.4022263   -102.78784    11469.635    4.4459901    4.4459901    4.4459901    11469.635    7668.8688     56373.76   -29633.724    18301.617   -16434.409    -5617.437    87.883124 
    6700    1005.3696   -103.68142   0.90967957   -102.77174    49572.262    4.4274533    4.4274533    4.4274533    49572.262     76972.72    57971.265    13772.801     30928.53    949.40103   -8508.4978    86.788456 
    6800    1285.1955    -103.9371    1.1628719   -102.77423    43336.004     4.428602     4.428602     4.428602    43336.004    89199.678    82983.469   -42175.136    27048.106   -11742.807   -754.35454    86.856024 
    6900     1355.937   -104.02583    1.2268803   -102.79895    10220.104    4.4433395    4.4433395    4.4433395    10220.104    30658.794    25234.504   -25232.985    23951.574   -19714.785   -1535.0666    87.726035 
    7000    1576.2862    -104.2023    1.4262569   -102.77604    3942.7059    4.4497062    4.4497062    4.4497062    3942.7059    21103.892    20982.586   -30258.361   -698.43173    2689.7177    13186.369    88.103672 
    7100     1651.444   -104.26561    1.4942612   -102.77135    6846.0434    4.4260902    4.4260902    4.4260902    6846.0434   -21828.986    57329.164   -14962.047    4173.2114   -12694.254    8907.7215    86.708325 
    7200    1365.7465   -104.03436    1.2357562   -102.79861    17941.615    4.4137005    4.4137005    4.4137005    17941.615    63204.128   -3155.0095   -6224.2741   -32.286381    16584.265    7422.5433    85.982207 
    7300    2171.4453   -104.78968    1.9647694   -102.82491   -6017.3711    4.4260107    4.4260107    4.4260107   -6017.3711    20526.058   -15537.044   -23041.128   -14496.624    11395.376    2566.3878    86.703647 
    7400    1196.9581   -103.92642    1.0830328   -102.84339   -10939.559    4.4370085    4.4370085    4.4370085   -10939.559    39819.685   -54264.138   -18374.223    17654.449    527.66234    5573.2543    87.351585 
    7500    2030.8266   -104.66195    1.8375346   -102.82441   -31102.543    4.4327114    4.4327114    4.4327114   -31102.543   -8968.2901   -39659.087   -44680.251    -10566.61    1054.7801    12156.844    87.098037 
    7600    1860.6554   -104.49552    1.6835601   -102.81196    -1231.779    4.4265763    4.4265763    4.4265763    -1231.779    16882.375   -25224.543    4646.8303   -3254.9516   -3592.9539   -19116.077    86.736896 
    7700     1136.711   -103.84517      1.02852   -102.81665    10352.398    4.4274132    4.4274132    4.4274132    10352.398    62465.646   -2219.2003   -29189.251    -9673.548    7527.7002    11860.661    86.786101 
    7800    1843.9352   -104.47029    1.6684314   -102.80185    1988.2028    4.4377471    4.4377471    4.4377471    1988.2028   -15212.757    48427.307   -27249.942   -30382.114   -9544.0774   -14480.539    87.395213 
    7900    1369.1354   -104.03046    1.2388225   -102.79164    21301.203    4.4316698    4.4316698    4.4316698    21301.203     43907.86    47397.995   -27402.246   -9365.9751   -3390.5496    3965.0135    87.036653 
    8000    1049.2985   -103.74292   0.94942736   -102.79349    18976.624    4.4367221    4.4367221    4.4367221    18976.624   -19372.174    31638.561    44663.486   -27824.661   -1442.5634     12095.53     87.33467 
    8100    1822.2937   -104.41996    1.6488496   -102.77111   -2348.2825    4.4429045    4.4429045    4.4429045   -2348.2825    22786.604    23100.378    -52931.83   -13954.717    4806.3887    6413.4815    87.700272 
    8200    1185.7787   -103.84424    1.0729175   -102.77132   -3708.8728    4.4434794    4.4434794    4.4434794   -3708.8728    33369.389   -37901.967   -6594.0397   -17366.175       -11982    1328.7256    87.734319 
    8300    1737.7924   -104.33032    1.5723911   -102.75793   -15236.166    4.4409967    4.4409967    4.4409967   -15236.166   -9642.7572   -2630.8697   -33434.872   -1499.3026    6005.4826   -1623.0265    87.587341 
    8400    1322.6133   -103.96645    1.1967283   -102.76972    27217.888    4.4247128    4.4247128    4.4247128    27217.888    57792.801    48375.615    -24514.75   -24452.032    17071.844   -12327.519    86.627396 
    8500    1981.4121    -104.5838    1.7928233   -102.79098    -17173.84    4.4299326    4.4299326    4.4299326    -17173.84   -33149.792    7496.3013   -25868.028    5135.3904    6148.4594    2966.3087    86.934337 
    8600    1314.8712   -104.00155    1.1897231   -102.81182   -24269.014     4.433985     4.433985     4.433985   -24269.014   -38271.698   -5027.5669   -29507.778   -4906.0394    37046.919    11961.265    87.173132 
    8700    2072.8682   -104.67547    1.8755747   -102.79989    14633.365    4.4162583    4.4162583    4.4162583    14633.365   -15443.524    63186.865   -3843.2455    5294.3342   -12774.349   -7152.5936    86.131774 
    8800    1183.2413   -103.88807    1.0706216   -102.81745   -17698.913    4.4349374    4.4349374    4.4349374   -17698.913   -16401.518   -13359.098   -23336.124   -5838.8418    21711.945    12839.805    87.229317 
    8900      1771.55   -104.40146    1.6029356   -102.79853   -1365.5762    4.4259411    4.4259411    4.4259411   -1365.5762   -13477.303   -5875.6915    15256.266    3378.5237    4527.1653    15287.554     86.69956 
    9000    1735.8126   -104.37731    1.5705997   -102.80671    -2298.767    4.4327356    4.4327356    4.4327356    -2298.767     8173.466    6967.3871   -22037.154     3681.173    14977.451   -7474.2915    87.099462 
    9100    944.98134   -103.65988   0.85503898   -102.80484   -29253.007    4.4448089    4.4448089    4.4448089   -29253.007    -18551.37   -88030.125    18822.475   -45833.271    11434.936    17066.399    87.813094 
    9200    1966.9957   -104.57644     1.779779   -102.79666    540.28632    4.4142345    4.4142345    4.4142345    540.28632   -14561.071   -838.74769    17020.677    32495.267   -4916.9251    1133.4037    86.013415 
    9300    1391.7949    -104.0772    1.2593253   -102.81787   -2730.2094    4.4045012    4.4045012    4.4045012   -2730.2094    37283.835   -10747.505   -34726.957   -17685.362    8940.6721    18674.773    85.445697 
    9400    1553.0394     -104.238    1.4052227   -102.83278   -904.17719    4.4267203    4.4267203    4.4267203   -904.17719    7917.1083   -36396.756    25767.116    9819.8967   -2335.8194    2673.8783    86.745356 
    9500    1318.0842   -104.00724    1.1926303   -102.81461   -5429.9553    4.4389761    4.4389761    4.4389761   -5429.9553   -16254.739    14673.551   -14708.678    16107.604    15820.459     155.8334    87.467846 
    9600    1796.3754   -104.41163    1.6253982   -102.78623    676.44975    4.4173697    4.4173697    4.4173697    676.44975   -29294.461    20931.366    10392.444   -7955.6408   -9763.3415   -5680.9242    86.196819 
    9700    1732.5305   -104.35838      1.56763   -102.79075    -2352.528    4.4116007    4.4116007    4.4116007    -2352.528   -24479.672   -465.98128    17888.069    9706.5082    25770.088   -3770.9769    85.859546 
    9800    1413.0072   -104.08429    1.2785186   -102.80578    31479.146    4.4211077    4.4211077    4.4211077    31479.146     8724.802    48779.191    36933.446   -821.84692    1949.0775    1234.5044    86.415827 
    9900    1882.0861   -104.49866     1.702951   -102.79571    -25008.99    4.4391966    4.4391966    4.4391966    -25008.99   -18335.878   -18304.984   -38386.107    16003.649    4243.1789    441.43029    87.480877 
   10000    1558.5911   -104.20156    1.4102459   -102.79131    4065.0922    4.4307612    4.4307612    4.4307612    4065.0922   -30626.767    47747.391   -4925.3476   -19897.459    9779.3247    4345.1491    86.983131 
   10100    1454.1823   -104.11447    1.3157747    -102.7987    13713.291    4.4177489    4.4177489    4.4177489    13713.291    50469.519    -10662.19    1332.5441    16132.444    8773.4183    9075.9777     86.21902 
   10200     1674.426   -104.32251    1.5150558   -102.80746   -19929.611    4.4160886    4.4160886    4.4160886   -19929.611   -25523.025    33053.387   -67319.195   -11261.419    17775.996   -10468.454    86.121846 
   10300    1419.1027   -104.10644    1.2840339    -102.8224    32265.559    4.4121498    4.4121498    4.4121498    32265.559    50819.747    20429.914    25547.016    14931.677   -8086.3987    9116.3933    85.891611 
   10400    1759.6165   -104.41659     1.592138   -102.82445   -29032.704     4.439267     4.439267     4.439267   -29032.704   -4647.2191   -7906.5314   -74544.361    12907.387    8372.2156   -835.80684    87.485043 
   10500    1699.6206   -104.33568    1.5378524   -102.79783   -32824.777    4.4336254    4.4336254    4.4336254   -32824.777   -44042.857    -12770.69   -41660.783    -25074.69    5895.4361   -5893.6868    87.151925 
   10600    1656.4354   -104.27848    1.4987775    -102.7797    41701.556    4.4010469    4.4010469    4.4010469    41701.556    38470.844    36141.341    50492.482    13476.284   -1844.5887    620.30472    85.244817 
   10700    1574.3263   -104.22496    1.4244835   -102.80047   -83.409131     4.424327     4.424327     4.424327   -83.409131    8619.9402     20346.45   -29216.618    9563.1105    4199.4426    5515.3264    86.604735 
   10800    1698.7134   -104.33058    1.5370316   -102.79355   -46668.992    4.4368784    4.4368784    4.4368784   -46668.992   -62935.242   -47045.756   -30025.977   -10710.764     -371.346    -12954.38    87.343897 
   10900    2112.2407   -104.69216    1.9111997   -102.78096    2048.7083    4.4230491    4.4230491    4.4230491    2048.7083    32826.681    1036.4793   -27717.035    4123.3065    9004.3512   -5116.5525    86.529718 
   11000    771.76819   -103.50785   0.69831208   -102.80954   -16777.355    4.4244704    4.4244704    4.4244704   -16777.355    7145.0179   -22943.276   -34533.806      11822.3   -11970.651    2062.0359    86.613159 
   11100    2124.4374   -104.72539    1.9222356   -102.80315   -14980.913    4.4128099    4.4128099    4.4128099   -14980.913   -21707.784    9232.5893   -32467.543   -13290.005    14614.906   -20788.954    85.930165 
   11200    1367.8314   -104.05786    1.2376426   -102.82021    -4754.584    4.4148907    4.4148907    4.4148907    -4754.584    9650.1405   -25819.761    1905.8689    10118.126    3035.4224    5378.0133    86.051784 
   11300    1321.4562   -104.01878    1.1956814   -102.82309   -28310.277    4.4230007    4.4230007    4.4230007   -28310.277   -57.164919   -40901.994   -43971.671    9793.7531   -6734.6851   -1931.2002    86.526875 
   11400     2123.757   -104.73122    1.9216199    -102.8096   -2738.6689     4.416908     4.416908     4.416908   -2738.6689   -31260.708   -2851.6378     25896.34   -6561.5017    20060.512    13495.802    86.169797 
   11500    1389.0817   -104.07806    1.2568703   -102.82119   -29398.173    4.4330119    4.4330119    4.4330119   -29398.173   -16304.592   -52622.527     -19267.4    16294.396    995.36738   -12527.091    87.115752 
   11600    1004.2028   -103.71899   0.90862378   -102.81037    27841.679    4.4262553    4.4262553    4.4262553    27841.679    38247.598    18128.007    27149.431    4081.6021    24693.508    19667.719    86.718024 
   11700    2066.9093   -104.68841     1.870183   -102.81823   -16379.311    4.4226935    4.4226935    4.4226935   -16379.311    3651.4196   -26910.056   -25879.297   -6639.2719     2496.704   -10884.631    86.508851 
   11800    1608.4844   -104.28456    1.4553905   -102.82917    -2098.296    4.4234489    4.4234489    4.4234489    -2098.296     1516.942   -22938.303    15126.473   -2810.6051    13642.049   -6637.5173    86.553181 
   11900    1550.5115   -104.22917    1.4029354   -102.82624    9881.3797     4.409292     4.409292     4.409292    9881.3797     23582.61     59467.87   -53406.341     7982.752    10987.302   -1652.9911    85.724819 
   12000    1487.2445   -104.18973    1.3456901   -102.84404    7458.8536     4.421318     4.421318     4.421318    7458.8536    24842.333   -14880.313    12414.541   -14285.723    439.91551   -5814.1325    86.428156 
   12100     2050.207   -104.67965    1.8550704   -102.82458   -35738.774    4.4297268    4.4297268    4.4297268   -35738.774    -13552.14    -21383.15   -72281.031   -297.74312    31384.827   -12463.181    86.922226 
   12200    1523.9157   -104.19754    1.3788709   -102.81867    23635.079    4.4158959    4.4158959    4.4158959    23635.079    17205.513    14158.969    39540.755    -4785.622   -33996.739   -2472.9015    86.110571 
   12300    1504.5445   -104.19262    1.3613435   -102.83128   -668.64791    4.4184878    4.4184878    4.4184878   -668.64791   -6132.7199    27637.607   -23510.831    4581.4116    56895.506   -3465.1125     86.26229 
   12400    1894.8983   -104.55392    1.7145438   -102.83937    728.48495    4.4331592    4.4331592    4.4331592    728.48495    62894.847   -36128.166   -24581.225   -5549.7284   -17630.977    4598.5417    87.124437 
   12500    1052.6617   -103.79961   0.95247047   -102.84713    7300.8389    4.4291625    4.4291625    4.4291625    7300.8389   -48716.637   -5856.1243    76475.278    7933.0017    47416.243   -3887.8431    86.889012 
   12600    1871.8029   -104.52357    1.6936466   -102.82993    1923.5719    4.4340267    4.4340267    4.4340267    1923.5719   -23209.776    6931.2751    22049.217   -5979.0206    3517.2068    8353.3226    87.175596 
   12700    919.89024   -103.65415   0.83233602   -102.82181    3373.0482    4.4379435    4.4379435    4.4379435    3373.0482   -11093.454    18834.423    2378.1753   -5640.7978    53810.936   -832.14295    87.406815 
   12800    1918.0308   -104.51381    1.7354746   -102.77833    4145.2587     4.418566     4.418566     4.418566    4145.2587     -1338.56    19072.654   -5298.3182    7403.0267    1815.7909    4551.3755    86.266868 
   12900    1295.0061   -103.96897    1.1717488   -102.79722    9586.9571    4.4261909    4.4261909    4.4261909    9586.9571    513.04778    38569.841   -10322.017   -3109.6539    38535.099    163.07665    86.714242 
   13000     1701.733   -104.33706    1.5397638   -102.79729    -13102.55    4.4387698    4.4387698    4.4387698    -13102.55    36932.427   -9593.2183   -66646.858    7472.1139     25229.42    2336.6454    87.455647 
   13100    1310.0326     -103.991    1.1853451   -102.80565     22944.86    4.4364457    4.4364457    4.4364457     22944.86    52441.742    11652.331    4740.5064    27781.565   -456.36119   -3058.8042    87.318347 
   13200    1608.2988   -104.26595    1.4552226   -102.81072   -23553.827    4.4431345    4.4431345    4.4431345   -23553.827   -18276.587    7058.2464   -59443.141   -3025.2189    19284.472   -8818.3381    87.713889 
   13300    1744.5772   -104.37624    1.5785301   -102.79771    12642.577     4.431094     4.431094     4.431094    12642.577    89784.521   -22378.269   -29478.522    2935.3286   -15981.143   -491.13773    87.002733 
   13400    1904.8969   -104.53095    1.7235908   -102.80736   -24096.369    4.4325925    4.4325925    4.4325925   -24096.369   -34343.969    1227.1216   -39172.259    11590.604    29468.087   -2671.8166    87.091028 
   13500    1856.0354   -104.49961    1.6793799   -102.82023   -12418.693    4.4512911    4.4512911    4.4512911   -12418.693    33721.922   -33990.212   -36987.788   -8934.8664   -13835.991   -8473.0089    88.197851 
   13600    1126.7692   -103.84311    1.0195245   -102.82358    2852.0787    4.4462265    4.4462265    4.4462265    2852.0787    65648.326   -26610.896   -30481.194    3041.1383    34584.771   -5865.0886    87.897142 
   13700    2039.3968   -104.66509    1.8452891   -102.81981   -654.00386    4.4311036    4.4311036    4.4311036   -654.00386    42728.094   -30045.676    -14644.43   -2298.0784   -15545.514   -5658.6149    87.003296 
   13800    1405.0111   -104.11288    1.2712836    -102.8416     12513.32    4.4388426    4.4388426    4.4388426     12513.32    99390.816   -24999.222   -36851.635    22543.144   -1325.2054   -1266.0503    87.459951 
   13900    1933.4136    -104.5809    1.7493933    -102.8315   -44671.514    4.4482596    4.4482596    4.4482596   -44671.514   -18347.288   -47168.862   -68498.392   -6247.3153    11944.651   -5775.3605     88.01777 
   14000     1845.457   -104.49062    1.6698083   -102.82081    19581.613    4.4234367    4.4234367    4.4234367    19581.613    52110.534   -2696.8821    9331.1866    19896.886    4233.9183    5097.6377    86.552465 
   14100    1156.8005     -103.903    1.0466974    -102.8563    22760.059    4.4315024    4.4315024    4.4315024    22760.059    102003.13   -7371.1111   -26351.843    20982.218    1543.7808   -1148.5569    87.026793 
   14200    1857.1917   -104.52685    1.6804261   -102.84642   -23384.742    4.4612847    4.4612847    4.4612847   -23384.742    1734.8781   -18154.029   -53735.075   -2766.0091   -5321.3175     777.3434    88.793224 
   14300    1192.2857   -103.89887    1.0788052   -102.82006   -28292.142    4.4586164    4.4586164    4.4586164   -28292.142   -16700.008   -10013.994   -58162.425    16008.663    21381.054   -5534.3437    88.633998 
   14400    1652.9303   -104.27679    1.4956061   -102.78118    36091.914    4.4263683    4.4263683    4.4263683    36091.914    107707.21     16800.94   -16232.407   -3609.7591   -18493.107   -16856.434    86.724667 
   14500    1462.7234   -104.14041    1.3235029   -102.81691   -16955.254     4.432604     4.432604     4.432604   -16955.254    9251.7232   -37516.944   -22600.541    22923.124    30789.669    735.98675    87.091704 
   14600    2134.2089   -104.73617    1.9310771   -102.80509   -22434.666    4.4599859    4.4599859    4.4599859   -22434.666    26685.945   -22276.374   -71713.568    22111.188   -723.19525    2083.3646    88.715695 
   14700    1332.6526   -103.98829    1.2058121   -102.78247   -42772.735    4.4711401    4.4711401    4.4711401   -42772.735    -59568.86    6569.7135   -75319.059    10799.433     25408.01   -11354.868    89.382979 
   14800    1573.9609   -104.17842    1.4241529   -102.75427    5264.6884    4.4415059    4.4415059    4.4415059    5264.6884    54836.358   -57035.295    17993.002    4807.9389    634.43728    419.91253    87.617473 
   14900     1465.586   -104.08548     1.326093   -102.75939    15858.218    4.4214344    4.4214344    4.4214344    15858.218    35764.469    41974.873   -30164.689    23155.594     23408.33   -7537.9702    86.434985 
   15000     2018.474   -104.62111    1.8263577   -102.79476   -27355.136    4.4522531    4.4522531    4.4522531   -27355.136   -42785.093   -21239.369   -18040.946    10369.749    1535.1932   -11372.471    88.255046 
   15100    900.62768   -103.59641   0.81490685    -102.7815    21913.611    4.4687712    4.4687712    4.4687712    21913.611    44866.152     29720.92   -8846.2387   -5148.4354      11413.8   -14144.388    89.240984 
   15200     1481.799   -104.10409    1.3407629   -102.76333   -3552.1208    4.4558298    4.4558298    4.4558298   -3552.1208    35504.734   -26237.944   -19923.153   -3396.1977    -2856.352   -20652.032     88.46791 
   15300    1695.1605   -104.30598    1.5338168   -102.77216    14547.718    4.4238035    4.4238035    4.4238035    14547.718   -5500.9766    47370.724    1773.4068   -16619.775   -1425.1597   -9649.6893    86.574001 
   15400      1210.47   -103.91918    1.0952587   -102.82392     41034.63    4.4305334    4.4305334    4.4305334     41034.63    42087.455    21240.142    59776.293    3466.6425    21125.996   -25212.517    86.969713 
   15500    1333.4212    -104.0174    1.2065076   -102.81089   -16387.628    4.4705281    4.4705281    4.4705281   -16387.628   -55134.469    3352.1825    2619.4027   -16036.612   -5262.7271   -19905.955     89.34628 
   15600    1022.9002   -103.67816   0.92554163   -102.75262    14826.512    4.4659862    4.4659862    4.4659862    14826.512    11313.384    23537.817    9628.3334   -8340.4032   -9541.1089   -25001.437    89.074243 
   15700    1477.6339   -104.06239    1.3369942   -102.72539    27699.986    4.4482163    4.4482163    4.4482163    27699.986   -20717.256   -18631.418    122448.63   -13454.312   -24093.643   -19093.198    88.015205 
   15800    1051.5145   -103.70723    0.9514324    -102.7558    25037.302     4.451892     4.451892     4.451892    25037.302    -18555.98     36185.04    57482.845    11584.187   -1402.1818   -23437.864     88.23357 
   15900    1423.1712   -104.05347    1.2877152   -102.76575   -2951.6813    4.4631098    4.4631098    4.4631098   -2951.6813   -34952.812   -33278.238    59376.006   -548.81187    -12976.38   -18037.854    88.902241 
   16000    1817.1769   -104.39288    1.6442199   -102.74866   -28248.999    4.4663704    4.4663704    4.4663704   -28248.999   -56638.195    -8423.229   -19685.572    5693.0831     6020.385    -12515.68    89.097229 
   16100    1543.7454   -104.13969    1.3968133   -102.74288   -13302.461     4.450241     4.450241     4.450241   -13302.461   -27472.825    -14867.88    2433.3215   -663.96066   -9743.0554   -15839.158    88.135441 
   16200    1881.6967   -104.45717    1.7025987   -102.75457    7637.6085    4.4348884    4.4348884    4.4348884    7637.6085   -19500.658    56966.436   -14552.953   -2711.4874   -810.75305    11732.017     87.22643 
   16300    1170.2128   -103.87559    1.0588332   -102.81676   -6865.7568    4.4440186    4.4440186    4.4440186   -6865.7568   -45872.756   -28665.133    53940.619   -6272.2803    579.17237   -7899.5289    87.766262 
   16400    1613.3623   -104.28571    1.4598041    -102.8259    21991.641    4.4404271    4.4404271    4.4404271    21991.641   -2479.5847    63143.085    5311.4237    -15635.17   -9256.9314    4950.0072    87.553648 
   16500    1450.6825   -104.14544     1.312608   -102.83284    2716.0614    4.4527557    4.4527557    4.4527557    2716.0614   -36223.382   -45784.233      90155.8   -492.75598    6109.4241    8902.0998    88.284934 
   16600    1561.7647   -104.23453    1.4131175   -102.82141    2095.8427    4.4398569    4.4398569    4.4398569    2095.8427   -34364.361    14730.613    25921.276   -5460.1437   -25353.343    14013.412     87.51992 
   16700    1919.9013   -104.56573    1.7371671   -102.82856   -3824.0569    4.4406246    4.4406246    4.4406246   -3824.0569    -9052.299   -67470.428    65050.556   -12222.751     8789.512   -4554.0499    87.565326 
   16800     1607.122   -104.27654    1.4541578   -102.82238   -2812.0994    4.4460592    4.4460592    4.4460592   -2812.0994   -47329.148    539.67465    38353.175   -10264.854   -10807.312    -7937.196    87.887217 
   16900    1161.1425   -103.87503    1.0506261   -102.82441    26921.926    4.4437288    4.4437288    4.4437288    26921.926    8642.2099     8262.146    63861.423    3171.3818   -9603.0022    19226.889    87.749091 
   17000    1950.5862   -104.57885    1.7649314   -102.81392   -8902.7284    4.4508264    4.4508264    4.4508264   -8902.7284   -46487.888   -9170.8666     28950.57   -26857.453    -2295.358    -22585.93    88.170226 
   17100    1516.1973   -104.17434    1.3718872   -102.80245   -6548.3374    4.4445614    4.4445614    4.4445614   -6548.3374   -43609.272     5035.078    18929.182    6971.1216   -18169.314    28559.719    87.798424 
   17200    1441.0975   -104.10864    1.3039353    -102.8047    26230.831    4.4455935    4.4455935    4.4455935    26230.831    1790.6905    43103.541    33798.263   -1724.2846   -7515.9529   -2554.8343    87.859603 
   17300    1374.0885    -104.0523    1.2433041   -102.80899    440.69161    4.4453689    4.4453689    4.4453689    440.69161   -17515.765   -20203.601     39041.44    1652.2169   -16820.884   -11446.109    87.846287 
   17400    1943.9122   -104.55479    1.7588926    -102.7959   -28849.033    4.4407216    4.4407216    4.4407216   -28849.033   -17608.797   -50085.279   -18853.024    726.01426    863.66204    19949.447    87.571064 
   17500     1378.662    -104.0444    1.2474423   -102.79696    30005.237    4.4313595    4.4313595    4.4313595    30005.237   -47092.254    78157.768    58950.199   -7861.1837   -20053.621    -25383.18     87.01837 
   17600    1779.0524   -104.41455     1.609724   -102.80483   -8162.9939    4.4410084    4.4410084    4.4410084   -8162.9939   -32938.662   -29818.588    38268.269   -809.76961    10764.942    30984.796    87.588033 
   17700    1487.8111   -104.16429    1.3462027   -102.81808     -10394.9    4.4522888    4.4522888    4.4522888     -10394.9   -80449.811    47779.396    1485.7145    4259.5094   -26329.677    6336.1476    88.257169 
   17800    1747.2812   -104.39217    1.5809767    -102.8112    6213.5126    4.4313991    4.4313991    4.4313991    6213.5126   -41934.995    64377.065   -3801.5316   -3423.1599    7774.3261    10163.866    87.020703 
   17900    1321.4154   -104.01977    1.1956444   -102.82412    20400.535    4.4111299    4.4111299    4.4111299    20400.535   -42765.004    125679.57    -21712.96   -2650.0215   -32815.223    32192.311    85.832059 
   18000     1817.474   -104.50708    1.6444886   -102.86259    2363.5264    4.4331021    4.4331021    4.4331021    2363.5264   -39888.452    72434.782    -25455.75     8755.902     7383.776    -11204.85    87.121072 
   18100    1116.3852    -103.8638    1.0101288   -102.85367   -30709.493    4.4558693    4.4558693    4.4558693   -30709.493   -71506.048    7389.5404   -28011.972    8256.4033   -29018.934   -942.62837    88.470267 
   18200    1772.0915   -104.42402    1.6034257   -102.82059    -4845.252     4.442322     4.442322     4.442322    -4845.252   -62605.405    28991.868    19077.781   -16705.369   -7185.8728   -7186.2819     87.66578 
   18300    1363.0042   -104.04622    1.2332749   -102.81294    25773.193    4.4174224    4.4174224    4.4174224    25773.193   -14612.511    33319.291    58612.799   -3329.8468   -25049.638    -20489.34    86.199904 
   18400    1625.3814   -104.30587    1.4706793   -102.83519     15868.97    4.4248146    4.4248146    4.4248146     15868.97   -10392.085    73346.831   -15347.836   -7012.8359   -14675.531    17605.645    86.633376 
   18500    1920.5059   -104.56528    1.7377141   -102.82756   -18227.964    4.4577644    4.4577644    4.4577644   -18227.964   -69678.856   -8297.9636     23292.93   -4836.6807   -11217.554   -16271.303    88.583194 
   18600    1515.9209   -104.16642    1.3716371   -102.79478   -25187.329    4.4556024    4.4556024    4.4556024   -25187.329   -37580.055   -35446.592   -2535.3389    383.11168   -23903.931    21492.194    88.454366 
   18700    1378.9243   -104.01337    1.2476797   -102.76569      24288.6    4.4418666    4.4418666    4.4418666      24288.6   -33843.962    53566.295    53143.466   -2655.7786   -20245.499   -2239.5008    87.638822 
   18800    1719.5994   -104.35526    1.5559296   -102.79933   -3993.6278    4.4346329    4.4346329    4.4346329   -3993.6278   -43538.801    45262.655   -13704.738    8020.0431   -15495.934   -14875.253    87.211356 
   18900    1646.9362   -104.30868    1.4901824    -102.8185     6102.163     4.434805     4.434805     4.434805     6102.163   -6431.5083    23456.127    1281.8704    11278.932   -16802.122    18014.572    87.221509 
   19000    1793.9982   -104.43339    1.6232473   -102.81014   -7298.9226    4.4426984    4.4426984    4.4426984   -7298.9226   -37326.947    49378.744   -33948.564   -2056.8989    -18432.17   -3058.5354    87.688068 
   19100    1832.0048   -104.45171    1.6576365   -102.79407    5513.8898     4.451563     4.451563     4.451563    5513.8898    27830.298     16600.51   -27889.138    5720.8215    -7334.908    30184.538    88.214012 
   19200    1577.5596   -104.20174    1.4274091   -102.77434   -6982.7686    4.4604363    4.4604363    4.4604363   -6982.7686   -916.66603   -34212.792    14181.153   -17253.464   -28246.669    -6851.311    88.742575 
   19300    1874.2234   -104.44678    1.6958368   -102.75095   -12559.674    4.4416546    4.4416546    4.4416546   -12559.674   -34109.984    19332.999   -22902.038    1508.6626   -2827.2833    20111.597    87.626277 
   19400     1475.101   -104.09115    1.3347024   -102.75645    4025.2033    4.4246555    4.4246555    4.4246555    4025.2033    -35942.32   -16067.229    64085.159    4904.0785   -22166.282   -19253.717     86.62403 
   19500    1957.2455   -104.56286    1.7709568    -102.7919   -17663.666    4.4337143    4.4337143    4.4337143   -17663.666   -29826.546    14402.283   -37566.734    1128.2605    4058.6555    16540.157    87.157168 
   19600     1025.641   -103.74518    0.9280215   -102.81716    15609.312    4.4464968    4.4464968    4.4464968    15609.312   -40391.206    25408.601     61810.54    5150.1572   -27152.599   -13163.472    87.913173 
   19700     2366.962    -104.9438     2.141677   -102.80212   -36581.038    4.4383299    4.4383299    4.4383299   -36581.038   -24003.993   -43506.439   -42232.682    25132.772     4120.172    10745.734    87.429647 
   19800      792.269   -103.52793   0.71686164   -102.81107    46865.401    4.4256683    4.4256683    4.4256683    46865.401   -13129.931    73639.139    80086.995   -2630.9375   -39053.692     1056.613     86.68353 
   19900    2374.5169   -104.95349    2.1485128   -102.80498    -26660.17    4.4365981    4.4365981    4.4365981    -26660.17   -40954.955   -6625.6239   -32399.931    23877.822    1051.7306    10261.751     87.32735 
   20000    1127.4891     -103.829    1.0201759   -102.80883    11270.121    4.4432362    4.4432362    4.4432362    11270.121   -26473.828     67414.41   -7130.2193    2512.8473   -42181.805    7216.4888    87.719917 
   20100    1724.9186   -104.35144    1.5607426    -102.7907   -4868.8758     4.441479     4.441479     4.441479   -4868.8758   -41182.194   -316.52523    26892.092    12410.742    14271.441    15359.434    87.615881 
   20200    1515.0457   -104.15063    1.3708452   -102.77978    1043.7042    4.4265789    4.4265789    4.4265789    1043.7042   -55316.188    78467.318   -20020.018    6269.7316   -48600.289    -4330.778    86.737046 
   20300    1637.4169   -104.27399    1.4815693   -102.79242   -802.30819    4.4268429    4.4268429    4.4268429   -802.30819   -36975.068   -6873.9897    41442.133    790.74429      9379.84    26965.521    86.752568 
   20400    1796.1109   -104.44237    1.6251589   -102.81721   -2301.7298    4.4377956    4.4377956    4.4377956   -2301.7298   -52284.042    69110.188   -23731.335    1344.5128   -27314.579   -471.19078    87.398077 
   20500    1303.1894   -104.00108    1.1791531   -102.82192    3873.7162    4.4448252    4.4448252    4.4448252    3873.7162   -27293.708     37441.55    1473.3068    -1177.317    9657.1816   -11526.202    87.814061 
   20600    1902.4663   -104.52554    1.7213915   -102.80415   -19063.801    4.4361903    4.4361903    4.4361903   -19063.801   -15965.479   -1298.3038   -39927.621    3372.9612   -16577.936    -6386.721     87.30327 
   20700     1498.917   -104.15087    1.3562516   -102.79462    25001.668    4.4194132    4.4194132    4.4194132    25001.668   -5878.9694    42066.187    38817.788   -5653.3786    4419.1854   -11893.278    86.316503 
   20800     1582.582   -104.25937    1.4319535   -102.82741   -1158.6046    4.4348036    4.4348036    4.4348036   -1158.6046   -4280.4871    31184.092   -30379.419    4059.6996   -12766.043   -3514.9075    87.221426 
   20900    1674.2774   -104.32896    1.5149214   -102.81404   -24279.404    4.4560568    4.4560568    4.4560568   -24279.404   -44831.134    3696.2329    -31703.31   -9195.0164     2411.991   -18380.417    88.481434 
   21000    1721.5043   -104.34796    1.5576532    -102.7903   -42615.678     4.443663     4.443663     4.443663   -42615.678   -59673.814    4708.1177   -72881.338   -8756.0951    5026.0178    1462.7072    87.745194 
   21100    1934.3126   -104.51832    1.7502067   -102.76811    25334.779    4.4135975    4.4135975    4.4135975    25334.779    32744.362    25684.976    17574.999    -18931.34     3388.437   -9586.6529    85.976188 
   21200    1442.0447   -104.13288    1.3047923   -102.82809   -199.63669    4.4208098    4.4208098    4.4208098   -199.63669   -5385.3692    7839.0079   -3052.5488   -13060.434    14286.624    1857.4979     86.39836 
   21300    1927.1634   -104.57645     1.743738   -102.83272   -4167.4739    4.4585872    4.4585872    4.4585872   -4167.4739    8147.1148     36038.48   -56688.017    31346.855   -2589.2354   -19610.395    88.632255 
   21400    708.68904   -103.45012   0.64123674   -102.80888    1754.0333    4.4631342    4.4631342    4.4631342    1754.0333    10210.263      32164.8   -37112.964     7530.884    18899.328    10874.643      88.9037 
   21500      2168.62   -104.72154     1.962213   -102.75933   -6124.0275    4.4396573    4.4396573    4.4396573   -6124.0275    3131.1262    14409.046   -35912.255    28156.489   -950.54475   -15268.949    87.508119 
   21600     990.5392   -103.67529   0.89626069   -102.77903    16970.623    4.4220839    4.4220839    4.4220839    16970.623    64857.812    17066.395   -31012.339    1423.4559    -260.3787     8658.088    86.473079 
   21700    1604.5013   -104.24897    1.4517865   -102.79719    31000.798    4.4327882    4.4327882    4.4327882    31000.798    11223.012    14296.194    67483.188   -3370.0583   -16463.883    17434.712    87.102562 
   21800    1581.5164   -104.24322    1.4309893   -102.81223   -26687.341    4.4585325    4.4585325    4.4585325   -26687.341   -50351.636   -5567.1266    -24143.26   -506.55906    11506.113    -536.6987    88.628992 
   21900    1881.1351   -104.47292    1.7020906   -102.77083   -11151.184    4.4641102    4.4641102    4.4641102   -11151.184   -17896.714   -30216.498    14659.661   -10068.357   -7421.9945   -6911.8755    88.962036 
   22000    1149.4974   -103.79933    1.0400894   -102.75924    28218.774    4.4404083    4.4404083    4.4404083    28218.774    5023.2013    1862.0716    77771.048    4225.7538   -3203.6445   -5235.4106    87.552533 
   22100    1821.3324   -104.41483    1.6479798   -102.76685    12053.201    4.4256267    4.4256267    4.4256267    12053.201   -7006.4806    20509.825    22656.258   -4598.0339    18486.788   -2923.8692    86.681087 
   22200    1580.1954   -104.24217     1.429794   -102.81238    2446.3929    4.4358476    4.4358476    4.4358476    2446.3929   -29178.705    -17978.89    54496.773    4394.0738    6211.3084    13353.129    87.283038 
   22300    1478.5285   -104.17114    1.3378037   -102.83334   -9659.6687    4.4488251    4.4488251    4.4488251   -9659.6687   -44478.908   -15318.507    30818.408    -5890.442    20005.671    16184.176    88.051346 
   22400    1548.6976   -104.20396    1.4012941   -102.80267   -1443.3786    4.4466789    4.4466789    4.4466789   -1443.3786   -27182.182   -4869.5775    27721.623    279.31616   -10346.945   -6668.6141    87.923976 
   22500    1533.2288   -104.17071    1.3872977   -102.78341    8019.5707    4.4405968    4.4405968    4.4405968    8019.5707   -9294.3887     44705.59   -11352.489   -18850.262    22122.283   -6505.8271    87.563682 
   22600    1861.7667    -104.4608    1.6845656   -102.77624    -28222.26     4.449322     4.449322     4.449322    -28222.26   -32503.614   -5380.7091   -46782.457   -1926.2305   -18618.045    7108.7641    88.080853 
   22700    1406.9027   -104.05047    1.2729951   -102.77748   -4788.6556    4.4476977    4.4476977    4.4476977   -4788.6556   -14671.842     31903.19   -31597.314   -10040.128    6258.8907   -13059.806    87.984421 
   22800    1329.0058   -103.97974    1.2025124   -102.77723    19657.655    4.4370431    4.4370431    4.4370431    19657.655    50345.743    24532.867   -15905.645    17252.538   -25125.022    -2226.174    87.353625 
   22900    1539.6204   -104.18372    1.3930809   -102.79064    15834.045    4.4355325    4.4355325    4.4355325    15834.045   -20924.843    69273.065   -846.08602    3153.9359   -4514.9901    963.04123    87.264437 
   23000    1822.5722   -104.44818    1.6491016   -102.79908   -15574.491    4.4629465    4.4629465    4.4629465   -15574.491   -40754.781   -8941.8545    2973.1634    1881.9718   -23207.641   -16299.988    88.892484 
   23100    1283.0466   -103.92642    1.1609275   -102.76549   -21336.248    4.4731277    4.4731277    4.4731277   -21336.248   -70410.843    21558.492   -15156.393    7653.5911     4012.853   -18473.515    89.502234 
   23200     2055.317   -104.60115     1.859694   -102.74145    3542.4367    4.4258104    4.4258104    4.4258104    3542.4367    11720.796   -5404.3212     4310.835    2523.2212   -21941.657   -12906.941    86.691877 
   23300    1898.8801   -104.49185    1.7181466    -102.7737   -3493.5388      4.40949      4.40949      4.40949   -3493.5388   -16110.333   -5301.5782    10931.295    13310.476    6509.0418     -12201.4    85.736371 
   23400    1422.4271   -104.10835     1.287042   -102.82131    23832.313    4.4415962    4.4415962    4.4415962    23832.313    11141.989    45939.602    14415.348    -10496.94    1196.5925   -14510.641    87.622818 
   23500    1435.1697   -104.13005    1.2985717   -102.83148   -10437.767    4.4622292    4.4622292    4.4622292   -10437.767   -13124.461   -29414.754    11225.916     15841.31    9674.5982   -7755.2538    88.849629 
   23600    1835.0022    -104.4597    1.6603486   -102.79935   -1583.1978    4.4483709    4.4483709    4.4483709   -1583.1978   -20577.689    31556.677   -15728.581   -3855.8668   -2607.4164    17408.251    88.024381 
   23700    1253.6905   -103.91347    1.1343656   -102.77911    30009.887    4.4116056    4.4116056    4.4116056    30009.887    42522.879    15305.822    32200.959     12707.71   -18457.715   -9361.9326    85.859833 
   23800     2194.315   -104.79094    1.9854624   -102.80547    8959.1054    4.4204534    4.4204534    4.4204534    8959.1054   -1267.0299    25828.684     2315.662   -7240.4219    2252.7224    18038.931    86.377463 
   23900    1360.4652   -104.05299    1.2309775   -102.82201   -40902.369    4.4530337    4.4530337    4.4530337   -40902.369   -81690.961   -15079.925   -25936.219    5581.2068   -29843.029   -5680.6391     88.30147 
   24000    2094.3633   -104.66443     1.895024    -102.7694   -26434.973    4.4622293    4.4622293    4.4622293   -26434.973   -39389.351   -4159.2691   -35756.299   -7438.4894   -2758.8672     8221.534    88.849637 
   24100    1011.7766   -103.67432   0.91547672   -102.75884   -23754.257     4.450948     4.450948     4.450948   -23754.257   -36994.642   -2923.4744   -31344.655    2871.2086   -49548.571   -415.55466    88.177457 
   24200    1683.3365   -104.25382    1.5231182    -102.7307    36305.811    4.4224979    4.4224979    4.4224979    36305.811    49467.306    40089.351    19360.777   -30352.445    4879.6708     5145.553    86.497369 
   24300    1106.2724   -103.78399    1.0009786   -102.78301    3377.9108    4.4441978    4.4441978    4.4441978    3377.9108    48567.394    15555.111   -53988.773   -9330.7328   -33979.392    574.05346    87.776881 
   24400    1567.0597    -104.1753    1.4179085   -102.75739   -12616.004    4.4695446    4.4695446    4.4695446   -12616.004    60601.531   -45642.288   -52807.257   -6708.7054    3318.9084   -5861.3962    89.287329 
   24500    1026.9696   -103.67541   0.92922365   -102.74619      9662.13    4.4590156    4.4590156    4.4590156      9662.13    11709.365    67193.453   -49916.428   -22464.991   -37934.955   -5499.4367    88.657803 
   24600    1861.6131   -104.40334    1.6844267   -102.71892     9193.203    4.4304549    4.4304549    4.4304549     9193.203   -37736.054    42908.615    22407.048    15162.724    9496.4793   -17573.295    86.965091 
   24700    1326.6325   -103.96601    1.2003649   -102.76564   -24926.086    4.4261591    4.4261591    4.4261591   -24926.086   -37386.229    20551.977   -57944.007   -11291.771   -60401.116    7470.9813     86.71237 
   24800    2071.0419   -104.66046    1.8739222   -102.78654   -21016.936    4.4281535    4.4281535    4.4281535   -21016.936   -40351.329   -30295.612    7596.1335    37059.514    4976.8374    -8004.412    86.829639 
   24900    1310.1855   -103.99489    1.1854834   -102.80941   -24431.446    4.4399855    4.4399855    4.4399855   -24431.446   -2103.2555   -15453.313   -55737.768    6109.9513   -45555.022   -3106.3844    87.527527 
   25000    1446.9916   -104.10695    1.3092684   -102.79768   -11843.467    4.4395595    4.4395595    4.4395595   -11843.467    35551.702   -63407.005   -7675.0969    20925.794    2804.2552   -11305.107    87.502333 
   25100    1423.4887   -104.08158    1.2880025   -102.79358    21289.214    4.4246976    4.4246976    4.4246976    21289.214    36372.795   -7357.3447    34852.192    11168.702    -37743.88    21247.519    86.626503 
   25200    1336.1361   -104.01442     1.208964   -102.80546   -6871.0804    4.4243301    4.4243301    4.4243301   -6871.0804   -16658.064    -47672.19    43717.013   -6100.8034   -16002.113   -8584.2444    86.604921 
   25300     1946.809   -104.55642    1.7615137   -102.79491    8140.4947    4.4331465    4.4331465    4.4331465    8140.4947   -21708.344    9009.0913    37120.737    19276.235    1466.1214    12983.818    87.123689 
   25400    1100.8437   -103.79456   0.99606652   -102.79849   -29348.489    4.4450095    4.4450095    4.4450095   -29348.489   -75913.218    4740.1336   -16872.384   -18154.339   -23242.612    11648.247    87.824986 
   25500    2343.3364   -104.88147    2.1203001   -102.76117   -8734.3647    4.4225764    4.4225764    4.4225764   -8734.3647   -25809.089    2969.7191   -3363.7244    13100.496    15933.634    7890.2195    86.501975 
   25600    1126.6952   -103.82042    1.0194575   -102.80096   -283.43812    4.4137324    4.4137324    4.4137324   -283.43812   -15152.426    876.50343    13425.608   -21905.828   -26290.501    10011.264     85.98407 
   25700    1965.4749   -104.57725     1.778403   -102.79884    1399.9136    4.4284352    4.4284352    4.4284352    1399.9136   -16083.277   -2403.5886    22686.606   -22971.453    1805.1646     9355.819    86.846215 
   25800    1272.6256   -103.95987    1.1514984   -102.80837    -25030.48    4.4418593    4.4418593    4.4418593    -25030.48   -5140.1952   -11868.675    -58082.57    7375.2922   -28600.666    15686.695    87.638392 
   25900    1893.7727   -104.49883    1.7135253    -102.7853   -11862.518    4.4421771    4.4421771    4.4421771   -11862.518    16935.707   -59720.927    7197.6672   -14956.344   -8879.9653    2735.9231    87.657202 
   26000    1635.0375   -104.26944    1.4794162   -102.79003    -12871.87    4.4231696    4.4231696    4.4231696    -12871.87   -12433.544   -15765.459   -10416.607    6684.8334   -34867.026    22225.407    86.536787 
   26100    1613.2631   -104.26144    1.4597144   -102.80172     22676.43    4.4247544    4.4247544    4.4247544     22676.43    1186.3821    19693.909        47149    970.49489    3023.1263    202.80947    86.629839 
   26200    1632.8148   -104.28121    1.4774051    -102.8038   -26293.651    4.4431609    4.4431609    4.4431609   -26293.651   -23949.708    5597.3623   -60528.607    11584.185   -19661.738    13316.866    87.715454 
   26300    1431.8778   -104.09787    1.2955931   -102.80228   -994.98734    4.4399757    4.4399757    4.4399757   -994.98734   -54115.398    32659.632    18470.803   -687.81334   -10777.053   -9190.6947    87.526945 
   26400    1717.5542   -104.33953    1.5540792   -102.78546   -340.29357    4.4301453    4.4301453    4.4301453   -340.29357    30965.163   -26510.072   -5475.9717   -3272.9431    -11979.68    2647.9881     86.94686 
   26500    1347.0896   -104.00467     1.218875   -102.78579    19339.258    4.4179043    4.4179043    4.4179043    19339.258    11600.095    55740.624   -9322.9469   -14853.364   -22607.229    16374.674    86.228117 
   26600    1880.9049   -104.50095    1.7018823   -102.79907    10388.438    4.4300117    4.4300117    4.4300117    10388.438    6549.9237    3615.6403     20999.75    -12513.48   -7783.7521   -14828.586    86.938993 
   26700    1655.5584   -104.29938     1.497984    -102.8014   -35575.516    4.4562764    4.4562764    4.4562764   -35575.516   -2698.7295   -47608.679   -56419.139    5329.4101   -27634.604    14256.514    88.494519 
   26800    1859.2939   -104.44738    1.6823282   -102.76505     10666.24    4.4440841    4.4440841    4.4440841     10666.24   -25636.429    33185.644    24449.504   -24432.615    17820.296   -14.762852    87.770146 
   26900    1365.2024   -104.01801    1.2352639   -102.78275   -6945.6207    4.4032885    4.4032885    4.4032885   -6945.6207    14598.855   -8878.9551   -26556.762    13311.214   -23217.089    26413.273    85.375141 
   27000    2043.4803   -104.66064    1.8489839   -102.81166     36816.75    4.4005185    4.4005185    4.4005185     36816.75   -2848.4513    75795.071    37503.631   -13164.844    4119.0582   -8774.1672    85.214116 
   27100    1364.7063   -104.07912    1.2348149    -102.8443    -39138.69    4.4337967    4.4337967    4.4337967    -39138.69   -17676.278   -33838.967   -65900.824    3996.8799   -11814.724    30828.395    87.162026 
   27200    1754.9262   -104.40128    1.5878941   -102.81338   -14696.526    4.4419591    4.4419591    4.4419591   -14696.526    -27964.42    3348.8737   -19474.032    9713.2652    4694.8077    489.42118      87.6443 
   27300     1247.746   -103.91678    1.1289868   -102.78779   -17412.225    4.4456665    4.4456665    4.4456665   -17412.225    -30406.02   -9187.3266    -12643.33   -2941.8348   -15608.765     18280.19    87.863935 
   27400    1169.4164   -103.83898    1.0581125   -102.78087   -17317.935    4.4232288    4.4232288    4.4232288   -17317.935   -16822.284   -22124.865   -13006.656    27199.061   -17821.995    8994.7428    86.540265 
   27500     1934.898   -104.52586    1.7507364   -102.77513    13965.696    4.3913419    4.3913419    4.3913419    13965.696   -10774.393    54329.019   -1657.5368   -17640.817    23231.397      5047.74    84.682124 
   27600    1256.0873   -103.97329    1.1365342   -102.83676   -7381.9191    4.4083402    4.4083402    4.4083402   -7381.9191    2967.1643   -15375.404   -9737.5175    27622.087   -31377.968    1415.6601    85.669315 
   27700    1969.0537    -104.6189    1.7816411   -102.83726   -26913.166    4.4465473    4.4465473    4.4465473   -26913.166   -53934.051    8219.0009   -35024.447   -17370.694    17357.125    7525.1835    87.916169 
   27800      922.984   -103.63751   0.83513532   -102.80238   -48027.885    4.4591782    4.4591782    4.4591782   -48027.885   -43993.587   -45740.985   -54349.084    24543.283   -19039.009    32134.285    88.667503 
   27900     1747.491   -104.36033    1.5811666   -102.77916    17010.065    4.3999425    4.3999425    4.3999425    17010.065    1191.0779    5360.3428    44478.776     25812.49    16681.444   -2775.4798    85.180658 
   28000    1545.1926   -104.16937    1.3981228   -102.77125    31451.612      4.37634      4.37634      4.37634    31451.612    24045.072     37658.26    32651.503   -6439.2195   -21008.671    30351.125    83.817204 
   28100    1173.2846   -103.90037    1.0616126   -102.83876   -24851.563     4.420482     4.420482     4.420482   -24851.563   -47746.963   -26746.801   -60.925925    22739.875   -16031.712    9878.0069    86.379143 
   28200    2093.2079   -104.70529    1.8939785   -102.81131   -14937.697    4.4509793    4.4509793    4.4509793   -14937.697   -2063.7288   -20578.997   -22170.365   -6191.9426    3533.0521    4011.1083    88.179314 
   28300    965.22864   -103.66746   0.87335916    -102.7941   -39938.047    4.4495139    4.4495139    4.4495139   -39938.047    -22223.16   -39209.743   -58381.239    18240.923   -21281.669    10736.762    88.092248 
   28400    1963.0035   -104.54215    1.7761668   -102.76598    39513.823    4.3940305    4.3940305    4.3940305    39513.823    36175.425    40461.941    41904.104   -5012.2044    17553.078    8906.8328     84.83776 
   28500    1513.0735   -104.16341    1.3690607   -102.79435    6919.8898    4.3807673    4.3807673    4.3807673    6919.8898   -10837.123    7271.0266    24325.766    19616.799   -25915.546    22354.385    84.071841 
   28600    1583.1865   -104.24975    1.4325004   -102.81725    536.88863    4.4252873    4.4252873    4.4252873    536.88863    6282.5486    26890.756   -31562.639    23534.681    263.23512    -24380.89    86.661146 
   28700    1448.6778   -104.12386    1.3107941   -102.81307    -9222.223     4.442887     4.442887     4.442887    -9222.223    46720.135   -42933.769   -31453.034   -2220.6021   -14125.761    24919.151    87.699237 
   28800    1630.9152   -104.25977    1.4756863   -102.78409   -18962.127    4.4447986    4.4447986    4.4447986   -18962.127    5641.2052   -54113.532   -8414.0544    14882.238   -10724.201    -4214.091    87.812486 
   28900    1839.9037   -104.45067    1.6647836   -102.78588   -3668.6295    4.4047975    4.4047975    4.4047975   -3668.6295    48937.809   -26880.509   -33063.188   -14093.143    3317.0368    29575.276    85.462941 
   29000    1547.1647   -104.20116    1.3999071   -102.80125    24278.363     4.375011     4.375011     4.375011    24278.363    34911.397    38397.112   -473.42049    41774.654   -35787.147   -16601.657    83.740869 
   29100    2069.6286   -104.73341    1.8726434   -102.86077   -625.33934    4.4106557    4.4106557    4.4106557   -625.33934    68471.656   -31125.636   -39222.038   -13314.459    8798.6338    20016.858    85.804385 
   29200    1267.4234   -103.97812    1.1467913   -102.83133    -51853.43    4.4486867    4.4486867    4.4486867    -51853.43   -74387.373    -36162.16   -45010.758    41809.064   -36993.735   -9797.3548    88.043129 
   29300    1646.2195   -104.29268     1.489534   -102.80315    -12738.79     4.419792     4.419792     4.419792    -12738.79    18718.812   -19605.419   -37329.763   -10322.996    6109.1799    10017.204    86.338701 
   29400     1934.921   -104.53711    1.7507572   -102.78636     17282.55    4.3880899    4.3880899    4.3880899     17282.55    40195.077   -2004.3831    13656.957     32675.74   -14161.767   -7103.5828     84.49413 
   29500    1223.8645    -103.9319    1.1073783   -102.82452    788.03648    4.3949519    4.3949519    4.3949519    788.03648    38247.507    -24126.38   -11757.017    15255.932   -11183.744    3326.6077    84.891144 
   29600    2128.2252    -104.7479    1.9256629   -102.82224   -21661.256    4.4339919    4.4339919    4.4339919   -21661.256   -3628.8996   -50246.794   -11108.075   -3206.6468    13126.613     781.1753     87.17354 
   29700    1020.4815   -103.74447   0.92335308   -102.82112   -28976.125    4.4312964    4.4312964    4.4312964   -28976.125    4807.0002    -50905.94   -40829.436    45196.535    -21597.58    15464.249    87.014655 
   29800    1883.6549   -104.50443    1.7043706   -102.80006    26315.704    4.3831056    4.3831056    4.3831056    26315.704    49126.305    9422.3709    20398.438   -4506.6849    3515.5537    25462.266    84.206538 
   29900    1284.5547   -104.00774    1.1622921   -102.84545    16253.242    4.3897804    4.3897804    4.3897804    16253.242    55761.497   -22714.684    15712.913      28361.1   -2228.7547    132.87438    84.591823 
   30000    1725.4072   -104.41045    1.5611847   -102.84927   -41119.435    4.4368028    4.4368028    4.4368028   -41119.435   -16053.826   -64858.484   -42445.995    3408.6417   -25193.431    27523.011    87.339435 
   30100    1758.6314   -104.39257    1.5912467   -102.80132   -21354.147    4.4443576    4.4443576    4.4443576   -21354.147   -3123.5667   -18656.319   -42282.556    10358.667    26489.514   -12407.319    87.786347 
   30200    1123.2337   -103.81567    1.0163254   -102.79935   -30382.023    4.4164195    4.4164195    4.4164195   -30382.023   -29220.943   -17038.961   -44886.166    16908.793    -27633.59    30867.368    86.141206 
   30300    2162.0361   -104.74027    1.9562557   -102.78401    48207.732    4.3789778    4.3789778    4.3789778    48207.732    45586.391    71265.932    27770.873   -10772.084     650.8953   -6170.4373    83.968856 
   30400    1204.5448   -103.94778    1.0898974   -102.85788   -8234.2593     4.401722     4.401722     4.401722   -8234.2593    15096.094   -34659.906   -5138.9657    38539.162   -21611.882     18617.87    85.284055 
   30500    1724.2933   -104.38225    1.5601768   -102.82207   -26694.692    4.4380418    4.4380418    4.4380418   -26694.692    838.59923   -25156.562   -55766.112   -21415.193   -15222.584    15646.217    87.412624 
   30600    1481.5013   -104.14532    1.3404935   -102.80483   -860.56022    4.4196109    4.4196109    4.4196109   -860.56022     10847.17    6034.7551   -19463.606    40599.817   -709.00505    1244.6932    86.328084 
   30700    1552.8518   -104.20384    1.4050529   -102.79879    8196.7323    4.3992473    4.3992473    4.3992473    8196.7323    38872.645   -13297.678   -984.76982     1839.432   -27867.143    20415.794    85.140291 
   30800    2225.1514   -104.82004    2.0133637   -102.80668    1852.2528    4.3990778    4.3990778    4.3990778    1852.2528   -19518.429    80.197548     24994.99    20336.214   -8687.2431     4129.437    85.130452 
   30900    1031.8278   -103.78998   0.93361948   -102.85636   -21110.082    4.4223132    4.4223132    4.4223132   -21110.082    8221.5907   -29166.023   -42385.815    25601.171   -13770.629    17740.304    86.486535 
   31000    2347.1828    -104.9354    2.1237803   -102.81162   -40818.726    4.4332284    4.4332284    4.4332284   -40818.726    -34952.13   -54233.065   -33270.983    6448.5578   -13833.703    591.88602    87.128519 
   31100    1341.3253   -104.01527    1.2136593   -102.80161     2543.507    4.4096818    4.4096818    4.4096818     2543.507   -29860.564    -1400.564    38891.649    31870.152    -11112.74     21059.23     85.74756 
   31200    1939.1126   -104.55177    1.7545498   -102.79722   -24755.844    4.4116145    4.4116145    4.4116145   -24755.844    3028.3741   -22366.787   -54929.119   -882.62276   -24103.357    5706.5756    85.860351 
   31300     1442.138   -104.11471    1.3048768   -102.80983    12293.513    4.4123561    4.4123561    4.4123561    12293.513   -5000.6601   -42441.232    84322.431    31824.717    598.59545   -6122.0739    85.903658 
   31400     1698.415    -104.3645    1.5367616   -102.82773   -11191.699    4.4116765    4.4116765    4.4116765   -11191.699   -11465.793   -28528.519    6419.2144   -5842.7761   -21632.127    35566.812    85.863974 
   31500    1575.6419   -104.26263    1.4256739   -102.83696   -21647.368    4.4111743    4.4111743    4.4111743   -21647.368   -3431.1626   -62860.526    1349.5836    42981.527    12496.065    -16611.09    85.834655 
   31600     1696.921   -104.37236    1.5354098   -102.83695    20309.017    4.3956999    4.3956999    4.3956999    20309.017    5537.3002    395.96836    54993.783   -11792.048   -5080.7662    15131.268    84.934493 
   31700     1535.871   -104.23369    1.3896883     -102.844   -20509.777    4.4097565    4.4097565    4.4097565   -20509.777   -12587.965   -41142.869   -7798.4973    34100.382    -11054.81   -3690.2127    85.751917 
   31800    1549.3663   -104.22972    1.4018992   -102.82782   -17525.946    4.4134971    4.4134971    4.4134971   -17525.946   -26592.507   -26492.017    506.68593    11985.388    32064.446   -4785.0963     85.97032 
   31900    1755.7098   -104.40198    1.5886031   -102.81338   -10829.246     4.406869     4.406869     4.406869   -10829.246   -14049.028   -11541.368    -6897.342    7824.4474   -23525.757    15914.573    85.583574 
   32000    1700.9055   -104.35712    1.5390151   -102.81811   -18699.526    4.4129687    4.4129687    4.4129687   -18699.526    -48577.92   -29845.815    22325.158    14089.025    27804.672   -12092.299    85.939442 
   32100    1284.8891   -103.98507    1.1625946   -102.82248   -3593.4406    4.4067126    4.4067126    4.4067126   -3593.4406    6677.0989   -17313.246    -144.1745   -5140.0076     12709.09    24672.967    85.574462 
   32200    1874.4573   -104.51804    1.6960484   -102.82199    1610.0212    4.4047132    4.4047132    4.4047132    1610.0212   -7829.2195    2548.3998    10110.883    25594.064   -29641.722   -5084.6051    85.458036 
   32300    1761.2201   -104.40998     1.593589   -102.81639   -25278.506    4.4155659    4.4155659    4.4155659   -25278.506   -14392.225   -50046.838   -11396.455   -17686.497    14372.471    24085.804    86.091269 
   32400    1222.1294   -103.93217    1.1058084   -102.82636   -24978.707    4.4085625    4.4085625    4.4085625   -24978.707   -32990.627   -36972.262   -4973.2326    30035.993   -23965.772    12653.744    85.682277 
   32500    2135.7681   -104.74575    1.9324878   -102.81327    22181.593    4.4043832    4.4043832    4.4043832    22181.593    21530.954   -12223.528    57237.352   -18825.256   -13410.838   -3075.7016    85.438829 
   32600    881.22205   -103.63697   0.79734823   -102.83962   -34493.022    4.4108677    4.4108677    4.4108677   -34493.022    3609.2196   -69860.141   -37228.143    36615.235   -18434.606    16490.364    85.816755 
   32700    1942.4506   -104.58303    1.7575702   -102.82546    6133.2734    4.4057093    4.4057093    4.4057093    6133.2734   -9809.5019    15775.304    12434.018   -16408.314   -5903.0237   -21919.349    85.516027 
   32800    1562.6489   -104.23232    1.4139175    -102.8184   -36126.982    4.4205694    4.4205694    4.4205694   -36126.982   -4700.3393    -77484.07   -26196.538    27347.816   -4014.3319    22601.923    86.384267 
   32900    1689.7459   -104.31761    1.5289176   -102.78869   -28867.676    4.4241506    4.4241506    4.4241506   -28867.676   -2088.9405   -32970.664   -51543.424    4739.2825   -12005.717   -11183.541    86.594377 
   33000    2054.4978   -104.64417    1.8589527   -102.78522     5440.142    4.4023121    4.4023121    4.4023121     5440.142    1792.0634   -6420.1798    20948.543   -1825.2799    18174.694    3091.5692    85.318358 
   33100    1450.4207   -104.11528    1.3123711   -102.80291   -11212.305    4.3967091    4.3967091    4.3967091   -11212.305   -2575.8926   -17672.214   -13388.807    14025.014   -31881.012    5336.5922    84.993008 
   33200    1835.4727   -104.47191    1.6607742   -102.81113     25673.15    4.4082823    4.4082823    4.4082823     25673.15    53840.951    20062.199    3116.3003   -19148.244    13504.476   -7550.9566    85.665942 
   33300    1571.6653   -104.23123    1.4220758   -102.80915   -17597.601    4.4226997    4.4226997    4.4226997   -17597.601    6651.6475   -36308.528   -23135.923    13842.816   -31476.514    3429.4466    86.509213 
   33400    1597.7309   -104.24762    1.4456605   -102.80196   -13340.674    4.4163931    4.4163931    4.4163931   -13340.674    10771.398   -12517.783   -38275.637    448.70989    3372.3268    -13030.59    86.139666 
   33500    1506.8251   -104.16261     1.363407   -102.79921    32929.324    4.3937765    4.3937765    4.3937765    32929.324    3269.4868     104190.2   -8671.7199     11489.79   -26016.464    1297.9096    84.823051 
   33600    1714.7496   -104.37188    1.5515415   -102.82034   -4809.4174    4.4087109    4.4087109    4.4087109   -4809.4174   -20682.114    26760.068   -20506.207    6611.1137   -4192.0177   -12327.285    85.690931 
   33700     1468.443   -104.13583    1.3286781   -102.80715    1887.3635    4.4261497    4.4261497    4.4261497    1887.3635   -22047.052    61917.376   -34208.233   -7669.2075   -12769.361    4207.3214    86.711816 
   33800    1442.3916   -104.10637    1.3051062   -102.80127     -11909.8    4.4172261    4.4172261    4.4172261     -11909.8   -22415.217    18699.885   -32014.067     9070.952   -27740.952    8375.0339    86.188412 
   33900    1895.0259   -104.50525    1.7146592   -102.79059    16404.647    4.3978833    4.3978833    4.3978833    16404.647    25700.478    27220.112   -3706.6486    -6522.863    1292.0727   -4472.5351    85.061121 
   34000    1207.5019     -103.915    1.0925731   -102.82243    22762.562    4.3929622    4.3929622    4.3929622    22762.562    30866.285    41107.977    -3686.577    5242.6878   -40226.425     9315.787    84.775901 
   34100    2197.8095   -104.81703    1.9886242   -102.82841   -6610.4073    4.4250685    4.4250685    4.4250685   -6610.4073   -12124.397   -4149.4664   -3557.3585    1689.6266     8201.327    559.17227    86.648288 
   34200    1034.6058    -103.7601   0.93613311   -102.82397   -13327.184    4.4323085    4.4323085    4.4323085   -13327.184    -6395.202   -14487.105   -19099.244     15257.06   -58513.843   -44.211144    87.074289 
   34300    1807.6212   -104.44387    1.6355736    -102.8083    14196.314    4.4029695    4.4029695    4.4029695    14196.314    29884.466   -31253.921    43958.398    7940.7494     5449.992    6149.0353    85.356583 
   34400    1570.4566   -104.22842    1.4209821   -102.80744    29962.237    4.3774422    4.3774422    4.3774422    29962.237    55329.102    43370.668   -8813.0574   -5376.0843   -48190.276      4196.77    83.880547 
   34500    1467.5767   -104.17233    1.3278942   -102.84443    2328.3846    4.4094898    4.4094898    4.4094898    2328.3846   -32799.684   -1942.8817    41727.719    21856.181    10801.999    6149.1452    85.736357 
   34600    1708.4848    -104.3556     1.545873   -102.80972   -10540.346     4.428831     4.428831     4.428831   -10540.346   -29516.116    20907.981   -23012.901    -5725.982   -32811.574    6685.0111      86.8695 
   34700     1436.803   -104.09074    1.3000496   -102.79069    3784.6184    4.4201245    4.4201245    4.4201245    3784.6184   -2174.8526    2428.1464    11100.561    22499.517   -1132.2785    5177.4137    86.358184 
   34800     1678.316   -104.30135    1.5185756   -102.78278   -7286.2933    4.4095111    4.4095111    4.4095111   -7286.2933   -53116.557    35764.799   -4507.1223   -4871.5464    -20086.62   -516.95575    85.737602 
   34900    1500.0721   -104.14848    1.3572968   -102.79118     22096.42    4.3961834    4.3961834    4.3961834     22096.42    14571.794    38068.932    13648.535    20676.069   -24231.865   -13307.278    84.962527 
   35000    1970.3488    -104.5906     1.782813   -102.80779   -20806.582    4.4092969    4.4092969    4.4092969   -20806.582   -33603.206   -14127.094   -14689.444    4778.0394   -7066.1055   -6760.3684    85.725103 
   35100    1279.2519   -103.97273     1.157494   -102.81524     15750.67    4.4149826    4.4149826    4.4149826     15750.67   -9424.6734    43177.703    13498.982    10032.332   -25314.323   -2087.4186    86.057156 
   35200    1697.9498    -104.3484    1.5363406   -102.81206    6438.0931    4.4156104    4.4156104    4.4156104    6438.0931    17898.071   -50816.234    52232.442    9984.1557     3678.698    -6717.977    86.093872 
   35300    1678.0682   -104.31998    1.5183514   -102.80163   -8277.1544    4.4183153    4.4183153    4.4183153   -8277.1544   -44695.223    24232.307    -4368.547      3214.09   -30587.423    16471.989    86.252185 
   35400    1407.4937   -104.06821    1.2735298   -102.79468    32679.229    4.4085647    4.4085647    4.4085647    32679.229    47278.657    32527.622    18231.408    27725.782    9684.0827   -2977.2429    85.682404 
   35500    1929.7154   -104.54951     1.746047   -102.80346   -22487.689    4.4206463    4.4206463    4.4206463   -22487.689   -25888.427     4786.941   -46361.582   -8529.5609   -35516.804    5996.9114    86.388774 
   35600    1734.8918   -104.34996    1.5697665   -102.78019   -176.85158    4.4226918    4.4226918    4.4226918   -176.85158    2673.5864   -2702.2036   -501.93747    32643.157    11515.979   -1393.2462    86.508746 
   35700    1444.2982   -104.09068    1.3068314   -102.78385    5644.2458    4.4158699    4.4158699    4.4158699    5644.2458   -2081.6761    53470.473    -34456.06   -2756.8215   -29140.988   -18460.919    86.109051 
   35800    1855.0919   -104.46283    1.6785261    -102.7843   -5843.0553    4.4224381    4.4224381    4.4224381   -5843.0553   -33887.251   -33422.977    49781.062    37466.797     16997.23   -4525.2751    86.493865 
   35900    1216.3339   -103.88355    1.1005645   -102.78298    10731.932    4.4260656    4.4260656    4.4260656    10731.932   -14523.228   -28126.114    74845.139   -7151.6123   -11155.409   -18101.217    86.706875 
   36000    1250.8556   -103.92173    1.1318005   -102.78993    19730.795    4.4171275    4.4171275    4.4171275    19730.795   -43239.735    41588.469     60843.65    42134.174    -10634.07   -12804.152    86.182642 
   36100    1709.2161   -104.33488    1.5465347   -102.78834    4242.0113    4.4124319    4.4124319    4.4124319    4242.0113    7197.0692    10943.055     -5414.09   -14984.515    3560.1861   -30662.562    85.908085 
   36200    1364.9612   -104.03509    1.2350456   -102.80004   -18007.815    4.4143128    4.4143128    4.4143128   -18007.815   -27940.198    -13651.04   -12432.206    49244.639     -20375.2    3826.6359    86.017997 
   36300    1991.0187    -104.5988    1.8015156   -102.79728   -9782.3611    4.4104681    4.4104681    4.4104681   -9782.3611   -8972.2039    12857.973   -33232.853    188.52171    20228.771   -17095.057    85.793433 
   36400    1278.2579   -103.97173    1.1565946   -102.81514   -5595.9578    4.4135777    4.4135777    4.4135777   -5595.9578    7111.6464   -4828.2082   -19071.311    20242.461   -34688.907    2199.1678    85.975031 
   36500    2003.0935   -104.61083    1.8124411   -102.79839   -19698.874    4.4213122    4.4213122    4.4213122   -19698.874   -25422.248    -28520.73   -5153.6445    14005.258    30212.509    3961.8986    86.427821 
   36600    1423.7416   -104.08846    1.2882313   -102.80023   -7650.0055    4.4093128    4.4093128    4.4093128   -7650.0055   -7525.9827    -7298.533   -8125.5008    12625.806   -21283.959   -20115.608    85.726034 
   36700    1424.0059   -104.07732    1.2884705   -102.78885    35819.801    4.3998471    4.3998471    4.3998471    35819.801    46544.752     4297.314    56617.335    12349.321    10109.668    5506.7788    85.175121 
   36800    1741.0377   -104.37962    1.5753275    -102.8043   -29269.114      4.41986      4.41986      4.41986   -29269.114   -22647.837   -41778.845    -23380.66    2243.1824    3294.7221   -10027.205    86.342682 
   36900    1493.2817   -104.14181    1.3511526   -102.79066   -7976.4061    4.4194339    4.4194339    4.4194339   -7976.4061   -839.00765   -25835.908    2745.6975    29301.471   -13038.045   -1081.7913    86.317715 
   37000    1383.7455   -104.03888     1.252042   -102.78683    4317.3171    4.4035128    4.4035128    4.4035128    4317.3171   -4517.4457    6085.9055    11383.492   -18670.282    38131.759   -6072.6489    85.388184 
   37100    1850.2985   -104.47042     1.674189   -102.79623   -11875.603    4.3997886    4.3997886    4.3997886   -11875.603   -17753.888    6430.3751   -24303.295    38863.872   -40122.795   -1636.1925    85.171721 
   37200    1499.4527   -104.16909    1.3567363   -102.81236    8209.2143    4.4047756    4.4047756    4.4047756    8209.2143   -13200.865    44226.573    -6398.065   -6902.6494    53652.877   -4348.6669     85.46167 
   37300    1431.9959   -104.10793    1.2956999   -102.81223   -11162.819    4.4123272    4.4123272    4.4123272   -11162.819   -35132.613    10631.749    -8987.592    8530.8455   -53797.827     813.7507    85.901971 
   37400    1775.5099   -104.40914    1.6065186   -102.80262    -17551.56    4.4158652    4.4158652    4.4158652    -17551.56    -21538.73   -7916.2715   -23199.677    13678.885    41512.925    10084.607     86.10878 
   37500    1839.5833   -104.46501    1.6644936   -102.80052   -9431.1704    4.4119339    4.4119339    4.4119339   -9431.1704   -24549.432    849.62123   -4593.7009   -2388.2792   -39778.669    1571.1077    85.879001 
   37600     1480.479   -104.13566    1.3395685   -102.79609    1187.6505    4.4056681    4.4056681    4.4056681    1187.6505   -2278.2619    10920.149   -5078.9354    11303.181     38575.39    -5181.405     85.51363 
   37700    1842.9535   -104.46247    1.6675431   -102.79493   -30741.904    4.4158389    4.4158389    4.4158389   -30741.904   -52891.197   -1079.9368   -38254.578    5038.3941   -6850.6979    13712.599    86.107238 
   37800    1738.9078   -104.36403    1.5734003   -102.79063   -11645.814    4.4137911    4.4137911    4.4137911   -11645.814   -27315.536    37634.178   -45256.085   -3584.2239   -2727.5641   -791.13549    85.987498 
   37900    1466.0345   -104.11621    1.3264988   -102.78971   -12376.802    4.4098849    4.4098849    4.4098849   -12376.802   -28346.386    44695.482   -53479.502    2474.3032    6987.9155    2721.4253    85.759406 
   38000    1534.9129    -104.1787    1.3888214   -102.78987   -12589.595    4.4034569    4.4034569    4.4034569   -12589.595   -2751.4825     17909.32   -52926.623   -2127.8232   -28055.628    1381.7539    85.384936 
   38100    1687.9143   -104.32535    1.5272603   -102.79809    7221.7285    4.4030982    4.4030982    4.4030982    7221.7285   -34471.528    101564.14   -45427.426   -8551.6558     8264.791    14594.308    85.364068 
   38200    1482.0435   -104.15165    1.3409841   -102.81067   -6491.6283    4.4074796    4.4074796    4.4074796   -6491.6283     -11003.5    32177.346   -40648.732   -547.48553   -46932.927   -8608.7173    85.619151 
   38300    1697.1819    -104.3376    1.5356458   -102.80195   -743.44245    4.4113741    4.4113741    4.4113741   -743.44245    -12848.55    61027.554   -50409.331    9120.2665    1344.1593    7420.7541    85.846316 
   38400    1720.1467   -104.36434    1.5564248   -102.80792   -25843.265    4.4137288    4.4137288    4.4137288   -25843.265   -43141.017    24611.743   -59000.521   -8270.7124   -54507.758   -918.81701    85.983857 
   38500    1406.8944     -104.073    1.2729876   -102.80001    36398.446    4.4028017    4.4028017    4.4028017    36398.446    44267.844    98662.276   -33734.784     19143.32   -6196.5072   -2331.1896    85.346828 
   38600    1501.9364   -104.16169    1.3589836   -102.80271   -6308.8414    4.4077883    4.4077883    4.4077883   -6308.8414    1317.7158    34868.419   -55112.659    6306.5328    -41780.17    4258.5729    85.637144 
   38700    1511.4218   -104.16932    1.3675662   -102.80175    14111.749    4.4091239    4.4091239    4.4091239    14111.749    30231.583    62298.892   -50195.229   -17448.657   -21035.917   -2594.7877    85.715016 
   38800    1588.4149   -104.25592    1.4372312   -102.81869   -23731.312    4.4121665    4.4121665    4.4121665   -23731.312   -43036.593    44416.402   -72573.746    15319.407   -33978.505    11738.245    85.892587 
   38900     1894.888   -104.52566    1.7145345   -102.81112     12314.15    4.4002729    4.4002729    4.4002729     12314.15    58266.985    2535.2506   -23859.786   -2243.7564   -21353.785    2100.6474    85.199849 
   39000    1406.0485   -104.10164    1.2722222   -102.82942    713.29958    4.4047931    4.4047931    4.4047931    713.29958   -29653.839    57660.958   -25867.221   -4269.2015   -25839.499   -8838.9293    85.462689 
   39100    1728.0657   -104.37498    1.5635902   -102.81139   -13088.367    4.4177723    4.4177723    4.4177723   -13088.367    7979.9578        -1115    -46130.06   -6490.7044    7910.6987    4117.5921    86.220389 
   39200    1831.5574   -104.45483    1.6572316    -102.7976   -4305.4086    4.4194153    4.4194153    4.4194153   -4305.4086    5662.1181    21297.364   -39875.708   -984.78208   -33685.356   -425.33142    86.316621 
   39300    1084.0701   -103.77571   0.98088937   -102.79482   -12555.717    4.4281067    4.4281067    4.4281067   -12555.717   -22003.162    22700.572    -38364.56   -9593.0948    16068.723   -108.72142    86.826885 
   39400    2119.1437    -104.6932    1.9174458   -102.77575    6546.5707    4.4121901    4.4121901    4.4121901    6546.5707    -13236.89    47226.504   -14349.902   -1435.6455   -22095.455     6971.589    85.893963 
   39500    1018.1478   -103.71222   0.92124151   -102.79098    8877.2492    4.4086742    4.4086742    4.4086742    8877.2492   -24776.317    60686.214   -9278.1498   -12218.907    14937.873   -6422.1998    85.688791 
   39600    1856.1326   -104.46835    1.6794678   -102.78889    1541.1748    4.4110358    4.4110358    4.4110358    1541.1748   -13164.073    10892.498    6895.1003    13664.268   -11171.315    991.24094     85.82657 
   39700    1087.6514   -103.79437   0.98412985   -102.81024    10635.814    4.4069758    4.4069758    4.4069758    10635.814   -11168.124    2723.7933    40351.772   -19320.981    28229.902   -7734.5907    85.589795 
   39800     2160.498   -104.74997     1.954864    -102.7951   -78.606589     4.413143     4.413143     4.413143   -78.606589   -5267.9216   -4994.5817    10026.684   -1388.8503   -17159.176    12626.747    85.949625 
   39900    1148.5978    -103.8443    1.0392755   -102.80503    674.87448    4.4113471    4.4113471    4.4113471    674.87448   -2716.6226    -1371.265     6112.511   -8970.6099    37416.465   -7850.1046    85.844741 
   40000     1779.468   -104.40194    1.6101001   -102.79184      27352.1    4.4158359    4.4158359    4.4158359      27352.1     14456.11    17492.214    50107.977    4159.2218   -5175.0562     -4568.21    86.107064 
   40100    1540.3493   -104.18635    1.3937404   -102.79261   -35813.328    4.4229643    4.4229643    4.4229643   -35813.328   -52679.245   -7236.5761   -47524.162   -1084.5874    42222.124    13748.459     86.52474 
   40200    1520.1115   -104.16098    1.3754289   -102.78555    14114.464    4.4099623    4.4099623    4.4099623    14114.464    19448.549    20945.567    1949.2757   -4423.5074   -4308.4089   -7245.1141    85.763923 
   40300    1317.6162   -103.99129    1.1922068   -102.79908      1380.15    4.4146995    4.4146995    4.4146995      1380.15   -40286.529    32744.655    11682.324    2252.3894    23903.717    14313.995    86.040602 
   40400    1773.9308   -104.40196    1.6050899   -102.79687   -24661.005    4.4166392    4.4166392    4.4166392   -24661.005   -57389.666   -28236.655    11643.306   -22411.548    15263.042    1448.4464    86.154061 
   40500    1541.5697   -104.19051    1.3948447   -102.79567    9583.6659    4.4090251    4.4090251    4.4090251    9583.6659    18265.118     6011.333    4474.5464    11816.807   -18841.901    3006.6462    85.709252 
   40600    1122.1351   -103.82442    1.0153314   -102.80909   -5959.8244    4.4138589    4.4138589    4.4138589   -5959.8244   -51253.852    25890.601    7483.7778   -24643.702     22970.91    16482.931    85.991465 
   40700    2102.9775   -104.69121    1.9028183   -102.78839   -5575.8521    4.4193352    4.4193352    4.4193352   -5575.8521    -13417.27   -1401.6603    -1908.626    1966.9451   -19184.858   -11585.254    86.311931 
   40800    999.10702   -103.70829   0.90401303   -102.80428    -26655.56    4.4147001    4.4147001    4.4147001    -26655.56    -40217.94   -23138.088   -16610.652   -555.18048    19148.619    23110.891    86.040635 
   40900    2083.8074   -104.67482    1.8854727   -102.78935     2462.201    4.4040836    4.4040836    4.4040836     2462.201    35190.957   -35289.541    7485.1873   -11922.528   -12651.546   -18087.739    85.421398 
   41000    1211.2211   -103.90882    1.0959383   -102.81288   -11719.936    4.4045313    4.4045313    4.4045313   -11719.936   -30370.666    37930.495   -42719.636     847.6981    22496.802   -3020.0015    85.447449 
   41100    2134.7787   -104.72865    1.9315926   -102.79705    4103.4998     4.407086     4.407086     4.407086    4103.4998    5702.2805    6774.9829    -166.7638    4212.9877   -11265.098   -7193.7972    85.596216 
   41200    930.27428   -103.66046   0.84173172   -102.81873   -20242.343    4.4198338    4.4198338    4.4198338   -20242.343   -26131.062    22713.779   -57309.746   -6856.7898    27296.028   -11413.603     86.34115 
   41300    2177.8709   -104.75977    1.9705833   -102.78919    12383.508    4.4071842    4.4071842    4.4071842    12383.508   -14289.162    50754.278     685.4087    -8780.629    7897.4705   -1526.8996    85.601939 
   41400    1223.9084    -103.9108     1.107418   -102.80338   -21939.433    4.3958791    4.3958791    4.3958791   -21939.433   -46579.308    9969.9799   -29208.971     3653.896    5990.9758   -24253.078    84.944884 
   41500    1895.2345   -104.51811     1.714848   -102.80326    10705.889    4.4092907    4.4092907    4.4092907    10705.889    9064.8721    48246.838   -25194.045   -6498.0385    13836.927    15117.786    85.724742 
   41600    1245.4779   -103.93967    1.1269346   -102.81273    122.80856    4.4123532    4.4123532    4.4123532    122.80856   -8770.7457    23808.962    -14669.79   -19789.865    9169.9709    -13390.98    85.903487 
   41700    2079.9818   -104.68126    1.8820113   -102.79925   -21387.824     4.418739     4.418739     4.418739   -21387.824   -53638.876    10301.732   -20826.329    5635.1917    5531.3292    10885.717    86.277005 
   41800    1322.0716   -103.99604    1.1962381    -102.7998    1456.7277    4.4075905    4.4075905    4.4075905    1456.7277    17282.583    29979.047   -42891.446   -15585.153   -15266.229    20701.232     85.62562 
   41900     1885.784   -104.50251     1.706297   -102.79622    19581.466    4.3900797    4.3900797    4.3900797    19581.466    18528.675    32965.553     7250.169     7161.661    26308.151   -5363.5033    84.609128 
   42000    1582.9039   -104.25708    1.4322447   -102.82484    -14344.63    4.4086892    4.4086892    4.4086892    -14344.63    -16218.65    3855.5237   -30670.764    12746.333   -10446.201    22679.551    85.689665 
   42100    1615.1312   -104.27541    1.4614046   -102.81401   -16343.891    4.4184543    4.4184543    4.4184543   -16343.891    6302.1855   -5575.0135   -49758.845   -8592.7219    10814.091   -22394.468     86.26033 
   42200    1590.0029   -104.24165     1.438668   -102.80299    27505.652    4.4019807    4.4019807    4.4019807    27505.652    43523.811    5648.3451      33344.8    9176.5038   -5897.2319    30684.687    85.299092 
   42300    1456.7954   -104.14275    1.3181391   -102.82461   -250.46661    4.4123228    4.4123228    4.4123228   -250.46661   -18124.682    41436.945   -24063.663   -3898.8979    12564.492   -18789.922    85.901712 
   42400    1539.9006   -104.20974    1.3933345   -102.81641    9341.7121     4.419388     4.419388     4.419388    9341.7121    48678.276    20652.063   -41305.202   -4109.1311   -12087.822    23828.742    86.315027 
   42500     1269.699   -103.96631    1.1488504   -102.81746   -8482.6268     4.419525     4.419525     4.419525   -8482.6268     22464.25    -20912.45    -26999.68   -2986.3905    12387.536   -6495.2925    86.323052 
   42600    2006.0352   -104.61155    1.8151028   -102.79645    7859.0625    4.4078062    4.4078062    4.4078062    7859.0625    30177.668    21999.107   -28599.588    4299.0599   -23410.233    15905.233     85.63819 
   42700    1128.3683   -103.83785    1.0209713   -102.81688   -2660.5936    4.4110206    4.4110206    4.4110206   -2660.5936    50713.735   -39443.855   -19251.661    1371.0281    1826.1693    14749.991    85.825683 
   42800    2383.5388   -104.94972     2.156676   -102.79304   -19776.052    4.4162261    4.4162261    4.4162261   -19776.052   -20600.702   -8628.0838    -30099.37    604.85469   -8999.1825    1561.2885    86.129894 
   42900    892.87253   -103.62138   0.80788983   -102.81349     19907.12    4.4059879    4.4059879    4.4059879     19907.12    94681.888   -9356.2752   -25604.252    6151.8348   -16039.207     31495.27    85.532249 
   43000    2051.8744   -104.66277    1.8565791   -102.80619    8843.9818    4.4087583    4.4087583    4.4087583    8843.9818   -12930.516    17131.631    22330.831    8768.4563    3128.8437   -1558.5512    85.693693 
   43100     1220.965   -103.92594    1.1047548   -102.82118   -4765.6175    4.4129226    4.4129226    4.4129226   -4765.6175     56306.99   -18015.858   -52587.985    5076.2757   -10723.656    32590.387    85.936751 
   43200    1745.7207   -104.38109    1.5795648   -102.80152     26510.71    4.4098742    4.4098742    4.4098742     26510.71    -2925.457    34410.159    48047.429   -103.60027    2314.6611   -6315.8746     85.75878 
   43300    1677.9125    -104.3263    1.5182105   -102.80809   -30164.377    4.4145619    4.4145619    4.4145619   -30164.377   -6944.2264    -31576.37   -51972.534     4168.564   -17657.966    29628.587     86.03256 
   43400    1589.8131     -104.236    1.4384963   -102.79751    36334.997    4.4105044    4.4105044    4.4105044    36334.997    32079.381    26907.937    50017.672     8548.993    5634.2675   -8418.4894    85.795551 
   43500     1333.279    -104.0192    1.2063789   -102.81282   -953.41997    4.4157457    4.4157457    4.4157457   -953.41997     12223.85     11742.02    -26826.13   -6049.1348   -13905.843    15200.212    86.101784 
   43600    2101.3796   -104.70284    1.9013724   -102.80147   -6214.1438    4.4125697    4.4125697    4.4125697   -6214.1438   -636.54989   -14272.225   -3733.6563    3710.9245   -4874.7818    15509.706    85.916137 
   43700    1047.5118   -103.76768    0.9478107   -102.81987    14741.279    4.4172064    4.4172064    4.4172064    14741.279    18611.879    32555.047   -6943.0882   -9264.9015    9644.1264    6753.9332     86.18726 
   43800    1909.5478   -104.52431     1.727799   -102.79651   -3941.0383    4.4210003    4.4210003    4.4210003   -3941.0383   -20546.437    32572.379   -23849.057   -11748.889   -11644.369    15729.787    86.409527 
   43900    1256.1704   -103.94776    1.1366093   -102.81115   -5809.1266    4.4112708    4.4112708    4.4112708   -5809.1266   -29758.369    6845.7101    5485.2792    10105.286    24919.814    -6276.289    85.840285 
   44000    1853.1799   -104.48682    1.6767962   -102.81002    1088.0481     4.419035     4.419035     4.419035    1088.0481      25149.4   -1326.2561       -20559    1049.2882   -6920.9279   -8251.6198     86.29434 
   44100    890.25574   -103.62588    0.8055221   -102.82036   -2550.5727    4.4298716    4.4298716    4.4298716   -2550.5727   -65350.496    89577.216   -31878.438     4562.802    21579.992    -6452.599    86.930748 
   44200    1871.2389   -104.50423    1.6931363    -102.8111    9702.3464    4.4120451    4.4120451    4.4120451    9702.3464    25855.508     14225.47   -10973.939    4360.2225     -6472.34   -24794.756    85.885495 
   44300    1540.7262   -104.22074    1.3940814   -102.82666    11484.771    4.4109321    4.4109321    4.4109321    11484.771    -13402.44    36734.976    11121.776   -5405.1136     4486.888   -837.55122    85.820515 
   44400    1348.5088   -104.03745    1.2201591   -102.81729    29217.819    4.4203766    4.4203766    4.4203766    29217.819    55287.623     43366.77   -11000.936    17008.859    5132.8574   -29749.664    86.372964 
   44500    1616.3864   -104.27138    1.4625404   -102.80884   -4643.8949     4.423373     4.423373     4.423373   -4643.8949   -11351.986    -28702.96    26123.261   -20494.518   -7700.0252    8765.3454     86.54873 
   44600    1855.8454   -104.48106     1.679208   -102.80185   -14659.163    4.4256409    4.4256409    4.4256409   -14659.163    1503.8641   -1613.0925    -43868.26   -6885.9324    3163.4415   -28458.045    86.681921 
   44700    1254.8838   -103.94463    1.1354452   -102.80919   -10218.794    4.4179236    4.4179236    4.4179236   -10218.794   -21641.714   -28086.882    19072.215   -18449.518   -12208.011   -16711.474     86.22925 
   44800    1799.6122    -104.4182    1.6283269   -102.78987    13223.826    4.4023624    4.4023624    4.4023624    13223.826    8576.6159   -37492.154    68587.018   -19515.497    7320.6995   -12885.824    85.321283 
   44900    1697.5603   -104.35077    1.5359883   -102.81478   -15399.219    4.4102774    4.4102774    4.4102774   -15399.219   -14585.572    17593.753   -49205.838    -15232.84   -13738.688   -33357.497    85.782308 
   45000    1470.5939   -104.15059    1.3306242   -102.81996    20700.387    4.4183233    4.4183233    4.4183233    20700.387   -20463.294    14379.024     68185.43   -34243.074    4238.9928    10023.749    86.252657 
   45100    1443.1997    -104.1162    1.3058374   -102.81037   -9272.9427    4.4259309    4.4259309    4.4259309   -9272.9427   -2138.4704    -18191.74   -7488.6175    2035.3031   -3681.3505   -24000.456    86.698957 
   45200    1757.8064   -104.38338    1.5905002   -102.79288   -16475.703    4.4102901    4.4102901    4.4102901   -16475.703   -65802.234   -24894.908    41270.034   -59049.269   -4224.0281   -3069.4942     85.78305 
   45300    1655.1889   -104.28182    1.4976497   -102.78417    14891.434    4.4040788    4.4040788    4.4040788    14891.434    29614.645   -8778.9364    23838.594    14757.241    5871.7638   -15065.843    85.421114 
   45400     1055.964   -103.75902   0.95545845   -102.80356   -4344.3696    4.4152374    4.4152374    4.4152374   -4344.3696   -23327.782   -21413.165    31707.838   -52232.482   -12745.714    10871.284    86.072058 
   45500    1943.6437   -104.54137    1.7586496   -102.78272    1851.2084     4.422334     4.422334     4.422334    1851.2084    21038.184   -31742.899     16258.34    16610.173    21053.093   -25116.444    86.487753 
   45600    1310.1308   -103.98374    1.1854339    -102.7983   -5574.6153    4.4228456    4.4228456    4.4228456   -5574.6153     19124.36   -69840.225    33992.019   -51748.852    8301.5887   -4663.5245    86.517771 
   45700    1741.4662    -104.3554    1.5757152   -102.77968    40446.328    4.4056986    4.4056986    4.4056986    40446.328     41859.96    39633.235     39845.79    11163.357    6203.6368    -14513.27    85.515402 
   45800    860.30343   -103.58041   0.77842062   -102.80199    36975.998    4.4063715    4.4063715    4.4063715    36975.998    61083.665   -22161.764    72006.093   -47727.756    7442.3789    -17662.86    85.554595 
   45900    2106.9436   -104.69058    1.9064069   -102.78417   -13349.217     4.421916     4.421916     4.421916   -13349.217    13193.072   -39344.012    -13896.71   -1511.8571    2546.6438    7331.4241     86.46323 
   46000    1401.5798   -104.05402    1.2681789   -102.78584    10075.469    4.4064053    4.4064053    4.4064053    10075.469    37040.392   -19664.126    12850.142   -49858.571   -1232.6498   -16838.908    85.556562 
   46100    1833.6434    -104.4514    1.6591191   -102.79228    4708.3744     4.408842     4.408842     4.408842    4708.3744   -27419.145     14000.91    27543.358   -4066.2071    4446.4747     15368.76    85.698577 
   46200     1449.852   -104.11435    1.3118565   -102.80249   -9983.8436    4.4083678    4.4083678    4.4083678   -9983.8436   -2021.7345   -37472.405    9542.6089   -32789.952   -6489.1762   -6453.6113    85.670924 
   46300    1762.8323   -104.40614    1.5950477   -102.81109    20789.633    4.4023187    4.4023187    4.4023187    20789.633    19881.917    33967.667    8519.3156    -24730.98    3999.7769   -4997.7976    85.318741 
   46400    1565.7121   -104.23135    1.4166892   -102.81466   -32386.551    4.4196278    4.4196278    4.4196278   -32386.551   -50658.218   -42428.516   -4072.9199   -30990.892    -4090.187    8693.3239    86.329073 
   46500     1405.194   -104.08345    1.2714491     -102.812   -3560.1098    4.4094491    4.4094491    4.4094491   -3560.1098   -25446.485     -3668.69    18434.845   -37285.647     6653.368   -13331.322    85.733984 
   46600    1947.6945   -104.55986    1.7623149   -102.79754   -6841.3633     4.414998     4.414998     4.414998   -6841.3633   -33486.492    6001.5759    6960.8267    -12209.85     12156.69    4252.1812    86.058056 
   46700    1240.4857   -103.91963    1.1224175   -102.79722   -22326.036    4.4066366    4.4066366    4.4066366   -22326.036   -49066.434   -50050.366    32138.692   -52426.226   -9337.5688   -7934.6679    85.570033 
   46800    1825.7066   -104.43652    1.6519377   -102.78458    15242.524    4.4019712    4.4019712    4.4019712    15242.524     45447.49    1716.8562   -1436.7741   -3522.4318    4059.4889    742.88159    85.298539 
   46900    1556.6484   -104.20613    1.4084882   -102.79764   -29498.052    4.4203659    4.4203659    4.4203659   -29498.052   -60190.389   -65445.436    37141.669   -69576.775    599.20037   -3169.3912    86.372334 
   47000    1464.5919    -104.1057    1.3251936    -102.7805    14772.525    4.4153228    4.4153228    4.4153228    14772.525    88657.181   -25045.466   -19294.141    5357.2642    3302.0325     -11608.8    86.077051 
   47100    1620.0623   -104.25509    1.4658664   -102.78922   -3630.6713    4.4158124    4.4158124    4.4158124   -3630.6713   -35883.417   -15649.666    40641.069   -52781.898    -11105.86    9315.1888    86.105688 
   47200    1892.1777    -104.4979    1.7120821   -102.78582    3258.6736    4.4059809    4.4059809    4.4059809    3258.6736    78114.916   -34239.534   -34099.361    3275.3348    6278.7628   -23560.704    85.531842 
   47300    922.04227   -103.63409   0.83428322   -102.79981    43911.272    4.3985469    4.3985469    4.3985469    43911.272     17868.92    66074.279    47790.616   -54980.581     4231.143    16347.236    85.099631 
   47400    2279.3189   -104.85487    2.0623757    -102.7925   -12968.137    4.4123233    4.4123233    4.4123233   -12968.137    4196.7532   -1558.4614   -41542.702    13596.509    11889.566   -15011.618    85.901742 
   47500    1295.8203   -103.97114    1.1724854   -102.79865   -2665.1502    4.4153599    4.4153599    4.4153599   -2665.1502    5548.3601   -18630.275     5086.464   -50316.648   -5291.5832   -3341.9864     86.07922 
   47600    1823.8157   -104.43485    1.6502268   -102.78462    3810.3767    4.4222699    4.4222699    4.4222699    3810.3767    7665.2455    32812.203   -29046.319    13708.882    3636.5173   -1794.7127    86.483991 
   47700    1097.9474   -103.79591   0.99344591   -102.80247   -21420.723    4.4176903    4.4176903    4.4176903   -21420.723    19518.734   -63132.446   -20648.459   -57356.351   -1155.2909   -17141.225    86.215588 
   47800    2351.1925   -104.91546    2.1274084   -102.78805    25779.944    4.3921706    4.3921706    4.3921706    25779.944    41900.927    53249.321   -17810.417    32789.363    1095.0602    1878.8446    84.730077 
   47900    878.45844   -103.62759   0.79484766   -102.83274    -8173.955    4.4020843    4.4020843    4.4020843    -8173.955    29814.443   -51967.922   -2368.3859   -46729.489    529.29057   -17259.215    85.305111 
   48000    2285.4512   -104.87629    2.0679242   -102.80837    -312.1135    4.4155471    4.4155471    4.4155471    -312.1135    18558.215   -9260.4634   -10234.092    2682.6073    1769.7464   -2087.7973     86.09017 
   48100    1479.8667   -104.15259    1.3390145   -102.81358   -5069.6386    4.4088996    4.4088996    4.4088996   -5069.6386    22063.742    503.38935   -37776.047     -16156.3   -1755.7077   -20394.522    85.701935 
   48200    1666.9186    -104.3293     1.508263   -102.82103   -2726.6522    4.4116672    4.4116672    4.4116672   -2726.6522    9668.6773    -20227.46    2378.8265   -35294.104    5526.7116    7853.8427    85.863427 
   48300    1416.0069    -104.1126    1.2812328   -102.83137    25617.988    4.3991198    4.3991198    4.3991198    25617.988    81292.979    29824.393   -34263.408    16705.669   -11008.516   -23557.173    85.132886 
   48400    1662.1908   -104.34386    1.5039852   -102.83988   -8761.1254    4.4104641    4.4104641    4.4104641   -8761.1254    2342.8278   -23124.583    -5501.621   -55748.128     9948.596    4850.4241      85.7932 
   48500    1644.5052   -104.32123    1.4879828   -102.83325   -27885.564    4.4194494    4.4194494    4.4194494   -27885.564    1876.4941   -23885.334   -61647.851    27201.732    6887.4213   -21910.262    86.318622 
   48600    1825.7492   -104.47352    1.6519763   -102.82155   -15421.702    4.4278243    4.4278243    4.4278243   -15421.702    8008.9648   -30582.887   -23691.184   -6996.2992    1504.3401    1385.8812    86.810279 
   48700    916.14964   -103.66276   0.82895145   -102.83381    14885.428    4.4117979    4.4117979    4.4117979    14885.428    119354.36    -29691.44    -45006.64     1788.873    20415.025   -23369.325    85.871059 
   48800    1745.3511   -104.41731    1.5792303   -102.83808    21101.168    4.3984422    4.3984422    4.3984422    21101.168    80327.747   -11361.181   -5663.0613    20151.097    1042.8174    13536.869    85.093558 
   48900    1958.0816   -104.62664    1.7717134   -102.85492   -7323.1977    4.4144862    4.4144862    4.4144862   -7323.1977    42807.364   -34446.783   -30330.174     -17959.9    12443.085    -25025.04    86.028132 
   49000    1652.2769   -104.33888    1.4950149   -102.84386   -34544.306    4.4274773    4.4274773    4.4274773   -34544.306    324.58332   -75745.785   -28211.717    20133.358   -3564.3167    6473.5215    86.789866 
   49100    1366.5563   -104.05739    1.2364889    -102.8209    12012.096    4.4195556    4.4195556    4.4195556    12012.096     70083.15   -24818.575   -9228.2855   -12962.398    4002.7606   -21224.823    86.324842 
   49200    1763.1267   -104.40814    1.5953141   -102.81282   -23798.901    4.4195434    4.4195434    4.4195434   -23798.901    16940.856   -63595.501   -24742.059    13216.251   -2691.3787    11976.499    86.324133 
   49300    1655.0652   -104.31606    1.4975377   -102.81852   -8710.2307    4.4085272    4.4085272    4.4085272   -8710.2307    971.99475   -13109.406   -13993.281     39148.98   -9700.2764   -14995.045    85.680221 
   49400     1487.796    -104.1756    1.3461891   -102.82942    18034.741    4.4086326    4.4086326    4.4086326    18034.741    76615.253    1685.1153   -24196.146   -12146.809    13417.337   -12063.913    85.686369 
   49500    1762.8407   -104.41394    1.5950553   -102.81889   -7766.0573    4.4225369    4.4225369    4.4225369   -7766.0573   -4336.9329   -17677.672   -1283.5667    41226.795   -7610.4397    11085.328    86.499657 
   49600    1287.0781   -103.97954    1.1645754   -102.81497    1217.8695    4.4195673    4.4195673    4.4195673    1217.8695    2872.8167    12165.426   -11384.634   -512.86954    1354.8183    -33093.36     86.32553 
   49700    2259.7947   -104.82865    2.0447098   -102.78394   -2115.9509    4.4196102    4.4196102    4.4196102   -2115.9509    1041.3418   -11799.419    4410.2247    10187.715    10296.142    12188.839    86.328045 
   49800    966.94101   -103.68665   0.87490855   -102.81174   -19094.066    4.4205277    4.4205277    4.4205277   -19094.066   -4670.3847   -11635.576   -40976.238    8878.1385   -4845.2935   -37659.396    86.381822 
   49900    2064.7474   -104.67702    1.8682268   -102.80879    6801.7316    4.4100781    4.4100781    4.4100781    6801.7316    14632.343   -4800.3248    10573.176   -18602.935    12793.267    7686.0578    85.770676 
   50000    1182.3298   -103.90169    1.0697968   -102.83189     9694.383    4.3991059    4.3991059    4.3991059     9694.383    14430.853    15237.917   -585.62149    14562.753   -23211.306   -30639.868    85.132084 
   50100    1747.0482   -104.41203    1.5807659   -102.83126    19175.923    4.4135722    4.4135722    4.4135722    19175.923     13402.73    26587.588    17537.451   -21560.129    12348.317    2064.0363    85.974706 
   50200    1673.4629   -104.33937    1.5141844   -102.82518   -25496.121    4.4180114    4.4180114    4.4180114   -25496.121    -20019.31   -30746.769   -25722.284     6170.844   -22009.235    7105.5494    86.234389 
   50300    1543.7769   -104.21143    1.3968417   -102.81459    16242.046    4.4016056    4.4016056    4.4016056    16242.046    25574.602    38295.157   -15143.621   -7415.7391    6606.9525   -8384.6748    85.277289 
   50400    1639.4155   -104.31368    1.4833776    -102.8303      666.694    4.4077846    4.4077846    4.4077846      666.694   -5751.0797   -6753.2055    14504.367   -21065.188   -9914.8651    35975.362    85.636927 
   50500    1690.6274   -104.35127    1.5297152   -102.82155   -1512.2409    4.4167213    4.4167213    4.4167213   -1512.2409    11332.194    30177.575   -46046.492    3492.8353   -10090.659    -18085.43    86.158869 
   50600    1507.4562   -104.18548    1.3639781    -102.8215   -27073.221    4.4151815    4.4151815    4.4151815   -27073.221   -36868.718   -43800.204   -550.74209   -40240.736    6460.5155    33934.516    86.068789 
   50700    1982.4237   -104.59852    1.7937386   -102.80478    20063.249    4.4047494    4.4047494    4.4047494    20063.249    27924.968    54870.929    -22606.15    19395.318   -2431.4915    1112.0392    85.460143 
   50800    1143.7046   -103.85569    1.0348479   -102.82084   -18426.925    4.4083912    4.4083912    4.4083912   -18426.925   -50679.621   -26819.237    22218.083   -52126.511    3707.5191    5054.3029    85.672289 
   50900    2012.2581   -104.63322    1.8207335   -102.81248    -362.7441    4.4114396    4.4114396    4.4114396    -362.7441    -5751.763    29603.561    -24940.03    17912.695    6221.4137    28105.113    85.850143 
   51000    1347.9457   -104.04014    1.2196496   -102.82049   -17276.948    4.4090656    4.4090656    4.4090656   -17276.948   -51267.372   -26842.395    26278.922   -43432.689   -7655.3652   -17977.176    85.711614 
   51100    1665.4578   -104.32149    1.5069412   -102.81455    6620.2419    4.4071884    4.4071884    4.4071884    6620.2419    466.47092    28011.819   -8617.5643   -6653.2657     7645.697    29188.935    85.602185 
   51200    1820.2225   -104.46556    1.6469756   -102.81859   -26160.234    4.4150072    4.4150072    4.4150072   -26160.234   -57514.752   -28209.684    7243.7327   -27409.319    1994.4084   -20557.093    86.058594 
   51300     1284.116   -103.97904    1.1618951   -102.81715   -9209.5188    4.4207765    4.4207765    4.4207765   -9209.5188   -18595.816    5393.5739   -14426.315   -14816.094    8801.5398    13475.043    86.396406 
   51400    1887.1744   -104.50566    1.7075551    -102.7981   -4367.7047    4.4070601    4.4070601    4.4070601   -4367.7047   -16675.019    8677.5363   -5105.6315   -23467.983    2871.6038   -3687.7294    85.594709 
   51500    1370.1645   -104.05189    1.2397536   -102.81214     4015.339    4.4050498    4.4050498    4.4050498     4015.339     -29953.7    23235.673    18764.044   -13446.685    5491.1495   -7487.9118     85.47763 
   51600    1995.8117   -104.61125    1.8058524    -102.8054     -2026.73    4.4060712    4.4060712    4.4060712     -2026.73   -2152.4301    15745.187   -19672.947   -4775.5337    13941.233    11420.242      85.5371 
   51700    1254.5033   -103.94924     1.135101   -102.81414    23145.338    4.4082819    4.4082819    4.4082819    23145.338   -32652.156    65515.778    36572.391   -28565.666   -8791.0837   -10596.544    85.665916 
   51800    1853.0987   -104.49468    1.6767227   -102.81796   -5440.3363    4.4133753    4.4133753    4.4133753   -5440.3363   -43994.312    37919.989   -10246.686    29207.612     20566.51    15163.831      85.9632 
   51900    1783.5224   -104.42723    1.6137685   -102.81346    20281.715    4.4072461    4.4072461    4.4072461    20281.715    33475.264    14070.742     13299.14   -46368.426   -12544.451    5083.6216    85.605546 
   52000    970.60722   -103.70674   0.87822581   -102.82851    9640.7406    4.4075043    4.4075043    4.4075043    9640.7406   -59674.597    60763.604    27833.215      43694.8    8729.5203   -871.71518    85.620594 
   52100      2305.31   -104.90685    2.0858929   -102.82095   -4911.3023    4.4061717    4.4061717    4.4061717   -4911.3023   -8667.4469   -4068.9161    -1997.544   -23526.432   -422.29232    23855.209    85.542955 
   52200    1240.5919   -103.95708    1.1225136   -102.83456    500.95419      4.40851      4.40851      4.40851    500.95419   -49365.491    10970.251    39898.103    27831.351   -881.98171   -12933.747    85.679215 
   52300    1624.2197   -104.30455    1.4696281   -102.83492   -22239.238    4.4090532    4.4090532    4.4090532   -22239.238   -78811.227    30287.055   -18193.544    23945.408     11209.26    17855.044    85.710895 
   52400     1783.865   -104.42926    1.6140786   -102.81518    17461.128    4.4081098    4.4081098    4.4081098    17461.128   -11934.047    14045.211     50272.22    2141.9262   -1588.9788   -7687.6512    85.655884 
   52500    1084.7155   -103.81137   0.98147341   -102.82989   -20589.782    4.4083104    4.4083104    4.4083104   -20589.782   -81877.816    47740.638   -27632.169    41349.276    11741.772   -8025.0413    85.667581 
   52600    2064.9571   -104.68158    1.8684166   -102.81316    13463.451    4.3986011    4.3986011    4.3986011    13463.451   -2811.7934     28750.85    14451.297   -22340.489    -1242.708    898.63733    85.102776 
   52700    1233.2271   -103.94664    1.1158498   -102.83079   -14348.209    4.4159913    4.4159913    4.4159913   -14348.209   -66950.678    58490.498   -34584.446    36594.079    17107.775   -33.772619    86.116153 
   52800    1729.2628   -104.37534    1.5646733   -102.81067   -17340.598    4.4116823    4.4116823    4.4116823   -17340.598   -15287.201   -16156.326   -20578.266   -18360.369    7882.9806      11457.3    85.864314 
   52900     1845.206   -104.48564    1.6695812   -102.81606    -12037.09    4.3958327    4.3958327    4.3958327    -12037.09   -20206.594     12324.56   -28229.235    2436.0621    3593.8591    4576.9146    84.942191 
   53000     1790.849   -104.43911    1.6203978   -102.81871    9270.4142    4.4067033    4.4067033    4.4067033    9270.4142   -22290.742    70381.896   -20279.911   -6925.1771    12670.504    520.88001    85.573924 
   53100    1272.5844   -103.97721    1.1514611   -102.82574    -26851.52    4.4209471    4.4209471    4.4209471    -26851.52   -1881.1083   -43895.721   -34777.731   -27137.225    1345.7257    25602.847    86.406411 
   53200    2186.6025   -104.77383    1.9784839   -102.79535    6821.6591    4.4176592    4.4176592    4.4176592    6821.6591    5913.2694    51600.144   -37048.436     17440.98    16782.998   -10207.277    86.213769 
   53300    1404.6561   -104.07194    1.2709624   -102.80097    8777.3441     4.400204     4.400204     4.400204    8777.3441    64155.109   -9198.4096   -28624.667   -38482.153   -11409.688    23708.711    85.195851 
   53400    1816.0261   -104.44805    1.6431786   -102.80487    24467.803    4.4011598    4.4011598    4.4011598    24467.803    2874.1855    67524.233    3004.9897    8734.7062    22042.296    -9054.668    85.251378 
   53500    1670.1476   -104.31886    1.5111846   -102.80768   -23064.583    4.4216539    4.4216539    4.4216539   -23064.583   -14139.568   -10089.609   -44964.571   -38221.709   -23516.707    26878.895    86.447857 
   53600    1735.3569   -104.36823    1.5701874   -102.79804    3477.9464     4.422654     4.422654     4.422654    3477.9464    28659.916     7777.608   -26003.685    3063.5943    24270.478   -700.10319     86.50653 
   53700    1361.0858   -104.02727     1.231539   -102.79573    9465.3207     4.410939     4.410939     4.410939    9465.3207   -13117.956    -5658.381    47172.299   -21161.931   -9948.1537    22287.254     85.82092 
   53800    1742.2487   -104.37242    1.5764232     -102.796    14363.549    4.3922749    4.3922749    4.3922749    14363.549    3991.8269    43123.845   -4025.0242   -14803.587    4234.9751    14783.812    84.736113 
   53900    1279.7707   -103.96272    1.1579635   -102.80475     19938.97    4.4073762    4.4073762    4.4073762     19938.97    26044.895   -49871.048    83643.062    5262.8495    24297.412    8299.8973    85.613126 
   54000    1849.0802   -104.47998    1.6730866   -102.80689   -35712.874    4.4287508    4.4287508    4.4287508   -35712.874   -28648.056   -50323.878   -28166.688   -13671.054   -315.80445    28264.577    86.864782 
   54100    1584.5128   -104.23506    1.4337005   -102.80136   -587.80934     4.431187     4.431187     4.431187   -587.80934   -15150.657   -61859.045    75246.274     19376.56   -5057.9368   -13614.625    87.008208 
   54200    1342.4962    -104.0146    1.2147188   -102.79988   -15249.037    4.4231019    4.4231019    4.4231019   -15249.037    10968.524   -62858.646    6143.0102   -19996.104   -9578.3264     30446.19    86.532818 
   54300    1947.0061     -104.554     1.761692   -102.79231    22615.913    4.3898384    4.3898384    4.3898384    22615.913    45965.996   -6245.0029    28126.745    29844.084   -14107.479    -11385.41    84.595179 
   54400    1658.3079   -104.33301    1.5004719   -102.83254    16529.313    4.4035654    4.4035654    4.4035654    16529.313    24297.721    -18968.98    44259.199   -19490.307   -1046.6516    12455.464    85.391247 
   54500     1764.573    -104.4181    1.5966228   -102.82147   -20791.073    4.4284109    4.4284109    4.4284109   -20791.073    13330.308   -49729.411   -25974.116    22465.777   -25520.768     4331.111    86.844781 
   54600    1503.7705   -104.18274    1.3606432   -102.82209     10973.58    4.4295803    4.4295803    4.4295803     10973.58   -10428.795   -37419.739    80769.273   -14864.634    22195.684   -22428.755    86.913598 
   54700    1564.6827   -104.22665    1.4157578   -102.81089    24492.366    4.4135257    4.4135257    4.4135257    24492.366    75269.717    10417.237   -12209.855    13448.683    17645.492    6543.5107    85.971989 
   54800    1317.5076   -104.01101    1.1921085    -102.8189    -21673.72    4.4062317    4.4062317    4.4062317    -21673.72   -25615.802     -59398.4    19993.041   -3659.4393    -23105.28   -38043.317    85.546453 
   54900    1717.5255   -104.36805    1.5540531   -102.81399    5691.4246     4.420411     4.420411     4.420411    5691.4246    35778.879   -2281.1374   -16423.467   -3618.5674    30758.911    16274.608    86.374976 
   55000    1318.0029   -104.01451    1.1925567   -102.82196   -43991.486    4.4330842    4.4330842    4.4330842   -43991.486   -29660.509    -60429.28    -41884.67    19375.829     -21822.4   -13064.927    87.120014 
   55100    1873.9307   -104.49488    1.6955719    -102.7993   -8636.5419    4.4246014    4.4246014    4.4246014   -8636.5419   -4343.9426    7683.9303   -29249.614   -3170.6127    6790.0775   -12275.473    86.620854 
   55200    1416.0506   -104.09223    1.2812723   -102.81096    7701.4595    4.4105156    4.4105156    4.4105156    7701.4595    41977.554   -21782.625    2909.4495    7361.6984   -8461.6721    4993.1729    85.796209 
   55300    1747.5825   -104.40065    1.5812494    -102.8194    17055.217     4.417697     4.417697     4.417697    17055.217   -20524.269    43585.943    28103.977    13494.273   -1588.1092    7009.0665    86.215982 
   55400    1687.7656   -104.33558    1.5271258   -102.80846   -39743.379    4.4468025    4.4468025    4.4468025   -39743.379   -49752.039   -13930.227   -55547.871    9851.6909   -7890.6071    6691.4951    87.931308 
   55500     1942.568   -104.51645    1.7576763   -102.75878    1959.0827    4.4372116    4.4372116    4.4372116    1959.0827   -628.38756    11541.243   -5035.6077   -15388.639   -4577.1017    -7988.275    87.363579 
   55600    1019.6887   -103.67356   0.92263579   -102.75092     32095.93    4.4122478    4.4122478    4.4122478     32095.93    26789.308    19628.293    49870.189    12197.699    24137.073    25844.081    85.897332 
   55700    2356.6197   -104.89911    2.1323191   -102.76679   -26941.714    4.4162958    4.4162958    4.4162958   -26941.714   -42140.386   -8641.8931   -30042.863    9981.6699   -35684.658   -4140.5458    86.133971 
   55800    1460.6808    -104.1315    1.3216547   -102.80984   -8594.3672    4.4230264    4.4230264    4.4230264   -8594.3672   -21705.478   -19250.615    15172.991   -366.86099     36659.83      29363.4    86.528383 
   55900    1484.5314   -104.16098    1.3432352   -102.81774    200.21028    4.4390257    4.4390257    4.4390257    200.21028   -568.74476    15680.028   -14510.653    706.22438   -29100.338   -6833.8536    87.470773 
   56000    1359.4516   -104.02995    1.2300604   -102.79989   -3857.8845    4.4272429    4.4272429    4.4272429   -3857.8845     3863.847   -6228.3971   -9209.1033   -1982.2977    19816.369    4546.0036    86.776087 
   56100    1789.8973   -104.40021    1.6195367   -102.78067   -5236.2318     4.412519     4.412519     4.412519   -5236.2318    2196.9897   -1677.4626   -16228.222    577.67409   -17169.045    17841.937    85.913171 
   56200    1523.0456   -104.16756    1.3780837   -102.78948    7764.8088    4.4244464    4.4244464    4.4244464    7764.8088   -18524.224    37418.636    4400.0138    3906.3388    20962.275   -7401.9941    86.611747 
   56300     1251.374    -103.9341    1.1322695   -102.80183     11771.36    4.4350328    4.4350328    4.4350328     11771.36    3017.7475    12582.028    19714.306   -4903.0235     9928.494    36413.836    87.234951 
   56400    1991.2024   -104.59282    1.8016818   -102.79114   -12873.426    4.4389854    4.4389854    4.4389854   -12873.426   -47558.465    14982.319    -6044.132    2902.7721    4471.3415   -10257.157    87.468395 
   56500     1179.643   -103.86524    1.0673658   -102.79788    8959.7092    4.4217225    4.4217225    4.4217225    8959.7092   -17718.297    20148.658    24448.767   -9801.4261    19141.522    27768.032    86.451884 
   56600    2030.0114   -104.62023     1.836797   -102.78343    39939.625    4.4064266    4.4064266    4.4064266    39939.625     25985.13     57703.32    36130.425    10393.445   -11988.737   -15277.931    85.557804 
   56700    669.07857   -103.43202   0.60539635   -102.82663    11999.922    4.4267543    4.4267543    4.4267543    11999.922    12113.403    12534.331    11352.033   -8007.4175    37532.895    37538.116    86.747358 
   56800    2264.9462   -104.83269    2.0493709   -102.78332   -7993.0169    4.4444359    4.4444359    4.4444359   -7993.0169   -1094.9658    25896.292   -48780.377    2102.6614   -10773.045   -14993.308    87.790991 
   56900    720.10149   -103.44727   0.65156296    -102.7957    10318.456    4.4289033    4.4289033    4.4289033    10318.456    3884.9612    24199.627    2870.7817   -10337.663     10263.23    19521.182    86.873754 
   57000    2011.0641   -104.59903     1.819653   -102.77938    23275.388    4.4115856    4.4115856    4.4115856    23275.388    49161.171    9178.5136     11486.48   -8951.6748   -13186.852   -5769.1378    85.858663 
   57100    1370.7492   -104.04502    1.2402827   -102.80474   -3037.4928    4.4190052    4.4190052    4.4190052   -3037.4928    10257.815    9269.4661   -28639.759   -4247.8711    20227.109    21043.904    86.292597 
   57200    1646.7379   -104.29307    1.4900031   -102.80307    584.24365    4.4281474    4.4281474    4.4281474    584.24365    50708.347   -28562.674   -20392.942   -1055.6992    3186.9257    5559.6721    86.829281 
   57300    1536.8902   -104.18636    1.3906106   -102.79575    7915.9865    4.4282747    4.4282747    4.4282747    7915.9865    15742.498   -7527.7986     15533.26   -3769.2005   -735.39487    6327.5241     86.83677 
   57400    1670.0715   -104.31278    1.5111158   -102.80166   -22349.598    4.4164818    4.4164818    4.4164818   -22349.598     31307.15   -49880.951   -48474.993    1013.8578    12970.118    29014.014    86.144852 
   57500    1564.8367   -104.22196    1.4158971   -102.80606    34140.651    4.4093716    4.4093716    4.4093716    34140.651    52234.328    1914.1477    48273.477    2115.7065   -27734.685   -10545.639    85.729466 
   57600    1589.2811    -104.2687     1.438015   -102.83069   -46811.217     4.421203     4.421203     4.421203   -46811.217    -44.48342    -67210.61   -73178.557    2511.2349    26393.334    47811.071    86.421416 
   57700    1732.7692   -104.37646     1.567846   -102.80862    34548.212    4.4152279    4.4152279    4.4152279    34548.212    68619.869   -13627.642    48652.408   -4789.4101   -12124.957   -15804.041    86.071498 
   57800    1155.3717   -103.86882    1.0454046   -102.82341   -11122.188    4.4298062    4.4298062    4.4298062   -11122.188    70480.756   -34305.947   -69541.371   -1567.5885    6931.6093     37825.14    86.926898 
   57900    2515.5387    -105.0658    2.2761123   -102.78969    -20631.25    4.4276294    4.4276294    4.4276294    -20631.25   -22359.095   -8615.2263    -30919.43   -16302.914    17728.245   -18971.855    86.798814 
   58000    845.39917   -103.57515   0.76493494   -102.81021    25010.568    4.4050645    4.4050645    4.4050645    25010.568    97448.935    -7396.678   -15020.552   -5701.8845   -39077.417    42499.176    85.478486 
   58100    2365.0697   -104.94394    2.1399648   -102.80397    20505.539    4.4104512    4.4104512    4.4104512    20505.539    51490.143    22082.127   -12055.654   -20950.447    11128.755   -13045.315    85.792447 
   58200    1015.0722   -103.74863   0.91845864   -102.83018   -5109.9755    4.4261114    4.4261114    4.4261114   -5109.9755     43726.62    10308.356   -69364.903   -5099.7692   -30398.879     38592.85    86.709567 
   58300    1891.2865     -104.503    1.7112758   -102.79172    4799.1999    4.4313063    4.4313063    4.4313063    4799.1999    21570.743   -21070.547    13897.404    1021.2322     5641.792    -3717.227    87.015236 
   58400    1492.7689   -104.14658    1.3506887   -102.79589    8317.2965    4.4112249    4.4112249    4.4112249    8317.2965    69208.777    10177.857   -54434.745    2931.9496   -23677.412    28757.839    85.837606 
   58500    1734.3882   -104.37726    1.5693109   -102.80795   -9603.5162    4.4093471    4.4093471    4.4093471   -9603.5162   -5910.1379   -12361.249   -10539.162    8642.7615   -16764.837    7606.1206    85.728035 
   58600    2009.3555   -104.62441    1.8181071    -102.8063    5163.5894    4.4160412    4.4160412    4.4160412    5163.5894    24869.169   -2738.4563   -6639.9447    24518.643    3517.8897    12955.744    86.119074 
   58700    1458.3579   -104.13237    1.3195529   -102.81282   -21375.581     4.427831     4.427831     4.427831   -21375.581   -1154.1507   -6220.4149   -56752.177   -3441.8446   -33337.493    13082.831    86.810673 
   58800    1587.6775   -104.24385     1.436564   -102.80728   -4979.0851    4.4172662    4.4172662    4.4172662   -4979.0851    -28654.44   -10300.839    24018.024    26303.307    18345.586    1037.3973    86.190764 
   58900    1992.6941   -104.61125    1.8030315   -102.80821    4971.7381    4.3969988    4.3969988    4.3969988    4971.7381    34551.781   -6346.2352   -13290.331    6367.3126   -19309.103     24799.39    85.009811 
   59000    1472.4621   -104.17056    1.3323146   -102.83824   -11876.959    4.4081162    4.4081162    4.4081162   -11876.959    -46767.95    5365.3747    5771.6999    767.38234    14899.268   -9604.3259    85.656257 
   59100    1542.4975   -104.23046    1.3956842   -102.83478   -34243.925    4.4237688    4.4237688    4.4237688   -34243.925   -35616.133   -51010.562   -16105.081    35192.008    8983.8669    8692.8096    86.571966 
   59200    1906.4444   -104.53693    1.7249909   -102.81194    22312.891    4.4097366    4.4097366    4.4097366    22312.891    22998.405    24091.118    19849.149   -12059.895    18811.085      1350.83    85.750754 
   59300     1271.621   -103.99004    1.1505894   -102.83945   -39163.424    4.4047264    4.4047264    4.4047264   -39163.424   -61773.835   -36137.592   -19578.844    13671.223    17205.276    10981.032    85.458802 
   59400    1830.2494   -104.49094    1.6560481    -102.8349    21531.602    4.4039165    4.4039165    4.4039165    21531.602    22970.348    14959.851    26664.606    8532.1783   -7029.9948    4388.8295    85.411674 
   59500    1638.5627   -104.31765     1.482606   -102.83504   -25366.712    4.4296157    4.4296157    4.4296157   -25366.712   -34375.705   -27168.115   -14556.315    142.37135    14740.814    9666.9003    86.915685 
   59600    965.72848   -103.69635   0.87381142   -102.82254   -35450.901    4.4282384    4.4282384    4.4282384   -35450.901   -34684.899   -31116.956   -40550.849    13688.482    -30934.82    11440.887    86.834635 
   59700    2011.3483   -104.60985    1.8199102   -102.78994    18921.528    4.3947495    4.3947495    4.3947495    18921.528    32000.779    48943.899   -24180.092   -7488.7483   -23269.312   -8394.0092    84.879417 
   59800    1366.8101   -104.06362    1.2367185    -102.8269   -813.08261    4.3931148    4.3931148    4.3931148   -813.08261   -9848.8967    25240.507   -17830.858    3274.9628    2542.9231    21488.208    84.784731 
   59900    1459.8217   -104.18065    1.3208774   -102.85977   -25786.062    4.4160599    4.4160599    4.4160599   -25786.062   -29260.944   -4624.5189   -43472.723   -678.92865   -39456.572   -550.15242    86.120167 
   60000     1861.094   -104.52426     1.683957   -102.84031    6714.2536    4.4308132    4.4308132    4.4308132    6714.2536    30644.841    13150.435   -23652.515   -895.81664    11230.928    4279.0882    86.986195 
   60100    1350.3182   -104.06884    1.2217963   -102.84705   -21670.756    4.4142988    4.4142988    4.4142988   -21670.756   -22264.751   -17805.638   -24941.879     12116.55   -28954.081    13733.703    86.017174 
   60200    1789.0176   -104.45147    1.6187407   -102.83273     19597.57    4.3951828    4.3951828    4.3951828     19597.57    43645.735    23090.876   -7943.8994     1947.447    18639.337    5909.3878    84.904526 
   60300    2051.5319   -104.69475    1.8562691   -102.83848    10658.693    4.4014511    4.4014511    4.4014511    10658.693    37028.853    24200.732   -29253.507    6201.8229   -11476.433    8135.2315     85.26831 
   60400    1102.4219   -103.85339    0.9974945    -102.8559   -1163.0671    4.4172712    4.4172712    4.4172712   -1163.0671    26159.045   -46133.084    16484.838   -2764.5882    8849.7808    6526.1818    86.191054 
   60500    1609.1117   -104.29315    1.4559581   -102.83719   -6092.7332    4.4254104    4.4254104    4.4254104   -6092.7332    16807.181   -1222.4721   -33862.909    13917.661    22371.606    3172.2529    86.668375 
   60600    2120.6095   -104.73195     1.918772   -102.81318    12027.672    4.4090742    4.4090742    4.4090742    12027.672    54217.077   -23873.234     5739.172   -16932.767    5755.1622    1659.5492    85.712119 
   60700    739.06328   -103.50912   0.66871999    -102.8404   -1146.8489    4.4071011    4.4071011    4.4071011   -1146.8489   -38250.929     7496.674    27313.708    5588.9776    16363.293    16484.204    85.597097 
   60800    2326.6305   -104.93481    2.1051842   -102.82963   -10858.127    4.4107925    4.4107925    4.4107925   -10858.127    12439.139   -10629.446   -34384.073   -4803.3257   -13640.169   -8922.0845     85.81237 
   60900    1463.7803   -104.17329    1.3244592   -102.84883   -2851.8783    4.4175978    4.4175978    4.4175978   -2851.8783   -20706.622    8055.5738    4095.4135    6737.8162     18428.28   -3481.8669    86.210173 
   61000     1253.013   -103.98207    1.1337525   -102.84831   -38684.963    4.4238406    4.4238406    4.4238406   -38684.963   -80774.734   -31285.463   -3994.6927    10240.205   -20884.711    6996.8058    86.576176 
   61100    2197.9877    -104.8141    1.9887855   -102.82532    6845.1609    4.4015631    4.4015631    4.4015631    6845.1609    28446.912    10335.067   -18246.497    1063.1937   -7609.1942      -9796.1    85.274816 
   61200    1368.7785   -104.08313    1.2384996   -102.84463     1801.435    4.4082657    4.4082657    4.4082657     1801.435   -5729.9212   -12861.641    23995.867    26064.688    -11296.79    9781.5167    85.664976 
   61300    1111.8669   -103.85512    1.0060406   -102.84908    1379.8777      4.42173      4.42173      4.42173    1379.8777     24511.26    5989.4662   -26361.093   -3438.8935   -29826.676   -11216.131    86.452324 
   61400    2072.6559   -104.68444    1.8753826   -102.80906   -10932.581    4.4385413    4.4385413    4.4385413   -10932.581    35338.255   -33986.095   -34149.904    12709.111   -8801.0914    5330.6342    87.442143 
   61500    1081.4404   -103.78438   0.97851001   -102.80587   -23204.606    4.4273685    4.4273685    4.4273685   -23204.606   -26952.231    17618.006   -60279.592    19858.991   -44269.064   -2539.5567    86.783468 
   61600    1601.2307    -104.2281    1.4488272   -102.77927    18524.999    4.4060262    4.4060262    4.4060262    18524.999    36254.691    13600.458    5719.8475    4269.0126    11799.223   -6451.2594    85.534482 
   61700    1968.3394   -104.57874    1.7809948   -102.79774   -13336.791    4.4114669    4.4114669    4.4114669   -13336.791   -16767.369     11533.14   -34776.143    10777.859   -55861.716   -3155.5695    85.851733 
   61800    1130.4225    -103.8444      1.02283   -102.82157     15809.74    4.4194592    4.4194592    4.4194592     15809.74   -31702.265    40488.456    38643.029    21674.963     11667.18   -1073.5627    86.319197 
   61900    1642.9645   -104.30727    1.4865888   -102.82068   -12894.847    4.4240254    4.4240254    4.4240254   -12894.847   -11039.595   -9079.3771    -18565.57   -13902.405   -15503.832    8403.9019    86.587029 
   62000    1809.3223   -104.45244    1.6371129   -102.81533   -14314.159    4.4139498    4.4139498    4.4139498   -14314.159   -36302.066    20398.917   -27039.329    24340.812   -11514.431     232.5485    85.996773 
   62100    1284.5806   -103.98629    1.1623155   -102.82397    16715.438    4.3986962    4.3986962    4.3986962    16715.438   -11276.236    13577.138    47845.413    -6926.395   -6997.8494   -10474.421      85.1083 
   62200    1958.4314   -104.60947    1.7720299   -102.83744   -10924.711    4.4201618    4.4201618    4.4201618   -10924.711   -31549.324    36068.393   -37293.201    5816.1176   -10671.408    23256.447    86.360373 
   62300    1298.1252   -103.99863     1.174571   -102.82406   -19683.185    4.4393584    4.4393584    4.4393584   -19683.185   -49844.523   -3911.8193   -5293.2127   -11014.933    9221.3962   -5234.6502    87.490445 
   62400     1662.311   -104.31615    1.5040939   -102.81206   -9323.9575    4.4173018    4.4173018    4.4173018   -9323.9575   -9313.4828   -20370.488    1712.0981    -15331.09    -20205.42    11775.253    86.192842 
   62500    1948.9462   -104.56862    1.7634475   -102.80517    19485.469     4.397897     4.397897     4.397897    19485.469    31344.424    5044.8339    22067.148   -10432.666    6201.2854    5135.4809    85.061917 
   62600    1222.3562   -103.94348    1.1060136   -102.83746    19263.705     4.411955     4.411955     4.411955    19263.705     39174.15    5469.6002    13147.363   -10021.892   -12414.771   -1196.9619    85.880232 
   62700    1815.3154   -104.46366    1.6425355   -102.82113   -12467.116    4.4352713    4.4352713    4.4352713   -12467.116    8148.5681   -23901.641   -21648.275    5732.1105   -747.67488    26808.316    87.249021 
   62800    1901.9337   -104.52716    1.7209096   -102.80625   -10214.026    4.4160206    4.4160206    4.4160206   -10214.026    17824.611   -15886.449   -32580.239   -1189.8537   -12143.085   -11373.607    86.117866 
   62900    1075.5895   -103.79174   0.97321597   -102.81852    27111.757    4.3981162    4.3981162    4.3981162    27111.757    46189.755   -3081.9906    38227.506     185.2663    492.01575    35072.804    85.074634 
   63000    2398.1058   -104.98272    2.1698566   -102.81286    2811.3667    4.4150614    4.4150614    4.4150614    2811.3667   -19260.467    7469.7082    20224.859    6354.9563   -10398.259   -5781.3106    86.061762 
   63100    797.27713   -103.55925    0.7213931   -102.83786   -17378.469    4.4258857    4.4258857    4.4258857   -17378.469    8881.5696   -60147.341   -869.63485   -7845.5768   -7326.9807    31987.972    86.696305 
   63200    2332.8417   -104.92786    2.1108042   -102.81706    2778.6476    4.4105358    4.4105358    4.4105358    2778.6476    202.76974   -11868.514    20001.687    642.82059    6745.8973    832.46446    85.797385 
   63300    1199.4041   -103.91289     1.085246   -102.82764    8997.0728    4.4060377    4.4060377    4.4060377    8997.0728    25876.381   -21692.924    22807.762   -3230.0212   -154.37166    30179.751    85.535153 
   63400    1781.3516   -104.42593    1.6118043   -102.81413   -5858.3984    4.4225976    4.4225976    4.4225976   -5858.3984   -4744.1666   -14301.808    1470.7793    8466.5403   -7464.3946    11272.711    86.503223 
   63500    1658.0537   -104.30301    1.5002418   -102.80277    9867.0337    4.4163908    4.4163908    4.4163908    9867.0337    36720.212   -41041.404    33922.293     1022.135   -5958.1817    13082.621    86.139529 
   63600    1358.5175   -104.05398    1.2292151   -102.82477    1206.8473    4.4155557    4.4155557    4.4155557    1206.8473    2595.6907    -21507.71    22532.561    11681.192    2095.0651    40951.101    86.090673 
   63700    1572.8067   -104.25428    1.4231085   -102.83117    23711.497    4.4165937    4.4165937    4.4165937    23711.497    27298.939    25320.556    18514.998    5309.8222   -6189.2447    6808.9772    86.151399 
   63800    1517.7919   -104.19813      1.37333    -102.8248   -18170.775    4.4343122    4.4343122    4.4343122   -18170.775    5794.6224   -32898.765   -27408.182    10813.482   -4746.4783    24011.813    87.192434 
   63900    1904.0791   -104.51521    1.7228508   -102.79236   -16123.796    4.4275633    4.4275633    4.4275633   -16123.796   -52462.797    -2290.135    6381.5449    21898.223     11237.84   -8870.8034    86.794925 
   64000    1295.2511   -103.96491    1.1719704   -102.79294    8262.2232    4.4059712    4.4059712    4.4059712    8262.2232    24117.047    5253.9969   -4584.3739    1456.8189    -11504.13    20617.237    85.531275 
   64100    2074.2782   -104.67873    1.8768505   -102.80188    3356.9744     4.418706     4.418706     4.418706    3356.9744   -17672.642    362.84274    27380.723    22974.815    5588.2381   -12157.069    86.275067 
   64200    1541.0383   -104.21268    1.3943638   -102.81832   -60705.191    4.4368779    4.4368779    4.4368779   -60705.191   -61603.045   -48248.691   -72263.837    11525.693    7169.5853    23420.029    87.343869 
   64300    1844.4712   -104.47405    1.6689163   -102.80513    3230.5288    4.4292085    4.4292085    4.4292085    3230.5288    25889.947   -26595.473    10397.112    14880.635   -16717.724     12848.78    86.891717 
   64400    1929.7999   -104.54389    1.7461235   -102.79777   -11694.668    4.4140272    4.4140272    4.4140272   -11694.668    102.38187   -30595.204   -4591.1812    22317.418   -6277.7798    8731.4224    86.001298 
   64500    1665.3608   -104.31634    1.5068534   -102.80949   -9043.8502    4.4242635    4.4242635    4.4242635   -9043.8502    9248.6051   -19935.766    -16444.39   -5882.2751   -16161.656    18705.709    86.601007 
   64600    2178.2053   -104.75337    1.9708859   -102.78249   -31848.506    4.4411339    4.4411339    4.4411339   -31848.506   -8117.8911   -47747.057   -39680.569    12800.811    -861.3281     3600.341    87.595461 
   64700    1315.8479   -103.96516    1.1906068   -102.77456    -27901.65    4.4441296    4.4441296    4.4441296    -27901.65   -66382.458    4381.3185    -21703.81   -4647.7665   -19513.191    22572.133    87.772841 
   64800    2103.0256   -104.64736    1.9028618    -102.7445   -21681.017    4.4328198    4.4328198    4.4328198   -21681.017   -31321.711   -24334.873   -9386.4656   -19324.888    6261.3933    4004.1718    87.104429 
   64900    1221.7753   -103.87784    1.1054879   -102.77235    21953.594    4.4229839    4.4229839    4.4229839    21953.594    471.86635    55373.895     10015.02    20492.486   -12884.756    23301.926    86.525887 
   65000     1921.016   -104.51628    1.7381756    -102.7781   -3217.2234    4.4290066    4.4290066    4.4290066   -3217.2234   -15124.304   -10130.485    15603.119   -13451.672      346.909   -17953.295    86.879833 
   65100    1386.8608   -104.05624    1.2548608   -102.80138    1288.5675    4.4257153    4.4257153    4.4257153    1288.5675   -22469.918    27846.705   -1511.0844     11081.23   -25890.135    1162.0797     86.68629 
   65200    1380.5107   -104.04926    1.2491151   -102.80015    26935.957    4.4213195    4.4213195    4.4213195    26935.957   -5775.0806    17022.946    69560.006   -15015.244    10576.494   -8099.4737    86.428247 
   65300    1353.8577    -104.0304    1.2249989    -102.8054    7856.3528    4.4183094    4.4183094    4.4183094    7856.3528   -17764.174    6099.6191    35233.614     14066.48   -29390.776    1465.0277    86.251839 
   65400    2023.1488   -104.62722    1.8305875   -102.79664   -39772.452    4.4314334    4.4314334    4.4314334   -39772.452   -57553.435    -62494.87    730.94969   -49939.451   -4931.6017    15070.363    87.022728 
   65500    1452.0718   -104.09865     1.313865   -102.78479   -8618.1074    4.4323579    4.4323579    4.4323579   -8618.1074   -26290.725   -3874.4988    4310.9013    2963.2224   -10113.596   -10620.497    87.077204 
   65600    1557.2902   -104.18981    1.4090689   -102.78074    17185.749    4.4208393    4.4208393    4.4208393    17185.749    2904.0868   -25115.495    73768.654   -35088.211    4822.5343    16513.208    86.400087 
   65700     1925.783   -104.53272    1.7424889   -102.79023   -10220.786    4.4226953    4.4226953    4.4226953   -10220.786    5671.7318   -41705.171    5371.0819   -7700.9572    948.99161   -4124.4861    86.508952 
   65800    1410.9456   -104.08048    1.2766532   -102.80383   -5094.7038     4.415093     4.415093     4.415093   -5094.7038   -22786.049   -40611.386    48113.324   -25176.367   -10185.992   -5064.0068    86.063611 
   65900    2109.5834   -104.71984    1.9087954   -102.81105   -1260.9596    4.4131609    4.4131609    4.4131609   -1260.9596   -2951.3444   -10806.942    9975.4073   -1894.3303    4258.6227    9446.6991    85.950673 
   66000     1184.546   -103.90958    1.0718021   -102.83778   -21510.376    4.4182589    4.4182589    4.4182589   -21510.376   -50530.682   -41582.833    27582.387   -23194.256   -25294.077   -9318.8603    86.248886 
   66100    1618.7194   -104.30406    1.4646513   -102.83941   -9292.3899    4.4156251    4.4156251    4.4156251   -9292.3899   -47034.236    -61180.38    80337.446   -16359.791    8199.4786    5210.7553    86.094734 
   66200    1730.3048   -104.38233    1.5656161   -102.81672    2720.5776    4.4189789    4.4189789    4.4189789    2720.5776     12787.29   -44157.445    39531.888    871.64765    2471.8949    6951.0695    86.291057 
   66300    1060.9394   -103.77372    0.9599603   -102.81376   -15799.783    4.4184103    4.4184103    4.4184103   -15799.783   -12552.644   -36767.981    1921.2747   -19718.713   -13821.261   -7073.6654    86.257749 
   66400    2292.7575   -104.87142    2.0745352   -102.79688   -10866.194    4.4158678    4.4158678    4.4158678   -10866.194    17990.592   -25329.167   -25260.007    21707.186    24670.907    14516.065    86.108931 
   66500     1254.698   -103.94344    1.1352771   -102.80816   -9187.8089    4.4225526    4.4225526    4.4225526   -9187.8089   -10140.955   -33375.312     15952.84   -29366.393   -27693.877   -2874.1632    86.500577 
   66600    1657.4791    -104.3045    1.4997219   -102.80478   -23684.379    4.4215442    4.4215442    4.4215442   -23684.379   -29895.125   -6559.0843   -34598.927    25834.685    15004.124    8643.0943    86.441421 
   66700    1872.2157   -104.49897    1.6940201   -102.80495    22877.847    4.3969609    4.3969609    4.3969609    22877.847    35975.102    6873.8197    25784.619   -15093.298   -3068.7788    8497.7054    85.007611 
   66800    1134.0745   -103.86106    1.0261345   -102.83493   -7717.7752    4.4046933    4.4046933    4.4046933   -7717.7752    3587.2462    -21240.06   -5500.5116    7909.1492   -8011.0105   -928.60549    85.456875 
   66900    1392.3689   -104.08842    1.2598446   -102.82858    7730.1312    4.4221342    4.4221342    4.4221342    7730.1312    3798.0089   -21365.879    40758.263    4503.5306    53418.818    14510.471    86.476031 
   67000    1771.0226   -104.41876    1.6024585    -102.8163   -2753.8913    4.4170391    4.4170391    4.4170391   -2753.8913   -20991.869   -15677.842    28408.037   -583.96141   -44998.821   -6483.2327    86.177466 
   67100    898.01598   -103.64326   0.81254373   -102.83072   -17810.318     4.409838     4.409838     4.409838   -17810.318   -56803.715   -25019.561    28392.323    17543.746    32175.144    23829.872    85.756672 
   67200    2452.7851   -105.04273    2.2193315    -102.8234   -4714.3441    4.3977386    4.3977386    4.3977386   -4714.3441        13904   -20648.186   -7398.8464   -10165.916   -13861.732    -5735.849    85.052725 
   67300    1348.5328   -104.07176    1.2201809   -102.85158   -20831.426    4.4095914    4.4095914    4.4095914   -20831.426   -28798.273   -41680.028    7984.0234    23991.439    -4975.571    9678.9044    85.742281 
   67400    1512.6551   -104.20654    1.3686821   -102.83786   -33277.158    4.4194493    4.4194493    4.4194493   -33277.158   -61475.742   -54775.266    16419.533   -33122.963     29175.98    2357.3591    86.318613 
   67500     1955.125   -104.59116    1.7690382   -102.82213     15852.95    4.4126075    4.4126075    4.4126075     15852.95    19893.187   -21373.352    49039.015    21780.645   -4608.8956   -10508.684    85.918346 
   67600    892.15892   -103.64125   0.80724414     -102.834   -18236.583    4.4156768    4.4156768    4.4156768   -18236.583   -46323.542   -36628.417     28242.21    -20477.88    26769.409    9821.4452    86.097757 
   67700    2246.7907   -104.84485    2.0329434    -102.8119    -9328.528    4.4163403    4.4163403    4.4163403    -9328.528   -2143.0925   -27470.447    1627.9558   -2084.6524   -6485.8526   -7118.2954    86.136573 
   67800    1375.6515   -104.07026    1.2447184   -102.82554   -20794.917    4.4215545    4.4215545    4.4215545   -20794.917   -41868.814   -65579.963    45064.027   -10171.247    6790.5229   -1679.7492    86.442028 
   67900    1242.5606   -103.95311     1.124295   -102.82881   -1695.4815    4.4102958    4.4102958    4.4102958   -1695.4815   -27342.355   -16159.425    38415.335   -13400.887    14398.968    755.28227    85.783381 
   68000    2013.5489   -104.64234    1.8219014   -102.82044    2274.3198    4.4175352    4.4175352    4.4175352    2274.3198    18658.785   -4777.8814   -7057.9446    931.73079   -6252.7865    6429.0419    86.206511 
   68100    1149.4301   -103.87298    1.0400285   -102.83295    -32518.21    4.4240249    4.4240249    4.4240249    -32518.21    -81034.31   -8533.3818   -7986.9369   -18534.442    33674.466     10242.61       86.587 
   68200    1646.8305   -104.30358    1.4900868   -102.81349     29321.35     4.412523     4.412523     4.412523     29321.35    48890.914    -8795.702    47868.838    23309.364   -25854.079    14632.442    85.913408 
   68300    1698.2075   -104.35855    1.5365738   -102.82198   -4869.8034    4.4222733    4.4222733    4.4222733   -4869.8034     17608.07   -32133.851   -83.629212   -15894.609    3057.9555     13302.47    86.484194 
   68400    1086.6408   -103.80983   0.98321542   -102.82662     21720.57    4.4271334    4.4271334    4.4271334     21720.57    18765.652    21093.145    25302.912    25934.499    3603.4678   -2164.7419    86.769644 
   68500    1753.2685   -104.39213    1.5863942   -102.80574   -9275.1337    4.4328532    4.4328532    4.4328532   -9275.1337    32745.354   -20288.053   -40282.703    4638.4188    777.04022   -7156.3261    87.106396 
   68600    1498.6799   -104.16057    1.3560371   -102.80453   -5703.2525     4.409999     4.409999     4.409999   -5703.2525   -11431.212   -24195.359    18516.813    1030.4724    34510.673    9219.0955    85.766061 
   68700      1900.31   -104.52813    1.7194404   -102.80869    21467.615    4.3990624    4.3990624    4.3990624    21467.615    54664.717   -3452.1146    13190.243    19432.761    -15770.66   -5481.6646    85.129554 
   68800     1619.712   -104.29751    1.4655495   -102.83196   -90.871346     4.423634     4.423634     4.423634   -90.871346    4509.9656   -4814.9009    32.321296   -7859.9548    15319.541    7716.5913     86.56405 
   68900    1434.2539   -104.13036     1.297743   -102.83262   -918.12455    4.4284416    4.4284416    4.4284416   -918.12455    22695.131   -35230.976    9781.4711    17735.195   -6393.2964   -17622.994     86.84659 
   69000    1729.6891   -104.38178    1.5650591   -102.81672     11848.08    4.4175167    4.4175167    4.4175167     11848.08    23915.987   -24612.252    36240.506   -15466.252     -18903.9    7781.4607    86.205428 
   69100    1370.6857   -104.05954    1.2402252   -102.81931    9500.8345    4.4120114    4.4120114    4.4120114    9500.8345    801.90602     29916.29   -2215.6924    20715.526    18532.604   -18852.514    85.883528 
   69200    1303.2601   -103.99732    1.1792171   -102.81811    56396.221    4.4173682    4.4173682    4.4173682    56396.221    89671.992    8847.8213     70668.85   -13939.849   -23917.235   -1652.0604     86.19673 
   69300    1360.6766   -104.04617    1.2311688     -102.815   -21742.153    4.4392628    4.4392628    4.4392628   -21742.153   -33221.953   -1910.7395   -30093.767    10482.661     10188.16   -5517.1438    87.484792 
   69400    1710.6091   -104.33335    1.5477951   -102.78555    4606.6578    4.4348746    4.4348746    4.4348746    4606.6578   -4977.0815   -15142.716    33939.771   -8002.1153    1502.1181    -10716.41    87.225616 
   69500     1237.418   -103.90608    1.1196419   -102.78644    27977.029     4.416804     4.416804     4.416804    27977.029    49776.541    23044.102    11110.444   -25497.448   -14643.126   -10130.705    86.163708 
   69600    1107.5307   -103.81106    1.0021171   -102.80895    8643.1187    4.4098586    4.4098586    4.4098586    8643.1187   -517.49038    40563.128   -14116.282   -13415.594    10984.846   -23604.473    85.757869 
   69700    1944.8103   -104.57074    1.7597053   -102.81104    21465.822    4.4173571    4.4173571    4.4173571    21465.822    15836.249     8332.178     40229.04   -21627.135   -4432.5357   -13532.333    86.196083 
   69800    1048.2253   -103.76949   0.94845631   -102.82103   -26268.398    4.4482313    4.4482313    4.4482313   -26268.398   -7974.4591   -10453.614   -60377.122   -14786.826    12338.249   -6774.4225     88.01609 
   69900     1088.206   -103.80325   0.98463162   -102.81862   -28842.615    4.4275294    4.4275294    4.4275294   -28842.615    -38768.09   -65563.813    17804.057   -69033.212    5390.0138   -6515.6151     86.79293 
   70000    2255.0155   -104.80859    2.0403854   -102.76821    43334.158    4.3845696    4.3845696    4.3845696    43334.158    28794.597    70665.882    30541.996    14759.963   -10696.158   -11618.452    84.290942 
   70100    1042.8516   -103.77462   0.94359408   -102.83103   -35419.094    4.4069252    4.4069252    4.4069252   -35419.094   -46385.169   -53284.618   -6587.4944   -57439.479    18362.019   -5391.0241    85.586849 
   70200     2381.025   -104.96516    2.1544015   -102.81076    -7010.178    4.4341683    4.4341683    4.4341683    -7010.178    -16748.47    3725.8653   -8007.9296    21239.457   -7724.4338   -5776.8126    87.183947 
   70300    1232.2003   -103.93751    1.1149207   -102.82259   -27586.534    4.4301029    4.4301029    4.4301029   -27586.534   -52648.416   -56079.347    25968.162   -36674.776    1940.7992   -1213.0355    86.944367 
   70400    1830.9116   -104.45723    1.6566473   -102.80059     8712.168     4.409152     4.409152     4.409152     8712.168    4690.1365    38855.159   -17408.791   -840.48231   -10417.783   -2017.5284    85.716657 
   70500    1679.5887   -104.32618    1.5197272   -102.80646   -4242.5173    4.4067539    4.4067539    4.4067539   -4242.5173   -59413.973    32809.583    13876.838   -36507.572    6432.3987    2580.9975    85.576866 
   70600    1461.7525   -104.14743    1.3226244    -102.8248   -7049.6305    4.4234362    4.4234362    4.4234362   -7049.6305   -27049.959   -3559.1546    9460.2222   -24402.377   -9508.5123    4212.7696    86.552438 
   70700    1873.7842   -104.50132    1.6954393   -102.80588   -28766.008    4.4375203    4.4375203    4.4375203   -28766.008   -64847.131   -7830.0875   -13620.805   -17563.264    701.93121    11558.492    87.381817 
   70800    1039.5933    -103.7464    0.9406459   -102.80576   -4139.5539    4.4112759    4.4112759    4.4112759   -4139.5539   -74403.972    65374.034   -3388.7245    -43017.03   -10064.305   -3907.4219    85.840582 
   70900    1799.5268    -104.4327    1.6282497   -102.80445    19566.462    4.3955015    4.3955015    4.3955015    19566.462   -9655.8799    38179.448    30175.817    11906.328   -4801.6522   -14566.492    84.922996 
   71000     1694.599   -104.37139    1.5333088   -102.83808   -21484.327      4.41539      4.41539      4.41539   -21484.327   -74333.751   -3033.8022    12914.572    -47807.79   -3556.9623   -7322.0811    86.080979 
   71100    1876.5131   -104.51025    1.6979085   -102.81234    -28289.63    4.4474005    4.4474005    4.4474005    -28289.63   -32815.568   -31594.837   -20458.484    16153.331   -9835.8887   -7342.3748    87.966788 
   71200     1140.778   -103.82455    1.0321999   -102.79235   -21378.187    4.4393989    4.4393989    4.4393989   -21378.187   -81499.355   -958.04163    18322.836   -44120.639    2776.7853     868.7203    87.492837 
   71300    2337.7876    -104.8807    2.1152794   -102.76542    30451.956    4.3900765    4.3900765    4.3900765    30451.956    18952.708    45187.493    27215.668    20218.453    -20223.31   -17061.272    84.608942 
   71400    844.55895   -103.57788   0.76417469    -102.8137    22047.588    4.3835843    4.3835843    4.3835843    22047.588   -43570.768    56494.016    53219.515   -66459.698    5043.2189   -4959.5952     84.23413 
   71500    2439.0419   -105.02691    2.2068964   -102.82002   -10851.798    4.4224812    4.4224812    4.4224812   -10851.798   -33137.092    11304.141   -10722.444    14626.776   -13636.577    -7818.389    86.496392 
   71600    826.83825   -103.57714   0.74814062   -102.82899   -8387.1639    4.4433608    4.4433608    4.4433608   -8387.1639   -80662.655     46860.47    8640.6928   -77208.677    591.87236   -20662.291    87.727296 
   71700    2245.3441   -104.82573    2.0316345    -102.7941   -19533.648    4.4287682    4.4287682    4.4287682   -19533.648   -28158.549    2475.4362   -32917.832    19739.317   -8998.2289   -12394.358    86.865807 
   71800    1154.7855   -103.83055    1.0448741   -102.78567     40051.47    4.3765607    4.3765607    4.3765607     40051.47   -37916.758    73523.147     84548.02   -79413.139    4395.3199    1677.7796    83.829885 
   71900    1901.7563   -104.52551    1.7207491   -102.80476    31712.073    4.3894574    4.3894574    4.3894574    31712.073    18833.683    67521.783    8780.7534    27240.499   -12752.549   -17751.836    84.573153 
   72000    1170.4169   -103.89108    1.0590178   -102.83206   -45179.615    4.4318556    4.4318556    4.4318556   -45179.615   -83200.892   -47736.965   -4600.9871   -66121.436   -5767.2384    262.94979    87.047603 
   72100    1869.0837   -104.47839    1.6911862   -102.78721    -13010.95     4.436791     4.436791     4.436791    -13010.95   -31230.093   -27428.022    19625.265    15730.156    9569.4901    5158.6495    87.338738 
   72200    1104.4597   -103.79121   0.99933837   -102.79188   -23039.424    4.4039141    4.4039141    4.4039141   -23039.424   -53862.544   -5598.3882   -9657.3384   -50742.739   -15378.693   -30710.415    85.411532 
   72300    1860.7122   -104.47799    1.6836115   -102.79437    24587.056    4.3821029    4.3821029    4.3821029    24587.056    1130.6396    38296.454    34334.074    51.509401     7803.722    37954.251    84.148756 
   72400    1509.2886   -104.21896    1.3656361   -102.85333   -15369.285     4.402529     4.402529     4.402529   -15369.285   -38744.593   -12240.853    4877.5895   -22750.296   -6773.7313   -34419.718    85.330971 
   72500    1589.4468   -104.27467    1.4381649    -102.8365     -53753.7    4.4399629    4.4399629    4.4399629     -53753.7   -57115.975   -33892.942   -70252.184   -22946.813    2194.0646    23376.191    87.526188 
   72600    1654.2801   -104.31412    1.4968274   -102.81729   -3730.1915     4.417025     4.417025     4.417025   -3730.1915   -10620.348   -3343.0899    2772.8637    3537.7762    7455.8915    22153.361    86.176643 
   72700    1350.3391   -104.02443    1.2218152   -102.80261    32804.668    4.3886219    4.3886219    4.3886219    32804.668   -15294.768    82718.776    30989.994   -27444.976    321.27881   -13719.511    84.524868 
   72800    1778.5359   -104.43947    1.6092566   -102.83021    5469.6931    4.4065134    4.4065134    4.4065134    5469.6931   -7403.6952     26352.95   -2540.1756    10802.981    5978.3056      46659.1    85.562856 
   72900    1661.5143   -104.34018     1.503373   -102.83681   -8969.6938    4.4218997    4.4218997    4.4218997   -8969.6938    -35893.17    11768.008   -2783.9195   -33974.479   -2306.2628   -27326.834    86.462278 
   73000    1453.2477   -104.14811     1.314929   -102.83318    3235.6717    4.4122379    4.4122379    4.4122379    3235.6717    6672.6913    33073.494    -30039.17    12308.703     8516.224    49480.859    85.896756 
   73100    1889.6373   -104.52241    1.7097835   -102.81262    13756.149    4.3986939    4.3986939    4.3986939    13756.149     -45454.9    30343.614    56379.734   -25676.221   -9995.4568   -27383.249    85.108167 
   73200    1535.5054   -104.22213    1.3893576   -102.83277   -13091.252     4.408983     4.408983     4.408983   -13091.252   -14159.487   -6215.2165   -18899.054    1784.7886    7934.7881    24195.677      85.7068 
   73300    1588.4425   -104.27245    1.4372562    -102.8352    18213.187    4.4144979    4.4144979    4.4144979    18213.187   -59282.586    46746.114    67176.034   -18704.507   -5255.3184    16207.738    86.028814 
   73400    1599.2589   -104.27503    1.4470431   -102.82799   -15522.835    4.4150936    4.4150936    4.4150936   -15522.835   -31755.904   -17890.065    3077.4647   -11389.283    3645.0431    -2745.953     86.06365 
   73500    1671.2198   -104.32773    1.5121548   -102.81557    21607.103    4.3938239    4.3938239    4.3938239    21607.103   -4803.9479     43452.93    26172.328   -7098.1819   -1984.9255    6014.8512    84.825795 
   73600     1426.424   -104.12398    1.2906584   -102.83332    5096.7335    4.3973339    4.3973339    4.3973339    5096.7335   -53898.147   -18821.166    88009.514   -37618.384    -930.2107   -1493.4467    85.029244 
   73700    1443.8855     -104.149     1.306458   -102.84254    125.57727    4.4088402    4.4088402    4.4088402    125.57727    27908.267    17515.975    -45047.51   -5514.1475    4954.0236    1690.1904    85.698469 
   73800    1470.3407   -104.16563    1.3303951   -102.83523    110.96255    4.4211848    4.4211848    4.4211848    110.96255   -35237.821   -4133.0132    39703.721   -46329.765    7415.7916    5819.0937    86.420348 
   73900     1762.698   -104.40973    1.5949262   -102.81481   -8732.4892    4.4155483    4.4155483    4.4155483   -8732.4892   -452.90342   -15015.333   -10729.231    9043.5768   -2157.3665   -17478.274    86.090238 
   74000    1623.9176   -104.28047    1.4693548   -102.81112   -25144.937    4.4013562    4.4013562    4.4013562   -25144.937   -43014.684   -49510.783    17090.657   -59337.523    7570.1716   -1287.1458    85.262794 
   74100    1716.7369   -104.35818    1.5533396   -102.80484    42219.094     4.396901     4.396901     4.396901    42219.094    26197.787    56684.766     43774.73    8866.0142    1803.7036   -3562.6632     85.00414 
   74200    1233.6626   -103.94615    1.1162439   -102.82991   -38755.583     4.412532     4.412532     4.412532   -38755.583   -36626.782   -59744.531   -19895.435   -44735.352    1015.7367    6272.6114    85.913932 
   74300    2035.3015   -104.65001    1.8415836   -102.80842   -8982.5733    4.4166761    4.4166761    4.4166761   -8982.5733   -36931.985   -8789.7972    18774.063    4298.6236    8364.9343    9187.5523    86.156224 
   74400    1457.6102   -104.12884    1.3188764   -102.80996   -29643.553    4.4163385    4.4163385    4.4163385   -29643.553   -40836.576   -44154.137   -3939.9477   -23143.227   -2645.5981    3368.0175    86.136471 
   74500    1810.4106   -104.44394    1.6380975   -102.80584   -18776.069    4.4101927    4.4101927    4.4101927   -18776.069   -55490.941   -10874.032    10036.767   -9429.3537    5841.7019    14354.747    85.777363 
   74600    1370.3088   -104.04481    1.2398842   -102.80493    12576.254    4.4024367    4.4024367    4.4024367    12576.254   -24998.828    63010.998   -283.40736    23489.508    1966.5448   -5987.6969    85.325604 
   74700    1852.8812   -104.49528    1.6765258   -102.81875   -13685.123    4.4013573    4.4013573    4.4013573   -13685.123   -18153.558   -7425.2351   -15476.576   -45509.508   -253.22683    7368.1016    85.262854 
   74800    1692.1783   -104.35621    1.5311185    -102.8251   -17117.704    4.4148461    4.4148461    4.4148461   -17117.704   -48010.618    1636.3312   -4978.8249    44261.393     3040.452   -1396.1267    86.049177 
   74900    1735.9578   -104.38219    1.5707311   -102.81146   -17206.302    4.4154827    4.4154827    4.4154827   -17206.302   -37303.798   -1169.8466   -13145.261   -43715.692    9966.8944    1357.0044    86.086405 
   75000     1296.268   -103.98982    1.1728905   -102.81693    14180.798    4.4132852    4.4132852    4.4132852    14180.798   -38568.222    51576.953    29533.663    46756.448   -7197.0374   -361.31595    85.957937 
   75100    1733.1242   -104.37131    1.5681672   -102.80314   -15124.894        4.421        4.421        4.421   -15124.894   -50468.466    -13445.63    18539.414   -21975.136    22404.894     -3669.07    86.409512 
   75200    1559.3507   -104.20833    1.4109332    -102.7974   -30064.471    4.4142066    4.4142066    4.4142066   -30064.471   -75857.525   -6428.3858   -7907.5027    24314.461   -34867.694    15790.177    86.011787 
   75300    2141.7767   -104.72932    1.9379245   -102.79139   -25772.574     4.409283     4.409283     4.409283   -25772.574   -53800.647   -21294.775   -2222.3015   -3440.5613    50703.138    8606.2672    85.724293 
   75400    1363.7694   -104.03661    1.2339672   -102.80264   -26679.052    4.4136486    4.4136486    4.4136486   -26679.052   -48533.051   -12616.357   -18887.749   -15717.569    -34794.08    3988.7151    85.979173 
   75500    1895.9491     -104.514    1.7154946   -102.79851   -7814.6534    4.4181789    4.4181789    4.4181789   -7814.6534   -32350.736    8706.0715     200.7039    17522.491    27786.466    18145.979    86.244199 
   75600    1574.6432   -104.21919    1.4247703   -102.79442   -27272.798    4.4214513    4.4214513    4.4214513   -27272.798   -58207.039    14297.407   -37908.763   -10877.411   -20833.606    5096.6683    86.435973 
   75700    1705.1176   -104.33719    1.5428262   -102.79437   -747.55856    4.4095782    4.4095782    4.4095782   -747.55856   -39195.154    5576.2066    31376.271    13733.106   -10231.093    4083.0901    85.741514 
   75800    1294.1263    -103.9767    1.1709527   -102.80575    5622.3981    4.4091463    4.4091463    4.4091463    5622.3981   -8239.5767    65402.187   -40295.416   -9103.3554   -5994.3764   -457.44883    85.716322 
   75900    1648.8279   -104.30386    1.4918942   -102.81197    1081.3858    4.4160311    4.4160311    4.4160311    1081.3858    11207.047     23341.64    -31304.53   -15343.149   -34007.406   -7248.6371    86.118483 
   76000    1705.6644   -104.35133     1.543321   -102.80801   -8607.7092     4.424893     4.424893     4.424893   -8607.7092    2825.5627    14132.216   -42780.907   -3742.9352   -7775.2172    8224.3394     86.63798 
   76100    1126.2547   -103.82213    1.0190589   -102.80307   -5598.5799    4.4223093    4.4223093    4.4223093   -5598.5799   -27125.437     51378.58   -41048.883   -22152.305    -47842.43   -2451.3133    86.486306 
   76200    2031.1158   -104.63311    1.8377963   -102.79532    4270.3129    4.4079912    4.4079912    4.4079912    4270.3129    361.21177    22323.249   -9873.5219    8257.5634    1891.2331    9334.1174    85.648974 
   76300    1287.6328   -103.98626    1.1650772   -102.82119    1425.6454    4.4076929    4.4076929    4.4076929    1425.6454    12541.626    43413.211   -51677.901    8741.6475   -37140.697   -7309.2242    85.631587 
   76400    1808.1746   -104.45191    1.6360744   -102.81584    3112.0938    4.4185694    4.4185694    4.4185694    3112.0938    38444.202   -14981.497   -14126.424   -4654.9511    12308.697    6303.7346    86.267071 
   76500    1448.4871   -104.13334    1.3106215   -102.82272   -30161.871    4.4274397    4.4274397    4.4274397   -30161.871   -78186.136    59952.131   -72251.609    4700.2564   -47942.657   -5841.6002    86.787657 
   76600    1940.8283    -104.5611    1.7561022     -102.805    14586.676    4.4117673    4.4117673    4.4117673    14586.676    68456.538   -12339.154   -12357.355   -23085.483    32830.058    12640.079    85.869272 
   76700    1084.3292   -103.80324   0.98112386   -102.82212    13048.451    4.4044611    4.4044611    4.4044611    13048.451   -6695.3839    81516.551   -35675.814   -6240.2779   -64572.566   -4401.6862    85.443365 
   76800    2080.8778   -104.69201     1.882822   -102.80919   -17502.593    4.4188315    4.4188315    4.4188315   -17502.593   -30386.024    11496.408   -33618.165    2532.4565    44634.746   -4791.0828    86.282423 
   76900    1603.4158   -104.25686    1.4508043   -102.80606   -20957.974    4.4154886    4.4154886    4.4154886   -20957.974   -47158.504   -9618.7421    -6096.675   -13056.718   -59458.314    7008.7286    86.086748 
   77000     1748.022   -104.37905     1.581647    -102.7974    -11280.93    4.4167592    4.4167592    4.4167592    -11280.93   -33442.475    13423.089   -13823.404    11924.261    42060.691    -3382.158    86.161084 
   77100    1895.8863   -104.50385    1.7154378   -102.78841   -15957.787    4.4216277    4.4216277    4.4216277   -15957.787   -28966.018   -3993.9254   -14913.417   -6939.5636   -30143.261    4455.0258    86.446323 
   77200    896.65895   -103.61499   0.81131586   -102.80367    32252.187    4.4052183    4.4052183    4.4052183    32252.187    13636.717    28915.584     54204.26  -0.73631572    37324.081   -5881.1886    85.487437 
   77300    2075.3508   -104.68514     1.877821   -102.80732    -7995.626    4.4157685    4.4157685    4.4157685    -7995.626    -26215.01   -22224.905    24453.037    1973.1357    8696.6226    7268.3439    86.103123 
   77400    1283.8385   -103.97373     1.161644   -102.81209   -8048.7512    4.4151278    4.4151278    4.4151278   -8048.7512   -57442.654    22244.749    11051.651     -19091.6   -2826.5403    213.26672    86.065647 
   77500    1820.3126   -104.44574    1.6470571   -102.79868    18799.945    4.4179861    4.4179861    4.4179861    18799.945   -22136.491    25648.889    52887.438    891.82231    11429.972    141.69361    86.232907 
   77600    1217.2859   -103.90539    1.1014258   -102.80397   -3550.3194    4.4261578    4.4261578    4.4261578   -3550.3194    37431.509   -9268.9693   -38813.498   -23457.674   -35531.154   -3963.5603    86.712293 
   77700    1519.9148   -104.18086    1.3752508   -102.80561    465.34396     4.413351     4.413351     4.413351    465.34396    52101.346   -13364.726   -37340.587   -1881.3758    31543.761   -2472.1326     85.96178 
   77800    2216.3788     -104.812    2.0054261   -102.80657   -25701.959     4.412525     4.412525     4.412525   -25701.959   -36530.555   -48127.375    7552.0526   -18435.591   -17814.077    3082.0973    85.913526 
   77900    1139.2012    -103.8641    1.0307732   -102.83333   -11619.823    4.4202282    4.4202282    4.4202282   -11619.823    28767.028   -5295.3419   -58331.155   -18679.139    19647.932   -2472.5599    86.364263 
   78000    1793.9474   -104.44062    1.6232013   -102.81742    27740.066    4.4089094    4.4089094    4.4089094    27740.066     94588.35   -39443.812    28075.659    10760.284    14589.266    9840.7257    85.702505 
   78100    1543.7431   -104.22888    1.3968112   -102.83206   -17736.995    4.4048798    4.4048798    4.4048798   -17736.995   -41419.441    2673.2922   -14464.837   -18530.289   -22581.423    1526.1591    85.467731 
   78200    1769.5286   -104.42846    1.6011067   -102.82736    6710.3505    4.4080987    4.4080987    4.4080987    6710.3505    78521.639   -52373.147   -6017.4411    30706.923    21059.635   -932.12774     85.65524 
   78300    1083.8433   -103.81996   0.98068421   -102.83928     11696.06    4.4077515    4.4077515    4.4077515     11696.06    30895.054   -28287.567    32480.693    8951.0808   -25652.483    3913.3408    85.635003 
   78400    2126.0018    -104.7465    1.9236511   -102.82285   -5287.3964    4.4100735    4.4100735    4.4100735   -5287.3964   -16628.614   -18115.178    18881.603    6428.3826    6100.2504   -2037.3053    85.770407 
   78500    1521.4508   -104.19775    1.3766407   -102.82111   -32421.758    4.4158116    4.4158116    4.4158116   -32421.758   -49137.262   -61463.238    13335.225    32708.694   -13486.904     2942.703    86.105643 
   78600    1477.5092   -104.14583    1.3368814   -102.80895    35873.148     4.400968     4.400968     4.400968    35873.148    58734.293    34267.518    14617.633    -16079.74   -14769.165    4349.4214    85.240236 
   78700    1409.4287   -104.09216    1.2752807   -102.81688    11213.879    4.4013865    4.4013865    4.4013865    11213.879    32876.464   -10824.915    11590.088     46985.35    16804.548    11561.287    85.264551 
   78800    1661.9708   -104.31481    1.5037861   -102.81102   -4352.5803    4.4118543    4.4118543    4.4118543   -4352.5803   -6609.8306   -3409.9105   -3037.9999   -26386.236   -33443.268    294.55308    85.874354 
   78900    1825.3182   -104.46253    1.6515863   -102.81095   -8370.1349    4.4101294    4.4101294    4.4101294   -8370.1349   -26765.428    621.99122    1033.0323    44727.156    12461.512    6751.3664    85.773669 
   79000     1473.368   -104.14974    1.3331343   -102.81661     12354.76    4.4053092    4.4053092    4.4053092     12354.76    60464.294    5001.1099   -28401.124   -6464.6957   -39469.034    5031.1415    85.492733 
   79100    1270.4948   -103.97312    1.1495704   -102.82355    26301.148    4.4057442    4.4057442    4.4057442    26301.148     58046.63    16973.274    3883.5392     28304.44   -5271.5266   -5991.5506    85.518057 
   79200    1714.2579    -104.3622    1.5510966   -102.81111    10882.842     4.416656     4.416656     4.416656    10882.842     17903.47    50375.916    -35630.86    6045.1002   -28736.804   -3346.7928    86.155048 
   79300    1230.2467   -103.92687    1.1131531   -102.81372    -35225.79    4.4184806    4.4184806    4.4184806    -35225.79   -73800.946    19589.096   -51465.521    829.40619    -33155.05    10724.704    86.261871 
   79400    2066.8755   -104.65304    1.8701524   -102.78288    34651.741    4.3948151    4.3948151    4.3948151    34651.741    33641.876    42946.813    27366.535    5855.2226    10931.224    670.23593    84.883213 
   79500      1133.22   -103.83769    1.0253613   -102.81233   -7992.3221    4.4105542    4.4105542    4.4105542   -7992.3221   -37129.005     54230.42   -41078.382   -17201.616   -27508.207    1042.8902    85.798458 
   79600    1717.3956   -104.34214    1.5539356    -102.7882    16933.582    4.4145647    4.4145647    4.4145647    16933.582    28769.036    24503.213   -2471.5039    6951.3223    23230.197    7110.1709    86.032718 
   79700    1773.2551   -104.40239    1.6044785   -102.79791    -28741.06    4.4147185    4.4147185    4.4147185    -28741.06   -50197.089    10670.561   -46696.653   -19859.446   -50465.459    1588.1148    86.041711 
   79800    1662.3696   -104.30758    1.5041469   -102.80343   -823.00154    4.4072968    4.4072968    4.4072968   -823.00154   -15896.973     21853.58   -8425.6112    18913.113    41954.639   -244.94555    85.608501 
   79900    1440.7826   -104.11078    1.3036504   -102.80712    23917.653    4.3970293    4.3970293    4.3970293    23917.653    42759.599    24753.729    4239.6304   -10484.807    -53507.62    4396.1188     85.01158 
   80000    1792.7864    -104.4286    1.6221509   -102.80645   -20805.378     4.416449     4.416449     4.416449   -20805.378   -43004.988   -19495.771    84.625121     10606.49    39234.894   -11914.831    86.142932 
   80100    1271.1368   -103.95716    1.1501513     -102.807    30836.013    4.4056266    4.4056266    4.4056266    30836.013    38237.347    27873.805    26396.886    1973.2272   -39700.811    10777.029    85.511211 
   80200    1851.2288   -104.47795    1.6750307   -102.80292    2048.0415    4.4105438    4.4105438    4.4105438    2048.0415     5559.637   -5504.5237    6089.0112    4209.7988   -3791.9493   -12031.758    85.797852 
   80300    2038.0608   -104.64074    1.8440802   -102.79666   -28412.092    4.4177006    4.4177006    4.4177006   -28412.092   -42553.721    -21342.73   -21339.823    5592.8615   -15579.268    20522.672     86.21619 
   80400    1023.2659   -103.73278   0.92587251    -102.8069    37445.464    4.4054392    4.4054392    4.4054392    37445.464    51678.417    18015.016     42642.96   -9290.2763    -26325.66   -8897.3044    85.500302 
   80500    2126.2141   -104.71638    1.9238432   -102.79254      7373.58    4.4088838    4.4088838    4.4088838      7373.58    18442.495    -20132.95    23811.195    10247.312   -4261.0456    8415.2892    85.701012 
   80600    1208.9867   -103.91126    1.0939165   -102.81734   -5639.3742     4.403423     4.403423     4.403423   -5639.3742   -1720.4547    7256.8067   -22454.475   -11776.004   -30831.021    9996.1381     85.38296 
   80700    2140.2161    -104.7475    1.9365125   -102.81099   -13528.098    4.4129494    4.4129494    4.4129494   -13528.098    22242.184   -42003.021   -20823.456    8249.3904    7455.9306   -22391.833    85.938317 
   80800    1204.4509   -103.89556    1.0898125   -102.80574   -25305.073    4.4201433    4.4201433    4.4201433   -25305.073   -49988.516    3115.0677   -29041.769   -2507.0414   -48787.069    19863.645     86.35929 
   80900    1910.0001    -104.5182    1.7282083   -102.78999    10665.463    4.4031182    4.4031182    4.4031182    10665.463    40288.929   -8277.6857    -14.85535    9725.1808    6288.8201   -23625.303    85.365235 
   81000    1383.6306   -104.05714     1.251938    -102.8052   -4971.3704    4.4041128    4.4041128    4.4041128   -4971.3704   -37664.483    20453.949    2296.4225   -3540.8956   -15951.052    17473.203    85.423095 
   81100    1682.9305   -104.33219    1.5227509   -102.80944   -11123.159     4.412362     4.412362     4.412362   -11123.159    23896.956    -22325.66   -34940.775    10057.847   -21940.329   -3479.9085    85.904007 
   81200    1484.5083    -104.1536    1.3432143   -102.81039    17037.767     4.407879     4.407879     4.407879    17037.767    29685.102    39949.778    -18521.58    2088.6163    14871.069    1888.2131    85.642433 
   81300    1640.0376   -104.29533    1.4839405   -102.81139   -9633.8012    4.4133495    4.4133495    4.4133495   -9633.8012   -6070.9648   -21442.132   -1388.3067    8989.4693   -20537.242    13816.144    85.961694 
   81400    1823.4786   -104.45103    1.6499218    -102.8011    6792.6258    4.4116091    4.4116091    4.4116091    6792.6258    33688.076    25151.281    -38461.48    2702.8522    31050.747    686.12617    85.860039 
   81500    1227.1979   -103.91954    1.1103944   -102.80914   -643.86799    4.4058446    4.4058446    4.4058446   -643.86799    8697.3923    5180.7264   -15809.723    12339.703   -7667.7139    27107.819    85.523906 
   81600    2369.0412    -104.9345    2.1435583   -102.79095   -10826.981    4.4167168    4.4167168    4.4167168   -10826.981     3633.812   -19939.568   -16175.186    5741.2344    18059.743    350.89648    86.158605 
   81700    1108.5056   -103.79982    1.0029992   -102.79682   -38203.969    4.4287971    4.4287971    4.4287971   -38203.969   -42516.853    2559.8469   -74654.902    2333.0756    5984.1553     19024.18    86.867507 
   81800    2447.9373   -104.99987    2.2149451   -102.78493    4912.0957    4.4083588    4.4083588    4.4083588    4912.0957    43461.735   -9667.4156   -19058.032    4417.9221   -2759.2677    3160.5067    85.670404 
   81900    960.69493   -103.68751   0.86925697   -102.81825    2604.7962    4.3833234    4.3833234    4.3833234    2604.7962    11489.134    41144.991   -44819.736   -8056.2928    3500.6258   -10637.273    84.219088 
   82000    2137.2003   -104.75972    1.9337837   -102.82594    29101.467    4.3950195    4.3950195    4.3950195    29101.467    102522.34    9653.5553   -24871.499    3534.4826   -7714.3467   -4062.8654    84.895062 
   82100    1014.3714   -103.75289   0.91782454   -102.83506   -32771.441    4.4219142    4.4219142    4.4219142   -32771.441    -50173.98    19318.704   -67459.048   -12692.283     -10186.1   -19318.851    86.463126 
   82200    2139.8312   -104.73331    1.9361642   -102.79714   -8083.8189    4.4117541    4.4117541    4.4117541   -8083.8189    -9375.607    19277.392   -34153.241    7710.2683    1548.1891    7433.2814    85.868505 
   82300    1464.9714   -104.12128    1.3255369   -102.79575   -18130.802    4.4039486    4.4039486    4.4039486   -18130.802    11024.162   -30061.355   -35355.212   -9250.1002   -3473.4249   -24935.721    85.413541 
   82400    1278.4193    -103.9609    1.1567407   -102.80416    9049.9215    4.3894181    4.3894181    4.3894181    9049.9215   -43587.761    108641.15   -37903.621   -4269.5556   -5917.3915     20175.98    84.570879 
   82500    2042.7358   -104.66361    1.8483103    -102.8153    -7245.904    4.3940034    4.3940034    4.3940034    -7245.904    14239.484    -12903.99   -23073.205   -11191.178    2105.9728   -3403.2355    84.836191 
   82600    1132.7824   -103.85555    1.0249653   -102.83058   -11181.972    4.4135151    4.4135151    4.4135151   -11181.972   -73681.333    103163.71   -63028.296    821.20587   -7496.3922    5689.6301    85.971371 
   82700     1744.348   -104.38701    1.5783227   -102.80869   -15671.865    4.4111854    4.4111854    4.4111854   -15671.865    24723.602   -46681.649   -25057.549   -6731.0284    7013.0989    31593.032    85.835298 
   82800    1685.9474   -104.31793    1.5254807   -102.79245    19473.716     4.391415     4.391415     4.391415    19473.716    8415.0339    70455.047   -20448.932    2137.3155     -2251.54   -4207.2314    84.686353 
   82900    1604.3434   -104.25979    1.4516436   -102.80815   -12245.946    4.4008894    4.4008894    4.4008894   -12245.946   -5531.4086   -12421.987   -18784.443   -8778.5654   -2004.0486    47898.291    85.235665 
   83000    1655.6695   -104.30472    1.4980846   -102.80664    8885.7702    4.4026263    4.4026263    4.4026263    8885.7702    37155.729   -3125.2372   -7373.1812    3130.8177     6580.497   -8879.5668    85.336625 
   83100    1584.2572   -104.25178    1.4334692   -102.81831    20195.734    4.4045282    4.4045282    4.4045282    20195.734    24686.952    44324.794   -8424.5455   -11409.752   -2172.4609     35603.73     85.44727 
   83200    1431.0085   -104.11032    1.2948066   -102.81551    3596.4517    4.4141993    4.4141993    4.4141993    3596.4517   -23005.012    32251.112    1543.2548   -10942.617    10758.688    6800.1077    86.011359 
   83300    1449.5687   -104.11856    1.3116002   -102.80696    5319.2941    4.4066157    4.4066157    4.4066157    5319.2941    19625.412     44220.42   -47887.949   -6731.8329    9142.4162   -913.66912    85.568817 
   83400    1672.5849    -104.3089      1.51339   -102.79551   -512.08345    4.4120713    4.4120713    4.4120713   -512.08345   -52093.835    32704.007    17853.577    24.556351    7837.3756    18996.957    85.887027 
   83500    1312.4537   -103.98823    1.1875357    -102.8007   -17802.837     4.406117     4.406117     4.406117   -17802.837   -23469.794    11377.601   -41316.318   -14632.165    838.09332   -21046.419     85.53977 
   83600    1803.5153   -104.41979    1.6318586   -102.78793    5529.9002    4.3966541    4.3966541    4.3966541    5529.9002   -3.0309873    13362.224    3230.5081    23472.378    6305.7219    3918.6686     84.98982 
   83700    1104.0248   -103.81568   0.99894484   -102.81674    2764.2845    4.4006857    4.4006857    4.4006857    2764.2845   -40720.847     67947.66    -18933.96    442.84381    6937.5025   -12593.506    85.223834 
   83800    2125.6401   -104.72304    1.9233238   -102.79972   -3645.1799    4.4129379    4.4129379    4.4129379   -3645.1799   -17144.681    26799.252   -20590.111    18629.475   -2457.4317    1891.9098    85.937645 
   83900    612.85077   -103.37869   0.55452025   -102.82417   -11747.835    4.4110333    4.4110333    4.4110333   -11747.835   -27761.989   -9037.8911    1556.3748    4091.6257    23836.877    2502.8601    85.826425 
   84000    2664.5905   -105.19567    2.4109775   -102.78469    14327.508    4.3991339    4.3991339    4.3991339    14327.508    8252.7718     29244.23     5485.523    8582.1726    -7418.476    134.20053    85.133707 
   84100    1009.8219   -103.74394   0.91370811   -102.83023   -19622.337    4.3968087    4.3968087    4.3968087   -19622.337   -37911.437   -10576.967   -10378.608     5413.338    17226.091    13982.767    84.998783 
   84200    2009.9764   -104.62999    1.8186688   -102.81133    43449.433    4.3972072    4.3972072    4.3972072    43449.433    34559.479    60544.484    35244.337    6714.1723   -10271.792   -12003.511    85.021899 
   84300    1036.4449   -103.76142    0.9377971   -102.82363   -22342.139    4.4230402    4.4230402    4.4230402   -22342.139   -18001.553   -13177.828   -35847.037    1777.0609    11255.519     10333.17    86.529195 
   84400    2369.8852   -104.93644    2.1443219   -102.79211   -6461.7894    4.4140246    4.4140246    4.4140246   -6461.7894    3821.3157   -27620.356    4413.6724    3890.9412   -5232.6219   -16849.059    86.001151 
   84500    803.73499   -103.52929   0.72723631   -102.80205    28684.586    4.3816972    4.3816972    4.3816972    28684.586    32230.666    80970.256   -27147.163    6690.5044   -6962.7785   -11352.909    84.125391 
   84600     2055.097   -104.66769     1.859495    -102.8082    11494.316    4.3882842    4.3882842    4.3882842    11494.316    17183.883    9190.4555    8108.6085    14066.958     18528.08    8015.2472    84.505357 
   84700    1179.6554   -103.90437     1.067377   -102.83699    21794.334    4.4025723    4.4025723    4.4025723    21794.334    36157.386    52300.135    -23074.52    8884.7871   -15949.955   -13368.353    85.333484 
   84800    2111.3899   -104.70818      1.91043   -102.79775   -29487.561    4.4239788    4.4239788    4.4239788   -29487.561   -16475.706   -18078.136    -53908.84    11448.102    12467.289    5904.6407    86.584292 
   84900    1150.1698   -103.84316    1.0406978   -102.80246    8185.3265    4.4000826    4.4000826    4.4000826    8185.3265    26721.229    2371.5985   -4536.8477   -13336.707   -24061.734    3114.3522      85.1888 
   85000    2167.2961   -104.74331     1.961015   -102.78229    21425.956     4.379978     4.379978     4.379978    21425.956     1671.777    51114.172    11491.919    18443.339   -11791.319   -2867.6678    84.026409 
   85100    1091.6797   -103.80377    0.9877747     -102.816   -10862.514    4.3946635    4.3946635    4.3946635   -10862.514    36755.955   -38944.943   -30398.553   -18827.185    -2968.436    33419.746    84.874432 
   85200    1847.8728   -104.48902    1.6719941   -102.81703    3922.6691     4.413462     4.413462     4.413462    3922.6691   -27307.015    40276.736   -1201.7142    6756.7196   -36398.196   -27286.092    85.968267 
   85300    1315.1087   -104.00319     1.189938   -102.81325   -10867.926    4.4179176    4.4179176    4.4179176   -10867.926    15955.903   -28049.232    -20510.45     5334.355    8919.9815    40226.447    86.228896 
   85400    1579.5432   -104.21721    1.4292038   -102.78801    7427.9983    4.3971892    4.3971892    4.3971892    7427.9983    4703.6335     31723.51   -14143.149   -8720.4263   -36288.105   -28907.476    85.020853 
   85500     1831.477   -104.44117    1.6571589   -102.78401   -12264.182    4.4028377    4.4028377    4.4028377   -12264.182   -13701.742   -24029.992    939.18842    -446.9963     12331.12    37989.385     85.34892 
   85600    1401.3517   -104.06799    1.2679725   -102.80001   -10578.811    4.3984695    4.3984695    4.3984695   -10578.811   -6864.6496   -4434.8451   -20436.939    1390.1312   -32942.613    -4535.717    85.095141 
   85700    1733.8146   -104.37361    1.5687918   -102.80482    2764.2909    4.4022493    4.4022493    4.4022493    2764.2909   -4678.2795    -18781.63    31752.783   -2042.6463    23444.397    16198.318    85.314709 
   85800    1348.8327   -104.03434    1.2204522   -102.81389   -49394.757    4.4203866    4.4203866    4.4203866   -49394.757   -49367.672   -71566.167   -27250.432   -5904.9147   -16117.447    25642.414    86.373549 
   85900    2024.7662   -104.61181     1.832051   -102.77976    27213.409    4.3970291    4.3970291    4.3970291    27213.409    18696.464    12656.574    50287.189    8962.1047    21282.484   -6101.3288    85.011568 
   86000    1150.7589   -103.84201    1.0412308   -102.80078   -21766.586     4.406322     4.406322     4.406322   -21766.586    15224.693   -58421.572   -22102.881    7309.9646   -4545.7616    35951.261    85.551712 
   86100    2537.7702   -105.07806    2.2962278   -102.78183   -2224.8962    4.4106978    4.4106978    4.4106978   -2224.8962   -17377.072     8762.903    1939.4809     3618.491    8797.7977   -17045.126    85.806839 
   86200    909.56484   -103.64275   0.82299338   -102.81976     -26407.9    4.4104126    4.4104126    4.4104126     -26407.9   -6572.1284   -38395.542   -34256.029    701.48317    19619.927    34291.628    85.790194 
   86300    2294.3618   -104.86884    2.0759868   -102.79286    24487.734    4.4147789    4.4147789    4.4147789    24487.734    17488.248    1021.1539    54953.799    3420.0353   -6544.4221    -8401.485    86.045245 
   86400    922.44654    -103.6293   0.83464902   -102.79465   -28578.842    4.4295806    4.4295806    4.4295806   -28578.842    6989.0943   -31323.054   -61402.566   -10426.987    36631.276    25612.137    86.913618 
   86500    2001.2948   -104.55606    1.8108136   -102.74525     38554.87    4.4222793    4.4222793    4.4222793     38554.87    50877.506    18310.079    46477.026   -9820.0101   -8049.3539   -216.03593    86.484546 
   86600    817.21383   -103.51621   0.73943224   -102.77678   -23791.258    4.4128992    4.4128992    4.4128992   -23791.258     4331.128    -16905.76   -58799.142   -15074.766    30191.368    39139.038    85.935383 
   86700    1997.8692   -104.56647     1.807714   -102.75875    35809.995     4.400093     4.400093     4.400093    35809.995    45132.562    13443.333    48854.089   -4539.2819   -2300.1498   -5009.2368    85.189401 
   86800    1025.9094    -103.7306   0.92826437   -102.80233   -10943.114    4.4093301    4.4093301    4.4093301   -10943.114   -9953.4809    34046.015   -56921.877   -21004.132    12756.098    19416.374    85.727041 
   86900    2092.1787    -104.6612    1.8930472   -102.76815    7988.2974    4.4287146    4.4287146    4.4287146    7988.2974     10596.63    13512.443   -144.18071   -8048.1216    2558.4725    8017.7765     86.86265 
   87000    777.79186   -103.48901   0.70376242   -102.78525   -16081.075    4.4234471    4.4234471    4.4234471   -16081.075   -16796.765    27563.506   -59009.967   -12606.554     3374.429   -1930.0282    86.553077 
   87100     2249.585   -104.78727    2.0354717    -102.7518    19557.336    4.4070216    4.4070216    4.4070216    19557.336   -527.84279    52117.479    7082.3726   -9378.9708    1039.0005    20529.483    85.592468 
   87200    752.07985    -103.4739   0.68049765    -102.7934    -1857.874    4.4012794    4.4012794    4.4012794    -1857.874    -21266.14    55747.364   -40054.845   -3952.2423   -4197.2841   -21970.266    85.258327 
   87300    2556.4741   -105.09052    2.3131515   -102.77737   -5550.9537    4.4136149    4.4136149    4.4136149   -5550.9537   -4228.5989   -8963.2605   -3461.0016   -14556.474   -2751.5469    13150.633    85.977205 
   87400    482.89192   -103.24129   0.43693076   -102.80436   -17402.955    4.4277779    4.4277779    4.4277779   -17402.955   -48310.215    15696.445   -19595.095    13303.154   -2654.4394   -33228.048    86.807546 
   87500      2467.49   -104.99989    2.2326368   -102.76725    481.47424    4.4131555    4.4131555    4.4131555    481.47424   -18085.764    26941.958    -7411.771   -15679.885    13503.279    6946.6812    85.950358 
   87600    775.81279   -103.49454   0.70197171   -102.79257   -5545.4876    4.3996821    4.3996821    4.3996821   -5545.4876    -42884.88    6137.4201    20110.997    13149.711   -17495.013   -24286.897    85.165538 
   87700    2287.2138   -104.86046    2.0695191   -102.79094   -7114.4226    4.4022102    4.4022102    4.4022102   -7114.4226   -34055.816    5996.5757    6715.9728   -15403.614    3351.6043    9450.9692    85.312431 
   87800    1255.4824    -103.9524    1.1359868   -102.81641   -10711.879    4.4112365    4.4112365    4.4112365   -10711.879   -18644.271   -17859.205    4367.8378   -2208.3666   -11081.867    1936.2758    85.838286 
   87900    2032.3122   -104.63451    1.8388788   -102.79563    -13510.12    4.4193692    4.4193692    4.4193692    -13510.12   -46433.748    -8427.233    14330.621   -6585.2789    2034.3956   -1701.7712    86.313925 
   88000    1422.1407   -104.09589    1.2867828   -102.80911   -7227.8128    4.3983312    4.3983312    4.3983312   -7227.8128   -34470.884   -29479.896    42267.341   -36123.966   -6757.8306    10964.032    85.087115 
   88100    1612.2234    -104.2572    1.4587736   -102.79843    60370.006    4.3918262    4.3918262    4.3918262    60370.006    26751.084    59522.874     94836.06    2487.1973    1824.4306   -9279.9067    84.710146 
   88200    1329.0007   -104.00099    1.2025077   -102.79848   -41569.217    4.4248668    4.4248668    4.4248668   -41569.217   -85490.166   -8674.8275   -30542.657   -41383.298   -5186.7478    15725.334    86.636442 
   88300    1789.7753    -104.4028    1.6194263   -102.78338   -2950.0254    4.4079153    4.4079153    4.4079153   -2950.0254   -16301.816    30804.072   -23352.332     4749.366   -217.51961    137.31328    85.644549 
   88400    1556.8982   -104.20402    1.4087142   -102.79531   -21080.126    4.3953995    4.3953995    4.3953995   -21080.126    -61052.29    -22916.61    20728.523   -31569.512   -5675.4266    9791.0414    84.917082 
   88500    1712.6127   -104.34989    1.5496079   -102.80028   -5828.4706    4.3957548    4.3957548    4.3957548   -5828.4706   -12865.321    24353.264   -28973.354   -4897.0367   -20247.273    28594.717    84.937677 
   88600    1516.4768   -104.19173    1.3721401   -102.81959   -1317.7965    4.4116272    4.4116272    4.4116272   -1317.7965   -43059.614    26330.551    12775.673   -10184.756    9810.2129   -1894.1336    85.861096 
   88700     1574.386   -104.21984    1.4245375    -102.7953   -27622.442    4.4342538    4.4342538    4.4342538   -27622.442   -30199.385    9593.4828   -62261.423    -10840.39   -11979.957    17581.648    87.188989 
   88800    1216.5716   -103.89486    1.1007795   -102.79408    7136.1379    4.3941942    4.3941942    4.3941942    7136.1379   -58874.192    73132.482    7150.1237    4120.1824    26121.372   -3195.3216    84.847245 
   88900    2094.9291   -104.67224    1.8955359    -102.7767    23672.575    4.3771781    4.3771781    4.3771781    23672.575    7590.5743    35902.024    27525.125   -13779.459    -9926.562    10708.853    83.865365 
   89000    1166.0885   -103.86709    1.0551014   -102.81198    -13258.22    4.4064276    4.4064276    4.4064276    -13258.22    -73584.52    68822.715   -35012.855    16963.098     54681.34    5395.1989    85.557858 
   89100    1793.3517   -104.42014    1.6226623   -102.79748   -13949.417    4.4233586    4.4233586    4.4233586   -13949.417   -58805.694    4894.2304    12063.213   -11913.033   -4613.9396   -2663.4047    86.547883 
   89200    1611.4354   -104.24941    1.4580606   -102.79135   -18126.735    4.4184756    4.4184756    4.4184756   -18126.735   -41328.118    61177.965   -74230.052    5545.9774    31234.143    1873.6727    86.261573 
   89300    1476.2843    -104.1253    1.3357731   -102.78952    8750.0649    4.3995785    4.3995785    4.3995785    8750.0649   -39839.728    19162.025    46927.898   -5473.4091    7332.8147    1311.2417    85.159523 
   89400    1543.7554   -104.19664    1.3968223   -102.79981    15846.627    4.3903344    4.3903344    4.3903344    15846.627     26539.64     33472.95   -12472.707   -13912.674    11597.963   -18253.532    84.623853 
   89500    1568.2163   -104.23492    1.4189551   -102.81597    -4106.852    4.4089169    4.4089169    4.4089169    -4106.852   -39114.539   -986.02794    27780.011    26562.511    10423.383     5380.225    85.702946 
   89600    1687.9699   -104.32546    1.5273106   -102.79815    3947.5078     4.419479     4.419479     4.419479    3947.5078   -1990.3413     17628.37   -3795.5049   -18433.045    -1581.541   -10261.756    86.320354 
   89700    1487.8685   -104.13176    1.3462547    -102.7855   -3749.5524      4.42108      4.42108      4.42108   -3749.5524    1761.6757   -24248.065    11237.732    42850.721    22826.893    8740.7163    86.414199 
   89800    2062.4266   -104.64161    1.8661269   -102.77548   -10284.475    4.4025007    4.4025007    4.4025007   -10284.475   -5239.0322    6896.9152   -32511.309   -14421.942    -2931.048    -4470.686    85.329326 
   89900    1234.5519   -103.91277    1.1170485   -102.79573    18508.507    4.3903715    4.3903715    4.3903715    18508.507    29996.043   -10475.118    36004.597    29973.083    25995.752   -10682.338    84.625998 
   90000    1845.4715   -104.48124    1.6698214   -102.81142   -7934.2731     4.414485     4.414485     4.414485   -7934.2731    10562.084   -36382.119    2017.2156    12411.018    5462.3024    8879.0256    86.028061 
   90100    1381.8204   -104.04894    1.2503002   -102.79864   -19723.645    4.4247799    4.4247799    4.4247799   -19723.645   -12868.254   -8049.0618   -38253.621     15146.35    24552.854   -12097.293    86.631334 
   90200    1739.7115    -104.3695    1.5741275   -102.79537   -39514.757    4.4105061    4.4105061    4.4105061   -39514.757   -48212.853   -68026.576   -2304.8417    50128.474   -18432.319    16878.392    85.795651 
   90300     1749.286   -104.36613    1.5827907   -102.78334    30388.806     4.392493     4.392493     4.392493    30388.806    48683.886    34122.576    8359.9552    2900.2229    21789.762   -9259.3039    84.748739 
   90400    1151.6983   -103.86225    1.0420808   -102.82017   -6396.9563    4.3966067    4.3966067    4.3966067   -6396.9563   -57579.498    8850.6261    29538.003    59055.075     294.0529    5611.8665    84.987072 
   90500    2059.3649   -104.67137    1.8633566   -102.80802     3085.899    4.4124188    4.4124188    4.4124188     3085.899    30700.955   -2950.2105   -18493.047   -20656.257    2205.0621      18791.4    85.907324 
   90600    1421.1592   -104.09258    1.2858948   -102.80668   -19130.586     4.419884     4.419884     4.419884   -19130.586   -46361.746   -7511.0331   -3518.9797    64751.365    2643.0911   -9917.4632     86.34409 
   90700    1893.5692   -104.49449    1.7133412   -102.78115    3889.2535    4.4137023    4.4137023    4.4137023    3889.2535    7933.2592    4853.1025   -1118.6012   -29498.235   -2633.5144    19367.951    85.982313 
   90800    1284.8314   -103.96006    1.1625425   -102.79752   -21829.455     4.398804     4.398804     4.398804   -21829.455   -59248.635     -56408.1    50168.371    89580.121    7644.1433    6265.1858    85.114558 
   90900    2278.6466   -104.85174    2.0617673   -102.78997    6003.7579    4.3956429    4.3956429    4.3956429    6003.7579    8618.5671    20678.907     -11286.2    -13092.54    11024.945    6482.9476    84.931193 
   91000    1076.0961   -103.79134   0.97367435   -102.81766   -14414.545     4.414149     4.414149     4.414149   -14414.545    -50780.63   -35913.656    43450.652    48656.895   -861.20893    9887.1895    86.008418 
   91100    2334.8376   -104.90124    2.1126101   -102.78863   -2399.3404    4.4199712    4.4199712    4.4199712   -2399.3404     -40350.4    17450.515    15701.864   -5406.5268     22264.42    -10376.38    86.349199 
   91200    1029.2787   -103.72484   0.93131299   -102.79353    11972.219    4.4104395    4.4104395    4.4104395    11972.219   -22090.003    -13448.08    71454.741    45037.639   -9659.1841    18264.414    85.791764 
   91300    1715.0875   -104.32875    1.5518472   -102.77691    25718.618    4.4164975    4.4164975    4.4164975    25718.618   -16004.606    35070.374    58090.086   -16082.478    28704.249   -24800.044    86.145774 
   91400    1335.7169   -103.99517    1.2085848   -102.78659   -10146.167    4.4194232    4.4194232    4.4194232   -10146.167   -58706.365   -36839.483    65107.347    53618.291   -12039.517    6879.9601    86.317087 
   91500    1513.2716   -104.14698      1.36924   -102.77774    24813.422    4.4035193    4.4035193    4.4035193    24813.422    -2051.219    52893.962    23597.524   -5760.1326    31158.021   -2563.5226    85.388562 
   91600    1501.1523   -104.15546    1.3582741   -102.79719    11530.792    4.4011665    4.4011665    4.4011665    11530.792   -40240.511    49530.186    25302.702    38451.173   -15407.264   -12029.696    85.251771 
   91700     1452.721   -104.12233    1.3144525   -102.80788   -7943.7722    4.4069372    4.4069372    4.4069372   -7943.7722    -13571.13   -3367.9094   -6892.2771    17373.948    17269.899    17879.395    85.587546 
   91800    1764.9224   -104.40605    1.5969389   -102.80911    8814.5759    4.4100332    4.4100332    4.4100332    8814.5759   -30519.563    43724.276    13239.015    29405.846    3817.6691   -1931.1097     85.76806 
   91900    1671.4754   -104.32068    1.5123861    -102.8083    -42371.05    4.4243556    4.4243556    4.4243556    -42371.05   -61054.861   -47599.508   -18458.783    23795.942    6474.8898    18465.255    86.606419 
   92000    1347.0256   -104.01462    1.2188171    -102.7958    55633.008    4.4004462    4.4004462    4.4004462    55633.008     12747.52    130709.99     23441.51    9511.2867    13567.131    8788.0607    85.209918 
   92100    1619.8971   -104.27041    1.4657169   -102.80469   -12760.787    4.3979124    4.3979124    4.3979124   -12760.787   -22888.695   -27170.861    11777.196    28684.113   -3160.0905   -3882.5336    85.062807 
   92200    2110.2339   -104.70522    1.9093839   -102.79584     18713.41    4.4076731    4.4076731    4.4076731     18713.41    -5767.217    59930.334    1977.1144   -18230.981    12787.775    12441.462    85.630434 
   92300      1017.09   -103.74386   0.92028442   -102.82357   -3295.3692    4.4113357    4.4113357    4.4113357   -3295.3692   -43101.489   -4634.0184    37849.399    38010.004   -5278.7121   -22418.893    85.844074 
   92400    2158.4295   -104.74936    1.9529924   -102.79637     2516.706    4.4230073    4.4230073    4.4230073     2516.706   -31503.216    25012.036    14041.298   -24789.267    6114.0959    9646.5108    86.527266 
   92500    668.10021   -103.40758   0.60451111   -102.80307   -20992.865    4.4247303    4.4247303    4.4247303   -20992.865   -58770.553   -11828.133    7620.0903    44348.987    2624.3809   -43596.232    86.628422 
   92600    2144.5675   -104.71476    1.9404497   -102.77431    9912.0646    4.4001637    4.4001637    4.4001637    9912.0646   -40610.215    33037.278    37309.131    -8097.102    7661.8301    4640.2225    85.193506 
   92700    1345.4398   -104.02028    1.2173822    -102.8029   -17502.152     4.403113     4.403113     4.403113   -17502.152   -5642.8483   -23440.439    -23423.17    42085.504   -1532.2518   -25704.838    85.364932 
   92800    1782.3839   -104.40177    1.6127384   -102.78903   -7924.8632    4.4188654    4.4188654    4.4188654   -7924.8632   -22051.435   -44163.688    42440.534    15216.176    21235.946   -10992.963    86.284408 
   92900    1616.2792   -104.24371    1.4624434   -102.78126   -22504.161    4.4252878    4.4252878    4.4252878   -22504.161    -3005.359   -48734.583    -15772.54    16041.979    4555.7947   -1602.4006    86.661175 
   93000    1781.1169   -104.39006     1.611592   -102.77847   -24997.659    4.4202755    4.4202755    4.4202755   -24997.659   -35929.867   -64708.914    25645.805    48649.342    10428.382    4961.8186    86.367035 
   93100    1994.7569   -104.56895    1.8048979   -102.76405    3465.5636    4.3999621    4.3999621    4.3999621    3465.5636    19771.543     569.3812   -9944.2332   -1151.9244    17091.473    5195.8477    85.181798 
   93200    1506.2581   -104.15228     1.362894   -102.78939    677.30644     4.408653     4.408653     4.408653    677.30644    2541.9478   -41794.559    41284.531    54701.205    9703.0682   -6344.8789    85.687553 
   93300    2191.2115   -104.75247    1.9826542   -102.76981    -39278.21    4.4259238    4.4259238    4.4259238    -39278.21   -32456.719     -31944.3   -53433.611   -17120.821    10169.047    3922.2868    86.698545 
   93400    1260.3301   -103.92129    1.1403731   -102.78091    19388.642    4.4111104    4.4111104    4.4111104    19388.642    50634.443   -15210.605    22742.089    36823.018    1569.9113   -19698.936    85.830922 
   93500    1695.8473   -104.31151    1.5344383   -102.77708   -4211.0402    4.4058359    4.4058359    4.4058359   -4211.0402   -4065.3635   -28132.736    19564.979   -29811.665    10357.941    6292.5644    85.523399 
   93600    1515.2954   -104.15837    1.3710712    -102.7873     6972.298    4.4042418    4.4042418    4.4042418     6972.298    2574.3064    436.64013    17905.948    26795.448   -16350.477   -22543.272    85.430603 
   93700    1340.6748   -104.01942    1.2130707   -102.80635    -724.9723    4.4125564    4.4125564    4.4125564    -724.9723    -32896.17   -28722.247      59443.5   -41693.098    11434.315   -10580.559    85.915361 
   93800    1497.8229   -104.15837    1.3552616   -102.80311    4982.7918    4.4187064    4.4187064    4.4187064    4982.7918   -777.47782    39527.266   -23801.413     20031.95   -1768.1473   -29584.071    86.275096 
   93900    1327.7529   -103.99615    1.2013787   -102.79477   -3098.9335    4.4169989    4.4169989    4.4169989   -3098.9335   -53638.849   -52745.287    97087.335   -43944.858    11752.956    -17460.18    86.175116 
   94000    1392.5254   -104.03552    1.2599863   -102.77554   -4984.7194    4.4227099    4.4227099    4.4227099   -4984.7194   -17513.934    22016.768   -19456.992    7038.1966    6833.9866       -13344    86.509811 
   94100    1236.3026   -103.88959    1.1186326   -102.77096    2505.8962    4.4144928    4.4144928    4.4144928    2505.8962   -22547.728   -10358.458    40423.875   -28316.956    2559.0559   -21295.439    86.028518 
   94200    1864.3095   -104.45992    1.6868664   -102.77305   -2813.1941    4.4085178    4.4085178    4.4085178   -2813.1941   -24038.439     12078.01    3520.8463    9522.2997    6620.7702     8150.052    85.679673 
   94300    1213.9285   -103.89381     1.098388   -102.79542   -6658.5571     4.408317     4.408317     4.408317   -6658.5571   -16369.738    8084.0822   -11690.015   -32360.572   -8129.4673   -25980.478    85.667966 
   94400    1708.0313   -104.33827    1.5454626   -102.79281    31496.738    4.4003655    4.4003655    4.4003655    31496.738    18549.412      37237.6    38703.203   -7392.3784   -1134.1653    16725.736    85.205228 
   94500    1502.3647   -104.16238    1.3593712   -102.80301   -8935.7902    4.4161876    4.4161876    4.4161876   -8935.7902   -49720.335    16793.425    6119.5393   -12228.552   -3603.1405   -15433.003    86.127639 
   94600    1843.1554      -104.46    1.6677257   -102.79227   -1164.4629    4.4130386    4.4130386    4.4130386   -1164.4629     -17280.5   -2101.4407    15888.552   -10163.048    14616.644    14214.982    85.943527 
   94700    1330.1323   -103.99682    1.2035317   -102.79328    30593.854      4.39014      4.39014      4.39014    30593.854    32218.068    3866.2081    55697.284    4142.6288   -8892.5659    6398.9393    84.612616 
   94800    2039.2097   -104.64288    1.8451198   -102.79776    18904.025    4.4020584    4.4020584    4.4020584    18904.025   -10642.345    35728.953    31625.466   -10034.258    3351.9045    3076.2698    85.303606 
   94900    1092.2809     -103.805   0.98831871   -102.81668   -28106.658    4.4121349    4.4121349    4.4121349   -28106.658   -16911.935   -22448.146   -44959.893    23642.997    5404.2418    21492.587    85.890739 
   95000    2256.1558   -104.82741    2.0414172   -102.78599    23260.683    4.4149392    4.4149392    4.4149392    23260.683    41426.471   -3422.0233      31777.6   -8829.7877   -6741.6502   -7607.0784    86.054619 
   95100    975.75806   -103.69778    0.8828864    -102.8149     -55983.7    4.4159639    4.4159639    4.4159639     -55983.7   -36752.672   -57156.378   -74042.049    13054.186   -2671.4075    52363.491     86.11455 
   95200    1929.3861   -104.53654    1.7457491   -102.79079    45240.995    4.3897215    4.3897215    4.3897215    45240.995    43746.154    37195.774    54781.056   -3414.7568   -998.92798    -9125.079    84.588419 
   95300    1217.9655   -103.92008    1.1020408   -102.81804   -15823.265    4.4083773    4.4083773    4.4083773   -15823.265    27682.341   -31794.498   -43357.637   -7003.1569    4726.8663    39812.972    85.671483 
   95400    1899.1144   -104.51183    1.7183586   -102.79347    -9124.735    4.4178766    4.4178766    4.4178766    -9124.735   -18241.471   -13357.044    4224.3102    16438.586    332.45917    -6458.039    86.226495 
   95500    969.28873   -103.68263   0.87703281    -102.8056    3581.8435    4.4124004    4.4124004    4.4124004    3581.8435    43911.717   -741.47625    -32424.71   -29871.763    10281.615    18824.603    85.906246 
   95600    1788.3852   -104.40829    1.6181685   -102.79013    3976.2723    4.4100844    4.4100844    4.4100844    3976.2723    13497.774   -5762.9028    4193.9461    10062.349    23441.939    302.92077    85.771046 
   95700    1386.1181   -104.05379    1.2541888   -102.79961    19303.199    4.3997292    4.3997292    4.3997292    19303.199    30865.259    6295.7826    20748.555   -39658.476    7058.9342    19407.955    85.168275 
   95800    1450.9114   -104.12049    1.3128151   -102.80767     5545.663    4.4195957    4.4195957    4.4195957     5545.663   -1730.1272    21465.197    -3098.081    1714.7831    6335.7297     9029.064    86.327192 
   95900    1655.9906   -104.27237    1.4983751     -102.774   -13955.335      4.42604      4.42604      4.42604   -13955.335   -32170.147   -19120.234    9424.3738    -13421.69    3549.7709    17246.628    86.705373 
   96000     1437.673      -104.07    1.3008367   -102.76917    6219.7349    4.4216728    4.4216728    4.4216728    6219.7349    23204.805    3734.5453   -8280.1455   -4592.2623    10759.502    16732.421    86.448965 
   96100    1697.7636    -104.3148    1.5361722   -102.77863   -7064.4461    4.4015322    4.4015322    4.4015322   -7064.4461   -31088.811   -25794.231    35689.703    33453.396   -10480.919    1504.1767    85.273024 
   96200    1633.5973   -104.26819    1.4781132   -102.79008     30506.23    4.3805258    4.3805258    4.3805258     30506.23    21841.655    49355.394     20321.64   -23593.594    29255.053    23028.015    84.057936 
   96300    1327.7408   -104.01788    1.2013678   -102.81651   -17198.193    4.4139465    4.4139465    4.4139465   -17198.193   -20429.179   -40444.958    9279.5579    59395.593   -17085.722   -5417.1648    85.996582 
   96400    1768.7377    -104.3959    1.6003911   -102.79551   -18933.742     4.421205     4.421205     4.421205   -18933.742   -6516.7438   -27818.832   -22465.649   -25392.013    11553.759    24925.767    86.421534 
   96500    1299.8569   -103.97277    1.1761378   -102.79663   -9218.6665    4.4116331    4.4116331    4.4116331   -9218.6665   -18146.592   -34776.037     25266.63    66731.701   -6957.0034   -9552.7695    85.861439 
   96600    1631.7371   -104.26309      1.47643   -102.78666   -1997.4632    4.3967933    4.3967933    4.3967933   -1997.4632    25411.484   -7124.1326   -24279.741        -5720   -6098.4821    22943.232    84.997893 
   96700    1583.4513    -104.2369      1.43274   -102.80416    -4283.088    4.3922859    4.3922859    4.3922859    -4283.088    1632.4786    -34810.96    20329.217      46552.4    3985.5609   -5094.2436    84.736753 
   96800    1522.5399    -104.1883    1.3776261   -102.81068   -9472.9133    4.4156411    4.4156411    4.4156411   -9472.9133   -5126.9758   -2884.7955   -20406.969     21201.32   -20593.139     11176.86     86.09567 
   96900    1314.7925   -103.99092    1.1896519   -102.80126    -12631.05    4.4174294    4.4174294    4.4174294    -12631.05   -26344.822   -3153.8496   -8394.4775    19987.952    14948.819    5315.2471    86.200315 
   97000    1966.9243   -104.57681    1.7797144    -102.7971   -22016.032    4.4143036    4.4143036    4.4143036   -22016.032   -10289.722   -31414.391   -24343.985    37203.894   -23291.898   -940.94256    86.017455 
   97100    1122.7773    -103.8263    1.0159125   -102.81039    26129.985    4.3987314    4.3987314    4.3987314    26129.985    11256.399    44587.733    22545.823    18241.938   -5369.0547    20346.846    85.110343 
   97200    1895.4145   -104.53831    1.7150108    -102.8233   -29028.239    4.4036537    4.4036537    4.4036537   -29028.239   -44354.905   -49357.278    6627.4668     54786.65    3086.5441    -2283.663     85.39638 
   97300    1661.5589   -104.32943    1.5034134   -102.82601    24789.429    4.4121918    4.4121918    4.4121918    24789.429    16830.601    55857.421    1680.2649    8972.9656   -14051.235    21017.014    85.894062 
   97400    1256.1451   -103.96399    1.1365865   -102.82741   -32092.098     4.424934     4.424934     4.424934   -32092.098    -61237.05   -52759.546    17720.303    47695.006    6227.6324   -758.86675    86.640389 
   97500    1968.8093   -104.57763      1.78142   -102.79621    38248.177    4.4035416    4.4035416    4.4035416    38248.177      33252.5    84679.263   -3187.2327    2025.0743    -16698.27    5690.3942    85.389859 
   97600    1368.4955   -104.05272    1.2382435   -102.81448   -25831.275    4.4000326    4.4000326    4.4000326   -25831.275   -33619.926   -56330.539    12456.639    63579.045    12412.338    9293.8564    85.185893 
   97700    1844.7935   -104.47349    1.6692079   -102.80428    46934.008    4.4043889    4.4043889    4.4043889    46934.008    28914.936    115941.06   -4053.9756   -2062.6014   -3985.4082    475.96187    85.439162 
   97800    1275.9783   -103.99386     1.154532   -102.83933   -42146.412    4.4154068    4.4154068    4.4154068   -42146.412   -37701.466   -65302.774   -23434.995    70010.754    1658.7104    15700.026    86.081966 
   97900    2110.1607   -104.71425    1.9093177   -102.80493     36148.15    4.4086037    4.4086037    4.4086037     36148.15    67957.841    70391.437   -29904.829   -11392.872    15587.856   -9101.8456    85.684681 
   98000     986.7095   -103.71507   0.89279549   -102.82228   -19514.006    4.4057617    4.4057617    4.4057617   -19514.006   -64709.898   -7566.5561    13734.436    66137.148   -9445.1276    12348.999    85.519076 
   98100    2455.8788   -105.01537    2.2221308   -102.79324    9440.5046    4.4055028    4.4055028    4.4055028    9440.5046    46073.607    19927.023   -37679.115   -18279.675    10948.008    4803.1483       85.504 
   98200    646.86953   -103.40662   0.58530114   -102.82132    24356.681    4.4093928    4.4093928    4.4093928    24356.681   -58578.152    92994.557    38653.638    68436.584    -8013.951   -574.35959    85.730702 
   98300     2564.373    -105.1013    2.3202986     -102.781   -11870.645    4.4221566    4.4221566    4.4221566   -11870.645   -2581.4262   -11943.285   -21087.222   -24827.817    3002.6388    4971.1282    86.477344 
   98400    846.08188   -103.55966   0.76555267   -102.79411    32394.315    4.4056518    4.4056518    4.4056518    32394.315   -48431.668    108128.31    37486.306    77145.458    -1005.115   -1908.8347    85.512678 
   98500     2191.918   -104.75845    1.9832934   -102.77516    23080.118    4.4069841    4.4069841    4.4069841    23080.118    76318.697    20198.091   -27276.434    -26302.16   -12136.982    16523.143    85.590281 
   98600    1143.8825   -103.83783    1.0350089   -102.80282   -10021.116    4.4090286    4.4090286    4.4090286   -10021.116   -61959.792    18022.522    13873.923    79192.562     1976.619     3924.417    85.709457 
   98700    2256.5832   -104.82622    2.0418039   -102.78442    26825.316    4.4149119    4.4149119    4.4149119    26825.316    86376.636    39127.138   -45027.826   -12669.767   -14091.856    15789.362    86.053023 
   98800     993.9031   -103.70035   0.89930442   -102.80105   -51438.173    4.4225792    4.4225792    4.4225792   -51438.173   -90118.259   -99163.191    34966.931    82899.059   -1350.5012    5954.1922    86.502143 
   98900    2426.6481   -104.95595    2.1956822   -102.76027    25035.986    4.4098581    4.4098581    4.4098581    25035.986     53115.22    35172.867   -13180.128     -37804.7   -5735.0836   -14472.701    85.757844 
   99000    395.38479   -103.15906   0.35775246   -102.80131   -29355.854    4.4146675    4.4146675    4.4146675   -29355.854   -18299.952    -97900.87     28133.26     115921.8   -9076.8891    12330.417    86.038733 
   99100    2437.9573   -104.98955     2.205915   -102.78363    11318.974    4.3984141    4.3984141    4.3984141    11318.974    54097.475    9954.0941   -30094.646   -30675.886    12131.787   -1832.9433    85.091925 
   99200    1168.9018    -103.8724    1.0576469   -102.81475   -31916.908    4.4083551    4.4083551    4.4083551   -31916.908   -58121.947   -55269.213    17640.437    95052.401   -10059.214     888.7818    85.670185 
   99300    1856.0348   -104.47847    1.6793793   -102.79909    11412.371    4.4153825    4.4153825    4.4153825    11412.371    90151.524   -2928.8835   -52985.527   -15195.649    12409.321    7159.5452    86.080542 
   99400    1296.5711   -103.98365    1.1731648   -102.81049   -45736.411     4.417105     4.417105     4.417105   -45736.411   -80633.148   -85169.517    28593.432     85440.83   -6403.4042   -5994.6783    86.181327 
   99500    1762.0522    -104.3881    1.5943418   -102.79376    21637.029    4.3955456    4.3955456    4.3955456    21637.029    30890.401    41890.929   -7870.2423   -6001.0049     5932.333    37618.509    84.925548 
   99600    1360.3301   -104.04873    1.2308553   -102.81788   -24168.252    4.3971333    4.3971333    4.3971333   -24168.252   -50726.355   -52651.823    30873.423    74434.279    7683.3309   -7303.9091    85.017609 
   99700     2061.874   -104.66222    1.8656269    -102.7966   -3269.8685    4.4154046    4.4154046    4.4154046   -3269.8685   -16766.093    18794.306   -11837.819   -11700.278   -1183.4677    20129.892    86.081836 
   99800    875.73853   -103.58965   0.79238663   -102.79727    6069.8809    4.4118158    4.4118158    4.4118158    6069.8809     27590.25   -11141.595    1760.9877    77402.078    5051.6262    8166.9308    85.872105 
   99900    2421.8613   -104.97231     2.191351   -102.78096     1966.188    4.4133857    4.4133857    4.4133857     1966.188     5690.901    13146.655   -12938.992    -27571.88   -525.13936    3709.2792    85.963809 
  100000    974.73732   -103.68788   0.88196281   -102.80591    9312.6504    4.3988551    4.3988551    4.3988551    9312.6504    24198.644   -24481.698    28221.005    75285.461   -3038.8666    15358.448    85.117521 
Loop time of 23.4482 on 1 procs for 100000 steps with 8 atoms

Pair  time (%) = 7.13355 (30.4226)
Kspce time (%) = 5.89087 (25.1229)
Neigh time (%) = 0.193067 (0.823377)
Comm  time (%) = 0.988967 (4.21767)
Outpt time (%) = 0.027977 (0.119314)
Other time (%) = 9.21376 (39.2941)

Nlocal:    8 ave 8 max 8 min
Histogram: 1 0 0 0 0 0 0 0 0 0
Nghost:    1612 ave 1612 max 1612 min
Histogram: 1 0 0 0 0 0 0 0 0 0
Neighs:    1992 ave 1992 max 1992 min
Histogram: 1 0 0 0 0 0 0 0 0 0

Total # of neighbors = 1992
Ave neighs/atom = 249
Neighbor list builds = 2537
Dangerous builds = 0
unfix 20
unfix 21
print "seeds:5427701"
seeds:5427701
