LAMMPS (10 Feb 2015)
# ---- initialize simulations
clear
units metal
dimension 3
boundary p p p
atom_style charge
atom_modify map array
# ---- create atoms
read_data /Users/eugeneragasa/pyflamestk_git/pypospack/tests/tests_integration/workflow/WorkflowLammpsThermalExpansion/param_9544/MgO_NaCl_unit.npt.T1200/lammps.structure
  triclinic box = (0 0 0) to (4.2565 4.2565 4.2565) with tilt (0 0 0)
  1 by 1 by 1 MPI processor grid
  reading atoms ...
  8 atoms
# ---- define interatomic potential
include potential.mod
mass 1 24.305
mass 2 15.999

group Mg type 1
4 atoms in group Mg
group O type 2
4 atoms in group O

set group Mg charge 1.64252902328
  4 settings made for charge
set group O charge -1.64252902328
  4 settings made for charge

variable R_cut equal 10.0

pair_style buck/coul/long ${R_cut}
pair_style buck/coul/long 10
pair_coeff 1 1 0.0 0.5 0.0 ${R_cut}
pair_coeff 1 1 0.0 0.5 0.0 10
pair_coeff 1 2 1425.65456865 0.277130619093 0.0 ${R_cut}
pair_coeff 1 2 1425.65456865 0.277130619093 0.0 10
pair_coeff 2 2 8710.58674493 0.211543782712 -4.62088168449 ${R_cut}
pair_coeff 2 2 8710.58674493 0.211543782712 -4.62088168449 10

kspace_style pppm 1.0e-5

neighbor 1.0 bin
neigh_modify every 1 delay 0 check yes
# ---- define settings
compute eng all pe/atom
compute eatoms all reduce sum c_eng
# ---- run minimization
reset_timestep 0
fix 1 all box/relax iso 0.0 vmax 0.001
thermo 10
thermo_style custom step pe lx ly lz xy xz yz press pxx pyy pzz pxy pxz pyz c_eatoms
min_style cg
minimize 1e-25 1e-25 5000 10000
PPPM initialization ...
  G vector (1/distance) = 0.352708
  grid = 8 8 8
  stencil order = 5
  estimated absolute RMS force accuracy = 3.89813e-05
  estimated relative force accuracy = 2.7071e-06
  using double precision FFTs
  3d grid and FFT values/proc = 3375 512
Neighbor list info ...
  1 neighbor list requests
  update every 1 steps, delay 0 steps, check yes
  master list distance cutoff = 11
Memory usage per processor = 4.06549 Mbytes
Step PotEng Lx Ly Lz Xy Xz Yz Press Pxx Pyy Pzz Pxy Pxz Pyz eatoms 
       0   -111.38871       4.2565       4.2565       4.2565            0            0            0   -14022.103   -14022.103   -14022.103   -14022.103 -1.0617953e-11 -7.0203049e-11 5.2505523e-12   -111.38871 
       6    -111.3915    4.2448057    4.2448057    4.2448057            0            0            0    11.870105    11.870105    11.870105    11.870105 -3.2023954e-10 4.899455e-11 2.2757866e-10    -111.3915 
Loop time of 0.015136 on 1 procs for 6 steps with 8 atoms

Minimization stats:
  Stopping criterion = linesearch alpha is zero
  Energy initial, next-to-last, final = 
        -111.388714234     -111.391500014     -111.391500014
  Force two-norm initial, final = 2.0248 0.00171153
  Force max component initial, final = 2.0248 0.00170464
  Final line search alpha, max atom move = 0.00229153 3.90625e-06
  Iterations, force evaluations = 6 44

Pair  time (%) = 0.00424838 (28.068)
Kspce time (%) = 0.00235152 (15.536)
Neigh time (%) = 0 (0)
Comm  time (%) = 0.000453949 (2.99913)
Outpt time (%) = 0 (0)
Other time (%) = 0.00808215 (53.3969)

Nlocal:    8 ave 8 max 8 min
Histogram: 1 0 0 0 0 0 0 0 0 0
Nghost:    2189 ave 2189 max 2189 min
Histogram: 1 0 0 0 0 0 0 0 0 0
Neighs:    2344 ave 2344 max 2344 min
Histogram: 1 0 0 0 0 0 0 0 0 0

Total # of neighbors = 2344
Ave neighs/atom = 293
Neighbor list builds = 0
Dangerous builds = 0
unfix 1
# ---- define output variables ----
variable natoms equal "count(all)"
variable tot_energy equal "c_eatoms"
variable length_x equal "lx"
variable length_y equal "ly"
variable length_z equal "lz"
variable tilt_xy equal "xy"
variable tilt_xz equal "xz"
variable tilt_yz equal "yz"
variable tot_press equal "press"
variable press_xx equal "pxx"
variable press_yy equal "pyy"
variable press_zz equal "pzz"
variable press_xy equal "pxy"
variable press_xz equal "pxz"
variable press_yz equal "pyz"

# ---- output ----
print "pypospack:output_section:begin"
pypospack:output_section:begin
print "tot_energy = ${tot_energy}"
tot_energy = -111.391500014071
print "num_atoms = ${natoms}"
num_atoms = 8
print "xx = ${length_x}"
xx = 4.24480566540602
print "yy = ${length_y}"
yy = 4.24480566540602
print "zz = ${length_z}"
zz = 4.24480566540602
print "xy = ${tilt_xy}"
xy = 0
print "xz = ${tilt_xz}"
xz = 0
print "yz = ${tilt_yz}"
yz = 0
print "tot_press = ${tot_press}"
tot_press = 11.8701047091937
print "pxx = ${press_xx}"
pxx = 11.8701047092997
print "pyy = ${press_yy}"
pyy = 11.8701047087814
print "pzz = ${press_zz}"
pzz = 11.8701047094999
print "pxy = ${press_xy}"
pxy = -3.20239539923879e-10
print "pxz = ${press_xz}"
pxz = 4.8994550277695e-11
print "pyz = ${press_yz}"
pyz = 2.27578662531736e-10
print "pypospack:output_section:done"
pypospack:output_section:done
print "pypospack:lammps_sim:done"
pypospack:lammps_sim:done
#------------------------------------------------------------------------------
# RUN THERMOSTAT
# running using an NPT Nose-Hoover style thermostat
#------------------------------------------------------------------------------
variable tempdamp equal 0.1
variable pressdamp equal 1.0
# set initial velocities
velocity all create 1200 4618153 mom yes dist gaussian loop all
# fix for Nose-Hoover style thermostat
fix 20 all npt temp 1200 1200 0.1 aniso 0.0 0.0 1.0 drag 1.0 couple xyz
variable boxx equal lx
variable boxy equal ly
variable boxz equal lz
variable boxp equal press
variable boxt equal temp
# calculate averages every 10000 steps
reset_timestep 0
fix 21 all ave/time 10 10 100 v_boxx v_boxy v_boxz v_boxp v_boxt file lattice.out
thermo_style custom step temp pe ke etotal press lx ly lz press pxx pyy pzz pxy pxz pyz vol
thermo_modify flush yes
thermo 100
run 100000
PPPM initialization ...
  G vector (1/distance) = 0.352825
  grid = 8 8 8
  stencil order = 5
  estimated absolute RMS force accuracy = 3.87738e-05
  estimated relative force accuracy = 2.69269e-06
  using double precision FFTs
  3d grid and FFT values/proc = 3375 512
Memory usage per processor = 3.06549 Mbytes
Step Temp PotEng KinEng TotEng Press Lx Ly Lz Press Pxx Pyy Pzz Pxy Pxz Pyz Volume 
       0         1200    -111.3915    1.0857852   -110.30571    15175.145    4.2448057    4.2448057    4.2448057    15175.145    12249.937    18808.196    14467.303    -777.5219   -6228.1329   -6085.0842    76.484501 
     100    477.03636   -110.60005   0.43163252   -110.16841    24827.693    4.2737725    4.2737725    4.2737725    24827.693    3774.4125    60512.593    10196.073    2587.9072    10879.255    4052.6325    78.061019 
     200    975.19618   -110.74855     0.882378   -109.86617   -45037.371    4.3113209    4.3113209    4.3113209   -45037.371   -56029.406   -24776.133   -54306.573   -5533.2261    17027.143    270.14017    80.136623 
     300    1230.6807    -110.7251    1.1135458   -109.61156    5882.8003     4.288913     4.288913     4.288913    5882.8003   -5727.1094    20993.678     2381.832    1869.4607   -13519.306    -12984.66    78.893588 
     400    1411.8114   -110.68079    1.2774366   -109.40335    27303.355    4.2644834    4.2644834    4.2644834    27303.355    19666.313    56945.783    5297.9693   -762.73016    15194.463    3304.1775    77.553123 
     500    745.43753   -109.96835   0.67448754   -109.29387   -137.20757    4.3068343    4.3068343    4.3068343   -137.20757   -23077.152    33215.166   -10549.637   -9392.8663    29284.571    11850.434    79.886702 
     600    1625.1469   -110.65645    1.4704671   -109.18598   -29928.594    4.3215345    4.3215345    4.3215345   -29928.594   -43580.894   -23860.698    -22344.19    5359.1378   -4967.8654    17621.234    80.707512 
     700    1144.9318   -110.18755    1.0359584   -109.15159    24280.829    4.2869024    4.2869024    4.2869024    24280.829   -11444.867    66637.682    17649.671    1366.5841    18257.296   -604.61749    78.782689 
     800    1174.9601   -110.23479    1.0631286   -109.17166    10548.661    4.2867496    4.2867496    4.2867496    10548.661   -20062.832    56010.947   -4302.1329   -3348.8941    19169.161   -927.13456    78.774263 
     900    1689.1521   -110.70233    1.5283804   -109.17395   -24256.549    4.3178093    4.3178093    4.3178093   -24256.549   -26733.918   -14667.582   -31368.146     -7189.09   -12213.295    5731.6426     80.49898 
    1000    791.85948   -109.89057    0.7164911   -109.17408      -170.46    4.3156312    4.3156312    4.3156312      -170.46   -44344.578    42194.343    1638.8557   -8876.1279    25041.351   -3764.5526    80.377218 
    1100    1450.0513   -110.47045    1.3120369   -109.15841   -1128.3715    4.2868516    4.2868516    4.2868516   -1128.3715   -37839.449    12210.117    22244.218   -1537.7404    17662.475    4497.0848    78.779885 
    1200    1300.5085   -110.35427    1.1767274   -109.17754    27440.751    4.2948484    4.2948484    4.2948484    27440.751     58619.76    3523.0663    20179.427   -11061.397   -14424.086   -6207.1874    79.221585 
    1300    1096.3435   -110.17119   0.99199463   -109.17919    5835.7381    4.3036888    4.3036888    4.3036888    5835.7381   -2013.9947    16678.718    2842.4913   -12607.594    8942.9527   -2145.4399    79.711796 
    1400    1063.6372   -110.13285   0.96240126   -109.17044     22642.59    4.2945955    4.2945955    4.2945955     22642.59    30911.819   -20880.069     57896.02   -4770.4239    15663.798   -5211.3373     79.20759 
    1500    1391.2839   -110.43668    1.2588629   -109.17782   -6629.4279     4.308625     4.308625     4.308625   -6629.4279    18505.299   -36395.091   -1998.4908    -2703.947   -15440.922   -5138.2518    79.986389 
    1600    881.55216   -109.98251   0.79764692   -109.18486    9602.5549    4.2973373    4.2973373    4.2973373    9602.5549   -30588.296    19579.251     39816.71    14963.458    18603.839    3119.5518    79.359393 
    1700    991.80978    -110.0786   0.89741033   -109.18118     17993.33     4.275216     4.275216     4.275216     17993.33    21855.913    5132.1083     26991.97    -3852.581    29263.566    6947.4143     78.14014 
    1800    1566.8962   -110.61971    1.4177606   -109.20195   -31848.242     4.304287     4.304287     4.304287   -31848.242    -37042.72   -46075.501   -12426.506   -6706.5892    -565.4676    19030.773    79.745038 
    1900    1195.2028   -110.26129    1.0814446   -109.17985   -37874.347    4.3300088    4.3300088    4.3300088   -37874.347   -73770.137   -14973.466   -24879.438    16242.795    15695.294    9495.4579    81.183231 
    2000    990.38142   -110.05515   0.89611792   -109.15904   -3554.1243    4.3044568    4.3044568    4.3044568   -3554.1243     -38603.6    33673.208   -5731.9806    13060.953     34947.65   -2345.3539    79.754476 
    2100    1402.9837   -110.42067    1.2694492   -109.15122    8718.0002    4.2893455    4.2893455    4.2893455    8718.0002   -5600.0325    31485.122    268.91105   -2484.5677    6279.8008    7697.8093    78.917458 
    2200    1357.1906   -110.40679    1.2280146   -109.17878   -13104.472    4.3121227    4.3121227    4.3121227   -13104.472   -29657.278    8110.9583   -17767.097    5414.7696    4987.4581   -3868.6009    80.181346 
    2300    1143.9504   -110.21232    1.0350704   -109.17725   -16707.767    4.3198413    4.3198413    4.3198413   -16707.767   -44107.727   -6964.4882     948.9133    891.70477     30564.95    10021.656    80.612682 
    2400    1477.5766   -110.50521    1.3369424   -109.16827   -4248.0668    4.3043789    4.3043789    4.3043789   -4248.0668    9657.8658   -26311.677    3909.6105    1483.2441    22954.061    6706.1795    79.750143 
    2500    1408.2755   -110.44544    1.2742373   -109.17121   -4077.6357    4.3011933    4.3011933    4.3011933   -4077.6357   -16797.797   -54596.755    59161.644     9499.023   -17854.489     12813.32    79.573208 
    2600    1064.1303   -110.14485   0.96284742     -109.182   -16267.512    4.3089103    4.3089103    4.3089103   -16267.512    -58613.58    -33476.76    43287.804    2921.0577    29325.012    6527.3927    80.002281 
    2700    1159.2635   -110.23263    1.0489259   -109.18371    -2990.944    4.3052163    4.3052163    4.3052163    -2990.944   -45275.077   -7410.2912    43712.537    -3991.825    19357.101   -2427.5298    79.796698 
    2800    1233.9178   -110.30068    1.1164748    -109.1842    587.43562    4.3021303    4.3021303    4.3021303    587.43562    10643.943    -22417.52    13535.884    381.24435   -9532.0788    7214.0335    79.625228 
    2900    1236.4059   -110.31115     1.118726   -109.19243   -12326.338    4.2819724    4.2819724    4.2819724   -12326.338   -32174.412     30091.43   -34896.031    7011.1786    21502.365    3585.9954    78.511198 
    3000    784.66306   -109.91239   0.70997963   -109.20241    49827.088    4.2709434    4.2709434    4.2709434    49827.088    14704.938    46687.522    88088.805   -4000.6347    19631.862   -6861.0652    77.906096 
    3100    1361.6426   -110.44522    1.2320429   -109.21318   -28286.515    4.3204728    4.3204728    4.3204728   -28286.515   -61378.504   -11033.542   -12447.499    2381.4081   -22883.065   -5933.5981    80.648042 
    3200    994.42504   -110.09657   0.89977667    -109.1968   -23579.483     4.310185     4.310185     4.310185   -23579.483   -59891.344    8665.8256   -19512.931    1455.3301    27474.802   -262.54691    80.073301 
    3300    1223.1132   -110.25552    1.1066985   -109.14882    54223.795    4.2527699    4.2527699    4.2527699    54223.795    25147.505    65505.818    72018.063   -9651.4313    37474.277    3280.6103    76.915815 
    3400    1323.3208   -110.39083    1.1973684   -109.19346   -7451.0963    4.2923681    4.2923681    4.2923681   -7451.0963   -43333.732    19664.294    1316.1497   -2592.0202   -36972.937   -12780.454    79.084411 
    3500    1017.4161   -110.09224   0.92057946   -109.17166   -29509.509    4.3132207    4.3132207    4.3132207   -29509.509    -70987.47   -6117.5753   -11423.482   -1239.0743    3393.1841    -8882.527    80.242607 
    3600    1475.8736   -110.49759    1.3354014   -109.16219   -12698.753    4.2888192    4.2888192    4.2888192   -12698.753   -21642.764   -6610.3788   -9843.1175    6158.7317    34395.225    4925.0038    78.888414 
    3700    1155.3092   -110.22832     1.045348   -109.18297   -14355.623    4.2929517    4.2929517    4.2929517   -14355.623   -20480.402    -6263.047   -16323.421   -1247.6296   -37753.385   -4036.3715    79.116669 
    3800    1068.2958   -110.16215   0.96661653   -109.19553   -1549.5799    4.2854862    4.2854862    4.2854862   -1549.5799   -36005.726    2800.6927    28556.293   -7290.0644    6387.8108    205.08448    78.704632 
    3900    1444.9573   -110.51083    1.3074278    -109.2034   -35.734647    4.2882601    4.2882601    4.2882601   -35.734647    10908.207   -7844.2173    -3171.194    931.74349    19104.427   -3565.6352    78.857561 
    4000    1239.8768   -110.31668    1.1218666   -109.19481    17326.387    4.3012734    4.3012734    4.3012734    17326.387   -18726.007   -3611.9154    74317.083    4507.6631   -7483.1725    4495.9682    79.577656 
    4100     952.9565   -110.06787   0.86225507   -109.20561   -16023.524    4.2951854    4.2951854    4.2951854   -16023.524   -25089.849    19342.451   -42323.174    1039.0296   -11301.317   -1968.0593    79.240232 
    4200    1292.8631   -110.36287    1.1698097   -109.19306    15538.214    4.2749996    4.2749996    4.2749996    15538.214    27809.317    25798.196   -6992.8696    5902.3062    11536.836   -2929.8994    78.128275 
    4300    1141.6182   -110.23676    1.0329602    -109.2038    26103.943    4.2962054    4.2962054    4.2962054    26103.943    20375.782    1257.7572     56678.29    14306.398   -18771.476    11352.162      79.2967 
    4400    1177.5335    -110.2559    1.0654571   -109.19045   -25173.541     4.306797     4.306797     4.306797   -25173.541    7066.6423   -33415.257   -49172.009    10621.131   -15738.906    5135.5187    79.884624 
    4500    1218.7577   -110.27577    1.1027575   -109.17301    7804.4445    4.2816526    4.2816526    4.2816526    7804.4445    26252.299   -5882.9381    3043.9726    1877.4903    12896.693   -10164.174    78.493606 
    4600    1600.1349   -110.62531    1.4478357   -109.17747   -6412.4194    4.2878296    4.2878296    4.2878296   -6412.4194   -12902.181   -22823.832    16488.755    7089.1138    11245.552    2326.5593    78.833817 
    4700    1290.6395   -110.35417    1.1677977   -109.18637   -27274.436    4.3046887    4.3046887    4.3046887   -27274.436   -27321.471   -45334.344   -9167.4921     6537.394   -14462.177    14586.871    79.767364 
    4800    1136.8248   -110.21696    1.0286229   -109.18834    7715.8163    4.2907938    4.2907938    4.2907938    7715.8163    9945.2966   -19252.945    32455.097   -6074.0771    -10905.33   -1743.3835    78.997424 
    4900    1686.2757   -110.71283    1.5257777   -109.18705    2584.5735    4.2810911    4.2810911    4.2810911    2584.5735   -5135.2373   -15568.562     28457.52    8584.3199    16854.642   -11603.578     78.46273 
    5000    1330.2158   -110.40085    1.2036072   -109.19724    12129.688    4.2827191    4.2827191    4.2827191    12129.688    2435.8585    998.89981    32954.305    11889.079   -5807.5714    5218.7859    78.552275 
    5100    1036.4698   -110.13731   0.93781969   -109.19949   -17152.439    4.3100948    4.3100948    4.3100948   -17152.439   -20752.794   -19922.373   -10782.149   -4849.4263   -12211.224    9.7651966    80.068275 
    5200    1474.3944   -110.51603    1.3340631   -109.18197    604.70016    4.2963791    4.2963791    4.2963791    604.70016    3690.0416   -12236.584    10360.643   -3862.8658     347.4305   -9973.7493    79.306315 
    5300    1752.0289   -110.75242    1.5852726   -109.16714    22174.824    4.2616806    4.2616806    4.2616806    22174.824    6261.0461    24280.054    35983.373    8166.3137   -4189.0511   -9054.6552    77.400309 
    5400    755.23245   -109.89308   0.68335019   -109.20973   -15850.641    4.2937668    4.2937668    4.2937668   -15850.641   -23414.962   -10478.268   -13658.693   -4342.5344   -18333.789    7542.5016    79.161747 
    5500    1508.2333   -110.54909    1.3646812    -109.1844   -30143.667    4.3009599    4.3009599    4.3009599   -30143.667   -16654.738   -44127.532   -29648.733   -5526.6714    -13169.73    6856.1705     79.56026 
    5600    1574.4924   -110.59615    1.4246338   -109.17151     24401.06    4.2848621    4.2848621    4.2848621     24401.06    11643.866   -18583.378    80142.692    1945.2811    8093.0188   -3538.3969    78.670255 
    5700    1348.9054   -110.41231    1.2205179   -109.19179   -33271.959    4.2928494    4.2928494    4.2928494   -33271.959   -36245.322   -25663.701   -37906.854   -5973.2304    16345.799   -275.72397    79.111014 
    5800    1116.6504   -110.20839    1.0103687   -109.19802   -1812.8428    4.2889921    4.2889921    4.2889921   -1812.8428   -6264.7377   -30353.118    31179.327   -13213.804    2924.7934    4396.7761    78.897952 
    5900    1871.3685   -110.88704    1.6932536   -109.19379   -8720.6941    4.2905583    4.2905583    4.2905583   -8720.6941    16890.015   -36047.652   -7004.4448   -23140.386     9855.308    2884.8144     78.98442 
    6000    1255.5992    -110.3338    1.1360925   -109.19771    7901.0057    4.2917651    4.2917651    4.2917651    7901.0057    17313.973   -3219.3235     9608.368    4856.9239    13034.422   -1908.9376    79.051085 
    6100     1097.501    -110.1914   0.99304196   -109.19836   -13511.915    4.2934987    4.2934987    4.2934987   -13511.915    10942.596    -32756.51   -18721.831   -9388.8815   -3710.1883    15332.619    79.146916 
    6200    1523.2868   -110.56391    1.3783019    -109.1856   -3972.7128    4.2996525    4.2996525    4.2996525   -3972.7128    28465.098   -50946.388    10563.152   -8721.0384    2883.8866    3572.1649    79.487727 
    6300    1422.6371   -110.46864    1.2872319   -109.18141    6311.9217    4.2897527    4.2897527    4.2897527    6311.9217   -1689.1936   -28504.788    49129.747    12982.472    -20669.56    1850.6704    78.939936 
    6400    899.20887   -110.00604   0.81362309   -109.19242    20669.839    4.2861264    4.2861264    4.2861264    20669.839    46915.907   -23852.496    38946.107   -9232.2356   -1916.2938    11834.906     78.73991 
    6500    1319.7805   -110.38735    1.1941651   -109.19318   -6627.4869    4.3035652    4.3035652    4.3035652   -6627.4869   -1018.1466   -53446.643    34582.329   -3523.0427   -4679.8565     16359.25    79.704926 
    6600    1352.1979   -110.40634    1.2234971   -109.18284    7098.4767    4.2982509    4.2982509    4.2982509    7098.4767    613.20282    -24642.37    45324.597    15248.083   -5905.2442   -869.23961    79.410017 
    6700    990.28577   -110.08221   0.89603138   -109.18618   -3888.6525    4.2826103    4.2826103    4.2826103   -3888.6525     25291.06   -9287.3292   -27669.688   -8366.9335    5128.2797    28830.601    78.546291 
    6800    1016.9029   -110.11238   0.92011511   -109.19226    5068.0483      4.27802      4.27802      4.27802    5068.0483    34993.938    3628.8622   -23418.655    4646.5702    863.96607    28891.396     78.29399 
    6900    1557.5598   -110.60401    1.4093128    -109.1947   -7033.1414    4.2922568    4.2922568    4.2922568   -7033.1414    4436.9721   -5010.0343   -20526.362    11701.424    5437.0702   -10529.562    79.078257 
    7000    992.72094   -110.08912   0.89823477   -109.19088   -34025.222    4.3081579    4.3081579    4.3081579   -34025.222   -27824.635   -21015.564   -53235.468    2871.5011   -6613.7798    12016.224     79.96038 
    7100    963.09933   -110.05424   0.87143251   -109.18281    14365.721    4.2761347    4.2761347    4.2761347    14365.721    33614.882    22376.441   -12894.159   -3568.9861     12302.72    22333.126    78.190523 
    7200     1258.385   -110.31969    1.1386132   -109.18108    25579.984    4.2729905    4.2729905    4.2729905    25579.984     6002.134     34676.56    36061.259    4040.3857    10790.221   -2484.8955    78.018173 
    7300    955.06804     -110.055   0.86416564   -109.19084   -16607.399    4.3025553    4.3025553    4.3025553   -16607.399    13846.346   -21368.146   -42300.397    13376.732   -19116.243   -13233.872    79.648828 
    7400    1098.0927   -110.17463   0.99357739   -109.18105    9243.2165    4.2882763    4.2882763    4.2882763    9243.2165   -3511.8499   -12798.968    44040.467   -5120.5032   -6625.7902    7336.2522    78.858456 
    7500    1142.4721   -110.21088    1.0337328   -109.17715     16759.75    4.2788502    4.2788502    4.2788502     16759.75    5959.3282    11225.405    33094.517    8189.5264    1754.4499    7347.9081    78.339581 
    7600    1008.7563   -110.10206   0.91274391   -109.18932   -14561.431    4.2904267    4.2904267    4.2904267   -14561.431   -14136.952   -7007.3412   -22539.999    15356.368    -16780.69   -18052.039     78.97715 
    7700    1083.0362    -110.1674   0.97995393   -109.18744    12002.564     4.293155     4.293155     4.293155    12002.564    22442.844   -17274.398    30839.246   -4508.7869   -6917.6714    4021.9848    79.127913 
    7800    1310.2226   -110.37004    1.1855169   -109.18452    4901.0212    4.2924348    4.2924348    4.2924348    4901.0212   -10729.786   -13819.927    39252.776    3843.3848    12387.282    340.48397    79.088097 
    7900    909.91464   -110.01578   0.82330989   -109.19247   -11882.872    4.2835248    4.2835248    4.2835248   -11882.872   -39255.355    2539.8248    1066.9142    15768.852   -23611.489    276.62053    78.596615 
    8000    1163.0955   -110.24973    1.0523932   -109.19734   -15894.399    4.2841758    4.2841758    4.2841758   -15894.399   -19084.921    1173.7918   -29772.067    -1369.482   -11697.682   -21679.907    78.632455 
    8100    1273.5271   -110.34598    1.1523141   -109.19367    2922.2255    4.2885023    4.2885023    4.2885023    2922.2255   -3641.1434   -16384.719    28792.538   -2420.0419   -5698.0098   -3221.7718    78.870926 
    8200    1044.1029   -110.13677   0.94472622   -109.19204    7411.3771    4.2840101    4.2840101    4.2840101    7411.3771    2768.7232   -6345.6705    25811.079    20404.029   -841.69383    13605.895    78.623334 
    8300    986.26476   -110.08571   0.89239308   -109.19331   -13454.139    4.2939097    4.2939097    4.2939097   -13454.139   -6881.3344   -8777.9624   -24703.121   -5799.6545   -6108.8816   -18681.518    79.169651 
    8400    1365.4372   -110.42155    1.2354763   -109.18607   -23943.934     4.287459     4.287459     4.287459   -23943.934   -24419.563    -11400.14   -36012.098    6037.8204   -13207.261    227.10926    78.813375 
    8500    749.28305   -109.86951   0.67796705   -109.19154     43510.26     4.272064     4.272064     4.272064     43510.26    5020.0168    5349.6413    120161.12    36231.025    6406.8359    2754.5302    77.967435 
    8600    1410.7513   -110.47329    1.2764774   -109.19681   -16697.897    4.2918675    4.2918675    4.2918675   -16697.897   -16971.253    -8366.271   -24756.168   -1289.9592   -11427.221    16059.681    79.056741 
    8700    867.19451    -109.9788   0.78465581   -109.19415   -6577.7143    4.2947572    4.2947572    4.2947572   -6577.7143   -22720.319    5582.4738   -2595.2982    335.47435   -11686.972   -15401.198    79.216539 
    8800    967.28891   -110.06884   0.87522333   -109.19362    10026.701    4.2747156    4.2747156    4.2747156    10026.701    7303.1764   -5560.0266    28336.953    36155.454    6034.0836    2136.8539    78.112707 
    8900    1424.0947   -110.48911    1.2885508   -109.20056    7542.3772    4.2870871    4.2870871    4.2870871    7542.3772   -19574.096    11977.269    30223.959   -5632.0092   -3748.4123    8679.3664    78.792872 
    9000    1118.0767   -110.20596    1.0116593    -109.1943   -25605.777    4.3014772    4.3014772    4.3014772   -25605.777   -43955.416   -5823.7575   -27038.159    3956.6381    4569.8278   -13952.738     79.58897 
    9100    910.59458   -110.01979   0.82392511   -109.19586   -375.63976    4.2785001    4.2785001    4.2785001   -375.63976    893.71084   -9157.2922     7136.662    37079.512   -262.69266   -14370.253    78.320356 
    9200    1554.0252   -110.60914    1.4061146   -109.20303    9386.7866     4.276874     4.276874     4.276874    9386.7866   -6801.9714   -3068.0492     38030.38   -7567.5716   -8267.8867    15553.373    78.231087 
    9300    1092.9336   -110.20256   0.98890932   -109.21365    2933.9677    4.2907212    4.2907212    4.2907212    2933.9677   -6600.1718   -1319.4441    16721.519    9279.7826    702.86767   -1326.0126    78.993415 
    9400    744.10475   -109.89354   0.67328161   -109.22026     8408.906     4.294242     4.294242     4.294242     8408.906    7709.1415   -23984.778    41502.354    30616.107   -3042.3425   -11539.143    79.188031 
    9500    1624.2689   -110.66651    1.4696726   -109.19683   -3152.0154    4.2960874    4.2960874    4.2960874   -3152.0154   -14592.905   -20477.879    25614.737   -12989.689    8074.1704   -10279.867    79.290168 
    9600    1164.5804   -110.24829    1.0537368   -109.19455   -3512.6437    4.2909404    4.2909404    4.2909404   -3512.6437    7961.7971   -11244.172   -7255.5556    8187.4906    3967.6445     4147.252     79.00552 
    9700    975.48868   -110.07735   0.88264266   -109.19471   -17407.128    4.2882459    4.2882459    4.2882459   -17407.128   -20395.849   -8069.5683   -23755.968    30401.402    4624.3902   -11648.113     78.85678 
    9800    1239.7262    -110.3169    1.1217304   -109.19517    15954.346    4.2915356    4.2915356    4.2915356    15954.346    1926.6981   -21635.873    67572.214   -9805.0494    1512.3769   -5699.4078    79.038404 
    9900    1298.3778    -110.3755    1.1747995   -109.20071    18642.624    4.2902216    4.2902216    4.2902216    18642.624    23773.635    8102.6592    24051.578    3460.3015   -5879.5776    8402.7116    78.965822 
   10000    934.55355   -110.05888   0.84560369   -109.21327    -15533.42    4.3044483    4.3044483    4.3044483    -15533.42   -32848.643    6603.5172   -20355.133    20062.217    1224.8979   -9369.7162    79.754001 
   10100    1378.6252   -110.43252     1.247409   -109.18511   -26095.086    4.3041026    4.3041026    4.3041026   -26095.086   -30486.256   -22651.715   -25147.287    -11938.41   -9155.0786   -11463.693    79.734786 
   10200    1386.0396   -110.42352    1.2541178   -109.16941    23064.103     4.283896     4.283896     4.283896    23064.103    6586.3914    15148.222    47457.696    3500.4403    -8224.087    2618.5923    78.617052 
   10300    998.70025   -110.09291   0.90364497   -109.18926   -35257.361    4.3115909    4.3115909    4.3115909   -35257.361   -21245.461   -52383.558   -32143.064    23376.256   -509.29206    -4083.472    80.151679 
   10400    1142.1581   -110.20694    1.0334486   -109.17349   -24312.171    4.3017446    4.3017446    4.3017446   -24312.171   -2797.3699   -23701.942   -46437.201   -7687.5964    11696.324    -29307.25    79.603811 
   10500    1312.7629   -110.34265    1.1878154   -109.15483    37033.103    4.2675384    4.2675384    4.2675384    37033.103    47536.122   -559.83957    64123.027    3816.9885    -1050.086   -419.64389    77.719912 
   10600    986.54556   -110.08568   0.89264716   -109.19303   -24119.335    4.3001102    4.3001102    4.3001102   -24119.335   -33117.442   -41210.806    1970.2413    27514.716   -6751.1365   -244.51305    79.513111 
   10700    975.98465   -110.06514   0.88309142   -109.18205   -33723.814     4.306735     4.306735     4.306735   -33723.814    4267.1581   -44657.686   -60780.915   -3462.0878    2373.1038   -32384.407    79.881176 
   10800     1279.908   -110.32424    1.1580876   -109.16615    20877.142    4.2794681    4.2794681    4.2794681    20877.142    32641.391    3537.7499    26452.284    -4661.224    -10125.17   -4208.7919    78.373528 
   10900     1000.151   -110.08837   0.90495765   -109.18341    16975.159    4.2949612    4.2949612    4.2949612    16975.159     13226.54   -7683.1716    45382.109    17474.444     8109.945    9770.7488    79.227824 
   11000    1023.5415   -110.10751   0.92612184   -109.18139    -6788.391    4.3002772    4.3002772    4.3002772    -6788.391    49792.248   -27946.221     -42211.2    2329.4279    7267.3941   -21066.004    79.522376 
   11100    1100.2959   -110.16879   0.99557083   -109.17322    18591.909    4.2858468    4.2858468    4.2858468    18591.909    29075.313   -31145.962    57846.376   -5363.3462    4359.8272   -3900.3211    78.724502 
   11200    1254.5976   -110.32355    1.1351863   -109.18836    6352.9954    4.2945279    4.2945279    4.2945279    6352.9954    22366.749   -1723.1393   -1584.6238    7015.5387   -3275.6661    6437.2205    79.203848 
   11300    1140.6259   -110.21805    1.0320623   -109.18599   -18120.705    4.3093385    4.3093385    4.3093385   -18120.705   -26871.724   -19468.176   -8022.2161    647.73013   -13239.548   -32652.392    80.026132 
   11400    1328.4507   -110.37606    1.2020101   -109.17405   -17096.488    4.2979846    4.2979846    4.2979846   -17096.488   -28642.636   -37061.027    14414.199   -9466.6572   -1334.7745   -7623.3432    79.395256 
   11500    1171.3472   -110.23735    1.0598595   -109.17749   -1992.6307    4.2851868    4.2851868    4.2851868   -1992.6307    9616.3094   -11905.147   -3689.0545   -5855.3005    11158.026    6625.4278    78.688142 
   11600    1204.1797   -110.28066    1.0895671   -109.19109   -9511.1417    4.2912476    4.2912476    4.2912476   -9511.1417    11951.605   -28717.899   -11767.132   -290.44572    1390.1443   -24249.285    79.022491 
   11700    1108.9244   -110.19095    1.0033781   -109.18757    14177.029    4.2998449    4.2998449    4.2998449    14177.029    58971.502   -28195.129    11754.715   -2108.0581    2397.0028    5476.8465    79.498395 
   11800    1153.2886   -110.23418    1.0435198   -109.19066   -21906.913    4.3013419    4.3013419    4.3013419   -21906.913    5530.0495   -30996.032   -40254.756    1647.8094    3844.3745   -2031.9291     79.58146 
   11900    920.01285   -110.02426   0.83244696   -109.19182     173.2388    4.2835228    4.2835228    4.2835228     173.2388    15992.152    3037.1612   -18509.597   -9310.6334    11276.781   -29961.973    78.596508 
   12000    1536.3717   -110.57718    1.3901414   -109.18704    14440.179    4.2792628    4.2792628    4.2792628    14440.179    20687.969    28761.114   -6128.5459   -2625.1965   -229.23087    12987.266    78.362246 
   12100    1161.0947   -110.25255    1.0505829   -109.20197   -32305.247    4.3016345    4.3016345    4.3016345   -32305.247   -52568.749    12876.174   -57223.167   -2627.7466    13401.806    8050.1897      79.5977 
   12200    1002.8401   -110.10427   0.90739082   -109.19688   -2273.9627     4.288238     4.288238     4.288238   -2273.9627   -2428.0807    32508.271   -36902.078    2064.6209    18003.194   -22591.031    78.856344 
   12300    1276.1952   -110.34767    1.1547282   -109.19294    22333.975      4.28111      4.28111      4.28111    22333.975     67960.38    18452.392   -19410.848    14832.993   -13029.273    10853.927    78.463766 
   12400    1063.1533   -110.16379   0.96196348   -109.20182    10496.734    4.3020958    4.3020958    4.3020958    10496.734    56180.406    13575.623   -38265.825    14535.195    3037.3201    15368.068    79.623308 
   12500    916.19934   -110.01821   0.82899642   -109.18922     6402.647    4.3077636    4.3077636    4.3077636     6402.647    73059.139   -11741.674   -42109.524    14813.439    3049.7012   -25837.261    79.938423 
   12600    978.06687   -110.06338   0.88497546   -109.17841   -1998.5271    4.2918481    4.2918481    4.2918481   -1998.5271    54216.491   -7161.6087   -53050.463    6451.8381    -13717.12    12574.203    79.055673 
   12700    1498.9926   -110.53177      1.35632   -109.17545   -2819.1448    4.2785748    4.2785748    4.2785748   -2819.1448    1568.2773    23279.407   -33305.119   -2417.3586    -1140.041    18805.797    78.324456 
   12800    1317.7479   -110.38888     1.192326   -109.19655   -20045.312    4.3015165    4.3015165    4.3015165   -20045.312   -21759.984    29316.579    -67692.53    4176.2459     7962.923   -31625.866    79.591151 
   12900    968.30036    -110.0664   0.87613852   -109.19026   -24537.657    4.3019259    4.3019259    4.3019259   -24537.657   -11338.427   -4670.4305   -57604.114    841.63068   -1417.8379    8077.5009    79.613876 
   13000    893.54543   -109.99127   0.80849869   -109.18277    16830.531    4.2820619    4.2820619    4.2820619    16830.531    31550.304    25957.375   -7016.0864   -12002.422   -3936.4808    23104.456    78.516117 
   13100    1833.1543   -110.84302    1.6586765   -109.18434   -12094.259    4.2911581    4.2911581    4.2911581   -12094.259   -7500.2386    1626.0146   -30408.553   -2942.0818   -4179.7184   -7267.0276    79.017546 
   13200    1338.0936   -110.40609    1.2107352   -109.19535   -5752.2768    4.2958095    4.2958095    4.2958095   -5752.2768    5170.9081    9890.1353   -32317.874    -10372.43   -791.82812    18335.348    79.274779 
   13300    828.68336   -109.95034   0.74981012   -109.20053    2090.1573    4.2886306    4.2886306    4.2886306    2090.1573    48039.781    3082.8156   -44852.124   -5931.1209   -8487.2048    17780.521    78.878003 
   13400    1455.3166   -110.51114    1.3168011   -109.19434   -2319.7879     4.286408     4.286408     4.286408   -2319.7879    16087.068    12718.929   -35765.361    7139.1537   -15350.877   -14843.213    78.755434 
   13500    1312.5571    -110.3818    1.1876293   -109.19417    33038.579    4.2803809    4.2803809    4.2803809    33038.579    28804.139    60773.213     9538.386   -3798.5762    3666.3322    15153.655    78.423686 
   13600    1166.9826   -110.26459    1.0559104   -109.20868   -3638.7191    4.2953431    4.2953431    4.2953431   -3638.7191     12495.07   -15644.267   -7766.9605   -3926.0217   -12594.442    21687.337    79.248961 
   13700     837.7242   -109.95922   0.75799046   -109.20123   -13053.959    4.3014519    4.3014519    4.3014519   -13053.959   -8132.4082    17732.747   -48762.215   -6020.3373    -18786.69   -12347.301    79.587563 
   13800    1469.5712   -110.51468    1.3296989   -109.18498    14971.232    4.2747862    4.2747862    4.2747862    14971.232    8155.4239     16608.19    20150.083    15719.465    10964.053    6452.5348    78.116574 
   13900    1314.5825   -110.39426    1.1894619   -109.20479    14758.262    4.2848674    4.2848674    4.2848674    14758.262    45723.663   -9815.3771    8366.5012    585.97259   -2176.3769     17361.98    78.670543 
   14000     1177.292   -110.27049    1.0652385   -109.20525   -10565.474    4.2982454    4.2982454    4.2982454   -10565.474   -16835.119    8873.1462    -23734.45   -19782.837   -33328.874    8847.7136    79.409713 
   14100    1170.0776   -110.25303    1.0587108   -109.19432     28283.61    4.2804955    4.2804955    4.2804955     28283.61    43351.986    33929.939    7568.9044    1612.9706    14147.572    -12860.69    78.429985 
   14200    1599.7096   -110.64541    1.4474509   -109.19796   -20323.585    4.2936396    4.2936396    4.2936396   -20323.585   -12380.449   -9224.1841   -39366.122   -1995.0449    25684.811   -2773.0806    79.154708 
   14300    1306.9456   -110.37772    1.1825519   -109.19516   -2903.9576    4.2883606    4.2883606    4.2883606   -2903.9576   -1812.7433     19241.56    -26140.69   -7290.0134   -10248.168    4619.0163    78.863111 
   14400    1346.0405   -110.41522    1.2179257    -109.1973    14435.645    4.2802904    4.2802904    4.2802904    14435.645    6004.9694    21479.546    15822.421   -5527.0631    -3434.897    804.39386    78.418713 
   14500    1361.8242   -110.42918    1.2322071   -109.19698   -22974.451    4.3086561    4.3086561    4.3086561   -22974.451   -26341.257   -1447.1323   -41134.965   -3770.7965    24830.239   -20643.817    79.988118 
   14600     1432.631   -110.47715    1.2962747   -109.18088   -4434.1277    4.3025724    4.3025724    4.3025724   -4434.1277    -20951.18    11401.127     -3752.33   -11668.586    2162.2689   -14482.853    79.649778 
   14700    1406.8608   -110.44796    1.2729572     -109.175    19648.498    4.2858561    4.2858561    4.2858561    19648.498    50848.288   -917.09959    9014.3068   -14510.112    -21406.79   -1012.4587    78.725013 
   14800    1108.9575   -110.19377     1.003408   -109.19036    6292.1834    4.2928521    4.2928521    4.2928521    6292.1834    62008.966    -15129.79   -28002.626    9530.5744    12566.443   -1174.1043    79.111165 
   14900      1117.05   -110.20516    1.0107303   -109.19443    3746.7779      4.29599      4.29599      4.29599    3746.7779    25814.197   -11955.832   -2618.0319   -12924.762    11411.348    3629.6353    79.284774 
   15000    1485.4294    -110.5334    1.3440477   -109.18935    9571.4779    4.2967969    4.2967969    4.2967969    9571.4779    33888.195   -27407.301     22233.54   -25403.181   -23596.399    5294.0995    79.329454 
   15100    1608.5467   -110.64392    1.4554469   -109.18848   -33447.435    4.2971312    4.2971312    4.2971312   -33447.435   -19857.603   -35359.675   -45125.028    465.61725    7195.2047    1313.3844    79.347971 
   15200    1040.6964   -110.13859     0.941644   -109.19695    2987.4596    4.2752072    4.2752072    4.2752072    2987.4596   -6728.8888    3653.3668    12037.901     4144.079    25855.166   -109.94311    78.139659 
   15300     1528.711   -110.59007    1.3832098   -109.20686    4106.9694    4.2907407    4.2907407    4.2907407    4106.9694    18454.099    10470.948   -16604.139   -15669.288    15.477962    11010.102    78.994494 
   15400    1505.5448   -110.54745    1.3622486   -109.18521   -30089.709    4.3127961    4.3127961    4.3127961   -30089.709   -13464.617   -36004.606   -40799.902    -10548.74    8805.1718    1780.9389    80.218914 
   15500    1049.1549   -110.12827   0.94929736   -109.17897    37654.632    4.2679666    4.2679666    4.2679666    37654.632    28647.242    62965.174    21351.479   -2120.7593    31946.567    2953.4474    77.743313 
   15600    1288.8531   -110.35826    1.1661814   -109.19207    19134.986    4.2760322    4.2760322    4.2760322    19134.986    27326.865     24231.85    5846.2432    1793.0155    -3272.789    9550.1985    78.184902 
   15700    1475.7803   -110.52478     1.335317   -109.18946   -11884.478    4.2984736    4.2984736    4.2984736   -11884.478   -32879.583    10705.153   -13479.003   -7780.9764   -14761.782    41.019463    79.422358 
   15800    1205.2089   -110.28281    1.0904983   -109.19231    24100.426    4.2806699    4.2806699    4.2806699    24100.426   -2139.5248      69222.3    5218.5038    1459.0473    11139.213    6031.8879     78.43957 
   15900    1040.6947   -110.14947   0.94164246   -109.20782   -10061.535    4.2942674    4.2942674    4.2942674   -10061.535    -20488.31    2678.3839   -12374.678    10916.314    18998.663    4777.9633    79.189438 
   16000    1471.6541   -110.52226    1.3315835   -109.19068   -22193.923    4.3000519    4.3000519    4.3000519   -22193.923    -37815.95   -1886.7484   -26879.071   -2609.5298    -11334.89   -3564.6877    79.509877 
   16100    1214.9217   -110.28469    1.0992867    -109.1854   -14628.744    4.2923115    4.2923115    4.2923115   -14628.744   -58875.302    29765.274   -14776.205    9028.3833    1326.7876    9062.3413    79.081281 
   16200    1303.6628   -110.36693    1.1795815   -109.18735   -24819.102    4.2824709    4.2824709    4.2824709   -24819.102   -40438.556   -21939.499   -12079.252    12339.866    26484.269    -8170.843    78.538619 
   16300    1211.6117   -110.29235    1.0962917   -109.19606    8586.4933    4.2813787    4.2813787    4.2813787    8586.4933    6137.6734    26779.509   -7157.7025   -7228.2335   -5355.2616    5519.5542    78.478542 
   16400    1476.0746   -110.53841    1.3355834   -109.20283   -18133.179    4.2960035    4.2960035    4.2960035   -18133.179   -38660.247    12999.924   -28739.214   -8996.6411   -10883.908   -2578.6886     79.28552 
   16500    1543.0653   -110.58906    1.3961979   -109.19287   -1597.3028    4.2925968    4.2925968    4.2925968   -1597.3028   -40081.705    866.49356    34423.303     6870.699    13769.725   -17504.974    79.097052 
   16600    1301.7209   -110.37077    1.1778244   -109.19294    11072.882    4.2857855    4.2857855    4.2857855    11072.882   -7019.4233    43146.808   -2908.7377    1084.1122    10392.118   -6715.9909    78.721128 
   16700    1228.9398   -110.30761    1.1119706   -109.19563    11379.303     4.281099     4.281099     4.281099    11379.303    7589.2795   -4896.4182    31445.049   -2997.9791   -16272.748   -4477.9638    78.463165 
   16800    1596.0903   -110.64222    1.4441761   -109.19804     4099.056    4.2819784    4.2819784    4.2819784     4099.056   -13688.238    7976.7336    18008.672   -8150.6436   -1969.0995    6241.0354    78.511524 
   16900    1445.5744   -110.51099    1.3079861     -109.203   -12249.786    4.2905588    4.2905588    4.2905588   -12249.786   -25529.883    -13869.43    2649.9542   -3130.1439    16550.407   -20993.798    78.984443 
   17000    1209.2347   -110.29949     1.094141   -109.20535   -19606.502    4.2894394    4.2894394    4.2894394   -19606.502    1660.5781    -39186.07   -21294.014   -12704.045   -6452.6153   -16554.469    78.922641 
   17100    1278.0824   -110.35455    1.1564358   -109.19812   -8299.1285     4.287143     4.287143     4.287143   -8299.1285   -4776.6886   -17111.487   -3009.2095   -22024.657   -13620.317    26472.265    78.795952 
   17200    1522.9261   -110.56771    1.3779755   -109.18973   -8061.7975    4.2856695    4.2856695    4.2856695   -8061.7975    24862.756   -18575.173   -30472.976   -4617.6183    3046.8068   -19641.411    78.714731 
   17300    1235.1384   -110.31069    1.1175792   -109.19311   -4419.8946    4.2915691    4.2915691    4.2915691   -4419.8946    13186.153   -35914.851    9469.0133   -350.26292    10734.791   -25214.709    79.040252 
   17400    1299.9081    -110.3695    1.1761842   -109.19331    3203.9688    4.2922099    4.2922099    4.2922099    3203.9688    26028.569   -27878.495    11461.832   -24516.929   -4825.1992    9674.3792    79.075665 
   17500    1221.1931    -110.2962    1.1049612   -109.19123    23086.303    4.2908007    4.2908007    4.2908007    23086.303    20235.777    12463.837    36559.294   -14457.269    -8944.608    12976.723    78.997808 
   17600    1183.9815   -110.25993    1.0712913   -109.18864   -3585.6979     4.298949     4.298949     4.298949   -3585.6979    15594.952   -26074.674   -277.37137   -6737.8383      9902.29    -21322.49    79.448718 
   17700    1168.7109   -110.24041    1.0574742   -109.18293    3412.1725    4.2906798    4.2906798    4.2906798    3412.1725    10207.095    -3644.472    3673.8944   -17799.873    6585.3768   -4229.5676    78.991127 
   17800    1461.9143    -110.5054    1.3227708   -109.18263     11367.49    4.2765766    4.2765766    4.2765766     11367.49   -3052.2309    23875.664    13279.036   -14356.695   -1274.7569    17284.033     78.21477 
   17900    1112.1752   -110.20484    1.0063195   -109.19852    9800.5418    4.2881378    4.2881378    4.2881378    9800.5418    27263.236   -5226.8398    7365.2296   -1515.7046   -17999.777   -22037.299    78.850815 
   18000    1048.0408    -110.1416   0.94828931   -109.19331   -15452.973    4.3019146    4.3019146    4.3019146   -15452.973   -38322.555    10891.367   -18927.732   -15766.932    7331.4708    -10517.81     79.61325 
   18100    968.92052   -110.06161   0.87669965   -109.18491   -11996.848    4.2977068    4.2977068    4.2977068   -11996.848   -35218.762   -9570.5506    8798.7681    -30437.93    7637.7646    12566.609    79.379863 
   18200    1536.2624   -110.56796    1.3900425   -109.17792    7833.9138    4.2731914    4.2731914    4.2731914    7833.9138    29611.944    7770.5002   -13880.703    15027.097   -15229.323    -17372.81    78.029178 
   18300    1282.4899   -110.35806    1.1604239   -109.19763    10596.646    4.2711145    4.2711145    4.2711145    10596.646    15301.087     1721.826    14767.025    955.56838    7308.6533   -19713.879    77.915458 
   18400    672.84992   -109.82917   0.60880875   -109.22036    -25117.04    4.2973194    4.2973194    4.2973194    -25117.04    7461.1633   -66983.373   -15828.912   -33984.469    18313.833    1083.9136    79.358397 
   18500      1427.86   -110.49373    1.2919577   -109.20177   -28787.313    4.2951546    4.2951546    4.2951546   -28787.313    -2998.815   -61329.582   -22033.543   -16527.478   -6749.4883   -190.82291    79.238531 
   18600    1412.9209   -110.46829    1.2784405   -109.18985    410.36597    4.2900441    4.2900441    4.2900441    410.36597    38304.786   -3136.9355   -33936.752    5851.3111    7130.1642   -8051.7004    78.956026 
   18700     1049.121   -110.14374    0.9492667   -109.19448   -14230.277    4.2888487    4.2888487    4.2888487   -14230.277   -33540.908   -1379.1336   -7770.7884   -24049.062    28655.503   -6928.0147     78.89004 
   18800    993.63147   -110.09603   0.89905864   -109.19697    19880.732    4.2850599    4.2850599    4.2850599    19880.732    48371.541    15286.825   -4016.1701   -27330.891    5836.6602    645.83214    78.681151 
   18900    1641.5783   -110.67948    1.4853345   -109.19415   -9111.8911    4.2965489    4.2965489    4.2965489   -9111.8911   -2818.4528    14631.826   -39149.047    14633.843    -1499.151    1113.9529    79.315721 
   19000    1076.6566   -110.17073   0.97418156   -109.19655    35996.275    4.2786362    4.2786362    4.2786362    35996.275    45382.585    84367.198   -21760.959   -5017.2732    20118.967    9943.2522     78.32783 
   19100    1227.4128   -110.31736    1.1105889   -109.20678   -6778.2437    4.2925962    4.2925962    4.2925962   -6778.2437   -15141.288      7965.18   -13158.623   -14537.799   -4693.2441    -3568.669     79.09702 
   19200    1366.2152   -110.42881    1.2361802   -109.19263   -32972.645    4.3029454    4.3029454    4.3029454   -32972.645   -22738.284   -32417.143   -43762.509    942.29177    -3301.871     8546.144    79.670492 
   19300    1341.5087   -110.39967    1.2138253   -109.18585    17453.086    4.2746439    4.2746439    4.2746439    17453.086     4622.601      67707.3   -19970.642      2799.91    34598.741    2716.2399    78.108776 
   19400    1166.4073   -110.26113    1.0553898   -109.20574    5383.4133    4.2854834    4.2854834    4.2854834    5383.4133   -37819.693    43461.754    10508.179   -13660.072   -1034.6167   -6235.9747     78.70448 
   19500    1017.6131   -110.12169   0.92075772   -109.20094   -16757.122    4.2933887    4.2933887    4.2933887   -16757.122    -30180.09   -3340.3315   -16750.944   -35047.088   -10972.283    11432.354    79.140834 
   19600    1038.9839   -110.13797    0.9400945   -109.19787   -8161.9956    4.2830712    4.2830712    4.2830712   -8161.9956   -9851.4783    19210.198   -33844.706    1902.9282    20600.491    7993.5757    78.571653 
   19700    1198.4803   -110.28439    1.0844101   -109.19998   -2196.5704    4.2928847    4.2928847    4.2928847   -2196.5704    13244.473   -1231.3767   -18602.807   -16125.718    3059.6647   -3604.1592    79.112969 
   19800    1051.2297    -110.1467   0.95117475   -109.19553   -5075.8857    4.2969466    4.2969466    4.2969466   -5075.8857    16529.957   -20704.749   -11052.865   -24731.292   -7296.7115    1390.8265    79.337748 
   19900    765.19688    -109.8846   0.69236622   -109.19224    7495.7783    4.2898634    4.2898634    4.2898634    7495.7783    33805.234   -16102.629    4784.7299    8317.0515    5703.7544    2009.9988     78.94605 
   20000    1102.8801    -110.1899   0.99790909   -109.19199    12734.658    4.2919298    4.2919298    4.2919298    12734.658     6520.123    34237.223   -2553.3726    6131.8753    8279.5129    3129.5207    79.060183 
   20100    1543.6591   -110.58526    1.3967352   -109.18853   -10641.491      4.29721      4.29721      4.29721   -10641.491    890.17922   -25709.476   -7105.1751   -6818.2564   -1193.8423    1842.3718    79.352338 
   20200    992.98029    -110.0875   0.89846943   -109.18903    605.03453    4.2941967    4.2941967    4.2941967    605.03453   -10836.327   -7618.6939    20270.125   -1583.0663    248.43606    3921.2796    79.185527 
   20300    1081.3436   -110.16429   0.97842244   -109.18586     490.0895    4.2904554    4.2904554    4.2904554     490.0895    -31446.83    34497.969     -1580.87    21294.501    3731.1963    5405.5034    78.978735 
   20400    1508.4023   -110.54804    1.3648341   -109.18321   -17542.596    4.2910578    4.2910578    4.2910578   -17542.596   -22700.151   -34626.379     4698.742    25449.041   -3943.4746   -9760.9968    79.012006 
   20500    1232.8446   -110.30476    1.1155037   -109.18926   -6315.1131    4.2885293    4.2885293    4.2885293   -6315.1131    5237.9817   -1894.3374   -22288.984   -11018.869   -6881.8933      7853.92    78.872416 
   20600    1212.6766    -110.2896    1.0972552   -109.19235   -29188.082    4.2888108    4.2888108    4.2888108   -29188.082   -55038.244   -5662.5486   -26863.454    10157.559    15404.919    10847.775    78.887947 
   20700    1139.9597    -110.2271    1.0314595   -109.19564   -1858.5541    4.2813651    4.2813651    4.2813651   -1858.5541   -1855.9855   -3235.4057   -484.27109    29346.553    11495.457   -10856.544    78.477793 
   20800     1021.787   -110.12863   0.92453431   -109.20409    11995.365    4.2890033    4.2890033    4.2890033    11995.365    44143.568   -3358.7444   -4798.7289    3436.6096   -3323.4929    2619.5057     78.89857 
   20900    1269.2142   -110.34637    1.1484117   -109.19796     -4933.41    4.2955227    4.2955227    4.2955227     -4933.41   -46258.718    72129.946   -40671.458   -12623.006   -2901.6818    10801.843    79.258903 
   21000    1095.4012   -110.18093   0.99114202   -109.18979    50002.089    4.2730061    4.2730061    4.2730061    50002.089     59152.12    63638.804    27215.343    4328.8534    2878.8028     2422.546    78.019031 
   21100    943.26513   -110.06829   0.85348611    -109.2148    10409.927    4.2938123    4.2938123    4.2938123    10409.927    15048.531     31492.27    -15311.02    7727.6644    1129.8274   -8954.5705    79.164263 
   21200    1117.4624   -110.20024    1.0111034   -109.18913   -28445.127    4.3106913    4.3106913    4.3106913   -28445.127   -59297.801    33913.189   -59950.769   -2844.6815   -2454.0198   -1613.5699     80.10152 
   21300    1703.8111   -110.70936    1.5416441   -109.16772    24032.936    4.2689486    4.2689486    4.2689486    24032.936    9147.3507    47085.245    15866.211   -3253.7515    4948.5496    14532.968    77.796988 
   21400    1102.5844   -110.19487   0.99764153   -109.19723    -7985.834    4.2760655    4.2760655    4.2760655    -7985.834   -7936.2627   -1977.6696    -14043.57    31083.631   -9018.3179   -13129.968    78.186729 
   21500     1019.121     -110.119   0.92212213   -109.19688   -36871.776    4.3004173    4.3004173    4.3004173   -36871.776   -54897.486   -4903.3025   -50814.539    11806.173   -16901.922   -17889.076    79.530152 
   21600    1711.6926   -110.72416    1.5487754   -109.17539   -18718.549     4.302735     4.302735     4.302735   -18718.549   -35239.942    7423.2066   -28338.913    -5626.568    9280.0334    6984.2779    79.658807 
   21700    1135.9404   -110.20477    1.0278227   -109.17694   -42132.365    4.2981751    4.2981751    4.2981751   -42132.365    -54035.87   -36115.349   -36245.875    6883.0159   -17166.067   -6741.1368    79.405815 
   21800    911.14037   -110.00434   0.82441895   -109.17992    14946.873    4.2667821    4.2667821    4.2667821    14946.873     -10298.2    74917.472   -19778.653    21722.197   -30495.079    -14052.92    77.678601 
   21900    1571.7395    -110.6166    1.4221429   -109.19445    10218.346    4.2730913    4.2730913    4.2730913    10218.346    19472.614    21546.028   -10363.602   -13197.233    6567.6226   -514.08077    78.023695 
   22000    1157.2525   -110.24623    1.0471064   -109.19912   -17692.529     4.300474     4.300474     4.300474   -17692.529   -33001.062    16356.096    -36432.62   -15573.266    4415.7394    13545.596    79.533294 
   22100    810.71297   -109.92554   0.73355014   -109.19199   -24445.413    4.2989553    4.2989553    4.2989553   -24445.413   -10213.019   -2249.4928   -60873.727    15522.356   -25703.796   -5114.2179    79.449067 
   22200    1309.8044   -110.36471    1.1851386   -109.17957     1759.428    4.2740048    4.2740048    4.2740048     1759.428   -2008.5492    19889.316   -12602.483    3682.7787    1852.8425   -21112.049    78.073744 
   22300    1202.7638    -110.2741     1.088286   -109.18581    31677.437    4.2721397    4.2721397    4.2721397    31677.437    26478.418     37441.99    31111.903   -25925.549    4535.8639    7136.6634    77.971579 
   22400    955.72415   -110.06194    0.8647593   -109.19718   -12725.754    4.3021566    4.3021566    4.3021566   -12725.754   -32421.991    23308.952   -29064.222    2618.2474   -30496.467    5230.4866    79.626687 
   22500    1003.2005    -110.0898    0.9077169   -109.18208   -13755.879    4.2972481    4.2972481    4.2972481   -13755.879   -19605.767   -42.603947   -21619.267    4517.5999    3947.3351   -8523.7764    79.354447 
   22600    1159.4152   -110.21576    1.0490633    -109.1667    21242.392     4.278906     4.278906     4.278906    21242.392   -4566.8183    40257.902    28036.092   -9154.8014    9608.2504    5141.2945    78.342645 
   22700    1107.3507   -110.18341    1.0019541   -109.18145    16049.047    4.2823669    4.2823669    4.2823669    16049.047   -24178.765    47485.508    24840.399    -540.7748   -36024.093    12569.964    78.532896 
   22800    806.70094   -109.92141   0.72991996   -109.19149    9991.6399    4.2966388    4.2966388    4.2966388    9991.6399   -14972.377    40261.341    4685.9561    10601.633    -460.7684    6019.8447      79.3207 
   22900    1158.8432   -110.23661    1.0485456   -109.18806   -19552.308    4.2946738    4.2946738    4.2946738   -19552.308   -18298.531      9115.17   -49473.562   -772.64152    18868.595   -13891.733    79.211921 
   23000    1007.8627   -110.09795   0.91193534   -109.18601    28192.732    4.2673692    4.2673692    4.2673692    28192.732    11296.051    59700.063    13582.081   -19727.045   -33953.895   -2904.6079    77.710669 
   23100    1164.2484    -110.2536    1.0534364   -109.20016    6120.6343    4.2798284    4.2798284    4.2798284    6120.6343   -9228.0305    57455.462   -29865.528    12414.883   -11038.231    9583.1269     78.39332 
   23200    1116.7863   -110.19948    1.0104917   -109.18899   -51265.486    4.3062501    4.3062501    4.3062501   -51265.486   -23259.067   -43812.153   -86725.239    1645.5729    25363.262   -27907.607      79.8542 
   23300    1026.8674   -110.12022   0.92913118   -109.19109   -3291.2611    4.2681431    4.2681431    4.2681431   -3291.2611    15013.264   -2323.8621   -22563.186   -12180.446   -23268.942   -14544.378     77.75296 
   23400    1227.9244   -110.30148    1.1110518   -109.19043    30774.913    4.2607634    4.2607634    4.2607634    30774.913    21588.978    32814.701    37921.061    6071.9743   -20174.249    9168.7762    77.350345 
   23500    1236.0757   -110.31324    1.1184273   -109.19482   -27655.322    4.3010893    4.3010893    4.3010893   -27655.322    12409.563   -29968.354   -65407.174    2710.0145    6679.6866    -14041.88     79.56744 
   23600    1155.0404   -110.23107    1.0451048   -109.18596    -8490.674    4.2881701    4.2881701    4.2881701    -8490.674    13737.626   -25258.313   -13951.335    883.95141    3032.2426   -11024.004    78.852597 
   23700    1113.2179   -110.19031    1.0072629   -109.18304    9589.1625    4.2810634    4.2810634    4.2810634    9589.1625    25789.941   -8770.2673    11747.814   -27211.325   -22365.934   -187.64298    78.461204 
   23800     1225.978   -110.29572    1.1092906   -109.18642    -10913.75     4.291532     4.291532     4.291532    -10913.75    17521.708    -33311.06   -16951.898   -5706.4892   -12358.998    1799.9868    79.038205 
   23900    1127.1766   -110.20781    1.0198931   -109.18792    6827.0239    4.2791701    4.2791701    4.2791701    6827.0239     50632.82   -16176.354   -13975.394    9436.0408    21684.078   -11417.705    78.357156 
   24000    1231.1618   -110.31122    1.1139811   -109.19723   -14512.199    4.2880776    4.2880776    4.2880776   -14512.199   -14141.295   -20116.748   -9278.5545   -19350.779     5679.945    316.06999    78.847494 
   24100    1379.8607   -110.44356    1.2485269   -109.19504   -17489.314    4.2908286    4.2908286    4.2908286   -17489.314    -24778.07     -29505.6     1815.729    -13443.09    743.60659    5030.6327    78.999348 
   24200    1084.2839    -110.1742   0.98108284   -109.19311    16762.975      4.27925      4.27925      4.27925    16762.975    40312.903   -8704.6312    18680.653   -1384.5777    9349.8853   -19148.529    78.361544 
   24300    968.97386    -110.0793   0.87674791   -109.20255   -6440.5655    4.2986637    4.2986637    4.2986637   -6440.5655   -18404.745   -26538.549    25621.597   -9975.8057    20982.138    3002.7651    79.432899 
   24400    1166.5601   -110.23913    1.0555281    -109.1836   -19023.887     4.304677     4.304677     4.304677   -19023.887   -51483.691   -19390.177    13802.207   -16941.294   -5054.4907   -2966.3681    79.766718 
   24500    1170.2241    -110.2311    1.0588434   -109.17226    13137.157    4.2735353    4.2735353    4.2735353    13137.157    5468.7149    8148.9291    25793.827   -4781.9362   -5973.2843    -6170.195    78.048019 
   24600    849.72005   -109.96072   0.76884456   -109.19187    2516.5402    4.2695067    4.2695067    4.2695067    2516.5402    5785.4894   -13291.517    15055.649   -4487.2383    22320.305    6255.2969    77.827504 
   24700    911.70941   -110.03382   0.82493384   -109.20888    -16469.45     4.291552     4.291552     4.291552    -16469.45   -21855.442   -22262.291    -5290.618    -26507.57    14890.014    10448.867    79.039312 
   24800    1277.9003   -110.35393     1.156271   -109.19766    4256.6537    4.2912084    4.2912084    4.2912084    4256.6537   -25629.961    28051.638    10348.284   -5473.6809   -10079.578   -723.48845    79.020327 
   24900    920.10538   -110.02772   0.83253068   -109.19519     22225.33    4.2796847    4.2796847    4.2796847     22225.33    9459.8582    49720.034    7496.0969    2822.7883   -3054.4931   -8189.4314    78.385425 
   25000    549.73202    -109.6983   0.49740909   -109.20089    7050.8309    4.2853917    4.2853917    4.2853917    7050.8309   -20051.885    45203.878   -3999.4998   -26135.085    22802.326    19939.066    78.699427 
   25100    1482.7725   -110.53355    1.3416437    -109.1919   -5530.5538    4.2944305    4.2944305    4.2944305   -5530.5538   -20512.751    4917.3931   -996.30339    1017.1539     1415.716     6614.959    79.198458 
   25200    1468.7876   -110.52673    1.3289899   -109.19774    5830.1022    4.2836332    4.2836332    4.2836332    5830.1022   -11494.825    28066.127    919.00405    13324.421   -974.63791   -1630.8827    78.602582 
   25300    826.99657   -109.96475   0.74828387   -109.21646    4498.6271    4.2572021    4.2572021    4.2572021    4498.6271    21507.326    5346.2006   -13357.645   -13174.533    19063.928    7964.6682    77.156548 
   25400    553.32494   -109.74734   0.50066003   -109.24668    4940.3678     4.272763     4.272763     4.272763    4940.3678    42413.909     4768.091   -32360.896    -25137.42    9964.6196    11498.057    78.005714 
   25500    1635.2703   -110.68853     1.479627   -109.20891   -33099.332     4.307255     4.307255     4.307255   -33099.332   -25331.498   -25946.815   -48019.682    22.469139   -8027.3223    3787.7868    79.910113 
   25600    1516.6288   -110.56456    1.3722776   -109.19229    7592.0275    4.2830903    4.2830903    4.2830903    7592.0275    27355.887    3248.7983   -7828.6031    6807.1757    4147.7089   -7385.6035    78.572702 
   25700    775.16384   -109.89104   0.70138453   -109.18965    9047.5977    4.2597929    4.2597929    4.2597929    9047.5977    33537.337    1563.9819    -7958.526   -28984.232    12558.538     4493.766      77.2975 
   25800    893.93758   -110.02435   0.80885351    -109.2155   -10721.692    4.2734385    4.2734385    4.2734385   -10721.692   -8299.1754    21326.125   -45192.026   -786.08539   -12648.898    5987.5561    78.042717 
   25900    1514.6822   -110.58263    1.3705162   -109.21212    -9885.086     4.294287     4.294287     4.294287    -9885.086   -5013.4851    25407.573   -50049.345    16221.513   -8905.2612   -7602.6386    79.190522 
   26000    1510.4744   -110.56826    1.3667089   -109.20155   -6385.7502    4.2923041    4.2923041    4.2923041   -6385.7502   -11769.647    8337.6924   -15725.296   -17510.626    15281.345   -110.49898    79.080873 
   26100     1095.161   -110.19237   0.99092464   -109.20145    8169.8229    4.2669563    4.2669563    4.2669563    8169.8229    2177.6488    48657.568   -26325.748   -15922.463   -14906.652    2286.1075    77.688113 
   26200    846.29766   -109.98016   0.76574791   -109.21441    9425.3852      4.27529      4.27529      4.27529    9425.3852    56460.395    19602.426   -47786.665     5436.546   -24050.222   -9492.8465      78.1442 
   26300    1578.8604   -110.62136     1.428586   -109.19277   -33421.202    4.3060954    4.3060954    4.3060954   -33421.202   -8473.6538   -37665.298   -54124.654   -12347.619    10416.176    378.76241    79.845592 
   26400    1537.7928   -110.57435    1.3914273   -109.18293    -16569.85    4.2917707    4.2917707    4.2917707    -16569.85   -6837.8294    -16338.68   -26533.039    -29493.96   -5690.6025    911.95585    79.051392 
   26500    1179.6951   -110.24805    1.0674129   -109.18063    20399.514    4.2635266    4.2635266    4.2635266    20399.514    40309.508    35781.851   -14892.816    4262.3764   -16438.623   -7106.3853    77.500931 
   26600     1225.154   -110.30773    1.1085451   -109.19919   -11278.814    4.2725674    4.2725674    4.2725674   -11278.814    29562.194   -15189.972   -48208.664   -2297.2392    161.67504   -11043.532    77.994999 
   26700    1231.2247   -110.31756     1.114038   -109.20352   -3734.6558    4.2929689    4.2929689    4.2929689   -3734.6558    25475.305   -11537.038   -25142.234   -32513.189    7118.2683    4569.8039    79.117621 
   26800    1627.1016   -110.66437    1.4722357   -109.19213   -218.38883    4.2934558    4.2934558    4.2934558   -218.38883   -12410.317    18276.057   -6520.9064   -3979.1641    430.00563    -4234.925    79.144544 
   26900    1344.7339   -110.40954    1.2167435    -109.1928     17813.87    4.2746447    4.2746447    4.2746447     17813.87    40552.996    17452.775   -4564.1621    9772.5677   -7609.6053   -10896.983    78.108821 
   27000    958.76454   -110.06879    0.8675103   -109.20128    9607.2472      4.26798      4.26798      4.26798    9607.2472    9852.2533    6307.3857    12662.103   -24608.836    3276.4435    12687.863    77.744046 
   27100    1079.6433   -110.18778   0.97688392    -109.2109    495.20419    4.2860105    4.2860105    4.2860105    495.20419   -21355.717    32667.331    -9826.001   -17344.211    15021.412    8737.2292    78.733523 
   27200    1766.5485   -110.79253    1.5984102   -109.19412   -20201.488    4.2948791    4.2948791    4.2948791   -20201.488   -18300.316   -13002.927   -29301.221    4013.1965    56.437793   -9185.9032    79.223282 
   27300    882.04829   -109.99554   0.79809583   -109.19745    -8902.938    4.2850329    4.2850329    4.2850329    -8902.938   -11052.877   -13570.174   -2085.7627   -14452.022   -3813.3992    -100.8445    78.679659 
   27400    732.13416   -109.85576   0.66245037   -109.19331    -6236.631    4.2806123    4.2806123    4.2806123    -6236.631    24542.808   -27229.198   -16023.503   -27111.273    27163.405    18658.518    78.436407 
   27500    1539.1343   -110.57964    1.3926411   -109.18699    11643.211    4.2754792    4.2754792    4.2754792    11643.211    33125.629     5462.286   -3658.2833    7373.4425    14055.897     1754.981    78.154575 
   27600    1648.2481   -110.69019    1.4913695   -109.19882   -8892.0069     4.281746     4.281746     4.281746   -8892.0069    6476.2993   -31866.379   -1285.9411   -7624.5558   -13207.378   -8760.3688    78.498742 
   27700    584.21407   -109.74534   0.52860917   -109.21673   -24298.833    4.2865556    4.2865556    4.2865556   -24298.833   -5342.1681   -40547.815   -27006.516   -32826.238    16324.538    12404.748    78.763567 
   27800    943.83941   -110.06973   0.85400573   -109.21572   -1443.5724    4.2638678    4.2638678    4.2638678   -1443.5724    2261.9222    21621.932   -28214.572    966.09328    34367.652    17615.435    77.519542 
   27900    1665.5749   -110.72193    1.5070472   -109.21488    11786.732    4.2782281    4.2782281    4.2782281    11786.732    3393.5869    29537.221    2429.3874    6721.5017   -11806.405    5473.4198    78.305419 
   28000    1104.9516   -110.19569   0.99978341   -109.19591   -20219.532    4.3073679    4.3073679    4.3073679   -20219.532   -40393.235   -7527.2262   -12738.134   -21162.762    3926.4516    13648.798      79.9164 
   28100    775.17728   -109.87903   0.70139669   -109.17763    7775.3209     4.290683     4.290683     4.290683    7775.3209    248.15629    35307.853   -12230.046   -1656.1543    23307.143    18686.867    78.991306 
   28200    1379.1387   -110.41007    1.2478737    -109.1622    13227.009    4.2812764    4.2812764    4.2812764    13227.009    6874.4205    20125.315    12681.293    6507.2409   -8660.3097   -962.67504    78.472917 
   28300     1138.448   -110.20244    1.0300917   -109.17235    16714.741    4.2784835    4.2784835    4.2784835    16714.741   -8724.8096    34307.777    24561.255   -16045.033   -2518.0592   -30.439436    78.319445 
   28400    711.08463   -109.84058   0.64340431   -109.19717    7009.4976    4.2873854    4.2873854    4.2873854    7009.4976    -2151.823    19802.666    3377.6496   -8426.3486    25903.749    19087.758    78.809318 
   28500    1056.8495   -110.15385   0.95625965   -109.19759   -13117.264    4.2879648    4.2879648    4.2879648   -13117.264   -30504.026    28094.294   -36942.059    9794.6049    277.10773    4212.9039    78.841277 
   28600    1116.4133   -110.19865    1.0101542    -109.1885    19887.081    4.2657529    4.2657529    4.2657529    19887.081    7066.4664    41629.694    10965.081     -4809.81   -17260.487   -10232.943    77.622404 
   28700    762.79464   -109.89746   0.69019262   -109.20727   -11504.048    4.2849547    4.2849547    4.2849547   -11504.048   -44662.925    5547.9248    4602.8567   -14230.062    21818.817    1838.5453    78.675354 
   28800    1141.2927   -110.22202    1.0326656   -109.18935   -23688.694    4.2937012    4.2937012    4.2937012   -23688.694   -63067.458    21260.444   -29259.067   -138.94201    18320.872    10936.736    79.158117 
   28900    1421.3499   -110.46437    1.2860673    -109.1783    2181.2099    4.2713026    4.2713026    4.2713026    2181.2099   -10114.049    18292.747   -1635.0684   -1837.9693   -7790.5178   -1857.6986    77.925757 
   29000    696.84695   -109.82691   0.63052177   -109.19638    -13547.41    4.2767926    4.2767926    4.2767926    -13547.41   -43476.679   -3809.1251    6643.5749   -23605.211    12476.185   -17925.979     78.22662 
   29100    933.23021   -110.04204    0.8444063   -109.19763   -15523.643    4.2876258    4.2876258    4.2876258   -15523.643   -65104.543    11073.055    7460.5607   -4086.6489    23959.707    7774.3508    78.822574 
   29200    1391.9148   -110.44358    1.2594338   -109.18414   -9351.0976    4.2891663    4.2891663    4.2891663   -9351.0976   -24365.677      11344.7   -15032.315    20262.174    2052.4015    7013.2895    78.907569 
   29300     1181.921   -110.25498    1.0694269   -109.18555   -6030.3746     4.275944     4.275944     4.275944   -6030.3746   -23005.078    21019.736   -16105.782   -12478.061    3406.7141    -21064.32    78.180064 
   29400    801.67652   -109.92201   0.72537376   -109.19663   -2408.4654    4.2707456    4.2707456    4.2707456   -2408.4654   -60200.664    23177.555    29797.713   -12768.781    23271.659   -7182.7798    77.895274 
   29500    1309.0001   -110.38139    1.1844108   -109.19698    -17921.65    4.2887124    4.2887124    4.2887124    -17921.65   -49109.276   -19943.682    15288.007    21101.703    12625.441    7418.5548    78.882519 
   29600    1377.3425   -110.42811    1.2462485   -109.18186   -10930.244    4.2955578    4.2955578    4.2955578   -10930.244   -9274.3625   -18957.775   -4558.5932    2385.9502   -8499.2661   -10886.549    79.260848 
   29700    1040.7473    -110.1187   0.94169005   -109.17701   -2559.2762    4.2851357    4.2851357    4.2851357   -2559.2762   -27352.601    456.94369    19217.829    -6983.777    18570.283   -6957.3729    78.685325 
   29800    1262.5389   -110.32394    1.1423717   -109.18157     -3141.51    4.2667587    4.2667587    4.2667587     -3141.51   -20884.808   -9160.8532    20621.131    12968.926    29043.209    7493.0344    77.677323 
   29900    1484.2635   -110.53997    1.3429928   -109.19698    2648.8928    4.2743196    4.2743196    4.2743196    2648.8928    716.97818    14223.182   -6993.4822    16957.546   -13233.725   -5943.0632    78.090999 
   30000    1209.7135   -110.29214    1.0945742   -109.19757   -34073.094    4.3036401    4.3036401    4.3036401   -34073.094    -47990.19   -13953.318   -40275.776   -4793.1527   -6647.4114    -14772.21    79.709089 
   30100    1336.7044   -110.39999    1.2094783   -109.19051   -18516.352     4.280693     4.280693     4.280693   -18516.352   -39803.487   -14807.049   -938.51981    7910.7502    23123.145    11460.458    78.440842 
   30200     1426.811   -110.45974    1.2910086   -109.16873    22775.152     4.256481     4.256481     4.256481    22775.152    28266.448    27681.236    12377.771    26293.255    778.39923    6202.6896    77.117351 
   30300    1184.9082    -110.2641    1.0721299   -109.19197   -10907.394    4.2901846    4.2901846    4.2901846   -10907.394   -12755.763   -17210.346   -2756.0748   -8204.7812   -22389.816    -20716.98    78.963783 
   30400    1373.8497   -110.43153    1.2430881   -109.18844   -12995.233    4.2885793    4.2885793    4.2885793   -12995.233    -23561.12   -11524.495   -3900.0837   -1586.7607    7285.9544   -7849.9825    78.875174 
   30500    1509.7308   -110.53916    1.3660362   -109.17312    28031.042    4.2613169    4.2613169    4.2613169    28031.042    17860.021     28805.76    37427.345    16324.277    8821.0832    13330.671    77.380495 
   30600    901.65189   -110.01325   0.81583358   -109.19742   -11213.185    4.2822797    4.2822797    4.2822797   -11213.185   -2514.7269   -17244.478   -13880.351   -4728.8454   -26098.004   -11682.762    78.528101 
   30700    1006.7255   -110.10906   0.91090635   -109.19815   -4290.1919    4.2847968    4.2847968    4.2847968   -4290.1919   -12361.871   -11463.928    10955.223   -7794.0137   -15987.984   -5654.2462    78.666658 
   30800    1513.6482    -110.5546    1.3695807   -109.18502    26993.189    4.2742133    4.2742133    4.2742133    26993.189    23583.572    40165.957    17230.037    5238.5096    15757.597    2630.8446    78.085172 
   30900    1009.8853    -110.1085   0.91376547   -109.19474   -23425.038    4.2871039    4.2871039    4.2871039   -23425.038    6457.5823    -26097.55   -50635.147    7357.5328   -13174.557   -1266.4169    78.793795 
   31000    756.37993   -109.87721   0.68438845   -109.19283    2326.8587    4.2751459    4.2751459    4.2751459    2326.8587    41145.773    20.810542   -34186.007   -4428.9084     -24219.9    1117.4045    78.136295 
   31100    1394.8681     -110.449    1.2621059   -109.18689    20081.035    4.2736034    4.2736034    4.2736034    20081.035    21847.718    8900.7237    29494.663   -17192.357    23154.397   -5482.1311     78.05175 
   31200    1001.8094   -110.10106   0.90645819    -109.1946   -8443.4207     4.289621     4.289621     4.289621   -8443.4207    9194.5035   -12494.045    -22030.72    12305.535    8708.9555    7663.8737    78.932668 
   31300    970.16738   -110.06849   0.87782783   -109.19067   -1074.8671    4.2782284    4.2782284    4.2782284   -1074.8671     31238.05   -3808.8896   -30653.761     4575.466   -15824.972    14604.712    78.305431 
   31400     1075.139   -110.15998    0.9728084   -109.18717    6945.1632    4.2770627    4.2770627    4.2770627    6945.1632    11336.519    3660.6884    5838.2819    -24450.32    9390.6877   -4831.2688    78.241445 
   31500    971.44668   -110.06233   0.87898537   -109.18334   -9226.1951    4.2943823    4.2943823    4.2943823   -9226.1951   -13699.057   -23743.636    9764.1076    4963.1677    29905.652    8768.3263    79.195792 
   31600    1175.0967   -110.23745    1.0632522    -109.1742    8942.1695    4.2833159    4.2833159    4.2833159    8942.1695    23892.652   -22618.845    25552.702    9416.7732   -5471.4781    8685.9115    78.585118 
   31700    989.30919   -110.07776   0.89514775   -109.18261    6400.6602     4.269213     4.269213     4.269213    6400.6602   -9605.5537   -7427.2838    36234.818   -43091.538   -3491.8277   -604.56086    77.811444 
   31800    1004.5714   -110.10284   0.90895735   -109.19388   -4999.8973    4.2779189    4.2779189    4.2779189   -4999.8973   -16304.393   -1573.7734    2878.4745    -12658.44    24842.323   -7352.4439    78.288442 
   31900    1276.9497   -110.34761    1.1554109    -109.1922   -1263.2432    4.2846257    4.2846257    4.2846257   -1263.2432    17026.789   -29648.155    8831.6361     17479.75    8466.0983    10834.634    78.657231 
   32000    946.38931   -110.04594   0.85631293   -109.18963    5926.0136     4.284821     4.284821     4.284821    5926.0136    16088.111   -45145.805    46835.735   -32957.755   -7171.8716    10175.826    78.667989 
   32100    1101.7303   -110.17961   0.99686871   -109.18274   -5443.1144    4.2820914    4.2820914    4.2820914   -5443.1144   -2445.8568   -13175.585   -707.90102   -16209.524     17355.58    -6445.837     78.51774 
   32200    1314.6933   -110.36947    1.1895621   -109.17991    8838.5791    4.2759602    4.2759602    4.2759602    8838.5791    5944.2808   -627.66356     21199.12    8519.0113    22582.521    10013.644    78.180953 
   32300    1162.0325   -110.24039    1.0514314   -109.18896    4509.6424    4.2764803    4.2764803    4.2764803    4509.6424    15664.745   -42329.864    40194.046   -33165.013   -10293.246    6654.3514    78.209488 
   32400    1122.9308   -110.20773    1.0160514   -109.19168   -1708.6735    4.2809983    4.2809983    4.2809983   -1708.6735    19365.575   -31646.401    7154.8054   -13679.727    6558.4805   -9234.3609    78.457625 
   32500    1149.2896   -110.22916    1.0399013   -109.18926    400.98675    4.2816584    4.2816584    4.2816584    400.98675    13921.978    -16009.86    3290.8417    5846.1312    25303.099   -3954.8759    78.493925 
   32600    1193.8748   -110.26828     1.080243   -109.18804   -12810.817    4.2827499    4.2827499    4.2827499   -12810.817   -1513.2879   -55867.638    18948.477   -27806.415   -10573.562    3556.6812    78.553968 
   32700    1422.9296   -110.47332    1.2874966   -109.18582    8526.7533    4.2701812    4.2701812    4.2701812    8526.7533    5120.2627   -19156.858    39616.855   -10954.095   -115.52352   -265.68246    77.864395 
   32800    1087.6802   -110.18429    0.9841559   -109.20013     17701.19     4.270686     4.270686     4.270686     17701.19    23704.849    18630.745    10767.977    7258.5662    27194.138   -4150.2541    77.892012 
   32900    961.02076   -110.07182   0.86955178   -109.20227   -30791.416    4.2912295    4.2912295    4.2912295   -30791.416   -34822.935   -51683.701   -5867.6135   -16649.376    8394.8824   -7391.4128    79.021494 
   33000    1214.4499    -110.2938    1.0988598   -109.19494   -7583.0908     4.275973     4.275973     4.275973   -7583.0908    7544.9766   -50049.724    19755.475   -19105.181   -16387.743    5552.0171    78.181658 
   33100    1172.4463   -110.25153     1.060854   -109.19068    15878.202    4.2660942    4.2660942    4.2660942    15878.202    18593.945    1036.4968    28004.164    6505.7674    27033.989    10495.007    77.641039 
   33200    1041.9412   -110.13756   0.94277027   -109.19479   -8227.1335    4.2859499    4.2859499    4.2859499   -8227.1335    3629.7057   -3427.2712   -24883.835     4595.969    31505.819   -8290.8461    78.730185 
   33300    1228.5843    -110.3013    1.1116489   -109.18965   -41.063452    4.2809463    4.2809463    4.2809463   -41.063452    53041.723   -42668.974   -10495.939    -24090.17   -17415.776    5701.0578    78.454768 
   33400    830.21498   -109.94874   0.75119597   -109.19755    -18004.29    4.2776333    4.2776333    4.2776333    -18004.29    725.44817   -29208.508   -25529.809    4946.6207    29981.668    7609.8899    78.272763 
   33500    870.63795   -109.99135   0.78777151   -109.20358   -10223.266     4.269986     4.269986     4.269986   -10223.266   -9828.4065   -8457.2208   -12384.171    24273.274    55345.394   -4547.3606    77.853718 
   33600    1658.8443   -110.70199    1.5009572   -109.20103    4459.3372    4.2721244    4.2721244    4.2721244    4459.3372    30065.556   -18023.541    1335.9965   -16051.931   -12969.559    3260.9604    77.970741 
   33700    1248.3966   -110.33308    1.1295755   -109.20351    -23881.65    4.2896752    4.2896752    4.2896752    -23881.65   -25566.552   -25648.643   -20429.754    -570.6521    18440.202   -749.34854    78.935659 
   33800     607.3087    -109.7579   0.54950567   -109.20839    1815.5209    4.2747039    4.2747039    4.2747039    1815.5209    13886.573   -14509.093    6069.0822    21922.678    52241.783    3867.1197    78.112062 
   33900    1265.0602   -110.34483     1.144653   -109.20018    15685.288    4.2715187    4.2715187    4.2715187    15685.288    33314.735   -21197.512    34938.642     8047.375   -8850.4963    1017.5151    77.937582 
   34000    1533.3352   -110.58053    1.3873939   -109.19313    12215.272    4.2747645    4.2747645    4.2747645    12215.272    15420.651   -14821.343     36046.51    223.63375   -8848.9074   -11611.102    78.115383 
   34100    709.10294   -109.85268   0.64161125   -109.21107   -2428.2934    4.2810487    4.2810487    4.2810487   -2428.2934   -6069.7397   -2731.6997    1516.5591    7400.3653    41081.284    6310.1701    78.460396 
   34200    1065.8234   -110.16822   0.96437945   -109.20384   -23398.023    4.2832212    4.2832212    4.2832212   -23398.023   -42786.888       -40766    13358.819    25789.903    22435.785    2053.0702    78.579909 
   34300    1671.9469   -110.70686    1.5128127   -109.19404    10058.998    4.2600743    4.2600743    4.2600743    10058.998   -262.71486   -4625.1872    35064.897   -1056.0254    -20960.93    1120.4166     77.31282 
   34400    1214.4003    -110.3116    1.0988149   -109.21279   -5260.5074    4.2699541    4.2699541    4.2699541   -5260.5074   -21528.687    13510.923   -7763.7578   -2492.5259    22245.444   -4757.3159    77.851975 
   34500    701.68299   -109.84871   0.63489752   -109.21381    -26092.44    4.2899576    4.2899576    4.2899576    -26092.44   -69540.648   -34132.024    25395.353    35962.939    28926.886    3680.4244     78.95125 
   34600    1274.0323   -110.35299    1.1527712   -109.20022    9166.6789    4.2765859    4.2765859    4.2765859    9166.6789   -18531.303   -15192.683    61224.023     16886.44   -10597.816    18108.637     78.21528 
   34700    1534.1523   -110.57895    1.3881333   -109.19082    18531.233    4.2662089    4.2662089    4.2662089    18531.233   -5766.0013    29145.256    32214.445   -13063.124    16961.922   -9551.3254      77.6473 
   34800    828.94602   -109.95862   0.75004777   -109.20858    1081.6728    4.2748414    4.2748414    4.2748414    1081.6728   -44754.534    8232.9538    39766.598    25740.931    28614.822    -5040.593    78.119601 
   34900    830.96554   -109.95887   0.75187508   -109.20699   -15074.726     4.287826     4.287826     4.287826   -15074.726    -778.3355   -20570.718   -23875.126    29410.925   -3367.9274    16457.847    78.833617 
   35000    1476.8252   -110.52827    1.3362625   -109.19201    3713.5502    4.2788044    4.2788044    4.2788044    3713.5502    11049.841   -4547.1121    4637.9214    -6744.124    -442.4397    15773.288    78.337064 
   35100    1351.2622   -110.41315    1.2226504    -109.1905   -1534.1924    4.2711871    4.2711871    4.2711871   -1534.1924   -36508.854    19034.901    12871.376    15986.129    14372.331   -5215.7685    77.919434 
   35200    654.11687   -109.79662   0.59185869   -109.20477   -18580.402    4.2831014    4.2831014    4.2831014   -18580.402   -33075.208   -11939.338   -10726.662    33775.156    6931.1757    7682.5311    78.573312 
   35300    1091.6449   -110.18647   0.98774329   -109.19873   -2137.6557    4.2816681    4.2816681    4.2816681   -2137.6557    -6965.883    7967.9687   -7415.0528   -2065.5098   -14948.503    28295.312    78.494458 
   35400    1445.2542   -110.50234    1.3076963   -109.19464    23727.641    4.2665261    4.2665261    4.2665261    23727.641     10496.57    27829.383     32856.97    1481.0509    662.51627   -5298.4774    77.664618 
   35500    1124.9894    -110.2266    1.0179141   -109.20868    4360.4437    4.2713445    4.2713445    4.2713445    4360.4437   -26083.809     3246.957    35918.183    36546.506    9895.7963    486.05069    77.928051 
   35600    837.02765   -109.96856   0.75736021    -109.2112    -2578.553    4.2865487    4.2865487    4.2865487    -2578.553   -21729.331   -7660.2898    21653.962    6389.1238   -9086.7221    33289.281    78.763187 
   35700    1347.5382   -110.41234    1.2192809   -109.19306   -5505.9334     4.285612     4.285612     4.285612   -5505.9334    1328.8475   -11791.221    -6055.427   -18759.265   -7928.5301    8179.5915    78.711564 
   35800    1118.4741   -110.20313    1.0120189   -109.19111   -7158.3146    4.2728402    4.2728402    4.2728402   -7158.3146   -22254.034   -22639.828    23418.918    31360.408   -1732.8894   -18311.245     78.00994 
   35900    937.87765   -110.04671   0.84861141    -109.1981     1977.488    4.2684219    4.2684219    4.2684219     1977.488   -9234.1889   -10695.949    25862.602    32466.838    1957.3451    13107.642    77.768193 
   36000    1646.8756   -110.68905    1.4901276   -109.19892   -11889.654    4.2758155    4.2758155    4.2758155   -11889.654     3973.845   -9965.7253   -29677.081   -14950.913     10769.45    21015.234    78.173019 
   36100    878.97074   -110.00365    0.7953112   -109.20834   -11697.986    4.2879673    4.2879673    4.2879673   -11697.986   -24240.178   -9443.4974   -1410.2813    17451.944   -9741.0247   -13649.048    78.841411 
   36200    852.29417   -109.97933   0.77117368   -109.20815   -12275.975    4.2770729    4.2770729    4.2770729   -12275.975   -13878.586   -43251.591    20302.252    44521.638    863.56275   -12390.734    78.242004 
   36300    1578.2291   -110.62356    1.4280149   -109.19555    18236.471    4.2708414    4.2708414    4.2708414    18236.471    14664.043    29475.699    10569.672   -10399.959     7388.128    1975.7054    77.900518 
   36400    1455.5839   -110.51646    1.3170429   -109.19942     -9054.55    4.2824458    4.2824458    4.2824458     -9054.55     12490.63   -28048.517   -11605.763     25633.52   -10074.372   -206.27844    78.537236 
   36500    925.34624   -110.03682   0.83727273   -109.19954   -11184.609    4.2834109    4.2834109    4.2834109   -11184.609    1115.2738   -52954.174    18285.072    39895.299   -627.66333   -11635.517    78.590347 
   36600    1328.3599   -110.39439    1.2019279   -109.19246   -2680.6158    4.2773708    4.2773708    4.2773708   -2680.6158   -35251.367    3219.5525    23989.967   -25412.909    476.92045    1331.9655     78.25835 
   36700    1432.6637   -110.48771    1.2963042   -109.19141    5853.1622    4.2712851    4.2712851    4.2712851    5853.1622   -6328.3241    8872.1019    15015.709    5262.8293   -456.14485   -5768.0168      77.9248 
   36800    1394.6463   -110.45981    1.2619053    -109.1979    -7213.225    4.2798583    4.2798583    4.2798583    -7213.225    15056.311   -37713.134     1017.148    32542.354    7407.4214   -10990.782    78.394964 
   36900    1280.3891   -110.35482     1.158523    -109.1963    4045.7035    4.2809592    4.2809592    4.2809592    4045.7035   -12020.116    1761.6315    22395.595     -14873.9    2942.7032   -4398.0424     78.45548 
   37000    1228.4268   -110.30867    1.1115064   -109.19716    13300.582    4.2764146    4.2764146    4.2764146    13300.582    28857.281     13537.63   -2493.1658   -15854.449    -119.1036    7351.5714     78.20588 
   37100    1488.9263   -110.54332    1.3472118   -109.19611   -1352.1885    4.2835306    4.2835306    4.2835306   -1352.1885    21084.325   -9180.2578   -15960.633    12805.014   -10545.522   -3533.4273    78.596935 
   37200    1483.8998   -110.53551    1.3426637   -109.19284    24844.967    4.2714414    4.2714414    4.2714414    24844.967    40267.859     4352.216    29914.824   -9828.3672   -510.06314   -19873.961    77.933355 
   37300    1342.4289   -110.41525    1.2146579    -109.2006   -1563.0757    4.2772357    4.2772357    4.2772357   -1563.0757   -9884.6905   -506.23321    5701.6968   -29506.585    9545.2098    4666.7129    78.250937 
   37400    1358.1111   -110.42633    1.2288474   -109.19748   -15351.392    4.2833273    4.2833273    4.2833273   -15351.392   -18472.495    8043.1773   -35624.857     1490.258   -4725.8469   -2088.0858    78.585748 
   37500    1502.8729   -110.55061    1.3598309   -109.19078     14012.57    4.2710456    4.2710456    4.2710456     14012.57    26621.083    6891.5107    8525.1153   -2136.0019   -796.17061   -11406.916    77.911691 
   37600    1080.7454    -110.1786   0.97788116   -109.20071   -15126.539    4.2921457    4.2921457    4.2921457   -15126.539     6599.773   -46915.676   -5063.7139   -39365.695    8305.3154    4886.0272    79.072117 
   37700    1367.1981   -110.42669    1.2370696   -109.18962   -16521.729    4.2860607    4.2860607    4.2860607   -16521.729   -3819.9442   -11185.257   -34559.985    292.72856    -8234.901   -3401.3694    78.736292 
   37800    1326.6041    -110.3813    1.2003392   -109.18097    28577.187    4.2636424    4.2636424    4.2636424    28577.187     46044.77    25398.291    14288.499    5937.3324   -7511.7977   -11900.223    77.507248 
   37900    1253.4509   -110.33109    1.1341487   -109.19694   -16590.176    4.2820583    4.2820583    4.2820583   -16590.176   -10895.531   -49521.275    10646.278   -38541.555    6466.9929   -4981.5544    78.515918 
   38000    1323.8193   -110.39245    1.1978195   -109.19463   -22160.719    4.2862012    4.2862012    4.2862012   -22160.719   -27577.902   -26267.857   -12636.397   -2454.3875   -3991.6041    10327.704    78.744036 
   38100     1366.937    -110.4252    1.2368333   -109.18837    6406.2823    4.2734861    4.2734861    4.2734861    6406.2823   -3478.1122    20245.621    2451.3379    5618.2114   -14663.209    9964.2617    78.045325 
   38200    1166.7036   -110.24765     1.055658   -109.19199   -9838.1811    4.2857426    4.2857426    4.2857426   -9838.1811   -3434.9601   -39473.075    13393.492   -40253.955    -10051.24   -2700.6405    78.718762 
   38300    1490.9337    -110.5362    1.3490281   -109.18717   -7257.2026    4.2786142    4.2786142    4.2786142   -7257.2026   -7460.9759    -18288.28    3977.6476   -7007.3285   -2908.1087    6779.6655    78.326622 
   38400    1264.4774    -110.3292    1.1441257   -109.18507    30115.261      4.26318      4.26318      4.26318    30115.261    42658.029    53124.579   -5436.8252    9993.4919   -22956.876    6476.4299    77.482035 
   38500    870.52041    -109.9936   0.78766516   -109.20593   -21487.165    4.2879311    4.2879311    4.2879311   -21487.165    -24120.57   -38668.546   -1672.3789   -39338.056   -9416.9674   -2695.9802    78.839416 
   38600    1328.2969   -110.39966     1.201871   -109.19779   -4976.4085    4.2801008    4.2801008    4.2801008   -4976.4085   -18256.169    -23695.17    27022.114   -24233.096    17527.761     4804.381    78.408294 
   38700    1616.6698   -110.64676    1.4627969   -109.18396    17076.433     4.265982     4.265982     4.265982    17076.433    19781.887      10929.7    20517.711    17451.282   -16871.263    7491.0313    77.634911 
   38800    865.99255   -109.98605   0.78356826   -109.20248   -31970.861    4.2861564    4.2861564    4.2861564   -31970.861   -63660.674    -37525.28    5273.3706   -31298.453   -7744.4999    7726.0482    78.741567 
   38900    1160.1338   -110.24418    1.0497134   -109.19447    12693.073     4.271905     4.271905     4.271905    12693.073   -9133.9104    -4713.001     51926.13   -24256.784    3449.0966   -8618.4244    77.958731 
   39000    1462.1049   -110.51892    1.3229433   -109.19598    5636.7794    4.2774369    4.2774369    4.2774369    5636.7794    26999.696   -22945.714    12856.356    27155.691    3155.2834    -5642.484    78.261979 
   39100    1069.6525   -110.16601   0.96784402   -109.19817   -20231.705    4.2879729    4.2879729    4.2879729   -20231.705   -20650.079    -31903.32   -8141.7166   -5549.7913    1555.9751    14832.196     78.84172 
   39200    1480.1798   -110.52156    1.3392977   -109.18226     23663.56    4.2660485    4.2660485    4.2660485     23663.56    27975.848    12946.146    30068.686   -28319.889   -9319.5796    13808.069     77.63854 
   39300    1251.4873   -110.32803     1.132372   -109.19566   -16836.315    4.2806869    4.2806869    4.2806869   -16836.315    357.90929   -44721.717   -6145.1369    30027.162    407.72523   -32789.661    78.440506 
   39400    817.67757    -109.9449   0.73985185   -109.20505   -18065.753     4.275714     4.275714     4.275714   -18065.753   -4210.0025   -34920.458   -15066.798    24873.994    2693.4321   -1122.6603    78.167452 
   39500    1611.0144   -110.65129    1.4576797   -109.19361    11361.275    4.2622182    4.2622182    4.2622182    11361.275     16280.61   -12229.737    30032.953   -12260.646    -2361.601    27890.135    77.429605 
   39600    1383.7112   -110.45004    1.2520109   -109.19803   -18458.996    4.2903546    4.2903546    4.2903546   -18458.996    -15598.84   -51711.034    11932.887    20285.353    7807.8381   -36147.676    78.973171 
   39700    837.96235     -109.957   0.75820594   -109.19879   -6998.6388    4.2778529    4.2778529    4.2778529   -6998.6388   -3393.3264   -48027.323    30424.734    21375.884    5695.2744   -7475.0253    78.284819 
   39800    1225.2681    -110.3006    1.1086483   -109.19195    8923.3134    4.2647784    4.2647784    4.2647784    8923.3134     15434.09   -7952.9463    19288.797   -13227.021   -5831.6513    31887.646    77.569215 
   39900    1582.3727   -110.62252    1.4317641   -109.19075   -8074.1233    4.2769181    4.2769181    4.2769181   -8074.1233   -18220.126   -23408.187    17405.944    15355.041    7834.7697    8073.4853    78.233506 
   40000    1084.4466    -110.1761   0.98123003   -109.19487   -16023.651    4.2894281    4.2894281    4.2894281   -16023.651   -30705.761   -31979.968    14614.776    29967.912    7489.0631   -15180.068     78.92202 
   40100    1187.0076   -110.26042    1.0740294   -109.18639   -11165.751    4.2913823    4.2913823    4.2913823   -11165.751   -3020.0958    -23260.01   -7217.1473   -8314.8416    -12457.69      24142.8    79.029933 
   40200    1524.0078   -110.56327    1.3789543   -109.18431    17415.488     4.259826     4.259826     4.259826    17415.488     3607.942    14183.307    34455.216    19165.688    6238.6845    12306.248    77.299301 
   40300    1091.0156   -110.18687   0.98717386   -109.19969    18776.479    4.2594277    4.2594277    4.2594277    18776.479   -15961.488    6149.3334    66141.593    31186.593    2254.9066   -12685.581    77.277621 
   40400    1275.7809   -110.34913    1.1543533   -109.19478   -17153.972     4.294459     4.294459     4.294459   -17153.972   -24979.382   -44491.067    18008.533   -13680.017    1434.1474     5357.366    79.200034 
   40500      1416.46   -110.46586    1.2816428   -109.18421   -9745.2257    4.2837126    4.2837126    4.2837126   -9745.2257   -15948.888   -21033.371     7746.582    19362.907     11123.18    10844.733    78.606955 
   40600    1068.5737   -110.14941   0.96686794   -109.18254    23237.876    4.2605735    4.2605735    4.2605735    23237.876    15814.442   -4149.3144      58048.5    46016.415   -6700.0459    5039.4347    77.340003 
   40700    1630.4649   -110.66344    1.4752789   -109.18816    769.54934    4.2719216    4.2719216    4.2719216    769.54934    -9302.371   -14558.475    26169.494   -10933.004    3669.7938   -18208.998    77.959637 
   40800    1039.5112   -110.13744   0.94057156   -109.19687   -5669.2692    4.2897701    4.2897701    4.2897701   -5669.2692     9600.093   -36863.624    10255.723    4771.9074    700.69595    496.04417    78.940895 
   40900    959.66968   -110.06468   0.86832929   -109.19635   -14558.405    4.2839854    4.2839854    4.2839854   -14558.405   -32167.367   -27947.716    16439.868    51508.514   -16309.785    11969.213    78.621977 
   41000     1779.519   -110.79282    1.6101462   -109.18267    17540.997    4.2623701    4.2623701    4.2623701    17540.997    15795.615    6532.4176    30294.957    -2201.318    10730.205   -12202.693    77.437883 
   41100    1444.4109   -110.50447    1.3069333   -109.19754    7909.6853    4.2670127    4.2670127    4.2670127    7909.6853    21037.821   -12567.794    15259.029    9697.1465   -2060.2448    582.74607    77.691194 
   41200    628.47237   -109.77865   0.56865501      -109.21    -10273.46    4.2891392    4.2891392    4.2891392    -10273.46    793.67734    -51241.86    19627.803    56852.415    1816.0294    4272.9176    78.906073 
   41300    1627.4806   -110.65635    1.4725786   -109.18377    5902.3708    4.2839604    4.2839604    4.2839604    5902.3708    478.84083   -23326.268     40554.54   -15327.405   -3675.5077    8383.8673    78.620596 
   41400     1451.016    -110.4942    1.3129098   -109.18129    15940.103    4.2657116    4.2657116    4.2657116    15940.103    18126.771    5046.9979     24646.54    452.65412   -16090.526   -3664.4088    77.620149 
   41500    831.01193   -109.94726   0.75191706   -109.19534    4849.1169    4.2697472    4.2697472    4.2697472    4849.1169    23953.826    -28999.31    19592.835    58599.506    9326.8412    5226.5036    77.840657 
   41600     1358.797   -110.42045    1.2294681   -109.19098   -2908.2799    4.2835209    4.2835209    4.2835209   -2908.2799    7934.7129   -17920.727    1261.1741    -3248.576   -7178.5744    20762.006    78.596405 
   41700    1155.2508   -110.23532    1.0452952   -109.19002    17032.753    4.2803109    4.2803109    4.2803109    17032.753    7555.3682     6255.702    37287.188   -26364.506   -8424.8275   -6855.1198     78.41984 
   41800    1185.2017   -110.26284    1.0723954   -109.19045    277.42986    4.2725616    4.2725616    4.2725616    277.42986    -24165.44   -402.32841    25400.058    38520.459    3693.7492    1829.1986    77.994681 
   41900    1179.1909   -110.25881    1.0669567   -109.19186    14873.879    4.2726404    4.2726404    4.2726404    14873.879    15516.662    4789.3812    24315.595    13518.809   -7749.6692    8630.7826    77.998998 
   42000     1207.525   -110.28982     1.092594   -109.19722   -12034.458    4.2886768    4.2886768    4.2886768   -12034.458   -23463.508   -2848.9611    -9790.904     -37349.2   -984.67127   -3190.6146    78.880554 
   42100     1023.647     -110.113   0.92621731   -109.18679   -24810.041     4.292238     4.292238     4.292238   -24810.041   -52258.174   -20861.418   -1310.5324    21971.781    2148.2143     5693.989    79.077216 
   42200    1335.7709   -110.38102    1.2086336   -109.17239    27706.016    4.2584782    4.2584782    4.2584782    27706.016    41661.564    11454.079    30002.405    24752.948   -2076.9275    7117.1076    77.225954 
   42300    933.92283   -110.03513     0.845033    -109.1901   -3023.7997    4.2646452    4.2646452    4.2646452   -3023.7997    -16674.91    10586.723   -2983.2127   -42530.085   -3578.0413    4604.4361    77.561951 
   42400    1003.3103   -110.10246   0.90781622   -109.19464   -37096.083     4.289767     4.289767     4.289767   -37096.083   -63372.205   -19843.091   -28072.952   -14308.438   -13792.489   -3798.6562    78.940727 
   42500    1615.9608      -110.64    1.4621553   -109.17784   -1851.7953    4.2823065    4.2823065    4.2823065   -1851.7953    16333.167   -14323.531   -7565.0219    26515.955   -305.16962   -4382.8291    78.529575 
   42600    737.94175   -109.86114   0.66770521   -109.19343   -2519.2611    4.2694135    4.2694135    4.2694135   -2519.2611   -6001.5465   -10960.903    9404.6661   -33652.272    7969.5916    9652.4875    77.822409 
   42700    755.85902   -109.88809   0.68391713   -109.20418   -10816.499    4.2638973    4.2638973    4.2638973   -10816.499   -15848.504   -1940.2031   -14660.791   -38934.351   -6684.9695   -1228.4529    77.521151 
   42800    1590.3497   -110.64247    1.4389818   -109.20349   -1289.7112    4.2813801    4.2813801    4.2813801   -1289.7112    24946.781   -926.11055   -27889.805    15375.802    -4729.318    4359.7244    78.478618 
   42900    1130.2107   -110.22002    1.0226384   -109.19738    44.028019    4.2850202    4.2850202    4.2850202    44.028019    34511.594   -28958.251   -5421.2582    -11861.19   -1915.8105    4443.5606     78.67896 
   43000    939.84681   -110.04319   0.85039314    -109.1928   -6820.2217    4.2701465    4.2701465    4.2701465   -6820.2217     -16245.4   -2088.2598   -2127.0053   -41045.136   -9032.6244   -2912.3454    77.862496 
   43100    1179.3446    -110.2582    1.0670958   -109.19111     216.3137    4.2666141    4.2666141    4.2666141     216.3137   -10039.842    27696.047   -17007.263    10085.255   -2257.6377   -631.72702    77.669427 
   43200    1110.3627   -110.20164    1.0046795   -109.19696   -5980.6993    4.2757309    4.2757309    4.2757309   -5980.6993   -5997.3854   -31618.462    19673.749    22640.759    -2559.442   -1824.0008    78.168377 
   43300    1067.3787   -110.16032    0.9657867   -109.19453   -23758.301    4.2875471    4.2875471    4.2875471   -23758.301   -35581.426   -19240.083   -16453.393   -23660.002   -6999.5271    3492.7697    78.818235 
   43400    1270.8181   -110.33677    1.1498629   -109.18691   -8399.6401    4.2727693    4.2727693    4.2727693   -8399.6401   -14058.154     15344.49   -26485.256   -10639.225    -4826.423    1169.3853     78.00606 
   43500    915.65921   -110.01946    0.8285077   -109.19095     8495.927    4.2639199    4.2639199    4.2639199     8495.927    24148.963   -28961.063    30299.881    44221.781    3694.3516   -7400.4112    77.522382 
   43600    1145.2915   -110.23519    1.0362838    -109.1989   -12928.384    4.2751575    4.2751575    4.2751575   -12928.384   -31022.321   -19451.341     11688.51    29077.678   -969.35466   -6103.9173    78.136933 
   43700    1488.6534   -110.54124    1.3469648   -109.19428   -4371.1546    4.2773352    4.2773352    4.2773352   -4371.1546    2457.1836    15817.236   -31387.883    -23567.26    -20017.98    2336.8619    78.256398 
   43800    805.63232   -109.93169   0.72895305   -109.20273   -22866.842    4.2787866    4.2787866    4.2787866   -22866.842   -17325.632   -46905.991   -4368.9032    42612.547   -1081.7146   -6740.8057    78.336088 
   43900      878.672   -109.99549   0.79504089   -109.20045   -9602.4339    4.2723637    4.2723637    4.2723637   -9602.4339   -13699.883    -34181.44    19074.021    45256.692   -131.85722    2177.8173    77.983844 
   44000     1650.882   -110.68099    1.4937527   -109.18723   -6316.2896    4.2765291    4.2765291    4.2765291   -6316.2896   -12877.862    6426.4693   -12497.476   -19611.643   -27581.634    -649.9402     78.21216 
   44100    813.29092   -109.93364   0.73588272   -109.19776   -18594.407    4.2851994    4.2851994    4.2851994   -18594.407   -47909.045   -30083.926    22209.751    45094.469   -11085.686   -8671.5807    78.688832 
   44200     1038.356   -110.12962   0.93952635   -109.19009      1388.62    4.2715424    4.2715424    4.2715424      1388.62   -4610.9803   -28362.876    37139.717    33322.381    11314.176   -6814.5475    77.938881 
   44300    1299.3876   -110.36782    1.1757132   -109.19211    583.41775    4.2721403    4.2721403    4.2721403    583.41775   -1285.6293     -22975.2    26011.082   -24203.312   -4744.4212   -8607.1506    77.971612 
   44400     991.9225   -110.09627   0.89751232   -109.19876    2671.6656    4.2762753    4.2762753    4.2762753    2671.6656   -23221.605   -14188.826    45425.428    34253.314   -7672.6985    12177.063    78.198236 
   44500     1478.523   -110.52791    1.3377986   -109.19011   -594.93375    4.2791774    4.2791774    4.2791774   -594.93375   -20786.488   -16869.846    35871.533    19315.324    5109.7232   -9769.5253    78.357556 
   44600    1114.9803   -110.20325    1.0088576   -109.19439   -32693.608    4.2812333    4.2812333    4.2812333   -32693.608   -10383.869    -47226.69   -40470.265    -24884.36   -6547.7117    -1515.304    78.470547 
   44700    869.88182   -109.98282   0.78708735   -109.19573    7755.3155    4.2676762    4.2676762    4.2676762    7755.3155   -7620.3908   -6170.8079    37057.145    11439.446   -8497.7516    12026.581    77.727441 
   44800    1760.6252   -110.77911    1.5930507   -109.18606    2023.5532    4.2793783    4.2793783    4.2793783    2023.5532   -15802.028   -21297.628    43170.316    11370.269    7495.8158    335.43937     78.36859 
   44900    808.54185   -109.92973   0.73158566   -109.19814    -3100.288    4.2796491    4.2796491    4.2796491    -3100.288   -17951.956   -27215.386    35866.478   -17082.203    8545.3384   -1542.7227     78.38347 
   45000    977.20528   -110.08638   0.88419587   -109.20218   -10161.002    4.2725355    4.2725355    4.2725355   -10161.002     6097.609   -32567.794   -4012.8204   -3934.7259   -6972.0098    11396.433    77.993256 
   45100    1701.7613   -110.72936    1.5397894   -109.18957     3685.723    4.2749188    4.2749188    4.2749188     3685.723    3262.5521   -1453.0568    9247.6738    5142.7865   -2189.6276    6014.7363    78.123847 
   45200    1099.1988   -110.19232   0.99457814   -109.19774   -3511.4161    4.2770862    4.2770862    4.2770862   -3511.4161   -28019.424    8410.4671    9074.7086   -24642.235    18159.981   -3430.1609     78.24273 
   45300    1037.1621   -110.13223   0.93844609   -109.19378   -10487.352    4.2900542    4.2900542    4.2900542   -10487.352    7882.7082   -33653.765   -5690.9988   -12209.853   -646.32516    3393.3726    78.956582 
   45400    1756.0846   -110.76887    1.5889423   -109.17993    6500.3788    4.2756466    4.2756466    4.2756466    6500.3788    30230.923    2829.8092   -13559.596    12037.185   -8595.6526   -1813.8073    78.163756 
   45500    1119.1139   -110.20214    1.0125978   -109.18955    21958.712    4.2595647    4.2595647    4.2595647    21958.712   -4540.3197    30639.013    39777.442   -9813.5005    22082.134   -3617.9603     77.28508 
   45600    1065.1585   -110.17011   0.96377776   -109.20634   -16302.673    4.2829543    4.2829543    4.2829543   -16302.673    4526.5449   -43759.408    -9675.155   -7622.4375    9465.0306    6022.8584     78.56522 
   45700    1497.4053   -110.54364    1.3548838   -109.18875   -11096.831    4.2861468    4.2861468    4.2861468   -11096.831    7002.0724   -1722.1199   -38570.444    5298.1981   -21258.162    8764.6387    78.741036 
   45800      1304.36   -110.36529    1.1802124   -109.18508   -17647.526    4.2735672    4.2735672    4.2735672   -17647.526   -40800.942   -3233.0982   -8908.5361    6078.6775   -1449.6525    505.69255    78.049769 
   45900    1333.5897   -110.39202      1.20666   -109.18536   -13595.448    4.2758297    4.2758297    4.2758297   -13595.448   -4654.0927   -30958.809   -5173.4413    3225.5797    13820.309   -1041.5942    78.173793 
   46000    1556.6196   -110.59103    1.4084622   -109.18257   -23670.448    4.2811108    4.2811108    4.2811108   -23670.448   -3884.8319   -15988.326   -51138.185     2247.408   -18628.675   -2308.2898    78.463809 
   46100    1121.9791   -110.20434    1.0151903   -109.18915   -12526.688    4.2847146    4.2847146    4.2847146   -12526.688   -38603.709    10790.658   -9767.0141    17758.687   -31400.471    396.01638     78.66213 
   46200    1699.7756   -110.71509    1.5379927   -109.17709   -16669.144    4.2904206    4.2904206    4.2904206   -16669.144   -18862.657   -32419.284    1274.5085    -1288.489    3892.5189   -371.15687    78.976811 
   46300    1296.3518   -110.35861    1.1729663   -109.18565   -3109.4488    4.2738551    4.2738551    4.2738551   -3109.4488    22344.319   -7725.1082   -23947.557   -1802.1952   -5051.7102    6209.3374    78.065541 
   46400    949.83931   -110.04861   0.85943457   -109.18917    32373.254    4.2619788    4.2619788    4.2619788    32373.254    19335.061    20676.266    57108.436    7384.8773   -38723.238     1221.425    77.416555 
   46500    1552.4087   -110.59701     1.404652   -109.19235   -2364.1394    4.2890507    4.2890507    4.2890507   -2364.1394    -2698.769   -9016.0259    4622.3768    5608.8902    5347.7604   -2714.4898    78.901188 
   46600      1267.88   -110.33641    1.1472045    -109.1892     16844.59    4.2820678    4.2820678    4.2820678     16844.59    18609.791    530.89847    31393.082     -1765.65    11276.403    14551.426    78.516444 
   46700    1137.5436   -110.21563    1.0292733   -109.18636    21361.447    4.2696141    4.2696141    4.2696141    21361.447    39084.982    34578.507   -9579.1486   -9224.7391   -30929.084     1997.378    77.833379 
   46800    1312.2302   -110.37838    1.1873334   -109.19105   -8811.6091    4.2770351    4.2770351    4.2770351   -8811.6091    -21101.53   -2439.2914   -2894.0056    11583.222   -5147.2529   -891.37683    78.239931 
   46900    1058.9317   -110.15636   0.95814369   -109.19822    9396.8808    4.2733191    4.2733191    4.2733191    9396.8808   -2993.3967    20575.224    10608.815    3089.7705    21779.298    3664.6566    78.036174 
   47000    1453.5293   -110.51489    1.3151838   -109.19971   -18079.534    4.2816069    4.2816069    4.2816069   -18079.534   -17677.831    9577.6424   -46138.414    897.87936   -3979.9859    10436.348    78.491092 
   47100    1446.6919   -110.50296    1.3089972   -109.19397    6056.6729    4.2787448    4.2787448    4.2787448    6056.6729   -12918.503    19852.538    11235.983    10587.022     -20711.3    3503.1656    78.333794 
   47200    786.62698   -109.91017   0.71175662   -109.19841    434.38818    4.2792208    4.2792208    4.2792208    434.38818   -37967.754    3825.8959    35445.023    11056.465    24205.407    1388.6143    78.359938 
   47300    1460.5277   -110.50855    1.3215161   -109.18704   -15787.377    4.2859821    4.2859821    4.2859821   -15787.377   -13142.022    1479.9742   -35700.084   -9984.9762    22139.524    8368.6581    78.731958 
   47400    1480.8344   -110.52186    1.3398901   -109.18197    5201.7844    4.2802748    4.2802748    4.2802748    5201.7844   -3964.6122   -7297.9264    26867.892     17353.53    -15109.96   -5348.0664    78.417852 
   47500     830.7559   -109.94359    0.7516854   -109.19191   -2163.1677    4.2777697    4.2777697    4.2777697   -2163.1677   -17133.904    -16234.12     26878.52    25473.795   -6228.2068   -4579.7513    78.280247 
   47600    981.83545   -110.08371   0.88838535   -109.19532   -6124.6307    4.2768778    4.2768778    4.2768778   -6124.6307   -23295.444    16392.085   -11470.533   -9007.6209    31397.793    7038.5016    78.231296 
   47700     1470.483   -110.52506    1.3305239   -109.19453     9924.727     4.273861     4.273861     4.273861     9924.727   -11040.187    9910.6633    30903.705    3132.3337    5223.6732    7392.9294    78.065864 
   47800     1442.571   -110.50514    1.3052686   -109.19987    2579.2164    4.2778154    4.2778154    4.2778154    2579.2164   -11154.095    844.53623    18047.208    20084.748   -8704.6997    -368.0502    78.282757 
   47900    873.45192   -109.99463   0.79031765   -109.20432    6060.8078     4.280975     4.280975     4.280975    6060.8078   -31243.437    35130.923    14294.937   -9051.3867    31312.483   -3412.7347    78.456347 
   48000    1225.9065   -110.30368     1.109226   -109.19445    -2082.912    4.2818577    4.2818577    4.2818577    -2082.912   -36064.027    14992.523    14822.767   -4854.4873   -2766.8005    10519.943    78.504884 
   48100    1410.3269   -110.46493    1.2760934   -109.18884     7814.532    4.2718058    4.2718058    4.2718058     7814.532   -21108.252    32520.545    12031.303    18881.452   -29401.262   -1133.1528    77.953298 
   48200    1473.1412   -110.52304    1.3329292   -109.19011    12662.694    4.2699465    4.2699465    4.2699465    12662.694   -29620.927    24691.523    42917.486   -5827.3032    21939.583    915.13937    77.851554 
   48300    775.12741   -109.90361   0.70135157   -109.20226   -5027.9681    4.2852795    4.2852795    4.2852795   -5027.9681   -49850.576    2336.6855    32429.987   -14049.242     14090.05    6546.1965    78.693246 
   48400    833.67777   -109.95783   0.75432917    -109.2035   -10717.795    4.2797869    4.2797869    4.2797869   -10717.795   -51471.198      27484.9   -8167.0879    242.34634       -41152   -5042.5857    78.391044 
   48500    1709.7198   -110.73393    1.5469904   -109.18694    27567.055    4.2564516    4.2564516    4.2564516    27567.055   -7540.5682    26575.583    63666.151   -7217.4111   -2915.0586     4493.715    77.115754 
   48600    1221.0626   -110.31445    1.1048431   -109.20961   -13736.208    4.2765176    4.2765176    4.2765176   -13736.208   -33995.133   -8799.0501    1585.5592   -12269.716    3563.0868    648.11659    78.211533 
   48700    565.23745   -109.72412   0.51143872   -109.21268   -32098.373    4.2836763    4.2836763    4.2836763   -32098.373   -75935.775    19324.627   -39683.971   -2407.8151   -40488.992   -444.83658     78.60496 
   48800    1403.9329   -110.46414     1.270308   -109.19383    26967.792    4.2617788    4.2617788    4.2617788    26967.792   -6556.0511    16019.388     71440.04    10932.952   -216.30301    7612.8675    77.405661 
   48900     1555.536   -110.60259    1.4074817   -109.19511   -12074.825    4.2774571    4.2774571    4.2774571   -12074.825   -21098.366   -31427.085    16300.976   -8938.4625    3699.2961   -10980.042    78.263092 
   49000    580.59713   -109.72806   0.52533649   -109.20272    3086.8337    4.2769464    4.2769464    4.2769464    3086.8337   -41062.508    2011.4417    48311.567   -15084.508   -45371.113   -8015.4079    78.235061 
   49100    1174.9092   -110.25899    1.0630826    -109.1959    10125.142    4.2758202    4.2758202    4.2758202    10125.142   -10772.864     18210.57     22937.72    1179.7638   -7804.0796    4514.4841    78.173275 
   49200    1421.2235   -110.47392    1.2859529   -109.18797    2587.8105    4.2833443    4.2833443    4.2833443    2587.8105    6466.9719   -16521.526    17817.985    12608.082    25177.211   -7400.0373    78.586684 
   49300    668.19035   -109.79748   0.60459267   -109.19288    -1171.658    4.2779902    4.2779902    4.2779902    -1171.658   -8849.7999   -710.01309    6044.8391   -3013.8824   -49573.059   -6629.6928    78.292356 
   49400    1115.0801   -110.20265    1.0089479    -109.1937   -4581.3351    4.2770155    4.2770155    4.2770155   -4581.3351   -4990.2827    11702.841   -20456.563   -7209.7999   -23690.333   -4084.6651    78.238854 
   49500    1657.7067   -110.68483    1.4999279   -109.18491    10505.997    4.2755395    4.2755395    4.2755395    10505.997    7686.0421    2735.7648    21096.183    9578.0435    17251.138     5140.708    78.157877 
   49600     647.8992   -109.79064   0.58623281   -109.20441   -7671.1428    4.2843632    4.2843632    4.2843632   -7671.1428   -29382.637   -886.58289    7255.7911    398.36064   -53609.767   -6199.2555    78.642777 
   49700    800.91004   -109.92759   0.72468023   -109.20291    -14128.32    4.2867791    4.2867791    4.2867791    -14128.32   -21056.379   -18627.043   -2701.5378   -23175.946   -37372.424   -12390.443    78.775889 
   49800    1583.8139   -110.61459    1.4330681   -109.18152    27840.392    4.2651852    4.2651852    4.2651852    27840.392    20834.789   -665.94857    63352.335   -6051.2978    11883.996    -5642.809    77.591418 
   49900    1010.5451   -110.11769    0.9143624   -109.20333   -3032.0523    4.2751355    4.2751355    4.2751355   -3032.0523   -11527.581    14197.056   -11765.632    11638.075   -49559.719    4328.3378    78.135725 
   50000    623.93552   -109.76194   0.56454997   -109.19739    -36385.92    4.2935395    4.2935395    4.2935395    -36385.92   -57237.885   -29388.084   -22531.791   -23891.284   -45322.805   -5779.5379    79.149174 
   50100    1466.4417   -110.51313    1.3268673   -109.18626   -458.67468    4.2627309    4.2627309    4.2627309   -458.67468    6631.5953   -25869.113    17861.494   -25064.148    24350.889   -2127.2909    77.457548 
   50200    1149.7857    -110.2346    1.0403503   -109.19425   -5525.1853    4.2659252    4.2659252    4.2659252   -5525.1853   -15501.205    32337.106   -33411.457    8572.3076   -33142.435    5111.9124    77.631808 
   50300    770.63136   -109.89137   0.69728345   -109.19409     -38628.2    4.2872446    4.2872446    4.2872446     -38628.2   -61479.608   -11736.018   -42668.973   -20409.816   -62692.757   -4576.6838    78.801556 
   50400    1386.4582    -110.4385    1.2544965     -109.184   -5146.1545    4.2728638    4.2728638    4.2728638   -5146.1545   -3183.2387   -33480.088    21224.863   -34425.776     18860.93   -4041.6117    78.011234 
   50500    1461.5306   -110.50749    1.3224236   -109.18506   -14498.466    4.2747398    4.2747398    4.2747398   -14498.466   -24476.798     8234.759   -27253.358    3063.2911   -20106.214   -3763.0076    78.114031 
   50600    685.17711   -109.82004   0.61996265   -109.20008   -758.16025    4.2729571    4.2729571    4.2729571   -758.16025    -35631.15    11273.583    22083.086   -3926.7392   -46816.947    8188.9928    78.016347 
   50700    1283.8066   -110.36054    1.1616152   -109.19892    2214.1274     4.267034     4.267034     4.267034    2214.1274    3766.3535   -24406.984    27283.013    -37632.54   -3980.1489    4842.8118    77.692357 
   50800    1509.3114   -110.56107    1.3656567   -109.19541   -10248.966     4.284088     4.284088     4.284088   -10248.966   -18655.261   -14240.384     2148.746   -3904.6572   -2907.8053   -2260.5245    78.627623 
   50900    1028.4553   -110.12963   0.93056795   -109.19906   -15688.214    4.2777303    4.2777303    4.2777303   -15688.214   -36747.476    9129.6227    -19446.79    1832.2041   -39495.241    2190.2044    78.278087 
   51000    961.92081   -110.06814   0.87036617   -109.19778   -2229.9099    4.2618622    4.2618622    4.2618622   -2229.9099    -26499.36    -7274.467    27084.097   -49687.929   -1426.8993   -2106.7087    77.410205 
   51100    1521.9905   -110.57423     1.377129    -109.1971    2522.9867    4.2719223    4.2719223    4.2719223    2522.9867   -3912.4077    3973.6342    7507.7335   -7535.1424    9831.4539    3107.7255    77.959678 
   51200    1487.0046   -110.54155     1.345473   -109.19608   -21465.604    4.2836178    4.2836178    4.2836178   -21465.604   -38574.768    -3256.257   -22565.788    13591.076     -44459.4   -2649.8214    78.601739 
   51300    906.12742   -110.02005   0.81988314   -109.20016    685.80703    4.2743312    4.2743312    4.2743312    685.80703   -41635.204   -1424.3546     45116.98    -39401.79   -9581.2557   -3068.9365    78.091633 
   51400    1309.9357   -110.37898    1.1852573   -109.19372    5479.5957    4.2673779    4.2673779    4.2673779    5479.5957    -9318.006    17249.647    8507.1457   -15008.489    26726.617    1936.3872    77.711148 
   51500    1624.1331   -110.66198    1.4695498   -109.19243    8444.2019    4.2684873    4.2684873    4.2684873    8444.2019   -4211.4537   -2539.0815    32083.141     27656.65   -1136.2366   -4112.0955    77.771768 
   51600    1037.4266   -110.14332   0.93868536   -109.20464    9145.1076    4.2783774    4.2783774    4.2783774    9145.1076   -912.38302   -8409.3973    36757.103    -37376.33   -14500.279    -602.6345    78.313618 
   51700    1241.3809   -110.32531    1.1232275   -109.20208   -11797.361    4.2825687    4.2825687    4.2825687   -11797.361    -16212.41    -15480.52   -3699.1549   -44886.764   -3443.2407     3678.772    78.544001 
   51800     1853.011   -110.86717    1.6766433   -109.19053    22191.653    4.2605369    4.2605369    4.2605369    22191.653    36382.945   -2451.5293    32643.542    35695.202    938.11883   -2726.4314    77.338008 
   51900    872.64107   -110.00201   0.78958397   -109.21242    11544.208    4.2679913    4.2679913    4.2679913    11544.208    6179.4912   -30544.698    58997.831   -20735.915   -1175.9712   -6749.2036     77.74466 
   52000    963.77818   -110.07507   0.87204675   -109.20303   -35377.638    4.2903202    4.2903202    4.2903202   -35377.638    -52495.46     -56459.3    2821.8452   -57070.577   -6194.3471   -1109.5698    78.971268 
   52100    2095.1263   -111.07349    1.8957143   -109.17778    3737.3382     4.273858     4.273858     4.273858    3737.3382    33014.642   -13335.448   -8467.1794    18843.214    6105.7268    1323.6951      78.0657 
   52200    1028.9482   -110.12476   0.93101399   -109.19375    182.65952    4.2688882    4.2688882    4.2688882    182.65952   -11146.327   -43547.957    55242.263   -39874.723   -85.982986   -2693.6633    77.793684 
   52300    785.57465   -109.91027   0.71080445   -109.19947   -17927.691    4.2758653    4.2758653    4.2758653   -17927.691   -12256.951   -59690.184     18164.06   -42729.717   -18482.338    2187.4069    78.175749 
   52400    1577.5424    -110.6167    1.4273936   -109.18931    87.218308    4.2811774    4.2811774    4.2811774    87.218308    33784.307   -13675.762    -19846.89    26149.739    -12030.35    2829.1631    78.467473 
   52500    1368.8134    -110.4289    1.2385312   -109.19037   -2949.5291    4.2736664    4.2736664    4.2736664   -2949.5291   -7638.6932   -29652.464     28442.57   -42512.679    9852.2261   -6192.3803    78.055201 
   52600    901.73486   -110.01152   0.81590865   -109.19561   -3131.3306    4.2718807    4.2718807    4.2718807   -3131.3306    12544.027    -36986.76    15048.741   -39673.228    -3210.018    242.30994    77.957403 
   52700    1239.5268   -110.31466    1.1215499   -109.19311   -19298.955    4.2759768    4.2759768    4.2759768   -19298.955   -15031.042   -18683.723   -24182.098    38548.651    -28319.02   -2462.0117    78.181864 
   52800    1233.6967   -110.30858    1.1162747    -109.1923    4297.0611    4.2675899    4.2675899    4.2675899    4297.0611    28105.903   -20089.567    4874.8465    -10000.35    5055.3944    7479.8689    77.722726 
   52900    1266.9734   -110.34122    1.1463842   -109.19484   -17613.193    4.2785864    4.2785864    4.2785864   -17613.193    -26918.67   -38063.504    12142.593   -39349.717    6837.9396   -6343.9146    78.325094 
   53000    923.16812   -110.03292   0.83530192   -109.19762   -21911.981    4.2774756    4.2774756    4.2774756   -21911.981    -20264.85   -34305.921    -11165.17    33644.646   -16833.544   -14799.766    78.264107 
   53100    958.94862   -110.06392   0.86767687   -109.19624    10664.523    4.2677139    4.2677139    4.2677139    10664.523     25004.86   -34189.182    41177.892     14508.03    2163.0386    5663.9819    77.729504 
   53200    1429.3619   -110.48447    1.2933167   -109.19115    6595.7861    4.2775303    4.2775303    4.2775303    6595.7861     4917.888   -30336.981    45206.451    -23036.83    13565.026    9296.6676    78.267109 
   53300    999.04061   -110.09756   0.90395294   -109.19361    7843.1797    4.2785024    4.2785024    4.2785024    7843.1797   -6585.5351   -31153.375    61268.449    24298.326   -13169.756   -5482.9315    78.320483 
   53400    781.83546   -109.89974   0.70742115   -109.19232   -13706.043    4.2858333    4.2858333    4.2858333   -13706.043   -6246.6541   -46061.214    11189.739    8824.9954     -11438.9    6961.5396    78.723757 
   53500    1546.8917   -110.57538    1.3996601   -109.17572   -4626.3842    4.2784697    4.2784697    4.2784697   -4626.3842    1768.7227   -28084.137    12436.261   -13308.366   -864.21452    19283.335    78.318682 
   53600    1252.6972    -110.3172    1.1334667   -109.18373    3986.5908    4.2704772    4.2704772    4.2704772    3986.5908     -5398.08   -12281.343    29639.195    31569.265   -8630.6613   -1314.2127    77.880588 
   53700    779.52046   -109.90109   0.70532649   -109.19576   -44870.555    4.2863925    4.2863925    4.2863925   -44870.555   -49293.628   -35629.492   -49688.544    13760.661   -20716.742    781.70108    78.754579 
   53800    1338.7034   -110.39683     1.211287   -109.18555   -9114.4291    4.2708672    4.2708672    4.2708672   -9114.4291    1286.5847   -4279.2543   -24350.618   -12779.034   -3921.5463    16085.086    77.901928 
   53900    1393.9094   -110.45011    1.2612385   -109.18887   -6823.5957    4.2777179    4.2777179    4.2777179   -6823.5957   -19816.306   -26276.112    25621.631    15043.331    3130.1752    6354.3506    78.277403 
   54000    750.69984   -109.86781   0.67924899   -109.18856   -31397.603    4.2887196    4.2887196    4.2887196   -31397.603   -33074.205    -22838.06   -38280.545    22056.286   -25342.198   -17486.794    78.882915 
   54100    1325.4335   -110.37908    1.1992801    -109.1798    4280.7789    4.2597553    4.2597553    4.2597553    4280.7789    7913.9567   -1063.7735    5992.1534   -8915.2881   -9637.7479    2535.8568    77.295456 
   54200    1388.8064   -110.44487    1.2566212   -109.18824   -8786.6434    4.2705141    4.2705141    4.2705141   -8786.6434   -31926.767   -34229.108    39795.944   -17754.096    4683.1301    11525.662    77.882609 
   54300    972.13398   -110.07461   0.87960726   -109.19501   -25984.673    4.2793388    4.2793388    4.2793388   -25984.673   -35561.488   -20751.751    -21640.78    4812.7137   -9958.0431   -12163.241    78.366424 
   54400     1051.981   -110.14766   0.95185453    -109.1958    20736.381    4.2698476    4.2698476    4.2698476    20736.381    28324.043    34188.425   -303.32576    10551.801   -10722.423    -23661.55    77.846149 
   54500    1551.5723   -110.58984    1.4038952   -109.18595   -8469.5673    4.2822595    4.2822595    4.2822595   -8469.5673   -28496.018   -11726.402    14813.718   -28834.385   -2603.1337    6071.1534    78.526991 
   54600     1004.012   -110.09658   0.90845117   -109.18813    1549.9811    4.2755723    4.2755723    4.2755723    1549.9811   -36288.253    49844.456   -8906.2591   -12291.557    4515.5862    3729.3471    78.159679 
   54700    1156.0441   -110.23406     1.046013   -109.18805    6956.0689    4.2723277    4.2723277    4.2723277    6956.0689    9678.2512     9999.267    1190.6886    16217.489   -11086.552   -28124.552    77.981873 
   54800    1416.1599   -110.46236    1.2813713   -109.18098    3925.7711    4.2766566    4.2766566    4.2766566    3925.7711   -13326.026    20709.848    4393.4907   -21239.892    5318.0705   -658.68771    78.219159 
   54900    1115.9341   -110.19892    1.0097206    -109.1892   -12676.584    4.2774655    4.2774655    4.2774655   -12676.584   -44437.295    3811.9017    2595.6422   -12687.879     8804.142    14124.492    78.263553 
   55000    1234.5999   -110.30995    1.1170919   -109.19286   -6865.0131    4.2713257    4.2713257    4.2713257   -6865.0131   -1367.3518   -14385.498   -4842.1893    29805.354     -15802.7   -23630.503     77.92702 
   55100    1587.6607   -110.62703    1.4365487   -109.19048    11757.528    4.2681738    4.2681738    4.2681738    11757.528    2165.7073    28296.128    4810.7493   -10248.772    4376.6033   -18293.032    77.754636 
   55200    816.87832   -109.94452   0.73912867    -109.2054   -4468.5173    4.2811985    4.2811985    4.2811985   -4468.5173   -29783.582    20898.325   -4520.2948   -26446.691     6970.909    8810.1717    78.468632 
   55300    1114.3052   -110.20476    1.0082468   -109.19652   -3916.2726    4.2807104    4.2807104    4.2807104   -3916.2726   -3774.2464   -1434.8617   -6539.7097    27245.327    -4922.138    4765.7849    78.441798 
   55400    1805.8934   -110.81001    1.6340103     -109.176    9904.3226    4.2737923    4.2737923    4.2737923    9904.3226    -5934.198    31865.883    3781.2828    106.83822    9181.7331   -6314.3495    78.062099 
   55500    743.71884   -109.86868   0.67293243   -109.19575    -17141.11    4.2808474    4.2808474    4.2808474    -17141.11   -36213.931   -15608.637    399.23738   -35769.032    9386.6263    3102.1562    78.449329 
   55600    1002.3042   -110.09942   0.90690588   -109.19252   -7878.3046     4.277474     4.277474     4.277474   -7878.3046    11355.525   -11152.255   -23838.183    2629.3033    2872.5472    9969.3314    78.264017 
   55700     1757.522    -110.7679    1.5902428   -109.17765    -6138.845    4.2814513    4.2814513    4.2814513    -6138.845    3119.8904   -2852.6606   -18683.765    8199.2909   -305.20888   -20039.467    78.482534 
   55800    899.46335   -110.00891   0.81385334   -109.19506   -19096.741    4.2765217    4.2765217    4.2765217   -19096.741   -24586.062   -14796.377   -17907.783   -25605.808    5846.1432    -12733.55    78.211759 
   55900    1074.2356   -110.16839   0.97199091    -109.1964    22399.273    4.2578374    4.2578374    4.2578374    22399.273    12181.469    60561.004   -5544.6543   -16359.029   -893.02556    20601.956    77.191099 
   56000     1711.082   -110.74387    1.5482229   -109.19565    6171.5234     4.274482     4.274482     4.274482    6171.5234     25456.55    8207.7544   -15149.734    6612.1462   -4096.5994   -14202.477    78.099897 
   56100    978.98076   -110.09091   0.88580237    -109.2051    1794.4171    4.2785803    4.2785803    4.2785803    1794.4171    12300.019    1633.9436   -8550.7112   -12896.323   -3071.4425   -29252.252     78.32476 
   56200     1033.707   -110.13167   0.93531979   -109.19635    11293.607    4.2765441    4.2765441    4.2765441    11293.607   -15942.514    50455.873   -632.53633   -25083.952    693.48457    989.68277    78.212985 
   56300    1822.0282   -110.82476    1.6486094   -109.17615    2945.4308    4.2797326    4.2797326    4.2797326    2945.4308    477.29223    9219.3665   -860.36631    10275.454    9247.5915   -8425.9264    78.388055 
   56400    1175.8682   -110.25068    1.0639502   -109.18673    7438.8089    4.2710258    4.2710258    4.2710258    7438.8089   -2025.7229    12297.391    12044.758   -3217.8276    -6516.151   -26435.775    77.910608 
   56500    1038.7931   -110.13615   0.93992183   -109.19623   -10603.876    4.2766581    4.2766581    4.2766581   -10603.876   -23942.092   -6572.8143   -1296.7207    -28822.37    543.49879   -6722.7002    78.219241 
   56600    1689.5133   -110.71479    1.5287071   -109.18609    1428.3069    4.2758535    4.2758535    4.2758535    1428.3069    3762.8972   -7854.2439    8376.2675   -1195.9485    10580.321    19920.872    78.175102 
   56700    1258.3062    -110.3292    1.1385419   -109.19065   -3271.1711    4.2743054    4.2743054    4.2743054   -3271.1711   -1169.8201    -14096.84    5453.1467     10495.08   -8823.6484    549.14705    78.090218 
   56800    1052.5566   -110.14794   0.95237535   -109.19556   -3592.2081    4.2768903    4.2768903    4.2768903   -3592.2081   -30896.465    8965.5756    11154.265   -14826.121   -11181.759   -26649.055    78.231984 
   56900     1652.478    -110.6813    1.4951968    -109.1861    5437.5917    4.2680563    4.2680563    4.2680563    5437.5917   -62.969388    9154.7716    7220.9727    -10660.42    4779.0493    34194.481    77.748216 
   57000    990.24049   -110.09275    0.8959904   -109.19676     19984.85    4.2700519    4.2700519    4.2700519     19984.85    922.06183    33160.336    25872.154    8266.0407   -4325.7892    43535.081     77.85732 
   57100    1313.5675    -110.3813    1.1885434   -109.19275   -10235.835    4.2867715    4.2867715    4.2867715   -10235.835   -36479.779   -4552.8089    10325.082   -9852.3368   -7587.5753   -30513.285    78.775471 
   57200    1464.1541   -110.50806    1.3247974   -109.18326   -5561.2889    4.2770941    4.2770941    4.2770941   -5561.2889    3851.1473   -17244.136   -3290.8786   -10322.369     5808.047    19061.411    78.243165 
   57300    1045.3897   -110.13346   0.94589061   -109.18757    4478.0892    4.2627663    4.2627663    4.2627663    4478.0892    25294.093   -4439.8367   -7419.9885    3796.3334   -5992.4667    67425.021    77.459479 
   57400    1553.6129   -110.59545    1.4057416   -109.18971   -6723.0435    4.2718849    4.2718849    4.2718849   -6723.0435   -14025.959     5448.064   -11591.235   -1561.5945    -3483.931   -16771.987    77.957632 
   57500    1373.6678   -110.43493    1.2429235   -109.19201    299.85883    4.2785746    4.2785746    4.2785746    299.85883    6208.3876   -395.32048   -4913.4906   -2521.1123    5156.7406    6492.4011    78.324448 
   57600    890.62642   -109.99757    0.8058575   -109.19172   -22204.961    4.2883642    4.2883642    4.2883642   -22204.961    14553.926   -13866.611   -67302.198    556.45562   -3126.5227    63123.267    78.863305 
   57700    1784.4748   -110.78668    1.6146303   -109.17205    119.74409     4.274614     4.274614     4.274614    119.74409   -27483.317     31656.71   -3814.1611   -5006.2267    453.59104    -13500.93    78.107134 
   57800    1338.0298   -110.38973    1.2106775   -109.17905    11263.076    4.2601771    4.2601771    4.2601771    11263.076    30466.355    16272.254   -12949.381   -7516.0534    -2894.651    29328.189    77.318417 
   57900    930.72196   -110.04062   0.84213678   -109.19848   -22805.985    4.2780949    4.2780949    4.2780949   -22805.985    36512.418   -44845.586   -60084.788   -10273.866    2319.0659    62694.541    78.298104 
   58000    1601.8188   -110.63295    1.4493594   -109.18359    -9004.613    4.2858772    4.2858772    4.2858772    -9004.613   -23508.709    6332.3749   -9837.5048    4988.0817   -6805.3106   -21163.416     78.72618 
   58100    1310.4515   -110.37469    1.1857241   -109.18896   -13895.601    4.2724421    4.2724421    4.2724421   -13895.601    3619.5617   -2073.9411   -43232.423    8003.8072   -12191.721    19025.559    77.988137 
   58200    890.12244   -109.99782   0.80540149   -109.19241    2164.1848    4.2638614    4.2638614    4.2638614    2164.1848    37733.813   -19050.173   -12191.086   -9557.8436    6493.9845    64674.917    77.519194 
   58300    1569.3538   -110.60696    1.4199843   -109.18698   -20169.056    4.2852435    4.2852435    4.2852435   -20169.056   -27463.927     -21478.4   -11564.841   -933.16131   -117.37207   -13404.358    78.691263 
   58400    1093.2713   -110.17427   0.98921483   -109.18505   -27661.466     4.288254     4.288254     4.288254   -27661.466   -18759.649    -23385.18    -40839.57    6023.4056   -9885.6636    14403.166    78.857227 
   58500    978.76106   -110.06855   0.88560358   -109.18294    12192.701    4.2574118    4.2574118    4.2574118    12192.701     46759.99   -19767.282    9585.3937   -3394.3798   -2524.9841    52442.994    77.167955 
   58600    1281.7108   -110.35144    1.1597188   -109.19172    14073.918     4.261819     4.261819     4.261819    14073.918      6714.53    20213.656    15293.569    -23733.26   -1377.8262   -113.79552    77.407852 
   58700    1103.8058    -110.1943   0.99874667   -109.19555    878.07684    4.2844271    4.2844271    4.2844271    878.07684   -13433.147     33713.25   -17645.873    3907.7248   -4762.2156    7753.1551    78.646294 
   58800    948.76432   -110.04794    0.8584619   -109.18947   -464.74561    4.2886837    4.2886837    4.2886837   -464.74561    21684.121    19958.467   -43036.825    9667.4995    324.43584    50545.895    78.880935 
   58900    1296.0499   -110.34889    1.1726932    -109.1762    6722.7238    4.2766334    4.2766334    4.2766334    6722.7238   -15757.086    35022.067    903.19095   -16267.461    -6174.771    6610.3567    78.217887 
   59000    890.91771   -109.98749   0.80612107   -109.18136    17996.129    4.2619442    4.2619442    4.2619442    17996.129   -1017.9334    51717.731    3288.5882   -9496.2844    -10171.67   -2188.0504    77.414675 
   59100    1091.7339   -110.17984   0.98782376   -109.19202    4868.1626     4.272558     4.272558     4.272558    4868.1626    26974.475    7390.9894   -19760.976    7603.9104     7039.986    35435.514    77.994484 
   59200    1398.7543   -110.44823    1.2656223    -109.1826   -21229.194    4.2897469    4.2897469    4.2897469   -21229.194   -27317.734   -23825.648   -12544.198   -11815.869    -4848.774     8444.368    78.939614 
   59300    761.03607   -109.88221   0.68860143   -109.19361    -1723.516    4.2677253    4.2677253    4.2677253    -1723.516   -11775.191    12027.181   -5422.5383   -19284.335    -9056.283   -9796.5953    77.730127 
   59400    1111.0453   -110.19795    1.0052971   -109.19265    18803.855    4.2576943    4.2576943    4.2576943    18803.855    30079.618    28259.409   -1927.4607    1476.2282    12943.934    7573.7806    77.183316 
   59500     1413.321   -110.47076    1.2788026   -109.19196   -4984.8183    4.2773273    4.2773273    4.2773273   -4984.8183    -23476.46   -6304.6372    14826.642    23427.923    77.141401    12924.305    78.255964 
   59600    909.78564   -110.01802   0.82319317   -109.19483   -11520.335    4.2821662    4.2821662    4.2821662   -11520.335   -15558.029    -73.82843   -18929.146   -3239.9403   -5713.6966   -12926.342    78.521858 
   59700    1160.9059    -110.2366     1.050412   -109.18619   -1871.5933    4.2755799    4.2755799    4.2755799   -1871.5933    836.62911    19614.309   -26065.718    -14087.65    2089.4953   -20801.824    78.160098 
   59800    1318.0047   -110.37606    1.1925583    -109.1835    12041.029    4.2631576    4.2631576    4.2631576    12041.029   -7294.4002    6076.0253    37341.462     44652.61    1042.5472    9235.3835    77.480814 
   59900     1183.922   -110.26469    1.0712375   -109.19345    6166.6812    4.2680125    4.2680125    4.2680125    6166.6812   -1435.9543    7141.4354    12794.562    18111.079    -4779.503    4816.6335    77.745818 
   60000    1337.9922   -110.39907    1.2106434   -109.18843   -24700.994    4.2884465    4.2884465    4.2884465   -24700.994   -23192.745   -1927.9228   -48982.316   -29489.251   -872.02502   -14470.398    78.867848 
   60100    1015.0186   -110.11518   0.91841013   -109.19677   -12202.438    4.2701892    4.2701892    4.2701892   -12202.438   -9348.6641   -38510.056    11251.406    55047.285     11596.13   -16296.139    77.864831 
   60200    1375.9087    -110.4344    1.2449511   -109.18945    29210.941    4.2495624    4.2495624    4.2495624    29210.941    25538.014    6320.2738    55774.536    42471.335   -4288.8649   -1122.2616    76.741917 
   60300    1798.8249    -110.8217    1.6276146   -109.19409    4878.3662    4.2753393    4.2753393    4.2753393    4878.3662    4932.4519    11916.794   -2214.1477   -30166.734    -9820.944    -93.56746    78.146902 
   60400    660.45811   -109.79953   0.59759638   -109.20194   -7398.5006     4.287408     4.287408     4.287408   -7398.5006    16315.207   -39952.511    1441.8017    47569.442    3585.7059   -15662.935    78.810568 
   60500    1244.0789   -110.31815    1.1256688   -109.19248    15258.079    4.2731424    4.2731424    4.2731424    15258.079    23400.803    8489.7817    13883.653    35199.454   -6274.9102     571.3833    78.026494 
   60600    2117.1402   -111.08678     1.915633   -109.17115    17336.136    4.2663819    4.2663819    4.2663819    17336.136    35758.332    13762.905    2487.1712   -24148.053    1802.1792    2781.5144    77.656745 
   60700    910.10234   -110.01972   0.82347972   -109.19624    1025.8337    4.2714003    4.2714003    4.2714003    1025.8337    18391.956   -27228.602    11914.148    52589.281   -6182.0032   -12253.112    77.931101 
   60800     1142.439   -110.22806    1.0337028   -109.19436   -11903.572    4.2851138    4.2851138    4.2851138   -11903.572   -1106.3681   -17315.721   -17288.627    19509.238   -2902.4818   -13699.728    78.684117 
   60900    1706.9686   -110.72676     1.544501   -109.18226    5766.7603    4.2737806    4.2737806    4.2737806    5766.7603    25703.935    914.31978   -9317.9737   -14118.489    12344.653    8528.5414     78.06146 
   61000    1144.9481   -110.22437    1.0359731    -109.1884    18089.837    4.2564109    4.2564109    4.2564109    18089.837    24412.496   -3012.9937    32870.008    53924.655   -6823.1423    8973.5184    77.113537 
   61100    1260.7677   -110.33757    1.1407691    -109.1968    3413.3483    4.2695588    4.2695588    4.2695588    3413.3483    24954.963   -10469.661   -4245.2569    20553.285    2787.6235   -26911.029     77.83035 
   61200     1398.697   -110.45668    1.2655705   -109.19111   -375.89137    4.2799072    4.2799072    4.2799072   -375.89137    30011.512   -1919.7647   -29219.421   -20511.308    5069.1528   -5524.3199    78.397651 
   61300    1277.2127   -110.34483    1.1556489   -109.18918   -8733.2277    4.2733032    4.2733032    4.2733032   -8733.2277   -19058.615   -4309.7851   -2831.2827    34507.113   -4466.9018    9543.9936    78.035301 
   61400    1290.2265   -110.35578    1.1674241   -109.18835   -4199.1289    4.2673544    4.2673544    4.2673544   -4199.1289    21846.154   -22528.296   -11915.244    21528.496    485.34958   -31000.481    77.709862 
   61500    1316.5191   -110.38071    1.1912142    -109.1895   -3875.6737    4.2678199    4.2678199    4.2678199   -3875.6737     28604.81   -4711.6287   -35520.203   -19478.392    3268.3077    -26387.93    77.735295 
   61600    1377.6738   -110.43788    1.2465482   -109.19133   -20438.575    4.2749504    4.2749504    4.2749504   -20438.575   -42601.443   -1536.0625    -17178.22    25253.028    12058.365    12017.516    78.125576 
   61700    1261.9022   -110.33612    1.1417957   -109.19432   -17590.916    4.2738266    4.2738266    4.2738266   -17590.916    3133.4956   -33307.046   -22599.198    30450.678   -339.93926   -20957.839    78.063979 
   61800    1363.3814   -110.42351    1.2336162    -109.1899   -5274.9652    4.2666269    4.2666269    4.2666269   -5274.9652    41178.084   -22041.298   -34961.681   -13081.488    3065.4652   -36347.043    77.670125 
   61900    1214.8164   -110.29396    1.0991915   -109.19477   -6424.6696    4.2685201    4.2685201    4.2685201   -6424.6696   -6628.0401    15701.013   -28346.982   -1765.2211    15555.972    4061.0737     77.77356 
   62000    1301.4093   -110.37444    1.1775425    -109.1969   -1765.6235    4.2714698    4.2714698    4.2714698   -1765.6235    -2138.429    14092.803   -17251.244    15972.852   -5620.1668   -7756.3715    77.934904 
   62100    1339.4224   -110.40396    1.2119375   -109.19202     4604.339    4.2737359    4.2737359    4.2737359     4604.339     61704.84   -21762.012   -26129.811    739.42985    602.95268   -39207.933     78.05901 
   62200    1061.9284   -110.15362   0.96085513   -109.19276   -4951.4184    4.2730289    4.2730289    4.2730289   -4951.4184   -4907.5766    15047.716   -24994.395   -21800.424     10575.34    450.07407    78.020276 
   62300     1182.749   -110.26328    1.0701762    -109.1931    2986.0732    4.2691714    4.2691714    4.2691714    2986.0732    -3417.245    39523.176   -27147.711    11941.746   -1651.8768    6810.0226    77.809168 
   62400    1731.9096   -110.75259    1.5670682   -109.18553    5977.3876     4.270055     4.270055     4.270055    5977.3876     36217.61    2891.6405   -21177.087    12447.879   -5859.6408   -14916.428    77.857492 
   62500    864.47889   -109.98339   0.78219866   -109.20119   -11162.827    4.2765207    4.2765207    4.2765207   -11162.827   -29547.937    11872.816    -15813.36   -27045.118    17004.119   -8148.2233    78.211702 
   62600    1118.0145   -110.20861     1.011603     -109.197   -15943.695     4.272081     4.272081     4.272081   -15943.695   -31650.993    23995.755   -40175.847   -8178.8897    7590.4537    3146.3155    77.968366 
   62700    1750.9739   -110.76932     1.584318   -109.18501    5718.4888    4.2688086    4.2688086    4.2688086    5718.4888    38864.107    2079.6477   -23788.288    5843.4097   -18001.994    14299.962    77.789335 
   62800    1230.2172   -110.31046    1.1131264   -109.19734   -16766.129    4.2706009    4.2706009    4.2706009   -16766.129   -30151.359     -13729.8   -6417.2291   -22015.778    16829.365    2130.6884    77.887354 
   62900    1000.6841   -110.10815   0.90544002   -109.20271   -2181.9251    4.2639897    4.2639897    4.2639897   -2181.9251   -10179.166     15130.03   -11496.639    -17335.34    28468.594   -5044.1422    77.526188 
   63000    1691.9889   -110.72703    1.5309471   -109.19608   -12773.988    4.2752561    4.2752561    4.2752561   -12773.988    7446.7197   -7441.2004   -38327.484    5712.7476   -1141.1522     28946.65    78.142338 
   63100    1181.6877   -110.26488    1.0692159   -109.19567   -23700.975    4.2788286    4.2788286    4.2788286   -23700.975   -18043.255   -41526.206   -11533.465    3448.3787     3219.866    12130.311    78.338394 
   63200    998.12183   -110.09799   0.90312161   -109.19487   -5129.9318    4.2600402    4.2600402    4.2600402   -5129.9318   -40263.653    11252.465    13621.392   -17968.738    23771.506   -6647.6005    77.310964 
   63300    1666.0435   -110.69686    1.5074711   -109.18939   -4056.2061    4.2707958    4.2707958    4.2707958   -4056.2061   -6250.6844    13318.304   -19236.238   -1762.3374    4643.4793    12926.649    77.898023 
   63400    1318.4584   -110.38251    1.1929689   -109.18954   -20605.563    4.2808592    4.2808592    4.2808592   -20605.563   -17173.625    -20353.16   -24289.904    4933.3432   -10093.782    15035.339    78.449981 
   63500     942.1837    -110.0442   0.85250762   -109.19169    3151.2803    4.2703156    4.2703156    4.2703156    3151.2803    -38141.34     24742.73    22852.452   -8826.8831    16768.914   -606.00805    77.871746 
   63600    1530.9616   -110.56986    1.3852463   -109.18461   -1663.2887    4.2695458    4.2695458    4.2695458   -1663.2887     -861.267   -471.31678   -3657.2824   -5542.0217    13240.074    -19095.06    77.829641 
   63700    1115.4877   -110.20318    1.0093167   -109.19386    5400.4138    4.2629818    4.2629818    4.2629818    5400.4138    14723.661    2563.6277    -1086.047    10142.194   -24270.516   -6030.3537    77.471225 
   63800    1078.6063   -110.18112   0.97594567   -109.20517   -6435.1057    4.2741102    4.2741102    4.2741102   -6435.1057   -41780.795   -15867.973    38343.451    5747.4783   -8351.1153    16007.614    78.079524 
   63900    1462.8732     -110.514    1.3236384   -109.19036    -11020.38    4.2805006    4.2805006    4.2805006    -11020.38   -14438.232   -33042.575    14419.666   -6692.6489    8144.7214   -28698.188    78.430266 
   64000    1014.9789   -110.10769   0.91837428   -109.18931    8338.0405    4.2669762    4.2669762    4.2669762    8338.0405    36426.619   -25811.389    14398.891    1233.4456   -9695.0195   -35285.183    77.689205 
   64100    1140.2437   -110.22109    1.0317165   -109.18938   -9283.1681    4.2736487    4.2736487    4.2736487   -9283.1681   -25038.389    -29056.37    26245.255    2057.8636   -17523.313    17580.622    78.054231 
   64200    1399.4924   -110.44812    1.2662902   -109.18183    744.99487    4.2768485    4.2768485    4.2768485    744.99487    6033.2354   -22171.754    18373.503   -644.46449    8790.9865   -5651.6264     78.22969 
   64300    969.40874   -110.06748    0.8771414   -109.19034   -10554.553    4.2773434    4.2773434    4.2773434   -10554.553    30947.061   -20779.894   -41830.826   -1934.1211    5045.3971   -54202.713    78.256848 
   64400     1388.367   -110.44375    1.2562236   -109.18753   -3681.6671    4.2697392    4.2697392    4.2697392   -3681.6671   -4789.0781   -458.96786   -5796.9553    5200.0912   -16095.733    3444.6066    77.840217 
   64500    1476.3652   -110.52533    1.3358463   -109.18949    1591.3372    4.2689283    4.2689283    4.2689283    1591.3372    13752.099   -139.50888   -8838.5789   -502.05545   -5752.1605   -5594.9704     77.79588 
   64600    904.46546   -110.01552   0.81837935   -109.19714   -27528.848    4.2830564    4.2830564    4.2830564   -27528.848    9059.9722   -32862.978   -58783.539   -2666.8461    21819.398   -61157.023    78.570837 
   64700    1381.7613   -110.43839    1.2502467   -109.18814   -2771.1897    4.2712789    4.2712789    4.2712789   -2771.1897    -14743.61     27761.74   -21331.699   -292.77506      6650.29    3837.0734    77.924459 
   64800    1513.1036   -110.55286    1.3690879   -109.18377    3007.8817    4.2631445    4.2631445    4.2631445    3007.8817    11495.364    8165.0422   -10636.761    9090.0763   -11967.203   -3522.5217    77.480097 
   64900    1024.2271   -110.12319   0.92674218   -109.19645    -8943.874    4.2740878    4.2740878    4.2740878    -8943.874    18920.043   -28280.566   -17471.098    8081.6352     6474.686   -45158.982    78.078296 
   65000    1268.5648   -110.33917    1.1478241   -109.19134   -2245.5583    4.2791452    4.2791452    4.2791452   -2245.5583   -16711.022    35306.128   -25331.781   -10560.491    16705.439   -5482.6068    78.355788 
   65100    1451.2714   -110.49955    1.3131409    -109.1864    3012.4762     4.272017     4.272017     4.272017    3012.4762    10674.902    15427.538   -17065.012   -2633.7506    -5086.641    10050.136    77.964863 
   65200    1226.4045   -110.30033    1.1096765   -109.19065    13896.386    4.2619044    4.2619044    4.2619044    13896.386    37912.667   -13295.884    17072.374    2375.8862   -1498.1695   -17771.702    77.412502 
   65300    1025.9962    -110.1301   0.92834294   -109.20176    6596.0649    4.2715616    4.2715616    4.2715616    6596.0649    1783.3334    36714.376   -18709.515    1645.5156    49111.293    -16637.83    77.939933 
   65400    1578.1417   -110.61903    1.4279358    -109.1911   -4165.0454    4.2794804    4.2794804    4.2794804   -4165.0454   -15225.808     16648.88   -13918.208   -9870.8867    15886.925    12901.213      78.3742 
   65500    1429.7031   -110.48175    1.2936254   -109.18812    12599.677    4.2728521    4.2728521    4.2728521    12599.677    7556.9458    11804.832    18437.255   -9026.7373   -10502.557    6752.0188    78.010593 
   65600    786.74885    -109.9055   0.71186689   -109.19363   -6242.8098    4.2796175    4.2796175    4.2796175   -6242.8098   -12467.887    34083.651   -40344.193     2555.485      50990.6   -12509.514    78.381731 
   65700    1571.8849   -110.60541    1.4222745   -109.18314   -5023.6597    4.2745703    4.2745703    4.2745703   -5023.6597   -16341.437    1967.5539   -697.09624   -7291.9902     13074.24   -7118.0442    78.104738 
   65800    1638.5714    -110.6675    1.4826139   -109.18489    19223.859    4.2599741    4.2599741    4.2599741    19223.859    22617.284    3050.2698    32004.021   -15880.483   -11300.906    9115.7589    77.307365 
   65900    959.63214   -110.07395   0.86829533   -109.20566    668.74886    4.2703703    4.2703703    4.2703703    668.74886    -19213.78    25765.011   -4544.9841   -3189.2895    58671.191    3781.7599     77.87474 
   66000    1173.4808   -110.26114    1.0617901   -109.19935   -3755.1872    4.2792943    4.2792943    4.2792943   -3755.1872   -1591.4008    6827.8334   -16501.994   -2868.8434     15928.44   -10015.331    78.363975 
   66100    1483.0229   -110.53123    1.3418703   -109.18936    868.76813    4.2716656    4.2716656    4.2716656    868.76813    3312.2823    9852.7457   -10558.724   -12476.439   -41499.585   -983.51754    77.945622 
   66200    1291.7879   -110.36061    1.1688369   -109.19177   -2663.4636    4.2678914    4.2678914    4.2678914   -2663.4636   -30626.835     41290.39   -18653.946    6218.7647    39423.877    5604.7367    77.739205 
   66300    1463.5512   -110.51402    1.3242519   -109.18977   -1273.9244    4.2646294    4.2646294    4.2646294   -1273.9244    295.61994    20977.233   -25094.626    2825.2672    34466.325   -4373.1006    77.561086 
   66400    993.63377   -110.10179   0.89906072   -109.20273   -13589.207    4.2688993    4.2688993    4.2688993   -13589.207   -19216.532    11574.615   -33125.703   -14780.348   -53082.377   -7610.0879    77.794289 
   66500    1225.0249    -110.3135    1.1084283   -109.20507   -15123.979    4.2756506    4.2756506    4.2756506   -15123.979   -38911.776    7291.8697   -13752.032   -7997.5927   -13117.841    315.80429    78.163972 
   66600    2040.1333   -111.03446    1.8459555    -109.1885    8856.5051    4.2679391    4.2679391    4.2679391    8856.5051    8492.1174    13375.994    4701.4039    7879.8967    20651.433    3911.6647    77.741811 
   66700    796.38471   -109.92857   0.72058562   -109.20799    9997.6402    4.2670039    4.2670039    4.2670039    9997.6402   -12141.048     37819.73    4314.2391   -2202.4126   -38265.567   -8731.2319    77.690714 
   66800    916.39023   -110.03335   0.82916914   -109.20418   -9671.5837     4.281429     4.281429     4.281429   -9671.5837   -19625.963   -1215.8935   -8172.8948    -9449.227   -26649.793    -1653.368    78.481309 
   66900    2071.7636   -111.04663    1.8745752   -109.17206   -3956.3893    4.2799565    4.2799565    4.2799565   -3956.3893    7792.1433   -17172.755   -2488.5559    6261.1813    18829.666    6937.9832     78.40036 
   67000    1005.3816   -110.09351   0.90969044   -109.18382   -8539.2612     4.272699     4.272699     4.272699   -8539.2612    5987.4603    1901.5101   -33506.754   -3149.6122   -34410.823    -13341.96    78.002209 
   67100    1067.6331    -110.1503   0.96601688   -109.18428   -4505.2761    4.2703622    4.2703622    4.2703622   -4505.2761    25593.558     -12532.9   -26576.487   -13311.142   -40643.882   -1933.0913    77.874297 
   67200    1906.6424    -110.9029    1.7251701   -109.17773   -415.75984    4.2666348    4.2666348    4.2666348   -415.75984    12794.276   -3631.5982   -10409.957    3817.5872    40297.129    7069.7413    77.670556 
   67300    913.34471   -110.02904   0.82641349   -109.20263   -25000.354    4.2707729    4.2707729    4.2707729   -25000.354     -25645.3    13003.022   -62358.783    6237.4137   -7464.3511   -7549.0715    77.896768 
   67400    1099.3526   -110.20091   0.99471731   -109.20619   -5824.3272    4.2631492    4.2631492    4.2631492   -5824.3272    15788.649    11584.825   -44846.455   -1806.5817   -51761.196    -14526.02    77.480352 
   67500    1851.0566   -110.86907    1.6748749   -109.19419     7594.297    4.2716878    4.2716878    4.2716878     7594.297    37889.314   -3071.2435    -12035.18     3942.747    19329.909   -1365.3001    77.946839 
   67600    1133.5923    -110.2269    1.0256982   -109.20121    -6171.286    4.2741307    4.2741307    4.2741307    -6171.286    21984.241    7090.7584   -47588.858     1300.017    4753.7276    2645.6283    78.080647 
   67700    757.35082   -109.89055   0.68526694   -109.20528   -4236.0902    4.2664063    4.2664063    4.2664063   -4236.0902    23336.562     22234.55   -58279.383     1481.486   -52672.992   -15013.529    77.658076 
   67800    1683.3007   -110.71636    1.5230859   -109.19327     6185.351    4.2635271    4.2635271    4.2635271     6185.351    26477.885   -706.92599   -7214.9064     -3483.77   -10898.029   -1427.2644    77.500962 
   67900    1329.5632   -110.40373    1.2030168   -109.20071  -0.32048002    4.2687548    4.2687548    4.2687548  -0.32048002    28233.876   -8651.8233   -19583.015   -4032.3186    11615.816     12795.21    77.786391 
   68000    779.70864    -109.9089   0.70549677   -109.20341   -25601.766    4.2809761    4.2809761    4.2809761   -25601.766   -49887.164    21112.091   -48030.224    1722.2725   -37491.954   -6014.8671    78.456404 
   68100    1484.9922   -110.53344    1.3436522   -109.18979   -1456.8971    4.2663767    4.2663767    4.2663767   -1456.8971   -3517.3365    6240.7165   -7094.0713   -2965.9426    -7512.117    4065.8792    77.656459 
   68200    1269.4121   -110.34207    1.1485908   -109.19348    11186.163    4.2599782    4.2599782    4.2599782    11186.163    33491.337   -19068.916    19136.068   -13521.586    3590.3595    16394.178    77.307588 
   68300    812.90232   -109.93927    0.7355311   -109.20374   -14723.069    4.2745779    4.2745779    4.2745779   -14723.069   -24020.969    14658.644   -34806.881   -619.27153   -43024.194    6954.9082    78.105159 
   68400    1304.4827   -110.37394    1.1803234   -109.19361    449.37786    4.2751829    4.2751829    4.2751829    449.37786   -433.14121    31802.414   -30021.139    6485.0029   -13583.098   -3579.7206    78.138327 
   68500    1545.5952    -110.5871     1.398487   -109.18861   -1081.1502    4.2730984    4.2730984    4.2730984   -1081.1502    4096.9786   -15045.279    7704.8496   -13363.774    16076.753   -808.21404    78.024082 
   68600    954.05927   -110.06273   0.86325288   -109.19948   -3622.0734    4.2667341    4.2667341    4.2667341   -3622.0734   -17260.848    20164.352   -13769.724   -15453.136   -47512.107    9622.2461    77.675982 
   68700    1275.3713   -110.35201    1.1539827   -109.19803    7350.3991    4.2619942    4.2619942    4.2619942    7350.3991    8753.3746    41948.395   -28650.573    3959.8988   -47095.598   -4974.6111    77.417398 
   68800    1744.3587    -110.7734    1.5783324   -109.19507   -14068.009    4.2774526    4.2774526    4.2774526   -14068.009   -15634.788   -28069.071    1499.8327   -2006.9468    21619.936   -14429.633    78.262843 
   68900    824.35764   -109.95338   0.74589612   -109.20748   -12210.357     4.273706     4.273706     4.273706   -12210.357   -38757.969    1375.5208    751.37606   -18498.791    -35522.84    675.25158    78.057371 
   69000    1005.9684   -110.11547   0.91022131   -109.20525    9157.4286     4.258945     4.258945     4.258945    9157.4286   -21124.082    43996.043    4600.3247   -6731.5476   -59292.373    4202.4197    77.251354 
   69100    1932.1773   -110.94418    1.7482747    -109.1959     8325.272    4.2690946    4.2690946    4.2690946     8325.272    13660.357   -7401.8197    18717.278    2762.8452    22484.048   -1363.0424    77.804967 
   69200    1057.2325   -110.16074   0.95660615   -109.20414     1418.504    4.2765235    4.2765235    4.2765235     1418.504   -10018.225    5749.7376    8523.9994   -8079.8427   -32932.157   -8215.7738    78.211857 
   69300    892.76964   -110.00741   0.80779673   -109.19961   -3423.9393    4.2719553    4.2719553    4.2719553   -3423.9393   -48719.204    47034.979   -8587.5924   -2759.8023   -54133.381    4575.0748    77.961485 
   69400    1626.3221   -110.65342    1.4715304   -109.18189    8275.7536    4.2694762    4.2694762    4.2694762    8275.7536    19969.152   -2168.9526    7027.0618    2947.3195    31020.716   -1288.3342    77.825834 
   69500    1071.7801   -110.16146   0.96976918   -109.19169   -3034.4376    4.2675924    4.2675924    4.2675924   -3034.4376    13510.754    4487.3074   -27101.375    1319.7445   -14306.179   -19990.746    77.722862 
   69600    839.73416   -109.96225   0.75980912   -109.20244   -11435.447    4.2683356    4.2683356    4.2683356   -11435.447   -17574.179    21870.202   -38602.365   -11349.841    -65575.75   -3838.2372    77.763478 
   69700    1691.2263   -110.72289    1.5302571   -109.19263    7759.2832      4.26807      4.26807      4.26807    7759.2832    23913.531   -5032.5554     4396.874   -9948.4041     5196.235    3793.8835    77.748961 
   69800    1234.8455    -110.3207    1.1173142   -109.20338    7807.1134    4.2686014    4.2686014    4.2686014    7807.1134    41428.621   -1725.4368   -16281.844    10967.202   -3129.1156   -9418.5646    77.778006 
   69900    356.32498   -109.53609   0.32241033   -109.21368   -11602.391    4.2704544    4.2704544    4.2704544   -11602.391   -15311.787    22050.402   -41545.789   -6361.3738   -58920.233   -15037.271    77.879342 
   70000    1402.9155   -110.46771    1.2693874   -109.19833    195.73117    4.2660169    4.2660169    4.2660169    195.73117   -6218.8372    1679.7464    5126.2843   -8660.3748    5333.4012    9026.8185    77.636814 
   70100     1305.834   -110.37579     1.181546   -109.19425   -11649.621    4.2750576    4.2750576    4.2750576   -11649.621    113.41725   -18762.667   -16299.612    4351.1615   -9300.9307    2867.8632    78.131452 
   70200    529.59051      -109.68   0.47918463   -109.20081   -18138.033     4.273946     4.273946     4.273946   -18138.033   -28653.946    6764.8592   -32525.013   -2165.4773   -60595.685    -20548.29    78.070524 
   70300     1195.911   -110.27235    1.0820854   -109.19027    6443.6039    4.2610645    4.2610645    4.2610645    6443.6039    5141.6703    8372.5642    5816.5773   -4126.0101    1746.4394   -1619.9141    77.366746 
   70400    1317.4468   -110.38626    1.1920536   -109.19421    593.40129    4.2648057    4.2648057    4.2648057    593.40129     9116.726   -3230.8071    -4105.715    -6090.718    5761.1261    20948.237    77.570705 
   70500    487.34537   -109.65019   0.44096033   -109.20923    7939.3985    4.2697053    4.2697053    4.2697053    7939.3985    32412.658    3553.4661   -12147.929     4063.688   -50701.769    -4921.123    77.838364 
   70600    1093.3399   -110.18875    0.9892769   -109.19947    4934.5856    4.2772619    4.2772619    4.2772619    4934.5856     10228.64   -13266.832    17841.949    2560.3306   -10226.809   -29030.264    78.252373 
   70700    1506.0508   -110.55265    1.3627064   -109.18994    5502.8893    4.2685893    4.2685893    4.2685893    5502.8893    1104.6945    1686.3667    13717.607   -3883.4426    6731.2277    3812.2016    77.777344 
   70800    572.61922   -109.72015    0.5181179   -109.20204    12358.877    4.2580487    4.2580487    4.2580487    12358.877   -5036.1111    24803.547    17309.197    5941.4358   -57921.968    14265.626    77.202592 
   70900    869.01224   -109.98955   0.78630053   -109.20325   -13047.541    4.2744987    4.2744987    4.2744987   -13047.541    11785.093   -23296.493   -27631.222    -603.8679   -22420.613   -23119.955    78.100816 
   71000    1508.9447   -110.55147    1.3653249   -109.18614   -998.36125    4.2757339    4.2757339    4.2757339   -998.36125   -1995.7968   -14433.465    13434.178    517.95685    20345.102   -12992.358     78.16854 
   71100    799.39245   -109.91955   0.72330709   -109.19624    -13343.45    4.2690872    4.2690872    4.2690872    -13343.45   -31957.075    19999.285   -28072.561   -516.54785   -48452.391    14696.315    77.804563 
   71200     859.4864   -109.97708   0.77768136    -109.1994   -1177.6465    4.2591344    4.2591344    4.2591344   -1177.6465    26392.071    -9505.451   -20419.559   -650.73726   -21533.814   -8870.6256    77.261658 
   71300    1541.6391   -110.58863    1.3949075   -109.19372    15802.829    4.2643958    4.2643958    4.2643958    15802.829    28654.712   -24447.554    43201.329    4968.7296    13488.046   -18147.881     77.54834 
   71400    905.38108   -110.02139   0.81920782   -109.20218   -16581.478    4.2807538    4.2807538    4.2807538   -16581.478   -23067.204    9036.1928   -35713.423   -826.07174   -44063.349   -1114.1881    78.444185 
   71500    828.14227   -109.95078   0.74932053   -109.20146    7930.3333    4.2644579    4.2644579    4.2644579    7930.3333    26873.241    10802.612   -13884.854   -156.00198   -20642.931     7664.515    77.551732 
   71600     1638.179   -110.66964    1.4822588   -109.18738    22750.767    4.2583046    4.2583046    4.2583046    22750.767    49277.786   -17027.457    36001.971    3059.3921    20733.121    718.60095    77.216509 
   71700    1169.0011   -110.25758    1.0577367   -109.19984   -1420.5184    4.2684755    4.2684755    4.2684755   -1420.5184    9194.6381    10696.547    -24152.74    1486.3415   -50560.814   -3773.9558    77.771124 
   71800    739.68606   -109.87304    0.6692835   -109.20375   -3193.0736    4.2739412    4.2739412    4.2739412   -3193.0736   -20904.913    15642.492      -4316.8   -2269.0773   -36078.936    4731.9948    78.070258 
   71900    1606.0392   -110.64385     1.453178   -109.19067   -10414.034    4.2715177    4.2715177    4.2715177   -10414.034   -182.42503   -16094.706   -14964.971   -6440.4849    42320.579    8328.0332    77.937528 
   72000    1085.8327   -110.17972   0.98248428   -109.19724    8646.8128    4.2585144    4.2585144    4.2585144    8646.8128   -292.34165    24809.784    1422.9956   -273.90318   -44436.618    2120.0054    77.227922 
   72100    1125.0848   -110.22144    1.0180004   -109.20344    3770.8526    4.2630331    4.2630331    4.2630331    3770.8526   -26164.291    31227.124    6249.7249   -96.471959   -59711.905   -3097.4469    77.474026 
   72200    1716.0434   -110.74555    1.5527122   -109.19284   -1383.9809    4.2768626    4.2768626    4.2768626   -1383.9809    -1987.671   -9349.4659    7185.1941   -2381.2174    35963.076     3139.864    78.230463 
   72300    979.02686    -110.0864   0.88584407   -109.20055    8789.4832    4.2694312    4.2694312    4.2694312    8789.4832   -30320.492    23249.531    33439.411    648.10093   -25745.865    6943.5907    77.823375 
   72400    1005.8938   -110.11178   0.91015388   -109.20163    2186.7167    4.2641468    4.2641468    4.2641468    2186.7167   -20503.077    27590.826   -527.59902   -3229.4831    -66594.43   -1119.4712    77.534757 
   72500    1709.8194    -110.7385    1.5470805   -109.19142    16839.909    4.2634238    4.2634238    4.2634238    16839.909     13335.36   -8900.5137    46084.881   -4121.4321    18284.281   -12706.814    77.495329 
   72600    1275.7223    -110.3552    1.1543004    -109.2009   -8456.4643    4.2738744    4.2738744    4.2738744   -8456.4643   -37744.459    2960.4633    9414.6028    -7348.229   -26676.641   -5279.8054    78.066597 
   72700    992.03612   -110.09962   0.89761513     -109.202   -11544.637    4.2729983    4.2729983    4.2729983   -11544.637   -35785.285    25894.573   -24743.198    988.24011   -53038.843     3955.511    78.018599 
   72800    1625.5008   -110.65934    1.4707873   -109.18855    14492.676    4.2591534    4.2591534    4.2591534    14492.676    25029.533   -11328.694    29777.189    1117.5745    18370.918   -18058.847    77.262695 
   72900    1228.3646   -110.30925    1.1114501    -109.1978    -13783.18    4.2697746    4.2697746    4.2697746    -13783.18   -17719.433   -17183.162   -6446.9437   -15127.067   -22660.826   -14104.374    77.842154 
   73000    1016.2902   -110.12201   0.91956069   -109.20245    -6158.892    4.2709166    4.2709166    4.2709166    -6158.892    -39370.88    18119.955    2774.2494   -4011.3605   -53900.542    9918.1247     77.90463 
   73100    1787.3787   -110.80224    1.6172578   -109.18499   -4182.1537    4.2752025    4.2752025    4.2752025   -4182.1537    162.58062   -21147.007    8437.9659    3118.8076    15395.297    -14128.07    78.139398 
   73200    1255.7448   -110.32952    1.1362242    -109.1933   -10617.431    4.2724032    4.2724032    4.2724032   -10617.431   -13336.378   -17357.744   -1158.1703   -12098.296   -11102.379    -17466.23     77.98601 
   73300    925.82351    -110.0326   0.83770457   -109.19489    12514.559    4.2572189    4.2572189    4.2572189    12514.559    6348.7303    21638.423    9556.5238   -5659.0031   -52353.848    3250.2994    77.157465 
   73400    1641.1313    -110.6795    1.4849301   -109.19457   -422.18079    4.2722539    4.2722539    4.2722539   -422.18079   -272.85616    -17736.35    16742.663    13999.272     250.9577   -1695.2008    77.977833 
   73500    1595.6505   -110.64015    1.4437781   -109.19637    1919.3025    4.2698434    4.2698434    4.2698434    1919.3025    15329.646   -11052.386    1480.6474    3973.8905    2103.4016   -10127.874    77.845918 
   73600    843.55611   -109.96696    0.7632673   -109.20369    5109.6771    4.2637846    4.2637846    4.2637846    5109.6771   -1134.6518    16087.419    376.26371   -20611.317   -60688.606   -7489.6945    77.515005 
   73700    1454.1211   -110.51512    1.3157193    -109.1994   -16490.199    4.2727381    4.2727381    4.2727381   -16490.199   -39470.222   -28105.281    18104.904    8828.7755   -3988.0942    9630.7562    78.004352 
   73800    1603.4145   -110.64086    1.4508032   -109.19006    11188.904    4.2672104    4.2672104    4.2672104    11188.904    14936.026    -3822.242    22452.929    21061.446    14788.176   -2063.2193    77.701997 
   73900    953.71096   -110.06249   0.86293772   -109.19955   -3236.6819    4.2723123    4.2723123    4.2723123   -3236.6819   -19422.957    15272.953   -5560.0425   -16068.231   -61880.162   -8533.8534    77.981031 
   74000    1394.9564   -110.45705    1.2621858   -109.19487   -4783.1889    4.2699675    4.2699675    4.2699675   -4783.1889   -18696.589   -9062.5832    13409.605   -7569.6651   -16057.557    11.190566    77.852706 
   74100    1599.9708    -110.6351    1.4476872   -109.18741    14541.308    4.2628608    4.2628608    4.2628608    14541.308    38056.175   -15233.881    20801.629    22953.079    5057.7021    5199.2721    77.464632 
   74200    939.29543    -110.0507   0.84989425    -109.2008    -3701.021    4.2725936    4.2725936    4.2725936    -3701.021   -27923.076    19216.312   -2396.2996    8186.5972   -57763.204   -3157.8965    77.996436 
   74300    1482.7365   -110.53085    1.3416111   -109.18924   -1147.7637    4.2749658    4.2749658    4.2749658   -1147.7637    6850.9185   -2531.1508   -7763.0586   -18818.745   -10544.746   -13399.111    78.126424 
   74400     1408.765   -110.45803    1.2746801   -109.18335   -2116.7088    4.2748855    4.2748855    4.2748855   -2116.7088    22753.494    -29599.73    496.10924    9460.6561    5426.8529    9235.4325    78.122021 
   74500    797.53846   -109.91654   0.72162956   -109.19491   -9057.3628    4.2669384    4.2669384    4.2669384   -9057.3628   -30913.273      20775.3   -17034.115    22034.481    -53939.65    5627.7087    77.687138 
   74600    1459.1265   -110.51299    1.3202483   -109.19274    24609.691    4.2617456    4.2617456    4.2617456    24609.691    36083.675    17351.408    20393.989   -3554.5082   -15174.418   -7742.8759    77.403851 
   74700    1670.3078   -110.70543    1.5113296    -109.1941   -2037.8425      4.27793      4.27793      4.27793   -2037.8425    15669.819   -33665.072    11881.726   -638.55043    17083.318   -1405.2264    78.289051 
   74800    543.82508   -109.70253   0.49206436   -109.21046   -12850.573    4.2764327    4.2764327    4.2764327   -12850.573    -22168.44   -11103.577   -5279.7009    18621.811   -46396.504    7483.3693    78.206873 
   74900     1219.405       -110.3    1.1033433   -109.19666    18955.947    4.2599603    4.2599603    4.2599603    18955.947     32667.81    14952.218    9247.8135   -1138.2336    -31396.97    3701.3583    77.306615 
   75000    1945.7729   -110.95179    1.7605763   -109.19122     5669.079    4.2686741    4.2686741    4.2686741     5669.079    16588.296     -10277.2    10696.141   -5584.7285    26014.729   -9548.0675    77.781979 
   75100    724.67126   -109.86035   0.65569779   -109.20466    -20940.77    4.2813793    4.2813793    4.2813793    -20940.77   -43191.565    3928.4728   -23559.218    23101.829   -36717.389    7104.2422    78.478578 
   75200    872.40311    -109.9885   0.78936867   -109.19913    12348.892    4.2673179    4.2673179    4.2673179    12348.892   -297.44117    21492.925    15851.192    7851.9736    -34346.79    4694.7923    77.707869 
   75300    1911.2092    -110.9078    1.7293022    -109.1785    7657.1569    4.2685676    4.2685676    4.2685676    7657.1569    10435.289   -8570.1477     21106.33   -12204.192    27862.868   -11216.125    77.776157 
   75400    811.52433   -109.92885   0.73428427   -109.19457   -8877.0032    4.2762784    4.2762784    4.2762784   -8877.0032   -36558.053    1663.8723    8263.1706    19201.377   -29143.412    6903.2434    78.198409 
   75500    589.74696    -109.7333   0.53361545   -109.19968   -1061.7405    4.2725417    4.2725417    4.2725417   -1061.7405   -11718.261     6375.045     2157.994    18555.632   -35380.917    1816.0923    77.993593 
   75600    1645.1611    -110.6738    1.4885763   -109.18522    9586.2032    4.2667431    4.2667431    4.2667431    9586.2032    31228.927    -5593.223    3122.9061   -8507.1407    14690.558   -16465.386     77.67647 
   75700    1115.8134   -110.20658    1.0096115   -109.19697    11309.029    4.2644795    4.2644795    4.2644795    11309.029   -5861.2187    29381.938    10406.368    7050.2969   -23697.222   -2972.5094    77.552907 
   75800    594.28335   -109.74462   0.53772006    -109.2069   -11924.715    4.2738396    4.2738396    4.2738396   -11924.715   -29573.891    15765.687   -21965.941    27737.486   -38141.037    13926.861    78.064695 
   75900    1384.9892   -110.44487    1.2531674   -109.19171   -5012.6195    4.2723943    4.2723943    4.2723943   -5012.6195    6150.1873   -6341.2396   -14846.806   -1882.8869    11127.379   -7890.2312    77.985522 
   76000    1277.6109   -110.34656    1.1560092   -109.19055   -1417.9774    4.2693711    4.2693711    4.2693711   -1417.9774      4550.46    12396.375   -21200.767   -6635.0683   -9942.9836   -20859.078     77.82009 
   76100    645.10518   -109.78541   0.58370472    -109.2017   -20870.536    4.2700628    4.2700628    4.2700628   -20870.536   -38534.894   -481.85481   -23594.859    32002.696   -49251.323    5943.3291    77.857915 
   76200    1157.3432   -110.24758    1.0471884   -109.20039    7955.2429    4.2643433    4.2643433    4.2643433    7955.2429    19930.291   -2860.2429    6795.6809    15838.832   -5662.9485    9537.6501    77.545476 
   76300    1571.4881   -110.61349    1.4219155   -109.19157    5546.4556    4.2731342    4.2731342    4.2731342    5546.4556    19348.966    10755.495   -13465.094   -10878.837    5812.8768   -9824.8642    78.026043 
   76400      725.807   -109.85937   0.65672543   -109.20264   -14200.832    4.2751665    4.2751665    4.2751665   -14200.832   -5573.0988   -10242.379   -26787.018    22845.026   -43829.507   -7731.8972    78.137425 
   76500    839.97728   -109.96203   0.76002909     -109.202    5412.1842    4.2652473    4.2652473    4.2652473    5412.1842      13732.9   -6685.3977    9189.0505    31068.894   -10541.643    12321.239    77.594808 
   76600    1696.0386   -110.72264    1.5346114   -109.18803   -1626.4425    4.2689679    4.2689679    4.2689679   -1626.4425    9802.5227   -9723.9333   -4957.9168   -4768.9972    11700.615    7921.2093    77.798042 
   76700    1006.7349   -110.11204   0.91091488   -109.20113   -1794.3786    4.2698525    4.2698525    4.2698525   -1794.3786   -17820.051    17345.243   -4908.3279   -2248.1538   -37987.543    -16239.71    77.846415 
   76800    649.19259   -109.79497    0.5874031   -109.20757    9617.8289    4.2677798    4.2677798    4.2677798    9617.8289   -24404.904     19634.71     33623.68    34454.266   -24307.523    4279.0932    77.733102 
   76900    1696.0369    -110.7288    1.5346098   -109.19419    3080.8309    4.2723825    4.2723825    4.2723825    3080.8309   -5376.9893    2791.5941    11827.888    2544.4149    15556.503    10434.471    77.984876 
   77000    1394.4923   -110.45918    1.2617659   -109.19742    10295.054     4.266824     4.266824     4.266824    10295.054   -20698.331    34572.606    17010.887   -7055.5644   -25403.506   -834.62779    77.680888 
   77100    781.17774   -109.91385   0.70682603   -109.20702    7888.4002    4.2647598    4.2647598    4.2647598    7888.4002   -25616.321    37528.574    11752.947    39646.161   -34941.736   -2898.8825      77.5682 
   77200    1403.8389   -110.46943    1.2702229   -109.19921    -868.7813    4.2727563    4.2727563    4.2727563    -868.7813   -9974.3565   -1310.4631    8678.4756    19118.505    15282.229    -1072.146    78.005346 
   77300    1564.1904   -110.60795    1.4153124   -109.19264    11469.243     4.266727     4.266727     4.266727    11469.243   -3240.2824    24717.519    12930.491   -17678.742   -18281.226     8066.794    77.675593 
   77400    851.43075   -109.97435   0.77039244   -109.20395    2098.1851    4.2671108    4.2671108    4.2671108    2098.1851   -18110.551    25353.715    -948.6087    23303.091   -37621.603   -3131.7132    77.696556 
   77500    1349.0031   -110.41648    1.2206063   -109.19588   -4369.3996    4.2725703    4.2725703    4.2725703   -4369.3996   -16533.671   -3548.6939    6974.1656    27407.968   -873.74551   -4608.1071     77.99516 
   77600    1537.1939   -110.58068    1.3908854   -109.18979    9585.0876    4.2676567    4.2676567    4.2676567    9585.0876    9494.9014    11334.768    7925.5936   -9777.9192    3201.5254    11931.483    77.726378 
   77700    961.16956   -110.06614   0.86968641   -109.19646   -7705.2295    4.2735096    4.2735096    4.2735096   -7705.2295    -31782.75    15552.076    -6885.014    8321.9346   -25410.285    4517.1235    78.046612 
   77800    1320.5716   -110.38333    1.1948809   -109.18845   -11851.019    4.2735642    4.2735642    4.2735642   -11851.019   -37033.674   -4784.4663     6265.084    24975.373   -15442.676   -11155.353    78.049605 
   77900    1192.9858   -110.27134    1.0794386    -109.1919    3833.8656     4.262222     4.262222     4.262222    3833.8656    85.810974    12940.672    -1524.886    1974.6409    28397.726   -10317.284     77.42981 
   78000    1042.4199   -110.14393   0.94320341   -109.20072    2053.8463     4.265066     4.265066     4.265066    2053.8463    -20317.06     22738.96     3739.639   -8762.5768   -4722.5991    6519.4455    77.584913 
   78100    1446.1885   -110.50171    1.3085417   -109.19317   -7810.1402    4.2788128    4.2788128    4.2788128   -7810.1402   -39512.072   -12171.301    28252.952    2842.5136   -17342.264    1715.2054    78.337525 
   78200    916.89146    -110.0278   0.82962267   -109.19817   -9213.7538    4.2745725    4.2745725    4.2745725   -9213.7538   -23299.625     17683.29   -22024.927    7617.3387    34827.153   -16781.568     78.10486 
   78300     745.3034   -109.87388   0.67436618   -109.19952     6307.905    4.2637273    4.2637273    4.2637273     6307.905    909.86204    44228.365   -26214.512   -4558.2683    21549.971   -186.67874    77.511878 
   78400    1647.4639   -110.67765      1.49066   -109.18699    2575.3847    4.2693542    4.2693542    4.2693542    2575.3847   -19147.388     8687.517    18186.025    1052.8743    -8653.055     12048.93    77.819162 
   78500    1064.4494   -110.16085   0.96313621   -109.19772   -2975.4851    4.2721066    4.2721066    4.2721066   -2975.4851   -27216.798    43768.543     -25478.2    2426.7339    16642.382    -16125.94    77.969766 
   78600    648.70341      -109.79   0.58696048   -109.20304   -13705.009    4.2730909    4.2730909    4.2730909   -13705.009   -26754.971    39460.134    -53820.19   -915.63511    33576.585   -18009.274    78.023671 
   78700    1469.1601   -110.52112    1.3293269   -109.19179   -2512.1408    4.2648785    4.2648785    4.2648785   -2512.1408   -17996.396   -160.18877    10620.163   -5132.9213   -2879.1684    13145.445     77.57468 
   78800    1135.6078    -110.2245    1.0275218   -109.19697    11307.353    4.2612913    4.2612913    4.2612913    11307.353   -8981.3967    40651.873     2251.582    -3914.886   -15238.434    -4895.262      77.3791 
   78900    813.13409   -109.93928   0.73574081   -109.20354   -14250.758    4.2779647    4.2779647    4.2779647   -14250.758   -22457.627    12436.664   -32731.311     7209.125    25164.609   -23135.486    78.290954 
   79000    1440.1315    -110.4891    1.3030613   -109.18603   -8823.1224    4.2755616    4.2755616    4.2755616   -8823.1224   -17306.941    -14732.44    5570.0143   -8007.5705    10193.674    3181.3755    78.159092 
   79100    996.38603   -110.09151   0.90155102   -109.18996    7123.9228    4.2620647    4.2620647    4.2620647    7123.9228   -6312.7882    13634.925    14049.631     -17100.1   -32733.882    2733.4952    77.421241 
   79200    939.87759   -110.04926     0.850421   -109.19884    4712.8193     4.261923     4.261923     4.261923    4712.8193   -3402.9781    14320.587    3220.8494    6598.8926   -7664.2182   -19051.588    77.413519 
   79300    1570.9074   -110.61222      1.42139   -109.19083    2328.3594    4.2695505    4.2695505    4.2695505    2328.3594    18448.577   -15075.915    3612.4158   -3751.5557    9808.1957   -18793.279      77.8299 
   79400    815.22885   -109.94323   0.73763619    -109.2056   -23637.829    4.2755312    4.2755312    4.2755312   -23637.829   -46178.611   -26228.599    1493.7227   -10258.184   -15204.231    15910.318    78.157426 
   79500     687.0568   -109.82897   0.62166343   -109.20731   -6699.4277    4.2643502    4.2643502    4.2643502   -6699.4277   -22781.178    5555.3768   -2872.4818    1008.3642    -30473.81    123.12864    77.545857 
   79600    1808.6315   -110.82549    1.6364878     -109.189    13720.745    4.2649693    4.2649693    4.2649693    13720.745    34653.097   -1975.1695    8484.3062   -488.61573    5481.5741   -13915.963    77.579636 
   79700    847.78484   -109.97007   0.76709354   -109.20298   -10597.299    4.2777434    4.2777434    4.2777434   -10597.299   -13613.296   -24576.846    6398.2455   -7089.7247    1589.8932    14472.971    78.278808 
   79800    667.45179   -109.80174   0.60392441   -109.19782   -2948.6048    4.2738625    4.2738625    4.2738625   -2948.6048   -2417.7102   -16257.115    9829.0104   -11741.242   -37830.156    6323.1872     78.06595 
   79900    1661.1508   -110.68355    1.5030442    -109.1805    3650.9654    4.2689627    4.2689627    4.2689627    3650.9654   -3158.9239    9203.7237    4908.0965   -1348.1254    15944.382   -3650.7131    77.797757 
   80000    1113.4762   -110.20161    1.0074966   -109.19412    12471.313    4.2591374    4.2591374    4.2591374    12471.313     6729.455    14451.712    16232.772    2353.9747    37548.424    5430.8116    77.261825 
   80100    995.42838   -110.10417   0.90068452   -109.20348   -3000.7557    4.2679538    4.2679538    4.2679538   -3000.7557    -25090.18   -5661.6765     21749.59   -10935.017   -28355.622    13632.771    77.742611 
   80200    1334.8701   -110.39951    1.2078185   -109.19169    -22114.09     4.281133     4.281133     4.281133    -22114.09   -42133.882   -17275.086   -6933.3024   -9025.8831    2244.7186   -2761.9582    78.465031 
   80300    1103.2329   -110.18913   0.99822833    -109.1909    6981.2095    4.2641425    4.2641425    4.2641425    6981.2095    8569.5106    21876.184    -9502.066    7280.7772    52929.646    -12786.09    77.534523 
   80400    1291.9297   -110.36077    1.1689652    -109.1918    10858.143    4.2623481    4.2623481    4.2623481    10858.143    13504.217    2922.0953    16148.116   -13651.687   -5029.0785    20460.843    77.436684 
   80500    1409.8703   -110.46822    1.2756802   -109.19254    4176.2442     4.268637     4.268637     4.268637    4176.2442    8178.0501   -19311.623    23662.306    -16526.45   -11131.623    5847.1227    77.779952 
   80600    925.36375   -110.03942   0.83728856   -109.20213    4916.2996    4.2720119    4.2720119    4.2720119    4916.2996     21487.37    12354.433   -19092.904    4000.5103    39009.727   -32862.306    77.964582 
   80700    1339.0688   -110.40819    1.2116175   -109.19657   -1929.9671    4.2731772    4.2731772    4.2731772   -1929.9671    9460.7745   -10745.261   -4505.4147   -4832.3996    15797.399     12289.37      78.0284 
   80800    1685.0397   -110.71356    1.5246594    -109.1889    14106.787    4.2618594    4.2618594    4.2618594    14106.787    25968.635   -13843.744     30195.47   -9355.3564   -14603.965    20060.579    77.410052 
   80900    1090.2357   -110.18921   0.98646818   -109.20275   -11625.762    4.2674736    4.2674736    4.2674736   -11625.762   -22157.966    4764.7345   -17484.053   -10085.663    44176.637   -26801.341    77.716374 
   81000    1181.5705   -110.27172    1.0691098   -109.20261   -9994.7995    4.2735522    4.2735522    4.2735522   -9994.7995   -16995.141    -4141.343   -8847.9142    4963.0081    39256.997   -13485.685    78.048947 
   81100    1927.9665   -110.93368    1.7444646   -109.18921    3817.2263    4.2682912    4.2682912    4.2682912    3817.2263   -456.25236   -9844.0114    21751.943   -4120.5253   -16434.736    18186.524    77.761049 
   81200    1121.2605     -110.215    1.0145401   -109.20046   -8205.6614    4.2696995    4.2696995    4.2696995   -8205.6614   -37432.291    1454.9448    11360.362    -20324.23    27102.759   -5557.5368    77.838049 
   81300    894.56556   -110.01543   0.80942172   -109.20601   -8253.5898    4.2707748    4.2707748    4.2707748   -8253.5898    -16908.28    5012.9236   -12865.413   -13.658834    36923.421   -34668.252    77.896874 
   81400    1880.2376   -110.89374    1.7012785   -109.19246    7060.3028    4.2685874    4.2685874    4.2685874    7060.3028    5070.5587   -2365.2825    18475.632   -1720.4463   -13451.513    2359.3871    77.777241 
   81500    1621.9127   -110.66745    1.4675407   -109.19991    1632.9564    4.2632659    4.2632659    4.2632659    1632.9564   -22701.014    1964.5532     25635.33     -14387.2    24038.359     13932.37    77.486717 
   81600    559.11482   -109.72325   0.50589884   -109.21735   -3170.4321    4.2662248    4.2662248    4.2662248   -3170.4321    4565.1371    9891.2498   -23967.683   -9027.9732    44339.719   -27101.751    77.648168 
   81700    1487.5946   -110.55272    1.3460069   -109.20671   -3469.0646    4.2742605    4.2742605    4.2742605   -3469.0646    1692.0956   -13481.014     1381.725   -3097.1783   -8730.5622   -15741.772    78.087759 
   81800    1815.4408   -110.83771     1.642649   -109.19506    14173.435    4.2675052    4.2675052    4.2675052    14173.435    17736.421     -2642.66    27426.544    4734.2057   -3256.5067    16092.858    77.718102 
   81900    880.42397   -110.00491   0.79662611   -109.20829    4546.9013    4.2621095    4.2621095    4.2621095    4546.9013    10839.097   -394.22933    3195.8358   -9056.0874    42569.607   -15979.059    77.423681 
   82000    970.80037   -110.08933   0.87840057   -109.21093    -8823.922    4.2699377    4.2699377    4.2699377    -8823.922   -6571.6593    -15980.33   -3919.7773   -13342.303    13860.377   -36291.898    77.851078 
   82100    1794.4795   -110.81815    1.6236828   -109.19447    7528.7529    4.2675321    4.2675321    4.2675321    7528.7529    19790.646   -8768.8625    11564.475    2362.3286   -15236.689    9474.1224     77.71957 
   82200    1115.2946   -110.21317     1.009142   -109.20403   -624.76116    4.2715004    4.2715004    4.2715004   -624.76116   -15529.325   -5520.7967    19175.838   -3473.2481     21997.67    9412.9873    77.936583 
   82300    742.21579   -109.87814   0.67157245   -109.20657   -22927.562    4.2730478    4.2730478    4.2730478   -22927.562   -19023.087    -11756.83   -38002.769   -11265.178    28091.818   -40843.018    78.021312 
   82400    1495.0581   -110.54349      1.35276   -109.19073    14288.941    4.2601166    4.2601166    4.2601166    14288.941    17447.724    4423.5139    20995.585   -5058.8309   -10461.416   -7719.6479    77.315122 
   82500    1421.1225   -110.48113    1.2858615   -109.19527    -584.1734    4.2714083    4.2714083    4.2714083    -584.1734   -14990.297   -465.96599    13703.743    5744.7552    14112.131    23355.464    77.931542 
   82600    763.11962   -109.89399   0.69048667    -109.2035   -5911.5668    4.2726309    4.2726309    4.2726309   -5911.5668   -1520.0622    14849.966   -31064.605   -7022.7084    41227.552   -16676.984    77.998477 
   82700    1255.1988   -110.33211    1.1357302   -109.19638    13605.679    4.2612808    4.2612808    4.2612808    13605.679    24647.455    4423.4947    11746.087   -15688.713   -8965.0372   -19815.813    77.378529 
   82800    1448.9678    -110.5075    1.3110565   -109.19644   -14270.713    4.2707394    4.2707394    4.2707394   -14270.713    -23837.46    2207.0034   -21181.683   -96.315743   -15638.285    7333.7478    77.894932 
   82900     902.9808   -110.02079   0.81703601   -109.20375   -1405.0753    4.2657582    4.2657582    4.2657582   -1405.0753   -13591.418    36436.464   -27060.272    3907.1179    48814.384   -2919.7692    77.622691 
   83000    1323.3608   -110.39707    1.1974046   -109.19966    560.40955    4.2675655    4.2675655    4.2675655    560.40955   -6959.1453   -2839.7805    11480.154   -12563.406    15307.144   -13389.537    77.721395 
   83100    1453.7928   -110.50782    1.3154223    -109.1924   -20811.863    4.2771656    4.2771656    4.2771656   -20811.863   -30139.946   -8900.1465   -23395.498   -6182.9002   -27850.338   -2961.0788    78.247088 
   83200    629.21178    -109.7703   0.56932404   -109.20098   -8846.2945    4.2656796    4.2656796    4.2656796   -8846.2945   -54643.438    40949.209   -12844.655    5483.6344    45393.545    9530.3644      77.6184 
   83300     1308.811   -110.38677    1.1842397   -109.20253    5521.9007    4.2655895    4.2655895    4.2655895    5521.9007   -34650.374    12169.548    39046.528   -1088.9202     27464.12   -744.56806    77.613484 
   83400     1908.248    -110.9189    1.7266229   -109.19228    11636.679    4.2687748    4.2687748    4.2687748    11636.679   -5340.5706     1106.645    39143.962    -3860.049    -14714.75   -8358.0526    77.787484 
   83500    542.68587   -109.70575   0.49103358   -109.21472   -5885.2433    4.2718641    4.2718641    4.2718641   -5885.2433   -54115.674    49709.818   -13249.873   -3348.1465     40783.29     7662.012     77.95649 
   83600    839.41045   -109.96777   0.75951621   -109.20826   -19278.919    4.2740721    4.2740721    4.2740721   -19278.919   -52943.787    29172.772   -34065.742    6987.5696    16191.111    739.83862    78.077436 
   83700    1732.7697    -110.7529    1.5678464   -109.18505    22165.034    4.2622142    4.2622142    4.2622142    22165.034    12901.922     9035.746    44557.435    4444.3873   -18642.133   -6059.3817    77.429386 
   83800    935.34483   -110.04518   0.84631966   -109.19886    -7606.185    4.2714639    4.2714639    4.2714639    -7606.185   -26200.946    34305.473   -30923.082   -560.45983    46975.584   -2634.9816    77.934586 
   83900     901.4057   -110.01061   0.81561082     -109.195   -14645.523    4.2757619    4.2757619    4.2757619   -14645.523   -38100.257    26075.249   -31911.562    3185.7139    22269.774    3148.7672     78.17008 
   84000    1444.9923   -110.49185    1.3074594   -109.18439    15531.992    4.2642756    4.2642756    4.2642756    15531.992    10652.931    8529.4579    27413.589    6785.4486   -27527.697   -6021.0475    77.541784 
   84100    848.04059   -109.96575   0.76732495   -109.19842   -3070.5217    4.2669794    4.2669794    4.2669794   -3070.5217   -8363.5004    19050.061   -19898.126    3670.7144    37383.725   -17581.274    77.689377 
   84200    864.44914   -109.98609   0.78217175   -109.20392    -2282.609      4.26721      4.26721      4.26721    -2282.609   -7732.7135    32915.426    -32030.54   -92.328195    39978.331     5777.956    77.701975 
   84300    1573.6784   -110.61717    1.4238973   -109.19327   -3076.0263    4.2723492    4.2723492    4.2723492   -3076.0263    12483.637   -1648.4443   -20063.271    3015.8805   -18731.174    7698.0932    77.983053 
   84400    840.93324   -109.95958   0.76089406   -109.19868   -13642.029     4.276808     4.276808     4.276808   -13642.029    16241.354   -5383.3858   -51784.054    7602.7392    23345.983   -35955.822    78.227465 
   84500    615.21325   -109.75472   0.55665788   -109.19806    6565.8813     4.265837     4.265837     4.265837    6565.8813    22149.309    21558.627   -24010.293    2987.0319    46712.971   -4347.4444    77.626995 
   84600    1561.5254   -110.59959     1.412901   -109.18669   -4756.9251      4.27029      4.27029      4.27029   -4756.9251    23079.918   -9943.1667   -27407.527    1620.6122   -8010.9766    27963.796    77.870348 
   84700    1098.9841   -110.18625   0.99438392   -109.19187   -15180.944    4.2755277    4.2755277    4.2755277   -15180.944    9739.2094   -20871.481   -34410.561    10441.567    4721.4967   -28046.279    78.157234 
   84800    532.94694   -109.68318   0.48222159   -109.20096   -2590.3255    4.2687718    4.2687718    4.2687718   -2590.3255   -3862.0296    8192.9783   -12101.925    5549.7076    50031.548   -19030.221    77.787319 
   84900    1498.0463   -110.55082    1.3554638   -109.19535     7336.819    4.2656292    4.2656292    4.2656292     7336.819    15264.837    8213.8715    -1468.251   -4120.8878    6212.3098    25377.688    77.615649 
   85000     1479.428   -110.53687    1.3386175   -109.19826    17082.716    4.2636777    4.2636777    4.2636777    17082.716    29415.685    3003.2049    18829.258   -4169.8383   -6969.6319   -8143.2309    77.509171 
   85100    509.41263   -109.67793   0.46092725     -109.217   -7550.0389    4.2740658    4.2740658    4.2740658   -7550.0389    13971.889    7956.3524   -44578.358    6186.8416    48194.823    -29197.77     78.07709 
   85200    1423.9967   -110.48461    1.2884621   -109.19614   -5563.3903    4.2790773    4.2790773    4.2790773   -5563.3903   -12495.668    290.50593   -4485.0088   -1787.3279    17306.304    6243.1976    78.352054 
   85300    1784.2645   -110.79461      1.61444   -109.18017   -216.42851    4.2740018    4.2740018    4.2740018   -216.42851   -4228.3127   -15527.931    19106.958   -2336.2519   -11324.042    -1605.276    78.073582 
   85400    558.58291   -109.70415   0.50541755   -109.19873    5758.1006    4.2645669    4.2645669    4.2645669    5758.1006    3442.4101    11055.043     2776.849    3353.1909    52170.115   -27233.355    77.557677 
   85500    1201.5916   -110.29098    1.0872253   -109.20376    4755.0723    4.2664332    4.2664332    4.2664332    4755.0723   -6891.0298    5417.9786    15738.268    1115.5064    21622.262   -14706.733    77.659548 
   85600    1948.0309   -110.95581    1.7626193    -109.1932    3702.4737    4.2727473    4.2727473    4.2727473    3702.4737    5382.6682   -6577.7671     12302.52   -8176.4437   -17493.421    11274.283    78.004854 
   85700    903.10414   -110.02653    0.8171476   -109.20938    56.060928    4.2718593    4.2718593    4.2718593    56.060928    10393.698    2714.6116   -12940.127   -7702.4766    44392.301   -11276.657    77.956229 
   85800    1010.3139   -110.12309   0.91415326   -109.20893   -10255.394     4.274946     4.274946     4.274946   -10255.394    16869.148   -5857.1243   -41778.206    44.931422     36940.44    -29377.32    78.125338 
   85900     2085.714    -111.0718    1.8871979   -109.18461    9592.2661    4.2693795    4.2693795    4.2693795    9592.2661    33240.415   -296.73511   -4166.8822   -828.95511   -16473.322    8762.1691    77.820547 
   86000    1113.3567   -110.20523    1.0073886   -109.19784   -3779.0804    4.2715276    4.2715276    4.2715276   -3779.0804    6528.5623    2386.1905   -20251.994    796.70505    37417.697   -5103.7371    77.938073 
   86100    701.15871   -109.83793   0.63442314   -109.20351   -15630.842     4.275441     4.275441     4.275441   -15630.842    4388.9672   -9539.2173   -41742.276     1946.054    36029.514   -37651.479    78.152479 
   86200    1721.4052   -110.74894    1.5575636   -109.19138    7927.2917    4.2642364    4.2642364    4.2642364    7927.2917    21277.561    1249.6796    1254.6347   -3807.1926   -27969.807   -2737.4908    77.539645 
   86300    1404.8976   -110.46936    1.2711809   -109.19818    5108.5462    4.2661424    4.2661424    4.2661424    5108.5462   -4863.5624    5083.8656    15105.335   -1363.8565     7284.462    4446.6239    77.643669 
   86400    941.96689   -110.05899   0.85231144   -109.20668   -16306.757    4.2732985    4.2732985    4.2732985   -16306.757   -5233.9833    -21446.45   -22239.838    4575.9098    46290.621     -23185.8    78.035047 
   86500    1284.1508   -110.36304    1.1619266   -109.20112    3335.6138     4.265364     4.265364     4.265364    3335.6138    16019.766   -3303.4588   -2709.4656   -2928.5863   -17959.203   -15513.622    77.601177 
   86600    1592.0139   -110.63751    1.4404876   -109.19703   -944.06899    4.2683366    4.2683366    4.2683366   -944.06899   -23355.138    11666.993    8855.9379    2492.8106   -24871.622    4040.0912     77.76353 
   86700     1087.513   -110.18746   0.98400464   -109.20346   -9241.6274    4.2716375    4.2716375    4.2716375   -9241.6274   -6803.8059   -8969.1583   -11951.918    5605.9585    41434.734   -14906.387    77.944087 
   86800    1009.6762   -110.11536   0.91357623   -109.20179   -3443.7215    4.2708173    4.2708173    4.2708173   -3443.7215    21906.852   -30395.942   -1842.0744    -2349.401    15988.429   -34214.878    77.899197 
   86900    1858.9922   -110.86949    1.6820552   -109.18743   -3854.2393    4.2733879    4.2733879    4.2733879   -3854.2393   -19529.977    -14778.21    22745.469   -2748.1155   -24840.806    6523.2622    78.039945 
   87000    1269.8444   -110.34617    1.1489819   -109.19719    4838.0672    4.2696982    4.2696982    4.2696982    4838.0672   -8164.2421    8884.9672    13793.476   -2749.6599     19389.87   -8819.3676    77.837976 
   87100    724.92286   -109.86158   0.65592544   -109.20566   -10576.921    4.2690312    4.2690312    4.2690312   -10576.921    13690.457   -28760.588   -16660.631    2446.5621     30746.44   -38061.274    77.801503 
   87200    1551.4682   -110.60359     1.403801   -109.19979   -3315.8213    4.2679868    4.2679868    4.2679868   -3315.8213    7836.9155       -36764    18979.621    1868.3905   -10762.869    13407.666    77.744413 
   87300    1715.0586   -110.75049    1.5518211   -109.19867   -4772.5643    4.2696237    4.2696237    4.2696237   -4772.5643   -10433.124   -14963.404    11078.835   -5360.4913    -787.8498    9789.1425    77.833903 
   87400    911.11669   -110.03346   0.82439753   -109.20907   -4121.6925    4.2696812    4.2696812    4.2696812   -4121.6925     21457.39   -11463.944   -22358.523    765.93095    31345.603   -39443.698    77.837044 
   87500    1264.6373   -110.34915    1.1442704   -109.20488    3546.0752    4.2658344    4.2658344    4.2658344    3546.0752    29710.273   -24054.899    4982.8518   -1726.5144    9646.6968   -4092.4222    77.626853 
   87600    1864.8208   -110.88432    1.6873291   -109.19699    1747.7169    4.2682237    4.2682237    4.2682237    1747.7169    14433.881   -10015.483    824.75357   -3641.0459   -14471.448    20990.586     77.75736 
   87700    981.61284    -110.0997   0.88818392   -109.21151   -5469.5304    4.2684397    4.2684397    4.2684397   -5469.5304        10577    1203.6645   -28189.255   -2464.4749    12732.946   -25744.355    77.769169 
   87800    912.06576   -110.03951   0.82525626   -109.21426   -7155.4876    4.2685783    4.2685783    4.2685783   -7155.4876     23773.17   -19050.523   -26189.109   -7599.6803    20775.516   -31100.215    77.776744 
   87900    2047.5931   -111.04698    1.8527052   -109.19428    1108.2855    4.2717649    4.2717649    4.2717649    1108.2855     18479.09   -8158.1707   -6996.0624   -2387.4948   -3668.8304    11058.551    77.951061 
   88000    1278.5141   -110.36165    1.1568264   -109.20483   -13944.875    4.2750774    4.2750774    4.2750774   -13944.875   -1351.0594    7033.1779   -47516.744   -2998.6956    5475.1316   -10487.091    78.132541 
   88100    469.78033   -109.63307   0.42506711     -109.208   -12210.172    4.2721404    4.2721404    4.2721404   -12210.172    20730.472     6517.073    -63878.06   -4300.4802    28744.568   -39719.489    77.971617 
   88200    1559.8787   -110.60644     1.411411   -109.19503    8504.3049    4.2664151    4.2664151    4.2664151    8504.3049    38223.281    2472.6205   -15182.986    874.03708   -5728.4498    4739.9381    77.658558 
   88300    1549.0459   -110.59715    1.4016093   -109.19554    10582.845    4.2642283    4.2642283    4.2642283    10582.845    27429.326    2373.4938    1945.7161    1166.8208   -454.06535    13992.278    77.539207 
   88400    841.15373   -109.97167   0.76109357   -109.21058   -5298.2554    4.2707401    4.2707401    4.2707401   -5298.2554    19117.773    1839.5256   -36852.065   -2377.5678    30891.213   -30243.886    77.894974 
   88500    1185.9381   -110.27697    1.0730617   -109.20391   -11979.707    4.2740779    4.2740779    4.2740779   -11979.707    12799.615   -10289.892   -38448.846   -2066.0654    10299.266   -7488.6217    78.077753 
   88600    1392.7519   -110.45661    1.2601911   -109.19642    9211.7548    4.2627335    4.2627335    4.2627335    9211.7548     30945.94   -16867.444    13556.768    5168.2908   -5965.6455    43361.666    77.457692 
   88700    924.16658   -110.04256   0.83620534   -109.20636    2143.9553    4.2639463    4.2639463    4.2639463    2143.9553    27001.819   -8468.4628   -12101.491    2074.1044    14553.411   -11428.846    77.523822 
   88800    977.18909   -110.09051   0.88418123   -109.20633   -10504.219    4.2744224    4.2744224    4.2744224   -10504.219    8421.6968   -8480.3416   -31454.013   -5514.9992    27117.737   -45465.311    78.096632 
   88900    1518.3692    -110.5686    1.3738524   -109.19474    1795.4106      4.26949      4.26949      4.26949    1795.4106    4347.9238    -8014.792       9053.1    926.90301   -1813.6227    24180.757     77.82659 
   89000    1212.9617   -110.29675    1.0975133   -109.19924    432.68094    4.2648962    4.2648962    4.2648962    432.68094   -10124.631    127.77036    11294.904    5730.3133    6990.9713    15250.719    77.575646 
   89100    528.03893   -109.68897   0.47778072   -109.21119   -9116.3189     4.267274     4.267274     4.267274   -9116.3189   -14086.997    12722.584   -25984.544    364.85846    35902.651   -47160.571    77.705469 
   89200    1181.1752   -110.27539    1.0687522   -109.20663    -644.1011    4.2701024    4.2701024    4.2701024    -644.1011   -14317.232     19987.35   -7602.4221   -7927.2208   -8558.3082   -9446.3768    77.860085 
   89300    1561.8047   -110.60682    1.4131537   -109.19367   -8197.1355    4.2757846    4.2757846    4.2757846   -8197.1355   -32273.888    9183.8947    -1501.413    2514.0878   -20268.733    11619.062    78.171321 
   89400    825.74545   -109.95013   0.74715183   -109.20298   -4255.8607     4.266838     4.266838     4.266838   -4255.8607   -10891.687    10011.741   -11887.636    5383.8089    33123.007   -30171.562    77.681653 
   89500    763.01371   -109.89699   0.69039084    -109.2066    11014.542    4.2603645    4.2603645    4.2603645    11014.542    17858.093    21087.216   -5901.6816   -4409.6123     8818.287   -19567.159    77.328623 
   89600    1403.9635   -110.46983    1.2703357   -109.19949   -574.37253    4.2729951    4.2729951    4.2729951   -574.37253   -16122.019    23457.797   -9058.8958    251.58226   -28040.675    9826.2311    78.018426 
   89700    945.35603   -110.05816     0.855378   -109.20278   -9316.1479    4.2760858    4.2760858    4.2760858   -9316.1479   -2326.7808   -9793.9649   -15827.698    10548.071    4113.7409   -11778.201    78.187841 
   89800    503.28392   -109.66186   0.45538187   -109.20648    -5248.402    4.2698837    4.2698837    4.2698837    -5248.402    9090.5708    -987.3464    -23848.43    5310.6061     31999.59   -32307.634    77.848123 
   89900     1466.208   -110.52143    1.3266558   -109.19478      6486.23    4.2618743    4.2618743    4.2618743      6486.23    2687.8591    26110.504   -9339.6729   -9545.4111     -1073.79    1119.3801    77.410862 
   90000    1224.8663   -110.31096    1.1082848   -109.20268    1833.4002    4.2689161    4.2689161    4.2689161    1833.4002    30263.335   -9107.2274   -15655.907   -326.61179   -8056.4262   -3934.0684    77.795208 
   90100    297.98771    -109.4828   0.26962554   -109.21318   -22649.461    4.2795514    4.2795514    4.2795514   -22649.461   -10028.071   -12692.005   -45228.306     12235.64     37685.19   -27507.591    78.378102 
   90200     1229.019   -110.31031    1.1120422   -109.19827    4278.1615    4.2703575    4.2703575    4.2703575    4278.1615   -4196.4362     38118.58    -21087.66   -10768.729    12915.208    2398.6334    77.874041 
   90300    1509.9388     -110.557    1.3662243   -109.19078   -2015.5703    4.2673704    4.2673704    4.2673704   -2015.5703   -14048.531    5686.2746    2315.5453   -860.30422   -22097.395   -519.86401    77.710737 
   90400    779.90707    -109.9105   0.70567631   -109.20482    3778.5605    4.2612811    4.2612811    4.2612811    3778.5605   -1034.3122    12263.907    106.08676    13943.396    25344.604   -25723.042    77.378545 
   90500    1133.8939   -110.23209     1.025971   -109.20612   -3345.8823    4.2745303    4.2745303    4.2745303   -3345.8823    10649.546    7150.8293   -27838.022     6396.011     25395.75   -15600.424    78.102546 
   90600    1411.7282   -110.47056    1.2773613   -109.19319   -14800.016    4.2801609    4.2801609    4.2801609   -14800.016   -28039.656    668.28084   -17028.672   -6122.9443   -30471.896    8150.5875    78.411597 
   90700     899.3045   -110.00836   0.81370961   -109.19465    23354.819     4.256807     4.256807     4.256807    23354.819    57214.252   -8034.8366    20885.041    6296.1996   -9114.7611   -16914.461     77.13507 
   90800    1180.5212   -110.26853    1.0681604   -109.20037   -736.88833    4.2633493    4.2633493    4.2633493   -736.88833    32248.131   -24811.367   -9647.4289    19848.029    24251.859   -21475.891    77.491266 
   90900    1486.6379    -110.5434    1.3451412   -109.19826    838.48398    4.2700884    4.2700884    4.2700884    838.48398    15865.872    6008.4433   -19358.864   -5458.9377   -17794.777     13326.26    77.859319 
   91000    1218.0917   -110.30388     1.102155   -109.20172   -3702.2567     4.277331     4.277331     4.277331   -3702.2567   -2517.4772   -8708.8159    119.52292     1733.781   -26629.079    -7107.923     78.25617 
   91100    1130.5402   -110.22105    1.0229365   -109.19811   -24546.487    4.2793268    4.2793268    4.2793268   -24546.487   -10002.018   -54165.655   -9471.7883    27497.351    14538.381   -29663.488    78.365764 
   91200    1414.7357   -110.47281    1.2800826   -109.19273    21317.343    4.2470219    4.2470219    4.2470219    21317.343    24954.823    19538.692    19458.514     787.7588   -10897.128     12729.25    76.604361 
   91300    1337.1504   -110.41692    1.2098817   -109.20704    12195.162    4.2614917    4.2614917    4.2614917    12195.162   -1261.9842    22900.806    14946.665   -5540.5488   -34223.886    14535.951    77.390018 
   91400    1447.9822     -110.505    1.3101648   -109.19483    -21515.79    4.2866405    4.2866405    4.2866405    -21515.79   -16869.664   -39493.869   -8183.8369    17160.863    8019.3251    -24349.76     78.76825 
   91500    1170.2294   -110.24976    1.0588482   -109.19091    25602.838    4.2666572    4.2666572    4.2666572    25602.838    24243.792   -4697.3072    57262.027    14275.133    3232.5603    5254.3208    77.671778 
   91600    1456.0432   -110.50704    1.3174585   -109.18958    385.61126    4.2676673    4.2676673    4.2676673    385.61126   -7622.5687    18586.503   -9807.1002   -7345.5767   -27372.142    27925.498    77.726957 
   91700    1481.5022   -110.53447    1.3404944   -109.19397    8863.2596    4.2623536    4.2623536    4.2623536    8863.2596   -8834.8232    20073.441    15351.161    956.25739     -2395.58   -9922.3486    77.436984 
   91800    1200.2213   -110.29446    1.0859855   -109.20848    11209.875     4.263571     4.263571     4.263571    11209.875   -5048.3589    3570.5944    35107.391    20573.204    11629.075   -25372.622    77.503353 
   91900     1560.019   -110.61276     1.411538   -109.20122   -23732.498    4.2838479    4.2838479    4.2838479   -23732.498   -34089.527   -17000.219   -20107.749    4581.7521   -16525.858    12530.657    78.614404 
   92000    1817.6428   -110.83954    1.6446414    -109.1949     5110.364    4.2635738    4.2635738    4.2635738     5110.364    -15764.36    18498.842     12596.61   -12363.196   -6242.4501    5219.1904    77.503509 
   92100    774.49295   -109.90714   0.70077749   -109.20636    2430.3027    4.2565624    4.2565624    4.2565624    2430.3027   -25656.943   -4456.8602    37404.712    20648.848    14106.957   -33389.111    77.121773 
   92200    1268.7221   -110.35574    1.1479664   -109.20777   -22534.447    4.2810411    4.2810411    4.2810411   -22534.447   -50992.673    -9066.128   -7544.5407    15448.885     6252.968   -4889.0101    78.459978 
   92300    2102.3515   -111.08494    1.9022518   -109.18269   -95.258211    4.2790912    4.2790912    4.2790912   -95.258211   -18061.504    22972.653   -5196.9233   -10633.405    -1093.098     12188.97     78.35282 
   92400    815.22261   -109.93562   0.73763055   -109.19799   -10455.656    4.2713506    4.2713506    4.2713506   -10455.656   -27897.807   -2747.8474   -721.31312    21898.704    14463.235   -16771.526     77.92838 
   92500    999.42741   -110.10209   0.90430292   -109.19779   -6058.9603    4.2646535    4.2646535    4.2646535   -6058.9603   -30663.058   -9161.0827     21647.26     17456.52    10205.055   -6726.8081    77.562403 
   92600    1778.2844   -110.79663    1.6090291    -109.1876    9604.0066    4.2653257    4.2653257    4.2653257    9604.0066   -8120.3509    14441.717    22490.654   -11481.163   -13797.818    11473.507    77.599083 
   92700    973.99812   -110.08038   0.88129396   -109.19908   -29537.643    4.2839627    4.2839627    4.2839627   -29537.643   -37160.205   -43936.396    -7516.327    23142.894   -1450.9683   -3377.3592    78.620727 
   92800    1065.8771   -110.16332     0.964428    -109.1989    -8949.284     4.267453     4.267453     4.267453    -8949.284   -25054.825   -39292.187     37499.16    33935.574    13724.817   -21918.967    77.715246 
   92900    1542.6219   -110.58263    1.3957967   -109.18683     21852.53    4.2525443    4.2525443    4.2525443     21852.53    22.762701     25661.29    39873.537   -5673.3057   -18646.987     6222.951    76.903575 
   93000    1045.3029   -110.14751   0.94581206   -109.20169   -15546.101     4.275636     4.275636     4.275636   -15546.101   -24195.686   -24285.608    1842.9913    7802.0114   -24997.167    17389.003    78.163174 
   93100    957.81243   -110.06341   0.86664882   -109.19676   -11685.683    4.2775629    4.2775629    4.2775629   -11685.683   -13451.455    -49246.17    27640.575     32073.24    7982.3259   -26564.181    78.268897 
   93200     1348.826   -110.40833    1.2204461   -109.18789    6408.1001    4.2674938    4.2674938    4.2674938    6408.1001    459.88045    15166.375    3598.0448    4080.8685   -14105.973   -13653.485    77.717478 
   93300    1201.7885   -110.28275    1.0874035   -109.19535   -2136.7361    4.2624333    4.2624333    4.2624333   -2136.7361   -12989.878     20962.75    -14383.08   -5152.5995    -30197.56    20335.976    77.441326 
   93400    969.16794   -110.07878   0.87692352   -109.20186    14927.795    4.2590078    4.2590078    4.2590078    14927.795    10964.019    3714.6261    30104.739    24429.855    3162.0139    -118.8095    77.254771 
   93500    1104.1234   -110.20097   0.99903402   -109.20194    -10230.56    4.2830991    4.2830991    4.2830991    -10230.56   -5079.6298   -20594.111   -5017.9394    5380.1541   -672.89255   -18808.253    78.573185 
   93600    911.35344   -110.01814   0.82461175   -109.19353   -12300.673    4.2792736    4.2792736    4.2792736   -12300.673    -16911.15    13844.084   -33834.954    -23723.02   -31932.524    3794.6464    78.362842 
   93700    1023.1683   -110.10938   0.92578415    -109.1836    28176.894    4.2509065    4.2509065    4.2509065    28176.894    27401.593    43096.847    14032.243    3306.5713   -2841.8854     11260.25    76.814755 
   93800    1423.2762   -110.47785    1.2878102   -109.19004   -675.58732     4.263254     4.263254     4.263254   -675.58732    17844.814   -19516.949    -354.6269    20479.785    9166.0423   -11135.222     77.48607 
   93900    836.77489   -109.96017    0.7571315   -109.20304   -14329.753    4.2745425    4.2745425    4.2745425   -14329.753   -21696.403    2650.9419   -23943.799   -16166.071   -31900.746   -9560.8874    78.103215 
   94000     558.1168   -109.71232   0.50499581   -109.20733    8932.2925    4.2676055    4.2676055    4.2676055    8932.2925    596.89012    34709.268   -8509.2811   -16383.029   -11043.727    10763.968    77.723583 
   94100    1539.5651   -110.58461    1.3930308   -109.19158   -7018.3978    4.2723681    4.2723681    4.2723681   -7018.3978    14016.581   -15406.985    -19664.79    7120.2709    23232.758    3780.6884    77.984089 
   94200    1165.8722   -110.25102    1.0549057   -109.19611    3719.2902    4.2649266    4.2649266    4.2649266    3719.2902   -8004.1131     32283.59   -13121.606   -3681.3085    -28716.07    -6023.846    77.577306 
   94300    513.26533   -109.67132   0.46441326   -109.20691    803.01237    4.2651519    4.2651519    4.2651519    803.01237   -3068.0515     24210.66   -18733.571   -15641.923   -29912.846    7067.9229    77.589599 
   94400    1342.3081    -110.4089    1.2145486   -109.19435   -14392.872    4.2767977    4.2767977    4.2767977   -14392.872   -3202.8222   -17048.623    -22927.17   -3942.5072    19352.108     13299.25    78.226902 
   94500    1330.7937   -110.39712    1.2041301   -109.19299    12827.101    4.2632984    4.2632984    4.2632984    12827.101   -7862.7634    48547.543    -2203.478    15317.341   -12450.371    2690.3311    77.488487 
   94600    623.53923   -109.77099    0.5641914    -109.2068   -8788.7179    4.2609941    4.2609941    4.2609941   -8788.7179   -39433.748    17110.543    -4042.949   -13076.852   -47656.105   -4506.7733    77.362909 
   94700    1193.2876   -110.28351    1.0797117    -109.2038   -10680.491    4.2713746    4.2713746    4.2713746   -10680.491   -26205.175   -282.08896   -5554.2089   -27040.866    5748.4863    13063.591    77.929694 
   94800    1580.0994   -110.62286    1.4297071   -109.19315   -3687.5705    4.2725596    4.2725596    4.2725596   -3687.5705   -8615.9936    16571.396   -19018.114    9808.2268   -2342.5355    13960.134    77.994576 
   94900    794.36396   -109.92159    0.7187572   -109.20284   -13323.773    4.2671321    4.2671321    4.2671321   -13323.773    -51246.36    30207.374   -18932.335   -1478.5577   -43556.902   -743.59471     77.69772 
   95000    1089.5853   -110.18437   0.98587964   -109.19849   -2533.2219    4.2636543    4.2636543    4.2636543   -2533.2219   -40362.299    15907.134      16855.5   -34953.111   -1667.0512   -103.73762    77.507896 
   95100    1646.5512   -110.68028    1.4898342   -109.19044   -7610.8492    4.2724343    4.2724343    4.2724343   -7610.8492   -18151.451    12729.313    -17410.41   -3419.7333   -5644.0042    9391.8064    77.987713 
   95200    907.85133   -110.01883   0.82144296   -109.19738   -7726.1672    4.2753555    4.2753555    4.2753555   -7726.1672   -29695.467    51796.666   -45279.702    6833.0503   -46273.465   -1927.8938    78.147789 
   95300    1125.4001   -110.20912    1.0182857   -109.19083   -4606.3982    4.2701795    4.2701795    4.2701795   -4606.3982   -22784.925    256.64239    8709.0877   -27209.337    -1035.752   -5247.6519      77.8643 
   95400    1658.9021    -110.6864    1.5010095   -109.18539    5992.9695    4.2623178    4.2623178    4.2623178    5992.9695   -3678.0335    15119.791    6537.1505   -9299.7984    663.60519    5163.8265     77.43503 
   95500    1126.3661   -110.21748    1.0191597   -109.19832    9483.8794    4.2633116    4.2633116    4.2633116    9483.8794   -26.224197    71675.201   -43197.338    7601.5499   -39924.203    8074.2472    77.489207 
   95600    1220.5909   -110.30102    1.1044163   -109.19661   -13481.524    4.2768707    4.2768707    4.2768707   -13481.524   -25894.416    3841.9829   -18392.139   -11600.753   -5826.9477    730.35046    78.230908 
   95700    1541.7344   -110.58443    1.3949937   -109.18944    1102.1521     4.267711     4.267711     4.267711    1102.1521    4558.2667   -7137.8968    5886.0865   -13875.228   -811.66187   -8868.0685    77.729344 
   95800    1139.5586   -110.22634    1.0310966   -109.19525    1877.6322    4.2581223    4.2581223    4.2581223    1877.6322    -5233.249    50876.451   -40010.306    466.93576   -46071.671   -5480.4485    77.206595 
   95900    1085.9111   -110.18424   0.98255514   -109.20169    -14135.85    4.2679164    4.2679164    4.2679164    -14135.85   -29350.245    19978.879   -33036.183    2626.0235   -3779.5135    4108.4944    77.740568 
   96000    1646.2388   -110.68193    1.4895514   -109.19238   -7548.7082    4.2715426    4.2715426    4.2715426   -7548.7082    -6357.242   -21482.737    5193.8548   -7079.3419      18845.9    2361.4794    77.938891 
   96100    1282.6255   -110.35819    1.1605465   -109.19764    -17631.15    4.2695365    4.2695365    4.2695365    -17631.15    -29197.49    21181.188   -44877.147   -5032.9902   -60061.941    4480.0927    77.829134 
   96200     993.8687   -110.09859   0.89927329   -109.19932   -6464.2955     4.258763     4.258763     4.258763   -6464.2955   -13681.656     35721.86   -41433.091    6176.6942   -12400.746    10243.811    77.241453 
   96300     1401.514   -110.46552    1.2681193    -109.1974   -5405.0972     4.264733     4.264733     4.264733   -5405.0972   -711.03702   -8520.7826   -6983.4721   -8450.0693    43476.202   -374.48205    77.566739 
   96400    1169.7122   -110.25735    1.0583801   -109.19897    -18973.78    4.2731788    4.2731788    4.2731788    -18973.78   -33403.379    12424.713   -35942.673   -9083.0762   -49608.978   -3981.2156    78.028491 
   96500    1115.7719   -110.20694    1.0095739   -109.19736    10097.519    4.2605376    4.2605376    4.2605376    10097.519    10834.004    47663.088   -28204.534    2421.8263   -37170.108   -2893.7167    77.338048 
   96600    1485.0478   -110.53745    1.3437024   -109.19374   -2341.7966    4.2656971    4.2656971    4.2656971   -2341.7966   -274.85554    13624.635   -20375.169   -3357.2369     47860.23     2300.721    77.619358 
   96700     959.5397   -110.07071   0.86821168    -109.2025   -5328.8368      4.26653      4.26653      4.26653   -5328.8368   -30528.178    35648.778   -21107.111    3820.2484   -19360.915     2904.227    77.664832 
   96800    735.52314    -109.8718    0.6655168   -109.20629    10496.151    4.2646906    4.2646906    4.2646906    10496.151   -14424.061     47664.17   -1751.6553   -2460.2262   -55074.528    -4914.674    77.564426 
   96900    1625.2301    -110.6633    1.4705423   -109.19275   -5467.5059    4.2726289    4.2726289    4.2726289   -5467.5059   -15245.325     8387.023   -9544.2159    1388.4543    23144.851    8770.7261    77.998369 
   97000    1166.4606   -110.25398    1.0554381   -109.19854    18912.461    4.2595138    4.2595138    4.2595138    18912.461   -12125.451    61921.392     6941.442   -399.14565   -17830.147    -554.9324    77.282307 
   97100     469.7142   -109.63621   0.42500728    -109.2112   -11309.064    4.2656011    4.2656011    4.2656011   -11309.064   -51397.905    23012.833   -5542.1199    2200.3101   -57157.982   -2690.1218    77.614115 
   97200    1194.3939   -110.27795    1.0807127   -109.19723   -15050.342    4.2728473    4.2728473    4.2728473   -15050.342    -34730.71   -20280.768    9860.4516    6890.6343    14395.392   -1372.4736    78.010332 
   97300    1171.9918   -110.25108    1.0604428   -109.19064    12137.021    4.2604174    4.2604174    4.2604174    12137.021   -10725.869    38477.404    8659.5297   -913.12499    -26635.19    -5432.977    77.331503 
   97400    871.69708   -109.98646   0.78872984   -109.19773   -15323.696     4.269341     4.269341     4.269341   -15323.696   -38181.035    24526.575   -32316.626   -3391.6919   -58998.758    1787.2776    77.818444 
   97500    1083.9823   -110.17415   0.98080995   -109.19334   -15541.581    4.2671915    4.2671915    4.2671915   -15541.581   -28441.138   -18672.217    488.61158   -2998.7305    15084.396   -5388.0081    77.700965 
   97600     777.3585   -109.90165   0.70337031   -109.19828    7246.0248    4.2579199    4.2579199    4.2579199    7246.0248   -27851.675     49467.38    122.36971    5308.6108   -14753.003   -1242.6207    77.195587 
   97700    1123.8542   -110.21474    1.0168869   -109.19785   -12466.096    4.2721978    4.2721978    4.2721978   -12466.096   -34023.792    39680.494   -43054.991   -406.34179   -47688.569    6739.3046    77.974761 
   97800     1159.894     -110.243    1.0494964    -109.1935   -1357.8253    4.2670652    4.2670652    4.2670652   -1357.8253   -17176.173     22659.55   -9556.8528   -1647.9829    15913.662   -2689.2515    77.694063 
   97900    667.01416   -109.80479   0.60352843   -109.20127    1047.9277    4.2608934    4.2608934    4.2608934    1047.9277    -39242.99     34490.61     7896.163    1609.8985     8896.904   -1753.5116    77.357423 
   98000    1301.3833   -110.37173    1.1775189   -109.19422   -12924.821    4.2701221    4.2701221    4.2701221   -12924.821   -30356.654    11043.117   -19460.927   -1241.4637   -29105.531   -447.97989    77.861164 
   98100    1218.6864   -110.29872     1.102693   -109.19602    6115.5975    4.2614475    4.2614475    4.2614475    6115.5975   -2097.2093    30911.247   -10467.245    2174.9575    15701.643    5224.5999    77.387608 
   98200    465.60781   -109.63239   0.42129173    -109.2111   -12283.179    4.2658986    4.2658986    4.2658986   -12283.179   -44487.887   -291.39394    7929.7442    5533.5441    36471.679    672.51923    77.630358 
   98300    1363.2158   -110.42784    1.2334663   -109.19437   -13748.938    4.2734327    4.2734327    4.2734327   -13748.938   -35491.763   -14880.175     9125.125    7705.2853   -8341.1619   -3977.0638    78.042398 
   98400    1168.8113   -110.24545     1.057565   -109.18789   -6589.6554      4.27164      4.27164      4.27164   -6589.6554   -7545.2298    6411.1091   -18634.845   -6875.1781    11816.611    18541.198    77.944225 
   98500    547.69183   -109.69213   0.49556308   -109.19657    -23310.76    4.2689136    4.2689136    4.2689136    -23310.76   -22589.791   -14726.948   -32615.541     4420.836     42219.09    11763.055    77.795072 
   98600    1084.1413   -110.17426   0.98095384   -109.19331    2535.0426    4.2550823    4.2550823    4.2550823    2535.0426   -13670.275   -1741.6683    23017.071    12315.244   -6363.4639   -7981.1957    77.041354 
   98700    1018.3694   -110.12314   0.92144207    -109.2017    1576.4878    4.2642106    4.2642106    4.2642106    1576.4878   -13992.657    31022.737   -12300.617    4039.8519   -21298.536    5469.3413    77.538241 
   98800    944.62801   -110.05282   0.85471927    -109.1981   -15169.051     4.277655     4.277655     4.277655   -15169.051   -18585.739    16927.984   -43849.397   -1518.7454    26399.201     11651.75    78.273953 
   98900     1012.439   -110.10742   0.91607612   -109.19134   -3938.8081    4.2681049    4.2681049    4.2681049   -3938.8081    -28367.45    9377.5777    7173.4485    18682.533    2891.1728    2519.2094    77.750871 
   99000    651.70105   -109.78751   0.58967281   -109.19783    -12374.28    4.2629929    4.2629929    4.2629929    -12374.28   -37389.683    5647.1472   -5380.3035    12876.031   -35815.871   -4921.7574    77.471832 
   99100    1161.9313   -110.24925    1.0513399   -109.19791    4500.9034    4.2583505    4.2583505    4.2583505    4500.9034    8329.6958    23399.015   -18226.001    -15488.85    -4090.743    7968.7821     77.21901 
   99200    1521.5073   -110.57386    1.3766917   -109.19717   -7321.5449    4.2678926    4.2678926    4.2678926   -7321.5449   -15338.616   -6732.7817    106.76295    24718.894    10123.869    8855.8992    77.739268 
   99300    454.18807   -109.61918   0.41095891   -109.20822   -32636.694    4.2771532    4.2771532    4.2771532   -32636.694   -76420.629   -25358.483    3869.0303     27674.07   -32538.592   -11452.405    78.246408 
   99400    1130.0386   -110.21941    1.0224827   -109.19692    2497.0326    4.2624038    4.2624038    4.2624038    2497.0326   -11637.395     15740.27    3388.2237   -18279.966   -21011.136    -2325.296    77.439718 
   99500    1764.1595   -110.78217    1.5962486   -109.18592    2979.4898     4.264577     4.264577     4.264577    2979.4898   -5035.4149    16432.019   -2458.1345    1740.8878    16500.295    2937.5323    77.558231 
   99600    876.77008   -109.99804   0.79331999   -109.20472   -7916.4118     4.263898     4.263898     4.263898   -7916.4118   -29805.467    7923.9178   -1867.6858    32464.767   -16607.743   -1705.8342    77.521189 
   99700    974.05763   -110.09051   0.88134781   -109.20917    10240.877      4.26255      4.26255      4.26255    10240.877   -3198.8117    29164.903    4756.5385    2634.3614   -35030.764   -6436.1056     77.44769 
   99800     1734.042   -110.76165    1.5689977   -109.19265    -3081.641    4.2735142    4.2735142    4.2735142    -3081.641    9859.3048    2018.0791   -21122.307   -11083.412    23848.231   -12324.425    78.046861 
   99900    1002.7568   -110.10947   0.90731546   -109.20215     2640.428    4.2627717    4.2627717    4.2627717     2640.428   -3120.1644    29696.355   -18654.907    23020.508    11945.265    5087.6354    77.459773 
  100000    883.21986   -110.00607   0.79915589   -109.20692     -3509.82    4.2599771    4.2599771    4.2599771     -3509.82   -26608.173    29091.405   -13012.692    21738.696   -38492.682    353.00399    77.307531 
Loop time of 22.3003 on 1 procs for 100000 steps with 8 atoms

Pair  time (%) = 7.26984 (32.5997)
Kspce time (%) = 5.27299 (23.6454)
Neigh time (%) = 0.00783324 (0.0351262)
Comm  time (%) = 1.04859 (4.70214)
Outpt time (%) = 0.0234303 (0.105067)
Other time (%) = 8.67763 (38.9126)

Nlocal:    8 ave 8 max 8 min
Histogram: 1 0 0 0 0 0 0 0 0 0
Nghost:    2189 ave 2189 max 2189 min
Histogram: 1 0 0 0 0 0 0 0 0 0
Neighs:    2342 ave 2342 max 2342 min
Histogram: 1 0 0 0 0 0 0 0 0 0

Total # of neighbors = 2342
Ave neighs/atom = 292.75
Neighbor list builds = 90
Dangerous builds = 0
unfix 20
unfix 21
print "seeds:4618153"
seeds:4618153
