LAMMPS (10 Feb 2015)
# ---- initialize simulations
clear
units metal
dimension 3
boundary p p p
atom_style charge
atom_modify map array
# ---- create atoms
read_data /Users/eugeneragasa/pyflamestk_git/pypospack/tests/tests_integration/workflow/WorkflowLammpsThermalExpansion/param_2632/MgO_NaCl_unit.npt.T100/lammps.structure
  triclinic box = (0 0 0) to (4.2565 4.2565 4.2565) with tilt (0 0 0)
  1 by 1 by 1 MPI processor grid
  reading atoms ...
  8 atoms
# ---- define interatomic potential
include potential.mod
mass 1 24.305
mass 2 15.999

group Mg type 1
4 atoms in group Mg
group O type 2
4 atoms in group O

set group Mg charge 1.63285961235
  4 settings made for charge
set group O charge -1.63285961235
  4 settings made for charge

variable R_cut equal 10.0

pair_style buck/coul/long ${R_cut}
pair_style buck/coul/long 10
pair_coeff 1 1 0.0 0.5 0.0 ${R_cut}
pair_coeff 1 1 0.0 0.5 0.0 10
pair_coeff 1 2 1437.07173936 0.281984725072 0.0 ${R_cut}
pair_coeff 1 2 1437.07173936 0.281984725072 0.0 10
pair_coeff 2 2 17907.6681412 0.158842179647 12.0518239093 ${R_cut}
pair_coeff 2 2 17907.6681412 0.158842179647 12.0518239093 10

kspace_style pppm 1.0e-5

neighbor 1.0 bin
neigh_modify every 1 delay 0 check yes
# ---- define settings
compute eng all pe/atom
compute eatoms all reduce sum c_eng
# ---- run minimization
reset_timestep 0
fix 1 all box/relax iso 0.0 vmax 0.001
thermo 10
thermo_style custom step pe lx ly lz xy xz yz press pxx pyy pzz pxy pxz pyz c_eatoms
min_style cg
minimize 1e-25 1e-25 5000 10000
PPPM initialization ...
  G vector (1/distance) = 0.352629
  grid = 8 8 8
  stencil order = 5
  estimated absolute RMS force accuracy = 3.86465e-05
  estimated relative force accuracy = 2.68385e-06
  using double precision FFTs
  3d grid and FFT values/proc = 3375 512
Neighbor list info ...
  1 neighbor list requests
  update every 1 steps, delay 0 steps, check yes
  master list distance cutoff = 11
Memory usage per processor = 4.06549 Mbytes
Step PotEng Lx Ly Lz Xy Xz Yz Press Pxx Pyy Pzz Pxy Pxz Pyz eatoms 
       0   -108.26668       4.2565       4.2565       4.2565            0            0            0     68174.25     68174.25     68174.25     68174.25 -1.8708973e-11 1.9918278e-11 -1.4539535e-10   -108.26668 
      10   -108.32672     4.299065     4.299065     4.299065            0            0            0    15974.818    15974.818    15974.818    15974.818 2.7247293e-10 7.4247233e-11 1.7340321e-10   -108.32672 
      14   -108.33064    4.3118345    4.3118345    4.3118345            0            0            0    1605.1095    1605.1095    1605.1095    1605.1095 -5.9694499e-11 -6.7982128e-11 4.9253128e-12   -108.33064 
Loop time of 0.0151551 on 1 procs for 14 steps with 8 atoms

Minimization stats:
  Stopping criterion = linesearch alpha is zero
  Energy initial, next-to-last, final = 
        -108.266678614      -108.33063925      -108.33063925
  Force two-norm initial, final = 9.8444 0.23785
  Force max component initial, final = 9.8444 0.237844
  Final line search alpha, max atom move = 1.28309e-07 3.05176e-08
  Iterations, force evaluations = 14 44

Pair  time (%) = 0.00419188 (27.6599)
Kspce time (%) = 0.0024004 (15.8389)
Neigh time (%) = 0 (0)
Comm  time (%) = 0.000467539 (3.08503)
Outpt time (%) = 1.5974e-05 (0.105404)
Other time (%) = 0.00807929 (53.3108)

Nlocal:    8 ave 8 max 8 min
Histogram: 1 0 0 0 0 0 0 0 0 0
Nghost:    2189 ave 2189 max 2189 min
Histogram: 1 0 0 0 0 0 0 0 0 0
Neighs:    2344 ave 2344 max 2344 min
Histogram: 1 0 0 0 0 0 0 0 0 0

Total # of neighbors = 2344
Ave neighs/atom = 293
Neighbor list builds = 0
Dangerous builds = 0
unfix 1
# ---- define output variables ----
variable natoms equal "count(all)"
variable tot_energy equal "c_eatoms"
variable length_x equal "lx"
variable length_y equal "ly"
variable length_z equal "lz"
variable tilt_xy equal "xy"
variable tilt_xz equal "xz"
variable tilt_yz equal "yz"
variable tot_press equal "press"
variable press_xx equal "pxx"
variable press_yy equal "pyy"
variable press_zz equal "pzz"
variable press_xy equal "pxy"
variable press_xz equal "pxz"
variable press_yz equal "pyz"

# ---- output ----
print "pypospack:output_section:begin"
pypospack:output_section:begin
print "tot_energy = ${tot_energy}"
tot_energy = -108.330639250266
print "num_atoms = ${natoms}"
num_atoms = 8
print "xx = ${length_x}"
xx = 4.3118345
print "yy = ${length_y}"
yy = 4.3118345
print "zz = ${length_z}"
zz = 4.3118345
print "xy = ${tilt_xy}"
xy = 0
print "xz = ${tilt_xz}"
xz = 0
print "yz = ${tilt_yz}"
yz = 0
print "tot_press = ${tot_press}"
tot_press = 1605.10951764203
print "pxx = ${press_xx}"
pxx = 1605.10951764176
print "pyy = ${press_yy}"
pyy = 1605.10951764198
print "pzz = ${press_zz}"
pzz = 1605.10951764233
print "pxy = ${press_xy}"
pxy = -5.96944985898881e-11
print "pxz = ${press_xz}"
pxz = -6.79821282837662e-11
print "pyz = ${press_yz}"
pyz = 4.92531279854496e-12
print "pypospack:output_section:done"
pypospack:output_section:done
print "pypospack:lammps_sim:done"
pypospack:lammps_sim:done
#------------------------------------------------------------------------------
# RUN THERMOSTAT
# running using an NPT Nose-Hoover style thermostat
#------------------------------------------------------------------------------
variable tempdamp equal 0.1
variable pressdamp equal 1.0
# set initial velocities
velocity all create 100 2519512 mom yes dist gaussian loop all
# fix for Nose-Hoover style thermostat
fix 20 all npt temp 100 100 0.1 aniso 0.0 0.0 1.0 drag 1.0 couple xyz
variable boxx equal lx
variable boxy equal ly
variable boxz equal lz
variable boxp equal press
variable boxt equal temp
# calculate averages every 10000 steps
reset_timestep 0
fix 21 all ave/time 10 10 100 v_boxx v_boxy v_boxz v_boxp v_boxt file lattice.out
thermo_style custom step temp pe ke etotal press lx ly lz press pxx pyy pzz pxy pxz pyz vol
thermo_modify flush yes
thermo 100
run 100000
PPPM initialization ...
  G vector (1/distance) = 0.352078
  grid = 8 8 8
  stencil order = 5
  estimated absolute RMS force accuracy = 3.96373e-05
  estimated relative force accuracy = 2.75266e-06
  using double precision FFTs
  3d grid and FFT values/proc = 3375 512
Memory usage per processor = 3.06549 Mbytes
Step Temp PotEng KinEng TotEng Press Lx Ly Lz Press Pxx Pyy Pzz Pxy Pxz Pyz Volume 
       0          100   -108.33065  0.090482102   -108.24017    2809.1341    4.3118345    4.3118345    4.3118345    2809.1341    2195.5424    3302.2068     2929.653   -66.072178   -64.477363   -1284.7403    80.165268 
     100     41.62311   -108.26477  0.037661465   -108.22711    3534.3715    4.3124973    4.3124973    4.3124973    3534.3715    3697.0616    5284.7183    1621.3347   -18.688187    386.28198    1441.1504    80.202241 
     200    55.521874   -108.25304  0.050237358   -108.20281     1501.557    4.3143501    4.3143501    4.3143501     1501.557    1429.8869     4661.451   -1586.6669    791.65679   -42.721474    1501.6884    80.305657 
     300    65.915032   -108.24134  0.059641306   -108.18169    2776.7618    4.3155498    4.3155498    4.3155498    2776.7618    1615.0245    7826.7212   -1111.4604    396.26951   -352.35609    231.91378    80.372669 
     400    73.778521   -108.23248  0.066756356   -108.16572   -2186.7431    4.3174613    4.3174613    4.3174613   -2186.7431   -549.59839    -1253.219    -4757.412    173.71305    508.24674    2742.0157    80.479518 
     500     143.9532   -108.28452   0.13025188   -108.15427   -3429.6066    4.3189809    4.3189809    4.3189809   -3429.6066   -4651.2569    -1502.682   -4134.8808   -697.97132    457.48588    1038.1259    80.564527 
     600    129.91751    -108.2671   0.11755209   -108.14955   -305.49152    4.3186244    4.3186244    4.3186244   -305.49152   -1804.4089    3285.8604    -2397.926   -155.77822    122.44244   -529.22517    80.544577 
     700    69.183661   -108.21157  0.062598831   -108.14897   -3431.9607    4.3194808    4.3194808    4.3194808   -3431.9607    -3997.633    1322.5988   -7620.8479    1465.6736    427.26348    2292.6976    80.592502 
     800    56.253176    -108.1998  0.050899056    -108.1489    604.07872    4.3187636    4.3187636    4.3187636    604.07872   -364.79495    5860.8459   -3683.8148    701.88436    39.860404    1156.2487    80.552367 
     900     130.9948   -108.26738   0.11852685   -108.14885    -2902.585    4.3182103    4.3182103    4.3182103    -2902.585   -1950.0335   -2213.2103   -4544.5113    138.98991    -354.3554   -768.97095    80.521411 
    1000    80.297173   -108.22273   0.07265457   -108.15008    -1630.954    4.3181416    4.3181416    4.3181416    -1630.954   -2769.1094    1272.3421   -3396.0949   -126.44091    1484.1191    1975.8796    80.517569 
    1100    154.17598   -108.28885   0.13950167   -108.14935    398.74261    4.3170292    4.3170292    4.3170292    398.74261   -1794.2955    3677.8675   -687.34415    43.938136    287.79831    344.19618    80.455355 
    1200    95.878229   -108.23639  0.086752637   -108.14963    2273.4225    4.3159582    4.3159582    4.3159582    2273.4225   -353.33774    8412.9928   -1239.3874    345.85075    108.40344    1539.8988     80.39549 
    1300    43.744905   -108.18982  0.039581309   -108.15024    728.72576     4.316654     4.316654     4.316654    728.72576    1637.2437    2891.1934   -2342.2598      1344.75    589.83006    2128.6259    80.434382 
    1400    123.48352   -108.26093   0.11173049    -108.1492    848.86773    4.3159061    4.3159061    4.3159061    848.86773    398.19448    3446.9285   -1298.5198    -636.0806   -630.22802   -157.63465    80.392577 
    1500    92.520182   -108.23342  0.083714205    -108.1497    1166.8191    4.3160095    4.3160095    4.3160095    1166.8191    946.31212    2759.5943   -205.44929   -549.62884    797.00554    35.315634    80.398359 
    1600    111.11457   -108.25049    0.1005388   -108.14995   -491.72081    4.3171331    4.3171331    4.3171331   -491.72081   -3212.8674    4247.2025   -2509.4975    320.90343    723.90934    1009.5107    80.461163 
    1700    130.71006   -108.26754   0.11826921   -108.14927    2905.2221    4.3160928    4.3160928    4.3160928    2905.2221    499.54603    7805.2822    410.83805    859.26595    243.66905     512.5823    80.403011 
    1800    76.344677   -108.21913  0.069078268   -108.15005   -672.82353    4.3174935    4.3174935    4.3174935   -672.82353    -409.8271    637.57827   -2246.2218    573.09161    275.35369    2156.8047    80.481317 
    1900    71.884645   -108.21494  0.065042737   -108.14989   -1678.1996    4.3180664    4.3180664    4.3180664   -1678.1996   -751.89826    712.42543    -4995.126   -225.40608   -101.69202    1161.5123    80.513362 
    2000    116.65259   -108.25474   0.10554971   -108.14919    493.72781    4.3171428    4.3171428    4.3171428    493.72781    285.99843     2232.541    -1037.356   -613.36367    98.654435    -932.8827    80.461706 
    2100    95.031489   -108.23592  0.085986488   -108.14993   -1827.6913    4.3184605    4.3184605    4.3184605   -1827.6913   -4605.6013    3692.0159   -4569.4885   -562.83842    736.79936    2079.9379    80.535407 
    2200    114.99264   -108.25385   0.10404775    -108.1498    -256.2033    4.3177292    4.3177292    4.3177292    -256.2033   -333.87756    1927.7133   -2362.4457    964.66593    182.20996    688.85123    80.494498 
    2300    131.74192    -108.2684   0.11920285    -108.1492   -7.8439588    4.3173688    4.3173688    4.3173688   -7.8439588   -1461.8434    2324.3768   -886.06525    252.67391   -539.66497    142.01157    80.474347 
    2400    54.361194   -108.19918  0.049187151   -108.14999   -1898.8057    4.3181529    4.3181529    4.3181529   -1898.8057    725.40217   -852.72437    -5569.095    83.545375    294.50223    2424.7047      80.5182 
    2500    80.014045   -108.22214  0.072398389   -108.14974    662.66686     4.316792     4.316792     4.316792    662.66686    30.103181     4725.207   -2767.3095   -734.65057   -359.76788   -395.23611    80.442093 
    2600    126.82298   -108.26405    0.1147521    -108.1493    242.06253    4.3170015    4.3170015    4.3170015    242.06253   -1762.2256    4656.8419   -2168.4287   -124.82729    442.57556    505.55927    80.453808 
    2700    90.648799   -108.23212  0.082020938    -108.1501   -736.17028    4.3173396    4.3173396    4.3173396   -736.17028    -459.4868    1487.5999   -3236.6239    1196.4663    946.75751    3878.7775    80.472709 
    2800    148.41765   -108.28351   0.13429141   -108.14922   -388.55076    4.3166904    4.3166904    4.3166904   -388.55076   -1168.1121    925.98779   -923.52801     51.17643   -392.66118   -585.99701    80.436413 
    2900    81.713457   -108.22355  0.073936054   -108.14962    1106.1296    4.3170617    4.3170617    4.3170617    1106.1296    2062.1893    3434.6592   -2178.4597    -281.3496   -330.62491   -128.81631    80.457173 
    3000    45.973009   -108.19182  0.041597344   -108.15023   -836.57257    4.3170462    4.3170462    4.3170462   -836.57257   -809.24653    4042.8336   -5743.3048   -386.59008    259.04806    1539.7471    80.456307 
    3100    112.90612    -108.2516   0.10215983   -108.14944    930.54877    4.3167961    4.3167961    4.3167961    930.54877   -115.19803    4675.4678   -1768.6235   -238.53337    136.86537   -1228.7658    80.442324 
    3200    126.15533   -108.26372     0.114148   -108.14957   -983.52795    4.3176879    4.3176879    4.3176879   -983.52795   -2179.1353    2023.1375   -2794.5861    562.76178    107.97243    1727.0024     80.49219 
    3300    120.37801   -108.25873   0.10892055   -108.14981    -2388.956    4.3176485    4.3176485    4.3176485    -2388.956   -1694.3011   -1908.9932   -3563.5735    1088.5024    869.40146    2951.3422    80.489984 
    3400    98.190546   -108.23835   0.08884487    -108.1495    2420.5003    4.3171223    4.3171223    4.3171223    2420.5003    748.50327    6773.1204   -260.12263   -814.14481   -415.46137   -1170.4822    80.460559 
    3500    70.989096   -108.21413  0.064232426    -108.1499   -1138.2491    4.3176704    4.3176704    4.3176704   -1138.2491   -1162.8749    3642.4079   -5894.2804   -1024.3669    31.919901     804.4702    80.491213 
    3600    51.187158   -108.19643  0.046315216   -108.15011    248.71847    4.3173054    4.3173054    4.3173054    248.71847   -52.961435    4099.4124   -3300.2955    425.35102    927.30022    1408.7944    80.470801 
    3700    171.03096   -108.30371   0.15475241   -108.14896   -1872.3389    4.3177493    4.3177493    4.3177493   -1872.3389   -3031.7334   -583.79449   -2001.4889    41.214238    128.18307   -1132.7901    80.495625 
    3800     106.9348   -108.24666  0.096756851    -108.1499   -721.43605    4.3175727    4.3175727    4.3175727   -721.43605   -1079.4359    1440.5273   -2525.3996    413.66202    715.81051    1474.5459    80.485745 
    3900    91.087549   -108.23231  0.082417928    -108.1499    770.68504    4.3170915    4.3170915    4.3170915    770.68504   -769.32823    4073.4945    -992.1112    15.640826    -380.5425    187.63602    80.458839 
    4000    92.259671   -108.23276  0.083478489   -108.14929    1885.0696    4.3168896    4.3168896    4.3168896    1885.0696    458.92987    7598.8609   -2402.5821   -689.01409    -215.8328   -899.94175    80.447549 
    4100    49.268858   -108.19463  0.044579498   -108.15005   -417.46584    4.3172526    4.3172526    4.3172526   -417.46584   -300.46459    2372.6996   -3324.6325   -224.52436    554.27191    1676.8074    80.467848 
    4200    137.23122   -108.27365   0.12416969   -108.14948   -2510.8557    4.3173453    4.3173453    4.3173453   -2510.8557   -2223.0045   -2660.1339   -2649.4288    1043.4798    199.45562    1782.8291    80.473029 
    4300    132.67753   -108.26944   0.12004942   -108.14939    1165.9346     4.317204     4.317204     4.317204    1165.9346   -850.13038     4215.311    132.62318    336.83406    908.81934   -129.41265    80.465128 
    4400    93.770621   -108.23481  0.084845628   -108.14996   -586.50028    4.3172067    4.3172067    4.3172067   -586.50028   -1944.8427    2267.1108    -2081.769   -727.20242    471.71366     894.4801    80.465278 
    4500    69.010003    -108.2122  0.062441701   -108.14975    2657.1142    4.3166536    4.3166536    4.3166536    2657.1142    1515.7908    7973.3006   -1517.7488   -172.84502   -582.48169   -633.29367    80.434356 
    4600    106.70125     -108.246  0.096545532   -108.14945   -1265.3613    4.3177048    4.3177048    4.3177048   -1265.3613   -1135.1327   -23.397063   -2637.5542   -346.96815    25.274178   -281.81098    80.493133 
    4700     77.11465   -108.21979  0.069774956   -108.15001   -2204.4898     4.317363     4.317363     4.317363   -2204.4898   -1097.7209   -1267.3121   -4248.4365    1749.9483     672.7353    2395.9666    80.474022 
    4800    140.54848   -108.27658   0.12717121   -108.14941   -421.69026    4.3175935    4.3175935    4.3175935   -421.69026   -1501.6778    1209.5497    -972.9427     400.9497   -445.33733    220.11937    80.486911 
    4900    112.50382    -108.2514   0.10179582    -108.1496    1210.4611    4.3173109    4.3173109    4.3173109    1210.4611   -1970.9872    6785.7332   -1183.3626   -43.702575     78.10012    683.29961    80.471104 
    5000     60.57695   -108.20494  0.054811297   -108.15013    575.66269    4.3170081    4.3170081    4.3170081    575.66269    1386.5716    3482.0114    -3141.595   -85.793209     394.3221    865.07752    80.454174 
    5100    117.64273   -108.25562   0.10644561   -108.14918   -1028.0998    4.3180287    4.3180287    4.3180287   -1028.0998   -1076.0121    705.66532   -2713.9524   -545.25659   -642.60633   -10.872438    80.511253 
    5200    84.409022    -108.2259  0.076375057   -108.14953   -1050.4889    4.3171287    4.3171287    4.3171287   -1050.4889    79.905104    865.63058   -4097.0025    1024.8624    648.78828    1540.4574     80.46092 
    5300      102.249   -108.24235   0.09251704   -108.14984    -1919.749    4.3176605    4.3176605    4.3176605    -1919.749   -1702.5628   -48.344249   -4008.3399    286.79912    892.80769    1742.4061    80.490657 
    5400    120.36199   -108.25831   0.10890606   -108.14941    2597.1086    4.3172326    4.3172326    4.3172326    2597.1086   -1020.0602    9421.1194    -609.7333   -324.92236   -428.93914   -1240.9847    80.466727 
    5500    100.68192   -108.24094  0.091099119   -108.14985     70.43191    4.3166164    4.3166164    4.3166164     70.43191    1004.6834    1607.7535   -2401.1412   -649.51704   -497.15089    1629.9572    80.432276 
    5600    79.525511   -108.22166  0.071956354   -108.14971     -932.219    4.3180536    4.3180536    4.3180536     -932.219   -456.07428    1915.3782   -4255.9609    1311.5405   -4.9984161    1152.0204    80.512643 
    5700    116.00765   -108.25406   0.10496616   -108.14909   -597.67186    4.3169879    4.3169879    4.3169879   -597.67186    109.14194    978.23419   -2880.3917    317.20636   -160.74462   -100.42455    80.453049 
    5800    75.637743    -108.2183  0.068438619   -108.14986   -635.00708    4.3170838    4.3170838    4.3170838   -635.00708    -1465.607    4283.5561   -4722.9704    558.32351    351.21032    2740.6447    80.458407 
    5900    104.01665   -108.24397   0.09411645   -108.14985     385.9636    4.3179998    4.3179998    4.3179998     385.9636   -1333.1159    4924.7329   -2433.7262    16.012903    849.61343   -1048.7096    80.509632 
    6000     138.4635   -108.27454   0.12528469   -108.14926    917.76877    4.3163252    4.3163252    4.3163252    917.76877   -408.87107    2841.2771    320.90025   -1405.0467   -91.209771   -762.01675    80.416002 
    6100     79.82448   -108.22206  0.072226867   -108.14983   -1466.8339    4.3180761    4.3180761    4.3180761   -1466.8339    86.996493    369.29239   -4856.7905    622.65732    223.93725    2545.9995    80.513903 
    6200     91.23514   -108.23209  0.082551472   -108.14954   -969.55416    4.3176022    4.3176022    4.3176022   -969.55416   -1533.6988    1426.8247   -2801.7884    645.02878   -37.004853    697.63626    80.487395 
    6300     91.69731   -108.23244  0.082969653   -108.14947    894.84209    4.3165093    4.3165093    4.3165093    894.84209   -790.84136    6728.2943   -3252.9267    780.84907    451.79102    250.24207    80.426291 
    6400    87.769993   -108.22933  0.079416134   -108.14991   -1116.4132    4.3184085    4.3184085    4.3184085   -1116.4132    -2351.577    2296.2287   -3293.8912   -507.89988    359.68419    2231.3486    80.532497 
    6500    134.96719    -108.2714   0.12212115   -108.14928    417.50283    4.3167297    4.3167297    4.3167297    417.50283    -1665.842    1991.5968     926.7537    783.61154   -835.27376   -1438.3292    80.438613 
    6600    120.62791   -108.25848   0.10914667   -108.14933    -141.7373    4.3171684    4.3171684    4.3171684    -141.7373    729.90387      1080.43   -2235.5458   -32.948916    619.15707    192.51884    80.463138 
    6700    55.606739   -108.20027  0.050314146   -108.14996   -407.03285    4.3179127    4.3179127    4.3179127   -407.03285   -2648.8891    4438.0164   -3010.2258    1304.9568    255.53328     2517.379    80.504763 
    6800    94.062666    -108.2345  0.085109877    -108.1494    1062.5359    4.3163139    4.3163139    4.3163139    1062.5359    253.89153    5765.5666   -2831.8505     568.3325    19.238101   -1045.3812    80.415371 
    6900    102.05161   -108.24183  0.092338441   -108.14949    18.612222    4.3177002    4.3177002    4.3177002    18.612222   -2596.6258    4082.1194   -1429.6569   -876.09554    1196.7894    361.21183    80.492879 
    7000    118.01477   -108.25643   0.10678225   -108.14965   -1301.0674    4.3174909    4.3174909    4.3174909   -1301.0674   -1675.0405   -1079.1586   -1149.0031    733.12067    328.43189     1662.959    80.481171 
    7100      130.045   -108.26702   0.11766745   -108.14935     1546.723    4.3165215    4.3165215    4.3165215     1546.723    596.26103    4048.1346   -4.2267748   -597.13287   -865.62712    204.43501    80.426976 
    7200    73.934094   -108.21669  0.066897122   -108.14979    738.65636    4.3175773    4.3175773    4.3175773    738.65636   -2077.1696    6562.8531   -2269.7145    1741.9449    56.233091    1663.6843    80.486001 
    7300    60.410925   -108.20448  0.054661074   -108.14982    462.43776    4.3169373    4.3169373    4.3169373    462.43776    358.20634    5459.2774   -4430.1704    293.43783    408.50912    1664.8391    80.450215 
    7400    126.07498   -108.26315   0.11407529   -108.14907   -238.84343    4.3172034    4.3172034    4.3172034   -238.84343   -2383.2104    2376.6724   -709.99236   -162.79815   -588.92979   -1340.8462    80.465095 
    7500    113.81351   -108.25264   0.10298086   -108.14966   -1304.9106    4.3177993    4.3177993    4.3177993   -1304.9106   -1040.2106   -474.24437   -2400.2768   -511.89961    629.77793    837.24804    80.498421 
    7600    110.16306   -108.24949   0.09967785   -108.14981    418.30306    4.3170162    4.3170162    4.3170162    418.30306   -773.66718    3308.4094    -1279.833    905.04664    412.16457    1451.1697    80.454629 
    7700    98.176575   -108.23828  0.088832228   -108.14945    1706.7876    4.3171108    4.3171108    4.3171108    1706.7876   -582.12417    7315.8404   -1613.3533    46.543858   -220.38954     656.0956    80.459918 
    7800    60.238876   -108.20435  0.054505401   -108.14985   -585.93325    4.3174891    4.3174891    4.3174891   -585.93325   -667.30261    4554.5824   -5645.0796   -63.902972    297.76255    2090.3506    80.481074 
    7900    112.25542   -108.25098   0.10157106   -108.14941   -2154.8636    4.3174743    4.3174743    4.3174743   -2154.8636   -1440.6009    -2103.972   -2920.0177     350.8931    433.45851    409.48905    80.480242 
    8000    122.47997   -108.26023   0.11082245   -108.14941   -389.02911    4.3174669    4.3174669    4.3174669   -389.02911   -846.26143    1725.1882   -2046.0141   -1847.5527   -163.88711   -78.212329    80.479829 
    8100    103.20773   -108.24322  0.093384522   -108.14983   -869.26373    4.3175511    4.3175511    4.3175511   -869.26373   -1574.5134    2011.2236   -3044.5014    1404.9975    -660.1509    2049.7774    80.484541 
    8200    82.261666   -108.22412  0.074432084   -108.14968    2138.9113    4.3169314    4.3169314    4.3169314    2138.9113    1005.5893    7329.2796   -1918.1351    144.74082   -87.493143     212.4577    80.449885 
    8300    105.94942   -108.24528  0.095865262   -108.14941   -1365.5376     4.317569     4.317569     4.317569   -1365.5376   -1798.7213    2320.3467   -4618.2383    43.811908    205.39654    1196.1361    80.485538 
    8400    79.995698   -108.22206  0.072381789   -108.14967   -2146.6477    4.3176011    4.3176011    4.3176011   -2146.6477    94.643659    -1735.503   -4799.0837   -604.52239    324.68592    1219.5561    80.487335 
    8500    123.97025   -108.26149   0.11217089   -108.14932   -1146.2454    4.3174356    4.3174356    4.3174356   -1146.2454     -1321.62    250.62438   -2367.7405   -282.02514    440.69267    -786.4231    80.478078 
    8600    103.10021   -108.24284  0.093287237   -108.14955    907.21869    4.3173208    4.3173208    4.3173208    907.21869    -1094.124    5918.7418   -2102.9617    168.80554    818.08263    1957.1336    80.471658 
    8700    78.032665   -108.22054  0.070605596   -108.14993    1218.3985    4.3170215    4.3170215    4.3170215    1218.3985    1350.3663    5078.9301   -2774.1011    658.86237   -427.83538    1423.7593    80.454927 
    8800    121.05715   -108.25875   0.10953506   -108.14921   -886.23719    4.3175341    4.3175341    4.3175341   -886.23719   -2294.7927    2178.7448   -2542.6637    476.81423    -733.7767   -752.33595    80.483588 
    8900    87.723098   -108.22889  0.079373703   -108.14951   -924.41448    4.3174698    4.3174698    4.3174698   -924.41448    1156.1794    808.73385   -4738.1566     -1320.63      859.332    883.15523    80.479991 
    9000    102.98424   -108.24279  0.093182307   -108.14961   -1512.5827    4.3174898    4.3174898    4.3174898   -1512.5827   -2113.6773    238.38362   -2662.4546    762.15462   -336.25827    359.97877    80.481113 
    9100    91.714759   -108.23256  0.082985441   -108.14957    2949.0202    4.3170735    4.3170735    4.3170735    2949.0202   -157.22271    9956.7129   -952.42963   -289.28187   -365.96976   -539.02899     80.45783 
    9200    108.79807   -108.24818  0.098442782   -108.14974    451.76162    4.3170458    4.3170458    4.3170458    451.76162    185.93427    2599.3821   -1430.0315     1001.876    1008.7643    3091.5797    80.456284 
    9300     98.09711   -108.23838  0.088760326   -108.14962   -60.677103    4.3174308    4.3174308    4.3174308   -60.677103   -1549.8727    2331.0215   -963.18014   -100.95925     91.78606     235.0989    80.477811 
    9400    118.88924   -108.25673   0.10757348   -108.14916   -1095.7683    4.3174302    4.3174302    4.3174302   -1095.7683    232.75721    323.11629   -3843.1784   -700.35521    -57.08281   -1261.6241     80.47778 
    9500    78.391347   -108.22054  0.070930138   -108.14961   -40.321917    4.3172512    4.3172512    4.3172512   -40.321917   -2607.2829    3828.1411   -1341.8239    185.23184    985.55626    1227.7046    80.467767 
    9600    82.481701   -108.22433  0.074631176    -108.1497    1704.9215    4.3171607    4.3171607    4.3171607    1704.9215    273.08242    6899.9539    -2058.272    753.02681   -45.447386   -443.09122    80.462709 
    9700    127.19298   -108.26443   0.11508688   -108.14934    484.02992    4.3171553    4.3171553    4.3171553    484.02992   -2098.0872     2664.302    885.87494    479.15089   -987.95717   -61.450077    80.462404 
    9800    99.679813   -108.23978   0.09019239   -108.14959   -614.24156    4.3174498    4.3174498    4.3174498   -614.24156    -721.7835   -302.22235   -818.71883   -322.25363   -65.245105     2041.519    80.478875 
    9900    114.58559   -108.25304   0.10367945   -108.14936    -1873.583    4.3175287    4.3175287    4.3175287    -1873.583    -1572.162   -250.43453   -3798.1524    496.81675    166.19479    -317.0915    80.483288 
   10000    75.945793   -108.21829  0.068717349   -108.14957    793.07204    4.3172708    4.3172708    4.3172708    793.07204   -2689.0131    5867.0908   -798.86164   -1547.1514    133.96338   -460.96475    80.468865 
   10100    81.275475   -108.22325  0.073539758   -108.14971   -285.22863    4.3173052    4.3173052    4.3173052   -285.22863    -329.3574    3561.0084   -4087.3369    1610.7201    465.44334    2866.4938    80.470785 
   10200     115.7919   -108.25415   0.10477094   -108.14938   -107.06378    4.3174675    4.3174675    4.3174675   -107.06378   -2911.2724     1588.503     1001.578    477.43257     504.9465   -276.92788    80.479866 
   10300    125.81007   -108.26314   0.11383559   -108.14931    -1219.594    4.3176022    4.3176022    4.3176022    -1219.594   -358.30203   -2302.6214   -997.85852   -846.56965     -46.2209   -2.0270611    80.487395 
   10400    93.013206   -108.23379  0.084160303   -108.14963   -1320.8701    4.3172578    4.3172578    4.3172578   -1320.8701   -2286.3427    2162.0893    -3838.357    787.48215   -464.88866    807.44343    80.468139 
   10500    80.955198   -108.22274  0.073249964   -108.14949    413.51082      4.31756      4.31756      4.31756    413.51082   -1578.8136    5254.3044   -2434.9584   -761.93323    202.60693   -1198.5108    80.485037 
   10600    88.341952    -108.2294  0.079933654   -108.14947   -38.145523    4.3170647    4.3170647    4.3170647   -38.145523   -1444.8189    5413.5045   -4083.1221    924.12757    140.30052    1258.7227    80.457338 
   10700    108.63005    -108.2478  0.098290748   -108.14951    -999.8426    4.3176102    4.3176102    4.3176102    -999.8426   -1316.7653   -207.04632   -1475.7162    440.37055   -742.41414    2294.8104    80.487844 
   10800    128.25027    -108.2654   0.11604354   -108.14936   -401.05007     4.317631     4.317631     4.317631   -401.05007   -275.04859    78.628193   -1006.7298   -67.319489   -46.867243   -400.75893    80.489007 
   10900    98.053401    -108.2383  0.088720778   -108.14957   -141.64954    4.3168383    4.3168383    4.3168383   -141.64954   -1852.3595    4365.2248   -2937.8139     -1246.18    774.67638    575.29095    80.444683 
   11000     71.73545   -108.21455  0.064907743   -108.14964    447.77407    4.3176875    4.3176875    4.3176875    447.77407    206.44504    6119.4093   -4982.5321    564.96084   -77.996327    209.01599    80.492166 
   11100    103.23715   -108.24276   0.09341114   -108.14935   -331.22515    4.3169999    4.3169999    4.3169999   -331.22515   -2297.7407    4612.6076   -3308.5424     328.0689    434.91646   -823.69826    80.453716 
   11200    105.89067   -108.24535  0.095812104   -108.14954   -855.34397    4.3175237    4.3175237    4.3175237   -855.34397    532.98225    19.652551   -3118.6667     303.5136    863.10706    1790.8018    80.483006 
   11300    114.28029    -108.2529   0.10340321    -108.1495   -192.79978    4.3177844    4.3177844    4.3177844   -192.79978   -249.76461    1083.0511   -1411.6859    646.88946   -1129.1467   -422.07386    80.497589 
   11400    103.80025   -108.24338  0.093920646   -108.14946    1024.7779    4.3163971    4.3163971    4.3163971    1024.7779   -856.74624    4573.2575   -642.17754   -1592.9964   -586.89844   -440.83981    80.420022 
   11500    74.471563   -108.21701  0.067383435   -108.14963    316.32906    4.3178456    4.3178456    4.3178456    316.32906    281.47311    6204.3087   -5536.7947    880.58012    632.27474     1120.432    80.501007 
   11600    106.91807   -108.24605  0.096741716   -108.14931   -1560.0434    4.3171873    4.3171873    4.3171873   -1560.0434   -2333.0166    590.01685   -2937.1305    70.793315   -133.32069   -355.20625    80.464194 
   11700    101.70092   -108.24147  0.092021133   -108.14945   -234.44532    4.3171129    4.3171129    4.3171129   -234.44532    1240.1943    633.57591   -2577.1062      618.004    202.25194    525.57453    80.460038 
   11800    112.95882   -108.25176   0.10220752   -108.14955   -886.99663    4.3180867    4.3180867    4.3180867   -886.99663   -1201.9294    81.857208   -1540.9177    -447.3812    664.50458    610.33775    80.514497 
   11900    85.619167   -108.22718  0.077470022   -108.14971     2117.955    4.3159924    4.3159924    4.3159924     2117.955    764.74674    4591.0834    998.03502   -163.81531    2.5475048   -2172.3174      80.3974 
   12000    104.86392   -108.24442  0.094883081   -108.14954   -763.01332    4.3180305    4.3180305    4.3180305   -763.01332   -1613.2664    3088.4891   -3764.2626    -266.7395   -241.65715    344.96105    80.511349 
   12100    95.145757   -108.23554  0.086089881   -108.14945   -1332.1005    4.3173925    4.3173925    4.3173925   -1332.1005   -1841.3061    304.57958   -2459.5751    1332.3758    406.08182       1187.4    80.475668 
   12200    106.14292   -108.24539  0.096040347   -108.14935   -825.98028    4.3168233    4.3168233    4.3168233   -825.98028    937.29004   -905.31741   -2509.9135    1030.1056    15.377522   -589.59598    80.443846 
   12300    101.83889   -108.24172   0.09214597   -108.14957    204.39815    4.3182347    4.3182347    4.3182347    204.39815   -2347.3851    3329.4451   -368.86558   -1688.8727    -674.1013    1143.2586    80.522774 
   12400    81.620073    -108.2236  0.073851557   -108.14975    2402.2955    4.3159547    4.3159547    4.3159547    2402.2955    1838.5868    4543.1291     825.1707    1098.1952   -403.94323   -444.48983    80.395293 
   12500    120.13085   -108.25813   0.10869692   -108.14943   -993.04222    4.3179045    4.3179045    4.3179045   -993.04222   -3172.8729    1530.3014   -1336.5551   -1175.0546    519.60717   -1639.3481    80.504304 
   12600    93.482618   -108.23402  0.084585037   -108.14944   -474.26767    4.3176201    4.3176201    4.3176201   -474.26767   -1578.1888    2395.1837    -2239.798    1083.4721    535.41689    1105.4664      80.4884 
   12700    112.67557   -108.25122   0.10195123   -108.14926   -1473.0555    4.3166972    4.3166972    4.3166972   -1473.0555    22.074884   -645.06703   -3796.1743    679.20963    63.859618    756.08165    80.436792 
   12800    76.146561   -108.21863  0.068899008   -108.14973    2067.6687    4.3179945    4.3179945    4.3179945    2067.6687   -1907.3084    8137.8813   -27.566728   -1032.8555    635.20928   -1098.9625    80.509336 
   12900    103.08733     -108.243  0.093275579   -108.14972    1347.3256    4.3162757    4.3162757    4.3162757    1347.3256    948.68097    3636.2756   -542.97977   -791.00311   -504.90145    1579.3813    80.413235 
   13000    107.06344   -108.24641  0.096873253   -108.14953    188.52893    4.3175152    4.3175152    4.3175152    188.52893   -2497.9494    3217.4427   -153.90644    504.54634   -972.82184     -183.371    80.482533 
   13100    114.18454    -108.2526   0.10331657   -108.14928    -1533.765      4.31797      4.31797      4.31797    -1533.765   -1953.9377    147.23834   -2794.5955    277.56039    359.56199    -341.1822    80.507967 
   13200    99.549949   -108.23946  0.090074886   -108.14938   -696.42157    4.3164867    4.3164867    4.3164867   -696.42157    -1392.319    3743.4919   -4440.4376   -738.78956    489.99316    2045.2878    80.425026 
   13300     71.95441   -108.21474  0.065105862   -108.14964    1247.9016    4.3180686    4.3180686    4.3180686    1247.9016   -411.11919    6598.3001   -2443.4761    173.52734   -441.88004   -1040.4263    80.513483 
   13400    106.15933   -108.24558  0.096055196   -108.14952    107.85061    4.3167858    4.3167858    4.3167858    107.85061   -1403.2276    2954.8337   -1228.0542   -2596.1074    315.16645   -1454.5928    80.441748 
   13500    105.99023   -108.24539  0.095902191   -108.14949   -144.37414    4.3173926    4.3173926    4.3173926   -144.37414   -986.31383    1070.6859   -517.49447    773.56886    652.81507    1313.5693    80.475677 
   13600     126.3609   -108.26364   0.11433399    -108.1493   -3197.1314    4.3183716    4.3183716    4.3183716   -3197.1314   -2627.3281   -3294.9993   -3669.0669   -34.317272   -573.13888    236.05358    80.530434 
   13700    80.663459   -108.22259  0.072985993    -108.1496    -314.7212    4.3166613    4.3166613    4.3166613    -314.7212   -2789.2536    5882.0787   -4036.9887   -513.76369    679.47709    575.85566    80.434789 
   13800    87.314103   -108.22852  0.079003635   -108.14952   -567.51553    4.3181153    4.3181153    4.3181153   -567.51553    186.63937    3320.5147   -5209.7007   -396.31166    183.08074    1939.7881    80.516096 
   13900    88.708244   -108.22977  0.080265083   -108.14951    31.154867    4.3171644    4.3171644    4.3171644    31.154867   -2326.9627    3573.9498   -1153.5225    -1487.662   -857.76369   -1722.3236    80.462918 
   14000    120.94528   -108.25882   0.10943384   -108.14938   -1323.0268    4.3172574    4.3172574    4.3172574   -1323.0268   -141.35728   -2980.8894   -846.83372   -78.612067    -272.0887   -49.151584    80.468115 
   14100    116.73313   -108.25506   0.10562259   -108.14944   -1602.1811    4.3180358    4.3180358    4.3180358   -1602.1811   -2368.1108   -339.39439    -2099.038    361.55429     210.0833     809.6676     80.51165 
   14200    85.614391   -108.22706    0.0774657   -108.14959   -400.40853    4.3169474    4.3169474    4.3169474   -400.40853   -2547.4217    4603.8365   -3257.6404    106.12143    682.50339   -492.59588    80.450783 
   14300    83.868388   -108.22539   0.07588588    -108.1495    242.21612    4.3175072    4.3175072    4.3175072    242.21612   -487.99718     6038.314   -4823.6685   -1548.1334    206.40281    439.25595    80.482083 
   14400    96.376669   -108.23657  0.087203636   -108.14937    434.17348     4.317262     4.317262     4.317262    434.17348   -829.36631    3178.4051   -1046.5183    211.09884    424.65381     90.30993     80.46837 
   14500     117.4162   -108.25566   0.10624065   -108.14942   -254.79865    4.3171384    4.3171384    4.3171384   -254.79865    363.93714   -1092.8579   -35.475212   -812.55506   -291.15537   -146.96004    80.461463 
   14600    108.53621   -108.24773  0.098205847   -108.14952    941.57324    4.3172055    4.3172055    4.3172055    941.57324   -1669.0365    3628.2219    865.53428    654.16789   -504.43242    1247.7872    80.465213 
   14700    99.829236    -108.2398   0.09032759   -108.14947    700.10608    4.3170346    4.3170346    4.3170346    700.10608   -1322.3211    5601.1134   -2178.4741    786.12268   -64.593478    368.76689    80.455657 
   14800    76.196619    -108.2185  0.068944302   -108.14955    1293.0868    4.3170674    4.3170674    4.3170674    1293.0868   -1647.5357    8603.7089   -3076.9127   -2014.7453    490.29901   -752.31993    80.457494 
   14900    109.34573   -108.24825  0.098938314   -108.14932    194.46483    4.3170861    4.3170861    4.3170861    194.46483    186.06636    1551.7174   -1154.3893   -333.87306    -126.1024    146.91584    80.458538 
   15000    105.73214   -108.24511  0.095668661   -108.14945    1073.0195    4.3172874    4.3172874    4.3172874    1073.0195     555.8709    2756.5397   -93.351967    92.288265   -660.80627   -1059.8832    80.469791 
   15100    106.06418   -108.24553  0.095969096   -108.14956    821.75754    4.3169534    4.3169534    4.3169534    821.75754   -1509.0234     1999.395     1974.901    157.04754    755.66692    1145.3486    80.451119 
   15200    97.442925   -108.23758  0.088168406   -108.14941    1259.0977    4.3170699    4.3170699    4.3170699    1259.0977   -1538.6884    6535.4701   -1219.4886   -91.818329   -37.836983    1433.0588    80.457633 
   15300    96.398394   -108.23667  0.087223293   -108.14945   -538.91051    4.3175057    4.3175057    4.3175057   -538.91051   -2552.1619    4400.7205   -3465.2902   -271.10173    165.92657   -933.26405    80.482002 
   15400    93.527985   -108.23423  0.084626087   -108.14961   -815.66444    4.3169996    4.3169996    4.3169996   -815.66444   -875.24586     103.5168   -1675.2643   -2050.6765     449.6842    336.62748    80.453699 
   15500    108.59322   -108.24769   0.09825743   -108.14943   -139.42548    4.3177251    4.3177251    4.3177251   -139.42548   -193.00831    1919.7572   -2145.0254    305.00652   -554.62473    702.34702    80.494269 
   15600    97.558223   -108.23793  0.088272731   -108.14966     438.3551    4.3170669    4.3170669    4.3170669     438.3551   -993.33808    942.00827    1366.3951    725.61541   -982.18474    -838.8362    80.457461 
   15700    93.001921   -108.23382  0.084150093   -108.14967   -251.75096    4.3172937    4.3172937    4.3172937   -251.75096   -3092.4805    3224.5505   -887.32291   -1520.3027    263.58204    1540.7156    80.470146 
   15800    116.93306   -108.25507   0.10580349   -108.14927   -2002.2686     4.317916     4.317916     4.317916   -2002.2686   -2860.7447    1125.3475   -4271.4085    141.24947    780.49441    1041.6584    80.504945 
   15900    86.545815   -108.22788  0.078308472   -108.14957   -1450.0452    4.3170174    4.3170174    4.3170174   -1450.0452   -1176.2144   -570.71325   -2603.2079   -1787.0166   -180.17299   -1862.4956    80.454696 
   16000    99.692504   -108.23973  0.090203873   -108.14953   -1495.4286    4.3179255    4.3179255    4.3179255   -1495.4286   -1566.5379    1398.2214   -4317.9692    272.18175    662.51119    1740.5714    80.505477 
   16100    92.099571   -108.23287  0.083333627   -108.14953    1523.4592    4.3170168    4.3170168    4.3170168    1523.4592    683.46672    3716.1697    170.74122    1020.2143   -265.07261    1073.8706     80.45466 
   16200    106.69506   -108.24619  0.096539932   -108.14965   -911.60046    4.3171718    4.3171718    4.3171718   -911.60046   -2982.1147    882.02539   -634.71212   -561.80168   -478.29319   -1302.4866    80.463327 
   16300    106.63401   -108.24592  0.096484689   -108.14944   -1219.7749    4.3179687    4.3179687    4.3179687   -1219.7749   -2984.8027    2998.5029   -3673.0248   -932.06107    358.09493    1382.5183    80.507896 
   16400    112.40698    -108.2509   0.10170819    -108.1492   -1181.9073    4.3169598    4.3169598    4.3169598   -1181.9073   -392.88205    390.87398   -3543.7139   -689.16304    162.57757   -11.651871    80.451473 
   16500    73.746796    -108.2165  0.066727651   -108.14977    64.113619    4.3175265    4.3175265    4.3175265    64.113619    -1534.321    6285.1346   -4558.4727   -169.50281    112.19586   -1020.0322    80.483162 
   16600    92.428834   -108.23328  0.083631552   -108.14965    1655.8955    4.3171592    4.3171592    4.3171592    1655.8955    1240.1451    4583.6573   -856.11584    421.71575   -488.21545    2639.9734    80.462625 
   16700    118.10021   -108.25632   0.10685955   -108.14946    835.42011    4.3167438    4.3167438    4.3167438    835.42011   -1010.5507    2986.3443    530.46683    781.79252    282.74086     632.5508      80.4394 
   16800    104.52181   -108.24415  0.094573526   -108.14958   -1054.8596    4.3179144    4.3179144    4.3179144   -1054.8596    -2923.306    1828.7914   -2070.0643   -1797.3874    535.77279    -1075.008    80.504855 
   16900    116.85674     -108.255   0.10573444   -108.14926   -690.52268    4.3171899    4.3171899    4.3171899   -690.52268   -1326.5409    2401.7933   -3146.8205    272.60124    149.58151    165.01278    80.464338 
   17000    73.551203   -108.21613  0.066550674   -108.14958    1633.8876    4.3169107    4.3169107    4.3169107    1633.8876   -79.091281    8664.9483   -3684.1941    496.24411    232.69769   -678.01771    80.448728 
   17100    84.848137   -108.22652  0.076772377   -108.14975    205.31782    4.3174846    4.3174846    4.3174846    205.31782   -285.17592     2512.043   -1610.9136   -21.206823   -332.72619    -279.3674    80.480821 
   17200    112.00409   -108.25076   0.10134366   -108.14942    1479.5583    4.3167965    4.3167965    4.3167965    1479.5583   -402.30363    3261.4363    1579.5423    383.43635   -796.75607    964.61068    80.442347 
   17300    130.65359   -108.26761   0.11821812   -108.14939   -1760.9542    4.3175526    4.3175526    4.3175526   -1760.9542   -2086.3408    -2550.365   -646.15667    -1084.857   -91.461013   -328.78068    80.484625 
   17400    85.550026   -108.22716  0.077407462   -108.14975   -807.40007    4.3176549    4.3176549    4.3176549   -807.40007   -4199.1433    3564.7893   -1787.8462   -1349.0836    1014.6625   -26.940729    80.490344 
   17500    97.490335    -108.2376  0.088211304   -108.14939    189.15227     4.317053     4.317053     4.317053    189.15227   -310.20797    4563.0787    -3685.414    558.90337   -3.3031348     404.9346    80.456686 
   17600    75.002137   -108.21752  0.067863509   -108.14966     29.89038    4.3172894    4.3172894    4.3172894     29.89038   -1162.5992    3067.9185   -1815.6482    993.77147   -38.313314   -244.72299    80.469905 
   17700    104.52259   -108.24416  0.094574236   -108.14958   -894.06782    4.3177259    4.3177259    4.3177259   -894.06782   -1563.3292    -2065.582    946.70777    -1285.162    224.57762    680.70618    80.494316 
   17800    134.97296   -108.27129   0.12212637   -108.14916    -557.2701    4.3169352    4.3169352    4.3169352    -557.2701   -1085.9241    -1268.498    682.61178     306.0465   -716.05783   -1627.7706    80.450099 
   17900    88.607842   -108.22981  0.080174238   -108.14963   -883.43492    4.3177296    4.3177296    4.3177296   -883.43492   -4713.6617    2859.8004   -796.44346   -1453.5984    182.65984   -725.74554    80.494523 
   18000    89.798164   -108.23077  0.081251265   -108.14952   -755.97775    4.3175911    4.3175911    4.3175911   -755.97775   -2662.4542    3709.4334   -3314.9125    -131.5292    394.74371    823.30668    80.486778 
   18100    87.450776   -108.22844    0.0791273   -108.14931    946.84585    4.3166372    4.3166372    4.3166372    946.84585   -283.45097    5681.3732   -2557.3847    1361.8908   -264.37767    248.49261    80.433442 
   18200    106.75864   -108.24615   0.09659746   -108.14955   -1967.4783    4.3183088    4.3183088    4.3183088   -1967.4783   -1654.6238   -3471.3961   -776.41489   -1297.0656   -548.54985    209.04226    80.526921 
   18300    103.92707   -108.24358  0.094035399   -108.14955    1364.4053    4.3166641    4.3166641    4.3166641    1364.4053   -1194.4357    4313.4906    974.16082   -606.01807    207.53237    947.28524    80.434943 
   18400    126.92661   -108.26415   0.11484586   -108.14931   -224.68051    4.3171903    4.3171903    4.3171903   -224.68051   -2286.8009    2730.6566   -1117.8973   -781.41119     452.6803   -1514.3517    80.464361 
   18500    66.285391    -108.2098  0.059976415   -108.14982     331.6084    4.3177845    4.3177845    4.3177845     331.6084   -4416.1758    8143.2364   -2732.2354   -119.65914    329.05659   -638.72569    80.497594 
   18600    108.31962   -108.24744  0.098009868   -108.14943   -282.61599    4.3165813    4.3165813    4.3165813   -282.61599   -343.07677    3742.1649   -4246.9361    540.42164    473.84431    1984.2481    80.430318 
   18700    103.15556   -108.24283  0.093337315    -108.1495    84.395916    4.3179853    4.3179853    4.3179853    84.395916   -265.75099    2030.6176   -1511.6789    197.24559   -616.26273   -1574.5396     80.50882 
   18800    87.472002   -108.22899  0.079146505   -108.14985    679.93068    4.3169842    4.3169842    4.3169842    679.93068    -1774.948    4144.5825   -329.84247   -2104.8289   -246.14985    188.30006    80.452839 
   18900    123.36898   -108.26096   0.11162684   -108.14933     852.5587    4.3167958    4.3167958    4.3167958     852.5587   -802.96777    3955.1554   -594.51152   -278.98416   -330.35667     830.1185    80.442307 
   19000    90.936133   -108.23185  0.082280924   -108.14957    74.999478    4.3180148    4.3180148    4.3180148    74.999478   -4215.8818    6978.0441   -2537.1639    267.99578    615.17291   -950.55578    80.510471 
   19100    99.720063   -108.23985  0.090228809   -108.14962   -2414.2089    4.3169637    4.3169637    4.3169637   -2414.2089   -1899.5161   -508.74356   -4834.3672   -612.47502    670.86528   -104.43035    80.451696 
   19200    94.070147   -108.23461  0.085116646   -108.14949    600.26274    4.3176384    4.3176384    4.3176384    600.26274   -57.730332    4240.0252   -2381.5066    550.47752   -426.81816    847.44916    80.489419 
   19300    101.82656   -108.24173   0.09213481    -108.1496   -725.83209    4.3173446    4.3173446    4.3173446   -725.83209   -831.72663    727.85326   -2073.6229   -1797.5558    417.80498   -2406.9185    80.472994 
   19400    83.831717   -108.22567    0.0758527   -108.14981    831.05954    4.3168132    4.3168132    4.3168132    831.05954   -1485.7247    3328.0084    650.89498   -1273.5639   -162.04841   -246.42463    80.443279 
   19500    137.09558   -108.27316   0.12404696   -108.14911   -1811.1603    4.3182416    4.3182416    4.3182416   -1811.1603   -3419.3587    1007.5548   -3021.6769    430.24493   -88.496835    1535.5687     80.52316 
   19600     87.75341   -108.22895   0.07940113   -108.14955   -2020.7563    4.3170176    4.3170176    4.3170176   -2020.7563   -2388.4645   -547.51985   -3126.2844    211.97206    473.98518   -1196.6463    80.454705 
   19700    84.642253   -108.22623   0.07658609   -108.14964   -1244.5984    4.3177963    4.3177963    4.3177963   -1244.5984   -1936.9876    1575.4796   -3372.2871   -1265.5735    86.454637    1513.5705     80.49825 
   19800    103.95326   -108.24344   0.09405909   -108.14939    489.09666    4.3172203    4.3172203    4.3172203    489.09666    561.99262    3062.2719   -2156.9745   -321.01793   -798.94311   -1233.1141    80.466043 
   19900    81.049952   -108.22326    0.0733357   -108.14993    492.71685     4.316822     4.316822     4.316822    492.71685   -1371.5581    1127.0097    1722.6989   -1515.8994    130.35122   -1603.7727    80.443774 
   20000     133.9508   -108.27058    0.1212015   -108.14938   -1929.1545    4.3182392    4.3182392    4.3182392   -1929.1545    -3544.621   -166.54268   -2076.2996   -197.36737    684.96982   -128.21096    80.523029 
   20100    108.23748   -108.24719  0.097935549   -108.14926   -116.91606    4.3168117    4.3168117    4.3168117   -116.91606   -1605.4119     2015.504   -760.84034    1338.7166    -139.0488    -182.2346    80.443194 
   20200    76.791906   -108.21922   0.06948293   -108.14974   -1134.4809    4.3176107    4.3176107    4.3176107   -1134.4809   -2907.9235    3136.7106   -3632.2297   -1631.3308     572.0356   -271.98939    80.487873 
   20300    82.602768   -108.22454   0.07474072    -108.1498    1950.7163    4.3170311    4.3170311    4.3170311    1950.7163    155.75922     6917.244   -1220.8543   -985.62051   -408.05141    482.61906     80.45546 
   20400    112.39794   -108.25134   0.10170002   -108.14964    1466.3008    4.3165844    4.3165844    4.3165844    1466.3008    410.08073    2471.8807    1516.9409   -942.20163   -832.55769   -88.231256    80.430487 
   20500    109.55954   -108.24889  0.099131777   -108.14976    -671.1024    4.3179781    4.3179781    4.3179781    -671.1024   -3428.6953    1444.7025   -29.314451   -456.96194    19.944822    7.9846006    80.508421 
   20600    122.04223   -108.25958   0.11042637   -108.14916    508.78946    4.3167904    4.3167904    4.3167904    508.78946   -2047.0523    3542.6275    30.793177    558.41833    515.65915    759.52286    80.442006 
   20700    86.957069    -108.2281  0.078680584   -108.14941    702.26788    4.3171875    4.3171875    4.3171875    702.26788   -2186.4371    7425.7828    -3132.542   -225.79148     358.2995    -1674.189    80.464208 
   20800    61.678972   -108.20571   0.05580843   -108.14991    887.75608     4.317269     4.317269     4.317269    887.75608   -1795.0538    5135.6717   -677.34975   -2000.6875    16.874386   -420.62436    80.468762 
   20900    119.04438   -108.25708   0.10771386   -108.14937    1280.8287    4.3166624    4.3166624    4.3166624    1280.8287    761.81018    3268.6245   -187.94846   -282.04588    20.275897   -730.57545    80.434847 
   21000    120.29028   -108.25833   0.10884117   -108.14949   -493.62692    4.3178104    4.3178104    4.3178104   -493.62692   -1850.9396    -704.8901     1074.949    28.139167   -226.88287    107.69664     80.49904 
   21100    101.21638   -108.24118  0.091582707    -108.1496   -724.72163    4.3172209    4.3172209    4.3172209   -724.72163   -3940.6924    2499.3605   -732.83299   -577.69726    249.46202    1538.3384    80.466072 
   21200    105.15846   -108.24432  0.095149585   -108.14917    251.58324    4.3173945    4.3173945    4.3173945    251.58324   -2135.1521    5955.2791   -3065.3772     593.4405    61.017298    216.64653    80.475783 
   21300    64.126441   -108.20766  0.058022951   -108.14963   -356.63275    4.3174938    4.3174938    4.3174938   -356.63275   -2621.2078     3075.265   -1523.9554     -2091.74    133.83154   -651.80137    80.481333 
   21400    98.734035   -108.23896   0.08933663   -108.14962   -1467.8379      4.31731      4.31731      4.31731   -1467.8379   -1159.8747   -405.75816    -2837.881   -1279.2591   -354.40691    223.43542    80.471058 
   21500    130.36045   -108.26721   0.11795288   -108.14926   -202.17713    4.3175843    4.3175843    4.3175843   -202.17713    29.592634   -2204.8665    1568.7425        858.6   -245.25752    -27.77131    80.486398 
   21600    101.15859    -108.2413  0.091530414   -108.14977   -1332.1505    4.3173887    4.3173887    4.3173887   -1332.1505   -3897.0791    1770.8393   -1870.2115   -275.20257     1071.379   -866.22602     80.47546 
   21700    91.693986    -108.2326  0.082966646   -108.14963   -671.27868    4.3176715    4.3176715    4.3176715   -671.27868   -3153.9549    3440.2785   -2300.1596   -345.85276    235.81683    1255.7967     80.49127 
   21800    89.968848    -108.2307  0.081405704   -108.14929   -33.330036    4.3172859    4.3172859    4.3172859   -33.330036    -2147.257     4292.964   -2245.6971   -531.66035   -50.184726   -1097.0838    80.469708 
   21900    91.062951   -108.23204  0.082395672   -108.14964   -2512.7485    4.3175654    4.3175654    4.3175654   -2512.7485   -1543.7331   -2562.6526   -3431.8599   -1484.5726    147.46673    81.959396    80.485337 
   22000    102.71906   -108.24266  0.092942368   -108.14972    785.49518    4.3173696    4.3173696    4.3173696    785.49518    -308.0605    1334.4775    1330.0685    151.02929   -727.25204    2187.8852    80.474392 
   22100    135.38053   -108.27195   0.12249515   -108.14945    85.113698    4.3170284    4.3170284    4.3170284    85.113698   -1347.5774    3126.0487   -1523.1302    1368.4053   -259.33944   -956.14036    80.455308 
   22200    67.398037   -108.21096   0.06098316   -108.14998      764.433    4.3175034    4.3175034    4.3175034      764.433   -3353.4766     6064.228   -417.45234   -1310.5795    769.75051   -51.374488    80.481873 
   22300    112.18722   -108.25074   0.10150936   -108.14923   -758.86534    4.3172962    4.3172962    4.3172962   -758.86534     -2762.34    3634.3573   -3148.6134   -644.95689    182.86051    270.05189    80.470283 
   22400    96.223245    -108.2364  0.087064814   -108.14933   -141.26122     4.317193     4.317193     4.317193   -141.26122   -121.09421    1527.8243   -1830.5137   -483.20467   -322.95714   -1129.4307    80.464511 
   22500     81.98744   -108.22399  0.074183959   -108.14981    257.85893    4.3175296    4.3175296    4.3175296    257.85893   -1825.9637    3482.2466   -882.70619   -675.42393    426.51527    659.68401    80.483334 
   22600    128.03064   -108.26522   0.11584482   -108.14937      1727.69     4.316729     4.316729     4.316729      1727.69    141.24303    4724.1657    317.66131    1269.1592   -27.924684    1502.4661     80.43857 
   22700    91.639609   -108.23259  0.082917444   -108.14967     1796.866    4.3173335    4.3173335    4.3173335     1796.866    -2417.894    7574.8303    233.66156   -179.13836   -66.729499   -890.75294    80.472372 
   22800    107.54955   -108.24683  0.097313093   -108.14952   -2475.4959    4.3175766    4.3175766    4.3175766   -2475.4959   -4221.7237    96.931094   -3301.6952   -1456.1136      288.484   -325.10619    80.485967 
   22900    88.053809     -108.229  0.079672937   -108.14932    1080.4211    4.3169853    4.3169853    4.3169853    1080.4211   -809.60131    3977.3327    73.532053   -585.10975   -341.86015    679.76228    80.452901 
   23000    103.29609   -108.24298  0.093464477   -108.14951   -1234.8058    4.3176501    4.3176501    4.3176501   -1234.8058   -1860.3648    1942.1174   -3786.1701    188.92812   -366.26485   -1212.2886    80.490075 
   23100    72.748376   -108.21588  0.065824259   -108.15005    2036.3212    4.3168708    4.3168708    4.3168708    2036.3212   -1187.2633    4935.4577    2360.7691   -354.85157   -38.094502    955.35403    80.446497 
   23200    139.53004   -108.27553   0.12624972   -108.14929    122.14988    4.3174498    4.3174498    4.3174498    122.14988   -1790.4435    3240.9723   -1084.0792    737.95051    561.56876   -122.21212    80.478875 
   23300     101.2415   -108.24128  0.091605436   -108.14968   -1907.8255    4.3174842    4.3174842    4.3174842   -1907.8255   -3519.9547   -1075.6619   -1127.8599   -1901.8084    505.33367   -548.41391    80.480796 
   23400    79.918872   -108.22198  0.072312275   -108.14967    -1372.603    4.3174769    4.3174769    4.3174769    -1372.603   -3720.6794    562.36283   -959.49247   -1412.6868   -43.725778    767.33265    80.480389 
   23500    109.60509   -108.24856  0.099172993   -108.14939   -620.79809    4.3174809    4.3174809    4.3174809   -620.79809   -693.76368    3186.2347   -4354.8653    1018.6908   -22.863311    173.33546     80.48061 
   23600    59.480548   -108.20389   0.05381925   -108.15007    1681.1148     4.316928     4.316928     4.316928    1681.1148   -1545.1495     3911.683    2676.8109   -483.87569   -145.55753   -41.293669    80.449699 
   23700    138.61608   -108.27499   0.12542274   -108.14956   -1295.6443    4.3177642    4.3177642    4.3177642   -1295.6443   -1927.0284    347.42889   -2307.3334     346.5714   -447.79583   -417.70772    80.496455 
   23800    116.90498   -108.25515   0.10577808   -108.14937    503.01464    4.3170153    4.3170153    4.3170153    503.01464   -1238.4017    948.20652    1799.2391   -956.71664    246.12856    123.19452    80.454581 
   23900    91.826643   -108.23269  0.083086677    -108.1496   -2583.3204    4.3177033    4.3177033    4.3177033   -2583.3204    -4426.108   -83.543537   -3240.3097   -1559.1759    741.38433   -339.90843    80.493053 
   24000    68.461713   -108.21165  0.061945597    -108.1497     1350.469    4.3171954    4.3171954    4.3171954     1350.469   -678.25247    6787.3502   -2057.6906    11.854703   -434.92645    1729.1897    80.464648 
   24100    100.00841   -108.23994  0.090489712   -108.14945    1488.8896     4.316781     4.316781     4.316781    1488.8896    -107.6697    4207.1511    367.18755    1122.3183    284.02366   -251.09959    80.441481 
   24200    108.33104   -108.24774  0.098020202   -108.14972   -421.68541    4.3176549    4.3176549    4.3176549   -421.68541   -1265.3356    1496.9603    -1496.681   -933.65751     649.3658    983.02069    80.490346 
   24300    128.62981   -108.26567   0.11638696   -108.14928    698.10136    4.3171822    4.3171822    4.3171822    698.10136   -1103.4745    890.84092    2306.9376   -386.68335   -466.40005   -114.27965    80.463912 
   24400    116.01941   -108.25428    0.1049768    -108.1493   -819.87522    4.3173128    4.3173128    4.3173128   -819.87522   -2537.1118    4043.4173   -3965.9312   -746.30449    109.37647   -1188.8281    80.471212 
   24500    37.448878   -108.18383  0.033884532   -108.14994    1306.9396    4.3172215    4.3172215    4.3172215    1306.9396   -1933.7681    6633.7521   -779.16518   -961.09017    109.96267    1432.6891    80.466105 
   24600    112.08775   -108.25071   0.10141935   -108.14929    374.01448    4.3169818    4.3169818    4.3169818    374.01448   -632.26975    4588.1822    -2833.869    1527.3945   -606.63876   -811.00137    80.452705 
   24700      109.368   -108.24851  0.098958462   -108.14955    512.86703    4.3173285    4.3173285    4.3173285    512.86703    405.58972    1055.3195    77.691871   -431.78315   -67.927465   -222.30078    80.472091 
   24800    119.59551   -108.25801   0.10821253    -108.1498   -1226.3076    4.3175518    4.3175518    4.3175518   -1226.3076   -2699.5922   -806.88415    -172.4464   -1536.2875    860.75131    386.30723    80.484578 
   24900    122.03541    -108.2598    0.1104202   -108.14938   -55.945137    4.3173541    4.3173541    4.3173541   -55.945137   -2244.6102    4550.1819   -2473.4071   -721.06741    118.47561      327.375    80.473523 
   25000    54.095403   -108.19868  0.048946657   -108.14974    262.65398    4.3171948    4.3171948    4.3171948    262.65398   -2326.4709    4987.1502   -1872.7173   -262.41935    50.903728   -1151.3943    80.464614 
   25100    85.674696   -108.22714  0.077520265   -108.14962   -2067.6466    4.3176964    4.3176964    4.3176964   -2067.6466   -3494.4318    1938.0854   -4646.5934   -409.98989     61.16479    1440.4217    80.492666 
   25200    119.34528   -108.25724   0.10798612   -108.14925   -33.969503    4.3173676    4.3173676    4.3173676   -33.969503    629.78895   -1146.5733    414.87586     755.6647   -447.14022   -1860.8819    80.474275 
   25300    122.00923   -108.26001   0.11039652   -108.14961   -1856.2168    4.3175159    4.3175159    4.3175159   -1856.2168   -2815.8717   -661.15673    -2091.622    -2019.259   -154.41883   -1341.1609    80.482568 
   25400    97.671763   -108.23808  0.088375464    -108.1497   -326.33048    4.3177709    4.3177709    4.3177709   -326.33048   -3687.0854    2758.6789   -50.584974   -1749.1595   -192.69898     1492.677    80.496829 
   25500    90.186999   -108.23092  0.081603092   -108.14932    118.37889    4.3170299    4.3170299    4.3170299    118.37889   -2049.9918    5822.4124    -3417.284    601.73287    388.62075   -1606.2323    80.455395 
   25600    77.177769   -108.21941  0.069832067   -108.14958   -2681.0037    4.3178413    4.3178413    4.3178413   -2681.0037   -4044.6854   -116.60186    -3881.724   -1064.4183    -86.37878    419.13041    80.500768 
   25700    98.611644    -108.2387  0.089225888   -108.14948   -675.47182    4.3177524    4.3177524    4.3177524   -675.47182    -1323.375   -105.47881   -597.56166    327.52138   -33.829728   -54.896965    80.495796 
   25800    141.22001   -108.27696   0.12777883   -108.14918   -398.60405    4.3169654    4.3169654    4.3169654   -398.60405    -817.7915    1214.2373    -1592.258    -1011.313    816.35893   -694.29284    80.451791 
   25900    75.639064   -108.21835  0.068439814   -108.14991    1372.8798    4.3175919    4.3175919    4.3175919    1372.8798   -3471.3879    5672.1787    1917.8485   -2094.5346    183.13513   -653.57363    80.486818 
   26000    111.12229   -108.25002   0.10054579   -108.14948   -242.60048    4.3170363    4.3170363    4.3170363   -242.60048   -2924.9028    5317.7933   -3120.6919   -120.44714   -459.35206    1117.4902     80.45575 
   26100    86.917771   -108.22811  0.078645026   -108.14946    -170.4599    4.3172386    4.3172386    4.3172386    -170.4599   -1761.0746    2520.4091   -1270.7142    521.62067    16.328172   -1201.7855    80.467063 
   26200    88.449516   -108.22971  0.080030981   -108.14968   -1472.1413    4.3179836    4.3179836    4.3179836   -1472.1413   -3369.4865    1036.4521   -2083.3894   -950.85128   -95.274602   -115.39701    80.508731 
   26300    121.79342   -108.25972   0.11020124   -108.14952    1495.7307    4.3165879    4.3165879    4.3165879    1495.7307    382.51336    3721.8745    382.80439    -592.9292   -673.90754    510.40596    80.430684 
   26400    93.368164   -108.23422  0.084481477   -108.14974    3044.7027    4.3171495    4.3171495    4.3171495    3044.7027   -1606.6619    8558.1922    2182.5779   -1162.6252    931.66558   -871.58678    80.462083 
   26500    111.41572    -108.2506   0.10081129   -108.14979   -1072.6674    4.3174394    4.3174394    4.3174394   -1072.6674   -3557.1604    2060.2277   -1721.0693   -1112.7492     496.9974    485.67526    80.478291 
   26600    88.832971   -108.22981  0.080377939   -108.14943    894.09302    4.3169067    4.3169067    4.3169067    894.09302   -880.64516    3816.1722   -253.24803    1548.0119   -338.30486   -761.89125    80.448504 
   26700    109.43775   -108.24841  0.099021578   -108.14939   -2557.8073    4.3180861    4.3180861    4.3180861   -2557.8073    -3298.652   -476.71189    -3898.058   -667.36386    478.36599   -231.94843     80.51446 
   26800    65.314723   -108.20909  0.059098134   -108.14999    2256.8596    4.3167401    4.3167401    4.3167401    2256.8596   -236.02768    5883.9094    1122.6972   -1148.6896    115.73887   -57.025019     80.43919 
   26900    129.93277   -108.26694    0.1175659   -108.14937    1362.2118    4.3171196    4.3171196    4.3171196    1362.2118   -1131.8823    5192.7021    25.815679   -700.55126   -445.98175    472.62023     80.46041 
   27000    104.88533   -108.24454  0.094902446   -108.14964   -189.40383    4.3175147    4.3175147    4.3175147   -189.40383   -1734.3334    1617.3913   -451.26939   -1048.3512   -151.72346   -342.44887    80.482503 
   27100    98.205991   -108.23832  0.088858845   -108.14946   -1669.3281    4.3173445    4.3173445    4.3173445   -1669.3281   -2770.6696   -690.18647   -1547.1283    400.63569    208.45615    168.88683    80.472983 
   27200     108.3001   -108.24728  0.097992211   -108.14929   -1901.2568    4.3177177    4.3177177    4.3177177   -1901.2568   -1992.3466    1138.8556   -4850.2793    512.76578   -264.13083   -1157.7841    80.493857 
   27300    50.606401    -108.1957  0.045789735   -108.14992     1332.023    4.3172108    4.3172108    4.3172108     1332.023   -817.01894    5381.0975   -568.00964   -1443.6254    328.45478   -618.96955    80.465507 
   27400    124.63575   -108.26231   0.11277304   -108.14953   -478.85208     4.317219     4.317219     4.317219   -478.85208   -2088.3472    2663.6593   -2011.8683   -1231.3663    557.10837    428.48392    80.465969 
   27500    114.59839   -108.25306   0.10369103   -108.14937    968.34839    4.3174485    4.3174485    4.3174485    968.34839     98.09749    2139.7656    667.18208    273.50903    103.36956   -1734.2463    80.478803 
   27600    122.00662   -108.25985   0.11039415   -108.14946   -3494.4771    4.3177906    4.3177906    4.3177906   -3494.4771   -3962.4371   -2773.4372   -3747.5571   -719.23526   -312.10921    775.74162    80.497934 
   27700    73.682787   -108.21643  0.066669735   -108.14976   -184.50589    4.3171429    4.3171429    4.3171429   -184.50589   -2024.3547    5153.1778   -3682.3407    553.30915   -435.93289    76.039455    80.461715 
   27800    79.682866   -108.22171  0.072098732   -108.14961    371.23474    4.3174837    4.3174837    4.3174837    371.23474   -1128.8569    5353.7099   -3111.1488   -898.74057    201.17228   -592.54725    80.480772 
   27900    91.973733   -108.23297  0.083219766   -108.14975    204.71208    4.3171532    4.3171532    4.3171532    204.71208    -2239.781    5240.3476   -2386.4304   -2182.7344   -427.62139    923.42305    80.462287 
   28000    130.70633   -108.26763   0.11826583   -108.14936    253.31369    4.3173421    4.3173421    4.3173421    253.31369   -404.44436   -11.786062    1176.1715    324.47658    126.19673   -820.70813     80.47285 
   28100    134.72899   -108.27121   0.12190562    -108.1493   -1764.2453    4.3177813    4.3177813    4.3177813   -1764.2453   -2929.8065    1426.1581   -3789.0874    349.36354     814.4732   -1222.3153    80.497415 
   28200     61.22329    -108.2052   0.05539612    -108.1498    159.08578    4.3169133    4.3169133    4.3169133    159.08578   -3206.6433    5484.6213   -1800.7207   -540.82475    -351.2858    474.17151    80.448875 
   28300     86.02773   -108.22725  0.077839698   -108.14941   -174.99375    4.3176028    4.3176028    4.3176028   -174.99375   -2444.7569    6280.7609   -4360.9852   -197.62716    22.787964   -181.55533    80.487428 
   28400    87.614261   -108.22877  0.079275224    -108.1495    720.07868    4.3171554    4.3171554    4.3171554    720.07868   -1478.4657    4979.8328    -1341.131   -1132.8788     600.6903   -401.65336    80.462409 
   28500    128.64935   -108.26587   0.11640463   -108.14947   -952.79145     4.317294     4.317294     4.317294   -952.79145   -2117.5073   -1570.9949    830.12782   -1281.4699   -427.63549    1166.5408    80.470163 
   28600    130.86464   -108.26764   0.11840908   -108.14923   -94.621364     4.317753     4.317753     4.317753   -94.621364   -2147.3971     3075.937    -1212.404    1733.0904   -654.75948   -711.21104    80.495828 
   28700    78.248752   -108.22036  0.070801116   -108.14956    306.87906    4.3168918    4.3168918    4.3168918    306.87906   -2989.9291    5043.8246   -1133.2583    -476.7608     375.8551    -697.7238    80.447676 
   28800     71.49406   -108.21423  0.064689328   -108.14954   -767.82202    4.3176864    4.3176864    4.3176864   -767.82202   -4065.0904    5907.7167   -4146.0924   -1034.8452   -122.06179    1216.0703    80.492106 
   28900    93.496223     -108.234  0.084597348    -108.1494    178.33588    4.3173491    4.3173491    4.3173491    178.33588   -763.70268    1744.5119   -445.80159   -88.199753   -7.7866497   -1061.2472    80.473243 
   29000    126.09205   -108.26363   0.11409074   -108.14954   -1103.7299    4.3171541    4.3171541    4.3171541   -1103.7299   -1851.9407   -942.96841   -516.28054   -1392.3775    1054.3101   -150.55737     80.46234 
   29100    113.49809    -108.2523   0.10269545    -108.1496    590.53016    4.3177083    4.3177083    4.3177083    590.53016   -2024.5701    1919.3404    1876.8202    1085.6098     134.5257    397.74992    80.493331 
   29200    97.870348     -108.238  0.088555147   -108.14945    1163.4356    4.3167219    4.3167219    4.3167219    1163.4356   -1800.7505    6329.8733   -1038.8159    682.96373   -175.76262   -728.75752    80.438173 
   29300    79.277125   -108.22132  0.071731608   -108.14958   -976.08204    4.3175966    4.3175966    4.3175966   -976.08204   -3583.7177    3599.2665   -2943.7949   -1054.3299   -197.37434     97.81777    80.487083 
   29400    79.569819   -108.22157  0.071996444   -108.14957    -158.3889    4.3174481    4.3174481    4.3174481    -158.3889   -1363.1834    1782.9144   -894.89774   -652.26447   -66.331178    782.58752    80.478781 
   29500    133.25792   -108.26989   0.12057457   -108.14932     -858.368    4.3170141    4.3170141    4.3170141     -858.368   -766.05493   -540.61443   -1268.4346    447.88542   -126.31592   -1268.6153    80.454511 
   29600    93.077964   -108.23403  0.084218898   -108.14981    2052.8477    4.3174819    4.3174819    4.3174819    2052.8477   -893.45443    4656.2003    2395.7973   -45.606138   -187.33117   -161.53042    80.480668 
   29700    114.29491   -108.25298   0.10341643   -108.14957    649.20191    4.3168777    4.3168777    4.3168777    649.20191   -2127.4651    5468.8327   -1393.7618    1061.4909    439.54007    1077.1546    80.446884 
   29800    88.935558   -108.22993  0.080470762   -108.14946    180.61729    4.3173735    4.3173735    4.3173735    180.61729   -1636.6451    3738.7421   -1560.2451    -458.2549    -34.69742     -781.043    80.474609 
   29900    84.566252   -108.22595  0.076517322   -108.14944   -1500.0435    4.3177271    4.3177271    4.3177271   -1500.0435   -2523.6304    1409.8781   -3386.3781   -1641.9829    89.250982    1433.5465     80.49438 
   30000    110.17419   -108.24912  0.099687922   -108.14943   -513.79328    4.3170864    4.3170864    4.3170864   -513.79328   -1252.7885    697.08537   -985.67674    772.52106    337.36184   -806.76342    80.458555 
   30100     92.89823   -108.23372  0.084056271   -108.14967     2610.271     4.317305     4.317305     4.317305     2610.271    307.94482    7249.3334    273.53484    238.52211    286.02084   -778.75426    80.470775 
   30200    122.34765   -108.26027   0.11070272   -108.14956   -216.36653    4.3170139    4.3170139    4.3170139   -216.36653   -3017.8945    3571.6086   -1202.8137     494.4739   -1006.2471    62.354885    80.454499 
   30300    87.908289   -108.22898  0.079541267   -108.14944    627.63342    4.3174631    4.3174631    4.3174631    627.63342   -1469.4256    4018.8943    -666.5684    168.29892   -426.68179   -351.19964    80.479619 
   30400      114.678   -108.25297   0.10376306    -108.1492   -3241.2064    4.3176926    4.3176926    4.3176926   -3241.2064   -2886.2754    -1043.159   -5794.1847   -996.76164    434.00148   -121.34889    80.492453 
   30500    64.829046   -108.20858  0.058658684   -108.14992    312.94127    4.3171139    4.3171139    4.3171139    312.94127   -2462.0463    4095.8339   -694.96378   -721.84372   -583.33625     38.08966    80.460094 
   30600    107.89187   -108.24728  0.097622835   -108.14965    410.41999    4.3176882    4.3176882    4.3176882    410.41999   -857.27501    4605.3651   -2516.8301    1630.5119    705.65579   -288.33792    80.492204 
   30700    112.91337   -108.25178   0.10216639   -108.14962    752.40013    4.3166634    4.3166634    4.3166634    752.40013   -1882.9388    4402.9697   -262.83047   -497.05769    467.72656   -385.67785    80.434905 
   30800    108.42322   -108.24764  0.098103605   -108.14953   -1097.2164    4.3179548    4.3179548    4.3179548   -1097.2164   -3153.5262    560.95916   -699.08216   -530.68838   -608.76901    924.28786    80.507117 
   30900    113.87091   -108.25227   0.10303279   -108.14924   -2811.5713    4.3176124    4.3176124    4.3176124   -2811.5713    -2900.184   -575.34505   -4959.1848   -29.165566   -175.12496   -1971.6246    80.487967 
   31000    57.629331   -108.20184   0.05214423    -108.1497    563.38287    4.3168941    4.3168941    4.3168941    563.38287   -2388.5839    5619.1964   -1540.4639   -1410.7917    245.58106   -247.49451    80.447804 
   31100    102.00339   -108.24187  0.092294812   -108.14958   -863.12683    4.3182072    4.3182072    4.3182072   -863.12683   -3123.6751    3737.3331   -3203.0385    1499.6448   -199.44995   -933.95621    80.521236 
   31200    100.13124   -108.24016  0.090600852   -108.14956    2096.7435    4.3162637    4.3162637    4.3162637    2096.7435    109.83198    5079.0028    1101.3958    717.46719   -459.06888   -766.20919    80.412563 
   31300    143.94527   -108.27952    0.1302447   -108.14928   -2088.3735      4.31806      4.31806      4.31806   -2088.3735   -3344.0528    -1822.638   -1098.4296   -841.56048    266.99667    1189.3104    80.513004 
   31400    88.247846   -108.22935  0.079848506    -108.1495   -569.95319    4.3175055    4.3175055    4.3175055   -569.95319    -2936.134    2721.3029   -1495.0285   -323.21077   -141.30415   -511.95288    80.481989 
   31500    78.319273   -108.22027  0.070864924   -108.14941   -150.64354    4.3166493    4.3166493    4.3166493   -150.64354   -1863.6949    4371.9708   -2960.2066    176.08904    283.66507   -1213.4792    80.434115 
   31600    80.760952   -108.22262  0.073074206   -108.14955    358.84811    4.3180772    4.3180772    4.3180772    358.84811    -3571.683     6993.631   -2345.4037    -132.5577    419.07274      135.358    80.513964 
   31700    103.54817   -108.24332  0.093692562   -108.14963    1097.3188    4.3164713    4.3164713    4.3164713    1097.3188   -229.66294    1637.2083     1884.411    1661.6129    138.15047   -310.30767    80.424167 
   31800    150.03016   -108.28504   0.13575044   -108.14929   -1181.5531    4.3177504    4.3177504    4.3177504   -1181.5531   -2052.9658   -381.60872   -1110.0847    -157.9848   -448.33182   -1191.9162    80.495686 
   31900    89.885729   -108.23093  0.081330497    -108.1496    852.37245    4.3174977    4.3174977    4.3174977    852.37245   -2559.4172    3699.8362    1416.6984   -1486.7968   -881.08065    1098.1258    80.481555 
   32000    80.777398   -108.22256  0.073089087   -108.14947   -382.64977    4.3166904    4.3166904    4.3166904   -382.64977   -2548.0423    4790.4428   -3390.3498    1081.6278    373.69396   -1527.7977    80.436416 
   32100    71.830857   -108.21449  0.064994069    -108.1495     827.3585    4.3179219    4.3179219    4.3179219     827.3585   -2676.9224    7353.0486   -2194.0507     80.51729   -53.565322   -668.43002    80.505278 
   32200    113.60162   -108.25233   0.10278914   -108.14954   -272.90523    4.3167943    4.3167943    4.3167943   -272.90523   -1101.2863   -394.06334    676.63396    923.38462    17.676873    1087.5096    80.442221 
   32300    130.22832   -108.26744   0.11783332    -108.1496   -429.10664    4.3175477    4.3175477    4.3175477   -429.10664   -1533.0181    762.72853   -517.03035    452.94314    472.73795   -1244.6762    80.484346 
   32400    106.72324    -108.2461  0.096565431   -108.14954    1185.1561    4.3174011    4.3174011    4.3174011    1185.1561   -1191.3527    3438.7794    1308.0414   -1112.5815   -207.90342   -943.73226    80.476149 
   32500    82.856375   -108.22449  0.074970189   -108.14952    184.77361    4.3166361    4.3166361    4.3166361    184.77361   -3063.9302    6599.6003   -2981.3492   -175.48511   -458.49656    13.843909    80.433377 
   32600    68.099378   -108.21113  0.061617748   -108.14951   -267.26826    4.3180039    4.3180039    4.3180039   -267.26826   -2546.8816    4192.6037   -2447.5268    1209.1082    144.02975   -1399.0756    80.509862 
   32700     117.0479   -108.25517    0.1059074   -108.14926   -951.08794    4.3170233    4.3170233    4.3170233   -951.08794   -820.82463      613.741   -2646.1802    116.28357    219.21686   -224.33369    80.455024 
   32800    118.70228   -108.25693   0.10740432   -108.14952   -94.074355    4.3174169    4.3174169    4.3174169   -94.074355   -1945.5246     1384.619    278.68259   -372.46453   -1046.2091    1100.7119    80.477035 
   32900    104.37201   -108.24402  0.094437984   -108.14959    939.38459    4.3175397    4.3175397    4.3175397    939.38459   -307.28084    3909.0343   -783.59969   -261.39998   -81.945614   -1962.2281      80.4839 
   33000      98.4914    -108.2385  0.089117088   -108.14938    436.30753    4.3167236    4.3167236    4.3167236    436.30753   -2512.8215    6312.9565   -2491.2124   -1333.7129    53.487263   -1109.5014    80.438269 
   33100    72.060785   -108.21471  0.065202112   -108.14951   -1109.3503     4.317997     4.317997     4.317997   -1109.3503   -3223.6415    2795.7879   -2900.1973    1223.5597   -334.25386   -485.18317    80.509475 
   33200    107.46263   -108.24653  0.097234442   -108.14929    -2442.789    4.3175093    4.3175093    4.3175093    -2442.789   -1236.4651   -523.96691   -5567.9351    674.25564    736.25859   -1820.8769    80.482203 
   33300     109.1576    -108.2483   0.09876809   -108.14953    740.02533    4.3171812    4.3171812    4.3171812    740.02533   -1881.4154    3839.2086    262.28279   -814.34004    15.158212    421.34345    80.463853 
   33400     110.0524   -108.24936  0.099577724   -108.14978    173.31842    4.3175351    4.3175351    4.3175351    173.31842    -1034.867    3388.6586   -1833.8364   -255.83102   -433.38974   -499.55658    80.483645 
   33500    93.475941   -108.23424  0.084578996   -108.14966    667.45958    4.3169539    4.3169539    4.3169539    667.45958   -1963.2381     5174.972   -1209.3551   -539.78759   -816.90311   -1410.5129    80.451147 
   33600    99.459083   -108.23934  0.089992668   -108.14935   -1434.6504    4.3176952    4.3176952    4.3176952   -1434.6504   -3184.6893    2233.4193   -3352.6811    76.585527   -181.01894    389.01459    80.492598 
   33700    89.872348   -108.23086  0.081318389   -108.14954   -2790.2735    4.3175299    4.3175299    4.3175299   -2790.2735   -2830.1859   -1230.7242   -4309.9104    1196.2417    233.70323    -761.0076    80.483352 
   33800    89.622413   -108.23083  0.081092242   -108.14974    577.71111    4.3173757    4.3173757    4.3173757    577.71111    -1740.411    5405.9543     -1932.41   -425.23523   -166.48212    -700.0376    80.474728 
   33900     127.8216   -108.26516   0.11565567    -108.1495    219.62089    4.3172172    4.3172172    4.3172172    219.62089   -1932.0297    3022.7935   -431.90112   -1470.1534    247.65241   -948.44925    80.465867 
   34000    83.087395   -108.22504  0.075179221   -108.14986    1109.8193    4.3170861    4.3170861    4.3170861    1109.8193   -1883.1383    3854.4782    1358.1179    1056.3658    -131.8116   -1496.3531    80.458536 
   34100    122.23177   -108.25981   0.11059788   -108.14922   -2043.5157     4.317863     4.317863     4.317863   -2043.5157    -2985.902    200.06828   -3344.7135   -267.34407   -247.35207   -483.40901     80.50198 
   34200    81.276575   -108.22295  0.073540753   -108.14941   -596.70229     4.316983     4.316983     4.316983   -596.70229   -3344.9033    2030.7397   -475.94334    838.23564   -38.091059    883.03728    80.452773 
   34300    80.964854   -108.22288  0.073258701   -108.14962   -753.84472     4.317794     4.317794     4.317794   -753.84472   -2577.4472    4192.6822   -3876.7692    818.21236    511.25521   -647.79634    80.498121 
   34400    114.09647   -108.25267   0.10323689   -108.14944    1637.2908    4.3169833    4.3169833    4.3169833    1637.2908   -1757.3329    5206.8155    1462.3898    -1878.528    -587.8028   -43.778488     80.45279 
   34500    115.23718    -108.2538   0.10426902   -108.14953    1243.6356    4.3168755    4.3168755    4.3168755    1243.6356   -1159.3279    2298.1727    2592.0621    348.08696   -896.94726   -781.94369     80.44676 
   34600      108.653   -108.24782  0.098311521   -108.14951   -1240.3647    4.3179402    4.3179402    4.3179402   -1240.3647    -2541.747     35.41387   -1214.7611    706.44382    325.88638    -1886.305    80.506299 
   34700    84.586679    -108.2259  0.076535804   -108.14936    959.01321    4.3166493    4.3166493    4.3166493    959.01321   -1866.5936    4333.4423    410.19089    278.58343   -234.65212    1082.1705    80.434116 
   34800    88.077693   -108.22914  0.079694548   -108.14944   -681.55114    4.3175434    4.3175434    4.3175434   -681.55114   -3140.4992    5026.1446   -3930.2989    358.26869    396.40379   -684.38422    80.484106 
   34900     79.41202   -108.22169  0.071853664   -108.14984    1610.6354    4.3171996    4.3171996    4.3171996    1610.6354   -1552.4207     5097.229     1287.098   -317.99328    449.14556   -1455.1897    80.464886 
   35000    149.99088   -108.28499    0.1357149   -108.14927    480.38653    4.3169016    4.3169016    4.3169016    480.38653   -392.35423    653.21911    1180.2947   -1060.8778   -501.39806    6.2470635    80.448224 
   35100    100.80668   -108.24091  0.091212001    -108.1497    424.34891    4.3176585    4.3176585    4.3176585    424.34891    -2181.566    1832.5956    1622.0172    1134.3481   -867.26534   -154.15112    80.490544 
   35200     84.18768   -108.22579  0.076174782   -108.14962   -390.06857     4.317102     4.317102     4.317102   -390.06857   -1011.4488    2171.8919   -2330.6489    984.95712   -154.57078   -1389.5924    80.459426 
   35300    87.095939   -108.22812  0.078806236   -108.14932    170.98132    4.3172709    4.3172709    4.3172709    170.98132   -3156.3924    7902.0576   -4232.7213   -620.86414    258.98706    1190.4639    80.468873 
   35400    81.188322   -108.22316    0.0734609    -108.1497   -509.43428    4.3175115    4.3175115    4.3175115   -509.43428   -2219.6296    1638.3121   -946.98538     367.9762   -388.83989   -1724.5683    80.482325 
   35500    133.36617   -108.27022   0.12067251   -108.14954   -1047.7744    4.3173623    4.3173623    4.3173623   -1047.7744   -827.28702   -763.41997   -1552.6162   -701.14667    91.465562   -2043.7084    80.473981 
   35600    120.86809   -108.25878   0.10936399   -108.14942     939.7545    4.3173757    4.3173757    4.3173757     939.7545   -1876.0456    2819.5989    1875.7101    661.30564   -422.51232    2078.8213    80.474729 
   35700    83.509275    -108.2253  0.075560947   -108.14974   -1135.7008    4.3173637    4.3173637    4.3173637   -1135.7008   -1316.5882    889.94788    -2980.462    1284.9627   -136.88394    -1102.907    80.474058 
   35800    67.793926   -108.21084  0.061341369    -108.1495   -158.80212     4.317476     4.317476     4.317476   -158.80212   -2995.5421    7869.7151   -5350.5794    47.972768     187.9822   -380.92483     80.48034 
   35900    111.29087   -108.24988   0.10069831   -108.14918   -1831.0355    4.3174901    4.3174901    4.3174901   -1831.0355   -2993.2914    508.50349   -3008.3186   -752.95626    4.2184531   -145.36799    80.481126 
   36000     102.4143    -108.2423  0.092666613   -108.14964    -1563.258    4.3177012    4.3177012    4.3177012    -1563.258   -2093.0648   -871.51708   -1725.1923    269.93829   -73.885245   -1662.8081    80.492932 
   36100     127.5868   -108.26487   0.11544321   -108.14942    299.28606    4.3174086    4.3174086    4.3174086    299.28606   -1601.8553    2653.4515   -153.73801    222.99862   -1362.0732   -977.45646     80.47657 
   36200    98.700169   -108.23878  0.089305987   -108.14947    831.91047    4.3170632    4.3170632    4.3170632    831.91047   -1365.1083    3756.9011    103.93859    898.48584   -89.749651    1233.7514    80.457257 
   36300    58.932404   -108.20313  0.053323277   -108.14981   -811.79958    4.3176394    4.3176394    4.3176394   -811.79958   -2758.0248    5493.7727   -5171.1467    1311.7614    274.15527   -894.19765    80.489476 
   36400    111.85896   -108.25042   0.10121234   -108.14921   -1842.9476    4.3173746    4.3173746    4.3173746   -1842.9476   -2705.9835    1435.1955   -4258.0548    -1564.352   -117.60142   -688.41351    80.474669 
   36500    108.36008   -108.24748  0.098046473   -108.14944   -652.33032    4.3176358    4.3176358    4.3176358   -652.33032   -2970.3795    1163.2817   -149.89312    509.09623    502.62437    602.07721    80.489275 
   36600    108.82537   -108.24834  0.098467485   -108.14987    55.669919    4.3172879    4.3172879    4.3172879    55.669919   -1448.5452    2818.6149     -1203.06    578.07659   -269.72239   -1161.2485    80.469818 
   36700    106.93813   -108.24635  0.096759865   -108.14959    2863.8056    4.3167114    4.3167114    4.3167114    2863.8056   -649.80106    6690.2268    2550.9911    660.65928   -790.92493    627.72091     80.43759 
   36800    84.619682   -108.22632  0.076565666   -108.14976    54.887752    4.3175095    4.3175095    4.3175095    54.887752   -1955.9456    4758.9134   -2638.3045    985.76152   -451.22894   -870.72591    80.482213 
   36900    85.061099    -108.2266   0.07696507   -108.14963   -1974.5668    4.3172152    4.3172152    4.3172152   -1974.5668   -1798.5059    172.93517   -4298.1297   -338.44641    555.48078   -1296.4938    80.465753 
   37000    116.01167   -108.25434   0.10496979   -108.14937   -211.86248    4.3176685    4.3176685    4.3176685   -211.86248    -2991.769    2885.9476     -529.766    -541.0676   -447.80647   -304.47155    80.491107 
   37100    105.38997    -108.2451  0.095359057   -108.14974    472.61055    4.3171463    4.3171463    4.3171463    472.61055   -1574.5891    3121.0183   -128.59752    1297.8978   -211.99731    485.39964    80.461903 
   37200    91.090705   -108.23231  0.082420784   -108.14989    2244.8992    4.3168627    4.3168627    4.3168627    2244.8992   -541.34044    4585.1006    2690.9373     1193.849    167.69836    394.38171    80.446048 
   37300    122.33009    -108.2599   0.11068683   -108.14921    343.92693    4.3176053    4.3176053    4.3176053    343.92693   -959.93229    3520.1604   -1528.4473   -106.97079   -508.14318    388.48347    80.487568 
   37400    74.307987   -108.21685  0.067235428   -108.14961   -1590.0528    4.3171182    4.3171182    4.3171182   -1590.0528   -1526.0716     -734.675   -2509.4118    790.88731     380.0074    -1018.255    80.460332 
   37500    95.563603   -108.23599  0.086467956   -108.14952   -1754.0003    4.3179833    4.3179833    4.3179833   -1754.0003   -2769.3436    1702.5536   -4195.2108    -1005.963    207.85008   -1309.6563    80.508713 
   37600    112.84544   -108.25144   0.10210493   -108.14934    1198.5859    4.3170505    4.3170505    4.3170505    1198.5859   -1860.9006    5488.3348   -31.676387    677.60786   -77.722567    873.17676    80.456547 
   37700    92.749951   -108.23374  0.083922105   -108.14982    693.75338    4.3171241    4.3171241    4.3171241    693.75338   -1562.0868    2053.7888    1589.5581    1817.4284   -905.99625   -1256.8824    80.460664 
   37800    120.26298   -108.25824   0.10881647   -108.14943   -368.66831    4.3178143    4.3178143    4.3178143   -368.66831   -200.28208    1679.1582    -2584.881    198.95245   -272.44569    132.51911    80.499258 
   37900    98.337166   -108.23827  0.088977534   -108.14929   -289.03439    4.3168652    4.3168652    4.3168652   -289.03439   -1321.6408    1296.3113   -841.77362   -35.469415    152.96794    506.39101    80.446189 
   38000    76.684214   -108.21906  0.069385488   -108.14967   -2839.5819    4.3181312    4.3181312    4.3181312   -2839.5819   -2388.3669    863.44604   -6993.8248    41.787055    179.26679   -1975.3975    80.516987 
   38100    87.587597   -108.22892  0.079251098   -108.14967    1250.6885    4.3170284    4.3170284    4.3170284    1250.6885   -2213.9842    7967.9177   -2001.8679   -5.1281491    436.31259    1036.0283     80.45531 
   38200    131.69308   -108.26863   0.11915867   -108.14947    274.63363    4.3171583    4.3171583    4.3171583    274.63363   -1939.8738    2050.4278    713.34689    1093.1694   -302.72702    505.87707    80.462575 
   38300    94.411524   -108.23535  0.085425531   -108.14993    -23.46908    4.3178129    4.3178129    4.3178129    -23.46908   -316.83735    2016.9562   -1770.5261    950.19346   -367.71365   -1841.4373    80.499181 
   38400    117.61178   -108.25569   0.10641761   -108.14928    -175.2725    4.3167343    4.3167343    4.3167343    -175.2725   -560.85502    1911.6451   -1876.6076   -1210.0556   -847.90375    -433.2099     80.43887 
   38500    80.037324   -108.22194  0.072419453   -108.14952   -877.01507    4.3178798    4.3178798    4.3178798   -877.01507   -1765.0689    4808.9766   -5674.9529    93.321707    616.17446   -236.81946    80.502921 
   38600    61.668947   -108.20571  0.055799359   -108.14991   -513.90652     4.317231     4.317231     4.317231   -513.90652   -2876.0262    5935.3126    -4601.006    483.09715   -5.2105571   -1492.8798    80.466639 
   38700    140.64721   -108.27664   0.12726055   -108.14937    52.613069    4.3171639    4.3171639    4.3171639    52.613069   -1492.2909    2196.9379   -546.80774    579.48679   -711.47533     1122.591    80.462889 
   38800    110.12934   -108.24938   0.09964734   -108.14974     548.5482    4.3178226    4.3178226    4.3178226     548.5482   -1625.2054    2033.0984    1237.7515    957.55876    182.89552   -58.376052    80.499723 
   38900    103.28182   -108.24314  0.093451557   -108.14969   -1187.3996    4.3168608    4.3168608    4.3168608   -1187.3996    156.52308   -199.59703   -3519.1249   -572.26902   -432.10129   -3380.9397    80.445941 
   39000    83.475133    -108.2248  0.075530055   -108.14927    1167.2938    4.3177007    4.3177007    4.3177007    1167.2938   -1216.6485    6849.6737   -2131.1438   -697.55401     107.3082    1036.3888    80.492906 
   39100    79.466115   -108.22145  0.071902611   -108.14954   -1830.9362    4.3173706    4.3173706    4.3173706   -1830.9362   -2887.7084    2771.8981   -5376.9985      527.088    432.94514   -1173.5329    80.474444 
   39200    93.908899   -108.23464  0.084970745   -108.14967    -512.7256    4.3172914    4.3172914    4.3172914    -512.7256   -1493.3427     409.2354   -454.06944    826.93979   -42.467799    -631.8616    80.470018 
   39300    150.89816   -108.28564   0.13653583   -108.14911    163.03474    4.3178224    4.3178224    4.3178224    163.03474    -2421.501    350.60167    2560.0035    323.90421   -1185.5819    424.46863     80.49971 
   39400    93.180357   -108.23415  0.084311546   -108.14984    41.018318    4.3165883    4.3165883    4.3165883    41.018318    833.63634     479.0518   -1189.6332    226.14988   -441.77949   -1351.0155    80.430707 
   39500    72.660467   -108.21545  0.065744718    -108.1497    461.83741    4.3179922    4.3179922    4.3179922    461.83741   -1386.7711    3938.7882   -1166.5049   -885.33869    162.92814   -912.01169    80.509208 
   39600    105.47467   -108.24456    0.0954357   -108.14913   -785.60004    4.3171051    4.3171051    4.3171051   -785.60004   -1418.1032    4038.5279   -4977.2248    308.10459    192.53706    383.95199    80.459601 
   39700      71.6808   -108.21462  0.064858294   -108.14977   -1003.6913    4.3173571    4.3173571    4.3173571   -1003.6913   -2407.0147   -1193.6677    589.60848     1516.781    395.49704   -101.43294    80.473691 
   39800     140.6587   -108.27687   0.12727095   -108.14959   -676.75228    4.3181123    4.3181123    4.3181123   -676.75228   -2435.9897    734.89375   -329.16087   -129.68504   -205.03482   -2024.9316    80.515925 
   39900    116.92414   -108.25546   0.10579542   -108.14967    2752.4875    4.3158581    4.3158581    4.3158581    2752.4875    1147.5012    4345.3546    2764.6067    100.47943   -361.57085    708.22596    80.389896 
   40000    70.903574   -108.21424  0.064155043   -108.15009   -35.950107    4.3182393    4.3182393    4.3182393   -35.950107   -1468.9984    3780.3325   -2419.1845   -393.75159   -401.90676   -2051.1325    80.523031 
   40100    91.589813   -108.23224  0.082872388   -108.14937    339.72997    4.3169842    4.3169842    4.3169842    339.72997    497.53912    5665.3686   -5143.7178   -233.55796    463.62849    1097.4441     80.45284 
   40200    103.68729   -108.24313  0.093818438   -108.14931   -660.07961    4.3170402    4.3170402    4.3170402   -660.07961   -2414.4774    445.34211   -11.103489    1325.5967    128.65077    265.96791    80.455971 
   40300    95.177353   -108.23601   0.08611847   -108.14989   -896.83783    4.3185189    4.3185189    4.3185189   -896.83783   -2291.4171    3196.6153   -3595.7116    496.75294   -538.64573   -1758.1051    80.538672 
   40400    130.98338   -108.26793   0.11851651   -108.14942    2663.8154    4.3158374    4.3158374    4.3158374    2663.8154    553.48978    5007.8146    2430.1418   -928.67701   -260.08685   -843.19806    80.388739 
   40500    98.671374   -108.23896  0.089279933   -108.14968     1152.309    4.3178607    4.3178607    4.3178607     1152.309   -705.14242    7051.9218   -2889.8522    -278.1217    306.44662   -1391.6594    80.501853 
   40600    68.827137    -108.2121   0.06227624   -108.14982   -1150.9396    4.3175521    4.3175521    4.3175521   -1150.9396    462.39856    1990.1195   -5905.3368    164.08482     297.2664   -762.13851    80.484596 
   40700    114.07907   -108.25238   0.10322114   -108.14916   -651.26629    4.3168202    4.3168202    4.3168202   -651.26629   -1365.1795    2933.2188   -3521.8382    279.04025    207.24478   -736.35045    80.443671 
   40800    93.812771   -108.23448  0.084883767   -108.14959   -1059.4391    4.3184892    4.3184892    4.3184892   -1059.4391   -2533.6128    3147.2062   -3791.9107    1252.0191    505.67064   -451.40961     80.53701 
   40900    97.296399   -108.23794  0.088035826    -108.1499     453.5093    4.3165512    4.3165512    4.3165512     453.5093    -911.7198    3759.2802   -1487.0325   -496.49096   -1131.1007   -3201.8536    80.428633 
   41000    134.21012    -108.2707   0.12143614   -108.14926    847.51881    4.3176759    4.3176759    4.3176759    847.51881   -324.72634    5193.8084   -2326.5256   -905.93747   -558.35187    1118.0762    80.491519 
   41100    80.113277   -108.22236  0.072488176   -108.14987   -2086.2242      4.31771      4.31771      4.31771   -2086.2242   -311.46802   -1210.6204   -4736.5842     537.8015     668.7104   -1864.8984    80.493426 
   41200    81.861685   -108.22377  0.074070173    -108.1497   -2433.6819    4.3173489    4.3173489    4.3173489   -2433.6819    -876.9623       697.58   -7121.6635    594.68284   -102.30588   -1483.1883    80.473229 
   41300    112.57965    -108.2511   0.10186443   -108.14923   -748.32214    4.3180932    4.3180932    4.3180932   -748.32214   -2790.4302    3122.9126   -2577.4488    205.05913    243.97334   -65.989539    80.514859 
   41400    77.144775   -108.21975  0.069802214   -108.14995   -107.45954    4.3167902    4.3167902    4.3167902   -107.45954   -1750.6687    4160.2659   -2731.9758   -5.3069673    106.12266   -3861.8009    80.441992 
   41500    133.34991   -108.27022    0.1206578   -108.14956   -875.70831    4.3180867    4.3180867    4.3180867   -875.70831   -1024.1077    343.89313   -1946.9103   -752.01601   -665.02176   -177.34534    80.514494 
   41600    110.38606   -108.24939  0.099879628   -108.14951    535.32974    4.3170138    4.3170138    4.3170138    535.32974    368.15206    3194.7392    -1956.902    323.24066   -332.55466   -520.68872    80.454493 
   41700    74.783489   -108.21755  0.067665673   -108.14988   -3089.8971    4.3176485    4.3176485    4.3176485   -3089.8971   -754.85602   -1691.3049   -6823.5304    1483.4317     322.5996   -1450.9872    80.489984 
   41800    77.103699   -108.21949  0.069765047   -108.14972    966.90808    4.3179133    4.3179133    4.3179133    966.90808   -2486.9969    8716.2302   -3328.5091    237.33797     13.33099   -1098.4052    80.504797 
   41900    119.99298   -108.25795   0.10857217   -108.14938    752.67088    4.3162387    4.3162387    4.3162387    752.67088   -1334.0553    4429.8705   -837.80255    79.900615   -419.77746   -905.61886    80.411169 
   42000    99.095633   -108.23958  0.089663812   -108.14992   -104.48925    4.3182673    4.3182673    4.3182673   -104.48925   -1921.7627    2583.0459   -974.75088   -572.66334   -359.75101   -2273.9056    80.524599 
   42100     131.4651   -108.26817   0.11895238   -108.14921    1575.0147    4.3167693    4.3167693    4.3167693    1575.0147    707.95793    4704.2583   -687.17206    166.82133   -142.90667     547.2934    80.440828 
   42200    95.747693   -108.23607  0.086634524   -108.14943    280.88426    4.3168623    4.3168623    4.3168623    280.88426    545.39694    3665.9507   -3368.6949    1077.2736    419.61683    161.96072    80.446027 
   42300    37.872588   -108.18433  0.034267914   -108.15006    955.94427    4.3181514    4.3181514    4.3181514    955.94427   -2307.8553    9918.3147   -4742.6266    657.17056    188.17346   -2646.7886    80.518114 
   42400    137.02381   -108.27313   0.12398202   -108.14914    924.13666    4.3159956    4.3159956    4.3159956    924.13666   -287.58365    3641.2773   -581.28365    -474.6924    226.68331    109.89882     80.39758 
   42500    103.82093   -108.24362  0.093939358   -108.14968    1413.5406    4.3179827    4.3179827    4.3179827    1413.5406   -2301.0912    5809.8338     731.8792    -80.25137   -534.98079   -1451.7509    80.508678 
   42600     121.6843   -108.25979   0.11010251   -108.14969   -851.25461    4.3174852    4.3174852    4.3174852   -851.25461   -25.380776   -906.07862   -1622.3044     279.9747    -1103.041   -1064.7499    80.480851 
   42700    97.745819    -108.2378  0.088442471   -108.14935    2701.2394    4.3163611    4.3163611    4.3163611    2701.2394    1445.6681    8752.6107   -2094.5604    861.06201    331.84304    901.60984    80.418005 
   42800    66.605645   -108.21018  0.060266188   -108.14991   -1419.2549    4.3185771    4.3185771    4.3185771   -1419.2549   -2495.9845    3155.5421   -4917.3224    1146.7468    499.02791   -1754.5186    80.541932 
   42900    80.833227   -108.22307  0.073139603   -108.14993   -667.62157    4.3165319    4.3165319    4.3165319   -667.62157   -131.19671    2016.0743   -3887.7423   -638.35841    119.77406   -1586.7298    80.427554 
   43000    144.96162   -108.28031   0.13116432   -108.14915   -177.23017    4.3179603    4.3179603    4.3179603   -177.23017   -3079.1959    1738.7245    808.78088   -161.09292    22.939444    377.69457    80.507422 
   43100    106.63288   -108.24633  0.096483667   -108.14985    -1463.018    4.3177534    4.3177534    4.3177534    -1463.018   -562.10052    -1722.684   -2104.2694    632.51069   -87.003495   -724.46231    80.495851 
   43200    84.954324   -108.22667  0.076868458    -108.1498    653.13666    4.3166865    4.3166865    4.3166865    653.13666    651.94096    5082.0397   -3774.5707    867.74786   -739.19616   -1872.3803    80.436199 
   43300     107.4766   -108.24648  0.097247085   -108.14924   -1423.8618    4.3184787    4.3184787    4.3184787   -1423.8618   -1563.0999     1528.774   -4237.2596    238.56883    542.74256    101.94518    80.536423 
   43400    50.262484   -108.19542  0.045478552   -108.14995   -1773.9304    4.3169336    4.3169336    4.3169336   -1773.9304   -524.28742    887.70465   -5685.2084    278.42928    634.55921   -3350.5109     80.45001 
   43500    134.49858   -108.27115   0.12169714   -108.14945   -2304.8415    4.3182153    4.3182153    4.3182153   -2304.8415    -3642.422   -1810.5831   -1461.5195   -773.99496   -1038.4224   -959.46496     80.52169 
   43600    120.42353   -108.25838   0.10896174   -108.14941    954.21286    4.3174505    4.3174505    4.3174505    954.21286   -783.53073    3941.2013   -295.03195    311.58753   -37.675234    1290.9844    80.478912 
   43700    89.270796   -108.23066  0.080774092   -108.14989   -1261.1205    4.3170591    4.3170591    4.3170591   -1261.1205   -623.04228    910.67314   -4070.9924    1541.8105   -309.68963    -2271.611    80.457029 
   43800    95.074516   -108.23537   0.08602542   -108.14934    211.07815    4.3181312    4.3181312    4.3181312    211.07815   -342.56591    5377.0247   -4401.2243    193.27572    291.65631    194.55368    80.516986 
   43900    90.937026    -108.2317  0.082281732   -108.14941   -886.67578    4.3169229    4.3169229    4.3169229   -886.67578   -924.79191    1309.2876    -3044.523    189.65318    716.55711   -1644.6747    80.449415 
   44000     81.23846   -108.22349  0.073506265   -108.14998   -1572.0334    4.3179546    4.3179546    4.3179546   -1572.0334   -2778.4129    1446.4602   -3384.1476   -340.58013   -99.914639   -1008.3116    80.507106 
   44100    126.92223   -108.26428    0.1148419   -108.14943    2187.6779    4.3171741    4.3171741    4.3171741    2187.6779   -1824.4913    7089.5198    1298.0052    197.41873   -540.99774    275.12734    80.463456 
   44200    123.08653   -108.26103   0.11137128   -108.14966    491.69767    4.3167795    4.3167795    4.3167795    491.69767   -634.55872    3440.3287    -1330.677    650.28369   -841.16773   -586.90427    80.441393 
   44300    70.486919   -108.21379  0.063778046   -108.15001     177.8213    4.3180059    4.3180059    4.3180059     177.8213    -148.2667    5180.5217   -4498.7911    886.19911    171.55692   -1711.4532    80.509976 
   44400    117.42914   -108.25546   0.10625236    -108.1492   -70.151155    4.3168131    4.3168131    4.3168131   -70.151155   -712.59585    1313.8496   -811.70723   -851.21106    439.59935   -270.14774    80.443272 
   44500    68.884808    -108.2121  0.062328422   -108.14977    354.67185    4.3175962    4.3175962    4.3175962    354.67185   -1694.2002    5447.1185   -2688.9027   -101.67319    331.20519    227.02591    80.487058 
   44600    97.759713   -108.23839  0.088455043   -108.14993    256.22749    4.3174006    4.3174006    4.3174006    256.22749    -3332.111    3489.1716    611.62196    631.96193   -567.15391   -493.42474    80.476123 
   44700    144.10895   -108.27961    0.1303928   -108.14922    1809.9051    4.3167238    4.3167238    4.3167238    1809.9051   -135.97495    5277.1346     288.5557    525.10501    -92.91543    1123.8218    80.438282 
   44800    95.286103   -108.23606  0.086216868   -108.14985   -926.33217    4.3181061    4.3181061    4.3181061   -926.33217   -1330.9954    1646.2007   -3094.2019    1007.9257   -209.33421    -2796.825    80.515578 
   44900    83.880771   -108.22554  0.075897084   -108.14964   -976.79043    4.3170645    4.3170645    4.3170645   -976.79043    261.96213   -326.51403   -2865.8194    -669.9093     125.9809    41.391417    80.457331 
   45000    89.523829   -108.23023  0.081003042   -108.14922    910.03034    4.3175964    4.3175964    4.3175964    910.03034   -1436.1185    5898.1919   -1731.9823   -401.00523    927.80169    381.00832     80.48707 
   45100    81.477915   -108.22355  0.073722929   -108.14983   -1183.8337    4.3176004    4.3176004    4.3176004   -1183.8337   -3633.3605    1258.7015   -1176.8419    156.59226   -736.91692   -587.79824    80.487298 
   45200    120.11123   -108.25824   0.10867916   -108.14956    179.04678    4.3172096    4.3172096    4.3172096    179.04678   -623.71066    2558.8857   -1398.0346    621.11232   -455.92036    383.78579    80.465441 
   45300    150.73961    -108.2855   0.13639237   -108.14911   -1194.5039    4.3180562    4.3180562    4.3180562   -1194.5039   -2428.1702    185.36536   -1340.7068    456.26021    134.03236   -550.32687    80.512787 
   45400    61.559157   -108.20558  0.055700019   -108.14988   -1266.3781    4.3171421    4.3171421    4.3171421   -1266.3781    1177.6868   -44.999127    -4931.822   -163.26415    512.95862   -2174.1841    80.461669 
   45500    77.716544   -108.21984  0.070319562   -108.14952    8.9205624    4.3178543    4.3178543    4.3178543    8.9205624    -1839.281    4619.7062   -2753.6635   -736.62264    411.09825    53.140805    80.501495 
   45600    97.573515   -108.23769  0.088286567    -108.1494     277.2392    4.3172352    4.3172352    4.3172352     277.2392    -2241.654    4378.6505   -1305.2789    100.55489    464.64148    1165.3473    80.466873 
   45700    94.609952   -108.23553  0.085605073   -108.14992   -988.89755    4.3174873    4.3174873    4.3174873   -988.89755   -1967.4059    1631.4348   -2630.7215      937.355   -470.19795    -2827.858     80.48097 
   45800    160.73498   -108.29467   0.14543638   -108.14924   -1078.8411    4.3180832    4.3180832    4.3180832   -1078.8411   -2606.1428     1229.753   -1860.1335   -116.83031   -918.78803    998.63367      80.5143 
   45900    93.010373   -108.23385   0.08415774   -108.14969    771.11013    4.3166146    4.3166146    4.3166146    771.11013    1244.8276    4321.0541   -3252.5513   -226.14275    774.55569   -683.08293    80.432176 
   46000    50.095527   -108.19542  0.045327485   -108.15009   -570.53841    4.3180266    4.3180266    4.3180266   -570.53841    -1978.935    5250.1293   -4982.8095   -646.63982    226.54691   -891.07374    80.511132 
   46100    94.052106   -108.23458  0.085100322   -108.14948    1374.3603    4.3170098    4.3170098    4.3170098    1374.3603   -985.63573    5689.8741    -581.1575   -180.11626    523.09358    1469.9615     80.45427 
   46200    113.41154   -108.25224   0.10261715   -108.14962   -410.00115    4.3172391    4.3172391    4.3172391   -410.00115   -2826.5422    2858.5477   -1262.0089    791.43919    13.761623   -1321.7659    80.467089 
   46300    125.12877   -108.26299   0.11321914   -108.14977   -1543.9963    4.3184049    4.3184049    4.3184049   -1543.9963   -3122.3515    1788.2288   -3297.8662    305.43476   -570.84974   -2682.5602    80.532295 
   46400    126.35234   -108.26359   0.11432625   -108.14927    1598.4197    4.3164267    4.3164267    4.3164267    1598.4197   -69.423654     5489.673    -624.9903   -741.97151    287.47685    332.08733    80.421676 
   46500    66.614447   -108.21003  0.060274152   -108.14976   -59.153807    4.3178935    4.3178935    4.3178935   -59.153807   -1586.9217    6244.6687   -4835.2085   -446.44399     83.14753    492.66841    80.503691 
   46600    55.023288   -108.19958  0.049786228    -108.1498    256.50871    4.3174828    4.3174828    4.3174828    256.50871    -1289.861    2903.7191   -844.33201    289.89837    576.32431   -767.16798    80.480717 
   46700    132.54099   -108.26898   0.11992587   -108.14905   -128.24912    4.3169362    4.3169362    4.3169362   -128.24912   -2664.2437    2348.5322   -69.035837   -57.735147   -181.27643    1422.3549    80.450159 
   46800    110.27093   -108.24942  0.099775456   -108.14965   -1074.3927    4.3183055    4.3183055    4.3183055   -1074.3927   -3646.4371    2454.9019   -2031.6429    1015.4148   -816.83591    -1505.988    80.526733 
   46900    120.49123   -108.25853     0.109023   -108.14951   -421.30954    4.3170222    4.3170222    4.3170222   -421.30954   -1777.6305    1699.9729   -1186.2711   -349.26122    52.869956    -1263.765    80.454966 
   47000    103.08097   -108.24252   0.09326983   -108.14925    808.09416    4.3174618    4.3174618    4.3174618    808.09416   -1041.6739    5752.5639   -2286.6075   -790.29684    740.31227    824.69032    80.479546 
   47100    46.933408   -108.19231  0.042466334   -108.14985   -839.39738    4.3177723    4.3177723    4.3177723   -839.39738   -1401.2196   -49.501871   -1067.4706    579.54605    463.25219   -1247.6313    80.496912 
   47200    100.44532   -108.24041  0.090885032   -108.14952   -941.79146    4.3172072    4.3172072    4.3172072   -941.79146    -1901.258    23.813172   -947.92951    52.874728    234.57816   -957.85753    80.465307 
   47300    125.12376   -108.26254   0.11321461   -108.14932    450.13605    4.3177043    4.3177043    4.3177043    450.13605   -3178.6654     4198.923     330.1505    398.88868   -44.386418   -815.80492    80.493105 
   47400    116.09498    -108.2548   0.10504518   -108.14976   -1665.3328    4.3175578    4.3175578    4.3175578   -1665.3328    -2934.202    490.14913   -2551.9456   -242.82032   -1228.4218   -850.76465    80.484913 
   47500    106.71893   -108.24603  0.096561527   -108.14947     629.0131    4.3175313    4.3175313    4.3175313     629.0131   -1035.2633    3944.3791   -1022.0765   -583.76227    339.06757    1124.8912     80.48343 
   47600     84.13814   -108.22562  0.076129958   -108.14949    30.255182    4.3173319    4.3173319    4.3173319    30.255182   -828.71949    1108.4399   -188.95484   -26.972553     959.2719    64.516755    80.472281 
   47700    59.154504   -108.20344  0.053524238   -108.14992   -915.18234    4.3175411    4.3175411    4.3175411   -915.18234   -1315.8851    190.01886   -1619.6807    806.83851   -176.79266   -1931.1121    80.483978 
   47800    112.95088   -108.25169   0.10220033   -108.14949    1072.1305    4.3174405    4.3174405    4.3174405    1072.1305   -2155.7242    5750.0884   -377.97259    167.47288    314.71053   -885.24834    80.478354 
   47900    140.04176    -108.2762   0.12671273   -108.14949    -506.8585    4.3171429    4.3171429    4.3171429    -506.8585   -3268.2941    3352.1974   -1604.4788   -377.38774   -217.73612   -1110.9639    80.461713 
   48000    98.118471   -108.23864  0.088779655   -108.14986   -425.28248    4.3180244    4.3180244    4.3180244   -425.28248   -1537.5793    2603.8808   -2342.1489   -203.14585   -5.3561685   -348.09231    80.511008 
   48100    105.20322   -108.24451  0.095190083   -108.14932    808.30005    4.3170406    4.3170406    4.3170406    808.30005    -1125.351    3391.1881    159.06305   -578.04745    508.29252    978.36262    80.455992 
   48200    60.437944    -108.2043  0.054685522   -108.14961    624.80156    4.3173067    4.3173067    4.3173067    624.80156   -644.20202    3183.9166   -665.30985    952.22601    798.83132   -2051.7228    80.470873 
   48300    72.814438   -108.21565  0.065884034   -108.14977    254.60355     4.317897     4.317897     4.317897    254.60355   -1730.8838    6111.0407   -3616.3462    94.475109   -172.18164   -1221.7908    80.503887 
   48400    151.38651   -108.28603    0.1369777   -108.14905    138.46216    4.3168097    4.3168097    4.3168097    138.46216   -3107.6519    3924.7877   -401.74935   -9.0155159   -594.55986    876.35465    80.443082 
   48500    119.09864    -108.2573   0.10776295   -108.14954   -715.81428    4.3181191    4.3181191    4.3181191   -715.81428    -2177.512    2828.5824   -2798.5133   -110.40175    222.98594     -1376.82    80.516308 
   48600    97.077388   -108.23735  0.087837661   -108.14952   -674.35625    4.3175119    4.3175119    4.3175119   -674.35625   -2496.2027    1269.4028    -796.2688   -234.40898     285.3648   -646.47766    80.482348 
   48700    72.655724   -108.21508  0.065740426   -108.14934    1881.2932    4.3168069    4.3168069    4.3168069    1881.2932     103.4848    4964.9619    575.43285    476.03607    1270.8398   -126.33624    80.442926 
   48800    66.434552   -108.20989  0.060111379   -108.14978   -645.96478    4.3181955    4.3181955    4.3181955   -645.96478   -2371.8039    4932.9256   -4499.0161    506.63648   -18.776398   -2272.9044    80.520582 
   48900    114.10541   -108.25281   0.10324497   -108.14956   -518.92787    4.3169267    4.3169267    4.3169267   -518.92787   -1859.4719    1612.9429   -1310.2546   -35.491934    168.74684    -148.9366    80.449622 
   49000    156.37898   -108.29065   0.14149499   -108.14915   -992.60686    4.3179267    4.3179267    4.3179267   -992.60686   -3084.4655    1872.7524   -1766.1074   -741.77704   -303.67979    1807.2806    80.505547 
   49100    99.872376   -108.24011  0.090366624   -108.14974   -1364.6878    4.3177645    4.3177645    4.3177645   -1364.6878   -3189.4879   -448.75892   -455.81651    725.56403   -657.56535   -2490.0081    80.496475 
   49200    58.757785     -108.203  0.053165278   -108.14984    1553.4443    4.3168525    4.3168525    4.3168525    1553.4443    138.66504    4543.2117   -21.543736    24.166688    1300.9395   -1451.1531    80.445478 
   49300    90.161869   -108.23107  0.081580354   -108.14949   -653.45155    4.3181612    4.3181612    4.3181612   -653.45155   -2853.3824    3244.4216   -2351.3939    961.55796    199.08035   -712.42428     80.51866 
   49400    76.599297   -108.21918  0.069308653   -108.14987   -627.56512    4.3171443    4.3171443    4.3171443   -627.56512   -102.13119    1108.5656   -2889.1298    335.13791   -185.25245    -1821.828    80.461793 
   49500    163.13073    -108.2968   0.14760411    -108.1492     -2415.61    4.3181714    4.3181714    4.3181714     -2415.61    -4157.166   -803.29647   -2286.3674   -930.86053    102.78676    1105.8278    80.519233 
   49600    117.13291   -108.25555   0.10598432   -108.14956    513.05588    4.3174751    4.3174751    4.3174751    513.05588   -2687.6012    2749.3351    1477.4338    35.678781    276.20774   -111.97851     80.48029 
   49700    63.725943   -108.20762  0.057660573   -108.14996    432.25563    4.3170051    4.3170051    4.3170051    432.25563   -914.63986    3385.3593   -1173.9525     228.8157   -295.81315   -2384.9628     80.45401 
   49800    79.795831   -108.22163  0.072200944   -108.14943    506.65172    4.3179388    4.3179388    4.3179388    506.65172   -2079.3825    4468.0046   -868.66698    180.80584    789.19464   -302.48159    80.506223 
   49900    87.854156   -108.22893  0.079492286   -108.14943     161.5782    4.3168441    4.3168441    4.3168441     161.5782    656.27837    2646.5478   -2818.0916   -187.35666    52.943825   -220.00323    80.445008 
   50000     132.2414   -108.26919    0.1196548   -108.14954   -2300.2928    4.3180276    4.3180276    4.3180276   -2300.2928   -3450.9405    272.14689   -3722.0849   -68.765886    -1546.341   -1448.7406    80.511189 
   50100    122.45664   -108.26023   0.11080134   -108.14942    1863.4397    4.3172737    4.3172737    4.3172737    1863.4397   -2022.0711    5790.5546    1821.8356   -970.08912    343.40219   -347.10855    80.469025 
   50200     102.2657   -108.24204  0.092532156   -108.14951    315.61535    4.3168824    4.3168824    4.3168824    315.61535   -2210.9801    3500.6415   -342.81537    551.54666    174.51855   -2189.8983    80.447146 
   50300    46.835428   -108.19215   0.04237768   -108.14977    1125.8234     4.317909     4.317909     4.317909    1125.8234   -466.02459    5904.6403   -2061.1456    330.74004     830.5011   -947.55952    80.504555 
   50400    111.58096   -108.25008    0.1009608   -108.14912   -763.02413     4.317082     4.317082     4.317082   -763.02413   -387.40123    781.73318   -2683.4044   -746.85947    528.04058    840.69733    80.458305 
   50500    104.52733   -108.24415  0.094578523   -108.14957   -477.49817    4.3176691    4.3176691    4.3176691   -477.49817   -1551.2185    4628.6317   -4509.9078   -245.72422   -132.97229   -73.568672    80.491138 
   50600    119.16903    -108.2575   0.10782664   -108.14967   -16.400955    4.3177489    4.3177489    4.3177489   -16.400955   -2067.8374    2951.6678   -933.03318   -989.39695   -551.72333   -461.38849    80.495601 
   50700    121.37695   -108.25917   0.10982442   -108.14934    1032.2034    4.3168777    4.3168777    4.3168777    1032.2034   -3063.3618     4831.781    1328.1911    73.228255   -409.47222   -976.56275    80.446887 
   50800    62.948764   -108.20673  0.056957365   -108.14978    277.10848       4.3179       4.3179       4.3179    277.10848    70.128006       3393.2   -2632.0026    282.33924    588.76004   -1935.2545     80.50405 
   50900    93.019734   -108.23366  0.084166211   -108.14949    -1977.745       4.3175       4.3175       4.3175    -1977.745   -1005.1573   -1858.0445   -3070.0331     -617.972    255.22064    362.30376    80.481683 
   51000    93.967041   -108.23453  0.085023353    -108.1495    727.04286    4.3174316    4.3174316    4.3174316    727.04286   -233.63124    6635.7024   -4220.9426   -827.46111    160.20086    597.18361    80.477856 
   51100    122.86213   -108.26089   0.11116824   -108.14972   -1511.2395    4.3178453    4.3178453    4.3178453   -1511.2395   -2075.7719    153.95958   -2611.9064   -427.03385   -512.23227   -2175.3806    80.500995 
   51200    105.30585   -108.24497  0.095282943   -108.14969    1154.9152     4.317057     4.317057     4.317057    1154.9152   -2832.2285    4427.4979    1869.4762   -54.190566     884.7115     354.0094     80.45691 
   51300    114.07896   -108.25256   0.10322104   -108.14934   -691.71002    4.3179053    4.3179053    4.3179053   -691.71002    -1098.495    1.3136197   -977.94867    345.89995    439.70243   -858.51968    80.504349 
   51400    63.572491   -108.20721  0.057521726   -108.14968   -915.77984    4.3172747    4.3172747    4.3172747   -915.77984   -470.05301    544.54532   -2821.8318   -7.3362403    137.65976   -407.85391    80.469082 
   51500    88.035748   -108.22906  0.079656595   -108.14941   -323.09168    4.3177856    4.3177856    4.3177856   -323.09168   -423.46574    4050.2924   -4596.1017    -1227.192    767.81764    1045.3028    80.497655 
   51600    119.83033   -108.25769     0.108425   -108.14926    75.085527    4.3174163    4.3174163    4.3174163    75.085527   -1631.1266    3758.7879   -1902.4047    -284.2735   -1188.5032    -1450.921    80.476998 
   51700    105.39764   -108.24498  0.095365995   -108.14962    292.76309    4.3171925    4.3171925    4.3171925    292.76309   -2083.1976    1968.8828    992.60414   -164.00972   -599.20597   -2326.6759    80.464487 
   51800    128.11471   -108.26515   0.11592088   -108.14923   -659.49566    4.3180438    4.3180438    4.3180438   -659.49566   -2841.1375    480.73807     381.9124   -488.18298    751.68452     952.1147    80.512098 
   51900    74.993606   -108.21731  0.067855791   -108.14945    765.35934    4.3167927    4.3167927    4.3167927    765.35934   -424.84629    4235.0239   -1514.0996    243.21859    560.78893   -115.18782    80.442132 
   52000    73.322052   -108.21595  0.066343333   -108.14961   -952.77124    4.3179527    4.3179527    4.3179527   -952.77124   -408.03242    3216.6046   -5666.8859    -1286.149   -33.780085   -923.23025    80.507001 
   52100    97.113914    -108.2373  0.087870711   -108.14943    1510.7089    4.3172943    4.3172943    4.3172943    1510.7089   -1950.9229    8053.1592   -1570.1095   -606.72283    355.61346    839.81509    80.470176 
   52200    136.96867   -108.27335   0.12393213   -108.14942   -308.27498    4.3170492    4.3170492    4.3170492   -308.27498   -1372.9444    307.17464    140.94487    393.16205   -521.06041   -2564.3114    80.456475 
   52300    106.65168   -108.24619  0.096500678   -108.14969    53.321348    4.3181744    4.3181744    4.3181744    53.321348   -3654.6753    3298.9268    515.71262    197.99528   -647.44633    -143.7684    80.519403 
   52400    101.89156   -108.24151  0.092193625   -108.14932    578.81948    4.3168329    4.3168329    4.3168329    578.81948   -1545.6998    3780.9804   -498.82223    -626.6544    642.04459    1255.4115     80.44438 
   52500    64.404694   -108.20781  0.058274721   -108.14953    297.57793    4.3175603    4.3175603    4.3175603    297.57793   -194.32231    7236.2575   -6149.2014   -594.89516   -203.83246    -343.9873    80.485054 
   52600    81.456828   -108.22337  0.073703849   -108.14966   -335.93545    4.3177367    4.3177367    4.3177367   -335.93545   -1982.5288    4480.2687   -3505.5463   -1312.9524   -241.83204   -783.59157    80.494919 
   52700    140.72036    -108.2767   0.12732674   -108.14938    -294.2362    4.3169335    4.3169335    4.3169335    -294.2362   -637.54538    757.95413   -1003.1173   -704.06144   -483.34005    282.00416    80.450006 
   52800    113.64459   -108.25254   0.10282801   -108.14971    -82.96588    4.3180538    4.3180538    4.3180538    -82.96588   -3772.0925    3548.0927   -24.897882    873.89855    -53.00702    -727.6235    80.512653 
   52900    99.026858   -108.23926  0.089601582   -108.14966   -542.66229    4.3172006    4.3172006    4.3172006   -542.66229   -1794.2691    1433.0757   -1266.7934   -1258.4739    686.86693    530.19505     80.46494 
   53000    69.763339   -108.21261  0.063123335   -108.14949    830.54465    4.3173318    4.3173318    4.3173318    830.54465   -1079.6912    8624.5606   -5053.2355   -159.52126    -52.44308    1081.9898    80.472277 
   53100    89.354755   -108.23036   0.08085006   -108.14951   -2376.8752      4.31804      4.31804      4.31804   -2376.8752   -780.57175   -292.30993   -6057.7441   -741.78452     103.6545   -2460.4847     80.51188 
   53200    105.44079   -108.24497  0.095405044   -108.14956   -631.27724    4.3172314    4.3172314    4.3172314   -631.27724   -539.66983    1040.7124   -2394.8744   -108.62797      -473.79    446.91029    80.466661 
   53300    141.65369   -108.27745   0.12817123   -108.14928   -742.95437    4.3179531    4.3179531    4.3179531   -742.95437   -3738.6274    1778.6483   -268.88397    364.52662    -984.2417    4.8483273     80.50702 
   53400    86.644003   -108.22812  0.078397315   -108.14973    194.49856    4.3173674    4.3173674    4.3173674    194.49856   -1033.8624     2793.537   -1176.1789   -346.01965    119.36422    635.12483    80.474268 
   53500    80.437604   -108.22227  0.072781634   -108.14949   -438.21069    4.3176303    4.3176303    4.3176303   -438.21069   -2826.1842    4979.7558   -3468.2037   -998.72019     1132.864    1469.5077    80.488969 
   53600    96.133733    -108.2362  0.086983822   -108.14921   -1502.3667    4.3178375    4.3178375    4.3178375   -1502.3667      851.334    1009.6633   -6368.0974   -834.58932     11.24419   -1340.6227    80.500558 
   53700    89.598359   -108.23061  0.081070478   -108.14954   -839.60785    4.3174065    4.3174065    4.3174065   -839.60785   -410.90667    389.70953   -2497.6264    327.91856   -130.23142   -717.84062    80.476454 
   53800    131.03381   -108.26814   0.11856214   -108.14958    -45.97262    4.3176286    4.3176286    4.3176286    -45.97262     -2548.29     3228.899   -818.52687   -166.11676    523.34065    439.41927    80.488871 
   53900    102.50686   -108.24242   0.09275036   -108.14967    2045.1364    4.3171117    4.3171117    4.3171117    2045.1364   -937.59821    5499.8102    1573.1974    610.84989   -941.80276   -8.9394279    80.459971 
   54000    91.101058   -108.23211  0.082430152   -108.14968   -699.22538    4.3176021    4.3176021    4.3176021   -699.22538   -3034.4084    3004.7034   -2067.9711   -1212.5389     288.2011   -198.72953    80.487391 
   54100    86.988124   -108.22808  0.078708682   -108.14937   -127.29828    4.3174831    4.3174831    4.3174831   -127.29828    779.69398    3163.6526   -4325.2414    -160.2932    512.07655     431.4268    80.480738 
   54200    102.50275   -108.24204  0.092746643   -108.14929   -467.72156    4.3174928    4.3174928    4.3174928   -467.72156   -854.14403    1373.2216   -1922.2423    395.84737   -708.79345   -1656.3434    80.481277 
   54300    94.352213   -108.23518  0.085371866   -108.14981    1315.1951    4.3172773    4.3172773    4.3172773    1315.1951   -902.63161    6645.4059    -1797.189    326.73501   -327.71122    975.01116     80.46923 
   54400    120.16126   -108.25834   0.10872443   -108.14962    2186.5847    4.3169757    4.3169757    4.3169757    2186.5847    -2620.311     4569.071    4610.9942       166.74    201.28338    1542.1518    80.452367 
   54500     109.0471   -108.24823  0.098668112   -108.14956    352.73165    4.3175434    4.3175434    4.3175434    352.73165   -2284.2229    4648.2784   -1305.8605   -481.32957    522.57307   -1187.5963    80.484111 
   54600    81.608133   -108.22343  0.073840754   -108.14959   -849.02322    4.3174299    4.3174299    4.3174299   -849.02322   -505.03085    754.64423    -2796.683   -531.26529    315.48165    41.187813    80.477761 
   54700    99.605831   -108.23947  0.090125449   -108.14934   -599.26405    4.3176136    4.3176136    4.3176136   -599.26405   -1445.9417    3210.8446   -3562.6951   -52.014451    177.83656   -697.86075    80.488035 
   54800    85.467889   -108.22691  0.077333142   -108.14958    1236.5846    4.3173188    4.3173188    4.3173188    1236.5846   -51.932358    6321.8298   -2560.1436     1079.303   -870.19322   -685.70668    80.471546 
   54900    111.56153   -108.25055   0.10094322   -108.14961    489.02891    4.3171888    4.3171888    4.3171888    489.02891   -3337.1928    1572.9225     3231.357   -850.62861   -646.46139     1444.146    80.464278 
   55000     125.9396    -108.2632    0.1139528   -108.14924    -166.3185    4.3178661    4.3178661    4.3178661    -166.3185    -2723.746    2881.2681   -656.47761    98.466165   -554.23038    697.89931    80.502154 
   55100    95.911036   -108.23621  0.086782321   -108.14943   -1945.5247    4.3175909    4.3175909    4.3175909   -1945.5247   -1761.4061   -1264.5107   -2810.6572    -240.3165    331.44747    -2230.634    80.486766 
   55200    77.422621   -108.21963  0.070053615   -108.14957   -1735.5969    4.3178346    4.3178346    4.3178346   -1735.5969   -1612.0573    2718.8674   -6313.6007   -277.44182    513.70411    373.03382    80.500392 
   55300     86.27024   -108.22752  0.078059126   -108.14946    473.15351    4.3175305    4.3175305    4.3175305    473.15351     -855.492    4877.1903   -2602.2378    1200.5539    -979.9214    472.77759    80.483385 
   55400    106.14756   -108.24565  0.096044541    -108.1496   -281.12947    4.3172638    4.3172638    4.3172638   -281.12947   -2212.8876    1655.5686   -286.06944   -115.07246    342.21042   -860.42985    80.468473 
   55500    123.10986   -108.26086   0.11139239   -108.14947   -1096.5857    4.3180548    4.3180548    4.3180548   -1096.5857   -3207.8827   -1387.3496    1305.4752   -909.23367   -188.60791    1691.2409    80.512711 
   55600    117.50531    -108.2556   0.10632127   -108.14928   -1484.4104    4.3175477    4.3175477    4.3175477   -1484.4104   -2703.8617    988.82221   -2738.1918   -318.14096   -398.10987   -2169.0652    80.484347 
   55700    75.848539   -108.21821  0.068629352   -108.14958   -1775.7662    4.3177531    4.3177531    4.3177531   -1775.7662   -915.25824    1477.8295   -5889.8698    -226.8346    263.00928   -645.81316    80.495837 
   55800    66.369824   -108.20968  0.060052812   -108.14962    487.36505    4.3174642    4.3174642    4.3174642    487.36505    -1656.959    5704.4762   -2585.4221   -68.068807   -391.85435    1127.1476    80.479678 
   55900    117.69562   -108.25589   0.10649347    -108.1494    185.74591    4.3171561    4.3171561    4.3171561    185.74591   -938.77859    2108.4536   -612.43731    669.91285   -1149.2452   -233.05459    80.462448 
   56000    113.23232   -108.25208   0.10245499   -108.14963    81.132201    4.3177831    4.3177831    4.3177831    81.132201   -2173.9577    -1184.685    3602.0392   -632.19259   -228.26814   -116.88125    80.497516 
   56100    124.85237    -108.2624   0.11296905   -108.14943   -557.07096    4.3174171    4.3174171    4.3174171   -557.07096   -3598.7789    3358.4642   -1430.8982   -621.39374    846.65134   -804.00535    80.477044 
   56200    89.534348   -108.23045   0.08101256   -108.14944    178.89263    4.3174751    4.3174751    4.3174751    178.89263   -327.47334    3146.6908   -2282.5395    479.13983   -265.53252   -856.05637    80.480286 
   56300    58.227868   -108.20236  0.052685799   -108.14967    508.94274    4.3174503    4.3174503    4.3174503    508.94274   -1984.5513    7676.5469   -4165.1674   -258.40635    432.82353    376.18551    80.478902 
   56400    107.49887    -108.2467  0.097267233   -108.14943    484.80572    4.3172107    4.3172107    4.3172107    484.80572   -767.13305    385.85028    1835.6999    292.43331   -531.53616    1653.7838    80.465505 
   56500    117.93516   -108.25617   0.10671021   -108.14946    1483.7509    4.3174998    4.3174998    4.3174998    1483.7509   -1107.7184    2294.3555    3264.6157   -460.00113   -741.78419   -1317.6655    80.481672 
   56600    125.60812   -108.26312   0.11365287   -108.14947   -517.60035    4.3174637    4.3174637    4.3174637   -517.60035   -3760.7295    1508.7794    699.14912   -966.55834   -109.36538    32.984159    80.479649 
   56700    88.294685    -108.2293  0.079890886    -108.1494    1349.8979     4.317397     4.317397     4.317397    1349.8979   -858.84456    5184.2284   -275.69007    207.26666   -46.982072   -865.00482    80.475924 
   56800    85.997152   -108.22712   0.07781203   -108.14931   -477.15144    4.3174364    4.3174364    4.3174364   -477.15144   -2071.0941    6169.7768    -5530.137    268.71586    341.08965   -426.40374    80.478122 
   56900    74.321832   -108.21687  0.067247956   -108.14962    211.21321    4.3173221    4.3173221    4.3173221    211.21321   -141.22856   -1057.7291    1832.5973    279.41341   -775.32532     1237.124    80.471735 
   57000    123.17657   -108.26083   0.11145275   -108.14938    412.11955    4.3175566    4.3175566    4.3175566    412.11955    -1796.845    2516.7357    516.46797   -284.00998   -276.63622   -1224.0858    80.484847 
   57100     124.0167   -108.26168   0.11221291   -108.14947    15.729483    4.3172839    4.3172839    4.3172839    15.729483   -2148.6223    909.33134    1286.4794   -508.51055   -54.957382   -1238.7315    80.469598 
   57200    84.480697    -108.2261   0.07643991   -108.14966    176.83865    4.3177566    4.3177566    4.3177566    176.83865   -2583.2397    5203.8248   -2090.0691   -544.49951    164.66233    404.58636    80.496031 
   57300    109.50766   -108.24835  0.099084836   -108.14926   -2175.9655    4.3176819    4.3176819    4.3176819   -2175.9655   -2956.3365    2267.0385   -5838.5987     584.8833   -571.17374    661.06319    80.491855 
   57400    63.358836   -108.20695  0.057328407   -108.14962   -333.76545    4.3173945    4.3173945    4.3173945   -333.76545    466.46518    469.41182   -1937.1734   -6.1635945   -237.77726   -958.63219    80.475782 
   57500    116.03763   -108.25449   0.10499328   -108.14949   -2133.2599    4.3181839    4.3181839    4.3181839   -2133.2599    -3651.864   -1016.0013   -1731.9144   -648.17457   -608.77537    1115.3717     80.51993 
   57600    105.94046   -108.24542  0.095857155   -108.14956    1771.3143    4.3167325    4.3167325    4.3167325    1771.3143   -321.69993    4910.0558    725.58713   -252.69538   -1376.5387   -3050.7558    80.438767 
   57700    112.37807   -108.25133   0.10168204   -108.14965    -1103.785    4.3181268    4.3181268    4.3181268    -1103.785   -3882.1923    3834.3426   -3263.5053   -907.74817    1157.2868   -737.93278     80.51674 
   57800     96.26529    -108.2366  0.087102857    -108.1495   -2054.9604    4.3178356    4.3178356    4.3178356   -2054.9604   -3097.2054    1855.1983    -4922.874    211.10603   -267.37801    1527.3873     80.50045 
   57900    85.699341   -108.22684  0.077542565    -108.1493   -951.43693    4.3172137    4.3172137    4.3172137   -951.43693   -200.73048    2292.6481   -4946.2284    114.00639   -366.81753    -1669.377    80.465669 
   58000    100.81118   -108.24077  0.091216075   -108.14955   -1907.7569    4.3184521    4.3184521    4.3184521   -1907.7569   -3421.0618    -258.1267   -2044.0822   -785.06723    -73.78848    429.83676    80.534937 
   58100    77.815898   -108.22027   0.07040946   -108.14986     2815.251    4.3164693    4.3164693    4.3164693     2815.251   -228.63822    8540.7312    133.66014   -1190.2764    -986.8868   -876.95102    80.424054 
   58200     146.6463   -108.28205   0.13268866   -108.14936   -796.89133    4.3178375    4.3178375    4.3178375   -796.89133   -3589.5448     2735.922   -1537.0512    28.433658   -484.11626   -1059.9612    80.500556 
   58300    85.573094   -108.22702  0.077428334   -108.14959   -230.28615    4.3178948    4.3178948    4.3178948   -230.28615   -2011.1904    4498.5706   -3178.2386   -613.83382   -218.14784    127.92201     80.50376 
   58400     107.3786   -108.24638  0.097158414   -108.14922   -2283.8709    4.3170336    4.3170336    4.3170336   -2283.8709   -2364.9686     463.1326   -4949.7766    207.56937    229.88662    1005.4194    80.455602 
   58500    77.110434   -108.21932  0.069771141   -108.14954    1046.6021    4.3180545    4.3180545    4.3180545    1046.6021   -1106.7129    5958.9247   -1712.4055   -132.63666    -756.5668   -2035.8189    80.512692 
   58600    81.487807   -108.22352   0.07373188   -108.14978    1805.7739    4.3166845    4.3166845    4.3166845    1805.7739   -1421.7122    6837.2602     1.773705   -1888.0245   -18.153488   -410.17386    80.436083 
   58700    130.50266   -108.26755   0.11808155   -108.14947    551.10991    4.3173671    4.3173671    4.3173671    551.10991   -2333.9199    3005.1531    982.09658     -130.941   -134.98617    117.16239    80.474251 
   58800    115.39886   -108.25379   0.10441531   -108.14937    213.29885    4.3180176    4.3180176    4.3180176    213.29885   -1143.6532    3431.0596   -1647.5098   -287.24337    81.198088   -589.55236    80.510627 
   58900    108.27953   -108.24739   0.09797359   -108.14941   -2802.6702    4.3170628    4.3170628    4.3170628   -2802.6702   -3375.7505   -885.58261   -4146.6775   -110.47338    148.87084    1838.3937    80.457232 
   59000    52.942942   -108.19771  0.047903886   -108.14981    1882.6722    4.3178627    4.3178627    4.3178627    1882.6722   -305.01846    8158.6407   -2205.6058   -73.054649   -581.25464   -1288.3423    80.501967 
   59100     104.9119   -108.24447  0.094926489   -108.14955    541.90655    4.3169569    4.3169569    4.3169569    541.90655   -1702.1958    4137.3189   -809.40353   -700.77001   -113.51899   -925.77136    80.451314 
   59200    97.269704    -108.2378  0.088011672   -108.14979    1248.6247    4.3172344    4.3172344    4.3172344    1248.6247   -1109.2083    2848.4867    2006.5955    -971.7933   -1226.3254    136.48158    80.466828 
   59300    143.45159   -108.27902   0.12979801   -108.14922   -929.15104    4.3181447    4.3181447    4.3181447   -929.15104   -1504.3164   -594.58979   -688.54696    390.92548   -34.495095    270.41466    80.517739 
   59400     104.8713   -108.24435  0.094889757   -108.14946   -671.01514    4.3167954    4.3167954    4.3167954   -671.01514   -2025.4631    2722.2625   -2709.8448    72.904166    528.80192    82.704244    80.442286 
   59500    51.582003   -108.19651   0.04667248   -108.14984    77.327301    4.3181374    4.3181374    4.3181374    77.327301   -1617.4195    5289.5342   -3440.1328    -372.4485    -117.6639    268.82447    80.517332 
   59600    97.918511   -108.23803  0.088598727   -108.14943    277.83766    4.3170568    4.3170568    4.3170568    277.83766   -1845.0425    4895.5579   -2217.0025   -429.13688   -157.09769   -1728.6493    80.456897 
   59700    103.39259    -108.2431  0.093551792   -108.14955    1048.6841    4.3171973    4.3171973    4.3171973    1048.6841   -37.592962    1092.9167    2090.7287   -844.90376   -366.20192   -589.41823    80.464756 
   59800    136.26969   -108.27279   0.12329968   -108.14949   -1795.7204    4.3183366    4.3183366    4.3183366   -1795.7204   -2961.6703   -1104.0635   -1321.4276    485.14868   -424.44698    1239.1895    80.528475 
   59900    106.55338    -108.2458  0.096411737   -108.14939    781.60409      4.31662      4.31662      4.31662    781.60409   -704.08939    5108.2543   -2059.3527    504.51396    -650.9475   -1499.4496    80.432481 
   60000    74.406863   -108.21684  0.067324893   -108.14952   -749.43806    4.3181571    4.3181571    4.3181571   -749.43806   -2314.3318    4894.3997   -4828.3821   -290.46079     669.5517    694.90159    80.518433 
   60100    69.128515   -108.21214  0.062548933    -108.1496   -388.97376    4.3172812    4.3172812    4.3172812   -388.97376   -2636.0135    5168.0029   -3698.9107   -550.66626   -792.77747   -959.37794    80.469446 
   60200    119.88594   -108.25773   0.10847532   -108.14926    267.36657    4.3172334    4.3172334    4.3172334    267.36657    538.29043    27.544681     236.2646   -516.05699   -828.86158   -1011.4007    80.466772 
   60300    126.63035   -108.26412    0.1145778   -108.14954   -1013.3774    4.3182144    4.3182144    4.3182144   -1013.3774   -3353.2921    1523.4519    -1210.292    -286.1268     205.9338    1697.3337    80.521637 
   60400    97.151704   -108.23752  0.087904903   -108.14962    488.74786    4.3168237    4.3168237    4.3168237    488.74786   -594.53158    4068.1178   -2007.3426    830.76268   -751.46404    180.27969    80.443868 
   60500    99.061316   -108.23888   0.08963276   -108.14925   -367.94655    4.3180164    4.3180164    4.3180164   -367.94655   -2679.4537    6687.2495   -5111.6355   -47.545203    521.44926   -1192.6398    80.510561 
   60600    67.102069   -108.21036  0.060715362   -108.14965   -1275.2934    4.3174147    4.3174147    4.3174147   -1275.2934   -2436.5622     2440.558   -3829.8759   -1000.1101   -473.20569    74.075081     80.47691 
   60700    101.77847   -108.24169  0.092091296    -108.1496   -906.86674    4.3175062    4.3175062    4.3175062   -906.86674   -634.14313     196.5283   -2282.9854    89.345528   -621.00952    392.13555    80.482027 
   60800    134.14897   -108.27073   0.12138081   -108.14935    114.34443    4.3179264    4.3179264    4.3179264    114.34443   -2306.2095    2472.5611    176.68165    92.730436   -675.91171    141.43045    80.505528 
   60900    90.107774   -108.23138  0.081531408   -108.14985    822.30064    4.3168436    4.3168436    4.3168436    822.30064   -153.80375    4365.5735   -1744.8678    244.90175   -561.06775    2570.3848    80.444981 
   61000    103.49455   -108.24309  0.093644045   -108.14945   -711.09018    4.3182343    4.3182343    4.3182343   -711.09018   -3596.2498    5364.9774   -3901.9982     516.9357    632.87201   -620.89347     80.52275 
   61100    90.050966   -108.23081  0.081480007   -108.14933   -832.39389    4.3172019    4.3172019    4.3172019   -832.39389   -349.64751    965.78284    -3113.317   -1017.9306   -343.37034   -713.93338     80.46501 
   61200    82.414075   -108.22424  0.074569987   -108.14967   -1807.4808    4.3176747    4.3176747    4.3176747   -1807.4808   -2400.6652    585.27592   -3607.0532   -701.10117   -134.86334     1922.114     80.49145 
   61300    117.71064   -108.25604   0.10650706   -108.14953    524.10179    4.3179947    4.3179947    4.3179947    524.10179   -1010.0951    1871.7331    710.66734    923.40973   -847.28142   -578.30686    80.509347 
   61400    106.25111    -108.2457  0.096138238   -108.14956    2238.6983    4.3163834    4.3163834    4.3163834    2238.6983    687.61184    6752.3847   -723.90153    382.13887   -149.16612    1109.0287    80.419254 
   61500    101.68273   -108.24167  0.092004675   -108.14966    -1244.839    4.3184525    4.3184525    4.3184525    -1244.839   -3611.3764     1927.867   -2051.0075    156.49364   -463.81425    501.55646    80.534957 
   61600    95.358232    -108.2355  0.086282132   -108.14922   -46.086527    4.3171741    4.3171741    4.3171741   -46.086527     904.6546    2288.3833   -3331.2975   -91.397357    114.06743   -884.03524    80.463458 
   61700    100.75351   -108.24046  0.091163896   -108.14929   -1721.9901    4.3173239    4.3173239    4.3173239   -1721.9901   -2655.0984    739.96034   -3250.8321   -591.33119    261.60805    917.57635    80.471836 
   61800    68.791101   -108.21228  0.062243634   -108.15003    1313.7952    4.3180891    4.3180891    4.3180891    1313.7952   -274.50755    4903.7496   -687.85654    558.89076   -1196.7148    1609.1872    80.514628 
   61900    130.28253   -108.26736   0.11788237   -108.14948    2074.8493    4.3163067    4.3163067    4.3163067    2074.8493   -109.26492    6176.7512    157.06158     1176.165    515.64399   -84.085442    80.414966 
   62000    108.58647   -108.24791  0.098251322   -108.14966    281.80418    4.3179837    4.3179837    4.3179837    281.80418   -993.58011    2819.6528   -980.66019   -108.38566   -250.73132    216.23522    80.508732 
   62100    92.952205   -108.23366  0.084105108   -108.14955   -1195.5494    4.3176746    4.3176746    4.3176746   -1195.5494   -967.68414    1061.9326   -3680.8965   -246.45957    143.42479   -26.746258    80.491448 
   62200    109.87436   -108.24858  0.099416628   -108.14916   -680.73366    4.3169899    4.3169899    4.3169899   -680.73366   -1711.6135    3113.4533   -3444.0408   -455.75755   -107.45611    -1040.657    80.453161 
   62300    52.510206   -108.19739  0.047512338   -108.14988    1919.8313     4.317859     4.317859     4.317859    1919.8313   -39.582577    8466.8148   -2667.7382     205.7668   -526.06426    2235.9118     80.50176 
   62400    123.93572   -108.26183   0.11213964   -108.14969    157.72344    4.3169401    4.3169401    4.3169401    157.72344   -1988.8274    2745.7437   -283.74602    1069.5664   -850.93373    235.92343    80.450371 
   62500    118.37701    -108.2565   0.10711001   -108.14939    2311.5931    4.3173099    4.3173099    4.3173099    2311.5931    1613.0819    6239.8832   -918.18584    209.73123    -685.7938   -95.566758    80.471049 
   62600    116.79798   -108.25525   0.10568127   -108.14957   -2800.3999    4.3180403    4.3180403    4.3180403   -2800.3999   -2852.8498   -2230.0172   -3318.3326   -613.58125    639.31619    553.05548    80.511902 
   62700    67.907328   -108.21122  0.061443978   -108.14978    363.58761    4.3171244    4.3171244    4.3171244    363.58761   -1065.4397    7120.8086   -4964.6061    13.168157   -718.32805   -76.732789    80.460679 
   62800    91.981792   -108.23264  0.083227059   -108.14942    309.58728    4.3177143    4.3177143    4.3177143    309.58728   -1076.9149    6226.8684   -4221.1918    416.06025    500.61655    871.65205    80.493664 
   62900    89.840649   -108.23106  0.081289708   -108.14977    -280.7481    4.3173106    4.3173106    4.3173106    -280.7481   -1741.9481    2475.1896   -1575.4858    519.88603    -928.9834    1206.9183    80.471091 
   63000    126.02802   -108.26343    0.1140328    -108.1494    467.64747    4.3175666    4.3175666    4.3175666    467.64747    865.30716    2245.6508   -1708.0156    434.22343   -825.56332    52.769031    80.485408 
   63100    139.41604   -108.27534   0.12614656    -108.1492   -1896.6682    4.3177587    4.3177587    4.3177587   -1896.6682   -2184.9391   -847.44644   -2657.6189   -1292.7684   0.28557997   -609.96467    80.496151 
   63200    44.145311   -108.18979  0.039943605   -108.14985   -118.53703    4.3174344    4.3174344    4.3174344   -118.53703   -882.59962    6290.8557   -5763.8671   -557.39136   -866.18066     1768.249    80.478014 
   63300    104.02615   -108.24337  0.094125048   -108.14925   -1678.4068    4.3179231    4.3179231    4.3179231   -1678.4068   -2855.1836    3323.3951    -5503.432    626.42929    286.54209   -665.36377    80.505344 
   63400    85.519484    -108.2268  0.077379827   -108.14942    500.64407    4.3171702    4.3171702    4.3171702    500.64407    485.03767    3646.8131   -2629.9186    479.57584   -1221.7357     1753.757    80.463241 
   63500    126.30185   -108.26397   0.11428056   -108.14968   -2444.2128    4.3180726    4.3180726    4.3180726   -2444.2128   -1559.5747    -3438.717   -2334.3468    128.54146   -502.05539    177.22674    80.513709 
   63600    123.32487   -108.26106   0.11158694   -108.14947    499.70443    4.3174391    4.3174391    4.3174391    499.70443   -318.76173    3633.5974   -1815.7223    -311.5301   -56.005505   -1526.8605    80.478276 
   63700    82.065209   -108.22396  0.074254326    -108.1497   -588.51086    4.3174223    4.3174223    4.3174223   -588.51086   -706.45522    3613.4544   -4672.5318    -924.9798   -264.65293    1632.6895    80.477335 
   63800     68.40493   -108.21162  0.061894219   -108.14973    -1691.513    4.3180108    4.3180108    4.3180108    -1691.513   -3485.9847    4225.1105   -5813.6649    600.51993   -8.3966504    26.424487    80.510248 
   63900    106.85298   -108.24591  0.096682819   -108.14923    221.23858    4.3172553    4.3172553    4.3172553    221.23858    1592.5865    1645.1144   -2573.9852    808.74506    -554.8172    511.01703    80.467996 
   64000    123.81877   -108.26157   0.11203383   -108.14954    -1229.784    4.3177121    4.3177121    4.3177121    -1229.784   -1299.4363   -720.62881   -1669.2868   -690.62589   -735.81762    515.09405    80.493544 
   64100    95.670604   -108.23642  0.086564773   -108.14985    1495.5283    4.3174228    4.3174228    4.3174228    1495.5283    838.89732    4279.5671   -631.87948   -399.26368   -886.54173   -974.02237    80.477362 
   64200    117.98998     -108.256   0.10675982   -108.14924    880.57368    4.3171013    4.3171013    4.3171013    880.57368   -539.27583    5645.8227   -2464.8258   -706.78576    598.09618   -1014.3709    80.459385 
   64300    60.418909   -108.20439  0.054668299   -108.14972   -192.07504    4.3176154    4.3176154    4.3176154   -192.07504   -1524.5089    5480.0358    -4531.752    475.52857   -244.29423    1559.0755    80.488132 
   64400    102.47436   -108.24218  0.092720957   -108.14946   -1183.9626    4.3176176    4.3176176    4.3176176   -1183.9626    317.14907   -661.89882   -3207.1381    998.98459   -373.07427   -362.61312    80.488258 
   64500    123.23458   -108.26078   0.11150524   -108.14927    1342.7007    4.3171771    4.3171771    4.3171771    1342.7007    201.66421     5004.687   -1178.2491   -311.99315    57.047447   -559.53334    80.463627 
   64600    94.135434   -108.23495  0.085175719   -108.14978    1358.7033     4.317432     4.317432     4.317432    1358.7033    1363.9383    2883.7509   -171.57932   -1117.9506   -1287.1136     1197.527    80.477879 
   64700    105.28824   -108.24476  0.095267014   -108.14949    1606.8752    4.3171516    4.3171516    4.3171516    1606.8752   -1576.6087    8031.8556   -1634.6212   -7.3050338   -103.87498    -968.5189    80.462197 
   64800    99.508839   -108.23936  0.090037689   -108.14932    132.54411    4.3173605    4.3173605    4.3173605    132.54411    483.64624    3201.1437   -3287.1576    140.37829    37.981466    808.13943    80.473881 
   64900    82.067363   -108.22395  0.074256275    -108.1497   -2215.9185    4.3180732    4.3180732    4.3180732   -2215.9185   -1621.0537   -239.53428   -4787.1676    515.95233   -283.94616    1250.2078    80.513739 
   65000    108.52893   -108.24771  0.098199254   -108.14951     776.2249    4.3172349    4.3172349    4.3172349     776.2249    85.915031    4287.8737    -2045.114    210.10916    -428.3863   -992.92761    80.466855 
   65100    107.44583    -108.2467  0.097219248   -108.14948    2028.0927    4.3172557    4.3172557    4.3172557    2028.0927    1551.5619    5155.8424    -623.1261   -1484.5171   -331.55068   -327.78853    80.468018 
   65200    92.816063    -108.2339  0.083981924   -108.14992    44.159895    4.3176839    4.3176839    4.3176839    44.159895   -2644.1541    4342.6047   -1565.9708   -671.31172   -213.65527    202.82119    80.491965 
   65300    110.25015   -108.24908  0.099756656   -108.14932   -372.01287    4.3171777    4.3171777    4.3171777   -372.01287    570.98488    1241.4638   -2928.4872    518.51369    -604.7915   -439.61287    80.463656 
   65400    99.712708   -108.23965  0.090222153   -108.14942   -2791.3337    4.3182844    4.3182844    4.3182844   -2791.3337   -2788.0378   -195.39239   -5390.5709    87.467344    238.41401    962.55152    80.525554 
   65500    72.487197   -108.21556   0.06558794   -108.14997    -726.4197    4.3175117    4.3175117    4.3175117    -726.4197   -840.53846     2568.654   -3907.3747   -513.92313   -1123.2652    489.45645    80.482335 
   65600    113.71145   -108.25236   0.10288851   -108.14947    1710.7783    4.3170279    4.3170279    4.3170279    1710.7783    77.240691    6628.9295   -1573.8354   -365.95115   -700.36216   -1402.6389    80.455281 
   65700    113.45446   -108.25234   0.10265598   -108.14969   -685.44162    4.3181149    4.3181149    4.3181149   -685.44162   -1972.0207    1309.2771   -1393.5813   -919.89148   -799.30694    387.13039    80.516073 
   65800    92.130768   -108.23303  0.083361855   -108.14966   -1197.7164    4.3172705    4.3172705    4.3172705   -1197.7164   -1323.8263    1244.3323   -3513.6552    841.42665   -558.62745    14.567778    80.468846 
   65900    123.00186   -108.26038   0.11129467   -108.14909   -2575.4217    4.3181699    4.3181699    4.3181699   -2575.4217   -2803.1033   -370.75263   -4552.4092    636.73401    692.66581   -91.307756     80.51915 
   66000    52.989406   -108.19778  0.047945928   -108.14984    92.377929    4.3176507    4.3176507    4.3176507    92.377929   -922.61449     6640.846   -5441.0977   -941.34817   -977.17746    1133.1608    80.490109 
   66100     106.7695   -108.24627  0.096607284   -108.14966     -249.273    4.3170937    4.3170937    4.3170937     -249.273   -1565.3031     3567.318   -2749.8339   -740.58719     315.3578   -1430.0135    80.458963 
   66200    121.38679   -108.25916   0.10983331   -108.14933    1409.3185    4.3179154    4.3179154    4.3179154    1409.3185    401.56424    4282.3115   -455.92026   -877.40071   -1106.9803    173.63291    80.504911 
   66300    113.21242   -108.25204   0.10243698    -108.1496   -2025.8711    4.3174602    4.3174602    4.3174602   -2025.8711   -2249.5672   -444.01926   -3384.0268    282.61413   -1177.3695    364.22362    80.479454 
   66400    90.848166   -108.23172   0.08220133   -108.14952   -730.71112    4.3176645    4.3176645    4.3176645   -730.71112   -1260.5308    2758.1491   -3689.7517    1003.5806    185.53241    182.59666    80.490882 
   66500    82.717965   -108.22427  0.074844953   -108.14943    491.45509    4.3176549    4.3176549    4.3176549    491.45509   -1215.2503    7936.9488   -5247.3332   -216.67205   -540.04098    591.15816    80.490344 
   66600    85.807885   -108.22746  0.077640777   -108.14982   -365.64969    4.3170004    4.3170004    4.3170004   -365.64969   -573.61928    3350.3105   -3873.6403   -635.71824   -434.30949    635.66253    80.453743 
   66700    115.63532   -108.25417   0.10462927   -108.14954     1324.943     4.317822     4.317822     4.317822     1324.943    951.29141    3557.6973   -534.15986    309.13042   -634.26681   -311.22989     80.49969 
   66800    148.85595   -108.28395   0.13468799   -108.14926   -1449.5101    4.3174394    4.3174394    4.3174394   -1449.5101   -1489.9403   -1012.3218   -1846.2683     42.44524    228.56378    1091.1792    80.478295 
   66900    54.515834   -108.19928  0.049327072   -108.14995    673.81965    4.3173871    4.3173871    4.3173871    673.81965    319.98514    5381.8002   -3680.3264    808.72959   -683.17467    1880.2146    80.475366 
   67000    103.01103    -108.2426  0.093206545   -108.14939   -1127.7282    4.3179036    4.3179036    4.3179036   -1127.7282   -2944.5735    3794.6277   -4233.2386     -84.9413    467.53947   -1012.1391    80.504251 
   67100    76.494898   -108.21881  0.069214191    -108.1496    965.81763     4.316942     4.316942     4.316942    965.81763    1867.8213    5269.0144   -4239.3828   -1500.2978   -58.065816    1505.9667    80.450482 
   67200    118.85218   -108.25712   0.10753995   -108.14958    -1508.997    4.3180908    4.3180908    4.3180908    -1508.997   -464.58399    -2436.682   -1625.7251    176.74936   -1273.6742   -752.65895    80.514723 
   67300    133.97262   -108.27047   0.12122124   -108.14925    455.58823    4.3173819    4.3173819    4.3173819    455.58823   -149.36302    1517.0899   -0.9622479    1145.9765   -219.73759     436.7281    80.475074 
   67400    83.382214   -108.22498  0.075445979   -108.14954    385.60442    4.3173143    4.3173143    4.3173143    385.60442    582.62231     3699.204    -3125.013     214.1661   -560.19741    2642.0073    80.471295 
   67500    76.812824   -108.21904  0.069501857   -108.14953   -1372.7131    4.3179165    4.3179165    4.3179165   -1372.7131   -3626.3353    3267.8523   -3759.6562    240.46582    332.32202    145.29358    80.504978 
   67600    89.444506   -108.23019  0.080931268   -108.14925    557.91745     4.317265     4.317265     4.317265    557.91745    1638.2804    3612.6291   -3577.1572   -427.39351   -151.76589    614.30123    80.468541 
   67700    125.05893   -108.26263   0.11315595   -108.14947   -1977.1221    4.3178197    4.3178197    4.3178197   -1977.1221   -1089.1319    -2316.686   -2525.5483   -797.48907   -50.254775    871.81558    80.499559 
   67800    98.861415   -108.23922  0.089451886   -108.14977    1522.3183    4.3173539    4.3173539    4.3173539    1522.3183    120.75279    3982.0159    464.18615    1084.4132   -560.95649   -82.545015    80.473509 
   67900    122.82962   -108.26047   0.11113882   -108.14934    537.23009    4.3173108    4.3173108    4.3173108    537.23009    -1123.126    4020.1044   -1285.2881    861.18466   -940.85144    216.76418    80.471104 
   68000    62.309696   -108.20615  0.056379122   -108.14977    188.37406    4.3175067    4.3175067    4.3175067    188.37406   -2134.1922    6294.5215   -3595.2071   -1005.3695   -11.559251    1687.0326    80.482056 
   68100     96.75361   -108.23696    0.0875447   -108.14942   -1196.2703    4.3178091    4.3178091    4.3178091   -1196.2703   -1075.3242    952.77016   -3466.2568   -194.66522   -200.37581   -1222.2497    80.498968 
   68200    119.93767   -108.25783   0.10852213   -108.14931    77.800648    4.3173532    4.3173532    4.3173532    77.800648   -459.95845    3393.7221   -2700.3617     81.17509   -110.79984    720.03607    80.473473 
   68300    93.845516   -108.23473  0.084913395   -108.14981    1457.9813    4.3173195    4.3173195    4.3173195    1457.9813    29.817611    4714.4282   -370.30202    595.28807   -791.78969    1658.6955    80.471586 
   68400    114.62144   -108.25319   0.10371189   -108.14948    1399.7157    4.3173965    4.3173965    4.3173965    1399.7157   -2512.6476    7174.5038   -462.70918    1325.7707    89.587117   -154.57703    80.475891 
   68500    93.941731   -108.23445  0.085000452   -108.14945    580.33384    4.3170472    4.3170472    4.3170472    580.33384     -1004.48    4890.4202   -2144.9387   -273.55169   -462.22783    1371.2553    80.456363 
   68600     84.00709   -108.22555   0.07601138   -108.14954   -1933.0266    4.3180062    4.3180062    4.3180062   -1933.0266   -2809.6546    1270.8154   -4260.2405   -447.99656   -671.99435    237.60781    80.509994 
   68700    106.70081   -108.24596  0.096545134   -108.14941   -237.15588    4.3174955    4.3174955    4.3174955   -237.15588   -1107.6358    3711.1612    -3314.993     595.4437    647.62946   -1010.7993    80.481431 
   68800    100.44426   -108.24049   0.09088408   -108.14961     1291.335    4.3171425    4.3171425    4.3171425     1291.335   -344.87978    5519.5829   -1300.6982    974.08823   -1459.6521    677.79932    80.461691 
   68900    102.24799   -108.24224  0.092516132   -108.14972    192.93944    4.3179066    4.3179066    4.3179066    192.93944   -2795.7726    5480.5993   -2106.0083    860.61687   -717.14036    1995.7431    80.504418 
   69000    115.39992   -108.25363   0.10441627   -108.14922   -559.77083    4.3173332    4.3173332    4.3173332   -559.77083   -1716.4646    419.09359   -381.94144    438.15983   -15.543514    226.27853    80.472352 
   69100    92.053626   -108.23263  0.083292055   -108.14934    -2698.317    4.3180333    4.3180333    4.3180333    -2698.317    -2730.118    216.50831   -5581.3415   -892.52482   -319.72547    896.88302    80.511508 
   69200    80.033101   -108.22207  0.072415632   -108.14965   -1681.4721    4.3179796    4.3179796    4.3179796   -1681.4721   -1796.8991    1248.0655   -4495.5827     952.2545    419.65735    136.24723    80.508506 
   69300    100.80214    -108.2407  0.091207891   -108.14949     896.3807    4.3171512    4.3171512    4.3171512     896.3807   -1167.5784    5493.8457   -1637.1252    1240.1356   -202.89935   -345.96059    80.462179 
   69400    110.13131   -108.24929  0.099649119   -108.14964   -594.96651    4.3180285    4.3180285    4.3180285   -594.96651   -1423.6289    2656.3065   -3017.5771    410.02711   -245.59224     1629.265    80.511237 
   69500    109.62992   -108.24863  0.099195458   -108.14944   -987.69639    4.3175968    4.3175968    4.3175968   -987.69639   -2099.8405   -1330.6705    467.42178    1045.5613   -1123.2356   -267.81797    80.487095 
   69600    116.48497   -108.25453   0.10539805   -108.14913   -2331.1195    4.3176811    4.3176811    4.3176811   -2331.1195   -2409.3006   -532.83234   -4051.2255    -723.2925   -141.59639    602.53659    80.491811 
   69700    54.943468   -108.19956  0.049714004   -108.14984   -269.33927    4.3177014    4.3177014    4.3177014   -269.33927   -672.82303    4795.5546   -4930.7494    214.87086   -133.55633    195.95906    80.492947 
   69800    101.05288   -108.24111  0.091434769   -108.14967     77.00499    4.3173606    4.3173606    4.3173606     77.00499   -2341.9341    4829.8595   -2256.9104     1343.188   -259.56366   -49.725962    80.473883 
   69900    111.29118   -108.25031    0.1006986   -108.14962    1597.3194    4.3174289    4.3174289    4.3174289    1597.3194    534.23015     5437.288   -1179.5599     956.5621   -295.45278    1817.3291    80.477706 
   70000    121.48811   -108.25951   0.10992499   -108.14959   -839.90782    4.3176128    4.3176128    4.3176128   -839.90782   -1219.8474   -1332.3909    32.514857   -479.29804   -583.88105   -179.02236    80.487989 
   70100    109.22295   -108.24817  0.098827218   -108.14934   -80.147007    4.3174653    4.3174653    4.3174653   -80.147007   -2395.9543    3111.2378   -955.72453    239.75218    528.70639   -884.17737    80.479742 
   70200    66.855324   -108.20997  0.060492102   -108.14948    1347.3333    4.3171689    4.3171689    4.3171689    1347.3333    156.69895    7746.5736   -3861.2726   -160.53396   -453.75271    189.03681    80.463164 
   70300    86.153018   -108.22751  0.077953062   -108.14955   -4.9892444    4.3175829    4.3175829    4.3175829   -4.9892444   -2503.2833    5783.7314   -3295.4158    626.03149    483.90438    468.75981    80.486315 
   70400    109.17264   -108.24818  0.098781695    -108.1494    2250.1862    4.3172171    4.3172171    4.3172171    2250.1862    774.09627     5518.855    457.60733    1503.1458   -429.50731   -25.272896    80.465864 
   70500     142.3302    -108.2781   0.12878335   -108.14931   -488.37682    4.3174585    4.3174585    4.3174585   -488.37682   -905.40659   -307.63415   -252.08973   -721.91617   -1368.5939    2393.5714    80.479362 
   70600    85.025273   -108.22658  0.076932654   -108.14965    1267.7145    4.3175628    4.3175628    4.3175628    1267.7145   -1625.1163    5043.9796    384.28012    -103.9737   -360.22988   -671.17317    80.485195 
   70700     90.79051   -108.23141  0.082149161   -108.14926    525.12667    4.3170705    4.3170705    4.3170705    525.12667   -1738.6498    5584.0726   -2270.0428    128.87268   -90.296645   -1430.2059    80.457663 
   70800     70.82518    -108.2135  0.064084111   -108.14942    129.00904    4.3176172    4.3176172    4.3176172    129.00904   -1890.4222    6720.1813    -4442.732    926.25212    78.804659    1837.5832    80.488235 
   70900    110.96201   -108.24988   0.10040076   -108.14948   -767.48009    4.3177048    4.3177048    4.3177048   -767.48009   -1102.1747   -745.31834   -454.94727    680.99254    -389.0556   -688.11381    80.493134 
   71000    135.39246   -108.27194   0.12250595   -108.14944   -33.637957    4.3172637    4.3172637    4.3172637   -33.637957   -1627.5626    1396.3709    130.27779    326.55163    328.87482    187.09053    80.468467 
   71100    93.738402   -108.23459  0.084816476   -108.14978    197.88257    4.3179545    4.3179545    4.3179545    197.88257   -1398.5646    1999.4917   -7.2793547    -1158.036   -1368.7262    949.21506    80.507101 
   71200     85.15276   -108.22659  0.077048007   -108.14954   -641.21715    4.3172783    4.3172783    4.3172783   -641.21715   -3969.3804    3789.6035   -1743.8745     466.2109   -283.49042   -363.79807    80.469285 
   71300    82.813606   -108.22423  0.074931491    -108.1493   -876.47645    4.3176998    4.3176998    4.3176998   -876.47645   -1883.7404    3573.4305   -4319.1195    1129.3336    247.26937   -214.15806    80.492853 
   71400    104.27198   -108.24383  0.094347478   -108.14948   -2389.3808    4.3181025    4.3181025    4.3181025   -2389.3808   -2376.9303   -2096.4221   -2694.7901    115.46823   -935.29936    2156.5078    80.515378 
   71500    116.39678   -108.25499   0.10531825   -108.14967    45.536586    4.3170551    4.3170551    4.3170551    45.536586   -1397.9448    1881.4098   -346.85523    945.42248   -129.32102    -1132.448    80.456805 
   71600    111.67095   -108.25067   0.10104222   -108.14963    634.38137    4.3179224    4.3179224    4.3179224    634.38137    -1849.691     2831.287    921.54809   -1215.9595   -972.13601   -949.15282    80.505307 
   71700    79.990455   -108.22211  0.072377045   -108.14973   -13.772569    4.3171792    4.3171792    4.3171792   -13.772569   -2824.9791    5089.5182   -2305.8568     167.7334    13.544297    716.16785    80.463743 
   71800    95.367575   -108.23555  0.086290586   -108.14926   -1410.9301    4.3176542    4.3176542    4.3176542   -1410.9301   -2545.2126    1058.2655   -2745.8431    1128.1976   -167.51738   -864.70222    80.490303 
   71900    99.140622   -108.23893  0.089704518   -108.14923   -1249.2565    4.3180039    4.3180039    4.3180039   -1249.2565    -2514.368    3006.8246   -4240.2261    263.96355   -71.969023     1734.172    80.509863 
   72000    105.66264   -108.24524  0.095605782   -108.14963   -18.052814     4.317105     4.317105     4.317105   -18.052814   -253.32893    2041.9415    -1842.771   -330.07694   -173.57246    740.28179    80.459594 
   72100    105.45761     -108.245  0.095420262   -108.14958    2319.3165    4.3176281    4.3176281    4.3176281    2319.3165   -2404.9872    7773.6603    1589.2764   -275.89646   -1143.4849   -367.37705    80.488844 
   72200    106.52182   -108.24595  0.096383184   -108.14956    406.07101    4.3171149    4.3171149    4.3171149    406.07101   -750.68129    3737.9179   -1769.0236   -387.31351   -594.95041   -448.41491    80.460147 
   72300    86.229879   -108.22751  0.078022607   -108.14949   -745.37687    4.3176154    4.3176154    4.3176154   -745.37687   -2232.5118    1856.4841   -1860.1029    656.20258   -23.950257    582.03913    80.488135 
   72400    106.72969   -108.24572  0.096571269   -108.14914   -1345.3772    4.3179899    4.3179899    4.3179899   -1345.3772   -2926.5629    3712.8835   -4822.4522    1283.2501      410.668    323.86712    80.509078 
   72500    89.468296   -108.23055  0.080952795   -108.14959    895.91969    4.3170275    4.3170275    4.3170275    895.91969    360.04857     4310.004   -1982.2935    -892.7308     -418.979    966.99157    80.455261 
   72600     101.9853   -108.24198  0.092278443    -108.1497    1494.2367    4.3177447    4.3177447    4.3177447    1494.2367   -2428.0869    7041.9482   -131.15136   -484.87911    57.726592   -38.965928    80.495367 
   72700    119.14021   -108.25732   0.10780056   -108.14952    722.18943    4.3170315    4.3170315    4.3170315    722.18943    -717.4625     1056.422    1827.6088   -250.82945   -609.36198    159.33206    80.455484 
   72800    94.061352   -108.23474  0.085108688   -108.14963   -996.03545    4.3176977    4.3176977    4.3176977   -996.03545   -1411.9029     749.4465   -2325.6499    70.644005   -905.98124    1821.6787    80.492737 
   72900    99.352429   -108.23932  0.089896165   -108.14942   -2269.3474    4.3180028    4.3180028    4.3180028   -2269.3474   -3675.8436    902.08837   -4034.2868    1102.6101    432.58189   -174.13392    80.509801 
   73000    75.844431    -108.2182  0.068625635   -108.14957    1080.4312    4.3170349    4.3170349    4.3170349    1080.4312   -991.41999    5548.1193   -1315.4056   -149.03392   -317.68429    1311.1841    80.455672 
   73100    112.35715    -108.2512   0.10166311   -108.14954   -615.01802    4.3180415    4.3180415    4.3180415   -615.01802   -2358.4931    3040.2924   -2526.8533   -717.30319    -606.7914    -418.7634    80.511968 
   73200     104.4389   -108.24414   0.09449851   -108.14964    1175.2658    4.3170084    4.3170084    4.3170084    1175.2658   -1509.9445    66.077132    4969.6648    258.75535    -470.6368   -612.76716    80.454194 
   73300    127.05618   -108.26435    0.1149631   -108.14939   -2057.1408     4.317854     4.317854     4.317854   -2057.1408   -1724.5495   -2300.0838   -2146.7892    626.25513   -56.443652    1840.7583    80.501479 
   73400     73.37004   -108.21607  0.066386754   -108.14968   -908.89001    4.3178206    4.3178206    4.3178206   -908.89001   -3210.9535    2675.3629   -2191.0794    268.33473   -61.572957    1578.1215    80.499611 
   73500    80.777824   -108.22254  0.073089473   -108.14945   -162.81544    4.3173187    4.3173187    4.3173187   -162.81544   -2749.8019    4409.6385   -2148.2829    642.84714    200.19613   -259.90307    80.471544 
   73600    106.07212   -108.24541  0.095976287   -108.14943   -98.011041    4.3179355    4.3179355    4.3179355   -98.011041    -2631.687    4052.5555   -1714.9016   -1195.5962   -169.55106    706.66045    80.506037 
   73700     110.2264   -108.24928  0.099735163   -108.14954    675.83437    4.3172584    4.3172584    4.3172584    675.83437   -1134.8796   -383.89904    3546.2818   -667.27011   -1243.2084   -85.897923    80.468173 
   73800     132.4073   -108.26911   0.11980491   -108.14931   -820.61506    4.3176817    4.3176817    4.3176817   -820.61506   -2233.2194   -64.163024   -164.46274     1640.132   -741.05771   -910.82917    80.491845 
   73900    71.670407   -108.21445   0.06484889    -108.1496    1036.0359    4.3174185    4.3174185    4.3174185    1036.0359   -1771.9001    5446.0077   -565.99999   -33.637258   -572.59418    2218.2344    80.477122 
   74000    85.238666   -108.22657  0.077125737   -108.14945   -628.84967    4.3173452    4.3173452    4.3173452   -628.84967   -2856.0083     5886.861   -4917.4018    812.26449    274.29766    232.08589    80.473026 
   74100    90.452945   -108.23131  0.081843726   -108.14947    946.26458    4.3176232    4.3176232    4.3176232    946.26458   -3158.5323    6082.7973   -85.471218   -147.31447   -181.74597    -551.6329    80.488569 
   74200    132.85209   -108.26957   0.12020736   -108.14936    -580.4095    4.3174792    4.3174792    4.3174792    -580.4095   -959.00801   -724.03563   -58.184848   -494.41918   -626.24413    1837.7602    80.480516 
   74300    109.28062   -108.24852  0.098879404   -108.14964    1144.9726    4.3174333    4.3174333    4.3174333    1144.9726   -1766.9266     4393.388    808.45631    893.59897    103.99451      829.071    80.477952 
   74400    95.228315   -108.23578   0.08616458   -108.14962    584.21498    4.3173835    4.3173835    4.3173835    584.21498   -1858.5845    3701.7052   -90.475772    1398.3131   -884.34553   -282.77546    80.475168 
   74500    73.293894   -108.21584  0.066317855   -108.14952   -166.40276    4.3173426    4.3173426    4.3173426   -166.40276   -2149.4254    8002.0509   -6351.8338   -341.07389    38.719486    1341.9141     80.47288 
   74600    95.301646   -108.23565  0.086230932   -108.14942   -1195.8202    4.3178591    4.3178591    4.3178591   -1195.8202   -3174.3455    1368.2017   -1781.3167   -271.00517    109.91623   -707.00616    80.501763 
   74700    125.35779   -108.26284   0.11342636   -108.14941   -1256.0482    4.3176754    4.3176754    4.3176754   -1256.0482   -2388.7523    166.73177   -1546.1241    505.51587   -935.66013   -271.92343     80.49149 
   74800    105.11705   -108.24475  0.095112114   -108.14964    686.95346    4.3175744    4.3175744    4.3175744    686.95346   -581.84029    2771.3961   -128.69538    182.81042   -664.28328    3122.0408    80.485841 
   74900    99.866829   -108.23988  0.090361605   -108.14951     3.659214    4.3173905    4.3173905    4.3173905     3.659214    -2056.711    2457.7282   -390.03953    2356.7823   -119.69673    963.93187    80.475557 
   75000    76.686574   -108.21882  0.069387624   -108.14943   -752.42247      4.31774      4.31774      4.31774   -752.42247   -2409.7388    4959.3892   -4806.9178   -26.202317    54.040328    972.36427    80.495101 
   75100    101.14973   -108.24083  0.091522406   -108.14931   -3091.6709     4.317981     4.317981     4.317981   -3091.6709    -2105.738    -1986.895   -5182.3799   -27.427375   -59.071237    1207.9389    80.508584 
   75200    103.95554   -108.24359  0.094061161   -108.14953   -1390.7924    4.3176848    4.3176848    4.3176848   -1390.7924   -3818.9619    1044.7917   -1398.2069    331.49668    358.34682   -568.91152    80.492015 
   75300    115.67967   -108.25418    0.1046694   -108.14951    -353.1395    4.3178587    4.3178587    4.3178587    -353.1395   -875.99382    581.55193   -764.97662    597.39858   -932.36903    1179.0374    80.501743 
   75400     90.28241   -108.23136  0.081689422   -108.14967    1301.2569    4.3169475    4.3169475    4.3169475    1301.2569   -626.73171    5330.2168   -799.71433    1108.1651   -565.15559    1078.2291     80.45079 
   75500    103.44725   -108.24304  0.093601246   -108.14944   -1491.0492    4.3180814    4.3180814    4.3180814   -1491.0492   -2823.0639   -227.77135   -1422.3123    915.98312    43.264014    395.09087      80.5142 
   75600    86.842053   -108.22796  0.078576514   -108.14938   -1484.7383     4.317672     4.317672     4.317672   -1484.7383   -1027.0223    2708.9048   -6136.0975   -857.15221   -61.119334    1188.6005    80.491299 
   75700    105.93536   -108.24528  0.095852538   -108.14943   -1390.9323    4.3174133    4.3174133    4.3174133   -1390.9323   -3096.6018    682.00158   -1758.1967   -63.226774    340.82476    561.86423    80.476832 
   75800    97.468562    -108.2378  0.088191603   -108.14961    1515.8515    4.3178291    4.3178291    4.3178291    1515.8515   -1913.5555    6147.9643    313.14561    1739.5588    -510.1643    1490.5996    80.500085 
   75900    107.30229    -108.2467  0.097089367   -108.14961    2033.0798    4.3165249    4.3165249    4.3165249    2033.0798    604.27005    6051.2918   -556.32256      283.794   -276.09454    1217.3259    80.427165 
   76000    110.06715     -108.249  0.099591066   -108.14941    205.10378    4.3177524    4.3177524    4.3177524    205.10378   -1429.6657     668.6107    1376.3663    1304.2363   -578.00491   -572.87881    80.495795 
   76100     86.71649   -108.22782  0.078462903   -108.14936   -73.995105    4.3175615    4.3175615    4.3175615   -73.995105   -1303.5912    5895.2328    -4813.627   -371.21379   -102.61665    127.58145    80.485121 
   76200    99.076259   -108.23908  0.089646281   -108.14943   -532.50832    4.3168901    4.3168901    4.3168901   -532.50832    -1868.448    2581.3157   -2310.3927   -515.63212     -44.3028     840.5364    80.447579 
   76300    80.499065   -108.22259  0.072837246   -108.14976    2370.0576    4.3178145    4.3178145    4.3178145    2370.0576   -2378.6311    9844.6054   -355.80151    1170.5337   -156.69336    205.31794    80.499271 
   76400    130.22071   -108.26742   0.11782644   -108.14959    648.01652    4.3167745    4.3167745    4.3167745    648.01652    -1118.473    2196.4076    866.11502    1410.2211   -528.74652    2187.4868    80.441117 
   76500    101.54382   -108.24148  0.091878981    -108.1496    1418.7178    4.3175401    4.3175401    4.3175401    1418.7178    43.628885    2766.3014     1446.223   -246.45962   -572.70201    859.40843    80.483922 
   76600    109.34816   -108.24824  0.098940515    -108.1493   -1550.8729    4.3179756    4.3179756    4.3179756   -1550.8729   -2440.0688    1563.3048   -3775.8547    88.152127    521.33154   -1394.5062    80.508283 
   76700    67.204506   -108.21032  0.060808049   -108.14951    416.22773    4.3169239    4.3169239    4.3169239    416.22773    -2451.298    5609.0531    -1909.072   -75.388249   -505.27177    1000.5914    80.449469 
   76800    92.901105   -108.23345  0.084058872   -108.14939   -378.55599    4.3182194    4.3182194    4.3182194   -378.55599   -2528.8279    5342.3918   -3949.2319    282.44396    267.91895     774.6905     80.52192 
   76900    120.48574   -108.25846   0.10901803   -108.14944   -368.21803    4.3171847    4.3171847    4.3171847   -368.21803   -3267.7852   -44.173297    2207.3044    2098.1755   -687.81446   -433.12606    80.464049 
   77000    113.96659   -108.25261   0.10311936   -108.14949   -81.154493    4.3176842    4.3176842    4.3176842   -81.154493   -93.534872    -155.1856    5.2569949    -75.46939    -1098.239    1685.9104    80.491984 
   77100    111.37953   -108.25018   0.10077854    -108.1494   -1634.2302    4.3179026    4.3179026    4.3179026   -1634.2302    -1898.821   -111.46676   -2892.4029   -154.25036   -24.445287    1043.9405    80.504197 
   77200    57.942578   -108.20215  0.052427662   -108.14973    294.56376    4.3170704    4.3170704    4.3170704    294.56376   -2772.4366     5684.302   -2028.1741     277.3651   -191.06308   -550.33267    80.457658 
   77300    97.509027   -108.23769  0.088228217   -108.14946   -2328.3624    4.3182942    4.3182942    4.3182942   -2328.3624    -3168.344    2328.1438   -6144.8869    347.41076     225.9695    2464.4205    80.526105 
   77400    105.91775   -108.24527  0.095836608   -108.14943   -376.98177    4.3172977    4.3172977    4.3172977   -376.98177   -2423.2883    305.23697    987.10601    1327.3999   -341.68523    659.77737     80.47037 
   77500    133.93151   -108.27053   0.12118404   -108.14935   -1163.1462    4.3178285    4.3178285    4.3178285   -1163.1462   -1508.4219   -1772.3911    -208.6255    517.21947   -250.21685   -1563.6244    80.500052 
   77600    94.300102   -108.23495  0.085324714   -108.14962    636.79477    4.3174418    4.3174418    4.3174418    636.79477   -461.89722    4019.3566    -1647.075   -1275.6584   -501.79947    966.16239    80.478426 
   77700    79.799833   -108.22176  0.072204566   -108.14955   -9.2371454     4.317288     4.317288     4.317288   -9.2371454   -1119.8636    4609.4551   -3517.3029   -14.810397     246.3639    576.71028    80.469825 
   77800    83.427589   -108.22495  0.075487036   -108.14946    -1262.872    4.3180953    4.3180953    4.3180953    -1262.872    -4084.862    5147.9227   -4851.6767    886.02279    37.421575    626.36639    80.514974 
   77900    107.84327   -108.24691  0.097578858   -108.14933   -858.89103    4.3173152    4.3173152    4.3173152   -858.89103   -196.10364    39.487191   -2420.0566    262.58322   -424.24516     2681.911    80.471346 
   78000    131.37784   -108.26831   0.11887343   -108.14943    37.842828    4.3178674    4.3178674    4.3178674    37.842828   -2362.5995    2245.2892    230.83885    1042.5733   -220.28766    321.64866    80.502227 
   78100    95.832259   -108.23647  0.086711042   -108.14975    2093.1053    4.3169843    4.3169843    4.3169843    2093.1053     345.7888    5901.8745    31.652738    -688.7419   -816.35741   -653.48969    80.452844 
   78200    89.035384    -108.2301  0.080561086   -108.14954    710.01847     4.317291     4.317291     4.317291    710.01847    632.42575     5887.017   -4389.3873   -712.14395    512.55108    674.44584    80.469992 
   78300    85.415156   -108.22664  0.077285428   -108.14935   -595.41188    4.3179785    4.3179785    4.3179785   -595.41188   -3683.8329    4948.0741   -3050.4768    1090.8722    150.33366   -15.984864    80.508445 
   78400    101.48764   -108.24129  0.091828153   -108.14946   -1359.9517    4.3169926    4.3169926    4.3169926   -1359.9517    67.286947   -319.04955   -3828.0926    739.21836   -2.6238446    539.19494    80.453311 
   78500    115.28452   -108.25389   0.10431185   -108.14958    332.72104    4.3181105    4.3181105    4.3181105    332.72104   -2565.9139    4254.3203   -690.24332   -490.85144   -248.02021    288.76623    80.515825 
   78600    109.07466   -108.24827  0.098693043   -108.14958    1829.7016    4.3169161    4.3169161    4.3169161    1829.7016    407.04082    3698.6743    1383.3898   -167.81142   -734.75739    218.79894     80.44903 
   78700    87.080685   -108.22837  0.078792433   -108.14958    848.88046    4.3171279    4.3171279    4.3171279    848.88046   -242.59759    5712.1274   -2922.8885   -389.13923    -59.78209    1379.5778    80.460874 
   78800    102.33615   -108.24185  0.092595895   -108.14926   -1953.3909    4.3185291    4.3185291    4.3185291   -1953.3909   -2292.8121   -212.68792   -3354.6725    310.84475    123.76537     697.8399    80.539243 
   78900    85.834714   -108.22715  0.077665053   -108.14948   -1139.8389    4.3166232    4.3166232    4.3166232   -1139.8389   -1629.0585    1014.2925   -2804.7506    2142.1931    247.68998    176.28078    80.432657 
   79000    107.67399   -108.24705  0.097425689   -108.14962   -1330.7095    4.3184436    4.3184436    4.3184436   -1330.7095   -3217.5458    1275.2412   -2049.8239   -267.03025   -649.29156    385.57594    80.534461 
   79100    101.31375   -108.24128  0.091670814   -108.14961    2141.6744    4.3171664    4.3171664    4.3171664    2141.6744    433.36317     4702.176    1289.4842    -220.5289   -199.58133   -1494.9205    80.463028 
   79200    113.49345   -108.25227   0.10269125   -108.14958   -76.841235    4.3168877    4.3168877    4.3168877   -76.841235   -1644.5851    1853.4206   -439.35919    90.333937   -591.32882    537.56299    80.447443 
   79300    93.127233   -108.23374  0.084263478   -108.14948   -1527.9262    4.3188084    4.3188084    4.3188084   -1527.9262   -813.97668   -650.69092    -3119.111    70.164551   -195.39009     1976.549    80.554874 
   79400    91.197773   -108.23185  0.082517661   -108.14933   -1085.5556     4.316617     4.316617     4.316617   -1085.5556   -2290.8737    2027.9579    -2993.751    1433.8939     541.7634   -401.93797    80.432313 
   79500    91.437495   -108.23235  0.082734567   -108.14962    -789.1496    4.3179972    4.3179972    4.3179972    -789.1496   -2958.7221    2343.3003   -1752.0269    32.926098   -877.28147    520.90643    80.509488 
   79600    90.996344   -108.23205  0.082335404   -108.14971    2185.5181    4.3175465    4.3175465    4.3175465    2185.5181   -136.29419    6768.9917   -76.143345   -940.47055   -89.823874    809.89866    80.484279 
   79700    143.17522   -108.27889   0.12954795   -108.14934    76.278214    4.3166441    4.3166441    4.3166441    76.278214   -496.22022    123.01403    602.04083     166.2675   -236.73302    -1179.269    80.433825 
   79800    82.487766   -108.22426  0.074636665   -108.14963    556.74938    4.3183947    4.3183947    4.3183947    556.74938   -605.43711    3730.3231   -1454.6378    1076.1173   -252.98352    767.21841    80.531725 
   79900      107.223   -108.24623  0.097017621   -108.14921   -1703.6484      4.31707      4.31707      4.31707   -1703.6484   -1759.6834    1427.1378   -4778.3996    409.64722    383.15016    1867.6835    80.457637 
   80000    62.422943   -108.20606  0.056481591   -108.14957    2005.4849    4.3171076    4.3171076    4.3171076    2005.4849   -1285.1725    8707.7502   -1406.1229    946.71468   -216.16648   -1649.2102     80.45974 
   80100    107.44157   -108.24682  0.097215386   -108.14961   -59.105684    4.3179451    4.3179451    4.3179451   -59.105684   -2221.9248    3808.7158   -1764.1081   -894.37497   -743.86596    1314.5425    80.506576 
   80200    128.02741    -108.2653   0.11584189   -108.14945    1327.6391    4.3166004    4.3166004    4.3166004    1327.6391    1791.1182    2211.2941   -19.494925   -540.06217   -539.53722    1713.5916    80.431385 
   80300    111.63561   -108.25044   0.10101024   -108.14943    382.96498    4.3179701    4.3179701    4.3179701    382.96498   -1407.3498     3499.079   -942.83427    1520.0564    240.86178   -603.48255    80.507971 
   80400    93.182724   -108.23376  0.084313686   -108.14945   -1527.6575    4.3175315    4.3175315    4.3175315   -1527.6575   -1825.6929    2151.7673   -4909.0469    523.57754   -110.85686    943.45422    80.483442 
   80500    52.935709   -108.19748  0.047897342   -108.14958     1869.115    4.3169969    4.3169969    4.3169969     1869.115   -215.82006    9529.5357   -3706.3706    210.68789    501.01167    50.036382    80.453549 
   80600    123.70799   -108.26133   0.11193359    -108.1494    -2366.475    4.3180762    4.3180762    4.3180762    -2366.475   -4089.6607   -404.23977   -2605.5244   -5.9200706   -197.58142   -1310.1921     80.51391 
   80700    97.274346   -108.23773  0.088015873   -108.14971     996.4813    4.3170957    4.3170957    4.3170957     996.4813     1779.946    2027.4669   -817.96901     53.76548   -591.47373    1467.0131    80.459073 
   80800    149.80007   -108.28479   0.13554225   -108.14925   -1760.3507     4.317968     4.317968     4.317968   -1760.3507   -1877.4582   -755.47615   -2648.1178    736.43587     182.5332    2037.0121    80.507854 
   80900    67.348699   -108.21064  0.060938518    -108.1497    228.09522      4.31754      4.31754      4.31754    228.09522   -1877.4043    4861.9906   -2300.3007     2136.231   -188.93463   -31.872377    80.483918 
   81000    72.108349   -108.21485   0.06524515   -108.14961   -1434.6101     4.317695     4.317695     4.317695   -1434.6101   -1319.4417    3653.0559   -6637.4444   -297.26982    352.32513    1449.6997    80.492584 
   81100    105.53016   -108.24479  0.095485909    -108.1493   -1836.5763    4.3177461    4.3177461    4.3177461   -1836.5763   -3336.4045    542.46191   -2715.7864    88.764997   -440.19209   -463.42177    80.495445 
   81200    104.22053   -108.24384  0.094300926   -108.14954   -740.10585    4.3176991    4.3176991    4.3176991   -740.10585   -129.52537   -1137.3054   -953.48681    838.01706   -434.19042    184.53757    80.492816 
   81300    140.56934   -108.27662   0.12719009   -108.14943   -1257.9778    4.3177532    4.3177532    4.3177532   -1257.9778   -1761.7095    1066.8847   -3079.1086     432.6385   -28.909458    819.12752    80.495841 
   81400    74.577395   -108.21718  0.067479195    -108.1497    2244.8793    4.3170062    4.3170062    4.3170062    2244.8793   -162.03416    6828.8875    67.784412    2298.6552    122.09632    34.606777    80.454071 
   81500     89.35125   -108.23041  0.080846889   -108.14957   -2240.6504    4.3180154    4.3180154    4.3180154   -2240.6504   -3326.2539    2601.0745   -5996.7717   -228.13649     87.12781    622.46689    80.510507 
   81600    79.586989   -108.22147   0.07201198   -108.14946    -145.2127    4.3172652    4.3172652    4.3172652    -145.2127    -865.0808    2837.7888   -2408.3461   -71.484127   -58.419622    512.69604    80.468549 
   81700    128.30398   -108.26537   0.11609214   -108.14928   -1096.1736    4.3176534    4.3176534    4.3176534   -1096.1736   -1500.5574   -869.25915    -918.7041    487.65256   -279.44964    1007.0303    80.490259 
   81800    105.98323    -108.2456  0.095895851    -108.1497     1337.477    4.3175299    4.3175299    4.3175299     1337.477   -1738.7671    6830.9602   -1079.7621    1002.3198   -1057.9858    1458.7173    80.483354 
   81900    99.995254      -108.24  0.090477807   -108.14952    2629.4413    4.3166503    4.3166503    4.3166503    2629.4413    1542.5662    5860.6297     485.1279     937.2729    447.14357    160.93947    80.434171 
   82000    98.882394   -108.23886  0.089470868   -108.14939   -421.52406    4.3179097    4.3179097    4.3179097   -421.52406   -3766.5474    6041.3544   -3539.3792    933.73275    2.3593717   -1274.6724    80.504595 
   82100    74.273024   -108.21672  0.067203793   -108.14951   -361.51915    4.3173821    4.3173821    4.3173821   -361.51915    24.085829    786.21692   -1894.8602   -375.18021   -430.57537    1038.7474    80.475088 
   82200    119.42052   -108.25739   0.10805419   -108.14934   -506.87862    4.3173964    4.3173964    4.3173964   -506.87862   -2090.4451    2935.1222   -2365.3129   -324.00723    233.94269    79.561978    80.475886 
   82300    98.300118   -108.23862  0.088944013   -108.14968    2161.9165      4.31758      4.31758      4.31758    2161.9165   -1256.9144     7404.309     338.3548    2073.4872   -672.74791     952.6601    80.486156 
   82400    104.06381   -108.24386  0.094159123    -108.1497    1702.0523     4.316842     4.316842     4.316842    1702.0523    232.46553    4780.7981    92.893377     -106.168     -412.018    2077.8239    80.444889 
   82500    114.67829   -108.25309   0.10376333   -108.14932   -391.24242    4.3177629    4.3177629    4.3177629   -391.24242   -1692.2429    3993.0829   -3474.5672    724.83293    198.58758   -494.44653    80.496382 
   82600     80.17859   -108.22209  0.072547274   -108.14954    -1300.586    4.3177469    4.3177469    4.3177469    -1300.586   -1282.6451   -1508.8287   -1110.2843    -470.5942    3.4351181   -95.015845    80.495489 
   82700    94.488413   -108.23505  0.085495102   -108.14956   -1424.6479    4.3174635    4.3174635    4.3174635   -1424.6479   -2623.9115    3027.2745   -4677.3068   -17.926305   -408.75294    1796.8207    80.479642 
   82800    95.272815   -108.23576  0.086204845   -108.14956     1711.431    4.3175052    4.3175052    4.3175052     1711.431    420.33908    5387.6026   -673.64853    1050.2118   -66.849465   -79.141263    80.481969 
   82900    112.97386   -108.25187   0.10222113   -108.14965    97.601756    4.3173794    4.3173794    4.3173794    97.601756   -2667.2294    3128.5747   -168.53998    1629.2128   -27.731654    131.60845    80.474937 
   83000    116.26241   -108.25456   0.10519667   -108.14936   -1258.0213    4.3176958    4.3176958    4.3176958   -1258.0213    1182.6988   -507.31753   -4449.4451    55.265941    289.29375    2211.6315    80.492631 
   83100    96.060294   -108.23622  0.086917373   -108.14931   -1618.5305    4.3178222    4.3178222    4.3178222   -1618.5305   -2370.5162   -555.78745   -1929.2878   -406.18761    29.390053   -630.22718    80.499703 
   83200    80.622442   -108.22248   0.07294888   -108.14953   -2193.8223    4.3177716    4.3177716    4.3177716   -2193.8223   -2413.5986    1235.5309   -5403.3991    795.89213   -157.69959    1391.1157    80.496871 
   83300    73.892203   -108.21658  0.066859218   -108.14972    1424.9036    4.3172398    4.3172398    4.3172398    1424.9036    913.27631    6283.9607   -2922.5261   -164.93302   -189.53205    2629.1066    80.467131 
   83400    138.83165   -108.27501   0.12561779   -108.14939   -1000.7278    4.3177714    4.3177714    4.3177714   -1000.7278   -2885.9875    1081.8929   -1198.0887    2147.2002   -946.63696   -898.45776    80.496856 
   83500    103.12306   -108.24293  0.093307915   -108.14962   -562.41315    4.3176998    4.3176998    4.3176998   -562.41315    1585.4803    45.927451   -3318.6472    -518.3786    185.24089    428.36913    80.492853 
   83600    116.66701   -108.25474   0.10556276   -108.14917   -2056.4191    4.3176539    4.3176539    4.3176539   -2056.4191   -2230.9262    516.51652   -4454.8475   -30.942241    751.91819    1344.7564    80.490287 
   83700     68.90897   -108.21189  0.062350284   -108.14954   -51.984697      4.31771      4.31771      4.31771   -51.984697   -703.41549    4272.7371   -3725.2757    504.73285   -151.66103   -249.50023    80.493423 
   83800    66.409034   -108.20989   0.06008829    -108.1498    613.65221    4.3171137    4.3171137    4.3171137    613.65221   -868.19351    6868.9552   -4159.8051    699.60061    164.11852     2200.697    80.460081 
   83900     134.8813    -108.2714   0.12204344   -108.14936   -273.78961    4.3176521    4.3176521    4.3176521   -273.78961    40.864745    1358.1834    -2220.417    1066.4957    247.98135    1376.4228    80.490187 
   84000    118.26081   -108.25651   0.10700486    -108.1495    349.91207    4.3176312    4.3176312    4.3176312    349.91207   -124.72276    1680.6003   -506.14135    89.272251   -919.52687    -577.5904    80.489019 
   84100    117.26386   -108.25553    0.1061028   -108.14942   -1944.7482    4.3174468    4.3174468    4.3174468   -1944.7482   -1209.1012    705.52075   -5330.6641   -872.86495   -139.84983    820.38165    80.478704 
   84200    60.407684   -108.20421  0.054658142   -108.14956    1907.4168    4.3176253    4.3176253    4.3176253    1907.4168     33.23947    7978.1701   -2289.1591   -405.43148    335.00669    275.94819    80.488691 
   84300     87.32627    -108.2286  0.079014644   -108.14959   -674.61715    4.3171538    4.3171538    4.3171538   -674.61715   -2340.4628    4050.2114      -3733.6     1667.551   -865.54665    344.45735    80.462324 
   84400    93.018254   -108.23392  0.084164871   -108.14975    705.91645    4.3174871    4.3174871    4.3174871    705.91645    1823.4963    2163.4344   -1869.1813   -596.96423   -296.79054    1136.7135    80.480961 
   84500    153.05465   -108.28768   0.13848706   -108.14919   -654.92592    4.3178236    4.3178236    4.3178236   -654.92592   -1703.5516   -743.44642    482.22028     562.0498     699.3215    96.459379    80.499778 
   84600    102.25459    -108.2421  0.092522103   -108.14958   -48.763538    4.3169904    4.3169904    4.3169904   -48.763538   -96.982999    2811.5718   -2860.8794   -693.03704    -252.7945     412.8846    80.453187 
   84700    66.230776   -108.20955  0.059926998   -108.14962    704.94186    4.3179155    4.3179155    4.3179155    704.94186   -1432.3698    5941.5503   -2394.3549   -648.45953    42.991048     1359.674    80.504916 
   84800    95.664859   -108.23582  0.086559575   -108.14926    -485.1107    4.3171436    4.3171436    4.3171436    -485.1107   -1262.3895    2836.9004    -3029.843    1049.5988    238.86127   -86.192627    80.461754 
   84900    78.861294   -108.22102  0.071355356   -108.14966    190.95455    4.3173868    4.3173868    4.3173868    190.95455    372.29963    687.13554   -486.57151    45.352441   -946.84802    901.03195    80.475349 
   85000    149.71136   -108.28472   0.13546199   -108.14926    -1730.787    4.3181772    4.3181772    4.3181772    -1730.787   -2057.4982   -2395.2181   -739.64476   -453.04274   -558.56739   -512.46699    80.519558 
   85100    100.70143    -108.2407  0.091116768   -108.14958    2225.9935    4.3164637    4.3164637    4.3164637    2225.9935    902.37355    6000.0677   -224.46079   -1005.2515    47.594671   -831.66163    80.423743 
   85200    86.571776   -108.22809  0.078331963   -108.14976    -919.1804    4.3181911    4.3181911    4.3181911    -919.1804   -3739.9015    3361.9389   -2379.5786    446.55706    400.78633    1937.1941    80.520334 
   85300    74.290007   -108.21663  0.067219159   -108.14941    503.31214    4.3172497    4.3172497    4.3172497    503.31214    531.72748    4835.4699    -3857.261   -90.816107    130.91327    1244.4741    80.467682 
   85400    109.00083   -108.24783  0.098626241    -108.1492   -916.76236    4.3173501    4.3173501    4.3173501   -916.76236   -1470.2411   -1239.3896   -40.656452    1015.1216    -227.1765    196.32854    80.473297 
   85500    107.58721   -108.24705  0.097347168   -108.14971   -472.25974    4.3181044    4.3181044    4.3181044   -472.25974   -1568.5876    1948.7544    -1796.946   -509.27678    305.51168    1303.2697    80.515488 
   85600    112.45995   -108.25133   0.10175612   -108.14957    2205.1894    4.3164885    4.3164885    4.3164885    2205.1894    798.96738    6375.3887   -558.78786   -1039.4194   -205.07646   -475.57426    80.425131 
   85700    106.96324   -108.24633  0.096782583   -108.14955   -70.837441    4.3179216    4.3179216    4.3179216   -70.837441   -3980.8397    5473.5996   -1705.2722    514.60429   -522.45139   -818.89421    80.505263 
   85800    65.735374   -108.20913  0.059478748   -108.14965   -172.26752    4.3174542    4.3174542    4.3174542   -172.26752    876.96457    3886.6129     -5280.38   -279.37779    633.43775    2317.6571     80.47912 
   85900    120.83156    -108.2585   0.10933093   -108.14917   -1516.5034    4.3173615    4.3173615    4.3173615   -1516.5034   -2130.0179   -840.48373   -1579.0086    868.28738   -133.31367   -456.47087    80.473938 
   86000    86.247533   -108.22772  0.078038581   -108.14968     1062.476    4.3178414    4.3178414    4.3178414     1062.476   -704.13729    6119.7128   -2228.1477   -503.59944   -717.70832   -290.39864    80.500772 
   86100    108.41079   -108.24779  0.098092362    -108.1497    604.54647     4.316806     4.316806     4.316806    604.54647    -871.0565    4639.6688   -1954.9729   -444.69446    1042.8584    1964.0738    80.442877 
   86200    112.67792   -108.25131   0.10195335   -108.14936     1006.026    4.3177613    4.3177613    4.3177613     1006.026   -1992.5108    7163.8156   -2153.2268   -330.10919    426.14626    198.52716    80.496293 
   86300    97.440518   -108.23767  0.088166229    -108.1495   -2024.0528    4.3176219    4.3176219    4.3176219   -2024.0528   -727.34254   -381.17605   -4963.6398    830.13744   -415.99402    528.63693    80.488497 
   86400    89.528281   -108.23052   0.08100707   -108.14951   -2020.7532    4.3175802    4.3175802    4.3175802   -2020.7532   -2093.0315     108.2075   -4077.4357   -102.67697    435.42318    1755.7239    80.486167 
   86500    92.656217   -108.23323  0.083837293   -108.14939    727.85729    4.3180168    4.3180168    4.3180168    727.85729   -86.248112    5186.2718   -2916.4518    -169.4395   -217.42344   -1488.3744    80.510584 
   86600    97.514659    -108.2379  0.088233313   -108.14966    187.54877    4.3168204    4.3168204    4.3168204    187.54877   -2765.3848    4777.4606   -1449.4295    126.73141   -1176.1899   -518.49145    80.443682 
   86700    108.29117   -108.24754  0.097984124   -108.14955   -137.75924    4.3181406    4.3181406    4.3181406   -137.75924     116.9691    2929.0621   -3459.3089   -1465.3402    269.22258     1872.127    80.517512 
   86800    133.00539   -108.26949   0.12034607   -108.14914   -2514.0061    4.3177508    4.3177508    4.3177508   -2514.0061   -2593.9682   -1821.1111   -3126.9391    1836.8978    655.72868   -236.38255    80.495706 
   86900    71.225081   -108.21414   0.06444595    -108.1497   -1580.2567    4.3173477    4.3173477    4.3173477   -1580.2567   -487.73437    514.07999   -4767.1157   -374.68741      -159.31     900.6404    80.473162 
   87000    81.240399    -108.2232   0.07350802   -108.14969    143.24833    4.3182463    4.3182463    4.3182463    143.24833   -779.96035    4526.2054   -3316.5001   -150.49495    459.48558      403.604    80.523422 
   87100    100.19829   -108.24019  0.090661518   -108.14953    1550.3621    4.3165349    4.3165349    4.3165349    1550.3621   -1839.2451    6631.7604     -141.429   -470.33539    190.32785   -895.80058    80.427724 
   87200    107.94201    -108.2474  0.097668195   -108.14974    -697.3173    4.3180526    4.3180526    4.3180526    -697.3173    822.53343   -227.51939   -2686.9659   -471.35509   -180.49754    739.75489    80.512589 
   87300    139.37204   -108.27532   0.12610675   -108.14921   -1890.0031    4.3179402    4.3179402    4.3179402   -1890.0031   -3183.2972   -925.23986   -1561.4721    368.09101   -425.48491    930.87078    80.506302 
   87400    87.720075   -108.22881  0.079370967   -108.14944    121.95334    4.3168234    4.3168234    4.3168234    121.95334    1795.1448    2387.1407   -3816.4254    368.93893   -86.791215   -237.50722    80.443852 
   87500    59.872974   -108.20398  0.054174325   -108.14981     367.1707    4.3181965    4.3181965    4.3181965     367.1707   -2590.7265    6250.6201   -2558.3815    287.25203   -19.703238    616.52482    80.520637 
   87600    92.771963   -108.23341  0.083942022   -108.14947    2538.3033    4.3165736    4.3165736    4.3165736    2538.3033     1039.699    6999.9814   -424.77038   -1134.5295   -424.00948   -302.15697    80.429887 
   87700    126.92302   -108.26431   0.11484262   -108.14946    117.43645     4.317536     4.317536     4.317536    117.43645   -389.89842    967.77868   -225.57091    864.07922    343.77179    293.20761    80.483693 
   87800    125.38384   -108.26293   0.11344993   -108.14948    -1573.334    4.3181129    4.3181129    4.3181129    -1573.334   -2278.7993   -1577.7505   -863.45227   -290.94365    1352.5136    1010.6593     80.51596 
   87900    101.41349   -108.24108  0.091761054   -108.14932    1148.6961    4.3167199    4.3167199    4.3167199    1148.6961    1763.8243    5302.9757   -3620.7116    848.97885    94.284536   -654.02815    80.438064 
   88000    66.369543   -108.20966  0.060052558   -108.14961    810.03714    4.3177521    4.3177521    4.3177521    810.03714   -2935.1261    7024.3785    -1659.141    -443.9192   -228.38696   -168.59007    80.495778 
   88100    65.777871   -108.20929    0.0595172   -108.14978    1575.0633    4.3170763    4.3170763    4.3170763    1575.0633    1852.4972    5249.4275   -2376.7347   -517.60197    973.55556    495.08028    80.457989 
   88200    147.55381   -108.28264   0.13350979   -108.14913   -408.56743    4.3174082    4.3174082    4.3174082   -408.56743   -1836.7069    694.00306    -82.99847    210.72507   -1165.0393    80.982939    80.476547 
   88300    118.14142   -108.25645   0.10689684   -108.14955   -1059.0751    4.3180139    4.3180139    4.3180139   -1059.0751   -710.26046   -2424.9021   -42.062791    813.87511   -188.47629    1573.9235    80.510423 
   88400     99.65106   -108.23971  0.090166373   -108.14955   -563.89278    4.3173863    4.3173863    4.3173863   -563.89278   -1423.0079    4660.0868   -4928.7573    946.25729     1358.988     1395.225    80.475325 
   88500    78.557134   -108.22051  0.071080146   -108.14943    1167.3911    4.3174206    4.3174206    4.3174206    1167.3911   -916.32366    6604.3474   -2185.8504    79.418871     -297.965   -1754.8532    80.477243 
   88600     61.83165   -108.20568  0.055946576   -108.14973    -97.50529    4.3175463    4.3175463    4.3175463    -97.50529   -215.28258    3418.0931   -3495.3264    366.22891    208.08259    830.44475     80.48427 
   88700    131.73972   -108.26856   0.11920087   -108.14936   -2072.5186     4.317877     4.317877     4.317877   -2072.5186   -1874.3323   -2178.9405   -2164.2828   -691.61507    931.11426     329.4967    80.502767 
   88800    124.49181   -108.26203   0.11264281   -108.14939   -50.528134    4.3175188    4.3175188    4.3175188   -50.528134     216.9037   -587.19755    218.70944    1777.2655    101.73503   -550.10689    80.482734 
   88900    105.62221   -108.24525  0.095569199   -108.14968   -2144.5607    4.3179104    4.3179104    4.3179104   -2144.5607   -3847.3208     2197.553   -4783.9144   -198.26486   -408.49362    1980.8729    80.504632 
   89000    62.640293   -108.20638  0.056678253    -108.1497    1581.8985    4.3173064    4.3173064    4.3173064    1581.8985    1403.7746    7257.0192   -3915.0983   -191.30351    493.18786    409.32112    80.470852 
   89100    99.656277   -108.23952  0.090171094   -108.14934    -1169.165    4.3174397    4.3174397    4.3174397    -1169.165    -1968.218    2054.1159   -3593.3928    688.90035   -447.58875   -741.54148     80.47831 
   89200    94.660028   -108.23529  0.085650382   -108.14963   -1785.6878    4.3181193    4.3181193    4.3181193   -1785.6878   -506.27539   -1724.4452   -3126.3429   -187.66381   -332.15435    2390.3258    80.516316 
   89300    128.62253   -108.26575   0.11638037   -108.14937   -44.202824    4.3172578    4.3172578    4.3172578   -44.202824   -403.43492    1393.0556   -1122.2292    1118.7341    577.98122    664.13721    80.468139 
   89400    116.74255   -108.25511   0.10563112   -108.14948   -240.04544    4.3174594    4.3174594    4.3174594   -240.04544   -2827.8552    3859.4292   -1751.7102    765.50674    402.05588   -1074.1993    80.479409 
   89500    53.650472   -108.19846  0.048544075   -108.14991    1256.5352    4.3176339    4.3176339    4.3176339    1256.5352    1050.8162    7564.7112   -4845.9218   -54.608435    422.33189     1321.665    80.489168 
   89600    122.72221   -108.26017   0.11104163   -108.14913   -1507.7292    4.3171031    4.3171031    4.3171031   -1507.7292   -2083.5928    899.08715   -3338.6819   -592.93042   -375.73945   -1218.0563    80.459489 
   89700    80.604116   -108.22249  0.072932298   -108.14956    140.01274    4.3180551    4.3180551    4.3180551    140.01274    998.33593    1782.7686   -2361.0663    677.81434    179.98361    523.52639    80.512725 
   89800       120.42   -108.25851   0.10895854   -108.14955   -1387.7067    4.3175926    4.3175926    4.3175926   -1387.7067   -2565.9552    866.12106   -2463.2859    -36.64305   -14.862882    2114.1964    80.486859 
   89900    103.74832   -108.24335  0.093873659   -108.14948    2665.7872    4.3167409    4.3167409    4.3167409    2665.7872   -330.40701    7396.7459    931.02269    306.97546   -460.17894   -5.4032373    80.439238 
   90000    93.476882   -108.23431  0.084579847   -108.14973    -165.5858    4.3180685    4.3180685    4.3180685    -165.5858   -1310.5176      4885.42   -4071.6598    273.95142    640.87024   -273.09291    80.513479 
   90100    96.298007   -108.23668  0.087132461   -108.14955    -1191.175    4.3170914    4.3170914    4.3170914    -1191.175    -1506.566     477.7383   -2544.6974   -409.50189    767.46607    596.59306    80.458831 
   90200    97.447427   -108.23746   0.08817248   -108.14929    456.31938    4.3176264    4.3176264    4.3176264    456.31938     1257.873    2593.6209   -2482.5357    676.84569   -340.70737   -253.28605    80.488751 
   90300    108.17451   -108.24745  0.097878572   -108.14957   -1206.0287    4.3178852    4.3178852    4.3178852   -1206.0287   -4027.1098    1980.1726   -1571.1489    238.56473    709.31107    743.68897    80.503227 
   90400    74.915894   -108.21764  0.067785476   -108.14985    3096.0168    4.3164594    4.3164594    4.3164594    3096.0168    951.13052    7457.3657    879.55413    461.10455    1061.5349    951.49427    80.423505 
   90500    141.95043   -108.27771   0.12843973   -108.14927   -1312.6627    4.3181303    4.3181303    4.3181303   -1312.6627   -3277.1233    1863.8154   -2524.6801     35.09888   -1016.2741   -926.03693    80.516932 
   90600    76.610965   -108.21897  0.069319211   -108.14965   -468.55224     4.317351     4.317351     4.317351   -468.55224   -749.72742    560.23998   -1216.1693   -146.43688    570.57073    860.76395    80.473347 
   90700    106.06093   -108.24528  0.095966155   -108.14931   -1362.1856    4.3174729    4.3174729    4.3174729   -1362.1856   -267.24623    913.39325   -4732.7037    248.31431    605.70387    465.61248    80.480166 
   90800    93.255644   -108.23391  0.084379667   -108.14953    956.75321    4.3177126    4.3177126    4.3177126    956.75321   -2623.3313    5718.5767   -224.98581    845.74173   -675.60575    436.02275     80.49357 
   90900    74.484634   -108.21736  0.067395263   -108.14996    1499.9787    4.3168551    4.3168551    4.3168551    1499.9787   -201.90253    5508.8879   -807.04925    140.42655    1309.8773    633.05844    80.445624 
   91000    142.06685    -108.2778   0.12854507   -108.14925   -1441.7569    4.3178525    4.3178525    4.3178525   -1441.7569   -3380.1207    1146.1435   -2091.2934   -202.69161    865.84692   -218.20349    80.501393 
   91100    98.921321    -108.2389   0.08950609   -108.14939    65.599157    4.3176597    4.3176597    4.3176597    65.599157    560.25316    139.15832   -502.61401    1013.4055    217.35973    -182.0015    80.490613 
   91200    96.847023   -108.23719  0.087629222   -108.14956   -2170.4163    4.3174165    4.3174165    4.3174165   -2170.4163   -2613.9458    2443.6928    -6340.996   -843.33681    503.14829     1975.307    80.477013 
   91300    68.946119    -108.2121  0.062383897   -108.14972     2350.945    4.3174231    4.3174231    4.3174231     2350.945    797.39191    7667.7293   -1412.2862    867.05637    122.49589    781.79812     80.47738 
   91400    104.77162   -108.24436  0.094799566   -108.14956    329.66701    4.3173534    4.3173534    4.3173534    329.66701   -2246.3438     5081.498   -1846.1532    705.78432   -68.684906    421.86728    80.473481 
   91500    113.53238   -108.25227   0.10272648   -108.14954   -1114.1673    4.3175113    4.3175113    4.3175113   -1114.1673   -1436.2182    422.30524    -2328.589   -344.34489   -190.21598    923.69313    80.482313 
   91600    125.83601   -108.26301   0.11385906   -108.14915   -586.03452    4.3180042    4.3180042    4.3180042   -586.03452    216.53764   -605.17875   -1369.4624    236.10326    281.90482   -1091.3355     80.50988 
   91700    98.839274   -108.23885  0.089431852   -108.14942   -1093.1902    4.3173352    4.3173352    4.3173352   -1093.1902   -2832.7805    5036.1634   -5482.9536    364.98265    325.26677    903.01208    80.472464 
   91800    41.950887   -108.18791  0.037958044   -108.14995    2063.2058    4.3171827    4.3171827    4.3171827    2063.2058    2491.7449    7656.9019   -3959.0295   -119.05298    407.88766    1775.9405    80.463936 
   91900    126.87401   -108.26411   0.11479827   -108.14931   -753.90343    4.3178941    4.3178941    4.3178941   -753.90343   -3842.8194    4536.3158   -2955.2067   -365.86164    176.91436   -426.66426     80.50372 
   92000     106.8602   -108.24634  0.096689353   -108.14965   -559.43031    4.3171112    4.3171112    4.3171112   -559.43031    1156.7493   -1474.4462    -1360.594    284.56594      663.588    1112.2843     80.45994 
   92100    126.35766   -108.26379   0.11433107   -108.14946   -2236.1059    4.3182911    4.3182911    4.3182911   -2236.1059   -2292.6866   -1359.5708   -3056.0604   -1214.8965    91.404454    1303.9908    80.525932 
   92200    100.82859   -108.24063  0.091231825    -108.1494    498.47045    4.3174184    4.3174184    4.3174184    498.47045   -742.70208    5662.6016   -3424.4881     650.8455    -851.8193   -853.81417    80.477117 
   92300    42.822883   -108.18864  0.038747044   -108.14989    1630.9573    4.3168201    4.3168201    4.3168201    1630.9573    1375.1037    8237.8109   -4720.0427    12.299855    750.49721    2057.6657    80.443665 
   92400     116.6344   -108.25495   0.10553326   -108.14942   -2083.5291    4.3184821    4.3184821    4.3184821   -2083.5291    -3920.507    2142.7849    -4472.865      454.477   -344.60838   -19.552301    80.536618 
   92500    114.79382   -108.25321   0.10386786   -108.14934    413.84708    4.3169169    4.3169169    4.3169169    413.84708    2213.7183   -1166.5881    194.41105    12.551049   -219.02915   -1264.1234    80.449079 
   92600    130.99948   -108.26806   0.11853108   -108.14953   -2931.1442    4.3179974    4.3179974    4.3179974   -2931.1442   -4271.2157   -1334.4956   -3187.7214   -405.39756     1294.661    1333.5505    80.509501 
   92700     74.00827   -108.21677  0.066964238    -108.1498     1998.685    4.3177678    4.3177678    4.3177678     1998.685    551.29787    7325.4461   -1880.6889    64.524584    203.41318    715.01135    80.496658 
   92800    82.177488   -108.22391  0.074355918   -108.14955    1207.9666    4.3164954    4.3164954    4.3164954    1207.9666   -823.39794    8217.5259   -3770.2281   -260.88342   -230.52217    232.93173    80.425515 
   92900    88.407677   -108.22962  0.079993124   -108.14963    -1575.526    4.3184249    4.3184249    4.3184249    -1575.526   -2160.5431    1785.0533   -4351.0882   -250.41439    933.49366    1887.0376    80.533414 
   93000    120.30363   -108.25816   0.10885325    -108.1493   -149.36203    4.3173909    4.3173909    4.3173909   -149.36203    30.903207   -226.69777   -252.29152   -464.01195    49.795963   -393.78589    80.475582 
   93100    142.41719   -108.27819   0.12886206   -108.14933   -1401.0856    4.3172349    4.3172349    4.3172349   -1401.0856   -3184.4917    328.56595    -1347.331    852.04935   -557.71446   -1286.1568    80.466857 
   93200    49.050092   -108.19438  0.044381554      -108.15     2761.627    4.3179586    4.3179586    4.3179586     2761.627   -109.14814    9372.3947   -978.36543   -678.26187    1340.3981    1718.3972    80.507327 
   93300    114.17419   -108.25258    0.1033072   -108.14927    143.14128    4.3167203    4.3167203    4.3167203    143.14128   -2024.7038     5875.058   -3420.9304      1247.21   -33.745581   -280.97321    80.438089 
   93400    76.526289   -108.21873  0.069242595   -108.14949    533.56437    4.3176402    4.3176402    4.3176402    533.56437    163.36645    3763.4988   -2326.1721      156.776    461.47165    360.59624    80.489523 
   93500     123.2682   -108.26095   0.11153566   -108.14942   -2656.4758    4.3181739    4.3181739    4.3181739   -2656.4758   -3069.2611    -1881.466   -3018.7002   -770.86747     1142.289    704.33288    80.519372 
   93600     121.6191   -108.25955   0.11004352   -108.14951    948.31198    4.3167137    4.3167137    4.3167137    948.31198   -397.54051    3156.1106    86.365883   -59.675447   -35.329433   -288.70844    80.437715 
   93700    74.744091   -108.21751  0.067630024   -108.14988    1664.7606    4.3179209    4.3179209    4.3179209    1664.7606   -2247.5378     8094.299   -852.47961   -38.192788    519.16479     453.7409    80.505219 
   93800    99.004129   -108.23915  0.089581016   -108.14957   -741.65089    4.3173322    4.3173322    4.3173322   -741.65089   -1969.5401    3675.5688   -3930.9814   -757.12096   -257.23989    1571.2243    80.472295 
   93900    89.089094   -108.22991  0.080609685    -108.1493    756.53012    4.3173011    4.3173011    4.3173011    756.53012    1324.7601    2262.5146   -1317.6843   -315.78081    160.49127   -193.46928    80.470557 
   94000    125.64582   -108.26307   0.11368698   -108.14938    -3689.472    4.3183544    4.3183544    4.3183544    -3689.472   -4242.8421   -1867.8055   -4957.7685    583.51169    499.88278    61.759525    80.529472 
   94100    81.178987   -108.22337  0.073452453   -108.14992     1765.323    4.3168519    4.3168519    4.3168519     1765.323    1460.2508    4305.0517    -469.3336   -996.95722    129.10036    451.12668    80.445444 
   94200    117.37368   -108.25565   0.10620217   -108.14945    330.21254    4.3177367    4.3177367    4.3177367    330.21254   -3363.2239    5496.9776    -1143.116     1062.938    802.18587    -131.7843    80.494917 
   94300     79.57079   -108.22165  0.071997323   -108.14966   -150.33851    4.3174891    4.3174891    4.3174891   -150.33851   -201.33361    3343.9394   -3593.6213    -614.4134    762.49323    1938.6152    80.481072 
   94400    104.41463   -108.24379  0.094476548   -108.14932   -1155.8139     4.317523     4.317523     4.317523   -1155.8139    132.41565   -1336.2455   -2263.6118   -275.36814   -131.65312    57.255425    80.482968 
   94500    118.34162   -108.25641   0.10707798   -108.14933   -1846.6736    4.3179028    4.3179028    4.3179028   -1846.6736   -2160.0411    1726.0541   -5106.0337   -477.48094   -41.746862    -510.2229     80.50421 
   94600    68.559946   -108.21189   0.06203448   -108.14985    1139.2559    4.3171729    4.3171729    4.3171729    1139.2559    1301.6424    4211.9083   -2095.7829   -516.01825    491.71942    808.91931    80.463392 
   94700    123.96957   -108.26157   0.11217028    -108.1494    -16.78265    4.3176134    4.3176134    4.3176134    -16.78265   -3210.5949    5086.3955   -1926.1486    109.11404   -1068.4194   -131.03027    80.488025 
   94800     92.90899   -108.23355  0.084066006   -108.14948    1032.7135     4.317271     4.317271     4.317271    1032.7135    1972.6285    3078.5373   -1953.0253   -406.48472    60.073468    747.24433    80.468874 
   94900    107.73977   -108.24692  0.097485205   -108.14943   -2303.9266    4.3178467    4.3178467    4.3178467   -2303.9266   -2071.7748   -1566.7486   -3273.2565     18.55251    1050.7946    1701.3251    80.501071 
   95000    94.894979    -108.2353  0.085862971   -108.14944    415.15901    4.3174084    4.3174084    4.3174084    415.15901    1021.1189    4269.6837   -4045.3257   -147.67817   -404.80958   -1518.9969    80.476558 
   95100    87.288418   -108.22851  0.078980395   -108.14953    968.48279    4.3171864    4.3171864    4.3171864    968.48279   -471.99722     5996.404   -2618.9585    439.47664    1025.9053    29.886478    80.464143 
   95200    103.91429   -108.24362  0.094023832   -108.14959   -5.3663276    4.3175274    4.3175274    4.3175274   -5.3663276   -2068.8085    4574.1715    -2521.462   -715.13375    899.15012    1091.1877    80.483213 
   95300    112.08423   -108.25078   0.10141616   -108.14937     834.1228     4.317248     4.317248     4.317248     834.1228    1622.0747    1322.6188   -442.32508    553.44465   -586.36632   -1134.0021    80.467588 
   95400    118.62367   -108.25671   0.10733319   -108.14937   -2043.3258     4.317814     4.317814     4.317814   -2043.3258   -3050.7572    125.62286   -3204.8429   -606.14573    139.62831    581.28123    80.499243 
   95500    64.958914   -108.20859   0.05877619   -108.14982    1038.7634     4.317259     4.317259     4.317259    1038.7634    1879.8015    4112.5044   -2876.0158   -425.38187     321.1989    282.99203    80.468207 
   95600    101.25447   -108.24097   0.09161717   -108.14936    619.64292     4.317197     4.317197     4.317197    619.64292   -2518.8154    7559.4344   -3181.6902    724.58117   -447.52504   -1501.4333    80.464739 
   95700    98.739661   -108.23892   0.08934172   -108.14958    16.618731    4.3175733    4.3175733    4.3175733    16.618731   -644.14799    2971.2309   -2277.2268   -46.394012    498.44027    1414.8106     80.48578 
   95800    118.64867   -108.25682   0.10735581   -108.14946   -966.24042    4.3174817    4.3174817    4.3174817   -966.24042   -1713.9131   -1273.0943    88.286133   -382.69372    927.28659    923.27971     80.48066 
   95900    125.61068   -108.26289   0.11365518   -108.14924    -1368.052    4.3177784    4.3177784    4.3177784    -1368.052   -1735.3829    352.43645   -2721.2096    39.035678    335.51388   -1445.4165    80.497252 
   96000    56.320334    -108.2007  0.050959822   -108.14974    1011.4345    4.3173083    4.3173083    4.3173083    1011.4345     -255.527    4644.5727   -1354.7421    349.19746    1112.2136    192.26552    80.470964 
   96100       94.071    -108.2346  0.085117418   -108.14949   -490.90958    4.3174821    4.3174821    4.3174821   -490.90958   -2857.6979    5858.8749   -4473.9058   -1097.2442     52.92571   -902.82658    80.480678 
   96200    101.46043   -108.24121  0.091803532   -108.14941    544.32137    4.3174758    4.3174758    4.3174758    544.32137    232.54098    2989.9185   -1589.4953    959.66338    351.65907   -687.59036     80.48033 
   96300    131.72145   -108.26856   0.11918434   -108.14938   -2571.7296    4.3178258    4.3178258    4.3178258   -2571.7296   -4170.6612   -2821.2028    -723.3247   -346.11366    75.667789    1260.5568      80.4999 
   96400    105.88053   -108.24528  0.095802925   -108.14947   -173.76538     4.317585     4.317585     4.317585   -173.76538    523.19736    1506.3924   -2550.8859   -465.65714   -592.10649    527.21555    80.486432 
   96500    78.132859   -108.22024  0.070696253   -108.14955    1194.0831    4.3171334    4.3171334    4.3171334    1194.0831   -2291.0451    6318.3096   -445.01524    728.38645    1106.1933   -1036.1802    80.461181 
   96600    74.533585   -108.21713  0.067439554   -108.14969   -119.24731     4.317542     4.317542     4.317542   -119.24731   -820.56873    5624.8681   -5162.0413   -371.41957    210.80759    984.94006    80.484032 
   96700    102.50796   -108.24217  0.092751356   -108.14942    284.60184    4.3174205    4.3174205    4.3174205    284.60184   -351.50293    2908.8896   -1703.5811    384.95999    282.06314   -248.57347    80.477237 
   96800    151.03964   -108.28584   0.13666384   -108.14918   -2394.7922    4.3178101    4.3178101    4.3178101   -2394.7922   -2680.5014   -2691.2614   -1812.6138   -543.12386    1100.3898   -167.60846    80.499026 
   96900    83.866318   -108.22566  0.075884007   -108.14977    935.35836    4.3175366    4.3175366    4.3175366    935.35836    717.62971    4269.4262   -2180.9808   -125.04206     31.17152    1074.3133     80.48373 
   97000    96.198079   -108.23655  0.087042043    -108.1495    698.64084    4.3170084    4.3170084    4.3170084    698.64084    -2241.204    5498.5625   -1161.4359     -393.598   -672.68828   -1198.0493    80.454195 
   97100    63.211718   -108.20682  0.057195291   -108.14962    1528.4168    4.3174953    4.3174953    4.3174953    1528.4168    1812.6486    7046.0469   -4273.4451    595.72284    543.92544   -45.914542    80.481421 
   97200    112.29479   -108.25104   0.10160669   -108.14944    -1689.928    4.3176766    4.3176766    4.3176766    -1689.928   -2213.9954    304.98679   -3160.7755    119.67766   -28.782682    1010.9281    80.491559 
   97300    135.85008   -108.27217   0.12292001   -108.14925   -987.25217    4.3175342    4.3175342    4.3175342   -987.25217    951.48647   -1191.1317   -2722.1112    183.72316   -707.98442    114.95522    80.483593 
   97400    99.062853   -108.23913  0.089634151    -108.1495    676.16633    4.3176232    4.3176232    4.3176232    676.16633   -1067.2457    4941.5407   -1845.7961   -49.821377    1302.5966     216.7623    80.488569 
   97500    86.902457   -108.22823  0.078631169    -108.1496    354.33044    4.3171286    4.3171286    4.3171286    354.33044   -1083.9057    4954.5409   -2807.6439   -727.32901    199.60101    334.38752    80.460914 
   97600    69.342589   -108.21224  0.062742632    -108.1495    1349.0611    4.3174194    4.3174194    4.3174194    1349.0611    2180.1573    4904.4801   -3037.4543    1058.2469    157.59319   -1747.7561    80.477172 
   97700    121.79485   -108.25954   0.11020254   -108.14934   -3032.3742    4.3179375    4.3179375    4.3179375   -3032.3742   -3114.5029   -1746.6532   -4235.9664   -906.56573    841.84261     1266.544    80.506152 
   97800    104.06874   -108.24373  0.094163587   -108.14957   -301.06521    4.3174465    4.3174465    4.3174465   -301.06521     2465.996    23.176858   -3392.3684    196.28335   -269.88081    477.07154    80.478689 
   97900    123.86184   -108.26143    0.1120728   -108.14936   -281.39153    4.3176635    4.3176635    4.3176635   -281.39153   -2745.2838    3363.0971   -1461.9879   -120.23932    -429.5095   -485.55882    80.490824 
   98000    73.745687   -108.21642  0.066726647   -108.14969    1374.0795    4.3171625    4.3171625    4.3171625    1374.0795    -118.4077    7247.3146   -3006.6683    140.36048   -31.526939    748.14347    80.462806 
   98100     86.09422   -108.22736  0.077899859   -108.14946   -501.62353    4.3176556    4.3176556    4.3176556   -501.62353    37.161893       707.11   -2249.1425    283.06877      258.473   -1465.1933    80.490385 
   98200    112.02261   -108.25059   0.10136041   -108.14923   -1943.8235    4.3177152    4.3177152    4.3177152   -1943.8235   -1572.2288   -572.03237   -3687.2094    799.10048       583.17   -227.53728    80.493718 
   98300    101.04012   -108.24094  0.091423228   -108.14951   -597.69676    4.3176507    4.3176507    4.3176507   -597.69676    591.10291    1006.0601   -3390.2532   -358.06851    994.59002    936.25091     80.49011 
   98400    113.77655   -108.25247   0.10294741   -108.14953    220.27574    4.3174518    4.3174518    4.3174518    220.27574   -2427.2681    4312.5987   -1224.5035   -1292.1162    354.53676   -779.81008    80.478983 
   98500    87.250924   -108.22853  0.078946469   -108.14958    1822.2649    4.3171362    4.3171362    4.3171362    1822.2649   -14.793752    7787.2982   -2305.7098    1192.5687    864.59865   -370.37429    80.461335 
   98600    102.47775   -108.24221  0.092724026   -108.14949   -1409.6995    4.3178908    4.3178908    4.3178908   -1409.6995   -2466.9755   -276.32538   -1485.7975    -796.5678   -323.59194    1190.9647    80.503538 
   98700    90.493228    -108.2313  0.081880174   -108.14942   -751.22196    4.3173196    4.3173196    4.3173196   -751.22196    1109.1795   -92.600419    -3270.245    958.04451    -64.69741   -1103.1046    80.471595 
   98800    111.66014   -108.25041   0.10103245   -108.14938   -803.53365    4.3178173    4.3178173    4.3178173   -803.53365   -2059.2852    2446.3203    -2797.636   -361.20811    669.01755    1230.0534    80.499427 
   98900    90.508185   -108.23153  0.081893708   -108.14963    1686.2948    4.3171769    4.3171769    4.3171769    1686.2948   -416.80406     7099.522   -1623.8336   -129.32433   -930.45571    464.99492    80.463612 
   99000    108.11385   -108.24727  0.097823683   -108.14945    784.74723    4.3171744    4.3171744    4.3171744    784.74723   -990.30665    5023.1804   -1678.6321   -233.80152     715.6652   -2304.7481    80.463474 
   99100     110.5669   -108.24933   0.10004325   -108.14929   -861.96259     4.318079     4.318079     4.318079   -861.96259   -2574.8541    1030.9757   -1042.0093    391.61991    1056.2032    143.71667    80.514062 
   99200     87.15752   -108.22829  0.078861955   -108.14943   -1062.1739    4.3171375    4.3171375    4.3171375   -1062.1739    2136.5335   -1787.9769   -3535.0784    -231.9421    221.54814    618.48904    80.461411 
   99300    98.081914   -108.23821  0.088746577   -108.14946   -765.02794    4.3180033    4.3180033    4.3180033   -765.02794   -2830.4008    3112.8518   -2577.5348   -1275.2997    644.64987   -285.52181    80.509827 
   99400    86.626137     -108.228  0.078381149   -108.14962    2044.3777    4.3172161    4.3172161    4.3172161    2044.3777    1385.5712    7955.5698   -3208.0079    3.3264908    556.46279    1516.6543    80.465803 
   99500     116.2415    -108.2547   0.10517775   -108.14952   -37.157691    4.3170242    4.3170242    4.3170242   -37.157691    -2111.896    2930.8313    -930.4084   -951.34959   -855.03618    767.19293    80.455075 
   99600    114.77992   -108.25318   0.10385528   -108.14932   -874.20828    4.3184584    4.3184584    4.3184584   -874.20828   -701.34749    82.389389   -2003.6668    1343.3083   -351.95607   -1609.9615    80.535287 
   99700    99.383844   -108.23929  0.089924591   -108.14937   -1086.1615    4.3167509    4.3167509    4.3167509   -1086.1615    820.45121   -999.40699   -3079.5288   -904.16639    665.18716    1631.9654    80.439799 
   99800     73.31032   -108.21602  0.066332718   -108.14969   -228.34527    4.3178528    4.3178528    4.3178528   -228.34527    -1104.985    3331.0042    -2911.055    -40.38627   -548.20048    61.613486    80.501412 
   99900    87.423168   -108.22865   0.07910232   -108.14954    1366.9962    4.3176884    4.3176884    4.3176884    1366.9962    1010.0338    7700.3914   -4609.4365   -966.11061    717.05811   -1083.2388    80.492215 
  100000    123.74355   -108.26135   0.11196576   -108.14938    155.29452    4.3164537    4.3164537    4.3164537    155.29452   -2066.5287    2935.1613   -402.74903   -655.40393     466.4203    899.56817    80.423181 
Loop time of 22.182 on 1 procs for 100000 steps with 8 atoms

Pair  time (%) = 7.11607 (32.0804)
Kspce time (%) = 5.29577 (23.8742)
Neigh time (%) = 0 (0)
Comm  time (%) = 1.08728 (4.90161)
Outpt time (%) = 0.0266252 (0.12003)
Other time (%) = 8.65627 (39.0238)

Nlocal:    8 ave 8 max 8 min
Histogram: 1 0 0 0 0 0 0 0 0 0
Nghost:    2189 ave 2189 max 2189 min
Histogram: 1 0 0 0 0 0 0 0 0 0
Neighs:    2344 ave 2344 max 2344 min
Histogram: 1 0 0 0 0 0 0 0 0 0

Total # of neighbors = 2344
Ave neighs/atom = 293
Neighbor list builds = 0
Dangerous builds = 0
unfix 20
unfix 21
print "seeds:2519512"
seeds:2519512
