LAMMPS (10 Feb 2015)
# ---- initialize simulations
clear
units metal
dimension 3
boundary p p p
atom_style charge
atom_modify map array
# ---- create atoms
read_data /Users/eugeneragasa/pyflamestk_git/pypospack/tests/tests_integration/workflow/WorkflowLammpsThermalExpansion/param_1902/MgO_NaCl_unit.npt.T900/lammps.structure
  triclinic box = (0 0 0) to (4.2565 4.2565 4.2565) with tilt (0 0 0)
  1 by 1 by 1 MPI processor grid
  reading atoms ...
  8 atoms
# ---- define interatomic potential
include potential.mod
mass 1 24.305
mass 2 15.999

group Mg type 1
4 atoms in group Mg
group O type 2
4 atoms in group O

set group Mg charge 1.69754800024
  4 settings made for charge
set group O charge -1.69754800024
  4 settings made for charge

variable R_cut equal 10.0

pair_style buck/coul/long ${R_cut}
pair_style buck/coul/long 10
pair_coeff 1 1 0.0 0.5 0.0 ${R_cut}
pair_coeff 1 1 0.0 0.5 0.0 10
pair_coeff 1 2 1340.93810979 0.285979914483 0.0 ${R_cut}
pair_coeff 1 2 1340.93810979 0.285979914483 0.0 10
pair_coeff 2 2 11096.6994948 0.145827000496 3.24328494634 ${R_cut}
pair_coeff 2 2 11096.6994948 0.145827000496 3.24328494634 10

kspace_style pppm 1.0e-5

neighbor 1.0 bin
neigh_modify every 1 delay 0 check yes
# ---- define settings
compute eng all pe/atom
compute eatoms all reduce sum c_eng
# ---- run minimization
reset_timestep 0
fix 1 all box/relax iso 0.0 vmax 0.001
thermo 10
thermo_style custom step pe lx ly lz xy xz yz press pxx pyy pzz pxy pxz pyz c_eatoms
min_style cg
minimize 1e-25 1e-25 5000 10000
PPPM initialization ...
  G vector (1/distance) = 0.353134
  grid = 8 8 8
  stencil order = 5
  estimated absolute RMS force accuracy = 4.09436e-05
  estimated relative force accuracy = 2.84338e-06
  using double precision FFTs
  3d grid and FFT values/proc = 3375 512
Neighbor list info ...
  1 neighbor list requests
  update every 1 steps, delay 0 steps, check yes
  master list distance cutoff = 11
Memory usage per processor = 4.06549 Mbytes
Step PotEng Lx Ly Lz Xy Xz Yz Press Pxx Pyy Pzz Pxy Pxz Pyz eatoms 
       0   -117.43599       4.2565       4.2565       4.2565            0            0            0    33717.192    33717.192    33717.192    33717.192 -3.1023281e-11 -2.4163961e-10 -2.0934262e-10   -117.43599 
       8   -117.45138    4.2835821    4.2835821    4.2835821            0            0            0   -5.0124394   -5.0124394   -5.0124394   -5.0124394 6.8970478e-11 -1.4442567e-10 -9.765937e-11   -117.45138 
Loop time of 0.010489 on 1 procs for 8 steps with 8 atoms

Minimization stats:
  Stopping criterion = linesearch alpha is zero
  Energy initial, next-to-last, final = 
        -117.435990229     -117.451383044     -117.451383044
  Force two-norm initial, final = 4.86878 0.0018005
  Force max component initial, final = 4.86878 0.000733039
  Final line search alpha, max atom move = 0.00390625 2.86343e-06
  Iterations, force evaluations = 8 25

Pair  time (%) = 0.00288081 (27.4651)
Kspce time (%) = 0.00201321 (19.1935)
Neigh time (%) = 0 (0)
Comm  time (%) = 0.000490427 (4.67564)
Outpt time (%) = 0 (0)
Other time (%) = 0.00510454 (48.6657)

Nlocal:    8 ave 8 max 8 min
Histogram: 1 0 0 0 0 0 0 0 0 0
Nghost:    2189 ave 2189 max 2189 min
Histogram: 1 0 0 0 0 0 0 0 0 0
Neighs:    2344 ave 2344 max 2344 min
Histogram: 1 0 0 0 0 0 0 0 0 0

Total # of neighbors = 2344
Ave neighs/atom = 293
Neighbor list builds = 0
Dangerous builds = 0
unfix 1
# ---- define output variables ----
variable natoms equal "count(all)"
variable tot_energy equal "c_eatoms"
variable length_x equal "lx"
variable length_y equal "ly"
variable length_z equal "lz"
variable tilt_xy equal "xy"
variable tilt_xz equal "xz"
variable tilt_yz equal "yz"
variable tot_press equal "press"
variable press_xx equal "pxx"
variable press_yy equal "pyy"
variable press_zz equal "pzz"
variable press_xy equal "pxy"
variable press_xz equal "pxz"
variable press_yz equal "pyz"

# ---- output ----
print "pypospack:output_section:begin"
pypospack:output_section:begin
print "tot_energy = ${tot_energy}"
tot_energy = -117.45138304358
print "num_atoms = ${natoms}"
num_atoms = 8
print "xx = ${length_x}"
xx = 4.28358206284588
print "yy = ${length_y}"
yy = 4.28358206284588
print "zz = ${length_z}"
zz = 4.28358206284588
print "xy = ${tilt_xy}"
xy = 0
print "xz = ${tilt_xz}"
xz = 0
print "yz = ${tilt_yz}"
yz = 0
print "tot_press = ${tot_press}"
tot_press = -5.01243937142067
print "pxx = ${press_xx}"
pxx = -5.01243937108414
print "pyy = ${press_yy}"
pyy = -5.01243937158826
print "pzz = ${press_zz}"
pzz = -5.01243937158962
print "pxy = ${press_xy}"
pxy = 6.8970477610601e-11
print "pxz = ${press_xz}"
pxz = -1.44425666326158e-10
print "pyz = ${press_yz}"
pyz = -9.76593698696591e-11
print "pypospack:output_section:done"
pypospack:output_section:done
print "pypospack:lammps_sim:done"
pypospack:lammps_sim:done
#------------------------------------------------------------------------------
# RUN THERMOSTAT
# running using an NPT Nose-Hoover style thermostat
#------------------------------------------------------------------------------
variable tempdamp equal 0.1
variable pressdamp equal 1.0
# set initial velocities
velocity all create 900 7052501 mom yes dist gaussian loop all
# fix for Nose-Hoover style thermostat
fix 20 all npt temp 900 900 0.1 aniso 0.0 0.0 1.0 drag 1.0 couple xyz
variable boxx equal lx
variable boxy equal ly
variable boxz equal lz
variable boxp equal press
variable boxt equal temp
# calculate averages every 10000 steps
reset_timestep 0
fix 21 all ave/time 10 10 100 v_boxx v_boxy v_boxz v_boxp v_boxt file lattice.out
thermo_style custom step temp pe ke etotal press lx ly lz press pxx pyy pzz pxy pxz pyz vol
thermo_modify flush yes
thermo 100
run 100000
PPPM initialization ...
  G vector (1/distance) = 0.352856
  grid = 8 8 8
  stencil order = 5
  estimated absolute RMS force accuracy = 4.14735e-05
  estimated relative force accuracy = 2.88018e-06
  using double precision FFTs
  3d grid and FFT values/proc = 3375 512
Memory usage per processor = 3.06549 Mbytes
Step Temp PotEng KinEng TotEng Press Lx Ly Lz Press Pxx Pyy Pzz Pxy Pxz Pyz Volume 
       0          900   -117.45139   0.81433891   -116.63705    11060.333    4.2835821    4.2835821    4.2835821    11060.333    13342.639    15410.001      4428.36    2115.3068   -138.65657   -1101.3146     78.59977 
     100    584.88145   -117.05533   0.52921303   -116.52611     9204.288    4.3061823    4.3061823    4.3061823     9204.288    22877.183    4140.2913    595.38954   -3455.9495   -253.57916   -2701.9723    79.850424 
     200    985.23535   -117.19378   0.89146165   -116.30232   -15808.896    4.3192329    4.3192329    4.3192329   -15808.896    -8184.233   -11513.722   -27728.732    1710.5971    2791.9272    2920.7595    80.578628 
     300    1148.6094   -117.14987    1.0392859   -116.11058    15950.028    4.3004547    4.3004547    4.3004547    15950.028    31262.817    13756.444     2830.823    2569.6925    3902.8079    5149.2093    79.532227 
     400    1028.6086    -116.8967   0.93070665   -115.96599    20877.983    4.3099959    4.3099959    4.3099959    20877.983    43783.712      13203.3    5646.9365   -1756.0105   -6176.9903   -7381.9686     80.06276 
     500    1337.4744   -117.07391    1.2101749   -115.86373   -16738.483    4.3297247    4.3297247    4.3297247   -16738.483   -4520.9412   -6978.1865   -38716.322    -9783.434   -908.52712   -7776.9648    81.167252 
     600    1431.2086   -117.11398    1.2949877   -115.81899    3124.8758    4.3115784    4.3115784    4.3115784    3124.8758    18592.899   -2727.6448   -6490.6268    13282.886    4015.8803     -665.076    80.150986 
     700    1170.9907   -116.87533     1.059537   -115.81579    22251.286    4.3047555    4.3047555    4.3047555    22251.286    60230.374    10181.937   -3658.4526   -7899.3241   -2407.0672    4511.7137    79.771078 
     800    888.17072   -116.63352   0.80363553   -115.82988   -2052.5581    4.3321165    4.3321165    4.3321165   -2052.5581    58291.477   -23546.426   -40902.725   -3104.3582    7860.8789   -96.809433     81.30184 
     900    990.15697   -116.73294   0.89591483   -115.83702    6558.0754    4.3191929    4.3191929    4.3191929    6558.0754    37800.809   -427.42557   -17699.157     1071.451   -2265.1047   -7528.5153    80.576392 
    1000    1519.3438   -117.20685    1.3747342   -115.83212    3231.1602    4.3028815    4.3028815    4.3028815    3231.1602    19426.245    920.80255   -10653.567   -3207.5919    3676.3342   -6125.7996    79.666946 
    1100    1248.5246   -116.97146    1.1296913   -115.84177   -28914.882    4.3350059    4.3350059    4.3350059   -28914.882   -5058.9136    -43856.68   -37829.052    6581.1014   -5089.6718    -5916.222     81.46463 
    1200    1146.5026   -116.88218    1.0373797    -115.8448   -20836.826    4.3238294    4.3238294    4.3238294   -20836.826    8269.9311   -43480.279    -27300.13   -9133.1199   -2334.6395   -581.99845    80.836156 
    1300    995.86558   -116.74792    0.9010801   -115.84684    20737.581    4.3051925    4.3051925    4.3051925    20737.581    71121.923   -5691.5246   -3217.6569    7460.7413    11408.345    5293.8153    79.795377 
    1400    609.24428    -116.4132   0.55125703   -115.86194   -5353.3479    4.3321125    4.3321125    4.3321125   -5353.3479    41171.089   -31852.938   -25378.195    -3025.413   -8463.0437    -4299.546    81.301616 
    1500    402.88319   -116.21745   0.36453718   -115.85292    9174.5237    4.3257286    4.3257286    4.3257286    9174.5237    100442.03   -52061.392   -20857.067    1600.4564    4009.3026   -4582.2391    80.942722 
    1600    395.63319   -116.20591   0.35797722   -115.84794      19452.8    4.3057885    4.3057885    4.3057885      19452.8    94956.815   -37462.259    863.84393   -3520.5041    1918.8933   -791.87898     79.82852 
    1700    529.08759   -116.33529   0.47872957   -115.85656    3509.3572    4.3225691    4.3225691    4.3225691    3509.3572    69754.701   -44901.041   -14325.588    202.14223   -3015.0629   -5705.7466    80.765493 
    1800    846.74674   -116.61361   0.76615425   -115.84745   -19228.751    4.3260371    4.3260371    4.3260371   -19228.751    1447.5996   -35264.702   -23869.152    9198.1948    2893.7315   -1319.0495    80.960041 
    1900    881.71923   -116.63179   0.79779809     -115.834    -11230.83    4.3099633    4.3099633    4.3099633    -11230.83    5431.0317   -37818.046   -1305.4763   -8181.9753     398.3702    2194.1546    80.060945 
    2000     386.3116   -116.18551   0.34954286   -115.83597   -4693.9314    4.3209629    4.3209629    4.3209629   -4693.9314    62945.393   -72284.638    -4742.549    1506.7778    6186.2827    -5513.109    80.675492 
    2100     386.8566   -116.18219   0.35003598   -115.83216   -3474.5015     4.317747     4.317747     4.317747   -3474.5015    63204.877   -53689.844   -19938.538   -5160.2418   -3458.5065   -1831.7059    80.495497 
    2200    609.47274   -116.38309   0.55146374   -115.83163    18343.931    4.3067291    4.3067291    4.3067291    18343.931    57783.103   -4960.3982    2209.0883    9105.9768    269.31843    1862.6208    79.880847 
    2300    622.29352   -116.39819   0.56306425   -115.83513   -26238.539    4.3234553    4.3234553    4.3234553   -26238.539   -4921.1548   -57003.895   -16790.567    572.68071    -994.4077   -4662.0558    80.815178 
    2400    663.36209   -116.42636   0.60022396   -115.82614   -16849.324    4.3140901    4.3140901    4.3140901   -16849.324    19792.725   -58322.789   -12017.909   -2466.7349    2330.1662   -4601.4611    80.291139 
    2500    461.15508   -116.24192   0.41726281   -115.82466    25310.162    4.3092167    4.3092167    4.3092167    25310.162    96363.703   -31466.882    11033.666   -188.93415     475.3312   -772.64578     80.01935 
    2600    788.40053   -116.53469   0.71336137   -115.82133   -27101.064    4.3284544    4.3284544    4.3284544   -27101.064   -18233.532   -43624.353   -19445.306    4475.6861     6085.973   -1595.4208    81.095835 
    2700     564.5621   -116.32632   0.51082765    -115.8155   -2283.9286     4.314952     4.314952     4.314952   -2283.9286    30721.473   -25846.198   -11727.061   -4130.9953   -1992.8965   -4499.2091    80.339272 
    2800     702.7038   -116.45133   0.63582117   -115.81551    22852.732    4.3051565    4.3051565    4.3051565    22852.732    80361.444   -22320.107     10516.86    5785.1336      -750.88   -992.98557    79.793374 
    2900     1001.697   -116.72502   0.90635647   -115.81866   -29318.679    4.3287422    4.3287422    4.3287422   -29318.679   -11315.039   -55127.174   -21513.823   -5398.6371   -3585.0231    504.42257    81.112012 
    3000     576.6427   -116.33982   0.52175843   -115.81806    1525.8141    4.3175572    4.3175572    4.3175572    1525.8141    36985.953     -17557.9   -14850.611    2529.0965    2170.0476   -4609.8007    80.484879 
    3100    968.95139   -116.69221   0.87672758   -115.81548    25255.682    4.3016883    4.3016883    4.3016883    25255.682    60341.525    12711.843    2713.6784   -6034.9386    321.03844   -2384.5101    79.600687 
    3200    1111.8696   -116.82664     1.006043    -115.8206   -18864.453     4.326123     4.326123     4.326123   -18864.453   -2059.3615   -34104.655   -20429.342    15372.608    3524.2289    3087.0497    80.964865 
    3300    795.46313   -116.53708   0.71975175   -115.81733   -4123.4149    4.3180887    4.3180887    4.3180887   -4123.4149    27865.972   -13659.664   -26576.553   -7649.3428   -693.44654    99.305716    80.514605 
    3400    770.25862   -116.51969   0.69694619   -115.82275    36578.566    4.3025535    4.3025535    4.3025535    36578.566    94806.464    24475.008   -9545.7732   -4627.8133   -2615.5638    -1046.099    79.648726 
    3500    1038.0731   -116.77626   0.93927035   -115.83699   -7158.1376    4.3250241    4.3250241    4.3250241   -7158.1376    3530.1875   -7799.0406    -17205.56    4319.7103   -2441.9789   -162.92421     80.90318 
    3600    1300.1891   -117.01213    1.1764385   -115.83569   -13368.809    4.3219564    4.3219564    4.3219564   -13368.809   -6380.1897   -6031.8621   -27694.375   -3313.7643    2667.4176   -1128.2892    80.731152 
    3700    1352.8191   -117.05942    1.2240591   -115.83536     2326.557    4.3104208    4.3104208    4.3104208     2326.557    17957.562    7575.8387    -18553.73     16506.18   -495.00082    -3700.471    80.086443 
    3800    1242.2781   -116.97059    1.1240393   -115.84655   -11064.877    4.3243481    4.3243481    4.3243481   -11064.877   -814.73582   -6799.7341   -25580.161   -13881.536    608.41652   -1194.0127    80.865251 
    3900    859.50216   -116.62514   0.77769562   -115.84744    17625.972    4.3225523    4.3225523    4.3225523    17625.972    75269.969    2141.5969   -24533.649     -6075.34   -1650.8354    750.56089    80.764547 
    4000    800.63374   -116.58096   0.72443024   -115.85653     9772.209    4.3182974    4.3182974    4.3182974     9772.209     49183.89   -3290.8014   -16576.462   -1147.5161     5515.756   -1174.2636    80.526283 
    4100    680.94648    -116.4743   0.61613468   -115.85816    34671.416    4.3190337    4.3190337    4.3190337    34671.416    112276.98    8249.6109    -16512.34    5510.0667   -2607.0921    2734.9548    80.567479 
    4200    960.02041   -116.72362   0.86864664   -115.85497   -2586.7475    4.3217921    4.3217921    4.3217921   -2586.7475    21794.665    -3302.398   -26252.509    2944.2724   -2996.1079    1713.2051    80.721942 
    4300    1071.0521   -116.81856   0.96911049   -115.84945    6686.3885    4.3156538    4.3156538    4.3156538    6686.3885    45047.665   -10918.475   -14070.025    -2964.387    2982.2094    -2990.343    80.378481 
    4400    1295.6626   -117.01798    1.1723427   -115.84563   -16449.006    4.3177496    4.3177496    4.3177496   -16449.006   -11169.637   -19264.365   -18913.015      7197.07   -902.50093    1494.9633     80.49564 
    4500     1106.291   -116.84588    1.0009953   -115.84488    -10162.37    4.3190137    4.3190137    4.3190137    -10162.37   -3120.8009   -2550.3461   -24815.963   -10563.526    -974.0164   -5612.8862    80.566359 
    4600    767.58687    -116.5337   0.69452873   -115.83917    15595.834    4.3121643    4.3121643    4.3121643    15595.834    70385.472    -10432.84   -13165.128    1067.6522   -3745.0579   -8237.3081    80.183667 
    4700    834.97584   -116.58582   0.75550368   -115.83032     1903.434    4.3137999    4.3137999    4.3137999     1903.434    29693.246   -23850.894   -132.05008    1206.1197    4105.0957    5990.7536     80.27494 
    4800    1117.7924   -116.83586     1.011402   -115.82446   -26227.527    4.3251935    4.3251935    4.3251935   -26227.527   -5316.3221   -41164.418    -32201.84    2924.4231    4650.8875   -558.13561    80.912686 
    4900    910.79154   -116.64551   0.82410332    -115.8214    8230.6453    4.3127832    4.3127832    4.3127832    8230.6453    49156.369    -12253.44   -12210.993    6158.1742   -3887.9282   -5464.8962    80.218195 
    5000    674.10464   -116.44205   0.60994404   -115.83211    13693.807    4.3088866    4.3088866    4.3088866    13693.807    57304.381   -16861.784     638.8226   -5868.5574   -5693.7693    1873.8428    80.000962 
    5100    461.62446   -116.25964   0.41768751   -115.84196    4440.6069    4.3255074    4.3255074    4.3255074    4440.6069    90602.973   -50193.972   -27087.181   -8306.6871    4982.1876   -5326.6452    80.930303 
    5200    773.55397   -116.54198   0.69992789   -115.84205    -16997.61    4.3218805    4.3218805    4.3218805    -16997.61    29961.885   -61635.546    -19319.17    994.08996    668.92689   -5997.2586    80.726897 
    5300    1007.3792   -116.74987   0.91149786   -115.83837    5915.0842    4.3072479    4.3072479    4.3072479    5915.0842    30183.062   -16964.479    4526.6697    3263.6409    3848.9525    4174.1453    79.909721 
    5400    967.05929    -116.7171   0.87501557   -115.84209    -16567.89    4.3242953    4.3242953    4.3242953    -16567.89    15996.213    -39711.69   -25988.194     3265.606   -237.39807    1858.1052    80.862288 
    5500    841.53977   -116.60429   0.76144287   -115.84285   -20735.566    4.3242938    4.3242938    4.3242938   -20735.566    35290.686   -64274.685   -33222.701   -4121.4729   -2070.7875   -3951.8883    80.862205 
    5600    732.62139   -116.50767   0.66289123   -115.84478     13279.74    4.3017201    4.3017201    4.3017201     13279.74    75519.596    -42757.58    7077.2047    607.22546    5165.6171   -210.26924     79.60245 
    5700    478.69438   -116.29141   0.43313274   -115.85828   -304.82994    4.3266332    4.3266332    4.3266332   -304.82994    65190.788     -47678.2   -18427.077     4276.473   -3533.5041   -2038.1912    80.993511 
    5800    593.89646   -116.37997      0.53737    -115.8426    1251.4563    4.3269327    4.3269327    4.3269327    1251.4563    60966.258   -28983.519    -28228.37    1878.5959    1066.7892   -3096.6926    81.010333 
    5900    1040.1955   -116.76826   0.94119072   -115.82707    -3084.365    4.3013849    4.3013849    4.3013849    -3084.365    24179.869   -36677.965    3245.0003   -2217.3666     714.7589    2806.5109    79.583848 
    6000    993.62691   -116.73657   0.89905451   -115.83751   -21622.868    4.3215299    4.3215299    4.3215299   -21622.868    13380.001    -58873.86   -19374.746    1626.5822    1947.3071    3703.9942    80.707253 
    6100    997.25913   -116.73772   0.90234102   -115.83538   -21140.155    4.3274609    4.3274609    4.3274609   -21140.155     23895.33   -58356.916    -28958.88    312.94251    -375.4543   -3376.2914    81.040005 
    6200     615.5508   -116.39779    0.5569633   -115.84083    29977.998    4.3060912    4.3060912    4.3060912    29977.998    90452.802   -4090.4275    3571.6211    1282.4886   -2116.2588   -1157.7224     79.84536 
    6300     608.8291   -116.39746   0.55088136   -115.84658    8686.6093    4.3185641    4.3185641    4.3185641    8686.6093    75342.131   -30796.552   -18485.751    218.36283    8551.9288     2562.632    80.541205 
    6400    1078.9388   -116.80927   0.97624653   -115.83302   -19162.165    4.3260421    4.3260421    4.3260421   -19162.165    14742.193   -52104.151   -20124.538   -7484.1806    5561.6851    759.46669    80.960319 
    6500    1244.1111   -116.95786    1.1256979   -115.83217   -13864.505    4.3154301    4.3154301    4.3154301   -13864.505    11830.627   -39355.823   -14068.318    8439.8705   -4050.4604    4446.4244     80.36598 
    6600    1287.8152   -117.00431    1.1652423   -115.83907   -6395.9754    4.3125633    4.3125633    4.3125633   -6395.9754    17448.275   -14740.977   -21895.224    -3747.431   -2234.7554    6366.7999    80.205923 
    6700    1015.8339   -116.76605   0.91914784    -115.8469    31.005613     4.322042     4.322042     4.322042    31.005613    36463.573   -17150.195   -19220.361    -3581.572    1866.4666   -771.00423    80.735945 
    6800    822.24324   -116.58894   0.74398297   -115.84495    9052.7851    4.3177476    4.3177476    4.3177476    9052.7851    59470.414   -23087.074   -9224.9849   -1001.9324    4859.7213    -85.83886     80.49553 
    6900     1099.067   -116.83036    0.9944589    -115.8359    2070.2951    4.3156353    4.3156353    4.3156353    2070.2951    43904.827   -19595.788   -18098.154   -5626.0125    8543.3217    3386.6428    80.377448 
    7000    1466.4443   -117.15414    1.3268696   -115.82727   -10570.658     4.314835     4.314835     4.314835   -10570.658   -1014.5315   -12577.683   -18119.759    8139.2041   -7037.6538   -277.96136     80.33274 
    7100     1179.836    -116.8984    1.0675404   -115.83086   -7620.8941     4.318936     4.318936     4.318936   -7620.8941     5788.215    -10578.88   -18072.017   -16636.221    1346.7481    6697.4454    80.562011 
    7200    962.62001   -116.70593   0.87099882   -115.83493    11174.072    4.3186164    4.3186164    4.3186164    11174.072    75618.648   -11651.139   -30445.294    -159.8785   -331.57414    4987.3627    80.544128 
    7300    956.62649    -116.7047   0.86557575   -115.83912    24371.656    4.3106676    4.3106676    4.3106676    24371.656    71155.418    5759.3418   -3799.7917    9240.7485   -670.20789   -3298.8389    80.100203 
    7400    1160.0848   -116.89341    1.0496691   -115.84374   -24.789579    4.3206215    4.3206215    4.3206215   -24.789579    36188.685   -19941.829   -16321.224   -13764.354    2452.7186   -1272.8042    80.656367 
    7500    1363.6465   -117.07299     1.233856   -115.83913   -23871.421    4.3258265    4.3258265    4.3258265   -23871.421   -14875.288   -22928.059   -33810.916    3370.5201    1168.1868    574.18447    80.948215 
    7600    1395.6474   -117.09669    1.2628111   -115.83388   -4310.0619    4.3114206    4.3114206    4.3114206   -4310.0619    4599.9101   -1294.3562    -16235.74   -14059.587    4652.7113   -2335.7016    80.142185 
    7700    1145.8773   -116.88257    1.0368138   -115.84575    6447.8831    4.3192755    4.3192755    4.3192755    6447.8831    46953.361   -229.76327   -27379.949    6199.4342   -6628.7099    3579.3373    80.581014 
    7800    884.83435   -116.65158   0.80061671   -115.85096   -7920.1626    4.3266726    4.3266726    4.3266726   -7920.1626    31574.828   -25376.383   -29958.932    878.55793   -1657.0112    2560.2053    80.995726 
    7900    696.77665   -116.47617   0.63045815   -115.84571    31571.422    4.3085704    4.3085704    4.3085704    31571.422    108964.41   -4258.6334   -9991.5143   -2423.8137    1079.1476    -4394.505    79.983348 
    8000    850.38543   -116.61746   0.76944661   -115.84801   -2779.3267    4.3197713    4.3197713    4.3197713   -2779.3267    34399.907   -19272.055   -23465.832    8344.5923     1592.817   -1254.6136    80.608766 
    8100    1164.8334   -116.89508    1.0539658   -115.84111   -16383.443    4.3263553    4.3263553    4.3263553   -16383.443    6292.9232   -30304.117   -25139.135   -18154.122     981.5658   -1860.3068    80.977907 
    8200     1168.281   -116.89741    1.0570852   -115.84033   -7060.8726     4.312901     4.312901     4.312901   -7060.8726    1795.2969   -8586.6643    -14391.25    8744.1256   -5509.5848   -5839.2811    80.224766 
    8300    924.58544   -116.68316   0.83658434   -115.84657   -8419.9034    4.3141004    4.3141004    4.3141004   -8419.9034    19457.622    -27230.57   -17486.762   -2515.5752    4261.8694   -158.22292    80.291714 
    8400    631.84809   -116.41427   0.57170943   -115.84256    -316.2747    4.3231228    4.3231228    4.3231228    -316.2747    52331.703   -30325.211   -22955.316   -1511.7331   -4186.2941    3709.1166    80.796531 
    8500    627.37135   -116.39848   0.56765878   -115.83083    4375.7521    4.3149058    4.3149058    4.3149058    4375.7521    35267.702     -11486.6   -10653.846    220.74141     986.3418   -3004.6936    80.336692 
    8600    883.88274   -116.62348   0.79975568   -115.82372   -13473.954    4.3146035    4.3146035    4.3146035   -13473.954   -1426.1073   -24575.443   -14420.311   -8873.7452   -3287.0121   -4183.5759    80.319809 
    8700     495.8222   -116.26971   0.44863034   -115.82108    12699.887    4.3162043    4.3162043    4.3162043    12699.887    81897.672   -34909.117   -8888.8922    4921.9516    1417.8024    778.42667    80.409245 
    8800    562.56626   -116.33008   0.50902177   -115.82106   -13045.092    4.3224055    4.3224055    4.3224055   -13045.092    22566.983   -47392.932   -14309.326    5772.4306   -44.408518   -5724.7782    80.756321 
    8900    741.33882   -116.49348   0.67077894    -115.8227   -16933.497    4.3198497    4.3198497    4.3198497   -16933.497    13693.813   -46314.432   -18179.873   -1200.3895     7556.095   -3383.2487    80.613151 
    9000    829.86966    -116.5808   0.75088351   -115.82992    -7166.499    4.3081236    4.3081236    4.3081236    -7166.499    5702.2111   -23424.836   -3776.8723   -489.91127   -3949.3429    5278.9928    79.958468 
    9100    831.47059   -116.59639   0.75233207   -115.84406   -18217.985    4.3179864    4.3179864    4.3179864   -18217.985    10978.461   -49799.226   -15833.189    1945.4043   -2866.9961    -2082.391    80.508883 
    9200    348.06612   -116.15715   0.31493754   -115.84221   -6139.2609    4.3262038    4.3262038    4.3262038   -6139.2609    63685.234   -62213.817     -19889.2   -7353.3338   -678.74372   -3446.4643    80.969402 
    9300    351.29821   -116.15232   0.31786201   -115.83446    3344.6775    4.3074956    4.3074956    4.3074956    3344.6775    35667.026   -35878.652    10245.658    6415.2843    5332.3671    1999.0465    79.923507 
    9400    746.70367   -116.50825   0.67563318   -115.83262    630.50681    4.3126381    4.3126381    4.3126381    630.50681    16181.404   -12175.726   -2114.1582   -3591.9898    4572.5093    -1.847024    80.210097 
    9500    643.42481   -116.40672   0.58218429   -115.82453   -19463.522     4.328182     4.328182     4.328182   -19463.522    23096.253   -65927.099    -15559.72    6505.1753   -5630.2367   -1913.0569    81.080525 
    9600    189.22537   -115.99394   0.17121509   -115.82273    559.55415    4.3075756    4.3075756    4.3075756    559.55415    48124.592   -44922.391   -1523.5388   -1850.4643     10667.57    5675.1097    79.927957 
    9700    409.67412   -116.20216   0.37068176   -115.83148    18435.187    4.3070883    4.3070883    4.3070883    18435.187      73426.1    -16139.29   -1981.2493    1685.5058    -5376.812     5678.443    79.900834 
    9800    776.38548   -116.53103    0.7024899   -115.82854   -22416.868    4.3257238    4.3257238    4.3257238   -22416.868   -18847.523   -28664.683   -19738.396   -3936.2408   -1706.6773   -2365.4479    80.942452 
    9900    644.13751   -116.40733   0.58282916    -115.8245   -7815.0888    4.3117743    4.3117743    4.3117743   -7815.0888    5453.2507   -24467.854   -4430.6633   -1658.1645    2204.6632    260.34124    80.161909 
   10000    278.56307   -116.08078   0.25204972   -115.82873    21384.436    4.3137387    4.3137387    4.3137387    21384.436    90873.719   -31379.845    4659.4328    3103.4484    2392.7833    4343.5933    80.271521 
   10100    676.04543   -116.44025   0.61170011   -115.82855   -14344.993     4.326132     4.326132     4.326132   -14344.993    13184.689   -38763.711   -17455.958   -2775.3206    -6034.364    510.57601    80.965371 
   10200    879.65311   -116.62338   0.79592862   -115.82745    1814.2144    4.3133053    4.3133053    4.3133053    1814.2144    11089.857    4157.5562     -9804.77      6769.85    5519.0242    7189.4766     80.24733 
   10300    911.16057   -116.65991   0.82443723   -115.83547   -14354.636    4.3151125    4.3151125    4.3151125   -14354.636    6342.1256   -30984.411   -18421.623    -5520.879   -3574.5555    10272.675    80.348238 
   10400    700.82562   -116.47386   0.63412175   -115.83974   -12159.482    4.3219915    4.3219915    4.3219915   -12159.482    13491.987   -35407.541    -14562.89    7986.4385    6271.5931   -50.418164    80.733117 
   10500    535.49311   -116.32065   0.48452542   -115.83613    27217.261    4.3158549    4.3158549    4.3158549    27217.261    99374.247   -14664.465   -3057.9986   -803.98371   -7502.5138    61.973923     80.38972 
   10600     587.6257   -116.37348   0.53169609   -115.84178    3510.5816    4.3223535    4.3223535    4.3223535    3510.5816    35444.516   -12871.479   -12041.291   -5475.0638    3345.0897    4148.7245    80.753407 
   10700    991.06908   -116.73533   0.89674013   -115.83859   -6580.2908    4.3188879    4.3188879    4.3188879   -6580.2908    12452.094   -21437.762   -10755.205    5580.8541    7410.1471    3213.9377     80.55932 
   10800    1195.5038   -116.91507     1.081717   -115.83336   -5912.5719    4.3124371    4.3124371    4.3124371   -5912.5719   -3615.8354   -15462.223    1340.3427   -7080.4013   -8102.8981    5305.3565    80.198886 
   10900    1045.2292   -116.78843   0.94574534   -115.84268   -21753.779    4.3242906    4.3242906    4.3242906   -21753.779   -4616.5519   -38023.774   -22621.011    6135.5852    8489.4797    10554.636    80.862028 
   11000    601.00707   -116.38215   0.54380383   -115.83834    25046.713    4.3171044    4.3171044    4.3171044    25046.713     90671.79   -2115.4697   -13416.181    -4139.332   -1588.5991    4621.4928    80.459561 
   11100    1013.3132   -116.74732   0.91686707   -115.83045    6881.7744    4.3089897    4.3089897    4.3089897    6881.7744    14450.339    9216.8037   -3021.8192   -11339.711    11855.769    -6410.636    80.006703 
   11200    1149.5508    -116.8711    1.0401377   -115.83096   -17227.259    4.3226496    4.3226496    4.3226496   -17227.259   -11006.132   -29256.995   -11418.648    13526.853   -3569.3787    2407.1786    80.770002 
   11300    1011.2908   -116.73972   0.91503718   -115.82469   -775.27242    4.3195102    4.3195102    4.3195102   -775.27242    29667.701   -17728.224   -14265.293   -6325.8875   -2255.5962    6478.6729    80.594147 
   11400     924.1097    -116.6573   0.83615387   -115.82115    27632.412    4.3028726    4.3028726    4.3028726    27632.412    61141.582    17717.002    4038.6518    -1177.561    5894.3663    666.31386     79.66645 
   11500    982.66941   -116.72301   0.88913993   -115.83387    5918.0177    4.3210888    4.3210888    4.3210888    5918.0177    47953.824    -3176.915   -27022.856    4257.0661   -5867.4574    8856.8535     80.68254 
   11600    1316.1352   -117.02129    1.1908668   -115.83042    -21029.21    4.3227081    4.3227081    4.3227081    -21029.21   -16390.484   -16632.627    -30064.52    -15836.65    1472.7839    8159.4152    80.773284 
   11700    1218.1672   -116.92744    1.1022233   -115.82521    4834.2156    4.3092077    4.3092077    4.3092077    4834.2156    9845.8598    14642.419   -9985.6325    11203.885   -1106.2321   -8137.0983    80.018846 
   11800    844.66937   -116.59535    0.7642746   -115.83108     16935.19    4.3193461    4.3193461    4.3193461     16935.19    82413.524   -11896.129   -19711.824   -7009.7863   -353.73005   -885.81091    80.584963 
   11900    751.74997   -116.51979   0.68019918   -115.83959   -3003.9546    4.3240911    4.3240911    4.3240911   -3003.9546    38839.964    -16703.66   -31148.167    3250.4297    -413.0005    6393.1681    80.850833 
   12000    1129.9396   -116.86005    1.0223931   -115.83766    16069.956    4.3101713    4.3101713    4.3101713    16069.956    53387.255    1858.0485   -7035.4348    5658.3407    3709.1148   -84.618285     80.07254 
   12100    1202.6236   -116.92953    1.0881591   -115.84137   -13161.637    4.3209075    4.3209075    4.3209075   -13161.637   -12664.353   -2741.4796   -24079.079   -7716.4938   -3411.2478    2533.9417    80.672385 
   12200    1182.3715     -116.912    1.0698346   -115.84216   -23892.976    4.3219409    4.3219409    4.3219409   -23892.976   -11596.437   -24854.422    -35228.07    8086.5353    89.264947    4663.1732    80.730284 
   12300    932.85147   -116.68375   0.84406361   -115.83968    8729.0973    4.3128142    4.3128142    4.3128142    8729.0973    58138.083   -17507.355   -14443.437   -14073.633    1162.6175   -3810.3229    80.219925 
   12400    667.00311   -116.44762   0.60351843   -115.84411   -464.22672    4.3238285    4.3238285    4.3238285   -464.22672    55867.638   -33277.547   -23982.772    2133.7433   -1986.6672    -4019.647    80.836104 
   12500    507.96092   -116.30523   0.45961372   -115.84561    20862.461    4.3164726    4.3164726    4.3164726    20862.461    92931.687   -19278.506   -11065.799   -2662.8122   -2176.7222    2025.9352    80.424238 
   12600    868.04204   -116.62797   0.78542268   -115.84255   -3330.7798    4.3145109    4.3145109    4.3145109   -3330.7798    16931.816   -15835.056     -11089.1   -1254.4005   -3158.6701    29.905986     80.31464 
   12700    1066.3258   -116.80135   0.96483397   -115.83652   -30011.352    4.3253173    4.3253173    4.3253173   -30011.352   -12529.605    -46537.18   -30967.271    -5006.217    6956.2835     1137.864    80.919636 
   12800    869.62706   -116.62095   0.78685684   -115.83409   -4563.7283    4.3106012    4.3106012    4.3106012   -4563.7283    40435.948   -36438.334   -17688.799   -8701.6649   -5835.1042    3110.7533      80.0965 
   12900    650.25472   -116.42989   0.58836414   -115.84153    5347.7627    4.3125062    4.3125062    4.3125062    5347.7627    51424.071   -24621.285   -10759.498    9517.1231    936.90496   -2647.6293    80.202737 
   13000    426.01143   -116.22671    0.3854641   -115.84125   -1677.7134    4.3282809    4.3282809    4.3282809   -1677.7134    69953.867   -44179.304   -30807.703   -7750.2762    1162.8914   -78.627972    81.086084 
   13100    634.10041    -116.4157   0.57374737   -115.84195   -4875.7915      4.30764      4.30764      4.30764   -4875.7915    36316.341   -31850.382   -19093.333   -1775.8752     3269.289   -6.9068165    79.931542 
   13200    800.61429   -116.56277   0.72441264   -115.83836   -4881.4749    4.3087251    4.3087251    4.3087251   -4881.4749    34157.687   -42215.606   -6586.5056     957.7714      5506.38   -997.90033    79.991964 
   13300    722.18628   -116.47959   0.65344933   -115.82614   -14947.538    4.3317394    4.3317394    4.3317394   -14947.538    34169.642   -52100.367   -26911.888    599.79852   -5902.5801    2104.3852     81.28061 
   13400    471.74943   -116.25118    0.4268488   -115.82434    7335.1309    4.3099298    4.3099298    4.3099298    7335.1309    60338.388   -20658.791   -17674.205   -136.92892   -2131.2276    189.36837    80.059081 
   13500    600.08368   -116.36837   0.54296832    -115.8254    11933.989    4.3032094    4.3032094    4.3032094    11933.989     76109.26   -34078.974   -6228.3182   -2634.9661   -4488.3847    1266.8475    79.685157 
   13600    931.46609   -116.66894    0.8428101   -115.82613    -40295.61    4.3341487    4.3341487    4.3341487    -40295.61   -10667.165   -72534.192   -37685.475     2793.623    9135.6169   -152.18398     81.41631 
   13700     615.3161   -116.38452   0.55675094   -115.82777    4139.9014    4.3116822    4.3116822    4.3116822    4139.9014    62436.925   -48922.317   -1094.9043    1406.3363   -5371.4725    576.89197    80.156771 
   13800    481.80288   -116.27192   0.43594537   -115.83598    20984.046    4.3000894    4.3000894    4.3000894    20984.046    93035.395     -21019.7    -9063.556   -2715.0323    3536.7705    4919.5316    79.511959 
   13900    399.77329   -116.20234   0.36172328   -115.84062   -13722.155    4.3338107    4.3338107    4.3338107   -13722.155    49599.825   -53274.648   -37491.643     4470.058   -3640.0457   -1635.4636    81.397267 
   14000    987.87105   -116.72119   0.89384648   -115.82735   -25570.687    4.3182271    4.3182271    4.3182271   -25570.687    774.90684   -51423.473   -26063.494    2063.8429    6527.6831    40.126197    80.522351 
   14100    785.65551   -116.53025   0.71087761   -115.81937    11045.471    4.3000644    4.3000644    4.3000644    11045.471    47766.187   -26562.588    11932.814    676.22809   -1142.7531    4412.6321    79.510571 
   14200    581.22577   -116.35536   0.52590529   -115.82946   -18155.707     4.328235     4.328235     4.328235   -18155.707    36376.928   -59112.957   -31731.091   -3172.8027    55.346378   -4864.5588    81.083501 
   14300    600.48635   -116.37328   0.54333267   -115.82994    5125.4293    4.3132463    4.3132463    4.3132463    5125.4293    61859.598   -23835.149   -22648.161    -2073.817   -2817.8908    1665.6789    80.244039 
   14400    964.42345   -116.69567   0.87263061   -115.82304   -3551.3552    4.3021449    4.3021449    4.3021449   -3551.3552    23150.819   -24396.119   -9408.7653     9866.956    6808.6215    3079.7948    79.626038 
   14500    858.51448   -116.60582   0.77680194   -115.82902   -19946.878    4.3242362    4.3242362    4.3242362   -19946.878    18253.258   -55038.891   -23054.999   -3387.9886   -4905.9857   -3997.2055    80.858976 
   14600    590.87783   -116.36152   0.53463868   -115.82688    9185.0536    4.3185083    4.3185083    4.3185083    9185.0536    66713.817   -31933.084   -7225.5721    3984.6636    3001.7978   -1465.7521    80.538079 
   14700    849.11778   -116.59255   0.76829961   -115.82425    10860.199    4.3077793    4.3077793    4.3077793    10860.199    45298.637   -8650.1244   -4067.9145    5621.0249   -2679.7842   -725.31111      79.9393 
   14800     1081.627   -116.80557   0.97867882   -115.82689   -22789.806    4.3230868    4.3230868    4.3230868   -22789.806    2222.0142   -42048.302   -28543.129   -7107.9423   -4122.9351    1079.8001    80.794514 
   14900    1171.7758   -116.88785    1.0602474   -115.82761    -13770.63    4.3178116    4.3178116    4.3178116    -13770.63    4630.8427   -35170.495   -10772.239    8641.1546    9338.1946       1267.5    80.499105 
   15000    959.07454   -116.70868    0.8677908   -115.84089    6216.4135     4.311339     4.311339     4.311339    6216.4135    53224.505   -22012.285    -12562.98   -1762.8185   -8764.7972    2513.6752    80.137635 
   15100    718.28183   -116.49917   0.64991649   -115.84926    7558.0452    4.3165704    4.3165704    4.3165704    7558.0452    63829.229   -18416.681   -22738.412    4257.6853    3934.9927    2985.5508    80.429704 
   15200    828.12178   -116.59461   0.74930199   -115.84531    11331.427    4.3171158    4.3171158    4.3171158    11331.427    67320.563   -12192.634   -21133.649    4411.9361   -7713.1981   -7096.8335      80.4602 
   15300    1274.7843   -116.99094    1.1534516   -115.83749   -9462.5411    4.3166398    4.3166398    4.3166398   -9462.5411    6645.0197   -18465.067   -16567.576   -4980.7821    7703.1312     -4857.24    80.433587 
   15400    1188.2652   -116.90603    1.0751673   -115.83086   -10139.913    4.3176231    4.3176231    4.3176231   -10139.913    1716.5075   -19695.125   -12441.121    12995.833   -1717.6111    2144.6321    80.488563 
   15500    1030.3807   -116.76118   0.93231008   -115.82887    15664.422    4.3097039    4.3097039    4.3097039    15664.422    68108.696   -7342.7144   -13772.716   -8864.1743   -7456.5836   -3796.1656    80.046491 
   15600    919.22577   -116.67055   0.83173479   -115.83882    11081.975    4.3142003    4.3142003    4.3142003    11081.975    47837.268    4808.6344   -19399.978    2422.5972    6332.5845    1224.8359    80.297297 
   15700    1250.6581   -116.96488    1.1316217   -115.83325    -2200.613    4.3166978    4.3166978    4.3166978    -2200.613    14459.822   -3931.3822   -17130.278    14847.653    11553.378    3489.5956    80.436831 
   15800    1211.5502   -116.91943    1.0962361    -115.8232    4644.5334    4.3108599    4.3108599    4.3108599    4644.5334    23916.492   -1570.9164   -8411.9757   -3604.8818   -2813.4724   -8085.3096     80.11092 
   15900    1074.9315    -116.7912   0.97262065   -115.81858    11567.156    4.3134048    4.3134048    4.3134048    11567.156    40993.194    12053.297   -18345.023   -3648.2911    -3168.318   -6987.2728    80.252884 
   16000    1379.8944    -117.0621    1.2485575   -115.81354   -13860.952    4.3221719    4.3221719    4.3221719   -13860.952   -9168.3811   -2763.9686   -29650.506    3275.2523   -4031.8669   -599.20958     80.74323 
   16100    1051.6311   -116.76482   0.95153793   -115.81328    19369.582    4.3102104    4.3102104    4.3102104    19369.582    56915.315     12557.01    -11363.58    3863.3319    6146.5358    1738.9847    80.074715 
   16200    1223.4843   -116.92017    1.1070343   -115.81313    9120.5134    4.3084965    4.3084965    4.3084965    9120.5134    19317.609    16359.498   -8315.5668   -3638.2973   -7448.1788   -3574.4247     79.97923 
   16300     1341.292   -117.02579    1.2136292   -115.81216   -18889.683    4.3244355    4.3244355    4.3244355   -18889.683   -17078.769   -8913.5714   -30676.709   -2024.1872    8264.4475   -2042.8883    80.870155 
   16400    1034.8494   -116.74822   0.93635351   -115.81186    14589.943    4.3118639    4.3118639    4.3118639    14589.943    44537.087    10488.093   -11255.352    12907.133    5732.2013     1449.617     80.16691 
   16500    1437.1078   -117.11029    1.3003253   -115.80997   -374.63752    4.3062775    4.3062775    4.3062775   -374.63752    10011.478    6259.7747   -17395.165    2298.5879    304.76895    -9424.687    79.855723 
   16600    1140.6854   -116.84729    1.0321161   -115.81518   -800.59106    4.3228689    4.3228689    4.3228689   -800.59106    12752.609   -1146.8825     -14007.5   -6786.2265    3037.7284   -4305.3384    80.782296 
   16700    1355.7931   -117.03635    1.2267501    -115.8096   -1832.9654    4.3141602    4.3141602    4.3141602   -1832.9654    14485.176   -5516.1779   -14467.894   -9054.9201   -3470.0637    6421.2699    80.295054 
   16800    1304.2239    -116.9906    1.1800892   -115.81051    1313.8226    4.3073579    4.3073579    4.3073579    1313.8226     19958.64   -4276.9163   -11740.256    14835.084    1729.8077   -943.55679     79.91584 
   16900    1179.8716   -116.89031    1.0675726   -115.82274   -3857.7009    4.3162219    4.3162219    4.3162219   -3857.7009    25796.941   -14483.066   -22886.978   -5199.7761    2375.9865   -3264.2084    80.410227 
   17000     1032.534   -116.76158   0.93425849   -115.82732    11727.559    4.3170039    4.3170039    4.3170039    11727.559    49562.905   -8101.3886   -6278.8377   -1033.7438    4959.1222     1325.689    80.453941 
   17100    1318.2842   -117.01736    1.1928113   -115.82455   -13815.556    4.3112947    4.3112947    4.3112947   -13815.556   -11844.624     -14454.3   -15147.744    9428.8149   -5312.4258   -3655.1886    80.135165 
   17200    1198.0808   -116.90968    1.0840486   -115.82563   -5126.6022    4.3116776    4.3116776    4.3116776   -5126.6022    11425.441   -15322.811   -11482.437    903.43737    2541.0169   -6971.1773    80.156515 
   17300    976.61222   -116.70896   0.88365926    -115.8253    15063.421    4.3172446    4.3172446    4.3172446    15063.421    63686.512   -11933.798   -6562.4502   -4478.2869   -203.28835   -484.23077      80.4674 
   17400    1139.7359   -116.85294     1.031257   -115.82168   -6493.1318    4.3165823    4.3165823    4.3165823   -6493.1318   -4198.9003   -1292.6792   -13987.816    5980.2459    3178.4028    3198.2519    80.430371 
   17500    988.98091    -116.7126   0.89485071   -115.81775   -4548.4664    4.3108803    4.3108803    4.3108803   -4548.4664    5300.4476   -6435.7841   -12510.063    -2573.484     3482.993   -7013.6242    80.112058 
   17600    935.14405   -116.66114   0.84613799     -115.815    19360.435    4.3105064    4.3105064    4.3105064    19360.435    59089.388   -3976.8451    2968.7633   -2846.8324    5905.0214   -3597.3729    80.091216 
   17700    1245.9768   -116.93993     1.127386   -115.81255   -18540.413    4.3244032    4.3244032    4.3244032   -18540.413   -14586.729   -21068.082   -19966.429   -6690.0207   -10271.161    3456.7089    80.868343 
   17800    665.89531   -116.41556   0.60251607   -115.81304    10784.677     4.312241     4.312241     4.312241    10784.677    39288.105   -1301.6349   -5632.4399    5734.3779    2273.5651   -6933.0327    80.187944 
   17900    1047.8298   -116.76139   0.94809842   -115.81329    8215.3648    4.3007169    4.3007169    4.3007169    8215.3648    32219.359   -10339.287    2766.0225    4605.1841    849.41646   -4562.7638    79.546775 
   18000    1071.3611    -116.7891   0.96939003   -115.81971   -13858.072    4.3232727    4.3232727    4.3232727   -13858.072     9224.487   -35802.382   -14996.321    2930.6233    521.32114    4225.6603    80.804936 
   18100    700.37461   -116.44924   0.63371367   -115.81552   -8632.4575    4.3229452    4.3229452    4.3229452   -8632.4575    24751.261   -37384.717   -13263.916   -4855.7709    195.40624   -2423.7877    80.786573 
   18200    902.80767   -116.62953   0.81687936   -115.81265    19607.133     4.296497     4.296497     4.296497    19607.133    55633.775    1103.6278    2083.9968   -6189.8279    7589.1349   -4837.3286    79.312848 
   18300    1034.7284   -116.76451   0.93624398   -115.82827   -20489.529    4.3154202    4.3154202    4.3154202   -20489.529   -14198.445   -33770.114   -13500.029    7473.4693   -8477.4427   -1970.9906    80.365431 
   18400    714.12992   -116.47314   0.64615976   -115.82698   -19847.204    4.3204477    4.3204477    4.3204477   -19847.204    6170.4552   -49400.964   -16311.104   -6731.6979    5987.6087      935.339    80.646639 
   18500    749.28383   -116.49483   0.67796775   -115.81686    22378.528    4.2975832    4.2975832    4.2975832    22378.528    57603.236   -9780.6149    19312.963   -3119.2879    4008.3228   -3121.6084    79.373014 
   18600    959.01486   -116.68811    0.8677368   -115.82037   -15457.969     4.315802     4.315802     4.315802   -15457.969   -11390.527   -19534.569   -15448.812    10302.232    1333.3842   -3687.8375    80.386763 
   18700    664.97349    -116.4204   0.60168199   -115.81872   -13435.784     4.320169     4.320169     4.320169   -13435.784    15214.291   -39095.916   -16425.727   -8613.0646   -3060.2397    6400.6172    80.631028 
   18800    619.45421   -116.37517   0.56049518   -115.81468    13232.925    4.3013704    4.3013704    4.3013704    13232.925    57982.853   -21889.867    3605.7883    -14417.35    3321.6009   -2925.7583     79.58304 
   18900    855.00357   -116.59116    0.7736252   -115.81754   -6335.7183    4.3125933    4.3125933    4.3125933   -6335.7183    6658.8542   -22987.386   -2678.6231    2163.5613   -6856.3412   -9021.0535    80.207598 
   19000    606.87752   -116.36219   0.54911553   -115.81308   -10655.055    4.3231388    4.3231388    4.3231388   -10655.055    4240.9241   -22375.747   -13830.343    691.68651   -916.78123    6642.4631     80.79743 
   19100    768.87234   -116.50284   0.69569185   -115.80715   -10163.876    4.3059537    4.3059537    4.3059537   -10163.876    4711.1273   -30782.142   -4420.6148   -1776.8894   -1637.3574    295.99666    79.837708 
   19200    525.14327   -116.28692   0.47516066   -115.81175    5548.7504    4.3073249    4.3073249    4.3073249    5548.7504    51747.709   -32890.751   -2210.7059   -9871.8417    6091.3077   -8479.2638    79.914003 
   19300    644.77094   -116.39467    0.5834023   -115.81127   -16126.742    4.3234918    4.3234918    4.3234918   -16126.742    150.12529   -37070.098   -11460.252    9991.6765    10957.952    3870.5308    80.817221 
   19400    738.81108   -116.47675   0.66849179   -115.80826   -8323.7608    4.3100711    4.3100711    4.3100711   -8323.7608    -5250.746   -21776.869    2056.3329   -4816.0361   -8858.2268     1890.172    80.066951 
   19500    415.05823   -116.18667   0.37555341   -115.81111    16021.556    4.3027698    4.3027698    4.3027698    16021.556    71155.175   -32002.419    8911.9137   -5938.1821   -1156.6812   -7006.8165    79.660741 
   19600    722.21369   -116.46817   0.65347412    -115.8147   -33556.798    4.3238178    4.3238178    4.3238178   -33556.798   -16458.505   -60801.991   -23409.898   -5936.1359   -3490.6614   -7260.3398    80.835505 
   19700    612.81278   -116.36666   0.55448588   -115.81218    862.48898    4.3117923    4.3117923    4.3117923    862.48898    11605.736   -10694.562    1676.2929    3488.1426   -177.12664    1640.0887    80.162914 
   19800    506.44196   -116.27182   0.45823933   -115.81358    17013.573     4.302759     4.302759     4.302759    17013.573    56159.044   -21542.918    16424.594   -2953.6547   -1036.5371    1634.8717    79.660143 
   19900    575.67864    -116.3385   0.52088613   -115.81762   -26618.447    4.3180141    4.3180141    4.3180141   -26618.447   -13037.427   -54539.803   -12278.112   -11863.687    1684.2061   -6389.6822    80.510436 
   20000    591.74402   -116.34964   0.53542243   -115.81422   -10839.913    4.3143501    4.3143501    4.3143501   -10839.913   -5229.5273   -15956.215   -11333.998    4796.9913    7296.2231    3583.9563    80.305659 
   20100    591.40429   -116.34765   0.53511503   -115.81253    2729.6663    4.3141275    4.3141275    4.3141275    2729.6663    34571.601   -25661.841   -720.76058   -8440.9905    1242.3578    4000.8706     80.29323 
   20200    489.26861   -116.25501   0.44270052    -115.8123    2579.0947    4.3098572    4.3098572    4.3098572    2579.0947    18730.223   -19733.224    8740.2845    -9479.488   -4243.6038   -4420.6569    80.055032 
   20300    477.72536   -116.24458   0.43225595   -115.81233    926.55426    4.3102829    4.3102829    4.3102829    926.55426    28183.635   -25352.136   -51.836362   -6803.7727   -869.67893    1046.2011    80.078756 
   20400    766.37414   -116.50431   0.69343143   -115.81088   -22115.618    4.3248309    4.3248309    4.3248309   -22115.618    4915.8414   -46494.297   -24768.399    2727.9296    6979.4679    3546.4076    80.892341 
   20500    576.13209   -116.33186   0.52129642   -115.81056    12980.332     4.305252     4.305252     4.305252    12980.332    47685.028   -5647.1026   -3096.9285    345.35223   -1721.4932   -2129.2275    79.798685 
   20600    516.90323   -116.28477   0.46770491   -115.81707    5547.4107    4.3040641    4.3040641    4.3040641    5547.4107    24136.629   -18524.259    11029.862   -5732.9521   -3340.0984   -4431.4401    79.732648 
   20700    721.81603   -116.47045   0.65311432   -115.81734   -26105.035    4.3240606    4.3240606    4.3240606   -26105.035   -1430.5389   -50971.289   -25913.277   -10787.734   -3734.9293    5121.0954    80.849122 
   20800    720.48996   -116.46534   0.65191446   -115.81343   -4158.7573    4.3077212    4.3077212    4.3077212   -4158.7573     27948.94   -24464.957   -15960.256     7243.202    8145.0579    5172.9557    79.936066 
   20900    558.11139    -116.3219   0.50499091   -115.81691   -2218.9291     4.310423     4.310423     4.310423   -2218.9291    30128.816    -21913.55   -14872.053   -9963.3149     1176.769   -9985.9328    80.086568 
   21000    753.06466   -116.49172   0.68138873   -115.81033   -21096.697    4.3212363    4.3212363    4.3212363   -21096.697   -14384.545   -34338.183   -14567.362   -13369.974   -1472.3003   -4697.0982    80.690806 
   21100    674.69501   -116.41585   0.61047822   -115.80537    9759.6844    4.3036358    4.3036358    4.3036358    9759.6844    59325.962   -14086.075   -15960.834    3842.4319   -9836.6575    3501.8896    79.708846 
   21200    779.51305   -116.51847   0.70531979   -115.81315   -27591.639    4.3154821    4.3154821    4.3154821   -27591.639   -13603.847   -33353.744   -35817.325    3870.2233    4245.9208   -6077.9724    80.368888 
   21300    595.53258   -116.35221   0.53885039   -115.81336   -12890.496    4.3196406    4.3196406    4.3196406   -12890.496    12398.053   -15605.998   -35463.542   -908.06236    -5278.946    753.17429    80.601446 
   21400    681.74312   -116.42414    0.6168555   -115.80728    16230.608    4.3057724    4.3057724    4.3057724    16230.608    40065.063    9758.8757   -1132.1133   -11763.544    -878.0957    12131.603    79.827628 
   21500    601.61124   -116.35506   0.54435049   -115.81071   -13506.501    4.3167612    4.3167612    4.3167612   -13506.501    11158.814   -10410.637   -41267.679   -4687.8511    5137.8232   -3999.0777    80.440371 
   21600    629.09067   -116.37829   0.56921445   -115.80908   -13524.056    4.3130108    4.3130108    4.3130108   -13524.056   -3925.8199    -374.2215   -36272.128     1772.819   -360.25884   -7654.5842    80.230894 
   21700    677.41406    -116.4244   0.61293848   -115.81147    16235.375    4.3084053    4.3084053    4.3084053    16235.375    37396.067    27747.259   -16437.201    8918.5759    5073.2445    5804.5987    79.974156 
   21800    605.17372   -116.36093    0.5475739   -115.81336   -3700.6074    4.3227815    4.3227815    4.3227815   -3700.6074    26146.371   -6212.5892   -31035.604   -2107.9928    -2409.806       8135.2    80.777399 
   21900    807.16656   -116.53849   0.73034126   -115.80815   -7059.9246    4.3075171    4.3075171    4.3075171   -7059.9246    8892.6188   -9106.6994   -20965.693    -5512.636    459.42141   -1171.5807    79.924701 
   22000    667.05082   -116.41567    0.6035616   -115.81211    8470.3657    4.3080702    4.3080702    4.3080702    8470.3657    50403.604     3508.125   -28500.632   -878.52075    1897.7492   -2138.2056    79.955496 
   22100    811.68248   -116.54206   0.73442737   -115.80764   -21461.474    4.3266978    4.3266978    4.3266978   -21461.474   -1531.1682   -13126.436   -49726.818    4805.0801   -23.168814    7966.8416    80.997142 
   22200    722.96221   -116.46125    0.6541514    -115.8071    11622.571    4.3025088    4.3025088    4.3025088    11622.571     46326.36     1993.261   -13451.908    6098.2212   -375.69097   -896.94581    79.646244 
   22300    806.28772   -116.54187   0.72954607   -115.81232    3521.1929    4.3065675    4.3065675    4.3065675    3521.1929    7622.2803    10827.994    -7886.696   -4396.9001      6403.14   -7406.7401    79.871855 
   22400    713.07132   -116.45249   0.64520192   -115.80729    -25907.82    4.3299135    4.3299135    4.3299135    -25907.82   -7107.0786   -14649.179   -55967.203   -5247.1202   -4590.7717    9260.4245    81.177872 
   22500    643.72679   -116.38656   0.58245753    -115.8041    14777.136    4.3004863    4.3004863    4.3004863    14777.136    40495.407    31628.644   -27792.645   -1598.9313    596.64467    7523.5018     79.53398 
   22600    916.60554   -116.63801   0.82936396   -115.80865   -432.95081    4.3050112    4.3050112    4.3050112   -432.95081   -1141.5404    9292.1693   -9449.4813    9936.3588   -611.67419   -5239.3397    79.785298 
   22700    614.38047   -116.36242   0.55590436   -115.80652   -21231.848    4.3296594    4.3296594    4.3296594   -21231.848   -6603.4874   -20503.817   -36588.238    5666.2992   -3002.6756    4010.9851    81.163582 
   22800    814.78677   -116.53998   0.73723619   -115.80275    9195.9707    4.2993712    4.2993712    4.2993712    9195.9707    23883.568    15287.734    -11583.39    -11021.68     5562.013    6814.3658    79.472128 
   22900    897.00778   -116.61905   0.81163149   -115.80741     7831.894      4.30594      4.30594      4.30594     7831.894    33243.548    10508.593   -20256.459   -4689.1525   -8136.6226   -1852.8988    79.836948 
   23000    1006.3395    -116.7146   0.91055711   -115.80404   -28261.022    4.3274512    4.3274512    4.3274512   -28261.022   -16544.506   -28149.314   -40089.245    6049.0569    121.23223   -1604.4376    81.039458 
   23100    739.38007   -116.47251   0.66900663    -115.8035    19379.319    4.2993144    4.2993144    4.2993144    19379.319    44382.721     5569.707    8185.5289    8164.1972    5094.7764    11375.932    79.468974 
   23200    960.37447    -116.6797   0.86896701   -115.81074    5875.8661    4.3078953    4.3078953    4.3078953    5875.8661     22972.83    14219.229   -19564.461   -5881.4791   -360.19067    9445.4074    79.945755 
   23300    939.79012   -116.65916   0.85034185   -115.80881   -7803.2938    4.3245921    4.3245921    4.3245921   -7803.2938    13518.232   -5265.9681   -31662.145   -5292.8085   -1009.0603   -1089.3647    80.878941 
   23400    930.29615   -116.64986   0.84175151   -115.80811    5687.6489     4.303581     4.303581     4.303581    5687.6489    20966.097    12848.232   -16751.382    3565.9178   -949.33898    2171.7521    79.705804 
   23500    868.54385   -116.60084   0.78587672   -115.81496    2022.9544    4.3037413    4.3037413    4.3037413    2022.9544    9329.8816    3170.2936   -6431.3121    7114.6319   -2639.5551    4385.3774    79.714708 
   23600    887.96859   -116.61599   0.80345264   -115.81254   -257.76659    4.3179426    4.3179426    4.3179426   -257.76659    -7024.234    26384.576   -20133.642    1259.8169   -4371.8762     86.69552    80.506436 
   23700    1145.6295   -116.84596    1.0365896   -115.80937   -11560.049    4.3146546    4.3146546    4.3146546   -11560.049    6145.2196   -10490.334   -30335.033   -7767.8365    5089.2623    630.89382    80.322665 
   23800    940.55321   -116.66398   0.85103231   -115.81295   -3361.6046    4.3061125    4.3061125    4.3061125   -3361.6046    20506.466   -4730.2239   -25861.056    6290.6903    3320.6826    12259.776    79.846541 
   23900    945.32091   -116.67119   0.85534622   -115.81585    14016.813    4.3069865    4.3069865    4.3069865    14016.813    31143.637    12162.584    -1255.781    713.74212   -7452.7549    2540.0352    79.895172 
   24000    1141.8605   -116.84538    1.0331794    -115.8122   -6369.5798    4.3209106    4.3209106    4.3209106   -6369.5798   -2529.9286    8740.2515   -25319.062   -5068.5849   -5326.5068   -6661.1696    80.672563 
   24100    977.71452   -116.69464   0.88465665   -115.80999   -1308.9885    4.3103864    4.3103864    4.3103864   -1308.9885    7113.4659    14273.208   -25313.639    -5188.068    5192.3803    10418.586    80.084524 
   24200    1007.4231   -116.72302   0.91153759   -115.81148    10530.926    4.3013535    4.3013535    4.3013535    10530.926    27896.967    19247.392   -15551.582    831.43954    231.33195    14474.472    79.582101 
   24300    946.84738    -116.6708   0.85672741   -115.81408   -5900.1483    4.3233178    4.3233178    4.3233178   -5900.1483   -17362.405    21752.564   -22090.604    13493.681   -11560.923     4421.174    80.807464 
   24400    1074.6093   -116.78319   0.97232911   -115.81087    -5232.361    4.3111826    4.3111826    4.3111826    -5232.361     12615.12   -7119.2651   -21192.938   -3967.7963   -8164.6088   -4235.3264    80.128915 
   24500     1001.445   -116.71412   0.90612844   -115.80799    6472.1011    4.2991191    4.2991191    4.2991191    6472.1011    28988.969    341.65981   -9914.3255   -8497.1389    2864.2153      2912.24    79.458145 
   24600    1007.9542   -116.72281   0.91201813   -115.81079   -17484.489    4.3228834    4.3228834    4.3228834   -17484.489   -9722.4541   -2406.4889   -40324.523    -5452.954   -6656.5571    2713.6626    80.783112 
   24700    1128.2829   -116.83032    1.0208941   -115.80943    -6409.073    4.3127979    4.3127979    4.3127979    -6409.073   -14513.634    9278.8156     -13992.4    2226.5262    -17022.15   -1065.3689    80.219015 
   24800    948.60503   -116.66771   0.85831777   -115.80939     18955.88    4.2992209    4.2992209    4.2992209     18955.88    46633.275    15213.868   -4979.5047    7118.9377    6442.2252    3063.1448     79.46379 
   24900    1187.4528   -116.88842    1.0744323   -115.81399   -15680.621    4.3169696    4.3169696    4.3169696   -15680.621   -7362.9487   -9220.0744    -30458.84   -9571.7963    1338.5697   -1238.6933    80.452026 
   25000    1032.7829    -116.7438   0.93448367   -115.80932    6974.0819    4.3141675    4.3141675    4.3141675    6974.0819     19066.57    25580.641   -23724.966    882.13335   -2894.1914   -5316.7015    80.295464 
   25100    1048.8841   -116.75591   0.94905238   -115.80686    6743.5907    4.3100564    4.3100564    4.3100564    6743.5907    24981.495    11094.247    -15844.97   -113.79051   -10128.927   -2766.2739    80.066131 
   25200    1221.1765   -116.91231    1.1049462   -115.80737   -8155.8546    4.3107891    4.3107891    4.3107891   -8155.8546    6638.9767   -17387.803   -13718.738    4224.7976   -2813.2064    8617.6162    80.106972 
   25300    1143.8439   -116.84488     1.034974   -115.80991    7488.8504    4.3094768    4.3094768    4.3094768    7488.8504    19234.623    13021.422   -9789.4932    7041.1893    5054.8446    6451.2103    80.033835 
   25400    1216.8643   -116.91231    1.1010444   -115.81126   -13996.537    4.3184708    4.3184708    4.3184708   -13996.537   -15036.175    3363.6973   -30317.133   -11749.222    -7307.354   -9892.4442    80.535982 
   25500    1070.6068   -116.77965   0.96870753   -115.81095    5884.8864    4.3063317    4.3063317    4.3063317    5884.8864    14340.551    8631.7026   -5317.5946    3508.8118    179.83371   -5023.5658    79.858737 
   25600    1271.9413   -116.96209    1.1508792   -115.81121    9897.6536    4.3035875    4.3035875    4.3035875    9897.6536    1147.0057    19501.748    9044.2075    715.61223    -5922.716    4897.2747    79.706166 
   25700    1160.2607   -116.86381    1.0498283   -115.81398   -7095.6835    4.3230017    4.3230017    4.3230017   -7095.6835    6731.3312   -4297.3912   -23720.991    4207.6832   -2923.5833    333.45002    80.789744 
   25800    1164.5148   -116.86606    1.0536775   -115.81239    10941.252    4.3073235    4.3073235    4.3073235    10941.252    13817.419    27661.792   -8655.4551   -72.094708    2387.0815   -6325.7434    79.913929 
   25900    1220.2091   -116.91691    1.1040708   -115.81283    16390.199    4.3025448    4.3025448    4.3025448    16390.199    35528.794   -1709.9769     15351.78    -558.3401    5797.8936   -2101.5378    79.648242 
   26000    1328.3941   -117.01351    1.2019589   -115.81155   -6757.3201    4.3221642    4.3221642    4.3221642   -6757.3201    1715.0486    -8332.346   -13654.663    6124.9849     -1094.18    5739.3249    80.742798 
   26100    1234.8385   -116.92787    1.1173078   -115.81056    9283.5803    4.3100804    4.3100804    4.3100804    9283.5803    5260.7669    22877.965   -287.99107   -4977.3773   -12366.981    3654.4103    80.067471 
   26200    1190.2083   -116.88844    1.0769255   -115.81151    13562.358    4.3040833    4.3040833    4.3040833    13562.358    24407.124    9287.6266    6992.3227    1968.2009    1533.0806    2218.5832    79.733718 
   26300    1327.6681   -117.01148     1.201302   -115.81018   -3408.3396    4.3175466    4.3175466    4.3175466   -3408.3396    -3644.205    5681.7578   -12262.571    -6318.271    3134.7562   -4605.0543    80.484285 
   26400     1166.923   -116.86419    1.0558565   -115.80834    15345.672    4.3101163    4.3101163    4.3101163    15345.672    28639.209    1894.6607    15503.146     5003.977   -3022.1888   -10478.079    80.069473 
   26500    1153.4524   -116.85343     1.043668   -115.80976    1340.6563    4.3104911    4.3104911    4.3104911    1340.6563    1304.7499    6193.9459   -3476.7269     11107.46   -5182.0695    -4484.195    80.090361 
   26600    1256.2133   -116.94542    1.1366482   -115.80877   -3689.6906    4.3146884    4.3146884    4.3146884   -3689.6906    11400.146   -5441.3179   -17027.899   -4108.5007   -4485.0944    8171.6405    80.324551 
   26700    1381.9311   -117.05878    1.2504003   -115.80838    3675.5463     4.310087     4.310087     4.310087    3675.5463   -667.37807   -3779.7767    15473.794   -6782.3828     3680.787    9907.5125    80.067841 
   26800    1185.2088   -116.88514    1.0724018   -115.81274   -7735.4649     4.312882     4.312882     4.312882   -7735.4649   -18661.277    10760.383   -15305.501   -2235.8852   -573.06485   -15242.022    80.223707 
   26900    1140.0114   -116.84625    1.0315062   -115.81475   -3938.8128    4.3077896    4.3077896    4.3077896   -3938.8128    -3786.312   -1933.4984    -6096.628    4929.6923   -2966.6152   -13773.416    79.939873 
   27000    1337.3808   -117.02619    1.2100903    -115.8161    7133.2094    4.3099365    4.3099365    4.3099365    7133.2094    7443.8067    10103.379    3852.4427     3351.735   -4600.3681    6265.4815    80.059451 
   27100    1252.7338   -116.94907    1.1334999   -115.81557     1544.103    4.3177366    4.3177366    4.3177366     1544.103    12598.468   -9188.4454    1222.2862   -1570.9534   -282.32153    8066.7452    80.494912 
   27200    1043.9947   -116.75928   0.94462838   -115.81465    12635.689    4.3022248    4.3022248    4.3022248    12635.689    24852.126    10214.314    2840.6247   -879.64675    540.96674     1873.673    79.630476 
   27300    1212.4765   -116.91511    1.0970742   -115.81804    1009.8878    4.3106951    4.3106951    4.3106951    1009.8878   -6226.2608    1895.7158    7360.2085    1578.2652    -4241.651   -13724.492    80.101733 
   27400    1403.6257   -117.07869      1.27003   -115.80866   -6900.5018    4.3228969    4.3228969    4.3228969   -6900.5018   -9246.9374   -19159.503    7704.9351    2731.0731    3172.2889   -1712.8268    80.783865 
   27500    1335.0612   -117.01507    1.2079914   -115.80708     13407.31    4.2992184    4.2992184    4.2992184     13407.31    18415.948     17279.83    4526.1519   -9568.1984   -5587.3937    114.59245    79.463651 
   27600    926.73552   -116.65577   0.83852977   -115.81724    9061.6074    4.3089285    4.3089285    4.3089285    9061.6074    665.60421   -3858.7922     30378.01   -3738.6327   -174.30816   -3822.0855    80.003295 
   27700    1291.2995   -116.97716    1.1683949   -115.80877   -15674.743    4.3257348    4.3257348    4.3257348   -15674.743   -14632.489   -20645.351   -11746.389    2599.9641   -6384.4734    2415.8374    80.943068 
   27800    1274.0771   -116.95855    1.1528118   -115.80574    33685.533    4.2957353    4.2957353    4.2957353    33685.533    59069.662    20054.002    21932.935    5718.5485    -1241.798   -4435.7554    79.270674 
   27900    1104.3674   -116.81697   0.99925483   -115.81771    9981.2372    4.3057688    4.3057688    4.3057688    9981.2372   -1461.3115   -1316.8488    32721.872    1229.9118    -3294.975   -5319.1685    79.827423 
   28000     1221.629   -116.91587    1.1053556   -115.81051    -32319.09    4.3309981    4.3309981    4.3309981    -32319.09   -36389.155    -24992.73   -35575.383    -3142.334   -7019.1882    -84.48409    81.238888 
   28100    1307.3061   -116.98618     1.182878    -115.8033    27756.538    4.2971031    4.2971031    4.2971031    27756.538    37160.019    24153.281    21956.314    2886.6981    5194.6009   -309.87282    79.346418 
   28200    1407.4365   -117.08114    1.2734781   -115.80766    8011.3336    4.3009792    4.3009792    4.3009792    8011.3336    12506.318    3960.2047    7567.4785    6675.6089    1275.8145   -6411.9718    79.561326 
   28300    982.99678    -116.7007   0.88943614   -115.81126   -19708.334    4.3298886    4.3298886    4.3298886   -19708.334    3412.1615   -29063.563   -33473.601   -2519.9326   -4583.9103   -4720.5974    81.176471 
   28400    1186.2684   -116.88254    1.0733606   -115.80918     11970.79    4.2994412    4.2994412    4.2994412     11970.79     9806.299    16332.143    9773.9274   -3974.5882     -19315.2    4593.5828    79.476008 
   28500    1232.9279   -116.92749    1.1155791   -115.81191     23627.35    4.2953743    4.2953743    4.2953743     23627.35    20968.102    19234.015    30679.934    -2311.462    2944.2575   -3416.3983    79.250686 
   28600    1187.4148   -116.88264    1.0743979   -115.80825   -34075.849    4.3325542    4.3325542    4.3325542   -34075.849   -34561.441   -41344.878   -26321.227    5171.2204    4855.0207   -20043.444    81.326489 
   28700    1087.9683   -116.79442   0.98441662      -115.81   -1548.6467    4.3036928    4.3036928    4.3036928   -1548.6467   -19474.981    4851.0663     9977.975    10827.845    1493.6099   -5212.5146    79.712015 
   28800    1183.9417    -116.8772    1.0712553   -115.80594    23456.778    4.2916493    4.2916493    4.2916493    23456.778    29395.227    18989.766    21985.341   -4189.1463    -5228.202    5934.0631    79.044683 
   28900    1096.6405   -116.80066   0.99226335    -115.8084   -20765.509    4.3299022    4.3299022    4.3299022   -20765.509    11343.073   -34897.984   -38741.615   -3607.6144    761.69733   -10091.609    81.177234 
   29000    1068.7899   -116.77554    0.9670636   -115.80847    5806.3745    4.3074005    4.3074005    4.3074005    5806.3745    24002.893   -6506.2462   -77.523341    993.81376    5676.2283   -6294.8113     79.91821 
   29100    1257.9007   -116.94325     1.138175   -115.80507    17289.129    4.2957514    4.2957514    4.2957514    17289.129    15207.552     9950.278    26709.556    5029.1038   -10109.149   -2336.1616    79.271562 
   29200    1287.1929   -116.97274    1.1646792   -115.80806   -25818.975    4.3244406    4.3244406    4.3244406   -25818.975   -19850.464   -29266.423   -28340.039    198.26532   -3020.0478   -8498.2681    80.870441 
   29300    1146.2876   -116.84645    1.0371852   -115.80927    3885.1679    4.3076357    4.3076357    4.3076357    3885.1679   -1214.0298   -15619.884    28489.418   -4209.4442    362.81331   -2891.3157    79.931304 
   29400    1228.1413   -116.91907     1.111248   -115.80782    20124.293    4.3008636    4.3008636    4.3008636    20124.293    38239.239   -925.87795    23059.519    1089.6423    5841.1037    3487.9797    79.554913 
   29500    1082.3607   -116.79116   0.97934275   -115.81182    704.13976    4.3183463    4.3183463    4.3183463    704.13976    34853.755   -23267.623   -9473.7128    1145.3487   -4081.0443    3620.5976    80.529017 
   29600    897.55289   -116.62537   0.81212472   -115.81324    12817.068    4.3075585    4.3075585    4.3075585    12817.068    28062.022   -23920.886    34310.068   -3230.5475     78.70846   -5909.6873    79.927009 
   29700    1300.0844   -116.98674    1.1763437    -115.8104    1083.1809    4.3049181    4.3049181    4.3049181    1083.1809    15505.905   -13474.502    1218.1396    -13288.94    4174.0609   -7990.7108    79.780119 
   29800    1280.0327   -116.97095    1.1582005   -115.81275   -3975.0921    4.3158139    4.3158139    4.3158139   -3975.0921   -4378.0532   -12158.705    4611.4824   -1024.0543   -2614.0105    8635.6831     80.38743 
   29900    1174.5038   -116.87633    1.0627157   -115.81362   -2336.2194    4.3063206    4.3063206    4.3063206   -2336.2194   -7315.7491   -13228.416    13535.507    4549.4535   -5110.0958   -1562.8868    79.858118 
   30000    994.24338   -116.71588    0.8996123   -115.81627    2398.3278    4.3082313    4.3082313    4.3082313    2398.3278    24152.918   -19022.694    2064.7591    737.92392   -6298.1893   -14536.395    79.964466 
   30100    1092.1459   -116.80125   0.98819653   -115.81306    3747.3947    4.3166502    4.3166502    4.3166502    3747.3947    26641.843   -22049.264    6649.6049    2369.3534    5629.4682   -1539.5196    80.434167 
   30200    1184.4362   -116.88093    1.0717028   -115.80923    21079.014    4.3029441    4.3029441    4.3029441    21079.014    49394.126    2502.6999    11340.217    4234.5191     9129.049   -1491.2173    79.670423 
   30300    950.17405    -116.6769   0.85973745   -115.81717   -1008.1777    4.3112778    4.3112778    4.3112778   -1008.1777    19390.164   -18423.322   -3991.3753    5449.4216    1593.6153   -9709.7734    80.134224 
   30400    1010.4389   -116.72782   0.91426633   -115.81356   -14905.678    4.3145566    4.3145566    4.3145566   -14905.678   -4253.2472   -24849.025   -15614.762   -2570.9323    -14477.26   -3099.2713    80.317193 
   30500    1399.5302   -117.07205    1.2663244   -115.80572    4514.6286    4.3008949    4.3008949    4.3008949    4514.6286    3773.4571   -379.84716    10150.276   -8061.5281   -7237.0564    531.10193    79.556651 
   30600    1092.5883   -116.80298   0.98859682   -115.81438   -5972.8768    4.3181693    4.3181693    4.3181693   -5972.8768    5176.3567   -24876.163    1781.1755   -3553.2578    5142.3917   -7941.4393    80.519116 
   30700    1020.3515   -116.73825   0.92323549   -115.81501   -2445.7268    4.3094667    4.3094667    4.3094667   -2445.7268    19072.238   -18045.809   -8363.6094   -3521.7579    3502.7496   -3273.8002    80.033274 
   30800    960.73757   -116.68158   0.86929554   -115.81229     22515.15    4.3030034    4.3030034    4.3030034     22515.15    52322.578   -18060.082    33282.955   -6320.8577    927.90471    3352.7961    79.673718 
   30900    1161.0961   -116.86093    1.0505842   -115.81034   -7528.4795    4.3239314    4.3239314    4.3239314   -7528.4795    19732.342   -45068.362    2750.5809   -1258.4052    3750.2577    2227.3466    80.841877 
   31000    1185.6306   -116.87868    1.0727835    -115.8059    5562.2299    4.3076883    4.3076883    4.3076883    5562.2299    30166.134   -16712.935     3233.491   -1117.1104    2157.6761   -4860.6919     79.93423 
   31100    1105.4421    -116.8077    1.0002273   -115.80748     2598.416    4.3040218    4.3040218    4.3040218     2598.416   -5551.7681   -13266.149    26613.166   -1391.6171    -15628.21   -4365.6699    79.730295 
   31200    1204.2488   -116.89684    1.0896296   -115.80721   -19375.355     4.321106     4.321106     4.321106   -19375.355   -13515.852   -32142.331   -12467.881    6453.5553   -10682.996    843.86383    80.683508 
   31300    1147.6407   -116.84403    1.0384094   -115.80562     6843.088    4.3112222    4.3112222    4.3112222     6843.088    37490.798   -22049.215     5087.681    7992.5917    4230.8472    -7181.703    80.131121 
   31400    1033.8005   -116.74224   0.93540443   -115.80683    12858.449    4.3068392    4.3068392    4.3068392    12858.449     37512.12   -25198.889    26262.115     698.4662    1704.4731   -3626.0892    79.886974 
   31500    1015.4012   -116.72772   0.91875631   -115.80896   -1918.6539    4.3136465    4.3136465    4.3136465   -1918.6539    27702.855    -30547.87   -2910.9462   -4488.1603   -10028.569    909.87324    80.266377 
   31600    1039.8315   -116.74868   0.94086139   -115.80782   -1409.9066    4.3135741    4.3135741    4.3135741   -1409.9066    6285.8284   -33695.476    23179.928    2615.4973   -5328.1981   -3531.6215    80.262333 
   31700    1241.4227   -116.92855    1.1232653   -115.80528   -5581.4362    4.3110057    4.3110057    4.3110057   -5581.4362    1705.9706   -32637.037    14186.758    1012.3955    11637.287   -3920.6704     80.11905 
   31800    1129.6112   -116.82958     1.022096   -115.80749   -6420.9493    4.3113654    4.3113654    4.3113654   -6420.9493    887.06466   -28103.881    7953.9689   -9159.3654   -2033.4034   -4232.0285    80.139107 
   31900    895.57071   -116.62123    0.8103312    -115.8109    1852.2293    4.3097554    4.3097554    4.3097554    1852.2293    27960.687   -33248.708    10844.708   -3062.4502   -16546.698   -741.22649    80.049362 
   32000    952.07214   -116.67361   0.86145488   -115.81215    769.20067    4.3113513    4.3113513    4.3113513    769.20067    39509.718   -35072.649    -2129.467    3136.6683     -6072.75   -2562.1725    80.138318 
   32100    1105.2785   -116.80898    1.0000792    -115.8089    868.24674    4.3101166    4.3101166    4.3101166    868.24674    35347.885   -28988.099   -3755.0456    2217.3826   -5534.8249    1125.9221    80.069489 
   32200    1034.9879   -116.74701   0.93647877   -115.81054   -2279.0247    4.3091311    4.3091311    4.3091311   -2279.0247    1273.7867   -20153.098    12042.237   -275.76053   -7823.9528    2153.9331    80.014577 
   32300    1047.4186     -116.758   0.94772639   -115.81028   -20600.985    4.3134045    4.3134045    4.3134045   -20600.985   -13077.275   -33824.012   -14901.668    8189.7982    1711.2166   -1484.9548    80.252871 
   32400    975.14016   -116.69238    0.8823273   -115.81006    -3432.858    4.3092931    4.3092931    4.3092931    -3432.858    23145.528   -39799.347    6355.2444     11217.19    5795.4116   -2748.3127    80.023603 
   32500    1032.7425   -116.74378   0.93444713   -115.80934    8107.1543    4.3062415    4.3062415    4.3062415    8107.1543    38399.129     -9407.28   -4670.3857    2986.4737   -5842.3902   -3018.4442    79.853719 
   32600    791.59589   -116.52868    0.7162526   -115.81242    6216.9411    4.3119232    4.3119232    4.3119232    6216.9411    41687.644   -19418.575   -3618.2455   -6013.8905   -13315.828    2305.1367    80.170215 
   32700    857.12788   -116.58551   0.77554732   -115.80997   -17105.371    4.3141091    4.3141091    4.3141091   -17105.371    5719.4949   -48732.383   -8303.2262   -1185.3657    947.89919   -2225.0542    80.292201 
   32800    1037.1486   -116.74465   0.93843387   -115.80622   -9225.7708    4.3047162    4.3047162    4.3047162   -9225.7708    724.44678   -19638.855   -8762.9046   -3615.4322    3893.0777   -1905.5643    79.768893 
   32900     992.6224    -116.7084    0.8981456   -115.81025    2303.4634    4.3100556    4.3100556    4.3100556    2303.4634    8576.9327   -4039.8741    2373.3316   -125.53492   -9430.0768    4892.0351    80.066091 
   33000    900.96863   -116.62554   0.81521535   -115.81033   -15887.538    4.3171341    4.3171341    4.3171341   -15887.538    116.03559   -36423.957   -11354.692    355.31743   -3826.2164   -5929.0228    80.461219 
   33100    688.68231    -116.4323   0.62313423   -115.80916    10167.014    4.3017841    4.3017841    4.3017841    10167.014    46703.312    -22301.49    6099.2184    4360.9223    3418.0337   -2371.1364    79.606004 
   33200    825.06554   -116.55878   0.74653664   -115.81225   -1440.6247    4.3108013    4.3108013    4.3108013   -1440.6247    31579.375   -21557.187   -14344.062    5454.5609    5391.0548    1204.3871    80.107657 
   33300    793.96695   -116.52823   0.71839798   -115.80983    8590.1832    4.3122672    4.3122672    4.3122672    8590.1832    31384.704   -6213.9241    599.76943    3236.7521   -2875.7104   -701.20008    80.189406 
   33400    763.72806   -116.50081    0.6910372   -115.80977     1703.614    4.3066075    4.3066075    4.3066075     1703.614    3115.0937   -7283.6179    9279.3662     3258.649    1624.3625   -101.12206    79.874084 
   33500    757.03273   -116.49662   0.68497912   -115.81164   -19852.665    4.3118071    4.3118071    4.3118071   -19852.665   -13047.383   -24720.575   -21790.038   -454.20092   -888.28132   -3294.7856    80.163739 
   33600     787.4271   -116.52297   0.71248058   -115.81049   -1796.2922    4.3091713    4.3091713    4.3091713   -1796.2922    15791.394   -11253.958   -9926.3119    1223.4965   -9470.6822    2173.0525    80.016819 
   33700    694.81093   -116.43913   0.62867953   -115.81045    9594.5928    4.3116127    4.3116127    4.3116127    9594.5928    41940.501   -11142.919   -2013.8037     -8719.39   -3529.0086   -482.12885    80.152895 
   33800    638.77645    -116.3889   0.57797836   -115.81092   -78.563717    4.3094313    4.3094313    4.3094313   -78.563717     44954.02   -23858.599   -21331.112   -11450.756    8447.8466   -500.68937    80.031305 
   33900    489.99525   -116.25564     0.443358   -115.81229   -1399.2119    4.3082127    4.3082127    4.3082127   -1399.2119    37089.942   -26227.131   -15060.447   -4757.9353    6005.9673    12305.359     79.96343 
   34000    788.31492   -116.52276    0.7132839   -115.80948   -17127.538    4.3167119    4.3167119    4.3167119   -17127.538   -1.1926207   -21772.309   -29609.112    6169.7386    2572.8067     4371.756    80.437618 
   34100    859.78998   -116.58283   0.77795604   -115.80487   -10141.142    4.3118344    4.3118344    4.3118344   -10141.142   -2009.9267   -13743.907   -14669.592   -1955.4091   -107.34104   -3847.9084    80.165264 
   34200     571.5745   -116.32487   0.51717262    -115.8077   -3084.6769    4.3029523    4.3029523    4.3029523   -3084.6769    17215.867   -14508.855   -11961.043   -1026.5888   -1892.0947    7903.3788    79.670877 
   34300    398.90704   -116.17444   0.36093947    -115.8135   -11974.649    4.3140036    4.3140036    4.3140036   -11974.649    35641.778   -27493.529   -44072.197    6851.7038    6074.3181    2669.0984    80.286314 
   34400    619.11646   -116.36913   0.56018958   -115.80894   -10672.167    4.3164051    4.3164051    4.3164051   -10672.167     41362.27   -26029.294   -47349.477    3903.9775   -8109.8856    508.40257    80.420464 
   34500    503.82548   -116.26381   0.45587188   -115.80794    23943.087    4.2986167    4.2986167    4.2986167    23943.087    58213.502    14923.185   -1307.4261   -9956.0036   -6058.4286    3065.9586    79.430292 
   34600    501.39193   -116.26982   0.45366995   -115.81615    -23287.69    4.3117891    4.3117891    4.3117891    -23287.69   -9458.6212   -29072.444   -31332.004   -4042.1876    4745.5491   -951.79818    80.162736 
   34700    518.00324   -116.28168   0.46870022   -115.81298   -25378.264    4.3127898    4.3127898    4.3127898   -25378.264   -11687.203   -17733.453   -46714.136    8671.2277    7363.0524   -1458.0194    80.218562 
   34800    606.25769   -116.35749    0.5485547   -115.80893     6498.884    4.3033624    4.3033624    4.3033624     6498.884    38277.291    18593.416   -37374.054    7734.3969    4913.9446   -1406.8751    79.693658 
   34900    506.46485   -116.27086   0.45826004    -115.8126   -1475.6759    4.3120883    4.3120883    4.3120883   -1475.6759     43192.79   -15502.423   -32117.395   -6823.6617    2028.1516       354.69    80.179422 
   35000     232.5311   -116.02378   0.21039902   -115.81338    7205.5131    4.3080953    4.3080953    4.3080953    7205.5131    53481.735   -6409.8159    -25455.38    2105.3921    5946.9384    1496.8167    79.956893 
   35100    451.63373   -116.22047   0.40864769   -115.81182   -10258.139    4.3089975    4.3089975    4.3089975   -10258.139    15469.749    323.20721   -46567.374    12567.733    3590.6284   -1373.8612    80.007135 
   35200    692.70712   -116.43453   0.62677596   -115.80775   -15686.879    4.3108267    4.3108267    4.3108267   -15686.879    16526.984   -9061.8115   -54525.809   -408.39844   -6326.4837   -107.59197    80.109071 
   35300    559.74136   -116.31471   0.50646574   -115.80824   -9922.0818     4.311248     4.311248     4.311248   -9922.0818    3852.8516    7389.5916   -41008.688   -9740.8015   -5776.0047    4942.0676    80.132558 
   35400    370.55896    -116.1452   0.33528953   -115.80991   -11275.236    4.3113677    4.3113677    4.3113677   -11275.236    15849.885    -19051.65   -30623.944    3775.4992    3445.4893    121.61381    80.139232 
   35500    414.78395     -116.185   0.37530523   -115.80969   -4357.1501    4.3068656    4.3068656    4.3068656   -4357.1501    49442.083   -22129.148   -40384.385    10756.815   -2905.2074    373.48595    79.888444 
   35600    496.68553   -116.26004   0.44941151   -115.81063   -3001.5729    4.3110293    4.3110293    4.3110293   -3001.5729    40273.087    8342.5908   -57620.397   -113.70487    986.54724     3957.877    80.120364 
   35700    535.62596   -116.29387   0.48464563   -115.80923   -15716.307    4.3130838    4.3130838    4.3130838   -15716.307    12616.156   -12583.386   -47181.692    2540.8556    3218.1672   -438.80599    80.234967 
   35800    381.27911   -116.15546   0.34498935   -115.81047   -7749.7978    4.3055754    4.3055754    4.3055754   -7749.7978    2384.6588   -10481.685   -15152.367    20051.533     1939.882    1155.6214     79.81667 
   35900    546.77495   -116.30659   0.49473347   -115.81186   -8899.0118    4.3113373    4.3113373    4.3113373   -8899.0118    8294.4406    2274.0971   -37265.573    3628.9684    72.981454    -2479.021    80.137541 
   36000     578.8497   -116.33358   0.52375537   -115.80982   -13157.942    4.3154889    4.3154889    4.3154889   -13157.942    18507.162   -1468.8689    -56512.12   -7812.5894   -3306.3945   -4260.8514    80.369269 
   36100    375.82714   -116.14813    0.3400563   -115.80807    9930.9708    4.2980652    4.2980652    4.2980652    9930.9708    50442.341    7350.5237   -27999.952   -189.89047   -3262.6782    535.67876    79.399728 
   36200    261.69649    -116.0559   0.23678849   -115.81911   -1744.6199    4.3113333    4.3113333    4.3113333   -1744.6199    35771.073   -25981.755   -15023.178    12039.481    -2998.091   -2481.2876    80.137317 
   36300    578.44563   -116.33407   0.52338976   -115.81068   -16047.849     4.317188     4.317188     4.317188   -16047.849    11744.126   -24010.284    -35877.39    -536.7646   -7713.6064    4311.4665    80.464236 
   36400    697.73303   -116.43522   0.63132351    -115.8039    3874.2832    4.2951906    4.2951906    4.2951906    3874.2832    28256.457    12778.391   -29411.999    1323.4899   -4137.2976    1009.3769    79.240521 
   36500    449.08272    -116.2222   0.40633948   -115.81586   -23214.436     4.311559     4.311559     4.311559   -23214.436   -3054.5957   -36456.467   -30132.245    14981.432      2615.48   -1938.6602    80.149901 
   36600    419.78328   -116.19201   0.37982874   -115.81218   -14018.754     4.314483     4.314483     4.314483   -14018.754    12893.194   -30289.601   -24659.856     9094.469    2126.1493    5498.6174    80.313082 
   36700    612.24335    -116.3598   0.55397065   -115.80583    14295.693    4.2987133    4.2987133    4.2987133    14295.693    57042.626    6688.8145   -20844.362   -3858.7942    2566.4476     144.5404     79.43565 
   36800    549.17912   -116.30729   0.49690881   -115.81038   -10323.409    4.3102455    4.3102455    4.3102455   -10323.409    15062.396   -6325.4019   -39707.222   -673.39207   -1257.9949    3070.3382    80.076674 
   36900    328.90154   -116.10996   0.29759702   -115.81236   -10842.362       4.3115       4.3115       4.3115   -10842.362    27115.261   -18683.038   -40959.308     14016.68    -678.9183    1765.6924     80.14661 
   37000    575.58483   -116.33181   0.52080125   -115.81101    1406.2644    4.3013536    4.3013536    4.3013536    1406.2644    8051.4708    -6313.109    2480.4313    715.24501    690.13478   -2846.3439    79.582111 
   37100    681.59804   -116.42717   0.61672423   -115.81045   -4874.4113    4.3089432    4.3089432    4.3089432   -4874.4113    18239.228   -798.78521   -32063.677    580.76424   -5383.9816    909.70054    80.004109 
   37200    465.80113   -116.23309   0.42146665   -115.81162   -20664.379    4.3146041    4.3146041    4.3146041   -20664.379    13393.506    -22245.26   -53141.382    16500.127   -1309.9839   -2040.8322    80.319843 
   37300    382.17283   -116.15741   0.34579801   -115.81161   -4693.2868     4.302527     4.302527     4.302527   -4693.2868    28866.026   -26410.261   -16535.626    16623.986    469.12755    2846.8897    79.647256 
   37400    549.13042   -116.30754   0.49686475   -115.81068    11759.663    4.3032799    4.3032799    4.3032799    11759.663    36561.588   -8103.6913    6821.0924   -2738.3057   -1375.1618    590.18681    79.689074 
   37500    691.59822   -116.43533   0.62577261   -115.80956   -18397.869    4.3153421    4.3153421    4.3153421   -18397.869    12235.466    -21865.21   -45563.863    946.68226    8536.4582    -5652.199    80.361065 
   37600    343.02387   -116.12268   0.31037521    -115.8123   -11545.119    4.3053939    4.3053939    4.3053939   -11545.119    5875.4534    -20563.84   -19946.969    18836.532    1093.9619      384.526    79.806577 
   37700    659.65626   -116.40796   0.59687085   -115.81109   -2605.9986     4.297682     4.297682     4.297682   -2605.9986    14030.396   -11739.909   -10108.482    82.200233   -1104.2063   -2156.5927    79.378489 
   37800    588.72028   -116.34389   0.53268648    -115.8112   -1860.7245    4.3154952    4.3154952    4.3154952   -1860.7245    25415.277   -21449.628   -9547.8224   -8590.6482   -2771.1729   -345.49442    80.369619 
   37900     561.3159   -116.31871   0.50789042   -115.81082   -18255.896    4.3099801    4.3099801    4.3099801   -18255.896    9992.4313   -22379.184   -42380.936    12043.224   -5219.5311     1553.596    80.061884 
   38000    341.27919   -116.11883   0.30879659   -115.81003    7412.2125    4.2943494    4.2943494    4.2943494    7412.2125    44951.619   -2491.0971   -20223.885    17225.469    1507.2531    2537.1477    79.193974 
   38100    620.90058    -116.3756   0.56180389    -115.8138   -5179.3422    4.3117864    4.3117864    4.3117864   -5179.3422    13319.441   -20411.814   -8445.6533   -899.72829     -5043.53    3798.2475    80.162585 
   38200    650.07138   -116.39756   0.58819824   -115.80936   -7279.6059    4.3123444    4.3123444    4.3123444   -7279.6059     1934.949   -10250.881   -13522.886   -1994.0266    1499.5151   -2001.6348    80.193713 
   38300    393.13615    -116.1645   0.35571785   -115.80879   -1457.8722    4.2991154    4.2991154    4.2991154   -1457.8722    15465.511    3350.9128   -23190.041    17436.854    2974.2618     2884.581    79.457941 
   38400     586.9832   -116.34504   0.53111473   -115.81392   -17688.117     4.309231     4.309231     4.309231   -17688.117    478.47283   -15800.082   -37742.743    5454.1363    2243.7623   -461.69239    80.020144 
   38500    572.37884   -116.32922    0.5179004   -115.81132    3452.4955    4.3124643    4.3124643    4.3124643    3452.4955    17772.002   -5118.8583   -2295.6573   -9549.2072    3185.0009   -3969.6073    80.200402 
   38600    569.61438   -116.32533   0.51539906   -115.80993   -9005.3607    4.3072169    4.3072169    4.3072169   -9005.3607     23691.26   -22341.894   -28365.449    3458.3076   -8288.7186   -261.78244    79.907995 
   38700    309.03646   -116.09253   0.27962268   -115.81291   -6669.1255    4.3064339    4.3064339    4.3064339   -6669.1255    31898.689    -26841.68   -25064.386    15380.228   -5703.0714    -2188.038    79.864422 
   38800    542.06742   -116.30145   0.49047399   -115.81098   -2502.6806    4.3083906    4.3083906    4.3083906   -2502.6806    18059.684   -14279.813   -11287.913   -674.27561   -5219.3299   -1064.8186    79.973336 
   38900    678.71464   -116.42247   0.61411527   -115.80835   -7436.0779    4.3106293    4.3106293    4.3106293   -7436.0779    10231.308   -27902.253   -4637.2884    -3690.039   -143.32309   -2412.7351    80.098065 
   39000    401.43636   -116.17422   0.36322806     -115.811   -10597.198     4.307992     4.307992     4.307992   -10597.198    3486.1192   -35078.032   -199.68175    18568.956    557.44507    1692.7937    79.951141 
   39100    517.54327      -116.28   0.46828403   -115.81172   -12024.713    4.3064673    4.3064673    4.3064673   -12024.713   -8216.0286   -1376.6126   -26481.498    4839.2569   -3535.3871    8149.4294    79.866279 
   39200    622.37203   -116.37256   0.56313529   -115.80943   -6622.9417    4.3140665    4.3140665    4.3140665   -6622.9417    9459.7492   -2695.8829   -26632.691   -7980.0117    1514.5279    822.78706    80.289825 
   39300     635.9235   -116.38249   0.57539695   -115.80709   -11293.082    4.3095608    4.3095608    4.3095608   -11293.082    12891.759    -21549.04   -25221.967    2004.0161    3962.1325    -3559.777    80.038517 
   39400    401.22398   -116.17232   0.36303589   -115.80928   -2854.2147    4.3024531    4.3024531    4.3024531   -2854.2147     22533.68   -9163.7965   -21932.528    8230.6347   -1985.1086   -2222.8051    79.643153 
   39500    463.76058   -116.23258   0.41962032   -115.81296   -5193.3903    4.3147982    4.3147982    4.3147982   -5193.3903    17143.657   -7899.9766   -24823.852    4123.2148    -5619.784   -301.32829    80.330683 
   39600    751.66224   -116.48724   0.68011979   -115.80712    -2112.256    4.3086629    4.3086629    4.3086629    -2112.256    18240.076   -8409.6645    -16167.18    -7391.534   -6613.0652   -2735.6364      79.9885 
   39700    335.26848   -116.11303   0.30335797   -115.80967    14079.553    4.2984147    4.2984147    4.2984147    14079.553    28732.091   -5920.6557    19427.225    9219.6301   -6668.4423    3383.9509    79.419097 
   39800    427.86122   -116.20304   0.38713782   -115.81591   -20788.213    4.3174895    4.3174895    4.3174895   -20788.213   -4703.4715   -32814.485   -24846.683    10652.589   -6409.0528    1448.1566    80.481094 
   39900    620.88602   -116.37015   0.56179071   -115.80835    -1743.489    4.3106611    4.3106611    4.3106611    -1743.489    3329.7663    6935.7649   -15495.998    -2022.158   -736.47571    1945.4854    80.099841 
   40000    686.47754   -116.42552   0.62113931   -115.80438    5997.3431    4.2976438    4.2976438    4.2976438    5997.3431    20381.417    14324.008   -16713.396    5685.9527    1523.4267    6138.7933    79.376372 
   40100    325.08835   -116.10829   0.29414677   -115.81414    -27237.46    4.3147816    4.3147816    4.3147816    -27237.46   -8388.3022   -33290.643   -40033.435    12637.352   -5128.2785   -4904.7216    80.329755 
   40200    475.90618   -116.24207   0.43060992   -115.81146   -9762.9414    4.3075814    4.3075814    4.3075814   -9762.9414   -1437.4436   -10116.402   -17734.979    7773.9696   -3852.6964   -1097.4265    79.928283 
   40300    672.08406   -116.41504   0.60811578   -115.80692    14595.739    4.3027271    4.3027271    4.3027271    14595.739    18245.077    24242.701    1299.4395    -4588.459    3439.9016   -3829.2099     79.65837 
   40400    524.26801   -116.28479   0.47436872   -115.81042   -20415.795    4.3139934    4.3139934    4.3139934   -20415.795   -4939.1486   -32605.187   -23703.049     280.0692    1065.8056   -5839.7436     80.28574 
   40500    379.48691   -116.15487   0.34336773   -115.81151   -11138.586    4.3031136    4.3031136    4.3031136   -11138.586    5183.8523   -19744.364   -18855.245    12638.356   -10824.016    780.60304    79.679835 
   40600    648.04587   -116.39857   0.58636552   -115.81221    5111.8903    4.3045811    4.3045811    4.3045811    5111.8903    14038.423   -2092.3695    3389.6172   -3316.8404   -8747.0075   -2290.3634    79.761382 
   40700    749.08291   -116.48646   0.67778596   -115.80867   -14275.873    4.3142206    4.3142206    4.3142206   -14275.873    3583.3388   -3899.8258   -42511.133   -723.79494    1638.0895    4515.7816     80.29843 
   40800    475.06365   -116.24092   0.42984757   -115.81107   -9862.5411    4.3023724    4.3023724    4.3023724   -9862.5411    10874.861    -22325.33   -18137.154    14529.866    1830.3217    2856.5498    79.638669 
   40900     372.7969   -116.15246   0.33731447   -115.81514   -48.771517    4.3047759    4.3047759    4.3047759   -48.771517    8913.6882   -9486.6923    426.68952    3504.2087   -12263.016   -1653.1166    79.772213 
   41000    717.52606   -116.45841   0.64923266   -115.80918     -5995.68    4.3121958    4.3121958    4.3121958     -5995.68    587.87733    -5806.819   -12768.098   -1368.3309   -3633.3568    122.82461    80.185423 
   41100    466.57618   -116.23208   0.42216793   -115.80991    5011.8622    4.3045013    4.3045013    4.3045013    5011.8622    16263.027    16116.881    -17344.32    5326.0644      7087.13   -4986.6113    79.756948 
   41200    492.28462   -116.25797   0.44542947   -115.81254   -15782.563    4.3062031    4.3062031    4.3062031   -15782.563    747.28568   -11202.327   -36892.646    12885.011    1495.1731   -2095.5018    79.851583 
   41300    505.00891   -116.26868   0.45694267   -115.81174   -4617.1694    4.3079527    4.3079527    4.3079527   -4617.1694    5704.0681   -8732.5102   -10823.066    5175.7786   -10764.078   -5943.6668    79.948951 
   41400    720.57577    -116.4603    0.6519921   -115.80831   -192.88488    4.3044925    4.3044925    4.3044925   -192.88488    9377.2604    11740.832   -21696.747   -6399.2741   -4667.7901   -486.32068    79.756459 
   41500    539.79254   -116.29867   0.48841564   -115.81026   -14125.312    4.3108252    4.3108252    4.3108252   -14125.312   -963.44013    -5885.495   -35527.001    6550.4436   -1050.1788    4489.7399    80.108984 
   41600    495.01556   -116.25809   0.44790049   -115.81019   -15038.704    4.3064939    4.3064939    4.3064939   -15038.704    391.83862   -13347.525   -32160.427    5207.0201   -15903.554   -5350.4237    79.867758 
   41700     613.4121   -116.36315   0.55502816   -115.80812    8997.3606    4.3001265    4.3001265    4.3001265    8997.3606    10987.158   -812.91854    16817.842   -1541.5179   -7778.5204    2191.2734    79.514019 
   41800    729.89924   -116.47131   0.66042817   -115.81088   -11869.654    4.3111188    4.3111188    4.3111188   -11869.654     415.1638   -8995.6303   -27028.495    3674.2648    5876.3263   -2898.4256    80.125357 
   41900    581.19993   -116.33828   0.52588191    -115.8124   -11511.613    4.3062641    4.3062641    4.3062641   -11511.613    7411.0668   -1601.6854   -40344.222    2921.6123   -5425.0662   -927.42855    79.854974 
   42000    626.46758   -116.37907   0.56684103   -115.81222    2325.4848    4.3003559    4.3003559    4.3003559    2325.4848    15334.514   -1239.4465   -7118.6136   -2107.1798   -12622.547    1957.5388    79.526742 
   42100    804.99354   -116.53944   0.72837508   -115.81106   -9704.8145     4.312047     4.312047     4.312047   -9704.8145    3269.5678   -13439.497   -18944.514   -9143.9868   -912.43838   -2657.7897    80.177121 
   42200    685.33619   -116.42896   0.62010658   -115.80885   -6482.9773    4.3099988    4.3099988    4.3099988   -6482.9773    16012.402   -9959.0122   -25502.322    1559.7815    8106.3876    3196.6585    80.062922 
   42300    637.55007   -116.38522    0.5768687   -115.80835    3135.3164    4.3005438    4.3005438    4.3005438    3135.3164      16986.7    14482.412   -22063.163    12046.619   -12277.834    369.99081    79.537167 
   42400    720.55405   -116.46227   0.65197244    -115.8103    708.75448    4.3060127    4.3060127    4.3060127    708.75448    16818.347    27.086535    -14719.17    -1793.015   -15829.049    2088.3609    79.840993 
   42500    720.81802   -116.46247   0.65221129   -115.81026   -5206.2101    4.3107942    4.3107942    4.3107942   -5206.2101     18168.64   -19326.782   -14460.488   -4392.3754    2588.4399    8372.6451    80.107258 
   42600    803.28742   -116.53589   0.72683133   -115.80906    -8985.744    4.3038456    4.3038456    4.3038456    -8985.744    10650.196   -2392.3564   -35215.072    8951.5558    1930.6287   -1040.6976    79.720508 
   42700     639.3959   -116.39103   0.57853885   -115.81249    3301.2021    4.3021715    4.3021715    4.3021715    3301.2021    14500.992     19555.11   -24152.496    6944.9117   -9756.5321   -3231.2255    79.627514 
   42800    819.13173   -116.55378    0.7411676   -115.81261   -9206.5067    4.3086696    4.3086696    4.3086696   -9206.5067   -963.52849   -11768.343   -14887.648   -2807.4859   -3232.1006     469.0897    79.988874 
   42900    795.78486   -116.53181   0.72004286   -115.81177   -8342.7533    4.3062119    4.3062119    4.3062119   -8342.7533   -2938.2385   -13183.703    -8906.318   -6389.9582    3781.2521    251.33227    79.852074 
   43000    764.77296   -116.50445   0.69198265   -115.81246   -3301.4492    4.3029146    4.3029146    4.3029146   -3301.4492   -5336.5833    5607.4212   -10175.186     4067.505   -5875.0262    700.58391    79.668783 
   43100    865.35028   -116.59569   0.78298712    -115.8127   -5454.8863    4.3075571    4.3075571    4.3075571   -5454.8863   -5635.5543    10559.045    -21288.15    1442.1027   -14866.913   -710.24915    79.926932 
   43200    896.36921   -116.62182    0.8110537   -115.81076   -6144.9587    4.3079611    4.3079611    4.3079611   -6144.9587   -5872.5398   -9726.3796   -2835.9568   -8792.3029   -207.91211    2045.2591    79.949423 
   43300     868.2929   -116.59609   0.78564967   -115.81044   -7672.9605    4.3058649    4.3058649    4.3058649   -7672.9605    3006.2729   -5838.5208   -20186.634    11284.443    2339.1328    4555.6026    79.832769 
   43400    889.09344   -116.61582   0.80447043   -115.81134   -3136.3411    4.3057854    4.3057854    4.3057854   -3136.3411   -1085.9866    8790.6755   -17113.712    11536.923   -9522.7358   -2198.3365    79.828348 
   43500    854.88726   -116.58541   0.77351996   -115.81189    8746.4991     4.306214     4.306214     4.306214    8746.4991     13009.69    17593.508   -4363.7007   -8162.3441   -4580.3943   -854.43988     79.85219 
   43600    1020.7958   -116.73401   0.92363754   -115.81037   -5201.6362    4.3078102    4.3078102    4.3078102   -5201.6362    4658.5128   -5441.5884   -14821.833   -3182.0888     4776.662   -516.82553    79.941018 
   43700    901.36822   -116.62628    0.8155769   -115.81071    2533.6882    4.3067556    4.3067556    4.3067556    2533.6882    10986.068   -9419.6155    6034.6121     6360.636    933.01071   -3470.4839     79.88232 
   43800    999.42536   -116.71491   0.90430107   -115.81061    4174.7329    4.3061412    4.3061412    4.3061412    4174.7329    8170.0912    14420.792   -10066.685    6261.5868   -10750.775    1798.3305    79.848137 
   43900    1041.1108   -116.75226    0.9420189   -115.81024   -891.72696    4.3079089    4.3079089    4.3079089   -891.72696    13210.742    8219.6918   -24105.615   -10239.587   -7579.8362    1963.4528    79.946514 
   44000    1008.9153   -116.72311   0.91288772   -115.81022    -992.2012    4.3052142    4.3052142    4.3052142    -992.2012    14237.854   -10333.708   -6880.7497   -5102.1951    1920.5216     4533.049     79.79658 
   44100    1095.6672   -116.80303   0.99138268   -115.81164   -1564.7529    4.3038753    4.3038753    4.3038753   -1564.7529    3560.4275   -2091.4995   -6163.1868    17344.872   -948.48847   -410.75272    79.722156 
   44200    966.80311   -116.68906   0.87478377   -115.81427    5872.5536    4.3071168    4.3071168    4.3071168    5872.5536    7631.5446    28388.804   -18402.688    2935.9801   -10329.404   -818.01336    79.902424 
   44300    1160.3248   -116.86342    1.0498863   -115.81354   -4659.3159    4.3043318    4.3043318    4.3043318   -4659.3159    1033.9988    1452.3787   -16464.325   -4331.1932    4.9031342    3766.0482    79.747528 
   44400    1090.1866   -116.80003   0.98642375    -115.8136    3031.7314    4.3028381    4.3028381    4.3028381    3031.7314   -3856.3478    8341.7434    4609.7987   -264.61179   -7.9210916   -539.75875    79.664534 
   44500    1129.8043   -116.83591    1.0222706   -115.81363   -8579.6999    4.3108522    4.3108522    4.3108522   -8579.6999   -19439.928   -8444.1763     2145.005    4406.6499   -9569.3112   -2151.6299    80.110494 
   44600    1175.9365   -116.87457    1.0640121   -115.81056    1275.3767    4.3039365    4.3039365    4.3039365    1275.3767   -1956.3808    15697.375   -9914.8638   -3250.5466   -5558.7812   -745.91593    79.725556 
   44700    1258.3207    -116.9484    1.1385551   -115.80984    1678.8122    4.3006367    4.3006367    4.3006367    1678.8122   -8338.0735    232.81666    13141.694   -7023.4014    2415.4724    362.73558    79.542324 
   44800    1127.4214   -116.83282    1.0201146   -115.81271   -5775.4711    4.3108685    4.3108685    4.3108685   -5775.4711   -8716.8769   -13140.836    4531.2992    16427.705    3665.3708     1824.925    80.111399 
   44900    1278.1119    -116.9671    1.1564625   -115.81064    608.52301    4.3039416    4.3039416    4.3039416    608.52301   -4892.2449    695.97002    6021.8439    4853.8113   -10548.702    1104.8618    79.725839 
   45000    1227.6328   -116.92202    1.1107879   -115.81124      17693.9     4.300465     4.300465     4.300465      17693.9    18170.288    23666.041    11245.372   -10891.034   -13093.839    2256.8074    79.532798 
   45100    1330.8007   -117.01647    1.2041365   -115.81233   -2872.1821    4.3095544    4.3095544    4.3095544   -2872.1821   -842.70519   -11218.447    3444.6062    10438.678    4052.6465    1368.2224    80.038161 
   45200    1183.7435   -116.88413     1.071076   -115.81305    7356.6101    4.3058728    4.3058728    4.3058728    7356.6101    11898.021    335.84094    9835.9681    12948.293   -171.84097   -1261.3521    79.833207 
   45300    1339.7379   -117.02334     1.212223   -115.81112    11247.862    4.3017815    4.3017815    4.3017815    11247.862    9531.8306    8738.3834    15473.372   -789.98615   -6546.2651   -1827.6543    79.605863 
   45400    1342.4117   -117.02602    1.2146423   -115.81137    4786.9474    4.3077626    4.3077626    4.3077626    4786.9474     8012.109    10993.643   -4644.9098     -6422.12   -4658.4888   -928.60776    79.938368 
   45500    1253.5631    -116.9456    1.1342502   -115.81135    3388.7979    4.3055972    4.3055972    4.3055972    3388.7979    6451.6835   -14349.382    18064.093    7850.1743   -2235.0473    1164.0516    79.817882 
   45600    1291.0542   -116.97971    1.1681729   -115.81153    1377.7132    4.3025828    4.3025828    4.3025828    1377.7132   -5510.2576    1807.9225    7835.4748    15292.474   -4714.4373    1178.2318    79.650353 
   45700    1350.4239    -117.0337    1.2218919   -115.81181    717.51369     4.305599     4.305599     4.305599    717.51369    4361.8239    9219.8329   -11429.116   -4172.1782   -14355.691   -299.61218     79.81798 
   45800    1326.2466   -117.01184    1.2000158   -115.81183     1288.664    4.3052849    4.3052849    4.3052849     1288.664   -5597.6442    -124.9478    9588.5838    3964.4149    4489.9149   -3113.0463    79.800511 
   45900    1274.6985   -116.96626     1.153374   -115.81289   -6191.2263    4.3046113    4.3046113    4.3046113   -6191.2263   -8124.4714   -14962.368    4513.1609    13840.961   -2992.6585   -1301.1828    79.763062 
   46000    1280.7173   -116.97194    1.1588199   -115.81312    998.82277    4.3036537    4.3036537    4.3036537    998.82277   -9712.5874    13785.491   -1076.4354   -1710.4084   -22635.727    3413.2137    79.709845 
   46100    1408.7174   -117.08654    1.2746371    -115.8119   -2117.7741    4.3074795    4.3074795    4.3074795   -2117.7741    3950.1808   -773.21051   -9530.2926     3724.676   -3394.8222     6047.764    79.922608 
   46200    1269.9339   -116.96223    1.1490629   -115.81317    2414.2137    4.3041238    4.3041238    4.3041238    2414.2137   -12508.557    380.91892    19370.279    12068.152    7036.5665    454.09195    79.735964 
   46300      1213.41   -116.91322    1.0979188    -115.8153    7404.8959    4.3004374    4.3004374    4.3004374    7404.8959    7728.3102    6364.2581    8122.1193    2511.0366   -3228.5186   -7848.1285    79.531266 
   46400    1353.2994   -117.03824    1.2244937   -115.81375    4477.0428    4.3080523    4.3080523    4.3080523    4477.0428    7115.3066    14185.396   -7869.5745   -4852.4992   -13784.309    -3070.828    79.954497 
   46500    1347.8867   -117.03101    1.2195962   -115.81141    8543.7515    4.3058426    4.3058426    4.3058426    8543.7515    16550.575    2205.5436    6875.1355    1639.3335   -3254.9594    791.80752     79.83153 
   46600    1154.1646   -116.85704    1.0443123   -115.81272    12694.643    4.3017237    4.3017237    4.3017237    12694.643    8950.5592    13826.119     15307.25    11163.514    8687.5422    3796.1896    79.602651 
   46700    1288.1222   -116.97833      1.16552   -115.81281   -2111.0507    4.3069525    4.3069525    4.3069525   -2111.0507   -4919.9268   -4146.5852    2733.3598    2245.1502   -8103.1996    111.16879    79.893279 
   46800    1269.8298   -116.95997    1.1489687     -115.811    12864.951    4.3050182    4.3050182    4.3050182    12864.951    18371.725    20696.898   -473.77016   -3120.8387   -4469.2247   -2795.4727    79.785686 
   46900    1322.9522   -117.00864     1.197035   -115.81161    209.75048    4.3031272    4.3031272    4.3031272    209.75048   -2186.1675    4628.4527   -1813.0338    7716.0729    578.26587   -530.84569    79.680593 
   47000    962.09226    -116.6867    0.8705213   -115.81618     3342.969     4.305866     4.305866     4.305866     3342.969   -10175.232   -117.13774    20321.277    7594.6619    -2886.743   -1222.8544    79.832831 
   47100    1284.2065   -116.97406     1.161977   -115.81208   -2155.1204    4.3047434    4.3047434    4.3047434   -2155.1204   -10287.341    14084.533   -10262.552    -1594.013   -505.27535    5202.7903    79.770405 
   47200    1185.1947   -116.88306    1.0723891   -115.81067    9810.1486    4.3049852    4.3049852    4.3049852    9810.1486    11051.208    22063.708   -3684.4705    259.45029    3943.3131    2130.2474    79.783849 
   47300    1055.1808   -116.76765   0.95474972    -115.8129   -2585.1672    4.3060251    4.3060251    4.3060251   -2585.1672   -16931.075    619.82287    8555.7501    5944.8514    4778.3219   -6130.2833    79.841682 
   47400    993.56454   -116.71275   0.89899808   -115.81376    3068.4681    4.3042084    4.3042084    4.3042084    3068.4681   -7158.3564    11544.391    4819.3699    2670.4878   -8383.8691    -7961.632    79.740667 
   47500    1229.1625   -116.92291     1.112172   -115.81074    2544.9735    4.3053908    4.3053908    4.3053908    2544.9735   -5202.3126    13646.639   -809.40588    997.49464   -8757.1296    1741.4233    79.806405 
   47600    1024.6993   -116.73935   0.92716945   -115.81218    6437.2086    4.3041061    4.3041061    4.3041061    6437.2086    10109.195    13819.006    -4616.575    7230.2425    8626.0179    10497.943     79.73498 
   47700    899.95991   -116.62966   0.81430264   -115.81536   -1314.6197    4.3041396    4.3041396    4.3041396   -1314.6197   -5522.3799    3376.7455   -1798.2248    8284.3446    730.96936   -3376.4024    79.736848 
   47800    979.40372   -116.69952   0.88618507   -115.81333   -896.84545    4.3079638    4.3079638    4.3079638   -896.84545   -15451.046     4500.444    8260.0652    -5431.075   -5363.6186   -4516.3023    79.949569 
   47900    1029.8307   -116.74338   0.93181248   -115.81157    5101.6459    4.3027652    4.3027652    4.3027652    5101.6459    2570.1738    31044.661   -18309.897   -5750.6837   -839.32138    4645.6915    79.660486 
   48000    844.79389   -116.57821   0.76438727   -115.81382    2515.4205    4.3015817    4.3015817    4.3015817    2515.4205     13555.15    10822.736   -16831.625    6764.0078    3362.3344    6375.7283    79.594771 
   48100    814.74717   -116.55261   0.73720036   -115.81541   -11811.373     4.311846     4.311846     4.311846   -11811.373   -31421.292    9468.4126   -13481.241   -1232.1694    7639.2026   -4644.0132    80.165909 
   48200    1009.5629   -116.72452   0.91347371   -115.81104   -4061.9779    4.3037481    4.3037481    4.3037481   -4061.9779   -4315.6068     2709.699   -10580.026   -1445.4382   -1589.0424    -2360.885    79.715087 
   48300    839.96088   -116.57182   0.76001426    -115.8118    3110.8731    4.2985172    4.2985172    4.2985172    3110.8731    1311.0568    28585.542   -20563.979   -749.95405    2569.4849    15858.344    79.424776 
   48400    711.15113   -116.45989   0.64346449   -115.81642   -14820.841    4.3111487    4.3111487    4.3111487   -14820.841    -16547.59   -1046.5185   -26868.414    6164.0468    1519.6203    416.47683    80.127022 
   48500    859.86146   -116.58866   0.77802072   -115.81064    -11597.28    4.3081382    4.3081382    4.3081382    -11597.28   -20929.394   -1400.5956   -12461.849    9224.0186   -6745.4097    -3067.115     79.95928 
   48600    706.06095   -116.44843   0.63885878   -115.80957    8563.8754    4.2985352    4.2985352    4.2985352    8563.8754    21.002705    27441.482   -1770.8586   -3621.6666    5273.9037    10507.653    79.425775 
   48700    744.98324    -116.4867   0.67407649   -115.81262    -13314.98    4.3073834    4.3073834    4.3073834    -13314.98   -19255.849   -1385.1225   -19303.967    4920.1013    3377.5337    7051.2717    79.917263 
   48800    636.27872   -116.38823   0.57571836   -115.81251   -3080.4301    4.3106122    4.3106122    4.3106122   -3080.4301   -7729.7102    4613.1619    -6124.742    6077.4679   -78.123279   -3785.7887    80.097112 
   48900    870.40378   -116.59647   0.78755963   -115.80891    5576.8538    4.2988524    4.2988524    4.2988524    5576.8538    5102.9202    -442.0256    12069.667   -2520.8141   -481.61317   -1484.5533    79.443361 
   49000    590.32336   -116.34643   0.53413699   -115.81229    2691.5931    4.3051567    4.3051567    4.3051567    2691.5931   -10868.009    23622.617    -4679.829     3434.496   -3393.7002     17783.55    79.793384 
   49100    761.83317    -116.5004   0.68932266   -115.81108   -21045.054    4.3146227    4.3146227    4.3146227   -21045.054   -26123.854   -13916.271   -23095.038    1484.2365    10137.366    512.01603    80.320883 
   49200    759.44982   -116.49434   0.68716616   -115.80717    8655.6242    4.3015328    4.3015328    4.3015328    8655.6242    12970.588    10167.764    2828.5208    2876.4218    1752.3028   -5857.8987    79.592053 
   49300    612.86406    -116.3649   0.55453228   -115.81037    8267.1453     4.303156     4.303156     4.303156    8267.1453   -7435.1238    11759.518    20477.041    6.2947735   -2350.1448    15361.783    79.682191 
   49400     536.3005   -116.29892   0.48525596   -115.81366    -19636.38    4.3138388    4.3138388    4.3138388    -19636.38   -19799.771    -7142.283   -31967.087   -2048.6634    1721.3878    12772.917    80.277111 
   49500    721.44055   -116.46099   0.65277457   -115.80822   -925.79328     4.300282     4.300282     4.300282   -925.79328   -12157.609    18016.361   -8636.1326      6549.75   -3333.3061   -3.6135715    79.522642 
   49600    652.58564   -116.40269    0.5904732   -115.81222    2469.1895    4.3037201    4.3037201    4.3037201    2469.1895    3238.2831   -4018.3499    8187.6352    660.49672    2523.5294    4211.6814    79.713533 
   49700    528.26629   -116.29259   0.47798644    -115.8146   -23148.917    4.3124597    4.3124597    4.3124597   -23148.917   -6049.1965   -22857.646    -40539.91    1484.1375   -40.219989    22702.551    80.200143 
   49800    628.52131   -116.37737   0.56869929   -115.80867   -4796.2676     4.299746     4.299746     4.299746   -4796.2676   -12286.003    14519.114   -16621.913    2476.9428   -742.76276    2410.2518    79.492912 
   49900     745.8232   -116.48484    0.6748365   -115.81001   -15845.659     4.310954     4.310954     4.310954   -15845.659   -20613.602    -14269.02   -12654.355    186.06946    2656.9485   -2080.0468    80.116166 
   50000    362.78151    -116.1399   0.32825233   -115.81165   -3019.5035    4.3101941    4.3101941    4.3101941   -3019.5035    10289.181   -22933.499    3585.8074    3425.3762    -2665.297    22093.271    80.073809 
   50100     553.1627   -116.31037   0.50051324   -115.80985    1520.6903    4.2952572    4.2952572    4.2952572    1520.6903    4621.4406    3530.0982   -3589.4678   -4369.5365    7806.0539    13233.343    79.244207 
   50200    664.45683   -116.41396   0.60121451   -115.81274   -9546.0921    4.3124898    4.3124898    4.3124898   -9546.0921   -19293.889    6359.2158   -15703.604    252.63354    4657.2314   -3549.8096    80.201825 
   50300      530.778   -116.28936   0.48025909    -115.8091   -2451.0612    4.3124747    4.3124747    4.3124747   -2451.0612   -6546.9813   -8313.3886    7507.1862   -5036.9035   -2592.6933    9705.2411     80.20098 
   50400    491.70677   -116.25298   0.44490662   -115.80807    4952.3708    4.2976751    4.2976751    4.2976751    4952.3708    15182.582    5420.6783   -5746.1477   -6033.8957   -5466.8107    15315.337    79.378105 
   50500    549.75337   -116.30922    0.4974284   -115.81179   -6034.5492    4.3109407    4.3109407    4.3109407   -6034.5492    -16142.38    9948.5943   -11909.862    65.536292   -4143.8861   -7534.6805    80.115428 
   50600    823.49948   -116.55131   0.74511964   -115.80619   -15679.107    4.3145829    4.3145829    4.3145829   -15679.107   -31588.412   -1591.2382    -13857.67   -1433.7979    3545.3827   -6458.7599    80.318663 
   50700    414.29035   -116.18364   0.37485861   -115.80878    4897.6569    4.3026107    4.3026107    4.3026107    4897.6569   -3302.5272    5192.0359    12803.462    904.96974    -2417.097    15078.145    79.651903 
   50800    643.29337   -116.39176   0.58206536    -115.8097   -15683.283    4.3046748    4.3046748    4.3046748   -15683.283    -8172.597   -17326.466   -21550.787   -412.92461   -5222.2826     10900.93    79.766594 
   50900    825.30807   -116.55394   0.74675609   -115.80718   -17886.328    4.3131083    4.3131083    4.3131083   -17886.328    -35845.79   -837.41935   -16975.774    4540.8665    4128.1836   -4370.8792    80.236334 
   51000    729.04551   -116.46607    0.6596557   -115.80641   -16003.515     4.310159     4.310159     4.310159   -16003.515   -30796.546   -7722.4494   -9491.5506   -318.22437   -2379.8828     7803.691    80.071853 
   51100    466.84505   -116.23198   0.42241121   -115.80956    4701.6868    4.2993615    4.2993615    4.2993615    4701.6868    5323.5879   -1889.3836    10670.856   -3885.2945    2797.3538    18493.606    79.471585 
   51200    671.89623   -116.42024   0.60794583   -115.81229   -9458.8759    4.3098656    4.3098656    4.3098656   -9458.8759   -26178.648    2738.9178   -4936.8979    4411.5812    974.36154    1543.9203      80.0555 
   51300    756.90051   -116.49177   0.68485949   -115.80691   -13162.681    4.3142615    4.3142615    4.3142615   -13162.681   -35668.968    7586.2004   -11405.276   -4480.9979   -2425.2009   -6377.3958    80.300714 
   51400    455.59736   -116.22065   0.41223407   -115.80842    10422.956    4.2991202    4.2991202    4.2991202    10422.956   -215.80319    4417.0165    27067.656   -6851.2618   -1408.2301    14397.019    79.458207 
   51500    558.24482   -116.31839   0.50511165   -115.81328   -4877.8525    4.3046136    4.3046136    4.3046136   -4877.8525    6213.4458   -11626.103   -9220.8999   -4294.0997   -7984.5006     10309.44    79.763192 
   51600    770.84059   -116.50711   0.69747277   -115.80963   -9665.0489    4.3113916    4.3113916    4.3113916   -9665.0489   -13047.349    -221.0208   -15726.776   -2641.9798    3081.7413   -7925.7091    80.140568 
   51700    719.75284    -116.4599   0.65124749   -115.80865   -9657.4307     4.305497     4.305497     4.305497   -9657.4307   -8169.1373   -13841.014   -6962.1406   -4543.2915    2566.0288    8755.5176    79.812309 
   51800    481.72869   -116.24789   0.43587825   -115.81201   -4119.5817    4.3031091    4.3031091    4.3031091   -4119.5817    2497.0058   -21802.157     6946.406   -6094.4589   -2133.4556    23102.561    79.679584 
   51900    700.79072    -116.4435   0.63409017   -115.80941    307.34667    4.3065981    4.3065981    4.3065981    307.34667    3148.4665    4797.7004   -7024.1269    6863.1876    4249.6882    1578.1343    79.873558 
   52000    774.67392   -116.50917   0.70094125   -115.80823   -9422.1408    4.3096452    4.3096452    4.3096452   -9422.1408   -21050.693   -7782.6913    566.96254    2272.0244    -2277.158   -8916.8877    80.043219 
   52100    579.42868   -116.33517   0.52427924   -115.81089   -2956.4865    4.3008726    4.3008726    4.3008726   -2956.4865   -19397.184    6182.1657    4345.5583   -8470.2464    4032.5177    9722.2795    79.555416 
   52200    519.98821   -116.28482   0.47049626   -115.81432    8300.0622    4.3038484    4.3038484    4.3038484    8300.0622   -107.21418    367.00214    24640.399   -655.80367   -4168.0348    13161.252    79.720665 
   52300     891.7063   -116.61534    0.8068346   -115.80851   -15833.578    4.3129848    4.3129848    4.3129848   -15833.578    -23622.16   -15213.799   -8664.7742    2958.2564   -6553.7356   -6210.5009    80.229442 
   52400     668.9558   -116.41269   0.60528526    -115.8074   -3969.3324    4.3022196    4.3022196    4.3022196   -3969.3324   -24720.523     13523.97   -711.44442   -3535.3609    1707.4037    7169.8808    79.630184 
   52500    582.59477    -116.3393   0.52714399   -115.81216   -2903.6878    4.3023094    4.3023094    4.3023094   -2903.6878   -14662.263   -17703.931    23655.131   -11996.288   -2553.9523    12009.379    79.635169 
   52600    650.66265   -116.39939   0.58873324   -115.81066   -9431.5266    4.3128916    4.3128916    4.3128916   -9431.5266    -15545.64   -23022.664    10273.725    1013.7111    1852.3075    2730.6463    80.224242 
   52700    735.71421   -116.47352   0.66568968   -115.80783   -1952.1061    4.3010809    4.3010809    4.3010809   -1952.1061   -9224.5828    -1274.676    4642.9406    2906.8875   -2756.0095   -1086.2974    79.566974 
   52800    591.30272   -116.34685   0.53502312   -115.81183   -8966.2983    4.3029106    4.3029106    4.3029106   -8966.2983   -13047.178   -13465.067   -386.64963   -11333.771    5904.2241     6454.418    79.668558 
   52900    504.58526   -116.26724   0.45655934   -115.81068   -9595.8361    4.3132717    4.3132717    4.3132717   -9595.8361   -16452.875   -24611.047    12276.414    2717.2864    939.85602    14803.042    80.245454 
   53000    674.23371   -116.41784   0.61006083   -115.80778    1712.7613    4.3004252    4.3004252    4.3004252    1712.7613    4308.6598   -100.06344    929.68751    11596.123   -12044.126   -9557.3263     79.53059 
   53100    615.65355   -116.36758   0.55705627   -115.81053   -8563.8434    4.3030392    4.3030392    4.3030392   -8563.8434   -18123.734   -445.45899   -7122.3369   -4689.8731    255.57528    2109.4612    79.675703 
   53200    556.46466   -116.31408   0.50350092   -115.81058   -18750.074    4.3137971    4.3137971    4.3137971   -18750.074    -29457.61   -8385.2885   -18407.323   -9216.1377   -1416.7159    15001.315    80.274782 
   53300    546.60296   -116.30219   0.49457784   -115.80761    10141.481    4.3027461    4.3027461    4.3027461    10141.481   -9680.9254    11829.798     28275.57    5564.7646   -3859.1787    2622.7091    79.659425 
   53400    719.04724   -116.45732   0.65060906   -115.80671   -8058.5784    4.3043303    4.3043303    4.3043303   -8058.5784   -20837.056   -4309.6393    970.96039    5383.6279   -3687.1254    4101.5809    79.747441 
   53500    584.47484   -116.33852   0.52884512   -115.80968    -15223.09    4.3094386    4.3094386    4.3094386    -15223.09    -28725.48   -11162.951   -5780.8382   -11966.574   -606.00105   -2319.2459    80.031708 
   53600    662.80803   -116.40764   0.59972263   -115.80792   -3744.2957    4.3056095    4.3056095    4.3056095   -3744.2957   -26914.411    7075.5704    8605.9534   -4946.8461    1979.1338    8092.5787    79.818564 
   53700    720.32684   -116.45899   0.65176686   -115.80722   -5428.0238    4.3086166    4.3086166    4.3086166   -5428.0238   -21579.556   -15414.133    20709.618    5463.3186   -4850.9677   -2651.4378    79.985919 
   53800    666.18255   -116.41086   0.60277597   -115.80808   -8965.1115    4.3058788    4.3058788    4.3058788   -8965.1115   -14121.515   -10167.956   -2605.8636   -6737.2397    5942.7596   -6181.7749    79.833543 
   53900    642.94987   -116.39122   0.58175456   -115.80947   -8034.8386    4.3064949    4.3064949    4.3064949   -8034.8386   -30594.604   -1242.6685    7732.7566   -9592.2309   -800.60764    6137.5704    79.867819 
   54000    566.90451   -116.32299   0.51294711   -115.81005    1863.6529    4.3081635    4.3081635    4.3081635    1863.6529   -23135.627   -2817.2584    31543.844    5057.5201   -6718.1045    1479.3041    79.960692 
   54100    556.77775   -116.31306   0.50378421   -115.80927    4635.4558    4.3022414    4.3022414    4.3022414    4635.4558   -316.00408   -590.84478    14813.216    4119.4833   -2760.4371    6437.7151    79.631397 
   54200    547.40025   -116.30814   0.49529925   -115.81284   -7363.2831    4.3072015    4.3072015    4.3072015   -7363.2831   -20185.111    1780.2314   -3684.9692   -9201.5462    3892.2992    1423.5104    79.907139 
   54300    519.44117   -116.28086   0.47000129   -115.81086   -3816.9351    4.3094245    4.3094245    4.3094245   -3816.9351   -23320.046    11851.466    17.774773   -829.13054    2967.3437    8685.6341    80.030925 
   54400    514.49836     -116.274   0.46552893   -115.80848      2734.01     4.302139     4.302139     4.302139      2734.01    -14439.69    13933.649    8708.0712    9975.7574   -10004.651     5317.328    79.625711 
   54500    554.97958    -116.3119   0.50215719   -115.80974   -17641.061    4.3103363    4.3103363    4.3103363   -17641.061   -29938.248   -4835.4753   -18149.461   -1601.5813   -1738.8279   -6491.6603    80.081735 
   54600    567.43433   -116.32029   0.51342651   -115.80686   -8937.0316    4.3080345    4.3080345    4.3080345   -8937.0316   -8856.3025     -10006.3    -7948.492   -11047.489    4240.4015     9865.974    79.953506 
   54700    669.48122   -116.41105   0.60576068   -115.80529   -487.16505    4.2999341    4.2999341    4.2999341   -487.16505   -15093.718    9208.1462    4424.0764    3369.1585   -2513.5596    7886.1882    79.503342 
   54800    572.87592    -116.3279   0.51835018   -115.80955    -26125.21    4.3120468    4.3120468    4.3120468    -26125.21   -53653.443   -15367.633    -9354.554     2650.379   -2480.8289    723.04928    80.177109 
   54900    582.63153   -116.33778   0.52717726    -115.8106   -11277.542    4.3034757    4.3034757    4.3034757   -11277.542   -20325.497   -5932.0206   -7575.1076   -11601.975   -1037.0789   -2599.1062    79.699955 
   55000    694.12039   -116.43783   0.62805472   -115.80978    9226.3262    4.2980965    4.2980965    4.2980965    9226.3262    5170.6329    25097.386     -2589.04   -3017.3287    2479.7558    1856.5727     79.40146 
   55100    474.38441   -116.24097   0.42923298   -115.81174   -15452.981    4.3163512    4.3163512    4.3163512   -15452.981   -48202.179    8664.9443   -6821.7098     7686.481   -11998.673    8405.5974    80.417454 
   55200    516.58215   -116.27806   0.46741439   -115.81065   -4978.7938    4.3000025    4.3000025    4.3000025   -4978.7938   -28442.258    13571.114   -65.237252    2936.7698   -4628.9797    1252.6124     79.50714 
   55300    664.20957   -116.41169   0.60099078   -115.81069    11819.783    4.2986797    4.2986797    4.2986797    11819.783     8443.403    17013.652    10002.295   -6005.2713    3946.5003    3021.4146    79.433784 
   55400    627.69634   -116.37621   0.56795284   -115.80825   -12699.736     4.318153     4.318153     4.318153   -12699.736   -25216.173    8226.0079   -21109.044    3531.5954    -13329.93    1056.4283    80.518204 
   55500    550.10573   -116.30616   0.49774723   -115.80841    890.70808    4.2959723    4.2959723    4.2959723    890.70808   -24989.243    12912.697     14748.67    10731.222   -10397.839   -2425.2345    79.283793 
   55600    681.03236   -116.42716   0.61621239   -115.81095   -5704.6902    4.3000496    4.3000496    4.3000496   -5704.6902   -29724.696    -3038.399    15649.024    -11171.08    2229.9456   -170.54743     79.50975 
   55700    732.46819   -116.46921   0.66275261   -115.80646    -12685.45    4.3174837    4.3174837    4.3174837    -12685.45   -10366.243    -7041.816    -20648.29   -9949.3217    413.58712    1256.5381    80.480769 
   55800    711.27996   -116.45104   0.64358106   -115.80746    6173.7837    4.2943291    4.2943291    4.2943291    6173.7837   -7851.5399    25279.468    1093.4234    11715.589   -8241.9403    6814.1392    79.192852 
   55900    468.21493   -116.23797   0.42365071   -115.81432     1868.774    4.3001172    4.3001172    4.3001172     1868.774   -27334.754    8066.2599    24874.816    7662.5354   -8028.4223   -1658.8619    79.513504 
   56000    894.25685   -116.61703   0.80914239   -115.80789   -18012.346    4.3167144    4.3167144    4.3167144   -18012.346       -30091   -4826.7798   -19119.258   -3600.6604    5909.3659   -2559.8069    80.437758 
   56100    749.06125    -116.4851   0.67776636   -115.80734    16863.935    4.2991051    4.2991051    4.2991051    16863.935    28302.718    27952.864   -5663.7759   -748.82793   -5502.3915   -828.30371    79.457368 
   56200    604.01026   -116.35852   0.54652118   -115.81199   -1467.9243    4.2981326    4.2981326    4.2981326   -1467.9243    -29570.18    17370.453    7795.9539    15283.456   -13778.203    4826.6865    79.403461 
   56300    756.54405   -116.49674   0.68453696    -115.8122    -11610.06    4.3109152    4.3109152    4.3109152    -11610.06   -29142.771   -1492.7472    -4194.663    1023.6739   -182.40315    4394.9816    80.114006 
   56400    1048.1424   -116.75547   0.94838126   -115.80709    901.70555    4.3064194    4.3064194    4.3064194    901.70555    4889.0258    3628.3208     -5812.23    -10564.58   -573.55877    68.714002    79.863619 
   56500    735.20626   -116.47595   0.66523007   -115.81072    8084.3744     4.298975     4.298975     4.298975    8084.3744    7899.4691    18887.561   -2533.9066    7121.5058   -10998.657   -163.36113    79.450157 
   56600    762.04749   -116.50269   0.68951658   -115.81317    -10285.34    4.3033375    4.3033375    4.3033375    -10285.34   -23593.015    2413.5385   -9676.5443    8094.3656   -11423.631   -3070.7248    79.692272 
   56700    1033.8421   -116.74671   0.93544206   -115.81127    -3892.258    4.3083005    4.3083005    4.3083005    -3892.258   -26257.112    8608.1317    5972.2059    1305.0199    2706.0241    2487.0301    79.968319 
   56800    1071.3129   -116.77965   0.96934644   -115.81031    10896.055    4.3005884    4.3005884    4.3005884    10896.055    12164.049    20840.241   -316.12483   -1988.1082    1037.5894    4213.1401    79.539644 
   56900    790.83418   -116.53073   0.71556338   -115.81517   -1375.4885    4.3024223    4.3024223    4.3024223   -1375.4885   -12718.258    29112.971   -20521.179    11280.395   -16600.286    1794.8001    79.641443 
   57000    869.14986   -116.60038   0.78642506   -115.81396   -10591.539    4.3097716    4.3097716    4.3097716   -10591.539   -39290.692    20401.979   -12885.903    11193.322   -6478.4211   -2890.8556    80.050262 
   57100    1362.8535   -117.04053    1.2331385   -115.80739    3745.7284    4.2991052    4.2991052    4.2991052    3745.7284   -16016.862    19723.851     7530.197   -8729.5911     5097.606   -8057.3198    79.457378 
   57200    971.88205   -116.69401    0.8793793   -115.81463    8236.8971    4.3031433    4.3031433    4.3031433    8236.8971    3762.7444    39788.902   -18840.955    1193.5468   -11346.542    31.004392    79.681484 
   57300    945.32067   -116.67115   0.85534601    -115.8158   -18259.781    4.3089979    4.3089979    4.3089979   -18259.781   -43770.506     11041.39   -22050.228    15059.286   -11167.752     4327.364    80.007157 
   57400    1244.6633   -116.93596    1.1261975   -115.80976    4792.4557     4.299635     4.299635     4.299635    4792.4557   -15275.826    14182.725    15470.468     6419.838   -907.19266    9575.5892    79.486755 
   57500    1352.0865   -117.03341    1.2233963   -115.81001    710.30882    4.3067224    4.3067224    4.3067224    710.30882   -19912.315    25595.954   -3552.7129   -2277.8096    2368.0758   -2584.5562    79.880475 
   57600    950.49607   -116.67555   0.86002882   -115.81552    346.39602    4.3055048    4.3055048    4.3055048    346.39602    -11510.11    18371.673   -5822.3745     9296.389   -7536.5792   -8886.8025    79.812745 
   57700    1008.2577   -116.72595   0.91229275   -115.81366    8534.3288    4.2989052    4.2989052    4.2989052    8534.3288   -21845.579    22534.991    24913.575    17547.508   -7381.3909   -2311.4144    79.446284 
   57800    1371.8205    -117.0505     1.241252   -115.80925    67.487904    4.3104554    4.3104554    4.3104554    67.487904   -20340.732    22786.832   -2243.6365   -1801.2512     5852.916   -2462.4217    80.088373 
   57900    1296.6289   -116.98317    1.1732171   -115.80996    447.06939    4.3042095    4.3042095    4.3042095    447.06939   -22721.262    22094.669    1967.8007    1972.6562   -2674.7284    7043.2641    79.740729 
   58000    860.24653   -116.59289   0.77836914   -115.81452     17669.11    4.2971141    4.2971141    4.2971141     17669.11    2843.2574    24631.987    25532.084    16940.409   -11779.233    778.44058    79.347027 
   58100     1358.708   -117.04017    1.2293875   -115.81079   -14568.586    4.3118164    4.3118164    4.3118164   -14568.586   -37598.578    3693.0481    -9800.228    2117.8931   -6602.8624   -3069.7639     80.16426 
   58200    1382.9022   -117.05946    1.2512789   -115.80818    5111.1309     4.304318     4.304318     4.304318    5111.1309   -11399.471    20266.889    6465.9747   -5286.8843    2256.5497    7080.8337    79.746761 
   58300    1183.6777   -116.88315    1.0710165   -115.81213    3938.7262    4.2978785    4.2978785    4.2978785    3938.7262   -16304.693    16465.794    11655.078    12269.882     -3366.81    1891.5908     79.38938 
   58400    949.90774    -116.6748   0.85949648    -115.8153    1622.8673    4.3103044    4.3103044    4.3103044    1622.8673   -18682.999    14332.935    9218.6661    14874.115   -12802.439    2316.2016    80.079954 
   58500    1375.8427   -117.05411    1.2448914   -115.80922   -758.27507    4.3074549    4.3074549    4.3074549   -758.27507   -25161.334    26319.525   -3433.0161   -2873.8228    545.02512   -8188.1561    79.921242 
   58600    1183.3497   -116.87948    1.0707196   -115.80876    10734.999    4.2981133    4.2981133    4.2981133    10734.999   -10568.145    26795.472     15977.67   -2957.6752    2718.5305   -6198.7927     79.40239 
   58700    943.34871   -116.66882   0.85356174   -115.81526   -799.06688    4.3054177    4.3054177    4.3054177   -799.06688   -29251.535    31360.409    -4506.075    14474.798    -9100.904    695.46039    79.807896 
   58800    1081.3065   -116.79133   0.97838883   -115.81294   -503.52747    4.3086161    4.3086161    4.3086161   -503.52747   -10769.218    19245.297   -9986.6611    5991.9785   -10895.487    2889.3522    79.985895 
   58900    1288.9461   -116.97491    1.1662655   -115.80865    2886.9647    4.3024843    4.3024843    4.3024843    2886.9647   -12680.137    14048.819     7292.212   -9010.6057    1347.0391    7246.8223    79.644886 
   59000    1145.7163   -116.84793    1.0366682   -115.81126   -7075.5003    4.3048312    4.3048312    4.3048312   -7075.5003   -20826.634    12494.503    -12894.37    7559.9206   -6348.3258    -1450.329    79.775286 
   59100    996.20601   -116.71497   0.90138813   -115.81358   -1583.8694    4.3047274    4.3047274    4.3047274   -1583.8694   -13207.377    8532.6648   -76.896208    8911.2394     -11947.1      -2687.4    79.769516 
   59200    1096.9529   -116.80399   0.99254605   -115.81144    6579.8477    4.3061427    4.3061427    4.3061427    6579.8477   -257.07591    9868.6645    10127.955    -8465.672   -2433.6852   -839.90634    79.848221 
   59300    1189.8205   -116.88534    1.0765745   -115.80877   -2836.2093    4.3068747    4.3068747    4.3068747   -2836.2093   -6536.4779      4768.64   -6740.7899   -4548.8393    5327.4412   -909.18238    79.888951 
   59400    849.68188   -116.57975   0.76881002   -115.81094    9515.3125     4.301646     4.301646     4.301646    9515.3125    -534.0212    20394.069      8685.89    14222.544   -6944.9956    1254.1742    79.598337 
   59500    927.38652    -116.6509   0.83911882   -115.81178    2992.1527     4.308425     4.308425     4.308425    2992.1527   -5134.8748     25770.71   -11659.377    7251.9391   -12498.675    -5850.777    79.975251 
   59600     1025.032   -116.73563   0.92747053   -115.80816    3341.5906     4.308911     4.308911     4.308911    3341.5906    9659.3326    18345.984   -17980.545   -10541.987    1644.2869   -2596.5541    80.002316 
   59700    1019.9039    -116.7296   0.92283048   -115.80677    6905.4617    4.2987967    4.2987967    4.2987967    6905.4617    5426.5999    28989.312   -13699.527     1905.555     2414.891    4961.2383    79.440274 
   59800    845.71613    -116.5789   0.76522173   -115.81368   -2790.1662    4.3091607    4.3091607    4.3091607   -2790.1662   -18135.659    12174.814   -2409.6538    13244.956   -13140.329    6097.3849    80.016229 
   59900    892.18147   -116.61613   0.80726455   -115.80886    1513.2815    4.3110314    4.3110314    4.3110314    1513.2815    -563.9059    5145.2274   -41.476888   -2876.7478   -7505.3098    3455.6567    80.120485 
   60000     1056.498   -116.75931    0.9559416   -115.80337     6086.339      4.29996      4.29996      4.29996     6086.339    9194.3489    8791.9578    272.71024   -3923.4315    2456.6831    142.24433    79.504784 
   60100    758.85476   -116.49581   0.68662773   -115.80918   -10246.919      4.30844      4.30844      4.30844   -10246.919   -21210.381   -7204.6839    -2325.692    12680.695   -2231.9835    -1597.286    79.976087 
   60200    825.21477   -116.55624   0.74667167   -115.80957   -6492.6621    4.3057445    4.3057445    4.3057445   -6492.6621    -13901.38    9039.8844   -14616.491    7354.9832   -13029.322   -459.84356    79.826075 
   60300    1020.6442   -116.73197   0.92350029   -115.80847    753.11086    4.3046319    4.3046319    4.3046319    753.11086    7491.5558    10654.056   -15886.279   -8877.4454   -3342.3661   -2741.8051    79.764211 
   60400    949.59427   -116.66765   0.85921285   -115.80844   -20689.381    4.3120259    4.3120259    4.3120259   -20689.381   -14755.587   -16057.366   -31255.189    4551.6973    815.65191   -3874.9323    80.175945 
   60500    654.59081   -116.40278   0.59228753   -115.81049    919.64634    4.2983057    4.2983057    4.2983057    919.64634   -4030.6568    13067.056   -6277.4601    15649.852   -15554.231   -2659.7062    79.413057 
   60600    810.83937   -116.54692    0.7336645   -115.81326    191.88545    4.3058971    4.3058971    4.3058971    191.88545     -6650.54    14150.628   -6924.4317   -2250.3331    -5335.338    1797.0372    79.834564 
   60700    845.80415   -116.57289   0.76530137   -115.80759   -9329.4699    4.3142464    4.3142464    4.3142464   -9329.4699   -2230.7886   -2190.7316    -23566.89   -5293.4239    5827.7697    2104.9763    80.299867 
   60800    667.89279   -116.41205   0.60432344   -115.80773    11474.232    4.2914861    4.2914861    4.2914861    11474.232    8180.0718    20950.872    5291.7536    8893.5397   -4517.7369    3029.8316    79.035666 
   60900    549.68696   -116.31444   0.49736832   -115.81707   -4858.7155    4.3086879    4.3086879    4.3086879   -4858.7155   -673.52615    9020.5726   -22923.193    5394.6969   -20158.024    1892.4917    79.989891 
   61000    896.39558   -116.61833   0.81107756   -115.80725    -19888.99    4.3147678    4.3147678    4.3147678    -19888.99   -11766.102   -44.746383   -47856.123   -1598.9074   -8572.9969    2345.2412    80.328989 
   61100    812.90314   -116.53904   0.73553185   -115.80351    15484.857    4.2880669    4.2880669    4.2880669    15484.857    41584.528    24972.906   -20102.862    5549.7912    6301.2158   -2227.4595    78.846904 
   61200    502.42473   -116.27178   0.45460445   -115.81718   -9315.2381    4.3080119    4.3080119    4.3080119   -9315.2381   -7963.0081    2267.7061   -22250.412    11640.645   -14012.801   -3126.6369    79.952247 
   61300    641.85514   -116.39336   0.58076402    -115.8126   -14314.085     4.313358     4.313358     4.313358   -14314.085   -6799.0855    477.63951   -36620.808    1402.1652   -10753.804   -4088.7831    80.250274 
   61400    826.68571    -116.5517    0.7480026    -115.8037    20713.732    4.2910226    4.2910226    4.2910226    20713.732    41356.905    22358.216   -1573.9252   -5602.1438    4402.0253   -5667.3514    79.010062 
   61500    653.93635   -116.40526   0.59169535   -115.81356   -10254.929    4.3084743    4.3084743    4.3084743   -10254.929    -4861.983   -1376.3577   -24526.445    16188.964   -2876.7006   -1351.5305    79.977994 
   61600    473.76257   -116.24162   0.42867033   -115.81295    -9981.941    4.3100739    4.3100739    4.3100739    -9981.941   -2169.1305   -168.04532   -27608.647    11043.026   -11508.862    3798.3971    80.067107 
   61700     824.1102   -116.55045   0.74567223   -115.80478    7985.3964    4.2953507    4.2953507    4.2953507    7985.3964     31159.13    17106.173   -24309.114   -6942.6068   -9977.1782    3886.1156    79.249383 
   61800     785.4765   -116.52009   0.71071564   -115.80938   -13556.022    4.3087395    4.3087395    4.3087395   -13556.022    10190.274       938.18   -51796.521    3317.3917    5471.6965   -3832.4953    79.992765 
   61900    557.50661   -116.31744   0.50444369   -115.81299   -5642.5896    4.3023546    4.3023546    4.3023546   -5642.5896    14614.367   -1015.8324   -30526.303     10742.65   -6246.9562    1377.8371     79.63768 
   62000    578.95425   -116.33691   0.52384997   -115.81306    2387.1334    4.3015971    4.3015971    4.3015971    2387.1334    26209.293    5785.6971    -24833.59    8265.3914   -9227.5507    7789.8159    79.595623 
   62100    819.56186   -116.55048   0.74155679   -115.80892   -17728.672    4.3111701    4.3111701    4.3111701   -17728.672    759.87261   -421.42372   -53524.466   -1599.3166    7519.7189    1019.3361    80.128215 
   62200    653.94304   -116.39963    0.5917014   -115.80793    13981.534    4.2928259    4.2928259    4.2928259    13981.534    31851.268    19853.451    -9760.116    5909.2468    132.69796    -3450.132    79.109719 
   62300    564.20984   -116.32769   0.51050892   -115.81718   -8026.0123    4.3059198    4.3059198    4.3059198   -8026.0123    3527.9887   -3032.2461   -24573.779    7837.9031   -12645.213   -2062.2934    79.835824 
   62400    618.40437   -116.37164   0.55954527   -115.81209   -17668.689    4.3129391    4.3129391    4.3129391   -17668.689   -7014.4992     6570.391   -52561.958    -3750.269    -16588.25    3131.9342    80.226892 
   62500    845.18632   -116.56811   0.76474234   -115.80337     12340.47    4.2882183    4.2882183    4.2882183     12340.47    28171.372    34895.991   -26045.951    4067.2125    6934.9949      174.756    78.855257 
   62600    655.35552   -116.40706   0.59297945   -115.81408   -16022.583     4.309096     4.309096     4.309096   -16022.583    864.26366    -1719.745   -47212.268    10930.274   -1304.3375   -1223.3085    80.012622 
   62700    474.46521   -116.24208    0.4293061   -115.81278   -12351.546    4.3107106    4.3107106    4.3107106   -12351.546    -5578.199    11527.881    -43004.32    3337.6367   -19184.569    2248.3397    80.102596 
   62800    753.31996   -116.48642   0.68161973    -115.8048    12932.778    4.2900238    4.2900238    4.2900238    12932.778     30489.47    31650.625    -23341.76   -8922.5176    6553.7705    2071.9414    78.954904 
   62900    737.61724   -116.47748   0.66741158   -115.81007    -11241.07     4.311742     4.311742     4.311742    -11241.07    9725.3384   -5807.1525   -37641.397   -1490.1591    8972.5137   -679.82371    80.160112 
   63000     597.4802   -116.35219   0.54061264   -115.81158   -1482.9453    4.3052448    4.3052448    4.3052448   -1482.9453   -5033.4296    9468.9911   -8884.3974    12612.208   -9929.1149    2972.5849    79.798284 
   63100    624.86096   -116.37554   0.56538733   -115.81015    15627.014    4.2928178    4.2928178    4.2928178    15627.014     28975.88    20648.499   -2743.3365    6730.0897   -15266.733     6091.064    79.109271 
   63200    892.49525   -116.61742   0.80754845   -115.80987   -20612.162    4.3142827    4.3142827    4.3142827   -20612.162    2482.4275   -10327.963   -53990.951   -419.25168    409.37644    2391.6167    80.301893 
   63300       827.23   -116.55737   0.74849509   -115.80888     -827.087    4.3017668    4.3017668    4.3017668     -827.087    15143.438    13038.815   -30663.514    4073.4141    6971.7766   -5964.9691    79.605045 
   63400    663.72689   -116.41166   0.60055404    -115.8111    6146.4378    4.2965439    4.2965439    4.2965439    6146.4378    24211.679    8820.7357   -14593.102    4090.7352   -14983.392   -1337.9869    79.315445 
   63500    730.99052   -116.47113   0.66141558   -115.80971   -21865.468    4.3168082    4.3168082    4.3168082   -21865.468      3082.77   -13151.191   -55527.984   -154.87125   -6597.9579     5475.911    80.443001 
   63600    916.06821   -116.63478   0.82887777    -115.8059    3484.2012    4.2966307    4.2966307    4.2966307    3484.2012    19549.147    11646.149   -20742.693   -2352.9691    13727.991   -1163.3725    79.320251 
   63700    772.07511   -116.50889   0.69858978    -115.8103    7699.0578    4.2943431    4.2943431    4.2943431    7699.0578    12521.373    6799.9637     3775.837    7011.2256   -1163.7673   -3712.9029    79.193624 
   63800    586.25366    -116.3444   0.53045463   -115.81394   -21035.727    4.3172067    4.3172067    4.3172067   -21035.727   -20053.352    -8822.597   -34231.231    7904.5411   -14963.423     8173.777    80.465279 
   63900    939.46668   -116.65788   0.85004919   -115.80783    1684.0415    4.2970949    4.2970949    4.2970949    1684.0415    12158.004    10362.956   -17468.836   -6863.7895   -3205.3787     10827.74    79.345961 
   64000    1047.9104   -116.75628   0.94817137   -115.80811    699.12071    4.2978907    4.2978907    4.2978907    699.12071    9278.7434    15819.329    -23000.71   -4100.2337    2004.0876   -22.218808    79.390056 
   64100    725.66481   -116.46762   0.65659677   -115.81103   -15574.174    4.3136462    4.3136462    4.3136462   -15574.174   -20660.778    3372.6326   -29434.376    6896.3812   -15508.472    -1224.328    80.266361 
   64200     803.0708   -116.53745   0.72663534   -115.81081    9621.9171    4.2957206    4.2957206    4.2957206    9621.9171    17426.775    11977.445   -538.46868     10051.12     -12663.1    1308.4775    79.269855 
   64300    1062.0449   -116.77314    0.9609605   -115.81218    7559.8942    4.3002803    4.3002803    4.3002803    7559.8942     17507.27    13511.555   -8339.1425    2695.6016    11233.314    1175.3782    79.522547 
   64400     933.4545   -116.65592   0.84460925   -115.81131    8149.0552    4.3074909    4.3074909    4.3074909    8149.0552    4108.2478    6037.1408    14301.777   -2327.5713   -378.21863   -7350.5662    79.923246 
   64500    762.95744   -116.50245   0.69033992   -115.81211    8552.8403    4.3031477    4.3031477    4.3031477    8552.8403    11937.059     3135.883    10585.579    6146.6976   -18346.516    1493.6721     79.68173 
   64600    1000.1901   -116.71477   0.90499298   -115.80977   -5502.6836    4.3051747    4.3051747    4.3051747   -5502.6836    9119.6526    678.29619   -26305.999    2320.9187   -3873.7686    9495.9896    79.794387 
   64700    1237.8168   -116.92576    1.1200027   -115.80576     5160.721     4.298162     4.298162     4.298162     5160.721    16511.643    8300.7609   -9330.2413   -2922.2071    7088.7108    2221.7366    79.405091 
   64800    1008.2575   -116.72529   0.91229256     -115.813   -2337.0171    4.3046094    4.3046094    4.3046094   -2337.0171   -2357.0667   -3025.5004   -1628.4843    2908.1627   -10197.137   -3295.2428    79.762958 
   64900    862.96008   -116.59636   0.78082442   -115.81554     -11596.4    4.3077334    4.3077334    4.3077334     -11596.4   -16586.404   -3187.5545   -15015.241    3671.5023   -20646.848    544.85593    79.936742 
   65000    1111.4573   -116.81579      1.00567   -115.81012    7151.6747    4.2991012    4.2991012    4.2991012    7151.6747    9780.3361   -1833.5019     13508.19   -3368.8529   -3187.2009    11180.708    79.457157 
   65100    1231.7421    -116.9232    1.1145062    -115.8087    957.50379    4.3066195    4.3066195    4.3066195    957.50379    -2000.125   -4101.4069    8974.0433   -5994.7495    4833.3218   -4122.9374    79.874748 
   65200    948.48913   -116.66864    0.8582129   -115.81042    -4351.026    4.3078452    4.3078452    4.3078452    -4351.026   -21551.121    1805.9975    6692.0459    5888.5207   -8419.4014   -7967.1735    79.942967 
   65300      1048.22   -116.75806    0.9484515   -115.80961   -6012.3735    4.3001327    4.3001327    4.3001327   -6012.3735   -5076.0149   -3648.4961   -9312.6094    9587.0556   -7370.3642    3417.8664    79.514361 
   65400    1258.8223   -116.94889    1.1390089   -115.80988    878.77239    4.3032815    4.3032815    4.3032815    878.77239    5784.7687    440.48647    -3588.938   -3463.0811    5385.8748    1867.5939    79.689166 
   65500     1080.955   -116.78793   0.97807083   -115.80986    3415.0599     4.307483     4.307483     4.307483    3415.0599   -13361.337   -863.94695    24470.463    1159.6376   -8513.2095    2955.6509    79.922805 
   65600     893.1945   -116.62085   0.80818116   -115.81267   -251.21478    4.3023548    4.3023548    4.3023548   -251.21478   -13991.287   -7372.2236    20609.867    6983.3814   -10101.815    2892.0209    79.637694 
   65700    985.94948    -116.7032   0.89210781    -115.8111   -747.77151    4.3039988    4.3039988    4.3039988   -747.77151    3914.4356   -6149.2173   -8.5328175    564.68541    2285.6817    15037.369    79.729021 
   65800    1107.2143   -116.81018    1.0018308   -115.80835    4154.2503    4.3063293    4.3063293    4.3063293    4154.2503    1650.4553   -1015.1568    11827.452    1071.0679   -6004.6782    7463.9059    79.858602 
   65900    1064.7038   -116.77258   0.96336642   -115.80921   -3084.9393    4.3046885    4.3046885    4.3046885   -3084.9393    -5392.128    -1482.146   -2380.5439    10371.027   -12692.817   -5072.9049    79.767353 
   66000    944.41541   -116.66557   0.85452691   -115.81104   -711.16312    4.3009159    4.3009159    4.3009159   -711.16312    10894.453   -1642.7282   -11385.214    9199.8484   -890.89829    9216.3361    79.557814 
   66100    1049.2532   -116.76146   0.94938635   -115.81207    2429.9364    4.3037761    4.3037761    4.3037761    2429.9364    7172.3024   -2772.1409    2889.6478   -3163.1817    17323.505    7239.1757    79.716645 
   66200    1000.5717   -116.71783   0.90533832   -115.81249    6037.8336    4.3077467    4.3077467    4.3077467    6037.8336    -2463.602   -2938.7942    23515.897     3754.168    4199.7278   -2302.9036    79.937483 
   66300    1101.4919   -116.80643     0.996653   -115.80978    14624.431     4.297622     4.297622     4.297622    14624.431    4144.9731    7579.8761    32148.445    10643.517   -9391.3136   -8672.3471    79.375166 
   66400    1014.3244    -116.7307   0.91778206   -115.81292   -192.15901    4.3058189    4.3058189    4.3058189   -192.15901    2803.5078   -6446.7743    3066.7894   -532.47916    3797.5444    1804.2879    79.830209 
   66500     1026.039   -116.73769   0.92838166    -115.8093   -13163.576    4.3118193    4.3118193    4.3118193   -13163.576   -11025.227   -16548.004   -11917.499    1802.9057    10038.785    9092.1129    80.164423 
   66600    1213.6426   -116.90318    1.0981293   -115.80505    6774.7881    4.2963779    4.2963779    4.2963779    6774.7881   -2605.6012    7639.1788    15290.787    10423.343   -550.48031    3274.1278    79.306252 
   66700    1210.7849   -116.90526    1.0955436   -115.80971   -1975.8744    4.3039893    4.3039893    4.3039893   -1975.8744   -10720.593   -1202.8271    5995.7968   -893.97165   -9287.8465      7049.54    79.728491 
   66800    1033.7311   -116.74665   0.93534163   -115.81131   -13782.818    4.3127323    4.3127323    4.3127323   -13782.818   -12510.238   -18363.414   -10474.802    -8693.984    2413.3324    7030.5307    80.215355 
   66900    962.35678   -116.68051   0.87076064   -115.80975    8977.9757    4.3005073    4.3005073    4.3005073    8977.9757   -6100.8221     3236.134    29798.615    3071.8933    5609.1702   -1485.4541    79.535141 
   67000    1231.7428   -116.92124    1.1145068   -115.80673    3292.0823      4.30302      4.30302      4.30302    3292.0823   -1385.5468   -8155.1079    19416.902    10192.009    6752.1492    -2310.475    79.674636 
   67100    1097.8383   -116.80174   0.99334713    -115.8084   -3383.0019    4.3093102    4.3093102    4.3093102   -3383.0019    13131.167   -11829.097   -11451.076   -2327.1668    8501.6689     6256.644    80.024556 
   67200    930.93929   -116.65411   0.84233343   -115.81177    681.19205    4.3026174    4.3026174    4.3026174    681.19205    17136.498   -3502.5734   -11590.348   -1891.6376    5946.1637   -1220.2901    79.652274 
   67300    1049.4626   -116.76151   0.94957578   -115.81193    5570.1144    4.3000883    4.3000883    4.3000883    5570.1144    15343.161    2501.2967    -1134.114    9892.5092   -597.73346   -5522.6609    79.511896 
   67400    1134.5993   -116.83811    1.0266093    -115.8115    197.50667    4.3079283    4.3079283    4.3079283    197.50667    1712.0631    5973.7497   -7093.2928     12999.81   -4852.2409    2905.9669    79.947592 
   67500    1061.7683   -116.77186   0.96071024   -115.81115   -4025.8506    4.3055602    4.3055602    4.3055602   -4025.8506    8268.4348    -6204.057   -14141.929    593.88118     4110.865    18339.942    79.815823 
   67600    953.66557   -116.67369   0.86289665   -115.81079    7548.7097    4.2985857    4.2985857    4.2985857    7548.7097    6929.4996    2817.6875    12898.942    1342.8576     4283.997    5917.3319    79.428573 
   67700    1148.5046   -116.85061    1.0391911   -115.81142   -4609.3077      4.30577      4.30577      4.30577   -4609.3077    -17696.96   -3086.7078    6955.7449    5604.0267   -5476.3633   -3825.7161    79.827492 
   67800    1156.6023   -116.85635    1.0465181   -115.80984   -4048.5722    4.3068415    4.3068415    4.3068415   -4048.5722   -3869.2955   -15410.471    7134.0495   -5035.5266    215.20514    10017.453    79.887101 
   67900    1040.5114   -116.75181   0.94147661   -115.81033    3343.4361    4.3014326    4.3014326    4.3014326    3343.4361    13778.454   -9627.6299    5879.4836    -1271.267    13249.931    8621.3456    79.586493 
   68000    1100.6633   -116.80652   0.99590327   -115.81062   -1749.9577     4.302525     4.302525     4.302525   -1749.9577    9624.2226   -9267.1714   -5606.9242    8274.4203    11835.685   -4450.2084    79.647144 
   68100    1101.5212   -116.80745   0.99667956   -115.81078    821.80511    4.3033543    4.3033543    4.3033543    821.80511    7107.7856   -2584.4679   -2057.9024    7356.2669   -8795.8055    367.63563    79.693209 
   68200    1151.5815   -116.85312    1.0419751   -115.81114   -4674.9479    4.3055997    4.3055997    4.3055997   -4674.9479     18441.63   -16614.516   -15851.957   -5419.0995   -8853.8228    8788.7977    79.818018 
   68300    1070.3025   -116.77825   0.96843219   -115.80981    8170.5147    4.3014186    4.3014186    4.3014186    8170.5147    19667.609    6309.9571   -1466.0223   -640.97289    6652.2358   -824.04554    79.585714 
   68400    1106.3465   -116.81159    1.0010456   -115.81054    777.62961    4.3018465    4.3018465    4.3018465    777.62961   -2969.5791    868.72279    4433.7452    17375.079    -1200.253    -2701.486    79.609471 
   68500    1039.0671   -116.75161   0.94016976   -115.81144   -7408.0057    4.3075524    4.3075524    4.3075524   -7408.0057   -1534.7695   -11839.628   -8849.6198     6134.781    -9149.783    12499.816    79.926669 
   68600    1176.6499   -116.87396    1.0646576    -115.8093    10069.815    4.2977696    4.2977696    4.2977696    10069.815    8754.9128    9167.3916     12287.14    206.00593    -5631.879    12335.273    79.383345 
   68700    1089.3369   -116.79877   0.98565492   -115.81311     13175.75    4.3026809    4.3026809    4.3026809     13175.75    16550.098    1509.4736    21467.678    2240.2547    5728.2701   -5627.2319    79.655803 
   68800    1023.0692   -116.73756   0.92569454   -115.81186   -12616.717    4.3105898    4.3105898    4.3105898   -12616.717   -14349.188   -11707.265   -11793.698    4324.4445    1268.8666    2490.1435    80.095864 
   68900    1057.9147    -116.7664   0.95722343   -115.80918    13307.893    4.2932113    4.2932113    4.2932113    13307.893    20101.479    18729.814    1092.3852    -521.0422   -2627.9402    11637.743    79.131023 
   69000    1223.2229    -116.9187    1.1067977    -115.8119    6469.0507    4.3029538    4.3029538    4.3029538    6469.0507    20988.148   -4751.6873    3170.6919   -2380.8387    4299.6775    3246.5983    79.670961 
   69100    1099.5504   -116.80568   0.99489635   -115.81078   -9457.2049    4.3108904    4.3108904    4.3108904   -9457.2049   -617.68165   -14285.213    -13468.72    15455.405   -3054.0056   -3278.0335    80.112624 
   69200    1021.9672   -116.73497   0.92469743   -115.81027    10282.825    4.2909543    4.2909543    4.2909543    10282.825    12219.378    10650.093    7979.0035      6522.97   -14466.175    468.15285    79.006289 
   69300    1182.8425   -116.88337    1.0702607   -115.81311   -3635.6814    4.3058881    4.3058881    4.3058881   -3635.6814     6271.185   -11172.678   -6005.5513   -6490.3821   -1763.7098    7918.7768     79.83406 
   69400    1214.7526   -116.90956    1.0991337   -115.81043   -9010.3943    4.3101724    4.3101724    4.3101724   -9010.3943   -8026.7666   -19860.152    855.73584    13228.854    6762.0535   -1441.0953    80.072599 
   69500     1011.353   -116.72438   0.91509345   -115.80928    13470.559    4.2880393    4.2880393    4.2880393    13470.559    9734.7744     6997.352     23679.55    19649.921    -4472.678    708.14719    78.845383 
   69600    1004.8195   -116.72589   0.90918184   -115.81671   -8702.0647    4.3063583    4.3063583    4.3063583   -8702.0647    2623.3867   -2875.0314   -25854.549    2777.9828   -14278.159    12151.578    79.860216 
   69700    1146.5899   -116.84916    1.0374586   -115.81171   -4951.3599    4.3088956    4.3088956    4.3088956   -4951.3599    13641.017   -12393.065   -16102.032   -11247.141    1076.6045    7402.0979     80.00146 
   69800    1026.6812   -116.73676   0.92896269    -115.8078    20825.492    4.2897716    4.2897716    4.2897716    20825.492    30076.388    16446.662    15953.425    6393.7964    10190.261   -1380.7539    78.940977 
   69900    897.45411   -116.62729   0.81203534   -115.81526   -10047.855    4.3094731    4.3094731    4.3094731   -10047.855    1792.9652     -5120.27   -26816.259    12393.596   -4916.3477    4075.4494    80.033631 
   70000    1099.9043   -116.80568   0.99521648   -115.81047   -3003.7673    4.3049484    4.3049484    4.3049484   -3003.7673    17704.681    1957.5031   -28673.486   -5605.1243   -7139.3557    10839.199    79.781802 
   70100    1243.1748   -116.93165    1.1248507    -115.8068    12783.529    4.2907963    4.2907963    4.2907963    12783.529    18927.905    13507.318    5915.3639    2530.1832   -1304.4164    1880.7344    78.997562 
   70200    968.35669   -116.69041   0.87618948   -115.81422   -15055.979    4.3094985    4.3094985    4.3094985   -15055.979   -9664.9771   -23538.579    -11964.38    19616.098    1527.5578   -4214.0467    80.035045 
   70300     1102.454   -116.81022   0.99752353   -115.81269   -5329.2863    4.3021227    4.3021227    4.3021227   -5329.2863    12983.894   -8378.3064   -20593.447    11997.598   -5565.8499    2166.4185    79.624804 
   70400    1232.9697   -116.92538    1.1156169   -115.80977    13372.295    4.2946554    4.2946554    4.2946554    13372.295    34236.641    12652.938   -6772.6924   -5976.7036    287.34264    2107.0704    79.210902 
   70500    956.37335   -116.67919   0.86534671   -115.81384   -4575.0781    4.3079249    4.3079249    4.3079249   -4575.0781     16474.17   -14727.214   -15472.191    4938.7419     7523.021   -1053.3018    79.947406 
   70600    921.67965   -116.64933   0.83395512   -115.81538   -1257.6283    4.2993287    4.2993287    4.2993287   -1257.6283    5361.2829   -2230.8715   -6903.2963    16821.356    -4878.838   -2550.8552     79.46977 
   70700    1108.6377    -116.8164    1.0031187   -115.81328    10835.232    4.2975156    4.2975156    4.2975156    10835.232    18053.773    20188.833   -5736.9096   -1982.0266    -2092.917    4644.1398    79.369269 
   70800    1193.6157   -116.89155    1.0800085   -115.81154   -9053.6223     4.306701     4.306701     4.306701   -9053.6223    433.56108   -505.57414   -27088.854   -2843.9838    7472.2956    4916.9119    79.879287 
   70900    766.08965   -116.50953   0.69317401   -115.81636     7042.033    4.2958496    4.2958496    4.2958496     7042.033    18831.238    6951.7887   -4656.9281      17131.7    4719.8103   -1529.0839    79.276998 
   71000    828.76724   -116.56948   0.74988602   -115.81959    5451.7457    4.3012445    4.3012445    4.3012445    5451.7457     25570.28    -8254.035   -961.00828    13601.041   -2873.8263   -2300.6678    79.576052 
   71100    1186.2398   -116.88462    1.0733347   -115.81128     2217.943    4.3052496    4.3052496    4.3052496     2217.943    35302.868    -2679.869    -25969.17   -3432.5931   -7319.7325    -1325.474    79.798551 
   71200    992.15536   -116.71006   0.89772302   -115.81233    6331.2817    4.2957083    4.2957083    4.2957083    6331.2817    20753.585    9274.3457   -11034.085     6181.505    1956.8473     4025.656    79.269178 
   71300    723.78599   -116.47327   0.65489678   -115.81838    -14852.84    4.3045367    4.3045367    4.3045367    -14852.84   -13718.715   -22646.334   -8193.4719     20109.06    6194.9878    644.89855    79.758917 
   71400    1011.2365   -116.72923   0.91498806   -115.81424   -2620.4915    4.3027106    4.3027106    4.3027106   -2620.4915    19388.851   -9458.8305   -17791.495   -107.30409    2275.5483   -3751.6126    79.657451 
   71500    1145.6874   -116.84719     1.036642   -115.81055    7663.7727    4.2963231    4.2963231    4.2963231    7663.7727    32333.416    6514.4985   -15856.597   -6092.4481    5736.1487   -2536.8422    79.303219 
   71600    674.46289    -116.4273    0.6102682   -115.81703   -3221.3143    4.3044147    4.3044147    4.3044147   -3221.3143    17781.454   -7965.4379    -19479.96    20366.687    6874.6527   -3708.5671    79.752135 
   71700    765.19246    -116.5088   0.69236221   -115.81643    -13024.86    4.3046438    4.3046438    4.3046438    -13024.86   -2352.0542   -16849.265    -19873.26    20811.507    1139.9239    -1702.091    79.764869 
   71800    1015.8377   -116.72997   0.91915127   -115.81082    8610.1894    4.2968258    4.2968258    4.2968258    8610.1894    21942.988    13696.086   -9808.5062    -5012.029   -2996.2161   -2358.0842    79.331055 
   71900    989.70714   -116.70745   0.89550782   -115.81194   -3509.1538    4.3026662    4.3026662    4.3026662   -3509.1538   -1379.3722     12370.29    -21518.38   -863.78629    305.93238    375.72978    79.654987 
   72000    659.48366   -116.41212   0.59671467    -115.8154   -4346.0464    4.3041028    4.3041028    4.3041028   -4346.0464    6654.2291    3622.9312   -23315.299    14212.909    4316.7953    449.23205      79.7348 
   72100    787.41976   -116.52693   0.71247395   -115.81446    2510.5826    4.2989945    4.2989945    4.2989945    2510.5826     12529.33    4072.3438    -9069.926     3229.974   -903.99532   -4985.2925    79.451237 
   72200    922.26108   -116.64681    0.8344812   -115.81233    2662.0825    4.3008628    4.3008628    4.3008628    2662.0825    16671.467     12059.83    -20745.05   -9316.9111   -4247.5113    1351.7086    79.554869 
   72300    884.51239   -116.61301    0.8003254   -115.81268   -6471.3094    4.3032092    4.3032092    4.3032092   -6471.3094   -1108.6479    6134.3097    -24439.59    5535.5894     6393.862    3505.4051    79.685147 
   72400    809.16922   -116.54525   0.73215331    -115.8131   -10248.873    4.3031362    4.3031362    4.3031362   -10248.873   -19677.704   -1253.0006   -9815.9153    12603.401    6239.3632    2384.4077    79.681094 
   72500    941.38763   -116.66247   0.85178731   -115.81068   -4522.6955    4.2990467    4.2990467    4.2990467   -4522.6955    785.19105    2626.3754   -16979.653   -436.15597   -4154.2679   -2700.0001     79.45413 
   72600    933.20128   -116.65671   0.84438013   -115.81233   -3054.3567     4.300506     4.300506     4.300506   -3054.3567    3613.6664    11241.688   -24018.424    -478.4165   -4578.8953   -1592.1959     79.53507 
   72700    794.00642   -116.53333    0.7184337   -115.81489    1914.8219    4.3016703    4.3016703    4.3016703    1914.8219    2319.2275    15778.769   -12353.531    10106.471    4431.8219    5376.7186    79.599687 
   72800    883.78978   -116.61385   0.79967157   -115.81418    3708.4108    4.2991164    4.2991164    4.2991164    3708.4108    15167.267    7442.2255    -11484.26     2953.552    1725.4267   -3594.5705    79.457999 
   72900    872.31846   -116.60387   0.78929207   -115.81458    725.10229    4.3020895    4.3020895    4.3020895    725.10229    8001.8944    18920.061   -24746.649     -8892.43   -7956.1554   -3743.0308    79.622963 
   73000    862.26426   -116.59409   0.78019482    -115.8139    2367.2006    4.3007282    4.3007282    4.3007282    2367.2006   -3668.8649    26422.711   -15652.244   -2448.0938   -5875.0719    2395.0493    79.547398 
   73100    900.45948   -116.62876   0.81475466     -115.814   -763.97186    4.3015794    4.3015794    4.3015794   -763.97186   -10251.456    11425.011   -3465.4706    14887.701    7817.6809    433.57795    79.594642 
   73200    996.06317   -116.71301   0.90125889   -115.81175   -4804.9076    4.3024435    4.3024435    4.3024435   -4804.9076   -8648.7991    7091.2998   -12857.224    9470.9793    3760.8404   -1117.2384    79.642618 
   73300    1004.6423   -116.72079   0.90902142   -115.81177   -1909.8925    4.2975266    4.2975266    4.2975266   -1909.8925   -6694.9344    13995.155   -13029.898   -8938.4425   -6281.6415   -26.690205    79.369881 
   73400    855.35529   -116.58935   0.77394344   -115.81541   -4649.0555    4.3022699    4.3022699    4.3022699   -4649.0555   -13487.995    4907.4632   -5366.6346    3334.6974   -2371.5389    7928.1781    79.632978 
   73500    948.33652   -116.67148   0.85807481   -115.81341   -2923.5344    4.3040465    4.3040465    4.3040465   -2923.5344   -8304.8591    6781.7341   -7247.4783    14099.284     5773.443    1062.6901    79.731669 
   73600    1098.0303   -116.80441   0.99352092   -115.81089    2675.6197    4.2980819    4.2980819    4.2980819    2675.6197   -5814.9621    23788.572   -9946.7509     1414.854   -412.91545   -5874.5653     79.40065 
   73700    953.40542   -116.67729   0.86266126   -115.81463    1890.9166    4.2991954    4.2991954    4.2991954    1890.9166   -5063.0882    24115.696   -13379.858   -10150.521   -12820.974    8282.8255    79.462376 
   73800    848.25455   -116.58435   0.76751854   -115.81683    782.66497    4.3030566    4.3030566    4.3030566    782.66497   -12308.653    27688.645   -13031.997   -4149.3213    1017.6217     7098.679    79.676669 
   73900    1038.6666   -116.75377   0.93980732   -115.81396   -447.92722    4.3033582    4.3033582    4.3033582   -447.92722     -22085.9    32774.506   -12032.387    2373.6741    12395.155   -2396.9897    79.693422 
   74000    1195.5686   -116.89241    1.0817756   -115.81063    3474.5588    4.2971839    4.2971839    4.2971839    3474.5588    -12374.42    23757.696   -959.59947   -208.71791   -7973.0659   -7260.1233    79.350895 
   74100    1050.3062   -116.76465   0.95033916   -115.81431   -3235.1664    4.3018645    4.3018645    4.3018645   -3235.1664   -18662.993    24962.808   -16005.315    3693.9549   -7615.6143    2007.1193     79.61047 
   74200     957.9175    -116.6817   0.86674389   -115.81496   -11990.422    4.3073684    4.3073684    4.3073684   -11990.422   -29597.827    13312.511    -19685.95    8134.5181    12684.802    13810.733    79.916425 
   74300    1252.2037   -116.94517    1.1330202   -115.81215    4604.3573    4.2933783    4.2933783    4.2933783    4604.3573   -14686.103    25410.199    3088.9759     3437.966    11307.498    3169.0424    79.140261 
   74400    1275.5173   -116.96792    1.1541149    -115.8138    7872.3311    4.2991868    4.2991868    4.2991868    7872.3311   -5073.8512    33285.433   -4594.5889   -6658.6357   -5413.1612    1129.6898    79.461902 
   74500    1042.4512    -116.7594   0.94323174   -115.81617    -4982.289    4.3094807    4.3094807    4.3094807    -4982.289   -23182.182    17658.597   -9423.2819   -2233.2844   -4144.6755    1972.6209    80.034055 
   74600    938.60313   -116.66439   0.84926783   -115.81512    15542.047    4.2959119    4.2959119    4.2959119    15542.047   -8409.7889    36331.702    18704.228    8101.3429    12389.214    1030.7767    79.280447 
   74700     1208.739   -116.90663    1.0936925   -115.81294    13416.152    4.2987449    4.2987449    4.2987449    13416.152    2867.1261    34775.003    2606.3276   -2047.7022    5126.4413    2503.9637    79.437398 
   74800    1326.1355   -117.01188    1.1999153   -115.81196    2081.1446     4.305078     4.305078     4.305078    2081.1446   -13202.582    12724.028    6721.9876    -9888.105    -6875.408   -764.81928    79.789011 
   74900    986.40541   -116.70937   0.89252035   -115.81685     8476.207    4.2970756    4.2970756    4.2970756     8476.207   -3708.2163    18917.671    10219.167   -3793.0845    2008.4346    4497.2163    79.344894 
   75000    1062.1184   -116.77936   0.96102702   -115.81833   -6355.1213    4.2995274    4.2995274    4.2995274   -6355.1213   -13702.633    15588.606   -20951.338    10089.032    13712.541    -4781.155    79.480789 
   75100    1363.0174   -117.04725    1.2332868   -115.81396   -3540.9976    4.3034503    4.3034503    4.3034503   -3540.9976   -21232.621    16772.673   -6163.0445    1993.0291     5896.868   -400.47912    79.698543 
   75200    1410.6543   -117.08812    1.2763897   -115.81173    -1005.203    4.3002418    4.3002418    4.3002418    -1005.203   -19259.036    11480.718    4762.7088   -9379.2345   -6692.9218    10022.815    79.520412 
   75300     1118.446    -116.8284    1.0119935    -115.8164   -2146.9219    4.2974704    4.2974704    4.2974704   -2146.9219   -23379.058    22242.162   -5303.8704    2757.0718    10665.822    2601.2154    79.366764 
   75400    1051.3038   -116.77083   0.95124178   -115.81959    1237.2291    4.3013628    4.3013628    4.3013628    1237.2291   -26099.063     26237.21    3573.5402    3766.5955    13369.476   -1477.2043    79.582618 
   75500     1396.067   -117.07743    1.2631907   -115.81424    3779.9815    4.3041608    4.3041608    4.3041608    3779.9815   -15911.797    15803.106    11448.636   -1380.2488   -1383.8304   -9803.3293    79.738025 
   75600    1388.4558   -117.06879     1.256304   -115.81249    16598.074    4.2963226    4.2963226    4.2963226    16598.074    2042.3043    31755.071    15996.847   -2858.6401   -3978.4339   -1740.3852    79.303187 
   75700    1071.1275   -116.78804   0.96917866   -115.81886    7743.2179     4.299218     4.299218     4.299218    7743.2179   -12106.353    30027.425     5308.582    446.22308    9570.4428    1436.1031    79.463632 
   75800    1071.4084   -116.78818   0.96943283   -115.81875   -963.77241    4.3052999    4.3052999    4.3052999   -963.77241   -7629.8979    18600.256   -13861.676   -93.475155    10005.448   -4240.4811    79.801351 
   75900    1431.5725   -117.10842    1.2953169    -115.8131    12562.823    4.2956458    4.2956458    4.2956458    12562.823    6050.4383    26608.545    5029.4849   -8415.8411   -4281.3751    5089.8783    79.265717 
   76000    1420.1368   -117.09929    1.2849696   -115.81432    7172.1439    4.2998419    4.2998419    4.2998419    7172.1439   -9959.6406    19729.927    11746.146    1929.8458    5111.2575    3164.6806    79.498228 
   76100    1194.4657   -116.89714    1.0807777   -115.81636    -10513.37    4.3069999    4.3069999    4.3069999    -10513.37    -23133.95    8889.3705    -17295.53    10149.921     14523.36    1117.0692    79.895919 
   76200    1205.5728   -116.90529    1.0908276   -115.81446     4757.191    4.2964645    4.2964645    4.2964645     4757.191    -10488.94    22172.491    2588.0214    352.58558    3754.4657   -5629.0059    79.311045 
   76300    1467.9528   -117.14147    1.3282346   -115.81323    2855.9705    4.2999776    4.2999776    4.2999776    2855.9705   -11966.222    9884.5675    10649.566   -5994.8666   -3222.1451   -9148.7568    79.505757 
   76400    1422.8209   -117.10026    1.2873982   -115.81286   -26.553782    4.3050975    4.3050975    4.3050975   -26.553782    -19603.85    10632.287    8891.9022    1261.0243    1439.2192    3094.0652    79.790093 
   76500       1277.1   -116.96927    1.1555469   -115.81372    5188.3535    4.2982495    4.2982495    4.2982495    5188.3535   -4578.3586     18271.31    1872.1086    7245.8923    7265.4677   -5368.5677    79.409939 
   76600    1143.1962   -116.85026    1.0343879   -115.81587    2540.7028    4.3024437    4.3024437    4.3024437    2540.7028    3136.6368    12703.903   -8218.4314   -7232.5479   -3353.6352   -9323.2381    79.642627 
   76700     1389.441   -117.06917    1.2571954   -115.81198    2466.9095    4.3019124    4.3019124    4.3019124    2466.9095    2835.8261    4918.9726   -354.06999   -11975.418   -6138.5066    2642.2764     79.61313 
   76800    1411.3761   -117.08774    1.2770427   -115.81069    11407.618    4.2991979    4.2991979    4.2991979    11407.618    936.11014    25510.787    7775.9553    359.08466    10163.007    719.34392    79.462514 
   76900    1278.9298   -116.97117    1.1572025   -115.81397   -881.45631    4.3032348    4.3032348    4.3032348   -881.45631   -569.99573    11498.092   -13572.466   -467.26543    7012.3216   -812.71194    79.686567 
   77000    1171.8958   -116.87679    1.0603559   -115.81644    457.25046    4.2985918    4.2985918    4.2985918    457.25046   -1420.9656    7109.8406   -4317.1236   -7102.9249   -3259.8294    1177.3463    79.428912 
   77100    1360.1258   -117.04674    1.2306704   -115.81607    3952.2193    4.2999225    4.2999225    4.2999225    3952.2193   -12532.127    14863.965    9524.8205   -1951.6962   -4964.6718    378.49219    79.502701 
   77200    1509.2023   -117.17817     1.365558   -115.81261    1813.8532    4.3048247    4.3048247    4.3048247    1813.8532   -14484.624    14567.887    5358.2962    3610.0121    2907.8797   -2549.5961    79.774928 
   77300     1254.528   -116.95007    1.1351233   -115.81495    2190.0741    4.2985498    4.2985498    4.2985498    2190.0741   -5999.9119    12375.116    195.01818    -6883.692    2881.9749   -7906.8717    79.426587 
   77400    996.91281    -116.7207   0.90202766   -115.81867     1621.793    4.2995091    4.2995091    4.2995091     1621.793   -9189.9729    14179.785   -124.43267   -13055.108    -8585.914   -2585.9099    79.479771 
   77500    1354.4856   -117.04117     1.225567    -115.8156   -279.45881    4.3030922    4.3030922    4.3030922   -279.45881   -14234.267    14925.045   -1529.1544    3417.8041   -5357.1436    3350.4788    79.678647 
   77600    1431.6832   -117.10704    1.2954171   -115.81162    14819.437    4.2977908    4.2977908    4.2977908    14819.437    11238.268    24147.841     9072.203    3815.0023      1345.56    953.60379    79.384517 
   77700    1038.2667   -116.75736   0.93944554   -115.81792    725.88635    4.3013326    4.3013326    4.3013326    725.88635    4464.1391     5359.885   -7646.3651   -14300.948   -2991.0305    1450.1669    79.580941 
   77800    916.26717   -116.64853   0.82905779   -115.81947   -1868.4834    4.3024389    4.3024389    4.3024389   -1868.4834    7656.0162    3240.1692   -16501.635   -16236.506   -5120.5314   -522.53996    79.642363 
   77900    1274.3458   -116.96774    1.1530549   -115.81468    10438.286     4.297965     4.297965     4.297965    10438.286    6467.7043    21046.314    3800.8393    1932.7467   -4399.3435   -2733.9886    79.394173 
   78000    1269.8795   -116.96277    1.1490136   -115.81375    5889.7392    4.3014397    4.3014397    4.3014397    5889.7392    3613.6817    4380.4177    9675.1184    7042.3115    4072.0097   -1718.4358    79.586886 
   78100     899.5267   -116.63213   0.81391066   -115.81822   -2983.0632    4.3012264    4.3012264    4.3012264   -2983.0632    4748.4456    3874.5369   -17572.172   -9919.2066   -3178.7976    1741.6043     79.57505 
   78200    922.21796    -116.6529   0.83444219   -115.81846   -2665.7141    4.2975279    4.2975279    4.2975279   -2665.7141   -10280.697    9001.6901   -6718.1357   -13612.884   -7637.0285    1951.6038    79.369951 
   78300    1211.8915   -116.91105    1.0965449   -115.81451   -1188.8819    4.3022247    4.3022247    4.3022247   -1188.8819    -6865.839    11911.769   -8612.5756    173.03292   -3326.0071   -4413.4056     79.63047 
   78400    1070.9226   -116.78216   0.96899327   -115.81316    2078.0978    4.3024738    4.3024738    4.3024738    2078.0978    9108.7128     3416.416   -6290.8355     96.90909    2219.1215    -5326.425    79.644302 
   78500    803.08492   -116.54256   0.72664811   -115.81591   -1563.6999    4.2971892    4.2971892    4.2971892   -1563.6999    13745.725   -3502.3811   -14934.443   -10356.464   -3206.0161    6889.1208    79.351184 
   78600    768.21064   -116.51327   0.69509313   -115.81817   -4946.4309    4.3009841    4.3009841    4.3009841   -4946.4309    8625.5939    6411.4208   -29876.307   -6723.6926   -10683.732    8952.2686    79.561602 
   78700    1081.9913   -116.79328   0.97900843   -115.81427   -899.21636    4.3013428    4.3013428    4.3013428   -899.21636    7819.7813    6574.7324   -17092.163    -1406.134    5209.5421    -4417.543    79.581506 
   78800     1025.348   -116.74104   0.92775645   -115.81329    3013.6788    4.2994556    4.2994556    4.2994556    3013.6788    16456.747   -4934.2261   -2481.4844   -7160.9225    3823.2745   -3260.5708    79.476807 
   78900     747.9563   -116.49357   0.67676658    -115.8168   -13674.273    4.3020187    4.3020187    4.3020187   -13674.273   -4858.3002   -7017.0296   -29147.488   -8943.0983   -10361.544    5592.3699     79.61903 
   79000    878.36771   -116.61141   0.79476557   -115.81664   -9934.7173    4.2992202    4.2992202    4.2992202   -9934.7173   -7530.1574    5466.0318   -27740.026    5175.4635   -5608.9974    2559.3998    79.463754 
   79100    1097.1946    -116.8064    0.9927647   -115.81363     345.7284    4.3025327    4.3025327    4.3025327     345.7284    9433.1196    936.00736   -9331.9418    3907.6984    1483.6337    3253.4338    79.647569 
   79200    986.19395   -116.70655   0.89232901   -115.81423    1654.1695    4.2999236    4.2999236    4.2999236    1654.1695    20506.746   -12183.929   -3360.3085   -11260.691    1305.3976    3910.7594    79.502759 
   79300     571.6217   -116.33643   0.51721532   -115.81922    4382.7478    4.2966903    4.2966903    4.2966903    4382.7478    30665.854    1587.4428   -19105.054   -4878.2826   -10585.721    1609.3815    79.323552 
   79400    829.66931   -116.56938   0.75070222   -115.81868   -8923.7109    4.3072554    4.3072554    4.3072554   -8923.7109   -2199.3302    695.74622   -25267.549    6192.3184   -6963.9587   -2538.6942    79.910136 
   79500    1186.3166   -116.88365    1.0734042   -115.81025    5628.5967    4.2997415    4.2997415    4.2997415    5628.5967    24920.533   -4648.1975   -3386.5457   -596.40861    4594.5296   -2100.2202    79.492664 
   79600    937.14758    -116.6618   0.84795082   -115.81384    2213.0235    4.2931633    4.2931633    4.2931633    2213.0235     7060.888    -1720.647    1298.8297   -6172.2292   -5967.9416    6095.5368    79.128371 
   79700    517.19962   -116.29031   0.46797308   -115.82234   -11958.788    4.3060152    4.3060152    4.3060152   -11958.788   -912.66011    -2043.926   -32919.779   -3963.6611     -10988.7    2780.1696    79.841128 
   79800    950.74719   -116.67598   0.86025604   -115.81572   -5067.9242    4.3048935    4.3048935    4.3048935   -5067.9242    21746.208   -7942.9252   -29007.056    4697.9511   -2810.8223   -2792.5716    79.778749 
   79900    1077.0485   -116.78426    0.9745361   -115.80972    16955.143    4.2938292    4.2938292    4.2938292    16955.143    47137.166   -1050.7115    4778.9737    5343.3684    462.06472    1466.9982    79.165197 
   80000    706.44811   -116.45784   0.63920909   -115.81863   -9935.4777    4.3019768    4.3019768    4.3019768   -9935.4777    6515.7129   -12790.891   -23531.255   -3429.4268   -12581.873    3301.6137    79.616704 
   80100    638.50667   -116.39833   0.57773425    -115.8206   -16634.678    4.3043236    4.3043236    4.3043236   -16634.678   -2564.3692   -17394.054   -29945.612    -6296.497   -9292.4681     1381.866    79.747069 
   80200    1012.5468   -116.73072   0.91617363   -115.81454    7435.2934    4.2966901    4.2966901    4.2966901    7435.2934    23794.211   -3672.9402    2184.6089   -1172.9896    5743.6755   -5478.4616    79.323542 
   80300    988.15708   -116.70645   0.89410529   -115.81234   -1433.8443     4.304096     4.304096     4.304096   -1433.8443     17799.68   -17826.209   -4275.0043    2967.8278    1744.0625   -2125.7093    79.734423 
   80400    603.82532   -116.36274   0.54635384   -115.81639   -8497.1899    4.3039162    4.3039162    4.3039162   -8497.1899    21623.696   -27451.907   -19663.359   -6618.4474   -8429.9712     3295.063    79.724431 
   80500     676.8854   -116.42894   0.61246013   -115.81648    639.57266    4.2967646    4.2967646    4.2967646    639.57266    25378.848   -13290.722   -10169.408   -10074.905   -6278.6227   -4538.1294    79.327666 
   80600    985.27195   -116.70493   0.89149476   -115.81343    5947.9865      4.30012      4.30012      4.30012    5947.9865    37920.594   -13413.473   -6663.1615    2753.8973    3545.1495   -5297.6171    79.513656 
   80700    1013.1493   -116.73006   0.91671875   -115.81334   -12326.193    4.3043034    4.3043034    4.3043034   -12326.193    3638.7456   -28162.107   -12455.219    5609.6691   -4066.1781    1080.7456    79.745949 
   80800    639.56507   -116.39549   0.57869192   -115.81679   -10806.962    4.2993447    4.2993447    4.2993447   -10806.962   -877.19951    -22105.59   -9438.0962    -7112.666   -18931.418   -326.76987    79.470657 
   80900    771.67218   -116.51479   0.69822521   -115.81657   -3480.4797    4.2997211    4.2997211    4.2997211   -3480.4797    26379.239    -22410.51   -14410.168   -6435.5913   -4356.6537   -3337.5273     79.49153 
   81000    982.02523   -116.70183   0.88855706   -115.81327     1183.909    4.3035411    4.3035411    4.3035411     1183.909    39793.364   -22876.668   -13364.969   -2901.5124    5843.9904   -4209.3244    79.703585 
   81100    798.85914   -116.53683   0.72282453   -115.81401    9230.2516    4.2968409    4.2968409    4.2968409    9230.2516    36451.934   -17099.052    8337.8728   -2429.5885   -2579.8249    1329.6388    79.331894 
   81200    616.48543     -116.377   0.55780898   -115.81919    -9481.079    4.3041589    4.3041589    4.3041589    -9481.079    19092.835   -38177.852     -9358.22    -8149.606   -7315.8568   -2633.2693    79.737919 
   81300    837.63367   -116.57203   0.75790854   -115.81413   -6391.0705    4.3037986    4.3037986    4.3037986   -6391.0705    25110.993   -28912.552   -15371.652   -3316.0505   -1586.6618   -6832.2791    79.717894 
   81400    1059.0322   -116.76783   0.95823461    -115.8096    13063.641    4.2934768    4.2934768    4.2934768    13063.641    28384.424   -3473.3834    14279.881    2220.8954    520.09151    3234.3056    79.145708 
   81500    892.01213   -116.62222   0.80711132   -115.81511   -12714.903    4.3058268    4.3058268    4.3058268   -12714.903    8123.3611   -35769.135   -10498.936   -5123.5452    -13353.22    662.93645    79.830649 
   81600    680.62762    -116.4332   0.61584618   -115.81735   -9149.0833    4.3022849    4.3022849    4.3022849   -9149.0833    21808.953   -36647.068   -12609.135   -2882.9393    -7815.271   -5436.2952    79.633809 
   81700    845.23198   -116.57953   0.76478366   -115.81475    16112.972    4.2947893    4.2947893    4.2947893    16112.972    50360.535   -10058.923    8037.3041    3521.9275    1499.5567    -1684.242    79.218312 
   81800    1063.1699   -116.77255   0.96197847   -115.81057   -2813.2119    4.3077033    4.3077033    4.3077033   -2813.2119    32945.502   -26818.761   -14566.377    799.27638    -2683.865    -331.8586    79.935069 
   81900    893.99001   -116.62187   0.80890095   -115.81297   -1599.2686    4.2988594    4.2988594    4.2988594   -1599.2686    21491.758   -21018.972   -5270.5925   -8315.6963   -10145.096   -1897.5758    79.443748 
   82000    711.41911   -116.46028   0.64370696   -115.81658    2037.9443    4.2949895    4.2949895    4.2949895    2037.9443    25529.634   -24781.754    5365.9533   -9694.1382   -3781.1693   -3091.8255    79.229392 
   82100    987.06339    -116.7076   0.89311569   -115.81449   -13162.264    4.3076712    4.3076712    4.3076712   -13162.264    14357.783   -37989.373   -15855.201    462.36331    7321.1933    4478.1331    79.933284 
   82200    1050.0922   -116.76255   0.95014549    -115.8124    3638.0524     4.298634     4.298634     4.298634    3638.0524    18257.767   -3508.1838   -3835.4266     3757.404   -9334.9341    3564.5209     79.43125 
   82300     846.3772   -116.57935   0.76581987   -115.81353   -1313.3374    4.2956301    4.2956301    4.2956301   -1313.3374    15306.929   -18929.209   -317.73271   -4115.3997   -16998.791   -3939.2092    79.264851 
   82400     712.0874   -116.46093   0.64431164   -115.81661   -14645.149    4.3067723    4.3067723    4.3067723   -14645.149    26542.368   -55934.935   -14542.881   -4190.9593    1934.1789    2930.9031     79.88325 
   82500    847.00952   -116.58104   0.76639202   -115.81465    8166.1209      4.29869      4.29869      4.29869    8166.1209    43849.248    -18274.42   -1076.4654    3856.6011   -1057.4453    6494.6667    79.434354 
   82600    1035.1229   -116.74816   0.93660098   -115.81156    10852.808    4.2961376    4.2961376    4.2961376    10852.808    33993.644   -9404.3728    7969.1533    1437.9154   -4718.4537   -1193.2343    79.292946 
   82700     885.3163   -116.61542   0.80105279   -115.81437   -14057.475    4.3076053    4.3076053    4.3076053   -14057.475    16391.453   -50443.527   -8120.3523   -5114.4506   -5824.1574   -290.84659    79.929612 
   82800    756.54481   -116.49918   0.68453765   -115.81464   -4418.3056     4.299869     4.299869     4.299869   -4418.3056     25154.89   -45725.994    7316.1872   -6438.8532    2560.1506    6414.0241    79.499736 
   82900    951.43249   -116.67382   0.86087612   -115.81295    3681.2712    4.2970405    4.2970405    4.2970405    3681.2712    19186.457   -19735.301    11592.657    3134.7287   -854.04701    3245.7062    79.342948 
   83000    1058.5243   -116.76949   0.95777505   -115.81171   -9418.7593    4.3052796    4.3052796    4.3052796   -9418.7593   -3014.7876   -30608.779    5367.2889    1303.3077    -4720.414   -2559.6822    79.800222 
   83100    800.09795   -116.53699   0.72394544   -115.81305   -2745.4375    4.2994391    4.2994391    4.2994391   -2745.4375    20799.588   -43511.148    14475.247   -5572.4258     482.5506    2943.1164    79.475892 
   83200    624.17438   -116.38061    0.5647661   -115.81584   -4731.3507    4.3001842    4.3001842    4.3001842   -4731.3507    42818.108   -51317.396   -5694.7635    2839.7225    1064.5302    7248.6662    79.517217 
   83300    783.20805   -116.52351    0.7086631   -115.81484   -5825.5248    4.3029415    4.3029415    4.3029415   -5825.5248    5415.2875   -28638.215    5746.3534    9302.4351    5246.1672   -589.66857    79.670274 
   83400    885.96241   -116.61275   0.80163741   -115.81111    5634.1346    4.2959175    4.2959175    4.2959175    5634.1346    14471.467   -17089.164    19520.101    5268.3312   -4089.0268    2687.7951    79.280758 
   83500    705.32997   -116.45324   0.63819738   -115.81504   -9123.7472    4.3026786    4.3026786    4.3026786   -9123.7472    28110.205   -46308.641   -9172.8062   -1535.2772   -1608.5982    11957.612    79.655674 
   83600    537.45041   -116.30269   0.48629642   -115.81639   -12714.736    4.3041831    4.3041831    4.3041831   -12714.736    4804.6492   -46356.081    3407.2253    10865.338    837.13861    3088.7065    79.739264 
   83700    789.01166   -116.52592   0.71391433   -115.81201    1814.4171    4.2944479    4.2944479    4.2944479    1814.4171   -8007.6625   -16135.407    29586.321    12360.682   -4202.9082   -5139.0476    79.199424 
   83800    842.29208   -116.57417   0.76212357   -115.81204    -9140.342    4.3035779    4.3035779    4.3035779    -9140.342   -1736.0597   -28424.445    2739.4781    -3008.863    3442.1219    10921.718    79.705633 
   83900    601.55928   -116.35858   0.54430348   -115.81428   -7731.8853    4.3025764    4.3025764    4.3025764   -7731.8853    16065.137   -46826.123    7565.3301    344.08914    2943.9294    12809.459    79.649997 
   84000    600.77166   -116.35709   0.54359082    -115.8135    867.94112    4.2944977    4.2944977    4.2944977    867.94112    12988.782    -37442.83    27057.871    6667.3954    6825.0794   -4708.0181    79.202181 
   84100    699.72756   -116.44731    0.6331282   -115.81418   -6532.8797    4.3039017    4.3039017    4.3039017   -6532.8797   -7155.3499   -24841.666    12398.376    2038.7283    2338.3376   -4469.7518    79.723621 
   84200    767.69115   -116.50731   0.69462309   -115.81269   -709.53791    4.2991034    4.2991034    4.2991034   -709.53791    9426.2821   -30054.587    18499.691   -3580.1883   -5168.7484    8479.0436    79.457278 
   84300    592.79461   -116.35067   0.53637302    -115.8143    5919.0774    4.2961177    4.2961177    4.2961177    5919.0774    31042.743   -34113.067    20827.556    6609.3326    1589.1904    4463.7769    79.291843 
   84400    569.40263   -116.32961   0.51520747    -115.8144   -12946.277    4.3075368    4.3075368    4.3075368   -12946.277   -3795.6925   -41813.125     6769.986    9442.9923    19.864924   -10444.362    79.925801 
   84500    687.28764   -116.43292    0.6218723   -115.81105   -1055.2769    4.2979586    4.2979586    4.2979586   -1055.2769   -6784.7521   -17873.915    21492.837   -4492.3318    846.32851    2636.5325    79.393816 
   84600    726.25528   -116.46851   0.65713104   -115.81137    4191.3689    4.2946984    4.2946984    4.2946984    4191.3689    4162.5711   -10983.572    19395.107   -1427.5863   -4248.8082    14734.856    79.213281 
   84700    565.84108   -116.32662    0.5119849   -115.81463   -12873.923    4.3065185    4.3065185    4.3065185   -12873.923    1485.6059   -43874.987    3767.6105    10158.023   -4687.0154   -2927.3273    79.869131 
   84800    638.41686   -116.39159   0.57765299   -115.81394   -7308.3944    4.2975997    4.2975997    4.2975997   -7308.3944   -7554.9415   -31483.435    17113.193    4154.9472    10020.498   -6870.7544    79.373931 
   84900    712.52615   -116.45896   0.64470864   -115.81425    3689.6614    4.2971429    4.2971429    4.2971429    3689.6614   -3828.6358   -9782.4614    24680.081   -10202.978    7449.4219    7578.2064     79.34862 
   85000    842.14474   -116.57447   0.76199026   -115.81248   -13857.353    4.3052012    4.3052012    4.3052012   -13857.353   -3356.0741   -37923.027   -292.95686   -1207.2683   -2245.8711    9002.9923    79.795859 
   85100    636.04541   -116.38933   0.57550726   -115.81383    3216.2426    4.2953495    4.2953495    4.2953495    3216.2426    24772.065   -33180.032    18056.695    10128.651    674.29701   -5425.5814    79.249317 
   85200    702.89862   -116.45108   0.63599744   -115.81508   -6847.9221    4.3016738    4.3016738    4.3016738   -6847.9221   -7568.5803   -31168.062    18192.876   -440.92919    6035.3169   -9651.1015    79.599881 
   85300    882.86738   -116.61007   0.79883695   -115.81123   -6682.5846    4.3040178    4.3040178    4.3040178   -6682.5846   -6219.2783   -23858.562    10030.086   -4296.6919    1417.9327    2989.1943    79.730078 
   85400    914.94941    -116.6385   0.82786545   -115.81064    6003.6611     4.293534     4.293534     4.293534    6003.6611    13227.903   -16951.629    21734.709    6963.3611   -7343.6885     1084.796    79.148872 
   85500    722.01726   -116.46906   0.65329639   -115.81577   -11248.312    4.3044581    4.3044581    4.3044581   -11248.312   -15259.229   -36346.948    17861.242    4918.8177     3211.689   -3956.2603    79.754549 
   85600    883.57134    -116.6141   0.79947392   -115.81463   -7886.9126    4.3011919    4.3011919    4.3011919   -7886.9126   -16490.038   -26359.317    19188.618   -8271.8577    6918.8238    2956.4306    79.573134 
   85700    992.40101   -116.71034   0.89794529   -115.81239    15378.446    4.2925159    4.2925159    4.2925159    15378.446    13169.467   -1716.8344    34682.706   -4972.7637   -5699.2101    1038.8028    79.092578 
   85800    902.21429   -116.63156   0.81634245   -115.81522   -4162.3876    4.3046126    4.3046126    4.3046126   -4162.3876    2570.0448   -26449.275    11392.067    3274.6486   -8190.3553   -2855.9338    79.763134 
   85900    753.84056   -116.49819   0.68209078    -115.8161    -631.5753    4.3021606    4.3021606    4.3021606    -631.5753    12547.037   -31827.477    17385.714   -5653.3382    6951.1339   -6800.8701    79.626907 
   86000    1038.1726   -116.75062    0.9393604   -115.81125    5750.4025    4.2966816    4.2966816    4.2966816    5750.4025    5163.0307   -12498.698    24586.875   -8364.1972     10794.64   -874.46218    79.323072 
   86100    1163.1086   -116.86414    1.0524051   -115.81174   -1959.4286    4.3004951    4.3004951    4.3004951   -1959.4286   -9521.0286   -5637.8984    9280.6413    1684.3094   -14203.988    4727.8667    79.534468 
   86200    1022.4342    -116.7402   0.92511997   -115.81508   -3877.8127      4.29873      4.29873      4.29873   -3877.8127   -3641.8395     -21630.2    13638.601    3352.7767   -13656.921   -8184.7231    79.436574 
   86300    1058.0092   -116.77275   0.95730898   -115.81544   -7998.6017    4.3009763    4.3009763    4.3009763   -7998.6017   -8387.2605   -30200.463    14591.919    2047.4179    11821.746   -6506.1437    79.561167 
   86400    1196.8774   -116.89638    1.0829598   -115.81342    957.45377    4.2994311    4.2994311    4.2994311    957.45377   -11192.802   -4664.1222    18729.285   -3753.8565    2234.2687    1392.8545    79.475448 
   86500     1171.519   -116.87384     1.060015   -115.81382    10219.952     4.296062     4.296062     4.296062    10219.952      12169.8   -1650.6157    20140.671   -1369.4903   -17539.186   -1400.9601    79.288757 
   86600    1107.9428    -116.8179    1.0024899   -115.81541   -1118.1133    4.3034134    4.3034134    4.3034134   -1118.1133    10806.163   -21555.079    7394.5758    1466.5357    -1305.305    585.62701    79.696494 
   86700    1227.7846   -116.92493    1.1109253   -115.81401    4318.5623    4.2981438    4.2981438    4.2981438    4318.5623    4467.0308   -15915.442    24404.098   -1348.5663    11585.151   -2179.5751    79.404083 
   86800    1199.4268   -116.90044    1.0852666   -115.81517    12894.732    4.2956724    4.2956724    4.2956724    12894.732    11036.844    7497.1963    20150.156    552.16655   -10033.915   -2191.2945     79.26719 
   86900    1319.2328   -117.00787    1.1936696    -115.8142   -5973.9939      4.30509      4.30509      4.30509   -5973.9939   -12547.329   -3818.0103   -1556.6428   -4893.5194   -19985.186    -3104.723    79.789677 
   87000     1345.168   -117.02963    1.2171363   -115.81249    6071.2618    4.2979791    4.2979791    4.2979791    6071.2618   -3.0641401   -5838.9325    24055.782    29.318207    5322.1383   -4754.8007    79.394951 
   87100    1298.5325    -116.9884    1.1749395   -115.81346     8027.244    4.2952634    4.2952634    4.2952634     8027.244    9395.0499   -4637.8692    19324.552    8610.2386    6918.4157    7163.9991    79.244551 
   87200    1136.0536    -116.8451    1.0279251   -115.81718    432.79556    4.3042172    4.3042172    4.3042172    432.79556   -8028.5543    6577.5741    2749.3668    2625.0864   -22198.391    4340.5791    79.741156 
   87300    1317.8409   -117.00583    1.1924102   -115.81342    7950.3764    4.2998591    4.2998591    4.2998591    7950.3764    8837.0386     4415.998    10598.093    2627.2879   -13146.122   -5717.2022    79.499186 
   87400    1439.9266    -117.1144    1.3028758   -115.81152    11556.497    4.2959731    4.2959731    4.2959731    11556.497    19982.139   -3015.4068     17702.76    1084.7617    10144.764   -3252.1199    79.283837 
   87500    1283.0162   -116.97651       1.1609   -115.81561    -5327.177    4.3022774    4.3022774    4.3022774    -5327.177   -12744.415   -2409.1027   -828.01299    2151.5637   -3207.1079   -1624.0088    79.633394 
   87600    1184.9112   -116.88919    1.0721325   -115.81706    1707.5364    4.2982486    4.2982486    4.2982486    1707.5364   -15406.216    19651.284    877.54193    3318.0679   -22039.267    627.54113    79.409887 
   87700    1490.0087   -117.16308    1.3481912   -115.81489    4377.4113    4.2976638    4.2976638    4.2976638    4377.4113     3035.934    2043.4828     8052.817   -3728.4093   -7626.0045   -2178.2054    79.377483 
   87800    1465.4477   -117.14043    1.3259679   -115.81446    4323.3228    4.3018751    4.3018751    4.3018751    4323.3228    6673.5192   -159.99526    6456.4445    703.57348    7052.4466   -404.31736    79.611057 
   87900    1250.3452   -116.94727    1.1313386   -115.81593    7712.8757    4.2970912    4.2970912    4.2970912    7712.8757    141.81916    16693.368      6303.44    736.40338   -10001.337    2922.7572    79.345755 
   88000    1174.6791   -116.88025    1.0628743   -115.81738    2820.3646    4.3014014    4.3014014    4.3014014    2820.3646    6209.0599   -1200.8831    3452.9169   -4674.5277   -7985.7951   -7047.0787    79.584761 
   88100    1427.0081   -117.10462    1.2911869   -115.81343    3726.6491    4.3000041    4.3000041    4.3000041    3726.6491    8462.6102   -9720.4687    12437.806   -4665.0141    3349.1344   -4249.4098    79.507226 
   88200    1500.2627   -117.16874    1.3574692   -115.81127    11329.248    4.2951821    4.2951821    4.2951821    11329.248    7683.8897    4883.2972    21420.557    3227.6759   -8845.5195    4463.1628    79.240048 
   88300    1285.1946   -116.97838    1.1628711   -115.81551   -5638.4114    4.3052725    4.3052725    4.3052725   -5638.4114   -11150.197    -4409.204   -1355.8326    6136.9519   -13277.515   -2125.8549    79.799822 
   88400    1236.4174   -116.93371    1.1187365   -115.81498   -449.85709    4.2990989    4.2990989    4.2990989   -449.85709   -1742.7148   -5746.1306    6139.2741   -6318.2085     787.7693    -10004.92    79.457028 
   88500    1342.6888   -117.02793    1.2148931   -115.81303    14683.853    4.2946825    4.2946825    4.2946825    14683.853    18365.819   -3651.2696    29337.009   -10642.748    3292.6524    -4004.177    79.212403 
   88600    1393.5584   -117.07342    1.2609209    -115.8125    1478.6181    4.3050599    4.3050599    4.3050599    1478.6181    2417.2131    1589.9749    428.66626   -117.18436    -10729.76    6209.9891    79.788003 
   88700    1138.4032   -116.84422    1.0300511   -115.81416    11115.261    4.2987295    4.2987295    4.2987295    11115.261    14666.958    10743.851    7934.9737    689.84319   -7919.2488   -194.13732    79.436548 
   88800    1072.8891   -116.78622   0.97077263   -115.81545    6688.4784    4.2971299    4.2971299    4.2971299    6688.4784   -1666.4136     1113.093    20618.756   -12981.655    9524.2029   -6119.4563      79.3479 
   88900    1196.6063   -116.89584    1.0827145   -115.81312    1361.7555    4.3029345    4.3029345    4.3029345    1361.7555   -12287.575    754.37571    15618.465   -11304.078    2203.9403     1186.397    79.669889 
   89000    1312.8186    -116.9989    1.1878658   -115.81104    3172.0987    4.2992059    4.2992059    4.2992059    3172.0987   -13271.249    15248.761    7538.7833    1895.5298   -14704.274    2329.5886    79.462962 
   89100    1028.5541   -116.74621   0.93065733   -115.81555   -698.65809    4.2983605    4.2983605    4.2983605   -698.65809   -14646.114    5948.5409    6601.5989   -4759.5452   -3050.3085   -5298.7323    79.416091 
   89200    1029.7916   -116.74824   0.93177711   -115.81646   -6069.9312    4.2990887    4.2990887    4.2990887   -6069.9312   -14880.999   -14774.274    11445.479   -10254.343    9820.1643   -5400.0476    79.456462 
   89300    1178.2185   -116.87953    1.0660769   -115.81346   -1317.3547    4.3028216    4.3028216    4.3028216   -1317.3547   -1806.2405   -13813.703     11667.88    2759.1879   -4930.1876    1181.8314    79.663618 
   89400    1231.3839   -116.92493     1.114182   -115.81075   -3069.4178     4.300942     4.300942     4.300942   -3069.4178   -8261.2301   -4876.3026    3929.2793    915.86721   -5857.4532   -538.76666    79.559265 
   89500    925.33163   -116.65042    0.8372595   -115.81316    5466.2193    4.2966791    4.2966791    4.2966791    5466.2193    13824.565   -4832.3458    7406.4391   -15676.321    5178.8655   -10617.815    79.322934 
   89600    936.49667   -116.66205   0.84736187   -115.81469   -4989.7555    4.3040393    4.3040393    4.3040393   -4989.7555   -15480.841   -5089.9482    5601.5225   -12643.207    4134.8684   -7300.1309    79.731269 
   89700    1118.6695   -116.82351    1.0121957   -115.81131    4814.6251    4.2991819    4.2991819    4.2991819    4814.6251   -14254.899    13927.841    14770.934    8886.0114   -844.74186    4865.7022    79.461629 
   89800    968.44426    -116.6887   0.87626872   -115.81244    10490.715    4.2976644    4.2976644    4.2976644    10490.715    5708.5898    17768.635    7994.9201    3959.4967    -203.1481   -346.28829    79.377514 
   89900    767.94311   -116.50989   0.69485106   -115.81504   -7973.7065    4.3057423    4.3057423    4.3057423   -7973.7065   -18477.896   -7317.4436    1874.2197   -15845.333    4802.0393   -6909.7369    79.825952 
   90000    927.49715   -116.65123   0.83921891   -115.81201     2042.049    4.2973283    4.2973283    4.2973283     2042.049   -14559.165   -4130.3173    24815.629    -1842.924   -1843.8805   -566.35671    79.358895 
   90100    1085.0315   -116.79229   0.98175927   -115.81053    38.047465     4.299691     4.299691     4.299691    38.047465   -14064.338   -3550.3767    17728.857    10570.299   -3369.7511    2164.6052    79.489863 
   90200     886.2738   -116.61506   0.80191916   -115.81315   -7403.4234    4.3036848    4.3036848    4.3036848   -7403.4234   -15407.392   -11070.765    4267.8863   -3548.6057    8083.3736   -4916.8216    79.711568 
   90300    685.84425   -116.43509   0.62056629   -115.81453    7267.3628    4.2963388    4.2963388    4.2963388    7267.3628   -17132.784    17506.292    21428.581   -15379.068    4502.5435   -10531.029    79.304088 
   90400    921.69879   -116.64635   0.83397243   -115.81238   -2768.6589    4.3027429    4.3027429    4.3027429   -2768.6589   -34553.466    10099.714    16147.775   -600.02989   -3089.0078   -1576.6438    79.659248 
   90500    991.52107   -116.70793    0.8971491   -115.81078    3766.9863    4.2990604    4.2990604    4.2990604    3766.9863   -26405.055    24906.171    12799.843    7372.4395   -1653.8567   -1545.7283    79.454892 
   90600    726.84985   -116.47381   0.65766902   -115.81614    3198.2348    4.2959006    4.2959006    4.2959006    3198.2348    -20494.79    13645.618    16443.877   -13525.604    5005.4964   -9944.6762    79.279822 
   90700    775.50818    -116.5188    0.7016961    -115.8171    -16448.73    4.3041204    4.3041204    4.3041204    -16448.73   -32358.206   -25058.104     8070.121    -9222.557    4345.9129    -3732.821    79.735777 
   90800    1077.5085   -116.78655   0.97495235   -115.81159   -4519.0491    4.2986865    4.2986865    4.2986865   -4519.0491   -25259.522   -444.45431    12146.829    7144.2208    138.37612    6176.5892    79.434162 
   90900    940.67887   -116.66384   0.85114601   -115.81269    1657.1966    4.2974092    4.2974092    4.2974092    1657.1966   -27249.187    16580.994    15639.783   -4679.9248     8755.513    1339.3275    79.363376 
   91000    563.72894   -116.32761   0.51007379   -115.81754   -3247.9777     4.302581     4.302581     4.302581   -3247.9777   -25085.756    11879.657    3462.1665   -17358.207    3485.9825   -12259.328    79.650256 
   91100    768.10736   -116.50904   0.69499968   -115.81404    2152.3785    4.3006474    4.3006474    4.3006474    2152.3785   -18362.986    20791.308    4028.8136   -7038.8343   -4453.1157    -3010.877    79.542915 
   91200    1076.7008   -116.78289   0.97422154   -115.80867    3538.1152    4.2994699    4.2994699    4.2994699    3538.1152   -24468.838    21954.115    13129.068    4277.6223    2768.9017    3835.9835    79.477602 
   91300    798.80326    -116.5356   0.72277397   -115.81283   -1972.6654    4.3010817    4.3010817    4.3010817   -1972.6654   -23425.232    8027.3971    9479.8389   -12585.257     4408.414    -6458.455     79.56702 
   91400    682.13413   -116.43203    0.6172093   -115.81482   -11146.411    4.3016774    4.3016774    4.3016774   -11146.411   -22873.496   -13318.012    2752.2756   -13381.222    2274.7484   -12331.557    79.600082 
   91500     965.8146   -116.68523   0.87388935   -115.81134   -1810.5966    4.2993443    4.2993443    4.2993443   -1810.5966   -22186.498    11284.216    5470.4921    5819.5311   -3786.0846   -1422.3132    79.470633 
   91600    973.02316   -116.69093    0.8804118   -115.81052    4325.8636    4.3003295    4.3003295    4.3003295    4325.8636   -24641.997    30059.045    7560.5429    1719.0757   -2108.9009    5275.2807    79.525276 
   91700    616.31609   -116.37272   0.55765575   -115.81506   -7119.5333    4.3030284    4.3030284    4.3030284   -7119.5333   -43240.822    14764.874    7117.3475   -19144.549    4643.7267   -3941.1937    79.675101 
   91800    665.52123   -116.41572   0.60217759   -115.81354   -4461.2252    4.2993512    4.2993512    4.2993512   -4461.2252   -24476.904    7733.6291    3359.5991   -12957.945   -1461.9124   -8459.8087    79.471019 
   91900    983.09751   -116.69862   0.88952728   -115.80909   -247.40133    4.2988884    4.2988884    4.2988884   -247.40133    -16832.69    13191.071    2899.4144    4926.3397    1146.7433    2056.5772    79.445356 
   92000    768.01346   -116.50752   0.69491472   -115.81261   -5282.6993    4.3021813    4.3021813    4.3021813   -5282.6993   -21386.153   -1452.1815    6990.2361   -9967.4271    5979.4256    1692.3028    79.628057 
   92100    524.81349   -116.29171   0.47486228   -115.81684   -8413.9519    4.2984644    4.2984644    4.2984644   -8413.9519   -23989.846    -12845.62    11593.611   -19516.487    1877.2504   -10513.338    79.421853 
   92200    774.71566   -116.51506   0.70097901   -115.81408   -3082.0538    4.2986786    4.2986786    4.2986786   -3082.0538   -18132.974    7738.5121    1148.3003    675.41326    1666.9095   -4323.2377    79.433725 
   92300    892.61537   -116.61845   0.80765715   -115.81079   -1261.2915    4.3041073    4.3041073    4.3041073   -1261.2915   -17979.663    15761.616   -1565.8271    3631.4173    141.84099    2975.1165    79.735051 
   92400    627.09044   -116.38285   0.56740461   -115.81545   -7398.6544    4.2980823    4.2980823    4.2980823   -7398.6544   -45334.896    9347.5689    13791.364   -14076.937    834.94971   -7421.7707    79.400674 
   92500    501.67489   -116.27061   0.45392598   -115.81668    1791.1751    4.2961808    4.2961808    4.2961808    1791.1751   -17608.587    10798.171    12183.941   -16458.624    57.039946   -14876.138    79.295338 
   92600     835.8649   -116.56836   0.75630812   -115.81205    -5791.041    4.3074861    4.3074861    4.3074861    -5791.041   -7483.5962     -226.513   -9663.0137    1600.7575   -4915.6697   -3685.3576    79.922975 
   92700    719.60128   -116.46246   0.65111036   -115.81135    7298.0877    4.2972345    4.2972345    4.2972345    7298.0877   -2816.6281    11090.998    13619.893   -6358.2361   -2288.6116    5879.5709    79.353696 
   92800    494.89241   -116.26298   0.44778905   -115.81519   -6601.2428     4.295719     4.295719     4.295719   -6601.2428   -27225.517    -7569.423    14991.211   -15233.963    267.51979   -11418.425    79.269767 
   92900    666.39507   -116.41608   0.60296826   -115.81311   -16885.039    4.3073286    4.3073286    4.3073286   -16885.039   -27585.214   -16757.004   -6312.8978   -2453.7642   -1401.3905   -15303.654    79.914211 
   93000    954.36921    -116.6718   0.86353331   -115.80827      5372.42    4.2956647    4.2956647    4.2956647      5372.42     -8001.24    14459.492    9659.0079    2122.3364    1538.0177    4961.3802    79.266761 
   93100     635.8645   -116.38866   0.57534356   -115.81332   -4224.2424    4.2980506    4.2980506    4.2980506   -4224.2424   -21418.368   -3634.7484     12380.39    -11434.35    198.00263   -322.27198    79.398916 
   93200    475.38842   -116.24659   0.43014143   -115.81645   -17383.091    4.3051005    4.3051005    4.3051005   -17383.091   -22797.493   -21577.768   -7774.0121   -11430.878    3888.7099   -15837.856    79.790263 
   93300    779.00605    -116.5158   0.70486104   -115.81094    10881.691    4.2959614    4.2959614    4.2959614    10881.691    9738.2423    14100.536    8806.2953    3886.4494    4548.6144   -7310.4255    79.283187 
   93400    924.30358   -116.64638    0.8363293   -115.81005    -921.5818    4.3010168    4.3010168    4.3010168    -921.5818   -11496.174    4633.2273    4098.2011   -9728.1182   -5946.6298    4385.0371    79.563414 
   93500      558.997   -116.32332   0.50579224   -115.81753    -15461.36     4.301231     4.301231     4.301231    -15461.36   -40997.449   -9024.9891    3638.3596    -18786.32   -2830.0219   -7035.5307    79.575301 
   93600    667.99388   -116.41994    0.6044149   -115.81553    1204.4499    4.2940668    4.2940668    4.2940668    1204.4499   -10231.411    3683.3239    10161.436   -1528.7005   -4040.1123   -20409.969    79.178339 
   93700    997.28822   -116.71406   0.90236734   -115.81169    -4934.083    4.3068928    4.3068928    4.3068928    -4934.083   -17125.453   -3076.0562    5399.2605    7286.3524    181.66361   -101.64227    79.889956 
   93800    868.49139   -116.59977   0.78582926   -115.81394    627.91552    4.2980742    4.2980742    4.2980742    627.91552   -20329.404    7222.7859    14990.364   -9022.5868    348.47253     1530.574    79.400226 
   93900    549.76352   -116.31416   0.49743758   -115.81672     9807.576    4.2921689    4.2921689    4.2921689     9807.576     4436.933   -6276.3643    31262.159   -13785.059   -1223.0993   -19872.792    79.073402 
   94000    768.07258   -116.50959   0.69496821   -115.81462   -12133.295    4.3108437    4.3108437    4.3108437   -12133.295   -6335.2592   -26186.298   -3878.3283    3118.3549    3293.1805   -13111.685    80.110018 
   94100    1052.0504   -116.76193    0.9519173   -115.81001    10019.713    4.2941234    4.2941234    4.2941234    10019.713    1231.7124    6925.7312    21901.694    3406.6073    1954.8008    7243.3586     79.18147 
   94200     880.6275   -116.61197   0.79681027   -115.81516    2291.5375    4.2933638    4.2933638    4.2933638    2291.5375   -10097.191   -7834.3586    24806.163    -9563.204    4188.6293   -5714.4465    79.139457 
   94300    768.33195   -116.51042    0.6952029   -115.81522   -24821.087    4.3102581    4.3102581    4.3102581   -24821.087   -18690.705   -37587.166   -18185.389   -9408.0941   -1130.1213   -27801.451    80.077376 
   94400    1127.2339    -116.8297     1.019945   -115.80976    3917.0542    4.2917339    4.2917339    4.2917339    3917.0542    5164.1837    93.550365    6493.4285    1303.6043    -6736.382    -1149.516    79.049362 
   94500     1158.382   -116.86018    1.0481284   -115.81205   -642.32742     4.297766     4.297766     4.297766   -642.32742   -2869.1421   -4777.5291    5719.6889   -4964.8345   -3869.5984    11075.102    79.383143 
   94600    929.03188   -116.65642   0.84060757   -115.81581   -12590.153     4.304985     4.304985     4.304985   -12590.153   -1241.4205   -24625.261   -11903.777   -4861.9292   -487.89102   -19434.995    79.783841 
   94700    927.28144   -116.65335   0.83902373   -115.81433    17464.943    4.2908261    4.2908261    4.2908261    17464.943    41479.104   -692.59891    11608.323    179.58227    5647.2933   -17614.556    78.999209 
   94800    1197.7521   -116.89674    1.0837512   -115.81299   -666.07686    4.3034873    4.3034873    4.3034873   -666.07686    5014.5226   -8736.6097    1723.8565    3364.2005   -1760.3214    10926.131    79.700595 
   94900    1060.1624   -116.77418   0.95925722   -115.81493    4374.7159    4.2987076    4.2987076    4.2987076    4374.7159    13373.373   -4305.7241     4056.499   -159.26148   -2343.4488   -34.878458    79.435331 
   95000    937.05911   -116.66373   0.84787077   -115.81586    13251.098    4.2920475    4.2920475    4.2920475    13251.098    29092.091     4103.254    6557.9504   -8077.5762    4679.2422   -26849.643    79.066689 
   95100     1181.758   -116.88307    1.0692795   -115.81379   -13285.574     4.307031     4.307031     4.307031   -13285.574    996.88713   -19584.663   -21268.947   -1100.5353    2758.6811   -4482.2147    79.897647 
   95200    1270.5914   -116.96158    1.1496578   -115.81192    6148.5219    4.2927626    4.2927626    4.2927626    6148.5219     12796.31    10337.205   -4687.9494    2179.5007   -3013.7312    17271.551    79.106218 
   95300    1054.0148   -116.76996   0.95369476   -115.81627   -713.81302    4.2950137    4.2950137    4.2950137   -713.81302    16166.598   -3626.2691   -14681.768   -2145.4176   -10094.389   -15239.964    79.230731 
   95400    986.83213   -116.70987   0.89290645   -115.81696   -15346.266     4.306554     4.306554     4.306554   -15346.266    11584.301   -28246.151   -29376.947   -7032.2707    505.93494    -25258.86    79.871104 
   95500    1251.4156   -116.94433    1.1323071   -115.81203    11635.269    4.2895349    4.2895349    4.2895349    11635.269    21854.015     8342.673    4709.1188   -5236.2882    5094.7245    8508.8646    78.927915 
   95600    1092.7622    -116.8035    0.9887542   -115.81475    1933.4502    4.2992832    4.2992832    4.2992832    1933.4502    28101.934   -5204.1234    -17097.46    8060.9685    1266.4104    4496.1899    79.467246 
   95700    867.22782   -116.60211   0.78468596   -115.81742   -8443.3447    4.3034242    4.3034242    4.3034242   -8443.3447    24424.183   -22541.969   -27212.248    -2412.716   -300.99095   -20664.368    79.697091 
   95800    966.95638   -116.68893   0.87492245     -115.814    17273.281    4.2897475    4.2897475    4.2897475    17273.281    31111.731    12605.079    8103.0329   -13014.633    662.25293   -11702.293    78.939648 
   95900    1192.6236   -116.89162    1.0791109   -115.81251   -2577.1481    4.3027531    4.3027531    4.3027531   -2577.1481    11869.515    1853.9588   -21454.918    -2736.913    3022.4624    8500.8761    79.659814 
   96000    976.69292   -116.69857   0.88373228   -115.81484    1644.2346    4.2982324    4.2982324    4.2982324    1644.2346    26915.063    5638.3207    -27620.68    5938.4748   -3038.5035   -5490.2206    79.408989 
   96100    812.95848   -116.55175   0.73558192   -115.81617    5931.9999    4.2921485    4.2921485    4.2921485    5931.9999    17917.267    15699.605   -15820.872   -694.82857   -2824.0734   -18264.007    79.072273 
   96200    983.45407   -116.70468   0.88984991   -115.81483   -13636.354    4.3050897    4.3050897    4.3050897   -13636.354   -6937.0974   -7297.2608   -26674.703   -19035.096   -2214.7557   -167.04217    79.789662 
   96300    1061.9549   -116.77262   0.96087914   -115.81174    5545.8669    4.2936654    4.2936654    4.2936654    5545.8669    15580.576    18794.276   -17737.251   -7010.0741   -4780.2631    2956.2793    79.156139 
   96400    835.90182   -116.57074   0.75634153    -115.8144    292.96881    4.2956966    4.2956966    4.2956966    292.96881    20994.266    12326.905   -32442.265    7429.1618   -2548.0385   -11119.461    79.268529 
   96500    683.97322   -116.43423   0.61887335   -115.81536   -17676.468    4.3055523    4.3055523    4.3055523   -17676.468   -1708.6407   -18021.843   -33298.921   -12345.405    658.35721   -6318.4165    79.815386 
   96600    805.19869   -116.54179    0.7285607   -115.81323    7862.3672    4.2902097    4.2902097    4.2902097    7862.3672    10062.118    16280.917   -2755.9336   -15487.222    4634.3506    1675.3078     78.96517 
   96700    838.86784   -116.57289   0.75902525   -115.81386     3381.171    4.2979198    4.2979198    4.2979198     3381.171    23412.486    17755.234   -31024.207    2544.9341   -2953.2962   -8167.3848    79.391668 
   96800    687.14122   -116.43576   0.62173982   -115.81402     -11563.8        4.305        4.305        4.305     -11563.8     12786.72   -1901.2353   -45576.885    798.59202   -1876.2554   -12816.727    79.784673 
   96900    525.42355   -116.28974   0.47541427   -115.81433     6022.502      4.29044      4.29044      4.29044     6022.502    4786.9818    19918.551   -6638.0266   -19255.727    2053.4917   -858.02279    78.977886 
   97000    724.49533   -116.47098    0.6555386   -115.81544    -5566.124    4.2987699    4.2987699    4.2987699    -5566.124   -8274.6922    12405.711   -20829.391   -14195.893    223.99138     2428.548    79.438788 
   97100    816.94262   -116.55099   0.73918685    -115.8118    -6809.836    4.3018141    4.3018141    4.3018141    -6809.836    10126.178    14047.619   -44603.305    8133.6972   -1875.2335    -7923.026     79.60767 
   97200    594.63917   -116.35132   0.53804202   -115.81328   -2372.2062    4.2924699    4.2924699    4.2924699   -2372.2062    4528.7734    17542.748    -29188.14   -12021.743   -4689.7009   -6534.0339    79.090036 
   97300    458.88375   -116.23251   0.41520766    -115.8173   -15299.184    4.3007208    4.3007208    4.3007208   -15299.184   -15862.162   -7244.5249   -22790.865   -25385.531   -336.42243    6784.0999    79.546987 
   97400    669.84919   -116.41943   0.60609362   -115.81334   -5712.4254    4.2993122    4.2993122    4.2993122   -5712.4254    6995.0782    9345.9855    -33478.34    2215.9607   -4689.7071      485.563    79.468855 
   97500    673.40317    -116.4206   0.60930934   -115.81129    823.19906    4.2943867    4.2943867    4.2943867    823.19906    23936.356    23406.949   -44873.708    4870.8614   -4484.4213   -7026.4612    79.196035 
   97600    377.66483   -116.15844   0.34171908   -115.81672   -16071.058    4.3007021    4.3007021    4.3007021   -16071.058   -6891.1348   -4626.0095   -36696.028   -23155.045    2281.5104   -1920.1921    79.545952 
   97700    421.68166   -116.19788   0.38154643   -115.81633   -3680.1846    4.2966063    4.2966063    4.2966063   -3680.1846   -4661.5747    10971.517   -17350.496   -15782.635    2092.2842   -76.411518    79.318899 
   97800    699.09496   -116.44489   0.63255582   -115.81234    -1506.517    4.2983166    4.2983166    4.2983166    -1506.517    4957.6393    25481.103   -34958.293    10884.489   -1759.1649     1087.231    79.413659 
   97900     547.7661   -116.30947   0.49563028   -115.81383   -12829.296    4.3003716    4.3003716    4.3003716   -12829.296   -6342.0424    8758.2794   -40904.126   -9106.4728   -6190.7982   -2932.7177    79.527612 
   98000    345.75929   -116.12896   0.31285028   -115.81611   -3042.6794    4.2932605    4.2932605    4.2932605   -3042.6794   -5444.7428    14750.017   -18433.313   -30330.304    497.64453    -249.0233    79.133745 
   98100    507.84792   -116.27531   0.45951147    -115.8158   -4555.1122    4.3010156    4.3010156    4.3010156   -4555.1122   -160.20514    10519.599   -24024.731   -969.76715     281.7802     2950.358    79.563347 
   98200    583.10377   -116.34027   0.52760454   -115.81266   -1982.9868    4.2992729    4.2992729    4.2992729   -1982.9868    14964.326    17077.047   -37990.333    14536.798   -7663.4187   -387.18673    79.466677 
   98300    364.54025   -116.14451   0.32984368   -115.81466   -3094.5457    4.2925927    4.2925927    4.2925927   -3094.5457    7264.1105    16413.073    -32960.82    -19126.42   -3394.1907    681.46524    79.096824 
   98400    408.58041   -116.18573   0.36969214   -115.81603    -17233.64    4.3020324    4.3020324    4.3020324    -17233.64   -8517.7805   -7782.8343   -35400.306   -25013.238   -1539.9442   -2634.1288     79.61979 
   98500    625.55107    -116.3784   0.56601176   -115.81239   -2138.8377    4.2974424    4.2974424    4.2974424   -2138.8377    5545.3793     14146.89   -26108.782    10119.292   -1083.2265   -2636.1478    79.365216 
   98600    618.94057   -116.37328   0.56003044   -115.81325   -8636.9785    4.2940743    4.2940743    4.2940743   -8636.9785   -3634.1822     10160.35   -32437.103    2163.9499   -1343.9215     2363.216    79.178756 
   98700    424.04065   -116.20076   0.38368089   -115.81708   -20734.695    4.2998926    4.2998926    4.2998926   -20734.695   -11550.003   -12828.109   -37825.974   -30348.763    413.71643   -1854.1289    79.501043 
   98800    561.08696   -116.32361   0.50768327   -115.81592   -3706.0269    4.2971592    4.2971592    4.2971592   -3706.0269    15910.426    3160.5927     -30189.1   -10085.017    7995.2434   -855.28747    79.349524 
   98900    680.51995   -116.42936   0.61574875   -115.81361    5768.7004    4.2966051    4.2966051    4.2966051    5768.7004    16969.992    18357.383   -18021.274    13772.898    -2914.869   -1220.3046    79.318832 
   99000     575.5839   -116.33667    0.5208004   -115.81587   -3831.1018    4.2972898    4.2972898    4.2972898   -3831.1018    12818.457    1052.7103   -25364.473   -7314.6385   -7800.0393   -2305.4536    79.356758 
   99100    530.85404    -116.2973   0.48032789   -115.81697   -7660.2268    4.2973844    4.2973844    4.2973844   -7660.2268    5701.7158    582.69833   -29265.094   -23667.576    1501.2144   -2062.8395    79.362002 
   99200    722.89074   -116.46832   0.65408673   -115.81424    1271.9243    4.2978001    4.2978001    4.2978001    1271.9243    6384.8957    17865.376   -20434.499   -1528.9488    3224.8143   -3217.5373    79.385032 
   99300    823.22697   -116.55805   0.74487306   -115.81318    3213.4463     4.297472     4.297472     4.297472    3213.4463    10054.507    9270.8013   -9684.9692    7808.1971    1035.6909    2795.7608    79.366857 
   99400    679.17781   -116.42998   0.61453435   -115.81544   -4174.4122    4.2965831    4.2965831    4.2965831   -4174.4122    5694.2818    1164.4633   -19381.982   -15250.696   -4476.8763     1249.628    79.317615 
   99500    614.32641   -116.37196   0.55585545    -115.8161    -4978.632    4.2982561    4.2982561    4.2982561    -4978.632    12442.431    2705.9202   -30084.247   -16167.452    6909.8679   -7046.3266    79.410303 
   99600    792.50977   -116.53106   0.71707949   -115.81398    1639.1335    4.2987037    4.2987037    4.2987037    1639.1335     24063.57    4365.7423   -23511.911    5210.8531    11698.194   -4989.8292    79.435114 
   99700    859.73409   -116.59196   0.77790547   -115.81406    6163.9611     4.294438     4.294438     4.294438    6163.9611    16716.312    7487.4924   -5711.9209    1303.1142   -4359.5879    1833.3293    79.198875 
   99800    761.38142   -116.50547   0.68891391   -115.81656   -8311.1135    4.2971487    4.2971487    4.2971487   -8311.1135    139.81646   -6754.6549   -18318.502   -17043.563   -1083.9388    3220.7666    79.348941 
   99900    751.17693   -116.49583   0.67968068   -115.81615   -14003.522    4.3010953    4.3010953    4.3010953   -14003.522    4570.5315   -8954.1907   -37626.906   -9537.3098    7253.6068   -6727.3745    79.567771 
  100000    927.87176   -116.65281   0.83955786   -115.81325    1884.2282     4.295078     4.295078     4.295078    1884.2282    13410.691    8150.4088   -15908.415    9016.6429    6813.0898   -8054.0108    79.234288 
Loop time of 23.4149 on 1 procs for 100000 steps with 8 atoms

Pair  time (%) = 7.56554 (32.3108)
Kspce time (%) = 5.6441 (24.1047)
Neigh time (%) = 0 (0)
Comm  time (%) = 1.16214 (4.96323)
Outpt time (%) = 0.0266783 (0.113937)
Other time (%) = 9.01646 (38.5073)

Nlocal:    8 ave 8 max 8 min
Histogram: 1 0 0 0 0 0 0 0 0 0
Nghost:    2189 ave 2189 max 2189 min
Histogram: 1 0 0 0 0 0 0 0 0 0
Neighs:    2344 ave 2344 max 2344 min
Histogram: 1 0 0 0 0 0 0 0 0 0

Total # of neighbors = 2344
Ave neighs/atom = 293
Neighbor list builds = 0
Dangerous builds = 0
unfix 20
unfix 21
print "seeds:7052501"
seeds:7052501
