LAMMPS (16 Mar 2018)
# ---- initialize simulations
clear
units metal
dimension 3
boundary p p p
atom_style charge
atom_modify map array
# ---- create atoms
read_data /home/manuelesp/repos/pypospack/dev/MgO_iterative_conditioner/MgO_condition_by_a0/rank_8/MgO_NaCl.lmps_min_all/lammps.structure
  triclinic box = (0 0 0) to (4.2565 4.2565 4.2565) with tilt (0 0 0)
  1 by 1 by 1 MPI processor grid
  reading atoms ...
  8 atoms
# ---- define interatomic potential
include potential.mod
mass 1 24.305
mass 2 15.999

group Mg type 1
4 atoms in group Mg
group O type 2
4 atoms in group O

set group Mg charge 1.6287378290743892
  4 settings made for charge
set group O charge -1.6287378290743892
  4 settings made for charge

variable R_cut equal 10.0

pair_style buck/coul/long ${R_cut}
pair_style buck/coul/long 10
pair_coeff 1 1 0.0 0.5 0.0 ${R_cut}
pair_coeff 1 1 0.0 0.5 0.0 10
pair_coeff 1 2 1124.7578630014054 0.3100029336244492 0.0 ${R_cut}
pair_coeff 1 2 1124.7578630014054 0.3100029336244492 0.0 10
pair_coeff 2 2 19494.628108092067 0.39944549942886554 76.09156141505969 ${R_cut}
pair_coeff 2 2 19494.628108092067 0.39944549942886554 76.09156141505969 10

kspace_style pppm 1.0e-5

neighbor 1.0 bin
neigh_modify every 1 delay 0 check yes
# ---- define settings
compute eng all pe/atom
compute eatoms all reduce sum c_eng
# ---- run minimization
reset_timestep 0
fix 1 all box/relax aniso 0.0 vmax 0.001
thermo 10
thermo_style custom step pe xhi xlo yhi ylo zhi xy xz yz press pxx pyy pzz pxy pxz pyz c_eatoms
min_style cg
minimize 1e-25 1e-25 5000 10000
PPPM initialization ...
  using 12-bit tables for long-range coulomb (../kspace.cpp:321)
  G vector (1/distance) = 0.352595
  grid = 8 8 8
  stencil order = 5
  estimated absolute RMS force accuracy = 3.85047e-05
  estimated relative force accuracy = 2.674e-06
  using double precision FFTs
  3d grid and FFT values/proc = 3375 512
Neighbor list info ...
  update every 1 steps, delay 0 steps, check yes
  max neighbors/atom: 2000, page size: 100000
  master list distance cutoff = 11
  ghost atom cutoff = 11
  binsize = 5.5, bins = 1 1 1
  1 neighbor lists, perpetual/occasional/extra = 1 0 0
  (1) pair buck/coul/long, perpetual
      attributes: half, newton on
      pair build: half/bin/newton/tri
      stencil: half/bin/3d/newton/tri
      bin: standard
Per MPI rank memory allocation (min/avg/max) = 4.909 | 4.909 | 4.909 Mbytes
Step PotEng Xhi Xlo Yhi Ylo Zhi Xy Xz Yz Press Pxx Pyy Pzz Pxy Pxz Pyz c_eatoms 
       0    157.63621       4.2565            0       4.2565            0       4.2565            0            0            0     14019215     14019215     14019215     14019215 4.440912e-10 1.4762155e-09 4.3325504e-11    157.63621 
      10    138.18475    4.2777825   -0.0212825    4.2777825   -0.0212825    4.2777825            0            0            0     12685492     12685492     12685492     12685492 2.2008262e-10 2.7330286e-09 3.9155234e-09    138.18475 
      20    120.22845     4.299065    -0.042565     4.299065    -0.042565     4.299065            0            0            0     11478940     11478940     11478940     11478940 1.2328913e-09 -3.3436281e-09 -1.2234979e-09    120.22845 
      30    103.65847    4.3203475   -0.0638475    4.3203475   -0.0638475    4.3203475            0            0            0     10387307     10387307     10387307     10387307 9.4772539e-10 3.0349902e-10 3.7268763e-09    103.65847 
      40    88.370012      4.34163     -0.08513      4.34163     -0.08513      4.34163            0            0            0    9399267.9    9399267.9    9399267.9    9399267.9 8.141347e-10 -6.2537618e-10 -2.8284454e-09    88.370012 
      50    74.267463    4.3629125   -0.1064125    4.3629125   -0.1064125    4.3629125            0            0            0    8504858.8    8504858.8    8504858.8    8504858.8 -1.5140722e-09 1.4390928e-09 2.9680973e-09    74.267463 
      60    61.265111     4.384195    -0.127695     4.384195    -0.127695     4.384195            0            0            0    7695120.3    7695120.3    7695120.3    7695120.3 1.8831572e-10 1.4757985e-09 1.3917685e-09    61.265111 
      70    49.274111    4.4054775   -0.1489775    4.4054775   -0.1489775    4.4054775            0            0            0    6961719.8    6961719.8    6961719.8    6961719.8 2.3810478e-10 1.0745385e-08 1.0355686e-08    49.274111 
      80    38.222159      4.42676     -0.17026      4.42676     -0.17026      4.42676            0            0            0    6297442.4    6297442.4    6297442.4    6297442.4 -6.3936714e-10 -6.4714314e-10 -2.7185199e-09    38.222159 
      90    28.038452    4.4480425   -0.1915425    4.4480425   -0.1915425    4.4480425            0            0            0      5695602      5695602      5695602      5695602 6.0728857e-10 -6.0025038e-09 7.0012342e-10    28.038452 
     100    18.658342     4.469325    -0.212825     4.469325    -0.212825     4.469325            0            0            0    5150274.1    5150274.1    5150274.1    5150274.1 1.8111315e-09 5.969913e-09 4.6670492e-09    18.658342 
     110    10.026677    4.4906075   -0.2341075    4.4906075   -0.2341075    4.4906075            0            0            0    4656196.3    4656196.3    4656196.3    4656196.3 1.1687965e-09 4.7796291e-09 4.5152401e-09    10.026677 
     120    2.0775351      4.51189     -0.25539      4.51189     -0.25539      4.51189            0            0            0    4208274.2    4208274.2    4208274.2    4208274.2 1.5043536e-09 1.6449722e-09 3.6960203e-09    2.0775351 
     130   -5.2352326    4.5331725   -0.2766725    4.5331725   -0.2766725    4.5331725            0            0            0    3802244.9    3802244.9    3802244.9    3802244.9 -1.005455e-09 -2.901645e-09 -9.8562372e-10   -5.2352326 
     140   -11.958799     4.554455    -0.297955     4.554455    -0.297955     4.554455            0            0            0    3434207.4    3434207.4    3434207.4    3434207.4 5.8050514e-10 2.7772461e-09 2.2428756e-09   -11.958799 
     150    -18.13824    4.5757375   -0.3192375    4.5757375   -0.3192375    4.5757375            0            0            0    3100461.8    3100461.8    3100461.8    3100461.8 -7.680532e-10 3.740568e-09 3.2542349e-09    -18.13824 
     160   -23.813774      4.59702     -0.34052      4.59702     -0.34052      4.59702            0            0            0    2797848.6    2797848.6    2797848.6    2797848.6 4.7432866e-10 1.1930261e-09 7.4291958e-10   -23.813774 
     170   -29.023085    4.6183025   -0.3618025    4.6183025   -0.3618025    4.6183025            0            0            0    2523447.4    2523447.4    2523447.4    2523447.4 2.2399036e-10 1.9630824e-09 1.5322243e-09   -29.023085 
     180    -33.80033     4.639585    -0.383085     4.639585    -0.383085     4.639585            0            0            0    2274632.1    2274632.1    2274632.1    2274632.1 4.0276001e-10 -5.2612596e-10 -2.5289768e-10    -33.80033 
     190   -38.179502    4.6608675   -0.4043675    4.6608675   -0.4043675    4.6608675            0            0            0    2048980.6    2048980.6    2048980.6    2048980.6 6.1266381e-10 -7.4605292e-10 -6.6483556e-11   -38.179502 
     200   -42.189659      4.68215     -0.42565      4.68215     -0.42565      4.68215            0            0            0    1844348.6    1844348.6    1844348.6    1844348.6 1.0905037e-09 3.1825637e-10 1.0861558e-09   -42.189659 
     210    -45.85855    4.7034325   -0.4469325    4.7034325   -0.4469325    4.7034325            0            0            0      1658779      1658779      1658779      1658779 -1.5940201e-10 4.5201547e-11 -5.2183947e-11    -45.85855 
     220   -49.211783     4.724715    -0.468215     4.724715    -0.468215     4.724715            0            0            0    1490500.6    1490500.6    1490500.6    1490500.6 -3.593633e-10 1.7952256e-10 4.1569633e-10   -49.211783 
     230   -52.273089    4.7459975   -0.4894975    4.7459975   -0.4894975    4.7459975            0            0            0    1337909.9    1337909.9    1337909.9    1337909.9 -2.7029782e-10 8.3406007e-11 -8.0417857e-12   -52.273089 
     240   -55.064511      4.76728     -0.51078      4.76728     -0.51078      4.76728            0            0            0    1199553.1    1199553.1    1199553.1    1199553.1 -2.0324427e-10 -3.7318758e-10 -2.4790001e-10   -55.064511 
     250   -57.606367    4.7885625   -0.5320625    4.7885625   -0.5320625    4.7885625            0            0            0    1074113.6    1074113.6    1074113.6    1074113.6 2.0589677e-10 2.1802668e-10 2.8126674e-10   -57.606367 
     260   -59.910784     4.809845    -0.553345     4.809845    -0.553345     4.809845            0            0            0    960507.01    960507.01    960507.01    960507.01 -8.3354186e-10 -1.5764459e-10 -3.2672352e-10   -59.910784 
     270   -62.008924    4.8311275   -0.5746275    4.8311275   -0.5746275    4.8311275            0            0            0    857432.71    857432.71    857432.71    857432.71 -1.3834948e-10 -9.2933412e-10 -8.1467081e-10   -62.008924 
     280   -63.909949      4.85241     -0.59591      4.85241     -0.59591      4.85241            0            0            0    764020.03    764020.03    764020.03    764020.03 -3.2321558e-11 5.0561694e-10 7.9984012e-10   -63.909949 
     290   -65.628826    4.8736925   -0.6171925    4.8736925   -0.6171925    4.8736925            0            0            0    679379.85    679379.85    679379.85    679379.85 -2.9041963e-10 -2.0816857e-10 -9.7315778e-11   -65.628826 
     300   -67.179438     4.894975    -0.638475     4.894975    -0.638475     4.894975            0            0            0    602704.58    602704.58    602704.58    602704.58 9.3902718e-11 -1.9802508e-10 -2.5277437e-10   -67.179438 
     310   -68.574394    4.9162575   -0.6597575    4.9162575   -0.6597575    4.9162575            0            0            0    533279.69    533279.69    533279.69    533279.69 3.4741135e-10 -9.8328809e-11 -6.2875051e-11   -68.574394 
     320   -69.826013      4.93754     -0.68104      4.93754     -0.68104      4.93754            0            0            0    470404.81    470404.81    470404.81    470404.81 1.6241406e-10 -2.5271042e-11 -1.9225617e-10   -69.826013 
     330    -70.94502    4.9588225   -0.7023225    4.9588225   -0.7023225    4.9588225            0            0            0    413497.94    413497.94    413497.94    413497.94 1.0704219e-11 -3.4023855e-11 2.8983898e-11    -70.94502 
     340   -71.941672     4.980105    -0.723605     4.980105    -0.723605     4.980105            0            0            0    362010.27    362010.27    362010.27    362010.27 -1.8674126e-10 -1.2416199e-10 -2.8234252e-10   -71.941672 
     350   -72.825346    5.0013875   -0.7448875    5.0013875   -0.7448875    5.0013875            0            0            0    315445.64    315445.64    315445.64    315445.64 7.1470221e-11 6.0587739e-11 -7.7231631e-11   -72.825346 
     360   -73.603648      5.02267     -0.76617      5.02267     -0.76617      5.02267            0            0            0    273367.14    273367.14    273367.14    273367.14 5.3036982e-11 -2.0342017e-10 4.3209067e-11   -73.603648 
     370   -74.287002    5.0439525   -0.7874525    5.0439525   -0.7874525    5.0439525            0            0            0    235335.52    235335.52    235335.52    235335.52 1.1619115e-11 4.2954264e-11 8.5478879e-11   -74.287002 
     380   -74.881681     5.065235    -0.808735     5.065235    -0.808735     5.065235            0            0            0    200993.37    200993.37    200993.37    200993.37 1.1544734e-10 -4.5178412e-11 -6.7326345e-11   -74.881681 
     390   -75.394659    5.0865175   -0.8300175    5.0865175   -0.8300175    5.0865175            0            0            0    170002.05    170002.05    170002.05    170002.05 -1.540299e-10 -9.6912653e-11 -4.811723e-11   -75.394659 
     400   -75.832351       5.1078      -0.8513       5.1078      -0.8513       5.1078            0            0            0    142054.19    142054.19    142054.19    142054.19 6.1659404e-12 1.0615787e-10 7.3495524e-11   -75.832351 
     410   -76.200676    5.1290825   -0.8725825    5.1290825   -0.8725825    5.1290825            0            0            0     116870.6     116870.6     116870.6     116870.6 -1.577715e-10 4.7173192e-11 -7.6159149e-12   -76.200676 
     420    -76.50493     5.150365    -0.893865     5.150365    -0.893865     5.150365            0            0            0    94211.129    94211.129    94211.129    94211.129 -4.7997425e-11 8.9826416e-11 1.0613164e-10    -76.50493 
     430   -76.750674    5.1716475   -0.9151475    5.1716475   -0.9151475    5.1716475            0            0            0    73814.721    73814.721    73814.721    73814.721 4.0988075e-11 1.6232387e-10 1.7452912e-10   -76.750674 
     440   -76.942375      5.19293     -0.93643      5.19293     -0.93643      5.19293            0            0            0     55488.32     55488.32     55488.32     55488.32 2.0333199e-11 -6.8249468e-11 -1.297842e-10   -76.942375 
     450    -77.08438    5.2142125   -0.9577125    5.2142125   -0.9577125    5.2142125            0            0            0    39041.656    39041.656    39041.656    39041.656 3.5109768e-11 2.7535854e-11 2.4196167e-11    -77.08438 
     460    -77.18072     5.235495    -0.978995     5.235495    -0.978995     5.235495            0            0            0    24300.543    24300.543    24300.543    24300.543 1.1417483e-11 8.6374596e-12 3.1943498e-11    -77.18072 
     470   -77.235166    5.2567775   -1.0002775    5.2567775   -1.0002775    5.2567775            0            0            0    11107.814    11107.814    11107.814    11107.814 2.4414317e-11 -2.4809909e-11 1.6842137e-11   -77.235166 
     480   -77.251218    5.2767655   -1.0202655    5.2767655   -1.0202655    5.2767655            0            0            0  -0.99842204  -0.99842204  -0.99842204  -0.99842204 1.4431332e-10 3.5390752e-11 2.3858891e-11   -77.251218 
     483   -77.251221     5.276763    -1.020263     5.276763    -1.020263     5.276763            0            0            0   0.30123323   0.30123323   0.30123323   0.30123323 5.9770841e-12 -2.0991256e-10 -1.0166955e-10   -77.251221 
Loop time of 0.234723 on 1 procs for 483 steps with 8 atoms

99.5% CPU use with 1 MPI tasks x no OpenMP threads

Minimization stats:
  Stopping criterion = linesearch alpha is zero
  Energy initial, next-to-last, final = 
         157.636211408     -77.2512210641     -77.2512210641
  Force two-norm initial, final = 1168.78 0.000117068
  Force max component initial, final = 674.794 3.17334e-05
  Final line search alpha, max atom move = 0.5 1.58667e-05
  Iterations, force evaluations = 483 488

MPI task timing breakdown:
Section |  min time  |  avg time  |  max time  |%varavg| %total
---------------------------------------------------------------
Pair    | 0.041796   | 0.041796   | 0.041796   |   0.0 | 17.81
Kspace  | 0.066823   | 0.066823   | 0.066823   |   0.0 | 28.47
Neigh   | 0.00043583 | 0.00043583 | 0.00043583 |   0.0 |  0.19
Comm    | 0.0032952  | 0.0032952  | 0.0032952  |   0.0 |  1.40
Output  | 0.00068998 | 0.00068998 | 0.00068998 |   0.0 |  0.29
Modify  | 0          | 0          | 0          |   0.0 |  0.00
Other   |            | 0.1217     |            |       | 51.84

Nlocal:    8 ave 8 max 8 min
Histogram: 1 0 0 0 0 0 0 0 0 0
Nghost:    721 ave 721 max 721 min
Histogram: 1 0 0 0 0 0 0 0 0 0
Neighs:    712 ave 712 max 712 min
Histogram: 1 0 0 0 0 0 0 0 0 0

Total # of neighbors = 712
Ave neighs/atom = 89
Neighbor list builds = 7
Dangerous builds = 0
# ---- define output variables ----
variable natoms equal "count(all)"
variable tot_energy equal "c_eatoms"
variable a11 equal "xhi-xlo"
variable a22 equal "yhi-ylo"
variable a33 equal "zhi-zlo"
variable tilt_xy equal "xy"
variable tilt_xz equal "xz"
variable tilt_yz equal "yz"
variable tot_press equal "press"
variable press_xx equal "pxx"
variable press_yy equal "pyy"
variable press_zz equal "pzz"
variable press_xy equal "pxy"
variable press_xz equal "pxz"
variable press_yz equal "pyz"

# ---- output ----
print "pypospack:output_section:begin"
pypospack:output_section:begin
print "tot_energy = ${tot_energy}"
tot_energy = -77.2512210641424
print "num_atoms = ${natoms}"
num_atoms = 8
print "a11 = ${a11}"
a11 = 6.2970260446276
print "a22 = ${a22}"
a22 = 6.2970260446276
print "a33 = ${a33}"
a33 = 6.2970260446276
print "a12 = ${tilt_xy}"
a12 = 0
print "a13 = ${tilt_xz}"
a13 = 0
print "a23 = ${tilt_yz}"
a23 = 0
print "tot_press = ${tot_press}"
tot_press = 0.301233230923125
print "pxx = ${press_xx}"
pxx = 0.301233230835739
print "pyy = ${press_yy}"
pyy = 0.301233231028083
print "pzz = ${press_zz}"
pzz = 0.301233230905553
print "pxy = ${press_xy}"
pxy = 5.97708409560508e-12
print "pxz = ${press_xz}"
pxz = -2.09912555165476e-10
print "pyz = ${press_yz}"
pyz = -1.01669545758428e-10
print "pypospack:output_section:done"
pypospack:output_section:done
print "pypospack:lammps_sim:done"
pypospack:lammps_sim:done
Total wall time: 0:00:00
