LAMMPS (10 Feb 2015)
# ---- initialize simulations
clear
units metal
dimension 3
boundary p p p
atom_style charge
atom_modify map array
# ---- create atoms
read_data /Users/eugeneragasa/pyflamestk_git/pypospack/tests/tests_integration/workflow/WorkflowLammpsThermalExpansion/param_5262/MgO_NaCl_unit.npt.T2000/lammps.structure
  triclinic box = (0 0 0) to (4.2565 4.2565 4.2565) with tilt (0 0 0)
  1 by 1 by 1 MPI processor grid
  reading atoms ...
  8 atoms
# ---- define interatomic potential
include potential.mod
mass 1 24.305
mass 2 15.999

group Mg type 1
4 atoms in group Mg
group O type 2
4 atoms in group O

set group Mg charge 1.695400086
  4 settings made for charge
set group O charge -1.695400086
  4 settings made for charge

variable R_cut equal 10.0

pair_style buck/coul/long ${R_cut}
pair_style buck/coul/long 10
pair_coeff 1 1 0.0 0.5 0.0 ${R_cut}
pair_coeff 1 1 0.0 0.5 0.0 10
pair_coeff 1 2 1303.37543516 0.290482854228 0.0 ${R_cut}
pair_coeff 1 2 1303.37543516 0.290482854228 0.0 10
pair_coeff 2 2 9936.88636401 0.22003654812 26.9596347598 ${R_cut}
pair_coeff 2 2 9936.88636401 0.22003654812 26.9596347598 10

kspace_style pppm 1.0e-5

neighbor 1.0 bin
neigh_modify every 1 delay 0 check yes
# ---- define settings
compute eng all pe/atom
compute eatoms all reduce sum c_eng
# ---- run minimization
reset_timestep 0
fix 1 all box/relax iso 0.0 vmax 0.001
thermo 10
thermo_style custom step pe lx ly lz xy xz yz press pxx pyy pzz pxy pxz pyz c_eatoms
min_style cg
minimize 1e-25 1e-25 5000 10000
PPPM initialization ...
  G vector (1/distance) = 0.353118
  grid = 8 8 8
  stencil order = 5
  estimated absolute RMS force accuracy = 4.08652e-05
  estimated relative force accuracy = 2.83793e-06
  using double precision FFTs
  3d grid and FFT values/proc = 3375 512
Neighbor list info ...
  1 neighbor list requests
  update every 1 steps, delay 0 steps, check yes
  master list distance cutoff = 11
Memory usage per processor = 4.06549 Mbytes
Step PotEng Lx Ly Lz Xy Xz Yz Press Pxx Pyy Pzz Pxy Pxz Pyz eatoms 
       0   -115.99413       4.2565       4.2565       4.2565            0            0            0    97842.713    97842.713    97842.713    97842.713 -3.9648682e-11 -1.4130262e-10 -2.4072873e-11   -115.99413 
      10   -116.09248     4.299065     4.299065     4.299065            0            0            0    39915.456    39915.456    39915.456    39915.456 -6.718901e-11 1.6759609e-10 -1.4910019e-10   -116.09248 
      20   -116.11494    4.3319944    4.3319944    4.3319944            0            0            0    7.4200549    7.4200549    7.4200549    7.4200549 -9.9303313e-12 -1.50322e-10 -3.7717238e-11   -116.11494 
      22   -116.11494    4.3320008    4.3320008    4.3320008            0            0            0  0.022500426  0.022500427  0.022500425  0.022500427 -1.5011423e-10 -9.5142159e-11 1.463096e-10   -116.11494 
Loop time of 0.014775 on 1 procs for 22 steps with 8 atoms

Minimization stats:
  Stopping criterion = linesearch alpha is zero
  Energy initial, next-to-last, final = 
        -115.994127563     -116.114943198     -116.114943198
  Force two-norm initial, final = 14.1285 3.9258e-05
  Force max component initial, final = 14.1285 8.20487e-06
  Final line search alpha, max atom move = 0.5 4.10243e-06
  Iterations, force evaluations = 22 41

Pair  time (%) = 0.0040586 (27.4693)
Kspce time (%) = 0.00240541 (16.2802)
Neigh time (%) = 0 (0)
Comm  time (%) = 0.000434637 (2.9417)
Outpt time (%) = 3.19481e-05 (0.21623)
Other time (%) = 0.00784445 (53.0926)

Nlocal:    8 ave 8 max 8 min
Histogram: 1 0 0 0 0 0 0 0 0 0
Nghost:    2189 ave 2189 max 2189 min
Histogram: 1 0 0 0 0 0 0 0 0 0
Neighs:    2344 ave 2344 max 2344 min
Histogram: 1 0 0 0 0 0 0 0 0 0

Total # of neighbors = 2344
Ave neighs/atom = 293
Neighbor list builds = 0
Dangerous builds = 0
unfix 1
# ---- define output variables ----
variable natoms equal "count(all)"
variable tot_energy equal "c_eatoms"
variable length_x equal "lx"
variable length_y equal "ly"
variable length_z equal "lz"
variable tilt_xy equal "xy"
variable tilt_xz equal "xz"
variable tilt_yz equal "yz"
variable tot_press equal "press"
variable press_xx equal "pxx"
variable press_yy equal "pyy"
variable press_zz equal "pzz"
variable press_xy equal "pxy"
variable press_xz equal "pxz"
variable press_yz equal "pyz"

# ---- output ----
print "pypospack:output_section:begin"
pypospack:output_section:begin
print "tot_energy = ${tot_energy}"
tot_energy = -116.114943197766
print "num_atoms = ${natoms}"
num_atoms = 8
print "xx = ${length_x}"
xx = 4.33200077919323
print "yy = ${length_y}"
yy = 4.33200077919323
print "zz = ${length_z}"
zz = 4.33200077919323
print "xy = ${tilt_xy}"
xy = 0
print "xz = ${tilt_xz}"
xz = 0
print "yz = ${tilt_yz}"
yz = 0
print "tot_press = ${tot_press}"
tot_press = 0.0225004262556315
print "pxx = ${press_xx}"
pxx = 0.0225004265502418
print "pyy = ${press_yy}"
pyy = 0.0225004253807009
print "pzz = ${press_zz}"
pzz = 0.0225004268359518
print "pxy = ${press_xy}"
pxy = -1.50114228566484e-10
print "pxz = ${press_xz}"
pxz = -9.5142158828828e-11
print "pyz = ${press_yz}"
pyz = 1.46309599907844e-10
print "pypospack:output_section:done"
pypospack:output_section:done
print "pypospack:lammps_sim:done"
pypospack:lammps_sim:done
#------------------------------------------------------------------------------
# RUN THERMOSTAT
# running using an NPT Nose-Hoover style thermostat
#------------------------------------------------------------------------------
variable tempdamp equal 0.1
variable pressdamp equal 1.0
# set initial velocities
velocity all create 2000 4097642 mom yes dist gaussian loop all
# fix for Nose-Hoover style thermostat
fix 20 all npt temp 2000 2000 0.1 aniso 0.0 0.0 1.0 drag 1.0 couple xyz
variable boxx equal lx
variable boxy equal ly
variable boxz equal lz
variable boxp equal press
variable boxt equal temp
# calculate averages every 10000 steps
reset_timestep 0
fix 21 all ave/time 10 10 100 v_boxx v_boxy v_boxz v_boxp v_boxt file lattice.out
thermo_style custom step temp pe ke etotal press lx ly lz press pxx pyy pzz pxy pxz pyz vol
thermo_modify flush yes
thermo 100
run 100000
PPPM initialization ...
  G vector (1/distance) = 0.352343
  grid = 8 8 8
  stencil order = 5
  estimated absolute RMS force accuracy = 4.23631e-05
  estimated relative force accuracy = 2.94196e-06
  using double precision FFTs
  3d grid and FFT values/proc = 3375 512
Memory usage per processor = 3.06549 Mbytes
Step Temp PotEng KinEng TotEng Press Lx Ly Lz Press Pxx Pyy Pzz Pxy Pxz Pyz Volume 
       0         2000   -116.11495     1.809642   -114.30531    23774.403    4.3320008    4.3320008    4.3320008    23774.403    18545.835    27615.991    25161.384     4365.336   -7310.8044   -8386.8168    81.295326 
     100    970.18641   -114.97123   0.87784505   -114.09338     20140.93    4.3634815    4.3634815    4.3634815     20140.93   -3486.7186    43283.891    20625.619    1439.2391    113.78339     1185.338    83.080562 
     200    1239.4555   -114.71441    1.1214854   -113.59293   -29676.484    4.4099371    4.4099371    4.4099371   -29676.484   -72892.708    15230.913   -31367.656    15287.264   -767.12889    5028.3007    85.762452 
     300    2104.9934   -115.03513    1.9046423   -113.13048   -36353.686    4.4273728    4.4273728    4.4273728   -36353.686   -41722.253   -17816.113   -49522.691   -2096.4436    11403.918    8803.7836    86.783722 
     400    1751.8724   -114.38368    1.5851309   -112.79855   -34677.812    4.4195017    4.4195017    4.4195017   -34677.812   -49061.151   -32708.959   -22263.325    10268.619    2599.7091   -6960.0796    86.321687 
     500    2213.1942   -114.56504    2.0025447    -112.5625    2932.7965     4.403994     4.403994     4.403994    2932.7965   -23127.714   -14513.668    46439.772    14708.339   -5625.8508     1398.922    85.416184 
     600    2445.5468   -114.71724    2.2127821   -112.50446   -25848.064     4.412607     4.412607     4.412607   -25848.064   -14809.604   -27008.241   -35726.348   -7647.6735     14367.18    6070.9428    85.918317 
     700    1734.6486   -114.05162    1.5695465   -112.48207    7187.1157    4.4112164    4.4112164    4.4112164    7187.1157    -73516.04    83301.105    11776.282     14210.35   -18435.778    2466.2207    85.837108 
     800     1899.948   -114.18855    1.7191129   -112.46944    23221.716    4.4244703    4.4244703    4.4244703    23221.716    8134.0698    42187.438     19343.64    5133.7684   -8361.9203     8409.852    86.613154 
     900    1489.9132   -113.80136    1.3481048   -112.45326   -13255.148    4.4335663    4.4335663    4.4335663   -13255.148    -48362.73    48110.225   -39512.938   -13291.667     17638.78   -3038.0328    87.148439 
    1000    2302.3872   -114.51063    2.0832483   -112.42738   -40252.269    4.4102486    4.4102486    4.4102486   -40252.269   -68658.294   -8186.2127   -43912.301    1596.6304    1256.2909   -15262.112    85.780628 
    1100    2756.0452   -114.92591    2.4937276   -112.43218     16942.94    4.3996255    4.3996255    4.3996255     16942.94   -13786.466    7026.6867      57588.6   -3747.9303    4071.4609    3295.6287    85.162248 
    1200    1739.5807   -114.06796    1.5740092   -112.49395   -15660.802    4.4261176    4.4261176    4.4261176   -15660.802   -77210.622     49511.47   -19283.254    13786.175   -3563.2246    24951.266    86.709929 
    1300    1725.4023   -114.03312    1.5611803   -112.47194    6930.8324    4.4325416    4.4325416    4.4325416    6930.8324   -27601.728    91840.469   -43446.244    8953.2894   -11005.505   -6771.8096    87.088026 
    1400    1632.3062   -113.94258    1.4769449   -112.46563    12093.024    4.4320819    4.4320819    4.4320819    12093.024   -11064.753      34586.5    12757.325    6388.4825    7896.8049   -18325.225    87.060938 
    1500    2021.1063   -114.29135    1.8287395   -112.46261   -13127.232    4.4441879    4.4441879    4.4441879   -13127.232    -28492.13   -30474.836    19585.269   -1869.8162    117.60992   -1804.9456    87.776295 
    1600    2196.2472   -114.42199    1.9872106   -112.43478   -36049.988     4.444422     4.444422     4.444422   -36049.988   -40435.999   -46063.794   -21650.171    11618.808    16957.924    24206.585    87.790168 
    1700    1971.4534   -114.22212    1.7838125    -112.4383   -20200.397     4.425107     4.425107     4.425107   -20200.397   -29403.157   -20699.622   -10498.412   -2096.1504    11193.715   -9736.7189    86.650549 
    1800    2314.1226   -114.56751    2.0938667   -112.47365    10294.445    4.4203702    4.4203702    4.4203702    10294.445   -43468.416    52204.572    22147.178   -9489.8318   -25748.083   -6065.9789    86.372584 
    1900    2120.8762   -114.40758    1.9190133   -112.48856   -3890.1408     4.432892     4.432892     4.432892   -3890.1408   -19775.296    36810.416   -28705.542    16154.936      13670.9       7543.6    87.108686 
    2000    1492.4007   -113.82652    1.3503556   -112.47616    32455.669    4.4450592    4.4450592    4.4450592    32455.669    274.98123    42219.911    54872.115   -681.93737   -12770.058    26678.534     87.82793 
    2100    2534.3597   -114.74291    2.2931419   -112.44977    -16788.69    4.4622445    4.4622445    4.4622445    -16788.69   -64578.597   -9649.1895    23861.717    7965.3806   -99.694869    -7583.847    88.850546 
    2200    2143.2891   -114.36743     1.939293   -112.42813     4389.641     4.439455     4.439455     4.439455     4389.641   -25399.992    22919.237    15649.678    -9694.868    517.69621    10532.754    87.496158 
    2300    1787.4435   -114.03719    1.6173164   -112.41988    30822.182    4.4163816    4.4163816    4.4163816    30822.182    29879.933    46092.156    16494.456    9005.4269    -1678.708    -26533.57    86.138993 
    2400    1629.7335   -113.92269    1.4746172   -112.44807    40979.863     4.420777     4.420777     4.420777    40979.863    26847.383    111717.05   -15624.841   -7014.0182    5105.9834    -7375.798    86.396434 
    2500    2542.7268   -114.75555    2.3007127   -112.45484   -32115.946    4.4181251    4.4181251    4.4181251   -32115.946   -42124.567   -42649.394   -11573.875    -25861.76    1899.4208    25.829045    86.241049 
    2600    1825.7632   -114.12977    1.6519889   -112.47778    7392.6942    4.4287197    4.4287197    4.4287197    7392.6942    42473.327   -6480.4635   -13814.781    13549.193     13067.44   -23165.225     86.86295 
    2700    2040.6251   -114.29181    1.8464005   -112.44541   -45894.882    4.4602172    4.4602172    4.4602172   -45894.882   -73780.113   -31155.446   -32749.087    10860.961     -9726.95    17251.062    88.729496 
    2800    2343.4496   -114.50098    2.1204025   -112.38058   -41307.033    4.4414536    4.4414536    4.4414536   -41307.033   -56079.952   -25818.227    -42022.92   -3801.9132    9335.3529   -9291.3088     87.61438 
    2900    1846.3358   -114.00958    1.6706034   -112.33898    51444.539    4.3999532    4.3999532    4.3999532    51444.539    50761.742     64401.16    39170.716    35587.876    9165.2081   -9896.3367    85.181281 
    3000     1808.159   -114.04826    1.6360603    -112.4122    15714.416    4.4080916    4.4080916    4.4080916    15714.416    4038.4938    15958.471    27146.284   -8141.3309   -11103.604    15762.688    85.654823 
    3100    2381.0018   -114.59355    2.1543804   -112.43917   -4374.5434    4.4239436    4.4239436    4.4239436   -4374.5434   -12637.685    27696.551   -28182.496   -8314.7939    6038.2635   -9003.2541    86.582225 
    3200      1666.64   -113.97313    1.5080109   -112.46512   -11586.323    4.4326205    4.4326205    4.4326205   -11586.323    -7102.783   -21899.477    -5756.709    31100.565   -18.505634    13194.038     87.09268 
    3300    1950.9045   -114.21706    1.7652194   -112.45184    2652.9931    4.4362523    4.4362523    4.4362523    2652.9931   -21310.802    51950.661   -22680.879    12735.255   -19105.828    12839.441    87.306926 
    3400    2704.3851   -114.87188    2.4469845    -112.4249   -18674.007    4.4355855    4.4355855    4.4355855   -18674.007   -25263.735     13988.73   -44747.016   -34197.761   -11866.618    1109.2426    87.267568 
    3500    1602.8065   -113.85344     1.450253   -112.40319    43356.091    4.4216455    4.4216455    4.4216455    43356.091    83441.245    51809.719   -5182.6918    40051.637     17267.21   -8299.2661    86.447364 
    3600    2507.4291   -114.67468    2.2687746    -112.4059   -31364.815    4.4329475    4.4329475    4.4329475   -31364.815   -54413.861    3520.3414   -43200.925   -408.96765   -4339.1456    14274.916    87.111956 
    3700    1876.9941   -114.10518    1.6983437   -112.40684   -26034.905    4.4451217    4.4451217    4.4451217   -26034.905    25835.227   -79366.083   -24573.858   -1308.4298   -5329.4088   -10044.087    87.831635 
    3800    1688.6227   -113.91982    1.5279013   -112.39192   -17396.708    4.4371889    4.4371889    4.4371889   -17396.708    6270.8821    -107803.8    49342.797    39545.967   -13431.307   -29316.947     87.36224 
    3900    2214.4037   -114.37539     2.003639   -112.37175     36179.43    4.4141697    4.4141697    4.4141697     36179.43    52252.658    45111.064     11174.57   -25477.616   -6545.9079    1921.5323    86.009627 
    4000    2048.9341   -114.27059    1.8539186   -112.41667    694.01567    4.4155287    4.4155287    4.4155287    694.01567   -8164.4272   -32856.368    43102.842    16582.739    9444.2061    3845.0707    86.089096 
    4100    2297.6027   -114.50188    2.0789192   -112.42296     14856.06    4.4209113    4.4209113    4.4209113     14856.06    79802.245   -28562.896    -6671.169    15359.225    -13594.42   -9139.7103    86.404311 
    4200    1685.7107   -113.96079    1.5252665   -112.43553    22133.121    4.4332861    4.4332861    4.4332861    22133.121   -4959.9108   -639.21686    71998.492   -12951.066   -17733.663     4350.539    87.131916 
    4300    2288.4664   -114.49039    2.0706525   -112.41974   -43621.596    4.4458986    4.4458986    4.4458986   -43621.596   -47746.703   -80091.079   -3027.0055    18048.074    11264.701    12468.958    87.877693 
    4400    2273.9822   -114.44977    2.0575469   -112.39223   -12840.955    4.4318826    4.4318826    4.4318826   -12840.955   -20644.044   -52816.502     34937.68   -10870.951   -7874.8302    16341.672    87.049192 
    4500    1030.3821   -113.33858   0.93231136   -112.40627    27088.529    4.4335127    4.4335127    4.4335127    27088.529    37955.291   -11942.531    55252.827    2254.8116   -17694.242   -1698.6792    87.145278 
    4600    2832.9105   -114.94592     2.563277   -112.38264   -32894.541    4.4308427    4.4308427    4.4308427   -32894.541    -18237.04   -40938.107   -39508.476    21461.549    12948.384     23648.67    86.987932 
    4700    1908.8174   -114.11325    1.7271381   -112.38612    43492.401    4.4032732    4.4032732    4.4032732    43492.401     128120.3    506.96098    1849.9402    -22238.37   -26651.778   -16233.987    85.374247 
    4800    1640.3071   -113.92909    1.4841843   -112.44491    27496.085    4.4128079    4.4128079    4.4128079    27496.085   -23060.685      6474.51    99074.429   -24296.908   -20617.818    -5779.512    85.930052 
    4900    2783.7062   -114.95811    2.5187558   -112.43935   -13728.941    4.4322818    4.4322818    4.4322818   -13728.941    25306.301   -17632.311   -48860.814    2598.2538    20875.444   -10829.131    87.072718 
    5000    1574.0403   -113.83888    1.4242247   -112.41466   -14154.333    4.4328655    4.4328655    4.4328655   -14154.333   -14871.197    -35426.94    7835.1384   -3661.3545   -10082.136   -3737.5473    87.107123 
    5100    1374.6462   -113.62329    1.2438088   -112.37948    7152.2586    4.4276915    4.4276915    4.4276915    7152.2586    43264.912   -49619.504    27811.367   -13056.511   -12939.813    8379.3693    86.802465 
    5200    1884.9775   -114.07656    1.7055672   -112.37099    -25830.58    4.4162238    4.4162238    4.4162238    -25830.58   -26406.933   -8439.1911   -42645.617    7577.6258   -37394.268    18016.393    86.129758 
    5300     1934.173   -114.13731    1.7500804   -112.38723   -1268.5679    4.4110211    4.4110211    4.4110211   -1268.5679   -3392.6117    20895.335   -21308.427   -29702.957   -13721.645    2307.8552    85.825709 
    5400    2662.4099   -114.80048    2.4090044   -112.39147   -35354.611    4.4319571    4.4319571    4.4319571   -35354.611   -59276.179   -8515.9518   -38271.701   -19103.549    10252.512   -12824.879    87.053583 
    5500    1690.1424   -113.90042    1.5292763   -112.37115   -62835.703    4.4404226    4.4404226    4.4404226   -62835.703   -87467.561    4830.8106   -105870.36   -6417.5684    -60413.59   -1347.0252    87.553377 
    5600    2240.3821   -114.37238    2.0271448   -112.34523   -8458.4858    4.4118776    4.4118776    4.4118776   -8458.4858   -34257.182   -4417.9521    13299.677   -17788.983    425.62752   -9857.9762    85.875715 
    5700    1845.9542   -114.03391    1.6702581   -112.36365    36441.811    4.3980868    4.3980868    4.3980868    36441.811    70549.571   -18433.335    57209.196    12195.469   -7567.8149     19731.72     85.07293 
    5800    1186.4154   -113.50111    1.0734936   -112.42762   -600.39659    4.4207999    4.4207999    4.4207999   -600.39659     5669.188     21158.54   -28628.918   -15696.034   -44348.455    19188.359    86.397776 
    5900    2838.2295   -114.96384    2.5680897   -112.39575   -35834.339    4.4322195    4.4322195    4.4322195   -35834.339    4995.7982   -59633.657   -52865.158   -8564.7174     29299.06   -2648.4554    87.069043 
    6000    1608.0968   -113.85873    1.4550398    -112.4037   -7141.0513    4.4352191    4.4352191    4.4352191   -7141.0513    1318.7773   -6800.9286   -15941.003   -7772.0713   -19481.066    1515.9463    87.245943 
    6100    1938.0537   -114.13641    1.7535917   -112.38282   -16965.985    4.4302139    4.4302139    4.4302139   -16965.985    6370.4799   -26124.576    -31143.86   -11956.265   -23057.449    32931.505    86.950899 
    6200    2510.8993   -114.64431    2.2719144    -112.3724    19995.505     4.417315     4.417315     4.417315    19995.505    36074.247    43310.243   -19397.975   -3013.4983    1160.5021    27788.753    86.193615 
    6300    2136.8444   -114.34278    1.9334617   -112.40931    18171.894    4.4213737    4.4213737    4.4213737    18171.894    78345.503    7971.5118   -31801.332    12700.429   -11354.379   -1021.0664    86.431425 
    6400    1414.0683   -113.69361    1.2794787   -112.41413    -13222.47    4.4535352    4.4535352    4.4535352    -13222.47   -47365.832    61213.317   -53514.896   -5841.7164    -18936.53   -1455.8698     88.33131 
    6500     2439.018   -114.55405    2.2068747   -112.34718   -25741.062    4.4469432    4.4469432    4.4469432   -25741.062   -53512.893   -24558.465    848.17169    4721.0981     1972.612   -12857.585    87.939655 
    6600    1631.6138   -113.81759    1.4763185   -112.34127    4132.7583     4.411161     4.411161     4.411161    4132.7583    9631.6675    46790.032   -44023.424    4992.9519   -9681.0358    1558.3475    85.833875 
    6700     2443.391   -114.57082    2.2108315   -112.35999    17293.069     4.403197     4.403197     4.403197    17293.069     34919.09     4558.844    12401.274    2067.0691     1817.428   -9005.2671    85.369817 
    6800     2694.113   -114.85127    2.4376901   -112.41358   -24596.143    4.4202925    4.4202925    4.4202925   -24596.143   -27804.851    9214.6838   -55198.262    4334.2437   -20090.008   -17638.531    86.368034 
    6900    1729.3691   -113.99591    1.5647695   -112.43114    2753.7071    4.4300408    4.4300408    4.4300408    2753.7071   -29911.182    18925.078    19247.226   -349.48172   -18876.304   -4327.6164     86.94071 
    7000    1679.1974   -113.93713    1.5193731   -112.41776    15451.974    4.4289704    4.4289704    4.4289704    15451.974    15918.504   -19447.751     49885.17    8569.1153   -3358.2428    -13453.18    86.877701 
    7100    1654.3307   -113.91189    1.4968732   -112.41502    3782.9226     4.422309     4.422309     4.422309    3782.9226     3092.283    61744.966   -53488.481   -17923.025   -13893.722   -13094.369    86.486285 
    7200     1779.974   -114.01631    1.6105579   -112.40575    10224.626    4.4194071    4.4194071    4.4194071    10224.626   -32045.098    62316.322      402.655   -9518.7256   -9441.4466     16136.55    86.316145 
    7300    2317.1209   -114.50854    2.0965797   -112.41196   -14812.228    4.4245387    4.4245387    4.4245387   -14812.228   -19983.707    9721.8034   -34174.782    28397.177   -119.20405   -13602.784    86.617168 
    7400    2111.1277   -114.33021    1.9101927   -112.42002   -3750.8005    4.4426153    4.4426153    4.4426153   -3750.8005    -26291.84    59848.994   -44809.555   -1263.8149    2625.8695   -12614.906    87.683148 
    7500    2407.6216   -114.57269    2.1784666   -112.39422    2216.1462    4.4422213    4.4422213    4.4422213    2216.1462   -47174.164    57733.357   -3910.7545    7774.0031    11258.206   -7490.2487    87.659817 
    7600    2030.5401   -114.22991    1.8372754   -112.39263     15206.42    4.4383081    4.4383081    4.4383081     15206.42   -47942.648    20135.215    73426.694    7573.0259   -14012.328   -6464.7494     87.42836 
    7700     1848.231   -114.09958    1.6723183   -112.42726   -21565.733    4.4544232    4.4544232    4.4544232   -21565.733   -72261.815    39098.975   -31534.358    1912.5986   -4551.1878     29876.23    88.384158 
    7800    2269.3185   -114.43477     2.053327   -112.38144   -10298.507    4.4481223    4.4481223    4.4481223   -10298.507   -46063.982    85977.297   -70808.835   -5881.1537   -5113.0637    14066.093    88.009621 
    7900    1196.1692   -113.46896     1.082319   -112.38664    13203.668    4.4327671    4.4327671    4.4327671    13203.668    69945.801   -445.90939   -29888.888    29253.965    732.94091   -13477.365     87.10132 
    8000    2555.5502   -114.70078    2.3123155   -112.38846   -15837.024     4.415503     4.415503     4.415503   -15837.024    7673.6539   -26169.515   -29015.211   -17186.782    9994.7732    15022.174    86.087588 
    8100    2231.0946   -114.43858    2.0187413   -112.41984    7651.5145    4.4196658    4.4196658    4.4196658    7651.5145    101161.06   -16220.835   -61985.685    16379.075    3852.0539    -10003.39      86.3313 
    8200    2192.9309   -114.42138      1.98421   -112.43717   -13662.011    4.4349461    4.4349461    4.4349461   -13662.011   -19931.521    39237.586   -60292.097    20886.845   -14338.033   -1061.5179    87.229834 
    8300    1812.5181   -114.08923    1.6400045   -112.44922    4885.0265    4.4346792    4.4346792    4.4346792    4885.0265    135036.94    -40210.59    -80171.27   -17998.551    14050.542    27806.552    87.214083 
    8400     2162.821   -114.41529    1.9569659   -112.45832    10871.621    4.4216243    4.4216243    4.4216243    10871.621        45864    52926.833   -66175.971   -175.58604    18186.846   -8501.2104    86.446119 
    8500    2756.5142   -114.97535     2.494152   -112.48119   -22686.338    4.4248399    4.4248399    4.4248399   -22686.338    13553.847   -57123.664   -24489.196    19511.886   -2345.5163    21296.755    86.634862 
    8600    1065.6083   -113.45406    0.9641848   -112.48987   -32913.207    4.4562409    4.4562409    4.4562409   -32913.207    21814.787   -11249.878   -109304.53   -9102.3835    19218.349    6930.4473    88.492399 
    8700    2078.2241   -114.33693    1.8804208   -112.45651   -34264.903    4.4225242    4.4225242    4.4225242   -34264.903   -62671.284    33958.635   -74082.062   -13915.453    22694.969   -3964.4278    86.498915 
    8800    2382.1728   -114.59029      2.15544   -112.43485    59391.021     4.398925     4.398925     4.398925    59391.021     172057.5    57377.336   -51261.772    121.37781   -10349.619   -8113.7288    85.121581 
    8900    2344.6855   -114.61293    2.1215207   -112.49141   -37579.639    4.4381843    4.4381843    4.4381843   -37579.639   -44401.834    6209.0714   -74546.155    47059.785    5680.0841    3969.2826    87.421046 
    9000    1106.2877   -113.46592    1.0009924   -112.46493    21202.821    4.4577332    4.4577332    4.4577332    21202.821    138098.62    20749.117   -95239.269   -22421.607   -2259.3528    4673.2505    88.581337 
    9100    2445.4886   -114.63858    2.2127294   -112.42585   -12868.328    4.4543676    4.4543676    4.4543676   -12868.328    17824.255    5606.4178   -62035.657    8106.5747   -20637.179    -6882.504    88.380848 
    9200     2045.473   -114.26387    1.8507869   -112.41309    4293.8605    4.4335637    4.4335637    4.4335637    4293.8605    62465.243   -13136.976   -36446.685   -25487.486    16507.009   -19501.954    87.148288 
    9300    1555.7498   -113.83495    1.4076751   -112.42728   -31306.759    4.4271461    4.4271461    4.4271461   -31306.759   -6084.2884    19434.282   -107270.27   -22404.939    10256.619    8046.5451     86.77039 
    9400    2142.0896   -114.35603    1.9382077   -112.41782    33636.447    4.4147948    4.4147948    4.4147948    33636.447    79110.357    73537.218   -51738.235   -10978.785   -18714.111      4410.47    86.046175 
    9500    2328.8321   -114.57094    2.1071762   -112.46376   -37951.566    4.4415876    4.4415876    4.4415876   -37951.566   -28893.705     13187.94   -98148.933    12241.555    14139.291   -779.17834     87.62231 
    9600    1899.6978   -114.13373    1.7188865   -112.41485   -35835.954    4.4436386    4.4436386    4.4436386   -35835.954   -2237.0752    -23421.43   -81849.357     33099.87    630.13187    -11715.57    87.743751 
    9700    2749.4429   -114.83425    2.4877537    -112.3465     3202.157    4.4143075    4.4143075    4.4143075     3202.157    20800.795    25817.169   -37011.493    -23536.49   -9696.9143   -4650.9289    86.017682 
    9800    1159.9807   -113.44821    1.0495749   -112.39864     6073.368    4.4156795    4.4156795    4.4156795     6073.368   -41038.063    131347.47     -72089.3   -10297.568    7725.2923   -7533.8402    86.097916 
    9900    2432.7159    -114.6286    2.2011725   -112.42743    1523.9696    4.4342394    4.4342394    4.4342394    1523.9696    62871.726    28112.055   -86411.872   -24573.154   -20274.411   -1729.4842    87.188137 
   10000    1575.9274   -113.85149    1.4259323   -112.42556   -14341.929     4.450818     4.450818     4.450818   -14341.929    25390.962    45783.223   -114199.97    1837.1066    36843.379   -1845.1556    88.169729 
   10100    2206.5677   -114.38588    1.9965488   -112.38933   -22415.494    4.4241667    4.4241667    4.4241667   -22415.494   -19450.913    47735.401    -95530.97   -31057.814    -9741.351     21797.09    86.595326 
   10200    2465.1856   -114.62009    2.2305517   -112.38954     45610.01    4.4119657    4.4119657    4.4119657     45610.01    63209.103    75376.234   -1755.3072    30252.445    -5514.675   -4866.4996     85.88086 
   10300    1393.2153   -113.71671    1.2606105    -112.4561     33635.94    4.4373309    4.4373309    4.4373309     33635.94     12625.71     179205.3   -90923.189   -6579.4629   -802.72906    -15650.89    87.370624 
   10400     2377.463   -114.59576    2.1511785   -112.44458    -62527.58    4.4622714    4.4622714    4.4622714    -62527.58   -34048.243   -37286.146   -116248.35     19578.05   -22649.686    3591.2772    88.852148 
   10500    2117.6545   -114.31267    1.9160983   -112.39658    4159.1585    4.4615856    4.4615856    4.4615856    4159.1585    78465.998    -843.2309   -65145.292    23476.192   -3192.6951    17670.515    88.811191 
   10600    2227.6877   -114.38993    2.0156586   -112.37428   -30794.183    4.4615657    4.4615657    4.4615657   -30794.183   -34886.304    24225.382   -81721.628     23772.78    3208.6233    8227.1888        88.81 
   10700    2048.4678   -114.23687    1.8534967   -112.38337   -2056.4143     4.459917     4.459917     4.459917   -2056.4143    45158.741    17280.746   -68608.729    1541.5024    15332.598   -17008.985    88.711584 
   10800    2716.3986   -114.83707    2.4578546   -112.37921   -17294.194    4.4475005    4.4475005    4.4475005   -17294.194    6364.6247    11167.544   -69414.749    35672.426    78.375724    5536.8185    87.972719 
   10900    2051.1738    -114.2414    1.8559452   -112.38545    25971.399    4.4145431    4.4145431    4.4145431    25971.399    84906.263    23710.439   -30702.505   -11798.045    7110.9818    3097.3608    86.031457 
   11000    1698.9576   -113.95992    1.5372526   -112.42267    35724.426    4.4020061    4.4020061    4.4020061    35724.426    22466.787    125547.68   -40841.195   -3497.8885    31246.362   -4389.0516    85.300567 
   11100    1875.9933   -114.17892    1.6974382   -112.48148   -484.19011    4.4283446    4.4283446    4.4283446   -484.19011    23654.881   -5372.2986   -19735.153    183.61866   -11622.179    22497.863    86.840881 
   11200    2268.5353   -114.49748    2.0526184   -112.44486   -1684.7079    4.4458187    4.4458187    4.4458187   -1684.7079    39133.629    8305.1269   -52492.879    13965.697   -9380.1271   -8390.8585    87.872958 
   11300    1855.5557   -114.09187    1.6789458   -112.41293   -18084.331    4.4518268    4.4518268    4.4518268   -18084.331   -53632.724    33313.389   -33933.657    8214.0001    19809.378   -913.44199    88.229697 
   11400    2393.2895   -114.54318    2.1654986   -112.37768    -59355.25    4.4479028    4.4479028    4.4479028    -59355.25   -60494.294   -90271.945   -27299.511    16628.026    3490.6128    8512.3904    87.996595 
   11500    2183.1845   -114.34151    1.9753912   -112.36611    17736.543    4.4428122    4.4428122    4.4428122    17736.543     45752.26    -55036.53    62493.898    1729.0725    11054.377   -4272.4145    87.694804 
   11600    2051.7033   -114.22475    1.8564243   -112.36833   -29600.968    4.4439956    4.4439956    4.4439956   -29600.968   -75737.621   -5479.5875   -7585.6944   -41836.442    24981.985    17739.622      87.7649 
   11700    1693.5356   -113.89225    1.5323466    -112.3599   -10895.534     4.422417     4.422417     4.422417   -10895.534   -76720.093   -23260.857    67294.348   -32355.711   -24770.768   -13325.012    86.492622 
   11800    2516.4224   -114.64884    2.2769119   -112.37193    20426.346    4.4082942    4.4082942    4.4082942    20426.346    4381.4117    24405.512    32492.114    23014.008     10265.55   -30999.113    85.666638 
   11900    2377.0994   -114.60015    2.1508495    -112.4493    -45184.13    4.4398668    4.4398668    4.4398668    -45184.13   -77463.268   -62984.745    4895.6225   -23950.098   -1828.3159     12050.72    87.520506 
   12000    1278.5841   -113.58674    1.1568898   -112.42985   -9995.9404    4.4634387    4.4634387    4.4634387   -9995.9404   -52590.608   -55207.495    77810.282   -4728.2697    4597.1319    -21078.81      88.9219 
   12100    1931.2076   -114.11536    1.7473973   -112.36796   -21187.908    4.4439464    4.4439464    4.4439464   -21187.908    40077.596   -81703.901   -21937.417   -12726.892   -16331.785   -45701.214    87.761986 
   12200    2273.6609   -114.42103    2.0572561   -112.36378    38069.065    4.4134231    4.4134231    4.4134231    38069.065   -18664.624    10263.725     122608.1    18607.527   -13787.928   -10987.013    85.965997 
   12300    1903.8638    -114.1528     1.722656   -112.43015    51922.349    4.4205215    4.4205215    4.4205215    51922.349   -2334.5767    22918.316    135183.31    10613.135    13771.815   -35072.614    86.381457 
   12400    2133.4293   -114.37487    1.9303717    -112.4445   -25654.102    4.4634677    4.4634677    4.4634677   -25654.102   -8442.5247   -31953.195   -36566.585    12426.664    11238.578   -1158.9559    88.923631 
   12500    2488.0366   -114.59676    2.2512278   -112.34553   -69459.993    4.4781272    4.4781272    4.4781272   -69459.993   -45281.548   -97372.321    -65726.11      22417.7   -754.65707     -2383.29    89.802678 
   12600    1995.5278   -114.10961    1.8055955   -112.30401    9857.6604    4.4362786    4.4362786    4.4362786    9857.6604   -5302.3552   -18789.816    53665.152   -26941.075   -8871.9602   -31332.448    87.308481 
   12700    1854.6061   -113.99341    1.6780866   -112.31532    58819.861    4.4020533    4.4020533    4.4020533    58819.861    10875.156    106502.04    59082.385    8532.1456    4026.0181    5286.2181    85.303311 
   12800    2441.3028   -114.59087    2.2089421   -112.38193    21268.087    4.4083252    4.4083252    4.4083252    21268.087    76068.337    11104.284   -23368.361    3177.6919   -12848.245   -15762.466    85.668441 
   12900    1751.8456   -114.03015    1.5851068   -112.44504    32707.916    4.4508691    4.4508691    4.4508691    32707.916   -22859.277    66738.831    54244.193    19659.751    1212.2357   -21243.776    88.172765 
   13000    2044.1251    -114.2407    1.8495674   -112.39114   -48580.407    4.4668311    4.4668311    4.4668311   -48580.407   -93310.312   -12008.777   -40422.132    13858.763   -22102.033    16157.836    89.124805 
   13100    1482.7703   -113.70138    1.3416418   -112.35973    19897.004    4.4114092    4.4114092    4.4114092    19897.004    11554.096    38653.938    9482.9774    4526.4014    -12989.78   -26739.834    85.848366 
   13200    2315.1877   -114.46421    2.0948305   -112.36938     42487.33    4.3887317    4.3887317    4.3887317     42487.33    42834.686    24502.196    60125.107    6337.2469    17189.967    16505.993    84.531211 
   13300    1816.5843   -114.09924    1.6436837   -112.45556    4941.5714    4.4220536    4.4220536    4.4220536    4941.5714   -11290.248    43449.285   -17334.322   -10462.527   -22583.169    12496.179    86.471305 
   13400     2116.174   -114.35788    1.9147587   -112.44312   -68014.649    4.4533088    4.4533088    4.4533088   -68014.649   -65723.571   -54820.202   -83500.175    5677.2193   -12207.262   -39500.552    88.317836 
   13500    2044.1309   -114.23466    1.8495726   -112.38508   -20563.596    4.4688319    4.4688319    4.4688319   -20563.596    15958.585   -33574.608   -44074.765     20376.29    13137.365    12577.621    89.244624 
   13600    2511.2996   -114.60159    2.2722767   -112.32931    -41869.21    4.4567874    4.4567874    4.4567874    -41869.21   -32110.197   -13343.628   -80153.805   -13925.586   -16112.049    8708.8022    88.524961 
   13700    1533.3313   -113.71753    1.3873904   -112.33014    32759.576     4.415371     4.415371     4.415371    32759.576    8721.1707    40561.496    48996.063   -6038.5047   -17127.087   -28779.686     86.07987 
   13800    2579.2859    -114.7203     2.333792    -112.3865   -5832.2178    4.4130979    4.4130979    4.4130979   -5832.2178   -243.20937    3013.4123   -20266.856   -2103.5398     13754.37    7500.8751    85.946992 
   13900    1948.9068   -114.20003    1.7634119   -112.43662   -45796.851    4.4352144    4.4352144    4.4352144   -45796.851   -29021.178   -16961.665   -91407.712    7272.2234   -11001.245   -37554.717    87.245663 
   14000    1763.8173   -114.01591    1.5959389   -112.41997    5224.4474    4.4343876    4.4343876    4.4343876    5224.4474    120505.98   -52287.828   -52544.807   -22236.685    -4409.124   -23926.454     87.19688 
   14100    2546.2812   -114.70852    2.3039287   -112.40459   -4792.3407    4.4252271    4.4252271    4.4252271   -4792.3407   -13137.758   -11645.883    10406.618     22299.95    1223.4265    13602.014    86.657607 
   14200    1380.3387   -113.67104    1.2489594   -112.42208    41699.111      4.42195      4.42195      4.42195    41699.111    71154.101    42580.179    11363.054   -30521.848   -4793.0499   -38227.821    86.465226 
   14300    2952.7152   -115.09259    2.6716788   -112.42091   -28090.357    4.4299559    4.4299559    4.4299559   -28090.357   -10392.947   -43664.534   -30213.589     10151.03    30052.718   -1010.7118    86.935708 
   14400    2077.4801   -114.28374    1.8797476   -112.40399   -1913.2637    4.4395209    4.4395209    4.4395209   -1913.2637   -6384.9593    40697.034   -40051.866    34724.861   -5857.4404   -19020.974    87.500054 
   14500    2095.6614   -114.27879    1.8961985   -112.38259    2839.2046    4.4420779    4.4420779    4.4420779    2839.2046   -8180.1326     18074.18   -1376.4331   -16949.035   -22008.951   -14804.784     87.65133 
   14600    2000.5429   -114.18153    1.8101332   -112.37139    16308.789    4.4403196    4.4403196    4.4403196    16308.789    36578.259   -20340.812    32688.919   -3681.4838    -12617.81    10980.608    87.547287 
   14700    1423.1603   -113.67484    1.2877053   -112.38713    26556.018    4.4272314    4.4272314    4.4272314    26556.018    22149.984      98340.7   -40822.632    4926.2411   -24904.027   -21271.175    86.775408 
   14800    2383.4854   -114.56013    2.1566277    -112.4035    8202.9714    4.4222403    4.4222403    4.4222403    8202.9714    60509.287    -7218.129   -28682.243   -28723.969   -3817.9903   -11313.951    86.482255 
   14900    2199.0549   -114.41482    1.9897511   -112.42507    14745.563    4.4384795    4.4384795    4.4384795    14745.563    17694.088    9173.2072    17369.393   -10970.062   -530.45044    22198.012    87.438489 
   15000    1368.3518   -113.66097    1.2381134   -112.42285   -24177.545    4.4548054    4.4548054    4.4548054   -24177.545   -68862.414     20946.12   -24616.339    10027.926    -39215.16    -20954.11    88.406908 
   15100     2084.408   -114.25554    1.8860162   -112.36953   -18913.178    4.4394343    4.4394343    4.4394343   -18913.178   -53981.683    32990.221   -35748.073   -10835.831   -12648.758   -7471.2224    87.494929 
   15200    2102.7337   -114.27555    1.9025977   -112.37296     26532.14    4.4214147    4.4214147    4.4214147     26532.14    49547.731   -29595.703    59644.394    12085.183    23508.019   -9119.7789    86.433826 
   15300    1232.7024   -113.54117     1.115375   -112.42579    16214.052    4.4316575    4.4316575    4.4316575    16214.052    17311.317    14337.323    16993.517    32241.228   -15958.486   -13899.542     87.03593 
   15400    2615.9829   -114.75928    2.3669963   -112.39228   -36970.149    4.4434606    4.4434606    4.4434606   -36970.149   -33011.462   -22333.168   -55565.817   -11730.166   -8.0009932    565.97526    87.733204 
   15500    2154.8626   -114.32733    1.9497649   -112.37757   -24050.326    4.4537722    4.4537722    4.4537722   -24050.326   -5474.4658   -58936.186    -7740.327    538.55606   -5087.4609   -12083.851    88.345413 
   15600    1870.1701   -114.05623    1.6921692   -112.36406   -2161.3253    4.4435458    4.4435458    4.4435458   -2161.3253    49718.929   -43274.452   -12928.453    2659.0246   -1344.6289   -15238.866    87.738251 
   15700    1776.1543   -113.97002    1.6071018   -112.36292    21495.481    4.4303672    4.4303672    4.4303672    21495.481    83653.403   -35002.105    15835.146   -11839.452    4707.3518    5297.1835    86.959926 
   15800    1962.9453   -114.17086    1.7761142   -112.39475   -8443.9559     4.421381     4.421381     4.421381   -8443.9559     17033.96   -81505.407    39139.579   -6527.0123   -5943.9759   -729.61274    86.431851 
   15900    1986.7145   -114.23889    1.7976211   -112.44127   -32594.669    4.4240141    4.4240141    4.4240141   -32594.669   -13954.482    -79379.07   -4450.4562    35885.935    -2038.878    792.67388    86.586367 
   16000    2390.9372   -114.60803    2.1633702   -112.44466    10708.201    4.4339471    4.4339471    4.4339471    10708.201    59500.368   -63533.227    36157.462    -10943.15   -9992.3616    10033.015    87.170901 
   16100    1705.3712   -113.98009    1.5430557   -112.43703    12527.848    4.4314151    4.4314151    4.4314151    12527.848    152678.12   -92475.558   -22619.021     -2575.99   -12183.936     5224.876     87.02165 
   16200    1298.1912   -113.62748    1.1746307   -112.45285     5181.368    4.4246393    4.4246393    4.4246393     5181.368    19086.627   -48106.492    44563.969   -7393.2358   -40989.495    2210.9553    86.623077 
   16300    2587.6554   -114.76929     2.341365   -112.42792   -31189.529    4.4282868    4.4282868    4.4282868   -31189.529   -9112.4198   -34293.651   -50162.516    644.22468     -39634.3   -457.49514     86.83748 
   16400    1630.6588    -113.9103    1.4754544   -112.43485    27645.398    4.4279522    4.4279522    4.4279522    27645.398    39121.021   -50732.652    94547.825    26024.103    27647.066   -8422.8577      86.8178 
   16500    2114.6401   -114.37104    1.9133708   -112.45767   -19222.096     4.428396     4.428396     4.428396   -19222.096   -7813.7825   -43976.047    -5876.458    22518.869   -767.33583    5271.7246    86.843904 
   16600    1654.5294   -113.95177     1.497053   -112.45471    38713.156    4.4223225    4.4223225    4.4223225    38713.156    102681.73    33079.149   -19621.415    -5912.752   -2311.0571    2970.8115    86.487082 
   16700    2714.8048   -114.90677    2.4564125   -112.45036   -33156.347    4.4351008    4.4351008    4.4351008   -33156.347    15839.212   -60733.753     -54574.5    8955.5029    34706.683    6379.6076    87.238962 
   16800     2397.405   -114.57138    2.1692224   -112.40216   -16121.452    4.4420793    4.4420793    4.4420793   -16121.452    18839.916   -50061.148   -17143.126    -4191.177    18542.292    182.94073    87.651413 
   16900    1920.2808   -114.12323    1.7375104   -112.38572    15989.621    4.4552728    4.4552728    4.4552728    15989.621    112531.51   -45417.367    -19145.28    9547.6353    6714.0919   -1020.0393    88.434741 
   17000    2560.6101   -114.67223    2.3168938   -112.35533   -52947.578    4.4729765    4.4729765    4.4729765   -52947.578   -2132.0567   -83677.647    -73033.03   -12477.975    8590.4182    9827.0808     89.49316 
   17100    2128.8602   -114.23429    1.9262374   -112.30805   -16266.823    4.4481322    4.4481322    4.4481322   -16266.823    78109.113   -78339.349   -48570.233   -1621.1705   -14662.189    5763.6718    88.010212 
   17200    1844.1253   -114.00217    1.6686033   -112.33357    8377.7281    4.4209431    4.4209431    4.4209431    8377.7281    27992.898    39218.505   -42078.219   -7610.0249    12591.968   -1213.8014    86.406176 
   17300    2346.8282   -114.52649    2.1234595   -112.40303   -11256.646    4.4286196    4.4286196    4.4286196   -11256.646    23361.418    -408.4182   -56722.937   -7184.2027    34652.453    25028.602    86.857059 
   17400    2298.9276   -114.52089     2.080118   -112.44078   -11672.891    4.4453367    4.4453367    4.4453367   -11672.891    18306.591   -43955.797   -9369.4671   -6170.8953   -19282.598    4753.2625    87.844377 
   17500    1805.6896   -114.06651    1.6338259   -112.43269   -58436.359     4.465416     4.465416     4.465416   -58436.359    -29949.34   -48722.734   -96637.002   -6034.4429    34226.939     3372.363    89.040127 
   17600    2170.1528   -114.35011    1.9635999   -112.38651   -20472.625    4.4429457    4.4429457    4.4429457   -20472.625   -2723.2428   -60254.268    1559.6371    1266.7642   -1448.6145    35297.165    87.702712 
   17700    2292.0187   -114.43672    2.0738667   -112.36285    -5899.788    4.4045925    4.4045925    4.4045925    -5899.788    6240.3959    -828.7708   -23110.989    7792.0993    14846.054    1934.8674    85.451012 
   17800    1574.8052    -113.8459    1.4249169   -112.42098    31798.266    4.4017866    4.4017866    4.4017866    31798.266    7968.9142    57195.407    30230.475   -3256.0423    23329.656    2689.3536    85.287806 
   17900    2702.4601   -114.88703    2.4452427   -112.44179   -27002.462    4.4329905    4.4329905    4.4329905   -27002.462   -17876.212   -4090.8276   -59040.347   -140.34855   -570.54461    26438.065    87.114493 
   18000    1369.9028   -113.66719    1.2395168   -112.42768    10795.733    4.4612324    4.4612324    4.4612324    10795.733   -15229.696    21941.204    25675.692   -9599.8517    10182.274    7635.0205    88.790099 
   18100    2225.2073   -114.37778    2.0134143   -112.36436   -52833.904      4.45607      4.45607      4.45607   -52833.904   -63742.049   -33360.795   -61398.868     17559.77     26639.05   -4012.1018    88.482218 
   18200    2569.5024    -114.6526    2.3249397   -112.32766    36681.441    4.4109315    4.4109315    4.4109315    36681.441    46705.821    683.11559    62655.386   -7593.9049   -4248.9772    28247.809     85.82048 
   18300    1458.0092   -113.72671    1.3192374   -112.40748     146.7027    4.4095262    4.4095262    4.4095262     146.7027    22163.124   -25470.413    3747.3969   -18516.438    34857.666   -17893.231    85.738483 
   18400    1857.0264   -114.13236    1.6802765   -112.45209   -5838.5733    4.4325049    4.4325049    4.4325049   -5838.5733    60914.352    -45055.05   -33375.023   -8289.7575    7104.1442   -27722.859    87.085867 
   18500    2136.0704   -114.35912    1.9327614   -112.42636   -11007.697    4.4502141    4.4502141    4.4502141   -11007.697    60612.219   -30597.355   -63037.954   -21470.485    -28567.59    17916.193    88.133843 
   18600     1536.847   -113.78132    1.3905715   -112.39075    17252.438    4.4361626    4.4361626    4.4361626    17252.438    50194.598    17986.796    -16424.08   -14456.748    33476.934    20669.872    87.301633 
   18700    1989.8719   -114.17907    1.8004779   -112.37859    22336.804    4.4174924    4.4174924    4.4174924    22336.804     23418.21    7671.0741    35921.129   -3243.8054   -3295.5748   -23886.971    86.204002 
   18800    2225.5909   -114.41903    2.0137614   -112.40527   -4445.2843    4.4187092    4.4187092    4.4187092   -4445.2843    7072.9609   -49070.048    28661.234    34060.395   -25981.953    23780.918    86.275259 
   18900    1850.7202    -114.1121    1.6745705   -112.43753   -9322.3508    4.4263698    4.4263698    4.4263698   -9322.3508    27784.147   -49623.737   -6127.4619    4873.9782    33742.937   -7998.6142    86.724757 
   19000    2474.5229   -114.66536    2.2390003   -112.42636    -19798.01    4.4381297    4.4381297    4.4381297    -19798.01    -37201.45   -15828.044   -6364.5352   -11363.165   -629.36697    446.04704    87.417821 
   19100    1992.8797    -114.2145    1.8031994    -112.4113   -44354.128      4.45453      4.45453      4.45453   -44354.128   -3644.2913   -71324.451   -58093.641    -3767.421   -8982.5176    3880.8648    88.390512 
   19200    1747.6241   -113.97095     1.581287   -112.38966   -22092.466    4.4433031    4.4433031    4.4433031   -22092.466    46511.276   -55890.777   -56897.896    2089.9366    35132.336   -33456.211    87.723876 
   19300    2733.5129   -114.84969    2.4733399   -112.37635   -16336.986    4.4168307    4.4168307    4.4168307   -16336.986   -25857.319   -40584.171    17430.532    10974.811    15091.884     22287.94    86.165273 
   19400     1830.074   -114.06207    1.6558894   -112.40618    65122.017    4.4082138    4.4082138    4.4082138    65122.017    26268.495    13627.451    155470.11   -1389.6754   -38671.035    5833.1504    85.661951 
   19500    1825.1013    -114.1108      1.65139   -112.45941   -23527.396     4.433291     4.433291     4.433291   -23527.396    -11485.81   -53396.306   -5700.0721     11845.99    20814.299   -1336.2134    87.132206 
   19600    2221.1847   -114.42962    2.0097746   -112.41985   -50543.289    4.4439297    4.4439297    4.4439297   -50543.289    -63109.65   -60431.862   -28088.353    3932.4129    29387.958     14244.95    87.760995 
   19700    2330.8483   -114.51011    2.1090005   -112.40111    28027.865    4.4077291    4.4077291    4.4077291    28027.865   -16482.178    28358.472    72207.302    882.27828   -20582.104    32428.084    85.633694 
   19800    1535.8458   -113.81876    1.3896655   -112.42909    49033.784    4.3860538    4.3860538    4.3860538    49033.784    7735.1103    26857.693    112508.55   -290.78428    25045.141    9834.8546    84.376567 
   19900    2197.9154   -114.47557    1.9887201   -112.48685    -2045.424    4.4157746    4.4157746    4.4157746    -2045.424   -40337.306   -25100.572    59301.606    19214.556    22508.126    17047.571    86.103476 
   20000    1843.9189   -114.13767    1.6684165   -112.46925   -3988.2088    4.4531887    4.4531887    4.4531887   -3988.2088   -44889.996   -47985.853    80911.222      -1909.8   -1629.9661    21256.265    88.310691 
   20100     2084.088   -114.27682    1.8857266    -112.3911   -47336.343    4.4677427    4.4677427    4.4677427   -47336.343   -99079.658   -12710.651   -30218.721     3125.819    51836.827    16036.867    89.179381 
   20200    1901.2963   -114.05744    1.7203329   -112.33711   -31636.007    4.4443352    4.4443352    4.4443352   -31636.007   -53423.178   -105543.26     64058.42    526.66579   -16314.808    13037.843    87.785021 
   20300    1759.7666   -113.92418    1.5922738    -112.3319   -6252.1457    4.3987165    4.3987165    4.3987165   -6252.1457    4681.4125   -27248.845    3810.9956   -5811.4313    33894.707    29773.096    85.109478 
   20400    2313.8827   -114.47377    2.0936497   -112.38012     37729.45    4.3904871    4.3904871    4.3904871     37729.45    38543.118    47517.275    27127.958    14847.034    21654.625   -5169.0705    84.632682 
   20500    2591.8793   -114.79466    2.3451868   -112.44948   -42146.062    4.4404383    4.4404383    4.4404383   -42146.062    -46053.74   -37151.491   -43232.954    1987.2872   -6960.3292    8011.1445    87.554306 
   20600    1617.4308   -113.86064    1.4634853   -112.39715   -3270.9033    4.4659381    4.4659381    4.4659381   -3270.9033    23854.175    1414.4299   -35081.314   -6438.0361    29860.427    4962.5371    89.071365 
   20700    2718.6049   -114.79559    2.4598509   -112.33574   -35003.581    4.4580723    4.4580723    4.4580723   -35003.581   -49953.788   -3759.6499   -51297.305    24401.979   -8713.1489   -11280.243    88.601551 
   20800    1685.2382    -113.8452     1.524839   -112.32036    28981.792    4.4193301    4.4193301    4.4193301    28981.792    134862.39   -4975.7798   -42941.233   -11426.305    9259.2702    7748.3056    86.311633 
   20900    2182.9494   -114.32108    1.9751785    -112.3459    31369.223    4.4083568    4.4083568    4.4083568    31369.223     36653.28    15758.873    41695.516    3250.2149     47163.02   -5338.7293    85.670282 
   21000    1995.6617   -114.19286    1.8057166   -112.38714    23702.279    4.4354729    4.4354729    4.4354729    23702.279    64304.546   -15272.289    22074.579    12858.803    5882.1646    9757.9885    87.260922 
   21100    1958.3721   -114.15131    1.7719763   -112.37933   -24486.078    4.4487971    4.4487971    4.4487971   -24486.078   -17872.684   -19605.755   -35979.794   -12209.126    31776.802   -17884.426    88.049682 
   21200    1428.7984   -113.66953    1.2928068   -112.37672   -3923.3356    4.4219527    4.4219527    4.4219527   -3923.3356    983.72512    2270.2697   -15024.002    21358.881    10969.743   -9602.8402    86.465383 
   21300     2563.271   -114.68321    2.3193015   -112.36391    24438.686    4.3897289    4.3897289    4.3897289    24438.686    33559.689    47113.517   -7357.1491    1030.0022   -27831.952    7262.6261    84.588846 
   21400    2095.2508   -114.32721     1.895827   -112.43138    1590.0613    4.3975057    4.3975057    4.3975057    1590.0613    10777.816    32127.146   -38134.778   -13973.306   -1832.1471   -19729.486     85.03921 
   21500    1950.1161   -114.22752     1.764506   -112.46301    36743.069    4.4155356    4.4155356    4.4155356    36743.069    75385.299    65376.428   -30532.519    1962.5418    16241.696    -8030.476    86.089496 
   21600    1912.5674   -114.20321    1.7305312   -112.47268   -39411.084    4.4328941    4.4328941    4.4328941   -39411.084   -43544.263   -20865.535   -53823.454    2065.1276   -18103.422   -6429.9684    87.108806 
   21700    1928.1742    -114.1994    1.7446525   -112.45474   -31393.265    4.4165169    4.4165169    4.4165169   -31393.265   -5747.5951    -33767.81    -54664.39    15549.169   -9801.6107   -31188.067    86.146907 
   21800    2814.3654   -114.97437     2.546497   -112.42788    45400.046    4.3815092    4.3815092    4.3815092    45400.046    38053.667    68041.938    30104.533   -6845.7392    2687.4416     5513.978    84.114562 
   21900    1301.1906   -113.68422    1.1773446   -112.50688    17009.907    4.4042441    4.4042441    4.4042441    17009.907   -8094.2215    41400.728    17723.213     4497.867   -32682.943   -30955.253    85.430737 
   22000    1389.2587   -113.73458    1.2570305   -112.47755   -43492.972    4.4389375    4.4389375    4.4389375   -43492.972   -71995.372   -66585.699    8102.1532      8179.16   -5259.1547   -58247.588     87.46556 
   22100    2621.8735   -114.76655    2.3723263   -112.39423   -15991.372    4.4465001    4.4465001    4.4465001   -15991.372   -45858.977    32620.088   -34735.225    13263.558     21361.63    14045.443     87.91337 
   22200    2014.7961   -114.18187    1.8230298   -112.35884   -69546.605    4.4461871    4.4461871    4.4461871   -69546.605   -61526.906   -67484.427   -79628.482     -17007.3   -28328.209   -45840.278    87.894806 
   22300    1716.6393   -113.90542    1.5532513   -112.35216   -5749.3897    4.4088464    4.4088464    4.4088464   -5749.3897   -64551.133    69094.885   -21791.921    22210.027    24247.652   -16231.881    85.698832 
   22400    2387.4434   -114.54803    2.1602089   -112.38782    21266.197    4.3852466    4.3852466    4.3852466    21266.197    23157.603    47916.754   -7275.7648    37576.286   -23285.285    10385.284    84.329995 
   22500    1807.6106   -114.11883     1.635564   -112.48327   -3832.9675     4.412316     4.412316     4.412316   -3832.9675   -11217.609    24267.465   -24548.758   -16368.085   -26518.402   -19642.444    85.901317 
   22600    1523.2805   -113.83057    1.3782962   -112.45227    -32566.12    4.4460079    4.4460079    4.4460079    -32566.12   -88155.378    23738.121   -33281.104    20473.644    7261.4488   -14375.012    87.884179 
   22700    2375.1401   -114.54272    2.1490767   -112.39365   -20226.767    4.4429783    4.4429783    4.4429783   -20226.767   -41208.741   -36516.924    17045.363    11355.654     414.6238    30874.577    87.704643 
   22800    2395.6799   -114.53558    2.1676615   -112.36792   -1602.2484    4.4289981    4.4289981    4.4289981   -1602.2484    13408.206    1880.6049   -20095.556   -18626.295    7824.4092   -19990.608    86.879331 
   22900     1631.407   -113.85978    1.4761313   -112.38365    19521.556    4.4072473    4.4072473    4.4072473    19521.556    -21912.73   -52337.698     132815.1    7608.1196    4350.4262   -16146.065    85.605615 
   23000    1618.6473   -113.89947    1.4645861   -112.43488    8139.3801    4.3845991    4.3845991    4.3845991    8139.3801     16317.69    38436.606   -30336.156    11425.338    13249.524    69242.651    84.292643 
   23100    2757.0933    -114.9491    2.4946759   -112.45443    30326.192    4.3891843    4.3891843    4.3891843    30326.192   -1930.7545    67396.306    25513.026    2482.4394   -5873.5204   -17546.648    84.557366 
   23200    2418.1172   -114.66438    2.1879633   -112.47642    -28192.06    4.4146684    4.4146684    4.4146684    -28192.06   -48966.949   -45872.933    10263.702    14921.415   -10767.553    15008.408    86.038786 
   23300     898.4395   -113.27578   0.81292694   -112.46285    -12406.09    4.4227591    4.4227591    4.4227591    -12406.09   -25432.088    8400.6953   -20186.878   -535.14041    15824.967    76487.587    86.512696 
   23400    2903.0598   -115.04329    2.6267495   -112.41654   -9317.6912    4.4122388    4.4122388    4.4122388   -9317.6912   -35469.081   -23472.474    30988.482     -1910.73   -4878.4385   -10558.819     85.89681 
   23500    2052.4606   -114.28417    1.8571095   -112.42706   -7951.8481    4.4049014    4.4049014    4.4049014   -7951.8481    29676.227   -34880.373   -18651.399    1831.6961   -7562.4407    47590.031    85.468989 
   23600    1701.7981   -113.97455    1.5398227   -112.43472   -18285.366    4.4080194    4.4080194    4.4080194   -18285.366   -16381.995   -60558.055    22083.952     28016.73   -2899.7687    47420.794    85.650615 
   23700    2469.1884   -114.64776    2.2341736   -112.41359    7148.3065    4.4175984    4.4175984    4.4175984    7148.3065   -70152.597    51009.555    40587.961   -10917.306   -4544.7652    -14476.97    86.210207 
   23800    1612.9238   -113.88395    1.4594074   -112.42454   -4322.4949    4.4337786    4.4337786    4.4337786   -4322.4949   -11366.038    12319.337   -13920.783     -12563.9   -8143.1885    66406.802    87.160963 
   23900    1795.3224   -114.01673    1.6244454   -112.39228   -6257.9396    4.4388551    4.4388551    4.4388551   -6257.9396    -50676.86    87215.687   -55312.646    4065.3472    15540.189    7188.6638    87.460693 
   24000    2056.8887   -114.23035    1.8611162   -112.36923   -8008.1631    4.4505221    4.4505221    4.4505221   -8008.1631   -71170.545    45215.268    1930.7874   -14897.607    13066.185    20130.824    88.152145 
   24100    1628.9844    -113.8088    1.4739393   -112.33486   -23291.304    4.4480887    4.4480887    4.4480887   -23291.304   -20628.198   -36731.504   -12514.212    31332.084   -13141.403    37293.594     88.00763 
   24200    2088.1202   -114.19552     1.889375   -112.30614     13038.13    4.4282104    4.4282104    4.4282104     13038.13    15581.741    4085.8377    19446.811    5963.6111   -10103.814   -16794.227    86.832987 
   24300    2627.1035   -114.71459    2.3770585   -112.33754   -48841.784    4.4410953    4.4410953    4.4410953   -48841.784   -65307.323   -41882.132   -39335.898   -2185.5584   -2494.5937   -3361.7637    87.593177 
   24400    2065.0415   -114.22275     1.868493   -112.35426   -36657.151     4.449268     4.449268     4.449268   -36657.151   -59890.652   -64333.831    14253.031     27371.54   -18220.279    1529.5141    88.077644 
   24500    2750.6774   -114.82206    2.4888707   -112.33319   -23048.427    4.4529553    4.4529553    4.4529553   -23048.427    5791.9513    -27577.24   -47359.992   -3451.7961   -15898.283   -21541.161    88.296807 
   24600    1878.9449    -114.0279    1.7001088    -112.3278   -11718.944    4.4578798    4.4578798    4.4578798   -11718.944   -22417.304   -29545.906    16806.379   -2305.1955    9561.9615    24389.552    88.590074 
   24700      1834.46   -113.94938    1.6598579   -112.28952    17031.983    4.4471366    4.4471366    4.4471366    17031.983   -38304.402    59079.073    30321.279    11654.406    12884.225    7276.4968    87.951126 
   24800    1389.5798   -113.54897     1.257321   -112.29165    34125.644    4.4195405    4.4195405    4.4195405    34125.644    134036.27   -66342.169    34682.827   -2943.3112    1915.1879   -23510.981    86.323963 
   24900    2177.2617   -114.31024    1.9700321   -112.34021   -23523.831    4.4121719    4.4121719    4.4121719   -23523.831    21268.657   -52857.646   -38982.506    6009.9469    9347.5974    43407.582      85.8929 
   25000     2094.314   -114.28042    1.8949793   -112.38544    5457.8727    4.4213005    4.4213005    4.4213005    5457.8727   -14422.398    396.11026    30399.905   -2909.7781    14248.484    1039.3609    86.427132 
   25100    1785.6157   -114.01201    1.6156626   -112.39634    8105.0155    4.4295766    4.4295766    4.4295766    8105.0155    67470.824   -4535.0509   -38620.727    13575.219    619.12592   -5272.3781    86.913383 
   25200    2098.8331   -114.28504    1.8990683   -112.38597   -6832.6824    4.4342817    4.4342817    4.4342817   -6832.6824   -75083.982    90209.412   -35623.477   -4282.2115    11793.288    13130.901    87.190635 
   25300    1539.8475    -113.7746    1.3932863   -112.38131    7154.1698    4.4193588    4.4193588    4.4193588    7154.1698   -83197.932    116087.34   -11426.899   -11534.524    19341.973    8266.0978    86.313316 
   25400    2046.3942    -114.2437    1.8516205   -112.39208   -4691.9225    4.3900627    4.3900627    4.3900627   -4691.9225     23536.59    -35467.55   -2144.8081   -6172.3714   -30864.488    336.86431    84.608144 
   25500    2047.1023   -114.28768    1.8522611   -112.43542   -11695.212    4.3881413    4.3881413    4.3881413   -11695.212   -6965.1887   -17360.216   -10760.232    5624.8682    33140.309    31926.912    84.497099 
   25600    1932.2612   -114.21629    1.7483506   -112.46794   -20141.899    4.4170073    4.4170073    4.4170073   -20141.899   -64376.316   -29595.764    33546.384    14348.226    7150.3481   -28648.795    86.175605 
   25700     1842.316   -114.09846    1.6669662   -112.43149   -53246.539     4.435634     4.435634     4.435634   -53246.539   -24942.644   -81989.227   -52807.747   -13351.088   -12680.798   -35750.929    87.270428 
   25800    2166.5703   -114.34835    1.9603583   -112.38799   -25693.293    4.4268566    4.4268566    4.4268566   -25693.293   -52523.799   -25127.196    571.11729   -83.023166    767.12257    23052.182    86.753372 
   25900    2990.9245   -115.07081    2.7062514   -112.36456   -39885.908    4.4146995    4.4146995    4.4146995   -39885.908   -47844.028   -34664.972   -37148.724    -2233.964    2907.1593    -22930.24    86.040602 
   26000    1128.3708   -113.41454    1.0209736   -112.39357   -14646.999    4.4033035    4.4033035    4.4033035   -14646.999    13605.865   -49307.188   -8239.6746   -565.61098   -18849.243    10488.846    85.376012 
   26100    2639.3383   -114.79376    2.3881288   -112.40563   -4112.5275    4.3967391    4.3967391    4.3967391   -4112.5275   -6177.7608   -15901.328    9741.5066    24834.692   -1896.4943    9503.2435    84.994749 
   26200     2278.719   -114.51087    2.0618329   -112.44904   -30736.842    4.4274802    4.4274802    4.4274802   -30736.842   -60281.731   -7841.4687   -24087.327   -6409.9519   -326.73851   -8384.7564    86.790041 
   26300    1443.1175   -113.73395    1.3057631   -112.42819   -82130.291    4.4344413    4.4344413    4.4344413   -82130.291   -70639.669   -83900.923   -91850.282    11173.953   -27461.063   -23234.796     87.20005 
   26400    2555.4303    -114.7028     2.312207   -112.39059    27716.525    4.3714104    4.3714104    4.3714104    27716.525   -15093.272    31373.985    66868.862    7070.5955   -6078.7008    4855.0624     83.53428 
   26500    1520.8622   -113.78306    1.3761081   -112.40695    73240.787    4.3535183    4.3535183    4.3535183    73240.787     34952.26    46173.302     138596.8   -1560.2278    7272.3801   -18034.738    82.512763 
   26600    1743.8689   -114.06751    1.5778892   -112.48963   -21840.641     4.407091     4.407091     4.407091   -21840.641   -53953.681   -4188.7002   -7379.5413    1142.4242   -54541.954   -6653.0977     85.59651 
   26700    2731.5558   -114.88027    2.4715691    -112.4087    -51763.21    4.4371239    4.4371239    4.4371239    -51763.21   -73885.033   -56116.296   -25288.302   -12772.265    14697.075    18525.887    87.358397 
   26800    1706.1312   -113.91632    1.5437433   -112.37258   -10584.934    4.4184128    4.4184128    4.4184128   -10584.934   -26232.076    12701.503    -18224.23   -7904.4676    18717.655   -20967.675    86.257896 
   26900    2769.4785   -114.85706    2.5058824   -112.35118   -17755.718    4.4054452    4.4054452    4.4054452   -17755.718    -41523.28   -8688.6757   -3055.1985   -11615.767   -52739.661     5386.626    85.500649 
   27000    2078.3059    -114.2566    1.8804948    -112.3761   -26989.214    4.4098393    4.4098393    4.4098393   -26989.214   -74349.838    5163.6297   -11781.434   -11033.419    30004.651    25138.601    85.756743 
   27100    1503.0183   -113.74854    1.3599626   -112.38858    20573.152    4.4041133    4.4041133    4.4041133    20573.152   -25255.078    11796.191    75178.342   -11611.096    3081.0682   -5709.3844    85.423126 
   27200    2300.0429    -114.4796    2.0811272   -112.39847    13199.734    4.4106489    4.4106489    4.4106489    13199.734   -5047.0862   -8235.9469    52882.235    17522.055   -51419.164    12754.314    85.803987 
   27300    1354.4313    -113.6235    1.2255179   -112.39798    35351.587    4.4228592    4.4228592    4.4228592    35351.587   -20985.543    6486.6204    120553.68    1392.5329    28276.872    36260.613    86.518571 
   27400    2420.6106   -114.57434    2.1902193   -112.38412   -30605.411    4.4239791    4.4239791    4.4239791   -30605.411   -53048.802    3021.7821   -41789.213   -17855.562   -21504.514   -8833.5887    86.584309 
   27500     1882.546   -114.10222    1.7033672   -112.39885   -13010.517    4.3972112    4.3972112    4.3972112   -13010.517   -1609.2143     5665.965   -43088.302    12953.915   -25194.548     29475.46    85.022127 
   27600    1508.2689    -113.7847    1.3647134   -112.41999    20842.713     4.376294     4.376294     4.376294    20842.713   -1716.1162    78931.605   -14687.349   -3847.4578     14210.98    39264.185    83.814558 
   27700    2042.0362   -114.32332    1.8476772   -112.47564     8248.803    4.4050695    4.4050695    4.4050695     8248.803   -63211.705     77910.96    10047.153   -4999.8183   -21651.489   -6623.8978    85.478778 
   27800    1902.1514   -114.17448    1.7211065   -112.45337   -37597.751    4.4400148    4.4400148    4.4400148   -37597.751   -5181.9563   -58715.152   -48896.146   -3898.9977    24870.196    28532.878    87.529257 
   27900    1658.6426   -113.88469    1.5007747   -112.38392   -27842.282    4.4468424    4.4468424    4.4468424   -27842.282    -841.7135   -56273.413    -26411.72     3666.586   -2875.9145    7189.4534    87.933671 
   28000    2468.0553   -114.55388    2.2331483   -112.32073   -26470.582    4.4270632    4.4270632    4.4270632   -26470.582     28991.88   -39347.158   -69056.469    10087.931   -3770.5017    960.89984    86.765518 
   28100    1385.1115   -113.58955     1.253278   -112.33627   -13319.224    4.3909564    4.3909564    4.3909564   -13319.224    1953.3433    -9849.686   -32061.328   -35639.475    35049.615    40066.716    84.659829 
   28200    2031.3011   -114.22898    1.8379639   -112.39102    37325.118    4.3743218    4.3743218    4.3743218    37325.118    51562.854    20407.682    40004.818    23632.977   -24259.291   -7519.8949    83.701296 
   28300    2139.2512   -114.37875    1.9356394   -112.44311    5784.4617    4.3902751    4.3902751    4.3902751    5784.4617    22426.665   -9848.8536    4775.5732    17079.922    22340.662    6465.9359    84.620428 
   28400     1619.422   -113.92362    1.4652871   -112.45833   -23673.634    4.4176008    4.4176008    4.4176008   -23673.634   -33093.627   -36676.804   -1250.4708   -31413.774    31858.075    12526.484    86.210352 
   28500    2073.3597   -114.28439    1.8760194   -112.40837   -7271.7579    4.4292099    4.4292099    4.4292099   -7271.7579   -36723.906   -2301.1456    17209.778   -30640.382   -14976.504    -6248.272    86.891796 
   28600    2184.2007   -114.34949    1.9763107   -112.37318    7282.0227    4.4142334    4.4142334    4.4142334    7282.0227   -25196.505    14937.002    32105.571     7584.952    15155.768   -21987.628    86.013352 
   28700    1805.9604   -114.00447    1.6340709    -112.3704    24230.339    4.4027145    4.4027145    4.4027145    24230.339   -5642.5392    34069.659    44263.897   -39085.842    12062.901    2356.0393    85.341753 
   28800    2137.7251   -114.31653    1.9342586   -112.38227   -14676.162    4.4283576    4.4283576    4.4283576   -14676.162   -25674.631    23309.184   -41663.039    -24667.02   -6682.0502   -14271.048    86.841645 
   28900    1982.8904   -114.14333    1.7941609   -112.34916   -21738.002        4.447        4.447        4.447   -21738.002   -72000.329    21905.768   -15119.445   -2702.1533    12822.602   -6252.4735    87.943022 
   29000    1556.0646   -113.73543      1.40796   -112.32747   -6313.2042    4.4374635    4.4374635    4.4374635   -6313.2042   -64554.372   -14964.792    60579.551   -37931.975   -9725.4019    20479.568    87.378457 
   29100    2446.4285   -114.52778    2.2135799    -112.3142    8744.4379    4.4089879    4.4089879    4.4089879    8744.4379    2084.3764    10112.629    14036.308    12675.581   -39131.834    165.56127    85.707083 
   29200    2129.3531   -114.26492    1.9266835   -112.33824    38987.493     4.381263     4.381263     4.381263    38987.493   -3176.7717    107734.99    12404.264   -14834.901    25319.575    4868.5847    84.100381 
   29300    2156.9517   -114.36094    1.9516552   -112.40928    2772.9067    4.3930634    4.3930634    4.3930634    2772.9067   -39051.784    41121.211    6249.2931   -27753.224     13768.06    19421.255    84.781755 
   29400    3009.4614   -115.13654    2.7230239   -112.41351    -25766.58    4.4342937    4.4342937    4.4342937    -25766.58   -40740.615    2181.6288   -38740.753    26750.232   -2079.3117    20988.736    87.191343 
   29500    1357.0733   -113.59617    1.2279085   -112.36826   -17349.299    4.4456672    4.4456672    4.4456672   -17349.299   -68629.196    31041.678    -14460.38   -55018.013    36766.334   -6200.6775    87.863974 
   29600    1930.0871    -114.0577    1.7463834   -112.31132    28887.425    4.4172386    4.4172386    4.4172386    28887.425    82360.537    20026.944   -15725.207   -12001.453    -14828.44   -15103.999    86.189148 
   29700    1457.0347   -113.64774    1.3183556   -112.32939     57907.24    4.3978262    4.3978262    4.3978262     57907.24     131080.2    32764.819    9876.6967   -56779.558   -32219.678   -917.84331    85.057805 
   29800    1556.2492   -113.80466     1.408127   -112.39654    1565.7939    4.4106287    4.4106287    4.4106287    1565.7939   -13732.166    69486.177   -51056.629   -22799.257     32845.73   -13089.314     85.80281 
   29900    2245.3955   -114.41213     2.031681   -112.38045    14213.839     4.423894     4.423894     4.423894    14213.839    10174.315    57694.988   -25227.787   -5683.4787    4113.1494    24910.838    86.579316 
   30000    1827.2785   -114.03753      1.65336   -112.38417    8302.8147    4.4071356    4.4071356    4.4071356    8302.8147    -30590.95   -27621.256    83120.649   -46121.757    12111.862    15795.113     85.59911 
   30100    1866.5217   -114.08875    1.6888681   -112.39989    4147.5134     4.391315     4.391315     4.391315    4147.5134   -18900.774    19848.374     11494.94   -19087.574    58329.692     2223.115    84.680571 
   30200    3339.9586   -115.42835    3.0220647   -112.40629    1819.4446    4.3902848    4.3902848    4.3902848    1819.4446    987.41265   -24249.505    28720.426    196.12075   -24943.419   -9731.2861    84.620987 
   30300    1190.0738   -113.54251    1.0768038    -112.4657   -4312.7469    4.3997284    4.3997284    4.3997284   -4312.7469    25513.217   -11873.425   -26578.032   -20042.101    58924.272    3341.0023    85.168225 
   30400    2086.3915   -114.33872    1.8878108   -112.45091   -30580.386    4.4059406    4.4059406    4.4059406   -30580.386   -41723.086   -2300.1609   -47717.912   -3818.2374    49868.061    6055.2086    85.529499 
   30500     2526.454   -114.70559    2.2859887    -112.4196    7971.2893    4.4072474    4.4072474    4.4072474    7971.2893    29297.019    39945.669   -45328.821    10671.709   -6193.2672   -7092.7884    85.605624 
   30600    738.17061   -113.08204   0.66791228   -112.41412    -31161.24    4.4175461    4.4175461    4.4175461    -31161.24   -75207.832    32200.536   -50476.424   -52311.396    73178.663   -1103.1214    86.207149 
   30700    2424.0655   -114.55497    2.1933454   -112.36163    4187.2551    4.4004344    4.4004344    4.4004344    4187.2551    1766.3523   -41546.627    52342.041   -13704.547   -20888.332   -11828.689    85.209231 
   30800    1349.9883   -113.60355    1.2214978   -112.38205    11974.183    4.3999819    4.3999819    4.3999819    11974.183   -39562.269      4277.79    71207.027    11882.163    62141.455    7220.7368     85.18295 
   30900    1324.6408   -113.60298    1.1985628   -112.40442   -16365.253    4.4124844    4.4124844    4.4124844   -16365.253   -64361.171   -61291.049    76556.461   -43887.523    34695.484    3978.0227    85.911155 
   31000     2536.939   -114.67722    2.2954757   -112.38175    3583.8824    4.4097924    4.4097924    4.4097924    3583.8824   -21728.692   -48764.202    81244.541    22709.038    1309.3818    676.40196    85.754006 
   31100    1652.7663   -113.91302    1.4954577   -112.41757    5743.7441    4.4064989    4.4064989    4.4064989    5743.7441   -9438.0661    14945.764    11723.535   -20217.803    75895.604   -2905.3888    85.562012 
   31200     1875.455   -114.10571    1.6969511   -112.40876    37568.121    4.4117543    4.4117543    4.4117543    37568.121    62446.609    10249.263     40008.49   -44537.432    17798.502    11389.253    85.868518 
   31300    2322.8982   -114.48218    2.1018071   -112.38037   -33689.395    4.4395708    4.4395708    4.4395708   -33689.395   -56099.582   -34718.616   -10249.987    15506.009     26412.79   -7482.0104    87.503006 
   31400    1256.2741   -113.48365    1.1367032   -112.34694   -28862.239    4.4381049    4.4381049    4.4381049   -28862.239   -115377.86   -41622.177    70413.317     -38822.8    53778.776   -18252.846    87.416353 
   31500    2695.3126    -114.7626    2.4387755   -112.32382     3605.329    4.4083908    4.4083908    4.4083908     3605.329    26511.624   -32795.168     17099.53    1641.5887   -28143.309   -8873.0148    85.672268 
   31600    1546.8618   -113.76959    1.3996331   -112.36996   -3764.6097    4.4019085    4.4019085    4.4019085   -3764.6097   -2549.4789   -15874.037     7129.687    2074.1642    45469.046    24445.355    85.294895 
   31700    1831.3747   -114.05972    1.6570663   -112.40265    12538.159    4.4039238    4.4039238    4.4039238    12538.159    38372.037   -20399.397    19641.836   -17249.421    18939.806   -11604.675      85.4121 
   31800    2508.3195   -114.67755    2.2695802   -112.40797   -30437.838    4.4240521    4.4240521    4.4240521   -30437.838    374.09763   -5599.3642   -86088.249    17962.688   -10151.925    9072.1671    86.588597 
   31900    968.43019   -113.27384   0.87625599   -112.39759   -24108.947    4.4319759    4.4319759    4.4319759   -24108.947    -44892.02    67976.274   -95411.095   -10689.924    64902.227    6414.0292    87.054687 
   32000    2899.6967   -114.97905    2.6237065   -112.35534   -156.78579    4.3987933    4.3987933    4.3987933   -156.78579    15026.002   -27673.175    12176.815   -27696.157   -15358.845    -11042.61    85.113935 
   32100    1321.4129    -113.5758    1.1956421   -112.38016     28312.21    4.3801084    4.3801084    4.3801084     28312.21    7821.2192    95969.536   -18854.126    20911.762    30793.777   -2302.2006    84.033909 
   32200    2113.5355   -114.33668    1.9123713   -112.42431   -33919.588    4.3996043    4.3996043    4.3996043   -33919.588   -76759.767    24537.299   -49536.297   -26823.199     52306.46    18419.512    85.161018 
   32300    2270.4119    -114.4557    2.0543164   -112.40139    28300.511     4.414483     4.414483     4.414483    28300.511    74011.281    20860.578   -9970.3247    -5505.219   -3316.7807    -15767.94    86.027943 
   32400    1481.5023   -113.74828    1.3404944   -112.40778   -37257.658    4.4252701    4.4252701    4.4252701   -37257.658   -45084.735   -13924.944   -52763.294    28217.545    46140.293    -1992.231     86.66013 
   32500    2658.9977   -114.77226     2.405917   -112.36635   -16759.689    4.4157767    4.4157767    4.4157767   -16759.689   -2773.1269    2132.1641   -49638.103   -16563.684    -27597.76    15331.054    86.103599 
   32600    1515.9261   -113.73393    1.3716418   -112.36228    52130.135    4.3866837    4.3866837    4.3866837    52130.135    109213.81    66197.288   -19020.697   -8353.7639    31176.779   -12639.441    84.412929 
   32700    1938.6174   -114.16767    1.7541018   -112.41357     5690.482    4.3976734    4.3976734    4.3976734     5690.482   -7947.7347     19511.37    5507.8105    9677.0648    32262.091   -1128.2244    85.048941 
   32800    2919.7988   -115.02579    2.6418954    -112.3839   -2697.7274    4.4175587    4.4175587    4.4175587   -2697.7274   -21116.706   -16241.441    29264.965    -3399.239   -25644.941    13515.625    86.207886 
   32900    1144.4087    -113.4388     1.035485   -112.40331    28545.706    4.4049701    4.4049701    4.4049701    28545.706    61343.538    19799.699    4493.8815   -1049.9179    72713.967     111.3759    85.472989 
   33000    3078.5186    -115.1654    2.7855083   -112.37989   -18235.541    4.4101848    4.4101848    4.4101848   -18235.541    -28815.93   -47910.009    22019.317   -10472.934   -1786.9063   -8488.7547    85.776902 
   33100    1543.0396   -113.76792    1.3961746   -112.37175   -15819.006    4.4165913    4.4165913    4.4165913   -15819.006   -44236.688    36868.367   -40088.696   -7269.9401    58467.858    11606.872    86.151262 
   33200    1944.2481   -114.10284    1.7591966   -112.34364     5920.816    4.4173816    4.4173816    4.4173816     5920.816    47484.599   -156.56568   -29565.585   -899.68172    5733.1372   -2191.3493    86.197517 
   33300    2591.3037   -114.70083     2.344666   -112.35617   -23076.656    4.4104736    4.4104736    4.4104736   -23076.656    14482.988   -7153.6091   -76559.348    3464.8732    13234.774     6467.046    85.793757 
   33400    1501.4979   -113.76392    1.3585869   -112.40534   -6226.6227    4.3855843    4.3855843    4.3855843   -6226.6227    18702.098    18972.751   -56354.716     -5074.68    72640.458   -251.68946    84.349478 
   33500    3041.3181   -115.15482    2.7518485   -112.40297    31578.802    4.3807855    4.3807855    4.3807855    31578.802    76206.267   -10493.922    29024.062   -3314.6313   -21155.408   -2331.5864    84.072887 
   33600    1721.4478   -114.00387    1.5576022   -112.44626   -23275.959    4.4163642    4.4163642    4.4163642   -23275.959   -36576.986    55800.773   -89051.665    5686.9613    83320.877    3252.5881    86.137972 
   33700    2253.7253   -114.40418     2.039218   -112.36496   -28234.064    4.4309158    4.4309158    4.4309158   -28234.064   -51941.325   -8723.3793   -24037.488    1851.7727    668.50184   -6666.3005    86.992238 
   33800    1924.8099   -114.08135    1.7416085   -112.33974    19622.876     4.394538     4.394538     4.394538    19622.876     635.2955    1370.4325      56862.9    19061.166    38156.661   -9425.3213     84.86716 
   33900    1948.3372   -114.14311    1.7628964   -112.38022   -15956.854    4.3856835    4.3856835    4.3856835   -15956.854    -60595.34    53864.497   -41139.718     1262.411    71614.074   -4679.3406    84.355202 
   34000    2383.2687   -114.54807    2.1564316   -112.39164    25240.646      4.39807      4.39807      4.39807    25240.646   -12921.024   -21586.331     110229.3    342.08935   -23050.009     -24166.2    85.071954 
   34100    602.28677   -112.98395   0.54496173   -112.43899     -24711.8    4.4207918    4.4207918    4.4207918     -24711.8   -77186.156    41519.212   -38468.455   -1990.7659    85200.002    23721.391    86.397301 
   34200    2724.0606   -114.84762    2.4647872   -112.38283    6119.0551    4.4153319    4.4153319    4.4153319    6119.0551   -2832.0674   -24941.795    46131.028   -4446.4548   -19364.924    18154.609    86.077583 
   34300    1461.8029   -113.71302      1.32267   -112.39035    5805.4122    4.4090759    4.4090759    4.4090759    5805.4122    -30136.24    70777.869   -23225.392    5727.8973     61875.51    3140.5106    85.712214 
   34400    2245.3753   -114.40522    2.0316627   -112.37356   -12925.257    4.4121519    4.4121519    4.4121519   -12925.257   -49294.709    9436.9732    1081.9652    15598.603    -3378.311   -8028.4272    85.891733 
   34500    2187.7291    -114.3561    1.9795033    -112.3766    37183.882    4.4089032    4.4089032    4.4089032    37183.882    50602.898    28214.873    32733.874    8455.8686   -8700.5491    6636.6819    85.702145 
   34600    1860.6799   -114.08917    1.6835823   -112.40559   -26150.016    4.4071529    4.4071529    4.4071529   -26150.016   -41160.176    59520.039    -96809.91    8519.5067    80872.121    11678.926    85.600114 
   34700    2035.9398   -114.23798    1.8421611   -112.39581    6746.0971    4.4013539    4.4013539    4.4013539    6746.0971    46439.254   -6391.2578   -19809.705    4487.7443   -36265.891   -6295.3926    85.262656 
   34800    2202.5353   -114.40465    1.9929003   -112.41175   -32021.235    4.4123081    4.4123081    4.4123081   -32021.235   -58181.157    27652.906   -65535.454    7371.2072    40289.146     10127.25    85.900858 
   34900    1768.5637   -114.00669    1.6002336   -112.40646    5238.6683     4.428143     4.428143     4.428143    5238.6683    41261.817   -20173.696   -5372.1158    9344.5874    35094.339    8867.0982    86.829022 
   35000    2671.2697     -114.794    2.4170209   -112.37698   -19551.181    4.4239865    4.4239865    4.4239865   -19551.181    37570.394   -46491.179   -49732.758   -2612.3863    -22456.52   -154.66512    86.584742 
   35100    646.20229   -112.98183   0.58469742   -112.39713    32185.212    4.4019637    4.4019637    4.4019637    32185.212     100216.6    63872.824   -67533.792   -2511.7384    83747.505    5626.9685    85.298101 
   35200     2683.389   -114.81538    2.4279868   -112.38739    8749.5431    4.3916372    4.3916372    4.3916372    8749.5431    35289.074    26988.508   -36028.954    13438.622   -4095.7002   -12298.778    84.699213 
   35300    1966.7486     -114.203    1.7795555   -112.42344   -22388.836    4.4033992    4.4033992    4.4033992   -22388.836   -4386.6226    5071.2364   -67851.122    15061.804     53157.49   -1567.2681    85.381578 
   35400     1885.678   -114.12818    1.7062011   -112.42198   -27067.981    4.4287286    4.4287286    4.4287286   -27067.981   -62239.728    70873.668   -89837.882    6868.5312     26905.76     20366.79    86.863476 
   35500    2406.0562   -114.55015    2.1770502    -112.3731    814.84303    4.4275541    4.4275541    4.4275541    814.84303    -40719.98    31683.839     11480.67    7702.9538    -7062.184    7215.1375    86.794387 
   35600    1798.6318   -113.99986    1.6274398   -112.37242   -11513.639    4.4107099    4.4107099    4.4107099   -11513.639   -92759.697    75158.776   -16939.996    3935.2396    90429.251   -1742.6842    85.807544 
   35700    2709.8221   -114.81753     2.451904   -112.36562    37032.564    4.3917933    4.3917933    4.3917933    37032.564    13031.583    12450.928     85615.18      12549.9   -30160.713    3591.0646    84.708246 
   35800     1569.788   -113.83286    1.4203772   -112.41249    17699.084    4.3943591    4.3943591    4.3943591    17699.084    -83803.59       118335     18565.84    3968.2099    75781.943    20089.831    84.856797 
   35900    2181.2467   -114.40011    1.9736378   -112.42647   -21422.869    4.4207896    4.4207896    4.4207896   -21422.869   -54851.573    5905.6946   -15322.727    10576.492    7901.6631   -13061.147    86.397175 
   36000    1317.6959   -113.58357     1.192279   -112.39129   -42031.995    4.4362735    4.4362735    4.4362735   -42031.995   -50071.325   -51524.364   -24500.295    7774.8795    18045.573    17445.156    87.308181 
   36100    1789.1203   -114.00033    1.6188336   -112.38149   -8093.9402     4.402588     4.402588     4.402588   -8093.9402   -81421.537    21579.626    35560.091   -1737.9653    64227.049    4545.8152    85.334402 
   36200    1875.0489   -114.09515    1.6965836   -112.39856    49550.838     4.367492     4.367492     4.367492    49550.838    51222.734   -8446.1316    105875.91    5311.4045   -40562.024   -22620.873    83.309852 
   36300    2233.1182    -114.4917    2.0205723   -112.47113   -25343.548    4.3903669    4.3903669    4.3903669   -25343.548   -818.11149   -48349.519   -26863.014    11561.897    24268.099     26660.68    84.625732 
   36400    2373.1411   -114.59328    2.1472679   -112.44601   -19868.976    4.4304785    4.4304785    4.4304785   -19868.976   -62103.427   -43565.448    46061.949   -1727.2263    4534.1637   -10200.239    86.966484 
   36500     932.8195    -113.2547   0.84403469   -112.41066   -47715.302    4.4454372    4.4454372    4.4454372   -47715.302    -84019.45   -29695.717   -29430.739   -918.29749   -59872.764   -11650.857    87.850336 
   36600    3208.0547   -115.25536    2.9027153   -112.35265   -29863.677    4.4159212    4.4159212    4.4159212   -29863.677    -20920.33   -56517.492   -12153.209     7915.246    28530.016    16307.603    86.112052 
   36700    1994.3293   -114.17313    1.8045111   -112.36861   -21442.255    4.4068807    4.4068807    4.4068807   -21442.255   -57185.862    10003.626   -17144.529   -11742.325   -45636.986   -9538.2458    85.584259 
   36800    2399.4123    -114.5805    2.1710387   -112.40946   -16854.695    4.4152114    4.4152114    4.4152114   -16854.695   -10906.339   -54259.012    14601.264     12848.22   -2080.4487    8328.9661    86.070533 
   36900    1905.1208   -114.13762    1.7237933   -112.41383   -9778.0404    4.4280041    4.4280041    4.4280041   -9778.0404   -22196.206   -60543.279    53405.363   -10098.643    18490.085     7186.217    86.820852 
   37000    2593.4075   -114.74307    2.3465696    -112.3965   -23830.691    4.4249838    4.4249838    4.4249838   -23830.691    26272.538   -65850.618   -31913.993   -11096.493     3027.357   -2020.7905    86.643315 
   37100    2064.7911   -114.28608    1.8682664   -112.41781   -22585.727     4.399665     4.399665     4.399665   -22585.727    31497.091   -51525.992   -47728.281    1526.5387   -8227.6034   -27546.726    85.164543 
   37200    1843.1992   -114.08177    1.6677654     -112.414    50592.429    4.3863514    4.3863514    4.3863514    50592.429    50131.467    4375.0438    97270.777   -1247.8492    54959.855    11962.617    84.393747 
   37300    2276.0941   -114.50621    2.0594578   -112.44676   -9670.5889    4.4208143    4.4208143    4.4208143   -9670.5889   -35396.469   -2304.4741    8689.1763   -718.50177    8560.7013   -31586.829    86.398623 
   37400    2045.1593   -114.25506    1.8505031   -112.40455   -5483.9734    4.4476368    4.4476368    4.4476368   -5483.9734    4682.7132   -19653.617   -1481.0168    13662.141    18113.552     20935.06    87.980809 
   37500    1874.0649     -114.046    1.6956933    -112.3503   -40020.924     4.455731     4.455731     4.455731   -40020.924   -45737.312    4577.9377   -78903.399   -465.67259    23686.766   -4999.1516     88.46203 
   37600    2474.5015   -114.54323    2.2389809   -112.30425   -11572.513    4.4156383    4.4156383    4.4156383   -11572.513   -42944.388   -42504.198    50731.048    -4988.389   -12702.988    3655.1509    86.095503 
   37700    1949.6605   -114.08414    1.7640938   -112.32005    11281.389    4.3842846    4.3842846    4.3842846    11281.389    1753.9823    441.79096    31648.395   -9096.0653    6807.2152    45357.903    84.274504 
   37800    2411.5294   -114.60814    2.1820025   -112.42614   -9872.9198    4.4095067    4.4095067    4.4095067   -9872.9198    -48203.69   -16128.942    34713.872   -17704.691    23894.789   -4301.1371    85.737343 
   37900    2311.5105   -114.50527    2.0915033   -112.41377   -19917.014    4.4418191    4.4418191    4.4418191   -19917.014   -21697.821   -35899.372   -2153.8486    13406.986   -13503.385    20412.316     87.63601 
   38000    1618.9838   -113.85179    1.4648905    -112.3869    5647.7881    4.4241658    4.4241658    4.4241658    5647.7881    15850.508   -18061.127    19153.984    8309.4024    31941.075    6456.3205    86.595271 
   38100    1514.6597   -113.74698    1.3704959   -112.37649    5647.3391    4.3972162    4.3972162    4.3972162    5647.3391   -12634.629   -8825.9649    38402.611   -14890.666    -10742.61   -6726.2761    85.022419 
   38200    2577.9503   -114.73266    2.3325836   -112.40008   -1435.3059      4.38577      4.38577      4.38577   -1435.3059   -3977.4967   -12049.589    11721.168    13714.784   -24728.822   -17376.407    84.360189 
   38300    2331.6956   -114.55362    2.1097671   -112.44385   -4292.3015     4.396895     4.396895     4.396895   -4292.3015   -9780.5416     577.7951   -3674.1582   -1074.9355    53308.072     17908.55    85.003791 
   38400    1881.4232     -114.151    1.7023512   -112.44865   -25634.506    4.4170237    4.4170237    4.4170237   -25634.506   -81329.921    6885.0243   -2458.6217   -31218.144   -35941.945   -9856.1498    86.176569 
   38500    1675.3526   -113.92128    1.5158943   -112.40539   -16630.688    4.4181672    4.4181672    4.4181672   -16630.688   -45170.077   -31440.893    26718.905    9423.1125   -14123.791    -20068.89    86.243515 
   38600    2186.7938   -114.34978     1.978657   -112.37113    -9511.449     4.410358     4.410358     4.410358    -9511.449   -43559.301    28904.607   -13879.653    15600.782    26642.916   -2119.0756    85.787009 
   38700    2011.2098     -114.199    1.8197849   -112.37922    16931.988    4.4142023    4.4142023    4.4142023    16931.988   -52252.805    124244.79   -21196.019   -29871.433   -26325.873    873.67192    86.011536 
   38800    1544.6045   -113.79818    1.3975906   -112.40059   -22805.761    4.4216123    4.4216123    4.4216123   -22805.761   -19067.709    4973.2174   -54322.792    23104.374    30628.351   -24842.498    86.445415 
   38900    1363.3023   -113.63378    1.2335446   -112.40023    758.53843     4.410063     4.410063     4.410063    758.53843     29035.37    -14059.98   -12699.775   -18683.356    30089.623    -23406.74    85.769797 
   39000     2742.687   -114.85459    2.4816408   -112.37295    17310.777    4.3850489    4.3850489    4.3850489    17310.777    -20420.01    49973.132    22379.208    22471.584    4864.7602    5212.5874    84.318587 
   39100    1896.9665   -114.14707    1.7164151   -112.43066   -27249.721    4.3890936    4.3890936    4.3890936   -27249.721   -39587.762   -38772.765   -3388.6374    43300.505    17592.308   -27604.644    84.552125 
   39200    1432.1319   -113.74483     1.295823     -112.449    10100.798    4.4150353    4.4150353    4.4150353    10100.798    13707.543   -26749.787    43344.639   -20804.562    7942.7293   -28857.832    86.060236 
   39300    2156.9625   -114.36652     1.951665   -112.41486   -47031.696    4.4303625    4.4303625    4.4303625   -47031.696   -98604.401   -8948.3582   -33542.329    55521.171   -20888.945    16082.771    86.959649 
   39400    2141.2778   -114.33763    1.9374731   -112.40016   -52235.233    4.4254336    4.4254336    4.4254336   -52235.233   -55823.297   -31670.356   -69212.046   -2145.0828    16547.021   -16588.867    86.669737 
   39500    1433.0326   -113.69114     1.296638    -112.3945    16612.974    4.3943201    4.3943201    4.3943201    16612.974    47856.561    25007.762   -23025.401    -10462.21    15493.854   -30614.877    84.854535 
   39600    2158.4676   -114.35441    1.9530268   -112.40138    7529.3257    4.3810212    4.3810212    4.3810212    7529.3257    3750.0824    3272.4021    15565.493    50248.097   -30040.193    16441.861    84.086459 
   39700    2300.7001    -114.5309    2.0817218   -112.44917   -39828.868    4.4209915    4.4209915    4.4209915   -39828.868    9777.9013   -53028.169   -76236.338   -4669.6515    4579.0396   -40916.624    86.409012 
   39800    1699.3955   -113.93068    1.5376488   -112.39303   -32447.394    4.4379591    4.4379591    4.4379591   -32447.394   -1127.9798   -83720.534   -12493.668    6131.9586    5140.3145   -28668.315    87.407738 
   39900    2519.3629   -114.62206    2.2795725   -112.34249     3920.072    4.4109916    4.4109916    4.4109916     3920.072    13782.985    22308.087   -24330.856   -4722.7125   -14036.367    9938.4024    85.823988 
   40000     1959.281   -114.14519    1.7727986   -112.37239   -27147.452    4.3948139    4.3948139    4.3948139   -27147.452    71869.981   -70580.958   -82731.378    18136.609    5083.3919   -79158.308    84.883145 
   40100     2184.791   -114.36767    1.9768448   -112.39083    37728.383    4.3897735    4.3897735    4.3897735    37728.383    51560.715    38320.511    23303.923    5963.1586   -2896.1687    39470.347    84.591425 
   40200    1609.2611    -113.9116    1.4560932    -112.4555   -41155.413    4.4198319    4.4198319    4.4198319   -41155.413    26372.973   -97268.025   -52571.189   -1530.9424     4855.379    -72974.92    86.341034 
   40300    2444.3373   -114.58708    2.2116878    -112.3754   -14761.483    4.4434764    4.4434764    4.4434764   -14761.483   -40078.376   -23765.813     19559.74   -194.47394   -1026.4733   -14779.617    87.734142 
   40400    2188.0017    -114.3251    1.9797499   -112.34535    24268.689    4.4128953    4.4128953    4.4128953    24268.689   -22858.649   -523.80063    96188.515    4453.4879   -54.987849   -51102.316    85.935158 
   40500    1677.5714   -113.89309    1.5179018   -112.37518    -29332.51    4.3968912    4.3968912    4.3968912    -29332.51   -3497.3391   -38733.029   -45767.161    6978.0728   -10206.293   -49276.336    85.003567 
   40600    2190.7863   -114.38442    1.9822695   -112.40215    39937.805    4.3864752    4.3864752    4.3864752    39937.805   -17878.027    107226.33    30465.111    2337.0282    2117.7081    50898.997    84.400893 
   40700    1676.6659   -113.97087    1.5170825   -112.45378    9251.5729    4.3924517    4.3924517    4.3924517    9251.5729    16351.689    56352.456   -44949.427   -7819.0814     5856.316   -72003.758    84.746346 
   40800    1883.7915   -114.16484    1.7044942   -112.46035    -25868.63    4.4103066    4.4103066    4.4103066    -25868.63   -7380.8833   -27521.548    -42703.46    14734.786   -15964.868   -37925.432    85.784011 
   40900    2172.5653   -114.40853    1.9657828   -112.44275   -26987.842    4.4180896    4.4180896    4.4180896   -26987.842   -31139.802    355.68134   -50179.405   -5569.5538    830.20122    44752.701     86.23897 
   41000    1560.2805   -113.83994    1.4117746   -112.42817   -44231.339    4.4192615    4.4192615    4.4192615   -44231.339    5033.4905   -64094.291   -73633.217   -1106.1901    504.83368    -50531.73     86.30761 
   41100    2102.6911   -114.31177    1.9025591   -112.40921   -18970.359    4.3837827    4.3837827    4.3837827   -18970.359   -46564.605    9341.8817   -19688.352    14424.091   -24874.778   -20135.885    84.245564 
   41200    2110.8985   -114.31868    1.9099853    -112.4087    8172.0375    4.3685241    4.3685241    4.3685241    8172.0375    29718.562    31714.883   -36917.332    4975.6069     4770.336    63348.449    83.368927 
   41300    1448.6985   -113.76591    1.3108129    -112.4551     1833.298    4.3961721    4.3961721    4.3961721     1833.298    17997.528    38816.008   -51313.642   -3420.2094    5169.1079   -178.29937    84.961867 
   41400    2457.2496   -114.65778    2.2233711   -112.43441   -44373.114    4.4170407    4.4170407    4.4170407   -44373.114   -66529.636    12873.972   -79463.678   -5142.2857   -7037.1075    -30548.39    86.177562 
   41500    2368.1567   -114.56152    2.1427579   -112.41876   -11883.969    4.4000355    4.4000355    4.4000355   -11883.969   -20550.788    37084.995   -52186.113   -1870.5244    7555.8918    52233.273    85.186059 
   41600     1390.003   -113.70347    1.2577039   -112.44577    9865.2569    4.3866689    4.3866689    4.3866689    9865.2569    44900.261    15126.554   -30431.044    2193.4318   -8446.8052   -4087.5432    84.412073 
   41700    2055.5616   -114.30953    1.8599154   -112.44961    17880.377    4.3885085    4.3885085    4.3885085    17880.377    28324.273    36259.852   -10942.993   -22345.177   -32941.943   -32662.039    84.518316 
   41800    2142.8078   -114.40684    1.9388575   -112.46799   -22161.676    4.4206451    4.4206451    4.4206451   -22161.676   -11579.681   -6220.5102   -48684.837    29557.064    7118.8589     64385.03    86.388704 
   41900    1566.5836   -113.83673    1.4174778   -112.41925   -24555.404    4.4289354    4.4289354    4.4289354   -24555.404   -22641.067     32376.22   -83401.366    2578.7256   -8372.0472    3360.3912    86.875647 
   42000    2117.8264   -114.28916    1.9162538   -112.37291   -21169.301    4.4170173    4.4170173    4.4170173   -21169.301   -27691.582    46059.246   -81875.568   -14893.787   -20411.721   -4705.5903     86.17619 
   42100    2800.4546   -114.90799    2.5339102   -112.37408   -22300.277    4.4255997    4.4255997    4.4255997   -22300.277    33302.898    -38563.34   -61640.388    11536.191   -1734.6861    22814.382    86.679498 
   42200    1418.9766   -113.67958    1.2839199   -112.39566   -29370.554    4.4217172    4.4217172    4.4217172   -29370.554    48125.193   -36882.193   -99354.661   -12984.957   -26381.936   -40118.932    86.451572 
   42300    1808.7862   -114.04036    1.6366278   -112.40373   -25302.719    4.3937739    4.3937739    4.3937739   -25302.719   -7893.7585    1840.3497   -69854.748   -27164.522   -30209.443   -17193.082      84.8229 
   42400    2465.6174   -114.63965    2.2309424   -112.40871    54605.813    4.3848517    4.3848517    4.3848517    54605.813    82233.451      65479.6    16104.387    40352.352     30761.66    2873.6426    84.307215 
   42500     1921.176   -114.19012    1.7383204    -112.4518   -19927.132    4.4072217    4.4072217    4.4072217   -19927.132   -2231.6155    22664.647   -80214.427    2475.2381   -30728.344   -25310.933    85.604127 
   42600    2006.2576   -114.24068     1.815304   -112.42538   -18579.846     4.426192     4.426192     4.426192   -18579.846   -28961.119    -7139.067   -19639.352   -5732.4548   -5869.0813   -5253.8769    86.714304 
   42700     2130.483   -114.30546    1.9277058   -112.37775    2188.3547    4.4295633    4.4295633    4.4295633    2188.3547    23984.757   -26923.766    9504.0734    10975.999    9536.0102    1917.6304    86.912598 
   42800    1449.1128   -113.67672    1.3111877   -112.36553    17140.489    4.4177739    4.4177739    4.4177739    17140.489    35718.371    40921.832   -25218.735    7138.2159   -41160.918   -43647.779    86.220482 
   42900    2675.8649   -114.78221    2.4211788   -112.36103   -1487.1423    4.4077522    4.4077522    4.4077522   -1487.1423    3425.6286     -28438.1    20551.045   -3398.4806    5934.8512   -14682.611    85.635041 
   43000    1700.0412   -113.93356     1.538233   -112.39533     8061.915    4.4098921    4.4098921    4.4098921     8061.915   -1924.8722   -5379.0346    31489.652    5720.1483    14903.702    12481.123    85.759825 
   43100    1590.4628   -113.85737    1.4390841   -112.41828   -6640.1203    4.4235535    4.4235535    4.4235535   -6640.1203   -25077.826    741.22603    4416.2389   -6216.4783   -19892.718   -10489.603    86.559321 
   43200    2852.9167    -114.9696     2.581379   -112.38822   -32474.741     4.426521     4.426521     4.426521   -32474.741   -30398.448   -51740.842   -15284.934    16715.525   -458.84285    12235.911    86.733641 
   43300    2608.7176   -114.73452    2.3604225   -112.37409   -10754.479    4.3998501    4.3998501    4.3998501   -10754.479   -6219.2881   -50861.271    24817.123   -19387.316   -15698.361    704.88278    85.175294 
   43400    1534.7046   -113.79633    1.3886329    -112.4077   -9016.2385    4.3945752    4.3945752    4.3945752   -9016.2385   -696.91966   -14928.923   -11422.873   -14156.736   -24760.333   -29789.174    84.869315 
   43500    2813.7145   -114.97049     2.545908   -112.42459   -12656.387     4.419214     4.419214     4.419214   -12656.387     -17908.9   -22092.866    2032.6038   -7415.4256    8112.0508    17383.316    86.304828 
   43600    1650.0955   -113.90031    1.4930411   -112.40727   -26636.625    4.4522519    4.4522519    4.4522519   -26636.625     10282.34   -37383.175   -52809.039    7578.0914    -1717.726   -26758.966    88.254971 
   43700    1393.3337   -113.61248    1.2607176   -112.35177   -10588.043    4.4380467    4.4380467    4.4380467   -10588.043    22784.463    19045.732   -73594.325   -1795.2349   -22041.396   -30592.879    87.412917 
   43800    2301.4679   -114.38628    2.0824165   -112.30386    31014.983    4.3888049    4.3888049    4.3888049    31014.983    22283.743    65045.831    5715.3756    19140.082    55430.434    7078.9766    84.535444 
   43900    1636.6398   -113.83918    1.4808661   -112.35832    41972.933    4.3871683    4.3871683    4.3871683    41972.933    110308.77    26616.113   -11006.085    1939.6811   -2331.2567   -16254.655    84.440905 
   44000    1671.9474   -113.90432    1.5128132    -112.3915   -32640.197    4.4281647    4.4281647    4.4281647   -32640.197   -50012.798    8727.6251   -56635.418    1641.0322   -24086.911   -11346.494    86.830302 
   44100    2857.0568   -114.92412     2.585125     -112.339   -21613.336    4.4370323    4.4370323    4.4370323   -21613.336   -35868.236   -6918.1318   -22053.642   -1220.2899    19035.248    21674.437    87.352992 
   44200    1645.0174   -113.83167    1.4884463   -112.34323   -25950.001    4.4197712    4.4197712    4.4197712   -25950.001   -49366.248    4579.4085   -33063.163   -23340.324   -39951.302   -7635.4233    86.337481 
   44300    2477.9388   -114.56759    2.2420911    -112.3255    13675.903    4.4001219    4.4001219    4.4001219    13675.903   -34375.212    49349.863    26053.057   -13953.529    809.48764    20157.502    85.191081 
   44400     1957.545   -114.14352    1.7712279   -112.37229   -11206.267    4.4182811    4.4182811    4.4182811   -11206.267   -36073.963    14314.616   -11859.454    -574.8074    1102.2741   -40709.965    86.250181 
   44500     1631.887   -113.84547    1.4765657    -112.3689   -41736.277    4.4359297    4.4359297    4.4359297   -41736.277   -104545.62    34031.627   -54694.837   -3613.0681   -44448.702    11086.934    87.287884 
   44600    2604.4248   -114.70942    2.3565383   -112.35288    5191.9654    4.3969826    4.3969826    4.3969826    5191.9654    19320.268    12850.597   -16594.968   -950.27338    1476.9749    -40334.29     85.00887 
   44700    1582.1815   -113.80445    1.4315911   -112.37286   -18180.456    4.3678202    4.3678202    4.3678202   -18180.456    18530.109   -24405.553   -48665.922    19327.414   -11888.096   -52139.002    83.328632 
   44800    2347.1472   -114.54897    2.1237481   -112.42522   -13715.423    4.3872514    4.3872514    4.3872514   -13715.423   -54178.798    49814.303   -36781.776    8251.0321   -41335.362      40403.5    84.445706 
   44900    1782.6609   -114.02903    1.6129891   -112.41604   -26855.527    4.4200213    4.4200213    4.4200213   -26855.527    32456.328   -30107.621   -82915.289    1336.5585    34574.801   -51060.642    86.352138 
   45000    1638.5176   -113.86762    1.4825651   -112.38506   -22892.247     4.421562     4.421562     4.421562   -22892.247    4606.0787   -31952.079   -41330.742    5208.9025   -30169.707    -34995.13     86.44247 
   45100    2234.9036   -114.38925    2.0221877   -112.36707   -14687.498    4.4099438    4.4099438    4.4099438   -14687.498   -64516.826    39156.241    -18701.91    -3913.877    9264.6461    22833.814    85.762845 
   45200     2209.557   -114.36813    1.9992536   -112.36888    16786.164    4.3956951    4.3956951    4.3956951    16786.164    19950.077    91768.166   -61359.752   -9415.9332    30437.844   -30510.145    84.934213 
   45300    1895.1896   -114.09712    1.7148074   -112.38231    36277.043    4.3889384    4.3889384    4.3889384    36277.043    28676.881    69208.599    10945.648    5647.4521   -27783.113    10145.854    84.543155 
   45400    1762.6023    -114.0239    1.5948396   -112.42906      8127.71     4.414654     4.414654     4.414654      8127.71   -9813.2127    5402.5255    28793.817   -12773.231    45577.122   -10058.966     86.03794 
   45500    2584.2628     -114.722    2.3382953   -112.38371   -26491.285     4.434515     4.434515     4.434515   -26491.285   -40190.824   -45493.832    6210.7996    4519.3396   -8804.2787   -745.02688    87.204395 
   45600    1458.2861   -113.69247    1.3194879   -112.37298    21058.679    4.4174404    4.4174404    4.4174404    21058.679   -13635.915    12672.111    64139.842   -2541.2118   -24627.708    29171.849    86.200962 
   45700    2598.4464    -114.7108    2.3511289   -112.35967    10543.764    4.3880203    4.3880203    4.3880203    10543.764   -6150.1045    21130.328    16651.067   -36182.353    39935.781     -8822.68    84.490111 
   45800    2003.9941   -114.19978     1.813256   -112.38652      63784.9    4.3632033    4.3632033    4.3632033      63784.9    57711.287    29096.383    104547.03    25536.675   -42112.157    10162.768     83.06467 
   45900    1447.0505   -113.78576    1.3093217   -112.47644   -4476.8996    4.3901222    4.3901222    4.3901222   -4476.8996   -17583.463   -16886.806     21039.57    -21606.31   -24490.761    18308.209    84.611586 
   46000    2528.6127    -114.7053    2.2879419   -112.41735   -11925.869    4.4191651    4.4191651    4.4191651   -11925.869    1082.8987   -27295.436   -9565.0686   -27240.476    223.02485     13136.67    86.301962 
   46100    1624.9156   -113.86008    1.4702578   -112.38982    26022.141    4.4075262    4.4075262    4.4075262    26022.141    33580.034     2349.842    42136.547    29631.004   -29397.424    1961.3982    85.621869 
   46200    2229.7955   -114.38787    2.0175658   -112.37031   -28842.516    4.4078422    4.4078422    4.4078422   -28842.516    -30886.75     -42833.8   -12806.998   -45202.073   -15218.811     13445.98     85.64029 
   46300     2242.027   -114.39802    2.0286332   -112.36938    5685.6877    4.3911302    4.3911302    4.3911302    5685.6877   -7328.8963   -29803.382    54189.342   -16616.134    7575.4914    -2905.096    84.669881 
   46400     1139.363   -113.45463    1.0309196   -112.42371    19143.678    4.3908123    4.3908123    4.3908123    19143.678    52549.302    2629.8006    2251.9305    33425.663   -36432.076    2256.9506    84.651494 
   46500    2845.3261   -114.98906    2.5745108   -112.41454    6272.2573    4.4135234    4.4135234    4.4135234    6272.2573   -5749.7985   -16050.893    40617.463   -17691.238    13876.232    4296.5312    85.971855 
   46600    1793.0078   -114.04635    1.6223511     -112.424   -15333.896    4.4146328    4.4146328    4.4146328   -15333.896   -2221.3411   -33133.572   -10646.774     13010.89    -16718.42   -12536.912      86.0367 
   46700    1614.8781   -113.87159    1.4611757   -112.41041   -23228.442    4.4104135    4.4104135    4.4104135   -23228.442   -45653.297   -14550.732   -9481.2965    35091.971    -15448.61   -2978.5765    85.790246 
   46800    2160.0844   -114.35204    1.9544898   -112.39755    10380.661    4.3862305    4.3862305    4.3862305    10380.661   -3153.5987   -17134.846    51430.428   -70664.121    3780.8383   -744.88408    84.386767 
   46900    2549.3706   -114.72118    2.3067241   -112.41446    7962.9231    4.3794855    4.3794855    4.3794855    7962.9231   -11964.821    31766.899     4086.692    8614.7907   -24765.504     12763.71    83.998063 
   47000    1771.3183   -114.04461    1.6027261   -112.44188   -46082.969    4.4096155    4.4096155    4.4096155   -46082.969   -70442.061   -47216.546     -20590.3    6633.5165   -26789.092   -4566.0786    85.743689 
   47100    1904.1349   -114.13964    1.7229013   -112.41673   -22483.855     4.406152     4.406152     4.406152   -22483.855   -39664.965   -21737.681   -6048.9173   -64831.538    11015.734   -13150.402    85.541808 
   47200    2493.2573   -114.65665    2.2559516    -112.4007   -19022.159    4.3948201    4.3948201    4.3948201   -19022.159   -17354.274   -1344.2739   -38367.929    10078.529   -13711.812    13085.847    84.883505 
   47300    1841.8434   -114.08297    1.6665387   -112.41643   -17146.166    4.4045074    4.4045074    4.4045074   -17146.166   -12737.488   -35457.931   -3243.0793    18130.225     998.5114   -16326.842     85.44606 
   47400    1792.5829   -114.03836    1.6219667   -112.41639   -16596.208    4.4076633    4.4076633    4.4076633   -16596.208   -23234.634   -24876.234   -1677.7559   -25465.694   -6908.6634    2280.2259    85.629863 
   47500    2804.7831   -114.93946    2.5378267   -112.40163   -1270.3119    4.4076672    4.4076672    4.4076672   -1270.3119    15222.622   -5463.7455   -13569.812    10539.848    4059.3132   -8979.4611    85.630084 
   47600    1519.2315   -113.78859    1.3746326   -112.41396   -39185.625    4.4202808    4.4202808    4.4202808   -39185.625   -64052.047   -110472.59    56967.766    43383.772    5240.9679    674.49213    86.367347 
   47700    1957.8392   -114.14214     1.771494   -112.37064    -6420.077    4.4199132    4.4199132    4.4199132    -6420.077   -22075.168   -51693.656    54508.593   -37264.358    17973.533   -5460.7397    86.345802 
   47800    2774.0183    -114.8622      2.50999   -112.35221   -48631.169    4.4260214    4.4260214    4.4260214   -48631.169   -11586.463   -91235.056   -43071.987    40866.299    2122.8302    22392.335    86.704277 
   47900    1267.2583   -113.51915    1.1466419   -112.37251   -37314.484    4.4206513    4.4206513    4.4206513   -37314.484   -71233.923   -78396.528    37686.999   -7157.7056   -4588.1594    4692.3597    86.389068 
   48000    2355.3265   -114.48254    2.1311489   -112.35139    10062.244    4.3929702    4.3929702    4.3929702    10062.244    78998.163   -29032.435   -19778.997   -28524.336   -14677.806   -648.73303    84.776364 
   48100    2442.3176   -114.59967    2.2098603   -112.38981   -20509.904    4.3963738    4.3963738    4.3963738   -20509.904   -18959.372    1693.2195   -44263.559    16847.131   -5812.2825    3424.7795    84.973565 
   48200    2024.6086   -114.22518    1.8319084   -112.39327    -9633.023    4.4124794    4.4124794    4.4124794    -9633.023    28531.612   -50316.294   -7114.3863   -12544.912    3330.8773    5992.1985    85.910862 
   48300    1914.1437   -114.12371    1.7319574   -112.39176   -576.33023    4.4102059    4.4102059    4.4102059   -576.33023    12361.242    1757.0484   -15847.281   -28971.387   -46721.893   -3910.0572    85.778135 
   48400     2257.274   -114.43567    2.0424289   -112.39324    11834.635    4.4023036    4.4023036    4.4023036    11834.635    19440.527    25684.661    -9621.282    7224.1667     16586.55     12210.52    85.317865 
   48500    1857.4222   -114.08964    1.6806347     -112.409    17852.666    4.3965458    4.3965458    4.3965458    17852.666    11449.672    9564.7273    32543.599   -38263.782   -21388.239   -12996.135    84.983539 
   48600    1837.0105   -114.08438    1.6621657   -112.42222   -6460.5691     4.413953     4.413953     4.413953   -6460.5691   -38941.497   -6886.7496    26446.539   -5290.0757   -24563.144   -22869.983    85.996963 
   48700    1920.2519   -114.12719    1.7374843    -112.3897   -42728.721    4.4331805    4.4331805    4.4331805   -42728.721    6705.9362    -40843.35   -94048.751   -8912.9346    32895.852   -15130.948    87.125695 
   48800    2616.6292   -114.72843    2.3675811   -112.36085   -28934.078    4.4128395    4.4128395    4.4128395   -28934.078    24008.395   -64611.607   -46199.021    -22866.66    -10991.69   -2176.3499    85.931899 
   48900    2123.4025   -114.28116    1.9212992   -112.35986    1598.1904    4.3883435    4.3883435    4.3883435    1598.1904    32433.702    7196.8154   -34835.946     -4079.81    26716.157    17418.693    84.508782 
   49000    1652.8665   -113.91698    1.4955484   -112.42143   -18556.631    4.3977188    4.3977188    4.3977188   -18556.631    32049.978   -26370.039   -61349.833     14531.72    29318.298    154.13642    85.051575 
   49100    2250.3481   -114.45592    2.0361623   -112.41976   -49545.494    4.4150085    4.4150085    4.4150085   -49545.494   -42800.658   -66470.369   -39365.455   -39798.526    4494.5893   -9255.4823    86.058672 
   49200    2930.9865   -115.04524    2.6520182   -112.39322   -2184.3788    4.4100123    4.4100123    4.4100123   -2184.3788      171.975    25103.694   -31828.805    17817.466    17185.725    13216.523    85.766836 
   49300     1676.425   -113.92305    1.5168646   -112.40618    11018.249     4.396597     4.396597     4.396597    11018.249    75788.642   -40643.047   -2090.8478   -3167.4166   -766.26023   -21590.732    84.986508 
   49400    1250.0839   -113.55419    1.1311022   -112.42309    3035.4887    4.3974073    4.3974073    4.3974073    3035.4887    31683.955    -40084.86    17507.371   -50195.441   -30712.336   -26615.931    85.033505 
   49500    2873.6488   -115.01559    2.6001378   -112.41545     7300.912    4.4047796    4.4047796    4.4047796     7300.912    22814.543    11164.007   -12075.814    25690.143   -18942.165    8798.3947      85.4619 
   49600    1427.8851   -113.72273    1.2919805   -112.43075   -13787.524    4.4137825    4.4137825    4.4137825   -13787.524   -32248.041   -30189.934    21075.403   -44914.988     22332.88   -25820.122    85.986997 
   49700    1567.8107    -113.8134     1.418588   -112.39481   -693.87186    4.4093943    4.4093943    4.4093943   -693.87186   -36616.165    5112.4966    29422.053   -20368.155   -17514.604   -38342.164    85.730787 
   49800    2275.5685   -114.42978    2.0589822    -112.3708    6814.3464      4.41343      4.41343      4.41343    6814.3464    71445.962    -3748.647   -47254.276   -20708.776   -9830.1776     9772.884    85.966399 
   49900    1849.4243    -114.0467     1.673398    -112.3733   -32152.064    4.4221773    4.4221773    4.4221773   -32152.064    42326.311   -84650.522   -54131.982   -59410.335    9019.5504   -31529.729    86.478562 
   50000    1975.4821   -114.15379    1.7874577   -112.36633    34802.611    4.4108471    4.4108471    4.4108471    34802.611    119295.47    24226.257   -39113.892    7833.8786   -26794.692    4630.3838    85.815555 
   50100    2149.5738   -114.33245    1.9449795   -112.38747   -39444.853    4.4110586    4.4110586    4.4110586   -39444.853   -13412.675   -48306.734   -56615.151   -7735.1836    13095.049   -20849.652    85.827898 
   50200    2848.4531   -114.95707    2.5773402   -112.37973   -18784.958    4.3928831    4.3928831    4.3928831   -18784.958    32856.353   -51985.401   -37225.826   -10160.937   -9570.7802   -19479.919    84.771319 
   50300    1126.5804   -113.44525    1.0193536   -112.42589    6535.5649    4.3939033    4.3939033    4.3939033    6535.5649    58696.952    25897.422   -64987.679   -720.24138   -20419.707    10481.541    84.830394 
   50400    1562.2802   -113.86337     1.413584   -112.44979   -21762.819    4.4067555    4.4067555    4.4067555   -21762.819    29556.444   -28137.081   -66707.821    46375.414    37165.912   -11812.564    85.576964 
   50500    2567.5273   -114.74075    2.3231527    -112.4176    1076.2731    4.4039911    4.4039911    4.4039911    1076.2731    61032.302    1075.6455   -58879.129     902.3131    -9397.847    13741.353    85.416014 
   50600    993.88717   -113.32008      0.89929   -112.42079     2801.387    4.4102889    4.4102889    4.4102889     2801.387    51636.085    10036.071   -53267.995    1418.4745   -712.45966   -3266.3999    85.782978 
   50700    2625.5992   -114.74466    2.3756974   -112.36896    -1953.654    4.4106772    4.4106772    4.4106772    -1953.654    16585.892   -46724.437    24277.583    30461.925    24186.509   -56.738853    85.805639 
   50800    1495.8145   -113.74149    1.3534444   -112.38805   -37536.554    4.4214541    4.4214541    4.4214541   -37536.554    19329.234   -68703.703   -63235.194    -4094.265    -13082.93    38353.845    86.436139 
   50900    1824.3733   -114.02452    1.6507313   -112.37379   -34557.009    4.4101596    4.4101596    4.4101596   -34557.009    -64289.36   -2105.0155    -37276.65   -2013.4877   -11568.567   -27068.575    85.775433 
   51000    2158.9702   -114.32768    1.9534817    -112.3742   -1287.3357     4.375199     4.375199     4.375199   -1287.3357    62849.921   -33524.208    -33187.72   -702.23567    8207.4687    69731.402    83.751659 
   51100    2025.4088   -114.26237    1.8326324   -112.42974    -4864.168    4.3738229    4.3738229    4.3738229    -4864.168    40628.291   -10549.826   -44670.968   -17871.808     2868.582    26888.658     83.67266 
   51200    1843.9277   -114.12427    1.6684246   -112.45585   -1644.8309    4.3974586    4.3974586    4.3974586   -1644.8309   -10930.789    22872.821   -16876.525    20732.029   -46216.014   -23683.734     85.03648 
   51300     1552.894   -113.84544    1.4050911   -112.44034   -27799.455    4.4158602    4.4158602    4.4158602   -27799.455    33141.351   -29881.468   -86658.248    211.92137    13303.545    67891.984    86.108488 
   51400    2342.8253   -114.50888    2.1198376   -112.38904   -6139.1885    4.4138307    4.4138307    4.4138307   -6139.1885   -14789.431     574.9057   -4203.0405    2522.2972    19252.295   -12219.531    85.989817 
   51500    2243.6292    -114.4306    2.0300828   -112.40052   -13355.208    4.3925715    4.3925715    4.3925715   -13355.208    8456.4775   -25352.319   -23169.781    7795.6627   -35459.833   -3918.2715    84.753278 
   51600    1821.6327   -114.06651    1.6482516   -112.41825    28036.791    4.3647099    4.3647099    4.3647099    28036.791    62847.557    3414.5697    17848.246    3690.8715    13799.959    39053.736    83.150749 
   51700    1678.9948   -113.98656    1.5191898   -112.46737    7735.1046    4.3771489    4.3771489    4.3771489    7735.1046    10468.515    23800.866   -11064.067   -15073.665    61003.701   -1560.0767    83.863689 
   51800    2623.9769   -114.81942    2.3742295   -112.44519    -18224.65    4.4102019    4.4102019    4.4102019    -18224.65    22019.963   -29535.528   -47158.384   -1424.8702   -8309.3534    10253.945    85.777901 
   51900    848.26696   -113.20055   0.76752978   -112.43302    6346.0898    4.4317855    4.4317855    4.4317855    6346.0898    102814.36   -14103.769   -69672.323   -389.43632     42683.19    39278.201     87.04347 
   52000    2337.8215   -114.45003      2.11531   -112.33472   -13356.959    4.4329518    4.4329518    4.4329518   -13356.959    7734.4748   -19626.168   -28179.185   -4420.7812    12376.627   -16514.821    87.112208 
   52100    2191.9882   -114.30769     1.983357   -112.32433      24811.5    4.3889141    4.3889141    4.3889141      24811.5    55457.888    -9852.526     28829.14    8902.2231    9230.2051    19857.564    84.541752 
   52200    1891.8355   -114.06832    1.7117725   -112.35655    10022.944    4.3696228    4.3696228    4.3696228    10022.944    -2000.446    29161.462    2907.8164    -11026.01    52707.505    22490.788    83.431843 
   52300    2749.8556   -114.88563    2.4881271   -112.39751    21063.609    4.3849697    4.3849697    4.3849697    21063.609    13289.666   -19930.491    69831.652   -3040.3554   -9791.3774   -18020.329    84.314018 
   52400    782.28198   -113.16102   0.70782518   -112.45319    18949.964    4.4149488    4.4149488    4.4149488    18949.964   -7457.9536    22876.374    41431.472    10395.284    34358.737    22018.486    86.055182 
   52500    1816.2737   -114.04073    1.6434026   -112.39733   -37386.774     4.432417     4.432417     4.432417   -37386.774   -71174.002      -2825.1   -38161.219    499.16568    44299.802   -5885.9166    87.080686 
   52600    2585.3879   -114.70935    2.3393133   -112.37004    7203.3271    4.3982649    4.3982649    4.3982649    7203.3271    48160.868   -40030.363    13479.476   -8903.8886   -24747.504    10264.738    85.083268 
   52700    1377.9873   -113.62883    1.2468319     -112.382     15423.26    4.3646767    4.3646767    4.3646767     15423.26    101698.64    -4214.629   -51214.235   -5371.3588    77667.526    38513.363     83.14885 
   52800    2319.8458   -114.54152    2.0990453   -112.44248    9614.1471     4.389401     4.389401     4.389401    9614.1471    3209.2421    31830.023   -6196.8241    16172.114    15187.036   -17816.719    84.569894 
   52900    2245.7973   -114.46486    2.0320446   -112.43282   -25400.152     4.410624     4.410624     4.410624   -25400.152    4159.3937   -27626.342   -52733.508    10003.087   -7181.0567    14691.539    85.802532 
   53000    1318.8107   -113.62072    1.1932876   -112.42743   -4130.1611    4.4033546    4.4033546    4.4033546   -4130.1611    92389.989   -16838.814   -87941.659   -4590.5429    63455.588    37048.347    85.378982 
   53100    3024.6218   -115.12758    2.7367414   -112.39084   -23359.543     4.412058     4.412058     4.412058   -23359.543   -23852.686   -17179.011   -29046.933    15882.717   -16969.105   -14750.278    85.886252 
   53200    1526.9368   -113.77324    1.3816045   -112.39164   -34895.416    4.4182348    4.4182348    4.4182348   -34895.416   -24619.082    7294.3156   -87361.482    19040.973     46354.52    27997.534    86.247472 
   53300    2488.9129   -114.62792    2.2520207    -112.3759   -32182.355    4.4089127    4.4089127    4.4089127   -32182.355   -30500.978   -296.89669    -65749.19   -12556.364    35189.047     13350.26    85.702699 
   53400    2640.6759   -114.77698     2.389339   -112.38764   -20722.431    4.4103616    4.4103616    4.4103616   -20722.431   -30010.211   -6509.3257   -25647.756    16490.685   -5156.1033   -30863.301    85.787219 
   53500    1459.0956   -113.72267    1.3202204   -112.40245    19964.084    4.4041829    4.4041829    4.4041829    19964.084   -3933.0644    110403.04   -46577.723    2733.3954    30229.995    39861.045    85.427171 
   53600     2454.128   -114.61796    2.2205466   -112.39741   -2197.8805    4.4067043    4.4067043    4.4067043   -2197.8805    -7508.505    3982.9911   -3068.1276    -5141.599   -6078.5449   -16522.925    85.573982 
   53700    2536.5664   -114.69863    2.2951386    -112.4035   -13963.016    4.4070996    4.4070996    4.4070996   -13963.016   -38346.389   -352.18568   -3190.4732    10722.934     3931.421   -274.27234    85.597009 
   53800    685.00006   -113.04892   0.61980245   -112.42912    355.91025    4.3990037    4.3990037    4.3990037    355.91025   -69254.255    28967.742    41354.244    22190.245    52339.296    37107.064    85.126146 
   53900    2671.9424   -114.84103    2.4176297    -112.4234   -18789.465    4.3941129    4.3941129    4.3941129   -18789.465   -32586.799   -23425.815   -355.77925    -2193.168   -17267.423    14612.944    84.842533 
   54000    2232.5618   -114.44584    2.0200688   -112.42577    19485.872    4.3883893    4.3883893    4.3883893    19485.872   -41847.278    27877.533    72427.361   -20380.067    24478.067   -16348.483    84.511426 
   54100    1269.3648    -113.6031    1.1485479   -112.45455   -20336.742    4.4027082    4.4027082    4.4027082   -20336.742   -56016.489    42697.507   -47691.242    42693.117    41126.338    21913.602    85.341391 
   54200    2601.7116   -114.76539    2.3540833   -112.41131   -1086.7883    4.4054887    4.4054887    4.4054887   -1086.7883    -46934.05    14543.254    29130.432   -5186.2159   -12542.316    1595.9527    85.503179 
   54300    1804.4197   -114.03753    1.6326769   -112.40485    25867.352      4.39662      4.39662      4.39662    25867.352   -60484.483    98375.853    39710.688   -20495.946    40520.166   -21890.085    84.987841 
   54400    1759.4693   -114.01406    1.5920048   -112.42206   -38590.776    4.4007624    4.4007624    4.4007624   -38590.776   -33595.123   -36491.253   -45685.952    25261.362    13401.306    46853.454    85.228289 
   54500    2051.0263   -114.26673    1.8558117   -112.41092    24946.705    4.3953134    4.3953134    4.3953134    24946.705    2967.6892    11136.057     60736.37   -8273.7381    4379.6133     1677.585    84.912093 
   54600     1992.375   -114.23693    1.8027427   -112.43418   -1842.3613    4.4057283    4.4057283    4.4057283   -1842.3613   -32677.735    38064.219   -10913.568   -15519.358    22380.312   -7726.5051    85.517136 
   54700    2021.0546   -114.24637    1.8286927   -112.41768   -26265.305    4.4150944    4.4150944    4.4150944   -26265.305   -31962.358   -48797.152    1963.5943    44494.732    16255.758    37196.172    86.063692 
   54800    2139.1072   -114.32324    1.9355091   -112.38773    7216.1252    4.4032225    4.4032225    4.4032225    7216.1252   -58001.061    39697.534    39951.903   -21595.461    4898.4162   -7225.3145    85.371298 
   54900    1702.6527   -113.95044     1.540596   -112.40984   -29200.975    4.4136779    4.4136779    4.4136779   -29200.975   -67878.135    16544.414   -36269.203   -18868.112    24396.384    12789.303    85.980887 
   55000    2567.3868   -114.73893    2.3230255    -112.4159    -38178.54    4.4005517    4.4005517    4.4005517    -38178.54   -31044.591   -25259.211   -58231.817    24842.866   -17736.914    42209.568    85.216046 
   55100    2676.6796   -114.82975     2.421916   -112.40784    38512.278    4.3695074    4.3695074    4.3695074    38512.278    12798.738    23451.879    79286.216   -9881.8958      -5966.7   -35933.481    83.425234 
   55200    1117.3339    -113.4793    1.0109872   -112.46831   -20336.527    4.3993728    4.3993728    4.3993728   -20336.527   -24317.315    -34333.33   -2358.9371   -11179.346    40073.748    36785.656    85.147576 
   55300    2481.4992   -114.66253    2.2453126   -112.41721    -41442.73    4.4182892    4.4182892    4.4182892    -41442.73   -35248.313   -32809.558   -56270.319    25227.298   -30853.168    23821.542    86.250659 
   55400    1433.3435   -113.69708    1.2969193   -112.40016    15773.322    4.4061816    4.4061816    4.4061816    15773.322    16659.257   -8915.3031    39576.012   -6618.0223    37302.796   -2951.4854    85.543532 
   55500    2092.3037   -114.28357    1.8931603   -112.39041   -16636.204    4.4059461    4.4059461    4.4059461   -16636.204    24818.837   -26009.094   -48718.354   -20436.455    12550.595    10179.025    85.529815 
   55600    2647.7742   -114.76363    2.3957617   -112.36787   -32385.119    4.4127953    4.4127953    4.4127953   -32385.119   -38640.628   -37597.891   -20916.838    45620.764   -16533.182    -8882.361    85.929312 
   55700    1457.5717   -113.70167    1.3188415   -112.38283      15469.3    4.4101063    4.4101063    4.4101063      15469.3    68079.149   -10611.284   -11059.965   -26422.122     36596.69   -3930.9863    85.772322 
   55800    2277.5717   -114.42543    2.0607948   -112.36463    26499.253    4.3941364    4.3941364    4.3941364    26499.253    14801.616    46695.095    18001.049   -14598.342   -31021.346     20830.21    84.843894 
   55900    1418.7292   -113.67349     1.283696   -112.38979     7717.827    4.3840695    4.3840695    4.3840695     7717.827     3423.586   -99.718006    19829.613     34078.94    -6225.533   -6466.3295    84.262104 
   56000    2695.2388   -114.83984    2.4387087   -112.40113   -5708.7361    4.3951371    4.3951371    4.3951371   -5708.7361    490.36116   -8039.1099   -9577.4595    155.37121    33006.603   -4867.8968    84.901872 
   56100    1874.6669   -114.10951     1.696238   -112.41328    24894.057    4.4044375    4.4044375    4.4044375    24894.057    64962.085    18815.789   -9095.7047    1521.4933   -69040.164    6005.0517     85.44199 
   56200    1878.2214   -114.10875    1.6994542    -112.4093    -5132.241    4.4183819    4.4183819    4.4183819    -5132.241   -32237.146   -15119.018    31959.441    41129.354    25177.914    5039.6239    86.256085 
   56300    2013.5309   -114.20562     1.821885   -112.38373    -23194.33    4.4077643    4.4077643    4.4077643    -23194.33   -12818.028   -15559.817   -41205.145    6859.2486   -31987.702   -1867.8278    85.635745 
   56400    1657.4116   -113.88152    1.4996608   -112.38186    15152.736    4.3734207    4.3734207    4.3734207    15152.736    65950.362    53568.384   -74060.539    -6325.596   -89529.474   -5208.4423    83.649579 
   56500    2861.6767   -114.98659    2.5893052   -112.39728      17327.6    4.3767798    4.3767798    4.3767798      17327.6    28294.255   -18022.577    41711.122    15356.745    34857.801    1580.8726    83.842474 
   56600    1515.6981    -113.7986    1.3714355   -112.42717   -1172.5152    4.3998179    4.3998179    4.3998179   -1172.5152    33982.944    23923.671   -61424.161    1197.6544   -83349.658     9092.667    85.173423 
   56700    1864.7089   -114.08806    1.6872278   -112.40084    7716.8159    4.4197917    4.4197917    4.4197917    7716.8159    10751.243    50582.416   -38183.212    8350.7125    5126.0448     1731.827     86.33868 
   56800    1635.5462   -113.85902    1.4798766   -112.37915   -20016.234    4.4135041    4.4135041    4.4135041   -20016.234    -64288.74    53866.687   -49626.649   -281.04449   -11339.842    2032.0403    85.970725 
   56900     2578.296   -114.68198    2.3328964   -112.34909     10368.57    4.3803469    4.3803469    4.3803469     10368.57    25649.284    36825.452   -31369.026   -15100.056   -64485.043     11068.76     84.04764 
   57000    2105.5357   -114.28431    1.9051329   -112.37918   -3856.0433    4.3763637    4.3763637    4.3763637   -3856.0433    -4030.505    11048.205    -18585.83   -3183.3295    36606.554   -8744.6849    83.818566 
   57100    1530.5222   -113.80674    1.3848486   -112.42189    9161.6969     4.387576     4.387576     4.387576    9161.6969   -10979.457    40535.807   -2071.2594    6982.6171   -20314.405   -4101.3791     84.46445 
   57200    2578.2515   -114.74545    2.3328561   -112.41259   -4038.3999    4.4133365    4.4133365    4.4133365   -4038.3999    9633.4866    1826.7179   -23575.404    5517.6662    2376.3669    5798.9862    85.960935 
   57300    828.45605   -113.14654   0.74960444   -112.39693   -51411.295    4.4337502    4.4337502    4.4337502   -51411.295   -44435.751   -54249.188   -55548.944   -1411.6397    36115.008    9449.5715    87.159285 
   57400    3192.5088   -115.22558     2.888649   -112.33694    6785.1625    4.4038723    4.4038723    4.4038723    6785.1625   -1364.0921    24719.847   -3000.2674   -2152.2935    667.95952   -23714.553    85.409104 
   57500    1335.8627   -113.57009    1.2087167   -112.36137    31797.348    4.3757994    4.3757994    4.3757994    31797.348    74855.479    14658.618    5877.9482   -17801.776    4053.2985    13269.923    83.786147 
   57600    2520.8347   -114.67287    2.2809042   -112.39196    23253.949    4.3913564    4.3913564    4.3913564    23253.949    52837.315    17789.078   -864.54634    2178.1605    23343.574   -12098.251    84.682963 
   57700    1861.8276   -114.06502    1.6846207    -112.3804   -5018.9838     4.413391     4.413391     4.413391   -5018.9838    38969.787   -3346.1879   -50680.551   -25240.939   -20344.987    11623.938    85.964119 
   57800    1912.0714   -114.10546    1.7300824   -112.37538   -13350.014     4.401995     4.401995     4.401995   -13350.014    65515.618   -76966.329   -28599.333   -23703.413    -7735.707     22252.62    85.299922 
   57900    2730.2163   -114.82193    2.4703571   -112.35157    7899.5819     4.393144     4.393144     4.393144    7899.5819    47389.855    16980.552   -40671.661    9090.7732   -273.42219   -3402.3584    84.786424 
   58000    1352.8785    -113.6196    1.2241129   -112.39549   -48161.298    4.3908346    4.3908346    4.3908346   -48161.298   -34985.536   -45362.069   -64136.289   -13342.592   -36995.946   -11421.556     84.65278 
   58100    2152.8139   -114.34427    1.9479113   -112.39636    2695.7235    4.3891021    4.3891021    4.3891021    2695.7235   -4264.2613    39131.139   -26779.707   -11943.481   -2207.4117    17907.129    84.552619 
   58200     1996.975   -114.22286    1.8069049   -112.41596    -31155.86    4.4071721    4.4071721    4.4071721    -31155.86   -93772.487    55705.375   -55400.467   -2367.1812     42996.05   -3231.3527    85.601238 
   58300    1858.6643   -114.07066    1.6817585    -112.3889   -49801.127    4.4208938    4.4208938    4.4208938   -49801.127   -48003.091   -69899.397   -31500.892   -36911.914   -41483.084   -21576.115    86.403281 
   58400    1854.5071   -114.04412     1.677997   -112.36612   -10206.882    4.4012056    4.4012056    4.4012056   -10206.882   -25537.824    70428.375   -75511.197    5080.9275     60712.49    12403.815    85.254039 
   58500    2234.0481    -114.3867    2.0214136   -112.36528     14971.31    4.3881916    4.3881916    4.3881916     14971.31   -11729.284    62644.458   -6001.2435   -6834.0342   -7469.3237    3378.9936     84.50001 
   58600    1756.9276   -113.99658     1.589705   -112.40688   -6300.7214    4.3913121    4.3913121    4.3913121   -6300.7214   -33989.024    36004.115   -20917.255   -26226.915    14251.771     5606.496    84.680401 
   58700    1731.9436   -113.99078     1.567099   -112.42368   -33068.697    4.4039076    4.4039076    4.4039076   -33068.697   -70371.819    70877.977   -99712.249    18593.149    78070.232   -4358.6621    85.411156 
   58800    2215.0031   -114.39939    2.0041814    -112.3952   -3607.7207    4.4062917    4.4062917    4.4062917   -3607.7207    -26569.35   -10915.013    26661.201   -28840.817   -15500.265    22808.465    85.549946 
   58900    1092.5006   -113.39052   0.98851754   -112.40201   -10081.395    4.3940832    4.3940832    4.3940832   -10081.395   -41995.401    19761.247   -8010.0317   -36745.755     71939.31    15307.641    84.840815 
   59000    3266.4025   -115.31741    2.9555097    -112.3619    3434.1895    4.3925785    4.3925785    4.3925785    3434.1895    27654.645   -9503.0194   -7849.0568    26882.685   -20455.379   -1742.0549    84.753685 
   59100     1355.364   -113.61225    1.2263618   -112.38588    -22947.07    4.4131708    4.4131708    4.4131708    -22947.07   -14477.335    -13942.07   -40421.806   -21773.362    55839.161    6127.3376     85.95125 
   59200    2373.5155   -114.50655    2.1476067   -112.35894   -4724.3914     4.429707     4.429707     4.429707   -4724.3914   -38120.639   -44091.474    68038.938   -3368.8924    5885.0395   -13375.246    86.921056 
   59300    1249.2808   -113.44783    1.1303755   -112.31746    3618.6613    4.4334639    4.4334639    4.4334639    3618.6613   -34041.739    69418.787   -24521.065   -19934.356    60392.106    8026.8848    87.142403 
   59400     2053.367   -114.13601    1.8579296   -112.27808   -6643.7867    4.4136342    4.4136342    4.4136342   -6643.7867   -40700.064    16339.877    4428.8263   -4165.3157    23423.685   -52.627076    85.978329 
   59500    2547.8177   -114.58864     2.305319   -112.28332   -20643.406    4.4006279    4.4006279    4.4006279   -20643.406    8756.0242   -27877.657   -42808.586   -471.68933     3763.724   -2996.2009    85.220475 
   59600    941.49292   -113.22474   0.85188258   -112.37286   -19884.931    4.3895961    4.3895961    4.3895961   -19884.931    -23399.69   -10881.094   -25374.009   -35917.843    67912.224    16998.712    84.581169 
   59700    2673.6016   -114.79802    2.4191309   -112.37889    38506.984    4.3806033    4.3806033    4.3806033    38506.984    81803.116     13096.25    20621.587   -17379.905   -3574.9224    11575.064      84.0624 
   59800    1604.8383   -113.88287    1.4520914   -112.43078    18838.971    4.3940851    4.3940851    4.3940851    18838.971   -620.88835    46211.811    10925.992    5902.6558    51780.641   -2265.0469    84.840926 
   59900    2074.2534   -114.29324    1.8768281   -112.41641    -44196.34     4.413884     4.413884     4.413884    -44196.34   -26129.463   -58511.743   -47947.813   -46924.483    8182.8521    11458.329    85.992932 
   60000    2013.8925   -114.19998    1.8222123   -112.37777   -8435.7164    4.4098245    4.4098245    4.4098245   -8435.7164   -993.34714   -32864.046    8550.2444    4556.8335    24203.477   -2820.3645     85.75588 
   60100    1672.8523   -113.89693    1.5136319   -112.38329    10160.466    4.3925245    4.3925245    4.3925245    10160.466    12264.841    2581.8281     15634.73    20903.855    50953.554   -15451.832    84.750559 
   60200    2673.4843    -114.7976    2.4190248   -112.37857    13525.751    4.4003986    4.4003986    4.4003986    13525.751   -7644.0257   -18572.264    66793.542   -15169.786   -29333.093   -9068.6584    85.207153 
   60300    1414.2901   -113.68923    1.2796794   -112.40955   -15600.662    4.4069616    4.4069616    4.4069616   -15600.662   -69541.029    29689.008   -6949.9653    4522.2247    82802.482   -5526.5284    85.588967 
   60400    2372.5549   -114.53215    2.1467376   -112.38542   -6799.4064     4.408919     4.408919     4.408919   -6799.4064   -2687.3574   -31177.599    13466.737    20837.278   -22077.479   -8812.4821    85.703066 
   60500    2474.8593   -114.62678    2.2393047   -112.38747   -27920.064    4.4025412    4.4025412    4.4025412   -27920.064   -62283.226    6237.0469   -27714.013   -5216.1329    51299.554   -26339.934    85.331676 
   60600    1526.5734    -113.7869    1.3812757   -112.40562    3685.9678    4.3809099    4.3809099    4.3809099    3685.9678    -35376.91     23304.33    23130.482    10970.332    63662.783   -7866.3379    84.080049 
   60700    2523.0053   -114.69749    2.2828682   -112.41462    24878.241    4.3865781    4.3865781    4.3865781    24878.241    25046.493   -23423.109    73011.341    30739.855   -11520.367   -7576.3927    84.406829 
   60800     1519.957   -113.80114     1.375289   -112.42585   -33487.932    4.4131984    4.4131984    4.4131984   -33487.932   -106602.86    59858.815   -53719.751   -21819.048    84205.913    11273.258    85.952864 
   60900    2164.8405   -114.32372    1.9587932   -112.36493    -3091.517    4.4088697    4.4088697    4.4088697    -3091.517   -17880.218   -45460.197    54065.864    40469.333   -8852.8582   -16380.686    85.700192 
   61000    2051.3621   -114.20996    1.8561156   -112.35384    16118.259     4.396893     4.396893     4.396893    16118.259    19319.339   -21811.981     50847.42    7209.0858     29583.33     19857.71    85.003672 
   61100    1926.6957   -114.12167    1.7433148   -112.37836   -10995.519    4.4007788    4.4007788    4.4007788   -10995.519   -59385.712     23552.95    2846.2051   -9256.9676    63137.547    9912.8468    85.229241 
   61200    2789.8276   -114.90048    2.5242947   -112.37619    10085.795    4.3887221    4.3887221    4.3887221    10085.795     33508.13   -42069.384    38818.638    36798.104   -14841.585   -646.93538    84.530659 
   61300     1379.037   -113.67975    1.2477817   -112.43196    2947.4269    4.3834419    4.3834419    4.3834419    2947.4269   -7887.9458    28144.052   -11413.825    15008.612    57807.381    21940.955    84.225918 
   61400     2106.641   -114.34075     1.906133   -112.43461   -21297.585    4.3875208    4.3875208    4.3875208   -21297.585   -30742.026   -4776.8069   -28373.923   -30833.757     40125.76   -4851.2433    84.461262 
   61500    2418.1833   -114.62111    2.1880231   -112.43309    6855.1569    4.3968805    4.3968805    4.3968805    6855.1569   -24836.924    4889.7648     40512.63   -9939.9157   -8079.5333    1432.0588    85.002947 
   61600    1582.0724   -113.86368    1.4314924   -112.43219   -53999.315     4.411003     4.411003     4.411003   -53999.315   -80287.058    -16447.99   -65262.898    14483.835    53575.503    10414.351    85.824653 
   61700    1489.5572    -113.7776    1.3477827   -112.42982   -11337.772    4.3793782    4.3793782    4.3793782   -11337.772   -6095.7044   -50932.463    23014.852   -66947.289    16136.573    23247.858    83.991892 
   61800     3108.786   -115.22174    2.8128949   -112.40885    36558.872    4.3646244    4.3646244    4.3646244    36558.872    56032.039    17178.089    36466.488    1167.9702   -17109.761   -6422.5237    83.145861 
   61900    1736.2576   -114.01883    1.5710024   -112.44783    8747.3561    4.3885331    4.3885331    4.3885331    8747.3561    54106.923   -27153.047   -711.80837   -26962.076    23944.767    4336.2931    84.519734 
   62000    1495.5162   -113.81692    1.3531745   -112.46375   -36454.871    4.4116753    4.4116753    4.4116753   -36454.871   -50637.459   -68712.311    9985.1564   -67829.812    24854.073    4737.6883    85.863903 
   62100    2883.5295   -115.00304    2.6090781   -112.39396   -4974.1172     4.415968     4.415968     4.415968   -4974.1172    18797.299   -35487.212    1767.5613    23366.855   -30619.597   -5375.1896    86.114789 
   62200    1042.6638   -113.33416   0.94342415   -112.39074    16395.508    4.3961124    4.3961124    4.3961124    16395.508   -36327.592    9190.2043     76323.91    -91981.85     14268.72    6383.2965    84.958407 
   62300    2433.1269   -114.60103    2.2015444   -112.39948   -2728.7686    4.3933339    4.3933339    4.3933339   -2728.7686   -57872.426    14642.295    35043.825    10383.183    40967.052    17893.492    84.797417 
   62400    2325.5426   -114.50702    2.1041998   -112.40282    47162.131    4.3835481    4.3835481    4.3835481    47162.131    4730.6512    48000.954    88754.787   -18122.915   -7049.2629   -10324.088    84.232043 
   62500    1926.5535    -114.1827    1.7431861   -112.43952     4360.189    4.3902879    4.3902879    4.3902879     4360.189   -11681.374    1716.5234    23045.417    -52565.13    28751.614    6704.1623    84.621167 
   62600    2411.7318   -114.60193    2.1821856   -112.41974   -37944.283    4.4212899    4.4212899    4.4212899   -37944.283   -68013.364   -8774.3148   -37045.171     21040.63    25952.815    8425.2907    86.426508 
   62700    2045.1104   -114.22478    1.8504589   -112.37432    15741.082    4.4125562    4.4125562    4.4125562    15741.082    32877.291   -33017.492    47363.448   -4341.1014   -5074.4505    6511.5968    85.915349 
   62800    1734.8862   -113.93158    1.5697615   -112.36182     12670.54    4.4038595    4.4038595    4.4038595     12670.54    7254.6765    23162.789    7594.1544   -30742.319    55684.242   -630.16019    85.408357 
   62900    2710.0333   -114.80512    2.4520951   -112.35302   -21378.255     4.405517     4.405517     4.405517   -21378.255   -9517.3732   -22527.981   -32089.411    31189.663   -14127.162   -5819.8581    85.504832 
   63000    1704.1412   -113.92486    1.5419428   -112.38292    3892.1071     4.392371     4.392371     4.392371    3892.1071   -78977.657    25500.211    65153.766    10792.917    24750.971   -5449.8637    84.741674 
   63100    2275.6546   -114.45499    2.0590601   -112.39593   -10452.452     4.396639     4.396639     4.396639   -10452.452   -27598.593    -4735.637    976.87232   -31866.316    27905.654    18441.873    84.988942 
   63200     1479.746   -113.75219    1.3389052   -112.41328   -18233.407    4.4058181    4.4058181    4.4058181   -18233.407   -50373.591      21781.9    -26108.53    41138.922   -27849.891   -5298.5786    85.522362 
   63300     2371.102   -114.54843     2.145423     -112.403    16229.829    4.4205293    4.4205293    4.4205293    16229.829   -53870.126    78445.763     24113.85    5560.7891    15293.534    3372.7626    86.381914 
   63400      1237.97   -113.51829    1.1201412   -112.39815    32714.603    4.4464771    4.4464771    4.4464771    32714.603   -39945.366    60092.007    77997.169    16140.027   -42943.427     46896.97    87.912005 
   63500    2056.1164   -114.13511    1.8604173   -112.27469    -19525.38    4.4598244    4.4598244    4.4598244    -19525.38    1811.3434   -97244.132    36856.649   -7267.9711    14943.167   -30253.719    88.706059 
   63600    2412.8697   -114.39912    2.1832153   -112.21591   -32360.343     4.443353     4.443353     4.443353   -32360.343   -25223.496    -37339.67   -34517.862    173.06292   -10367.994    5769.9456    87.726831 
   63700    2161.4155   -114.18285    1.9556941   -112.22716    16227.146    4.4118079    4.4118079    4.4118079    16227.146     45465.02   -18540.512     21756.93    21714.866   -6696.4713   -11000.456    85.871645 
   63800    1872.1932   -113.98645    1.6939997   -112.29245    48063.479    4.3869045    4.3869045    4.3869045    48063.479    44666.482    29078.493    70445.463    -8313.786   -5620.3522    2136.7351    84.425677 
   63900    1546.1046   -113.79047    1.3989479   -112.39152    31700.352    4.3918178    4.3918178    4.3918178    31700.352   -21579.615    42980.792    73699.878    22471.633   -11498.127    53583.542     84.70966 
   64000    2405.4214   -114.58514    2.1764758   -112.40866    2322.4352    4.4170562    4.4170562    4.4170562    2322.4352   -19191.064    5578.0045    20580.366    21485.469   -32073.964   -13988.055    86.178472 
   64100    2599.6532   -114.72464    2.3522208   -112.37242   -14473.319    4.4208973    4.4208973    4.4208973   -14473.319     39505.02   -62440.562   -20484.414    10375.581    2604.7137     19836.97    86.403489 
   64200    1311.0127   -113.55811    1.1862318   -112.37187    8306.7586    4.4116035    4.4116035    4.4116035    8306.7586    5486.1906   -3928.5977    23362.683    15299.557   -66768.595   -8569.5429    85.859708 
   64300    2219.1998   -114.36491    2.0079786   -112.35693   -16826.069    4.4151155    4.4151155    4.4151155   -16826.069    10086.248    -3489.904   -57074.551    7899.5656    9395.5331    2392.4032     86.06493 
   64400    2252.9337   -114.38699    2.0385018   -112.34849   -17304.017    4.4077604    4.4077604    4.4077604   -17304.017    4103.8385   -9213.4114   -46802.478   -12581.617   -15710.089    47444.303     85.63552 
   64500    1766.4786   -113.97727    1.5983469   -112.37892    -27524.94     4.392867     4.392867     4.392867    -27524.94   -40125.409    33830.286   -76279.697     9017.156   -26971.214   -33466.852    84.770388 
   64600    2171.5774   -114.37062    1.9648888   -112.40573    2768.6419     4.380685     4.380685     4.380685    2768.6419    14988.957   -11127.805    4444.7738    1834.5702     42891.41   -16747.115    84.067101 
   64700    1618.6517   -113.91158    1.4645901   -112.44699    15267.699     4.384941     4.384941     4.384941    15267.699    32748.685    -20674.56    33728.972   -29854.464   -34414.526     11116.15    84.312365 
   64800    1758.2912   -114.05378    1.5909388   -112.46284    2109.8285    4.3949761    4.3949761    4.3949761    2109.8285   -21835.982   -2807.2231    30972.691    23050.277   -50759.766      1846.42    84.892543 
   64900    2048.6669   -114.30003    1.8536769   -112.44635   -3638.9783    4.4042549    4.4042549    4.4042549   -3638.9783   -8949.0857   -47401.178    45433.329   -903.50076    7273.2108   -17856.612    85.431362 
   65000    1774.1038   -114.03551    1.6052464   -112.43026    -15331.45    4.4054196    4.4054196    4.4054196    -15331.45     19211.35   -54679.036   -10526.666   -53693.127   -11267.725   -19389.674    85.499159 
   65100    2312.2472   -114.49445    2.0921698   -112.40228    17931.554    4.4008333    4.4008333    4.4008333    17931.554   -1214.3216    45535.337    9473.6458    36365.233   -14981.181     19795.71    85.232406 
   65200    2099.7477   -114.29823    1.8998958   -112.39833    7697.1308     4.392717     4.392717     4.392717    7697.1308   -5444.0357    32200.528   -3665.0998   -20320.207    15255.136   -34124.119    84.761703 
   65300    1547.0648   -113.82552    1.3998168    -112.4257   -7106.2037    4.4003109    4.4003109    4.4003109   -7106.2037   -18691.525    29163.629   -31790.716   -24824.623   -12171.388    1524.6792    85.202058 
   65400    1836.3735   -114.09696    1.6615893   -112.43537   -30775.793    4.4033253    4.4033253    4.4033253   -30775.793   -4419.7348   -32785.708   -55121.937    5633.9881   -11904.288    85011.352    85.377279 
   65500    3239.1962   -115.34375    2.9308928   -112.41286    23564.238    4.3807853    4.3807853    4.3807853    23564.238    31219.702    43515.084   -4042.0715     8065.878    9870.3119   -9374.3445    84.072877 
   65600    1864.0963    -114.1446    1.6866735   -112.45792   -21748.197    4.3878506    4.3878506    4.3878506   -21748.197    27075.583   -22346.615   -69973.559    -15786.01    17.888625    51573.166    84.480311 
   65700     1329.211   -113.66196    1.2026981   -112.45926   -5979.9086    4.3914062    4.3914062    4.3914062   -5979.9086    71480.823   -10889.105   -78531.445    -8468.439   -27461.975    44877.286    84.685848 
   65800    2431.1154   -114.63766    2.1997243   -112.43794    33536.769    4.3977216    4.3977216    4.3977216    33536.769    30662.174     92746.53   -22798.398   -1907.7886    10984.278   -26841.644    85.051739 
   65900    1756.2364   -114.02986    1.5890796   -112.44078    2224.3361    4.4031868    4.4031868    4.4031868    2224.3361   -31338.637    69357.487   -31345.842   -13683.944    -14939.87    38746.642    85.369226 
   66000    1611.7888   -113.89821    1.4583804   -112.43983   -29518.292    4.3923951    4.3923951    4.3923951   -29518.292    -75165.62    11246.142   -24635.397   -19483.134   -73229.069    34553.185    84.743069 
   66100    2586.8108   -114.77672    2.3406008   -112.43612    29197.606    4.3636369    4.3636369    4.3636369    29197.606   -2946.6564    47517.549    43021.927    13847.506    22166.731   -10191.647    83.089438 
   66200    2147.3305   -114.41338    1.9429498   -112.47043    3304.0422    4.3689392    4.3689392    4.3689392    3304.0422   -42786.647    32447.433     20251.34   -11648.609   -20850.424   -26817.638    83.392696 
   66300    995.25387   -113.37788   0.90052661   -112.47736   -54442.264    4.4026178    4.4026178    4.4026178   -54442.264   -79461.105    4556.0497   -88421.736    -4082.335    -50555.92     66870.85    85.336134 
   66400    2657.2198    -114.8461    2.4043083   -112.44179   -6178.6879    4.3917438    4.3917438    4.3917438   -6178.6879   -31425.277   -22208.969    35098.183   -7212.6712    25494.232    14266.835    84.705377 
   66500    2303.0088   -114.52356    2.0838108   -112.43975    5892.7003    4.3877243    4.3877243    4.3877243    5892.7003    3280.8604    17729.374   -3332.1337    6991.3327   -31051.055     210.6449    84.473015 
   66600    1012.5464   -113.36404   0.91617322   -112.44787   -13461.374    4.3932917    4.3932917    4.3932917   -13461.374    64003.916    -33946.94   -70441.098   -19690.797   -39907.021    69883.886    84.794976 
   66700    2021.9901   -114.24129    1.8295392   -112.41175    56556.545    4.3934953    4.3934953    4.3934953    56556.545    23046.443    109142.87    37480.326   -5748.3719     22963.97   -14335.408    84.806765 
   66800    2057.6143   -114.26137    1.8617726    -112.3996   -33059.256    4.4160231    4.4160231    4.4160231   -33059.256   -12345.601   -33944.297   -52887.869    13337.392   -4605.9816    51408.311    86.118017 
   66900    1534.9852   -113.78013    1.3888869   -112.39124   -14089.381    4.4090938    4.4090938    4.4090938   -14089.381    8377.1637    9305.3144   -59950.621   -9759.6962   -22688.726     52933.06    85.713261 
   67000    3033.9531   -115.09937    2.7451845   -112.35418    -14166.34    4.3997827    4.3997827    4.3997827    -14166.34   -35693.876    3079.2221   -9884.3672    23760.817    5458.4578   -14082.702    85.171381 
   67100    1219.7322   -113.49964    1.1036393     -112.396   -43195.253    4.3978174    4.3978174    4.3978174   -43195.253   -5150.0431   -31519.455   -92916.261    15401.318   -17376.098    67814.412    85.057295 
   67200    2322.6708   -114.49275    2.1016013   -112.39115    19168.188    4.3772353    4.3772353    4.3772353    19168.188    36034.988    45898.494   -24428.918    3895.4414     -19174.6   -6305.7155    83.868652 
   67300    2255.0076     -114.459    2.0403782   -112.41862    2278.6966    4.3902081    4.3902081    4.3902081    2278.6966   -24954.302    51757.586   -19967.194     32768.52    15590.312    17108.542    84.616551 
   67400    1624.9486   -113.90793    1.4702876   -112.43764    -22181.82    4.4115786    4.4115786    4.4115786    -22181.82   -20984.779   -12657.874   -32902.808    16983.462   -18008.554    55975.675    85.858257 
   67500     2742.786   -114.88284    2.4817305   -112.40111   -24796.064    4.4049106    4.4049106    4.4049106   -24796.064   -35319.333   -5059.8306   -34009.029    -19391.19   -19264.975   -6518.6057    85.469527 
   67600     1787.225   -114.03049    1.6171187   -112.41337    13067.213    4.3750159    4.3750159    4.3750159    13067.213    25740.919   -35752.573    49213.293    61635.498    27041.309    13790.377     83.74115 
   67700     1947.253   -114.18608    1.7619154   -112.42417    433.77722    4.3648736    4.3648736    4.3648736    433.77722   -14733.239    2749.3139    13285.257    6699.6509   -40329.527    46666.624      83.1601 
   67800    2177.1752   -114.41614    1.9699539   -112.44618   -5359.7386    4.3840212    4.3840212    4.3840212   -5359.7386   -28932.498    32326.798   -19473.515   -12566.978   -47450.428    3692.4236    84.259318 
   67900    2657.1048   -114.83734    2.4042043   -112.43313   -24925.397    4.4113875    4.4113875    4.4113875   -24925.397   -49880.017   -55013.326    30117.153    15095.919    36416.197    16448.159    85.847098 
   68000    1468.7118   -113.73177    1.3289213   -112.40285    -63560.57    4.4272451    4.4272451    4.4272451    -63560.57   -82468.014   -12530.012   -95683.682    6692.5902   -66882.948    47764.602    86.776212 
   68100     2452.553   -114.59847    2.2191215   -112.37935   -32441.945    4.3962447    4.3962447    4.3962447   -32441.945   -57755.708   -31692.419   -7877.7068   -36025.993    -20036.21   -22940.371    84.966079 
   68200    2333.1387   -114.48518     2.111073    -112.3741    9300.2489    4.3633329    4.3633329    4.3633329    9300.2489    43518.439   -20973.827    5356.1351    4209.0643    13594.152    37888.669     83.07207 
   68300    1174.3532   -113.49193    1.0625795   -112.42935    2844.1523    4.3772541    4.3772541    4.3772541    2844.1523    4858.1156   -6231.0539    9905.3951   -1941.0378   -58947.783    43671.008    83.869738 
   68400    2488.7313   -114.67101    2.2518563   -112.41915    -18990.25    4.4074621    4.4074621    4.4074621    -18990.25   -63937.642   -35744.258    42711.152   -55192.552     5379.412   -12790.003    85.618135 
   68500    1739.2262   -113.97312    1.5736884   -112.39943   -21376.107    4.4141717    4.4141717    4.4141717   -21376.107    -6908.385   -80923.625    23703.689    22705.872   -7229.5794    68211.649    86.009745 
   68600    1301.6865   -113.57547    1.1777933   -112.39768    14561.265    4.3914488    4.3914488    4.3914488    14561.265    25012.989   -34897.486    53568.293   -15471.309   -30318.152    40339.508    84.688308 
   68700     2294.984   -114.46057    2.0765497   -112.38402    44398.415    4.3829243    4.3829243    4.3829243    44398.415    71254.153    12110.716    49830.375   -24820.623   -1241.4826    -6200.081    84.196085 
   68800    2045.4112   -114.25595     1.850731   -112.40522    -11355.83    4.3942801    4.3942801    4.3942801    -11355.83    24238.859   -26939.471   -31366.879    20198.819    3378.1242    78471.006     84.85222 
   68900    2005.2842   -114.21351    1.8144233   -112.39909   -15134.496    4.3994429    4.3994429    4.3994429   -15134.496   -20040.817    2288.5712   -27651.241   -13244.977   -55557.992   -1524.9115    85.151649 
   69000    2052.1546   -114.24544    1.8568326   -112.38861   -23983.819    4.4087186    4.4087186    4.4087186   -23983.819    21220.813   -75766.229    -17406.04   -28816.753    13155.599    19563.378    85.691379 
   69100    1882.5024   -114.08111    1.7033278   -112.37778   -45303.645    4.4069605    4.4069605    4.4069605   -45303.645   -21703.067   -36035.298    -78172.57    244.66667   -23887.319    33561.986    85.588903 
   69200    2368.7886   -114.50495    2.1433297   -112.36162    7012.2075     4.386328     4.386328     4.386328    7012.2075    13430.928   -8513.5437    16119.239    -7532.885   -44472.428    -23447.23    84.392397 
   69300    1738.5379   -113.97301    1.5730656   -112.39994    12211.694    4.3907383    4.3907383    4.3907383    12211.694    92811.005   -58790.126    2614.2026   -35361.458    32972.741    35392.378    84.647209 
   69400    2254.4423   -114.43683    2.0398667   -112.39697   -12613.171    4.3991288    4.3991288    4.3991288   -12613.171    47346.966   -32731.093   -52455.385    29775.185   -29489.051    25829.384    85.133408 
   69500    1963.8015   -114.17803    1.7768889   -112.40114   -20808.088    4.3953222    4.3953222    4.3953222   -20808.088   -13275.281   -36492.618   -12656.364   -57272.107   -16059.739   -34790.865      84.9126 
   69600    1613.9597    -113.8865    1.4603446   -112.42615    -37347.78    4.3804982    4.3804982    4.3804982    -37347.78   -32692.161   -68459.686   -10891.494   -17145.747    25302.212    37014.514    84.056346 
   69700    2402.8887    -114.5875    2.1741842   -112.41331    4864.5275     4.362771     4.362771     4.362771    4864.5275     14870.98    21845.724   -22123.122    28482.734    11215.406     34185.93    83.039982 
   69800    1395.9296   -113.72223    1.2630665   -112.45916    -11001.36    4.3828244    4.3828244    4.3828244    -11001.36    7906.6856    -63720.17    22809.405   -42520.655   -6808.9918   -59782.688    84.190332 
   69900    2065.5998   -114.30638    1.8689981   -112.43738   -28257.208    4.3953409    4.3953409    4.3953409   -28257.208     8464.074   -68719.298   -24516.399    -18876.28   -11276.535    35433.693    84.913685 
   70000    2297.7517    -114.4934     2.079054   -112.41434    13317.393    4.3835664    4.3835664    4.3835664    13317.393    44447.536   -29219.485    24724.127    9395.4531    35608.924    11432.122    84.233096 
   70100    798.25266   -113.17383   0.72227578   -112.45155   -29325.113    4.3900524    4.3900524    4.3900524   -29325.113   -26451.312   -81077.938    19553.911     -32863.9   -4778.9875   -63364.254    84.607547 
   70200    3075.2478   -115.19142    2.7825488   -112.40887   -286.66434    4.3884731    4.3884731    4.3884731   -286.66434   -673.38183   -38008.509    37821.898   -13343.666   -17672.529    29258.263    84.516273 
   70300    1828.1675   -114.07818    1.6541644   -112.42401   -13509.676    4.4014611    4.4014611    4.4014611   -13509.676    19740.157   -54108.497   -6160.6877    5308.7686    11633.853   -56338.916    85.268889 
   70400    1588.8108   -113.83108    1.4375894   -112.39349   -29594.908    4.4109365    4.4109365    4.4109365   -29594.908   -17056.217   -43489.995   -28238.512    -29764.22    8185.7857   -49878.126    85.820772 
   70500    2662.8618    -114.7746    2.4094133   -112.36519    8242.6979    4.3822823    4.3822823    4.3822823    8242.6979    3500.6927    25194.413   -3967.0121    13020.675   -7061.7133    54009.007    84.159094 
   70600    1288.5032   -113.56497    1.1658647   -112.39911    3386.4946    4.3761125    4.3761125    4.3761125    3386.4946    53353.657   -32432.117   -10762.056    1055.6304    18492.138   -60196.314    83.804135 
   70700    2662.0692   -114.81501    2.4086962   -112.40632   -6648.1347    4.3900113    4.3900113    4.3900113   -6648.1347    1498.1225    13756.054   -35198.581   -6014.9319    19743.748   -8422.8156    84.605171 
   70800     2222.096   -114.43223    2.0105992   -112.42163   -5890.1504     4.391093     4.391093     4.391093   -5890.1504   -16649.871    15315.943   -16336.523    27969.973   -12340.977    11489.703    84.667731 
   70900    1382.5436   -113.69538    1.2509545   -112.44443   -36483.553      4.38835      4.38835      4.38835   -36483.553    22030.928   -29942.527   -101539.06    3088.4142    23204.769   -62994.149    84.509157 
   71000    2497.1559   -114.68472    2.2594791   -112.42524   -3635.4586    4.3749413    4.3749413    4.3749413   -3635.4586   -2734.0422    35687.476    -43859.81    3245.3562    32766.406   -5237.1017    83.736866 
   71100    1436.7317   -113.74407     1.299985   -112.44408   -3708.9984    4.3753957    4.3753957    4.3753957   -3708.9984   -1534.5662    31344.315   -40936.744    13711.406   -19443.332   -26978.576     83.76296 
   71200    1663.7533   -113.96629     1.505399   -112.46089   -27359.474    4.3998801    4.3998801    4.3998801   -27359.474     55936.87    -63025.44   -74989.852    20324.939   -2492.2442   -33171.352    85.177037 
   71300    2764.3667   -114.89851    2.5012571   -112.39725    23319.359    4.4015584    4.4015584    4.4015584    23319.359    19573.429    40917.507    9467.1394   -15162.609    12713.119    6085.6685    85.274546 
   71400    1252.4616   -113.52379    1.1332536   -112.39054     9430.609     4.401711     4.401711     4.401711     9430.609    16429.468   -3478.9091    15341.268    4986.8509   -21846.503   -77444.312    85.283412 
   71500    3056.6879   -115.11595    2.7657555    -112.3502   -16122.005    4.4047102    4.4047102    4.4047102   -16122.005   -37096.101   -21117.452    9847.5371    15801.445     10274.49    26057.371    85.457861 
   71600    1758.8805   -113.95806    1.5914721   -112.36658   -8238.9873    4.3869742    4.3869742    4.3869742   -8238.9873     28559.87   -14305.958   -38970.874   -8801.7394    23250.952   -42477.698    84.429696 
   71700    1960.6125   -114.15963    1.7740034   -112.38562    23994.538    4.3727234    4.3727234    4.3727234    23994.538    9709.0632    37686.569    24587.981   -12481.311    -30876.65   -39372.006    83.609576 
   71800    2430.4728   -114.60449    2.1991429   -112.40535    34658.884    4.3797491    4.3797491    4.3797491    34658.884    14157.738    74782.848    15036.065    13437.493    2121.6498    35000.505    84.013231 
   71900    1053.5312   -113.39916   0.95325719    -112.4459   -11675.668    4.4008802    4.4008802    4.4008802   -11675.668     72637.43    4378.3707    -112042.8    1378.8989    24327.111   -40697.993    85.235131 
   72000    2610.4555   -114.73835     2.361995   -112.37635   -5199.7938    4.4182893    4.4182893    4.4182893   -5199.7938   -20376.196    4484.6656    292.14931   -4722.4034   -23299.018    12616.597    86.250666 
   72100    1427.4106    -113.6575    1.2915511   -112.36595   -23808.513    4.4112653    4.4112653    4.4112653   -23808.513   -43403.659    11694.197   -39716.077      13612.6    4916.3781   -24976.406    85.839965 
   72200    2279.7133   -114.42379    2.0627325   -112.36106   -2229.9174    4.3871369    4.3871369    4.3871369   -2229.9174     15376.25    9676.0253   -31742.028    19211.824    16655.483   -35921.276    84.439092 
   72300    2606.8213   -114.73175    2.3587067   -112.37305    6622.7608    4.3788962    4.3788962    4.3788962    6622.7608   -13259.386    76936.609    -43808.94    8034.4962   -51101.989    19672.941    83.964161 
   72400    1430.5347   -113.70764    1.2943779   -112.41326    -3256.548    4.3868586    4.3868586    4.3868586    -3256.548   -13369.895    69260.194   -65659.942   -2152.2002    7480.6217   -36369.668    84.423025 
   72500     2267.071   -114.46249    2.0512934    -112.4112    9631.0532    4.3981649    4.3981649    4.3981649    9631.0532   -20118.096    61467.853   -12456.597    24601.344   -371.78772   -2822.6735    85.077463 
   72600     2172.757   -114.35125    1.9659562   -112.38529   -37497.171    4.4285831    4.4285831    4.4285831   -37497.171   -46265.552    14247.617   -80473.576   -19955.892   -29634.498   -11579.493    86.854914 
   72700    1342.9308   -113.54167     1.215112   -112.32656    -1922.292    4.4379027    4.4379027    4.4379027    -1922.292   -52524.057     44224.26    2532.9202    -2697.848    35270.721   -5107.6284    87.404405 
   72800     2210.079   -114.28492     1.999726   -112.28519    6134.8032    4.4209143    4.4209143    4.4209143    6134.8032    -4983.607    6480.3755    16907.641   -8539.9693    9290.3206    22220.424    86.404484 
   72900    1460.2471   -113.64749    1.3212623   -112.32623    3714.0789    4.3865406    4.3865406    4.3865406    3714.0789    79094.804    17865.748   -85818.316    -9351.888   -5417.0231   -72010.542    84.404664 
   73000    2861.6811   -114.92885    2.5893092   -112.33954    57828.925    4.3602116    4.3602116    4.3602116    57828.925    102341.98    74285.253   -3140.4542   -17223.192    5690.3639    24591.737    82.893921 
   73100    1467.8368   -113.76909    1.3281296   -112.44096    29013.993    4.3743561    4.3743561    4.3743561    29013.993    119883.35    31590.815   -64432.185   -6699.5508    8887.8319   -59212.078    83.703266 
   73200    1465.1962   -113.77243    1.3257403   -112.44669   -17477.297    4.4142753    4.4142753    4.4142753   -17477.297    70250.596   -43909.935   -78772.552   -2232.7779    226.74476    4951.0357    86.015804 
   73300    2059.4608   -114.25057    1.8634434   -112.38713    9074.4359    4.4107768    4.4107768    4.4107768    9074.4359    3039.2079    36903.242   -12719.143    22524.875    3346.8627   -25102.378    85.811452 
   73400    2329.4185    -114.4661    2.1077068   -112.35839    6439.2539    4.3909924    4.3909924    4.3909924    6439.2539        51021    23465.882   -55169.119   -10040.847    8799.4753   -27428.184     84.66191 
   73500    2177.0826   -114.34069    1.9698701   -112.37082   -8895.5538    4.3769237    4.3769237    4.3769237   -8895.5538    26830.332    -35703.08   -17813.913    2065.8475    2195.2136    65766.561    83.850746 
   73600    1906.4103   -114.11976    1.7249601    -112.3948    46069.402    4.3681538    4.3681538    4.3681538    46069.402    48825.533    55667.602    33715.072    29776.551    -8876.735   -51548.829    83.347728 
   73700    2058.7596   -114.29265    1.8628089   -112.42984   -14998.219     4.394543     4.394543     4.394543   -14998.219    24585.816    6581.0611   -76161.534   -16497.623   -198.65505    32260.003     84.86745 
   73800    2503.5629   -114.67775    2.2652764   -112.41247    9080.4865    4.3955386    4.3955386    4.3955386    9080.4865   -8135.3811    1334.7411      34042.1    -3867.417    -3073.775     26183.41    84.925147 
   73900    1528.5604   -113.80512    1.3830735   -112.42205    12425.195    4.3820143    4.3820143    4.3820143    12425.195    16776.586    46727.719   -26228.721    6595.2933   -17902.811    -37504.72    84.143657 
   74000    2076.4098   -114.29329    1.8787792   -112.41451   -11049.816    4.3903677    4.3903677    4.3903677   -11049.816    26065.091   -15208.102   -44006.437   -1167.5513    2032.9863   -26440.057    84.625781 
   74100    2175.5953   -114.37263    1.9685243   -112.40411    33468.027    4.3803246    4.3803246    4.3803246    33468.027    12953.391    1888.6814    85562.007   -40601.921   -22069.102    19608.121    84.046353 
   74200     1466.484   -113.74358    1.3269055   -112.41667    32274.601    4.3938802    4.3938802    4.3938802    32274.601    62832.324    63208.216   -29216.736    9949.2337   -19124.651   -38752.204    84.829054 
   74300    2427.1352   -114.56269     2.196123   -112.36656   -24804.668     4.416504     4.416504     4.416504   -24804.668   -36244.424   -49188.412    11018.831   -40298.978    10531.259    9199.4518    86.146149 
   74400     1488.681   -113.71583    1.3469899   -112.36884    968.38939    4.3998822    4.3998822    4.3998822    968.38939   -56584.045    47363.489    12125.724   -39709.435   -43859.508   -5219.3104    85.177157 
   74500    2541.9552   -114.65273    2.3000144   -112.35271     5674.851    4.3820694    4.3820694    4.3820694     5674.851    15187.397    23754.436   -21917.279    9324.9402   -630.95307   -4540.2715    84.146828 
   74600     1853.656   -114.06744    1.6772269   -112.39022    5832.7642    4.3686044    4.3686044    4.3686044    5832.7642   -9211.2617   -36553.503    63263.057   -86042.553    8756.7893   -4703.9589    83.373526 
   74700    1737.2359   -114.00476    1.5718876   -112.43287    37091.555    4.3755839    4.3755839    4.3755839    37091.555   -19964.064    89065.546    42173.183    11885.751   -40819.288    21412.837    83.773767 
   74800    2608.0479   -114.77742    2.3598166    -112.4176   -10391.447    4.4002218    4.4002218    4.4002218   -10391.447   -32572.278   -12371.952    13769.888   -23895.641    2846.4531   -10336.168    85.196882 
   74900    1445.2312   -113.71285    1.3076755   -112.40517    45445.737    4.3946676    4.3946676    4.3946676    45445.737    18318.858   -33790.981    151809.34    -32840.43    4390.0105   -4275.9676    84.874669 
   75000    2056.2952   -114.24604    1.8605791   -112.38546    7104.9133    4.4003923    4.4003923    4.4003923    7104.9133    28857.014    -7150.568    -391.7057    14303.189   -43732.474    14955.376    85.206786 
   75100    1963.0684   -114.17197    1.7762256   -112.39574   -39531.277    4.3905098    4.3905098    4.3905098   -39531.277   -66344.775   -98179.484    45930.429   -94793.379    10994.307    4691.0611    84.633995 
   75200    2027.1164   -114.21874    1.8341775   -112.38457     42750.44    4.3482338    4.3482338    4.3482338     42750.44    5162.0954    12520.414    110568.81   -10891.007   -6315.5309    4414.6566    82.212653 
   75300    2043.1583   -114.26948    1.8486925   -112.42079    20077.879    4.3668527    4.3668527    4.3668527    20077.879   -16197.138    17249.728    59181.047   -8986.7637   -26573.744    14762.927    83.273273 
   75400    1693.0729   -113.93853     1.531928    -112.4066   -49639.532    4.4042729    4.4042729    4.4042729   -49639.532   -98533.512   -76626.711    26241.626   -112775.71    13633.628   -6713.7486    85.432413 
   75500     2777.042    -114.8747     2.512726   -112.36197    2172.2554    4.3954736    4.3954736    4.3954736    2172.2554   -30466.123    57223.234   -20240.344    48118.328   -28034.774   -1988.5248    84.921374 
   75600    1004.4883   -113.29331   0.90888212   -112.38443   -9047.8455    4.3977729    4.3977729    4.3977729   -9047.8455   -67437.001   -42246.647    82540.112   -92722.073   -22309.267   -8318.2341    85.054713 
   75700    2524.2021   -114.62451    2.2839511   -112.34056   -13507.317    4.4021991    4.4021991    4.4021991   -13507.317   -50609.127    12521.637   -2434.4603   -8931.6551    16422.142   -1908.1894    85.311785 
   75800    1598.8747   -113.78969    1.4466954   -112.34299   -12357.406    4.3941666    4.3941666    4.3941666   -12357.406   -40749.863    159.12764    3518.5185   -54234.251   -51178.435   -7680.8989    84.845643 
   75900    2150.1595   -114.30695    1.9455095   -112.36144   -26610.919    4.3985738    4.3985738    4.3985738   -26610.919   -49420.445   -39127.123    8714.8096   -55423.212    1662.2807    2522.2431    85.101193 
   76000    2665.2767    -114.7689    2.4115984    -112.3573   -25376.397     4.398387     4.398387     4.398387   -25376.397     9166.284   -25843.521   -59451.954    8366.7252    8856.1119   -15358.543     85.09035 
   76100    789.22159   -113.11743   0.71410428   -112.40333   -6915.1098    4.3805606    4.3805606    4.3805606   -6915.1098   -9212.6172   -15673.992    4141.2795   -95323.362   -40818.795   -17334.075     84.05994 
   76200    2681.6986   -114.82314    2.4264572   -112.39669    29476.107     4.382738     4.382738     4.382738    29476.107    45440.706     30418.92    12568.694    33562.837   -1402.9069    23177.241    84.185351 
   76300    2308.6807   -114.49735    2.0889428   -112.40841   -31244.863    4.3921309    4.3921309    4.3921309   -31244.863   -33607.244   -71101.188    10973.844   -55224.539    11672.628   -10566.747    84.727781 
   76400    1448.3713   -113.73637    1.3105168   -112.42586    6376.8527    4.3828267    4.3828267    4.3828267    6376.8527    5481.4823    29978.364   -16329.289   -54717.977   -35336.382   -8066.7485    84.190462 
   76500    2336.9252    -114.5331     2.114499   -112.41861   -11318.587    4.3889434    4.3889434    4.3889434   -11318.587   -32219.617    14401.863   -16138.008    24505.783   -33214.956    -1379.617    84.543444 
   76600     1962.892   -114.18989    1.7760659   -112.41383    4104.6379    4.3841558    4.3841558    4.3841558    4104.6379   -28921.428    14349.902    26885.439   -64018.286    28455.493    4455.9854    84.267078 
   76700    1903.1389   -114.13135    1.7220001   -112.40935    1370.0919    4.3850161    4.3850161    4.3850161    1370.0919   -60571.636    80024.927   -15343.015       536.54   -82281.434   -7903.1913    84.316697 
   76800    2460.9198    -114.6156    2.2266919   -112.38891   -13586.306    4.3985478    4.3985478    4.3985478   -13586.306   -45478.664   -17410.965    22130.712    -12297.85   -9882.0926      14859.8    85.099684 
   76900    1773.7599   -114.00158    1.6049352   -112.39665   -16057.953    4.3899974    4.3899974    4.3899974   -16057.953   -49846.055   -40254.933     41927.13   -58149.122   -24246.902    12542.332     84.60437 
   77000     1607.755   -113.86154    1.4547305   -112.40681    13245.223    4.3827911    4.3827911    4.3827911    13245.223   -11211.775    89297.444   -38350.001      13805.4   -64218.399    3303.2169    84.188408 
   77100    2697.7268   -114.83157    2.4409599   -112.39061      5082.97    4.3932668    4.3932668    4.3932668      5082.97    26704.321    7851.9547   -19307.365    15703.598    39133.497    25244.729    84.793535 
   77200    1266.1408    -113.5631    1.1456308   -112.41747    27873.167    4.3937998    4.3937998    4.3937998    27873.167    25951.669    64121.998   -6454.1663   -14566.383   -51346.115   -6539.3847    84.824397 
   77300    2213.2515   -114.39819    2.0025965   -112.39559    15486.109    4.4004969    4.4004969    4.4004969    15486.109   -4547.9177    44682.458    6323.7858    1535.0182   -1324.1063   -17856.566    85.212861 
   77400    2155.2041   -114.33228     1.950074   -112.38221    11119.885    4.4038326    4.4038326    4.4038326    11119.885    59183.044    -15380.74    -10442.65    13370.772    13194.934    2370.6105    85.406789 
   77500    1039.5472   -113.34618   0.94060414   -112.40558   -14682.107    4.3995667    4.3995667    4.3995667   -14682.107   -42976.659    10158.547   -11228.208   -24389.996   -63279.794    11978.033    85.158836 
   77600    2545.4444   -114.71353    2.3031716   -112.41036    1438.2323    4.3768683    4.3768683    4.3768683    1438.2323   -223.10534   -21609.204    26147.006   -29545.256   -345.85317     -15093.2    83.847559 
   77700    2747.7488   -114.91237    2.4862208   -112.42615    21274.859    4.3651462    4.3651462    4.3651462    21274.859    6910.2093    56949.265   -34.898334    21909.861   -21699.974      1758.21    83.175683 
   77800    957.61712   -113.32754    0.8664721   -112.46107   -38951.338    4.3959801    4.3959801    4.3959801   -38951.338   -75504.473    132.79016    -41482.33   -64570.719   -56273.566    -416.4113     84.95074 
   77900    2376.5348   -114.56045    2.1503386   -112.41012   -34088.979    4.4112502    4.4112502    4.4112502   -34088.979   -18158.589   -38411.403   -45696.944     2497.355     38438.95    14954.911    85.839082 
   78000    2170.7331   -114.34082     1.964125    -112.3767   -53812.631     4.411629     4.411629     4.411629   -53812.631   -91111.232   -1516.3636   -68810.298   -1488.2337   -59323.108   -14700.926      85.8612 
   78100    1215.7124    -113.4898    1.1000021   -112.38979   -28967.534    4.3825182    4.3825182    4.3825182   -28967.534   -83417.845   -8395.9089    4911.1515   -67090.295   -45139.738    13424.545    84.172686 
   78200    2953.1232    -115.0372     2.672048   -112.36515    34731.075    4.3551468    4.3551468    4.3551468    34731.075    41613.646    66674.526   -4094.9469    35142.211    13662.587   -6106.5979    82.605392 
   78300    1979.0016   -114.22096    1.7906423   -112.43032   -29026.877    4.3779969    4.3779969    4.3779969   -29026.877   -70495.593    15292.346   -31877.385   -39629.823   -28562.157   -5715.7126    83.912441 
   78400    2359.5802   -114.55666    2.1349977   -112.42166   -16848.676    4.3941125    4.3941125    4.3941125   -16848.676    -36040.69    20479.067   -34984.404    -14777.82   -27861.445   -1862.5343    84.842513 
   78500    915.98558   -113.26358     0.828803   -112.43477   -34184.053    4.3941992    4.3941992    4.3941992   -34184.053    23165.679   -75152.326   -50565.513    24036.318    10350.528   -13495.291    84.847532 
   78600    2742.4725   -114.90493    2.4814467   -112.42349   -6686.8336    4.3818596    4.3818596    4.3818596   -6686.8336    -14435.85    10530.084   -16154.735    13192.648    13857.872   -5558.7518    84.134743 
   78700    2782.8756   -114.94084    2.5180044   -112.42283    30510.509    4.3748084    4.3748084    4.3748084    30510.509    35205.856    34081.009    22244.663   -12183.319   -14316.957   -2400.9827    83.729232 
   78800    1473.5589   -113.78909    1.3333071   -112.45578    5969.3664    4.3941409    4.3941409    4.3941409    5969.3664    75729.919    1527.0756   -59348.896    17268.405    8854.2962   -9849.1011    84.844157 
   78900    1991.2597    -114.2052    1.8017336   -112.40346   -28134.885    4.4108258    4.4108258    4.4108258   -28134.885   -75374.351   -7366.7814   -1663.5213    -55300.66    5332.6084    11102.955    85.814309 
   79000    1963.4471   -114.14408    1.7765682   -112.36752    23731.247    4.3912027    4.3912027    4.3912027    23731.247   -18184.162    63660.767    25717.136   -34878.862    -11957.74   -16964.781    84.674075 
   79100    2522.4573   -114.62955    2.2823724   -112.34717    6360.3082    4.3855487    4.3855487    4.3855487    6360.3082   -41076.545    44831.083    15326.386   -12424.143    3687.4731   -11721.829     84.34742 
   79200    950.17729   -113.26885   0.85974038   -112.40911   -43670.473    4.3853685    4.3853685    4.3853685   -43670.473   -111658.36   -60802.288    41449.226      -100981   -25081.192     10528.23    84.337023 
   79300    3008.0215   -115.10737     2.721721   -112.38565    8614.0948    4.3677662    4.3677662    4.3677662    8614.0948     -15299.9    39179.766    1962.4185    39278.528   -20120.543     2069.707    83.325543 
   79400    1748.8025    -114.0024    1.5823533   -112.42005   -24675.364    4.3938666    4.3938666    4.3938666   -24675.364   -84748.035   -55443.542    66165.484    -78292.44    31140.071   -6954.5465     84.82827 
   79500    1695.3162   -113.91853    1.5339577   -112.38457   -56943.006    4.4142001    4.4142001    4.4142001   -56943.006   -80645.376    -27370.94   -62812.702   -6714.0248   -56649.905     2049.004    86.011409 
   79600    2097.3695   -114.27795     1.897744    -112.3802    3288.8207    4.3817987    4.3817987    4.3817987    3288.8207   -19531.026    72887.881   -43490.392    11462.972   -34722.875     13883.58    84.131234 
   79700    2364.8965   -114.52902     2.139808   -112.38922    21604.226    4.3536379    4.3536379    4.3536379    21604.226     6756.654   -9641.6898    67697.715   -82683.956    22109.838    941.95068    82.519561 
   79800    2240.4233   -114.45462     2.027182   -112.42744    35906.013    4.3512116    4.3512116    4.3512116    35906.013    45956.288    77260.619   -15498.868    8479.9075   -36968.722   -9391.2597    82.381674 
   79900    1349.5262   -113.70786    1.2210797   -112.48678    2510.0399    4.3794784    4.3794784    4.3794784    2510.0399   -4300.5804    43366.857   -31536.157    11061.524   -30222.635    11467.895    83.997656 
   80000    2549.4963   -114.74509    2.3068379   -112.43825   -43567.958    4.4036885    4.4036885    4.4036885   -43567.958    -65410.79   -28909.171   -36383.912   -32897.046     40811.87   -7032.0723    85.398408 
   80100    1684.6866   -113.94847    1.5243398   -112.42413    8912.7846    4.3832714    4.3832714    4.3832714    8912.7846   -33891.272    90097.588   -29467.962    6270.7838    46163.025    3804.3951    84.216091 
   80200    2425.0386   -114.58308    2.1942259   -112.38885    9992.8339     4.365383     4.365383     4.365383    9992.8339    3509.6827    29723.564   -3254.7447     27355.24   -30284.183   -4785.8315    83.189223 
   80300    947.96841   -113.28984   0.85774174   -112.43209   -6459.1049    4.3699104    4.3699104    4.3699104   -6459.1049   -54522.702    69890.216   -34744.828   -7687.3698    121165.56   -71.071805    83.448318 
   80400    3130.2955    -115.2436    2.8323571   -112.41124    21630.706    4.3816092    4.3816092    4.3816092    21630.706    61323.199    7988.6619   -4419.7443    -4064.795   -28364.343   -10091.751    84.120319 
   80500    1615.5888    -113.8937    1.4618187   -112.43188    25094.287    4.3867559    4.3867559    4.3867559    25094.287    7609.8151      86325.4   -18652.354    6136.8664    78485.347    -1808.296    84.417095 
   80600    2324.1306     -114.499    2.1029223   -112.39608    6694.1129    4.3982207    4.3982207    4.3982207    6694.1129    568.40345    6011.9074    13502.028     9840.328    23161.327    7304.1273    85.080698 
   80700    2019.1466    -114.1942    1.8269663   -112.36724    6677.1544    4.3982376    4.3982376    4.3982376    6677.1544   -36056.172    40022.048    16065.587   -15603.754   -13605.182    12461.883    85.081682 
   80800    1598.0223   -113.80119    1.4459241   -112.35527    19078.886    4.3889492    4.3889492    4.3889492    19078.886   -35951.885    82497.023    10691.521    10704.941    46550.638    9682.6777    84.543783 
   80900    2569.8464    -114.6673     2.325251   -112.34205    2939.3033    4.3923517    4.3923517    4.3923517    2939.3033    -7925.419    -19075.05    35818.379    65149.839   -13384.075    11536.849    84.740561 
   81000    1696.9689   -113.91683    1.5354531   -112.38137     8254.193    4.3841788    4.3841788    4.3841788     8254.193   -42189.761    83524.895   -16572.555    9686.1728    63719.058    -3493.586    84.268406 
   81100     2512.799   -114.64913    2.2736334    -112.3755    11686.195    4.3875319    4.3875319    4.3875319    11686.195   -49343.149    64235.397    20166.338    32658.597   -27246.721    5485.6741    84.461901 
   81200    1260.7218   -113.53823    1.1407276    -112.3975   -24290.988    4.3982669    4.3982669    4.3982669   -24290.988   -92035.751    37822.139   -18659.352    74969.638    55684.884   -13317.114    85.083382 
   81300    2597.0459   -114.71702    2.3498617   -112.36716    -1503.481    4.3904812    4.3904812    4.3904812    -1503.481    16525.027    28739.991   -49775.461   -31168.669     32762.44    10560.434    84.632341 
   81400    1715.0803   -113.92158    1.5518407   -112.36974    -8537.126    4.3876617    4.3876617    4.3876617    -8537.126   -15611.434   -40695.471    30695.527    58092.142   -12790.596   -13182.757      84.4694 
   81500    1855.9001   -114.05039    1.6792574   -112.37114    2740.4317    4.3972726    4.3972726    4.3972726    2740.4317   -6770.1693    15149.285   -157.82082    14377.471    63399.058    9541.5966    85.025692 
   81600    2244.5201   -114.38511    2.0308889   -112.35422   -21141.838    4.4022348    4.4022348    4.4022348   -21141.838    27389.202   -46389.712   -44425.002     -2318.28   -1886.6128   -10484.771    85.313866 
   81700    1594.8117   -113.82118    1.4430192   -112.37816    -22029.28    4.3853733    4.3853733    4.3853733    -22029.28   -43815.449   -45533.191    23260.801     59236.77   -4515.1187   -26693.693    84.337302 
   81800    2091.7864   -114.27608    1.8926923   -112.38339   -10502.964    4.3749623    4.3749623    4.3749623   -10502.964    1019.0219    29880.756   -62408.668   -25456.501    3168.1501    28555.137    83.738069 
   81900    1977.1857   -114.19023    1.7889992   -112.40123   -9440.1115    4.3687991    4.3687991    4.3687991   -9440.1115    3964.3533   -31408.373   -876.31472    9516.2016    19986.835    10379.058    83.384672 
   82000    2496.8852   -114.67298    2.2592342   -112.41374    -2901.128    4.3780323    4.3780323    4.3780323    -2901.128   -40212.935    23103.862    8405.6893    31334.929   -35897.767    -5845.077    83.914475 
   82100    1420.4474    -113.7009    1.2852507   -112.41565   -31709.064    4.3981527    4.3981527    4.3981527   -31709.064   -31646.702    39098.032   -102578.52   -23494.863   -20878.877    20954.241    85.076753 
   82200    2273.0802   -114.43824    2.0567307   -112.38151    4022.2025     4.385011     4.385011     4.385011    4022.2025   -11952.974   -6352.5413    30372.123    5443.2584    16725.428    6111.7707    84.316402 
   82300    2011.0938   -114.21228    1.8196799    -112.3926   -3749.3258    4.3650046    4.3650046    4.3650046   -3749.3258   -5154.8238    31286.396    -37379.55    24521.732   -51068.041   -19829.684     83.16759 
   82400    1636.8682   -113.90144    1.4810727   -112.42037     7518.418    4.3629722    4.3629722    4.3629722     7518.418    24769.167    44338.991   -46552.904   -18610.977       -29106   -3250.2327    83.051475 
   82500    2618.7491   -114.78964    2.3694993   -112.42014    27462.681    4.3719226    4.3719226    4.3719226    27462.681     46671.79   -15531.773    51248.026   -32897.244    11768.634    13219.663    83.563648 
   82600    1348.0081   -113.65803    1.2197061   -112.43832   -20781.592     4.397826     4.397826     4.397826   -20781.592    22279.097   -23634.143   -60989.728    5005.7098   -63381.389    -46983.61    85.057794 
   82700    2430.4614   -114.59673    2.1991326    -112.3976    1747.6126    4.3935036    4.3935036    4.3935036    1747.6126     17101.78   -8263.8494   -3595.0931    -5439.829    5398.8889    2410.6425    84.807248 
   82800    2113.5496   -114.29274    1.9123841   -112.38036    41551.986    4.3649045    4.3649045    4.3649045    41551.986    56813.094    49347.723    18495.142   -3743.6605    -21692.18   -19519.025    83.161868 
   82900    1102.3018   -113.40865    0.9973858   -112.41127   -17473.068    4.3733031    4.3733031    4.3733031   -17473.068    22332.473    8770.9836   -83522.662    11479.393   -59463.819   -48077.443    83.642831 
   83000    3061.9558   -115.14904     2.770522   -112.37852    24252.573    4.3866463    4.3866463    4.3866463    24252.573    28830.037    34016.758    9910.9233    3947.4661    31728.666    23004.451    84.410768 
   83100    1079.1853   -113.38523   0.97646954   -112.40876   -25935.876    4.4036642    4.4036642    4.4036642   -25935.876   -26745.109    994.86037   -52057.378   -16059.591    -61308.31    -47341.08    85.396996 
   83200    2330.2885   -114.49177     2.108494   -112.38327   -24589.542    4.3927579    4.3927579    4.3927579   -24589.542    -10118.29   -28505.734   -35144.602    38343.816    1454.8667   -14023.788    84.764069 
   83300    2063.0739   -114.23469    1.8667126   -112.36798    52930.792     4.362837     4.362837     4.362837    52930.792     7634.383    108809.01    42348.988    14605.168   -4311.7002   -3469.4814    83.043754 
   83400    1254.1187   -113.54889     1.134753   -112.41413    17068.155    4.3701639    4.3701639    4.3701639    17068.155    45027.672    32679.207   -26502.414   -19660.915   -52272.179   -61022.922    83.462842 
   83500     2466.231   -114.64246    2.2314976   -112.41096    19270.991     4.389996     4.389996     4.389996    19270.991    31025.952    30834.841   -4047.8207    35700.156    14067.887    12618.649    84.604289 
   83600    1338.5644   -113.62282    1.2111612   -112.41166    31860.444    4.4037634    4.4037634    4.4037634    31860.444    32343.084    62046.226     1192.021    7614.0503   -17618.588   -15776.601    85.402765 
   83700    1823.5417   -114.01747    1.6499788   -112.36749    3227.0386    4.4177876    4.4177876    4.4177876    3227.0386    57843.037    9595.6314   -57757.553   -6549.8506    -32457.32    -12357.67    86.221283 
   83800     2331.406   -114.44672    2.1095052   -112.33721    -2896.626    4.4058323    4.4058323    4.4058323    -2896.626    29335.233   -13134.657   -24890.455    26478.347    34758.563    21436.085    85.523192 
   83900    1220.4891   -113.45233    1.1043242     -112.348    35210.444    4.3726108    4.3726108    4.3726108    35210.444    34008.602    105851.79   -34229.064    3390.3853   -60522.836   -56227.896    83.603115 
   84000    1937.3869    -114.1248    1.7529884   -112.37181    21153.891    4.3664232    4.3664232    4.3664232    21153.891    100345.43     12642.15   -49525.909    13195.114    12706.211    59729.513    83.248703 
   84100    2467.5478   -114.62685    2.2326891   -112.39416      24081.5    4.3820535    4.3820535    4.3820535      24081.5    89110.224    2739.3022   -19605.026    -1613.099    -1916.516   -3690.5979    84.145914 
   84200    1493.3313   -113.76406    1.3511975   -112.41286    7311.0806    4.4035449    4.4035449    4.4035449    7311.0806    45036.829    56288.613     -79392.2    60.069807   -54642.267   -7743.0166    85.390053 
   84300     2333.336   -114.48285    2.1112515    -112.3716   -7049.5484    4.4137828    4.4137828    4.4137828   -7049.5484    36514.005   -38071.114   -19591.537   -17576.417    11136.049     46790.39    85.987013 
   84400    1990.9901   -114.15338    1.8014897   -112.35189    -34079.01    4.4048481    4.4048481    4.4048481    -34079.01    -33550.58    1591.9113    -70278.36    1281.1067   -36914.535   -38108.017    85.465889 
   84500    1618.1902   -113.82731    1.4641725   -112.36314   -25328.772    4.3765818    4.3765818    4.3765818   -25328.772    10601.217   -10087.244    -76500.29   -7634.4795   -45292.497    62155.247      83.8311 
   84600     2850.145   -114.93405    2.5788711   -112.35518    24594.047    4.3674486    4.3674486    4.3674486    24594.047   -16110.602    9616.0793    80276.662   -1775.0924    20022.476   -3294.0891    83.307367 
   84700    894.22585   -113.22485   0.80911434   -112.41573   -39887.994     4.391927     4.391927     4.391927   -39887.994   -86879.959    16902.133   -49686.155    2401.6487   -48764.034   -14799.661    84.715978 
   84800       2832.2   -114.94362     2.562634   -112.38098    2876.4998    4.4025249    4.4025249    4.4025249    2876.4998   -38682.542    33421.256    13890.785   -153.05598    4006.3161    17473.707     85.33073 
   84900    1571.6277   -113.81619    1.4220417   -112.39415   -2303.2799    4.3955748    4.3955748    4.3955748   -2303.2799   -39590.991    55642.681    -22961.53   -4558.0394   -29146.229   -32842.116    84.927245 
   85000    1578.9558   -113.81386    1.4286724   -112.38519    2463.6743    4.3781829    4.3781829    4.3781829    2463.6743   -11778.973    35200.514   -16030.518   -13614.709   -20710.555   -14984.097    83.923137 
   85100    3216.3517    -115.2771    2.9102226   -112.36688    38920.288    4.3650013    4.3650013    4.3650013    38920.288    9695.5755     94183.41    12881.877    14328.504     19542.17    21598.529    83.167402 
   85200    690.52846   -113.07049   0.62480466   -112.44569   -41566.726    4.3744307    4.3744307    4.3744307   -41566.726   -23219.318    -5165.949   -96314.911   -6242.8227   -75365.993   -15895.444    83.707549 
   85300     1996.388   -114.25482    1.8063739   -112.44845   -21728.847    4.3790072    4.3790072    4.3790072   -21728.847    -24552.33   -27992.521   -12641.689    10029.996   -1000.4317   -13751.053    83.970548 
   85400    2170.6314   -114.40091    1.9640329   -112.43687    4964.8682    4.3785337    4.3785337    4.3785337    4964.8682   -27379.745    21441.679     20832.67   -8259.9988    -2713.102    4931.0961    83.943309 
   85500    1361.6615   -113.67376      1.23206    -112.4417   -38835.081    4.3902023    4.3902023    4.3902023   -38835.081   -58501.829    26509.378   -84512.791   -2091.2655   -74885.964   -11906.537    84.616214 
   85600    3218.5714     -115.315     2.912231   -112.40277    2763.1411    4.3871573    4.3871573    4.3871573    2763.1411    11781.493   -6172.0087    2679.9391    358.22045    8032.1835    -13284.46    84.440274 
   85700    1318.6449    -113.6291    1.1931376   -112.43596     35623.05    4.3771475    4.3771475    4.3771475     35623.05    8451.5931    81853.731    16563.827    -7912.223   -11532.139    8470.1049     83.86361 
   85800    1228.2591   -113.55514    1.1113546   -112.44379   -3984.8319    4.3887949    4.3887949    4.3887949   -3984.8319    4456.2045   -18192.324    1781.6243    1891.9619   -43811.925   -15970.436    84.534865 
   85900    2445.7457   -114.62576    2.2129621   -112.41279    8671.2314    4.3915143    4.3915143    4.3915143    8671.2314    11276.418   -4147.4835     18884.76    10528.055    16866.999    8985.8655    84.692102 
   86000    1339.0967   -113.63647    1.2116428   -112.42483    13041.474    4.3817466    4.3817466    4.3817466    13041.474    11781.063    89782.965   -62439.606   -6978.2642   -33158.408    -5981.562    84.128235 
   86100    2829.4624   -114.95566     2.560157    -112.3955   -5520.2659    4.3883261    4.3883261    4.3883261   -5520.2659   -20339.181   -3944.3441    7722.7271   -8737.7173    10371.844   -27885.551    84.507778 
   86200    1609.8295   -113.85108    1.4566076   -112.39448    25395.657    4.3941814    4.3941814    4.3941814    25395.657    2764.5469    80428.811   -7006.3857     9226.487   -1343.4947     77264.83    84.846505 
   86300    1838.5978   -114.04643    1.6636019   -112.38283   -9818.9823    4.4020368    4.4020368    4.4020368   -9818.9823   -28563.564    6423.8599   -7317.2429   -11225.811   -21682.858   -35980.808    85.302355 
   86400    2402.7184   -114.54028    2.1740301   -112.36625   -25082.545    4.3955241    4.3955241    4.3955241   -25082.545   -13501.355   -52727.071   -9019.2081   -8625.3494    2680.9229    29574.817    84.924304 
   86500    1898.3969   -114.10233    1.7177094   -112.38462   -9911.3921    4.3688312    4.3688312    4.3688312   -9911.3921    42465.227   -35119.913    -37079.49    16363.183   -13216.656    82920.412     83.38651 
   86600    1876.1522   -114.09886     1.697582   -112.40128    -1607.047    4.3574303    4.3574303    4.3574303    -1607.047   -29326.092   -32239.176    56744.127   -25246.337   -3782.0901    -61547.95    82.735393 
   86700    1496.2239   -113.80307    1.3538148   -112.44926   -24985.643    4.3763679    4.3763679    4.3763679   -24985.643   -8366.1536   -63076.467   -3514.3085   -19188.801    4291.9962    20035.358    83.818806 
   86800    2890.6966   -115.03911    2.6155631   -112.42355   -18049.802    4.3963897    4.3963897    4.3963897   -18049.802   -37810.725   -10406.283   -5932.3968    6401.7414    18526.848    28640.973    84.974488 
   86900    1255.1315   -113.55296    1.1356693   -112.41729    -38364.33    4.4040359    4.4040359    4.4040359    -38364.33   -67269.634    -59145.79    11322.433   -26502.727   -6558.9196   -35795.413     85.41862 
   87000    2100.7259   -114.30329     1.900781   -112.40251   -6702.8603    4.3857882    4.3857882    4.3857882   -6702.8603   -26630.541    34980.482   -28458.521    17355.834    4837.4883   -12891.154    84.361239 
   87100    2814.3669   -114.92872    2.5464983   -112.38222    26847.557    4.3593925    4.3593925    4.3593925    26847.557   -26410.629    67803.337    39149.961   -30252.353    24283.212     25573.21    82.847214 
   87200    1111.5699   -113.43146    1.0057718   -112.42569   -6375.1677    4.3672427    4.3672427    4.3672427   -6375.1677   -25703.948   -22987.339    29565.784   -31540.446   -3115.9328   -47040.994    83.295587 
   87300    2529.1494    -114.7042    2.2884275   -112.41577   -30030.603     4.390102     4.390102     4.390102   -30030.603   -24339.249   -29237.628   -36514.932    17464.282    5409.6542    13154.512    84.610416 
   87400    1734.7862   -113.98424     1.569671   -112.41457   -33730.667    4.3905636    4.3905636    4.3905636   -33730.667   -20772.834   -49943.866   -30475.301   -25084.938   -935.00171    65312.395    84.637109 
   87500    2239.5293   -114.41545    2.0263732   -112.38907   -16354.619    4.3839708    4.3839708    4.3839708   -16354.619   -31737.912   -40299.737    22973.792   -29875.484   -5814.9468   -51666.767    84.256411 
   87600    1567.3097   -113.81462    1.4181348   -112.39649   -30123.526    4.3855737    4.3855737    4.3855737   -30123.526    52865.077   -50191.464   -93044.191    7882.1162   -12154.618    85893.958    84.348866 
   87700    2171.5917   -114.34154    1.9649018   -112.37663   -6971.0552    4.3836711    4.3836711    4.3836711   -6971.0552    27520.724   -7819.8728   -40614.017    -14129.97    2774.0714    42826.234     84.23913 
   87800    2038.7062   -114.22957    1.8446642   -112.38491     8080.818    4.3830835    4.3830835    4.3830835     8080.818    36063.241   -685.93512   -11134.852   -8117.7589    26011.778    23867.764     84.20526 
   87900     1420.503   -113.67802     1.285301   -112.39271   -17383.226    4.3978886    4.3978886    4.3978886   -17383.226    91062.869   -50882.082   -92330.467    19054.638   -1236.4447    47193.006    85.061431 
   88000    2944.0106   -115.00791    2.6638027   -112.34411    17076.469    4.3871442    4.3871442    4.3871442    17076.469   -1378.7576    11839.064      40769.1   -10324.309    8005.6807   -22835.086    84.439514 
   88100    1114.9804   -113.37638    1.0088577   -112.36752    51882.718     4.376993     4.376993     4.376993    51882.718    37876.256    84308.513    33463.385    10370.629    6419.6806    120396.86    83.854729 
   88200    2626.8575   -114.73065    2.3768359   -112.35381    10705.849    4.3961641    4.3961641    4.3961641    10705.849   -17205.741    10123.333    39199.954    7545.3602    1042.2144   -34541.903    84.961405 
   88300    1344.1191   -113.59167    1.2161872   -112.37549    -24332.97    4.3917863    4.3917863    4.3917863    -24332.97    63796.847   -81945.421   -54850.337    694.94486   -12144.901    103659.82    84.707838 
   88400    3011.9227   -115.07727    2.7252509   -112.35202    29306.627    4.3757632    4.3757632    4.3757632    29306.627    15267.236    9594.3309    63058.313   -2118.9493    11300.476   -3822.8417    83.784064 
   88500    1069.2643    -113.3473    0.9674928   -112.37981   -8601.9267    4.3943724    4.3943724    4.3943724   -8601.9267    23421.792   -28359.554   -20868.018    4020.1741   -13127.755    98573.297    84.857569 
   88600    1997.3434   -114.16799    1.8072382   -112.36075   -11566.441    4.4048551    4.4048551    4.4048551   -11566.441   -33311.677    12509.376   -13897.021    355.96492   -9451.0305    29467.988    85.466294 
   88700    2477.2206   -114.58465    2.2414412   -112.34321   -12603.863     4.403341     4.403341     4.403341   -12603.863   -6176.5621   -10088.646   -21546.382   -18636.936     5719.995     15463.42    85.378192 
   88800    1445.1177   -113.64816    1.3075729   -112.34059   -1451.4587     4.396951     4.396951     4.396951   -1451.4587    24513.956   -15944.501   -12923.832    6902.4177    1286.3203    57889.425    85.007039 
   88900    2788.1975   -114.84355    2.5228197   -112.32073   -10542.643    4.3885702    4.3885702    4.3885702   -10542.643   -39948.173   -5628.4356    13948.679    14791.073   -6308.7763    -22280.89    84.521878 
   89000    1388.9794   -113.60757    1.2567777   -112.35079    15737.939    4.3778365    4.3778365    4.3778365    15737.939    81133.194   -1733.3642   -32186.013   -14322.371   -22024.344    86780.301    83.903218 
   89100    2841.6736   -114.91812     2.571206   -112.34691   -7812.6224    4.3939398    4.3939398    4.3939398   -7812.6224   -53744.014   -19013.259    49319.406   -12533.051    5477.8084   -37569.741    84.832508 
   89200    823.71035   -113.13382   0.74531043   -112.38851    -44846.71    4.3959506    4.3959506    4.3959506    -44846.71    26111.458   -109446.34   -51205.252    14191.266    -3768.544    121191.54    84.949025 
   89300    3011.9005   -115.09068    2.7252309   -112.36545    10077.315     4.371033     4.371033     4.371033    10077.315   -11034.215    38892.766    2373.3937   -13823.616    918.83835     6371.236    83.512646 
   89400    1770.0083   -113.99324    1.6015407    -112.3917   -7149.8896    4.3800609    4.3800609    4.3800609   -7149.8896     12933.84   -32212.935   -2170.5743    12660.466   -11228.622    62641.984    84.031174 
   89500    1626.9704   -113.85611     1.472117     -112.384   -5379.2549    4.3892109    4.3892109    4.3892109   -5379.2549    36518.923   -62473.793    9817.1057     14361.18      462.058     70013.07    84.558905 
   89600    2370.0369    -114.5051    2.1444592   -112.36064    13239.057    4.3914117    4.3914117    4.3914117    13239.057    84505.608   -34428.505    -10359.93   -13444.002    -6232.617   -4568.5642    84.686167 
   89700    1268.9576   -113.52731    1.1481795   -112.37913   -27149.625    4.3944908    4.3944908    4.3944908   -27149.625    32897.893   -88510.188   -25836.578    6250.7176   -13319.835    81476.956    84.864427 
   89800    2780.4442   -114.87273    2.5158043   -112.35692     12878.26    4.3786788    4.3786788    4.3786788     12878.26    7029.0849    2164.6487    29441.047    28440.375    32463.919   -29982.214    83.951655 
   89900    1645.4159   -113.87529    1.4888069   -112.38648    9314.0416    4.3681857    4.3681857    4.3681857    9314.0416    97090.172   -46784.587    -22363.46   -4298.2919   -8486.6588    92985.971    83.349555 
   90000    2369.6708   -114.54565    2.1441279   -112.40153    5755.8244    4.3737694    4.3737694    4.3737694    5755.8244    28581.966   -16283.653      4969.16   -2735.9227   -6830.0299    18365.607    83.669593 
   90100    2110.9999   -114.33128     1.910077    -112.4212    3888.4543    4.3710462    4.3710462    4.3710462    3888.4543   -19914.066    24462.588    7116.8411    23929.658    33843.484    9702.6984    83.513407 
   90200      825.888   -113.21248   0.74728082    -112.4652   -16328.221    4.3773723    4.3773723    4.3773723   -16328.221    28819.559   -47641.883   -30162.339   -6656.7798     27119.63    110179.36    83.876533 
   90300     3489.288   -115.57511    3.1571811   -112.41793    9472.3155    4.3823548    4.3823548    4.3823548    9472.3155    -16793.55     10407.68    34802.817    2702.3168   -15256.704   -43022.812    84.163269 
   90400    1361.6697   -113.67519    1.2320674   -112.44312   -321.70666    4.3756153    4.3756153    4.3756153   -321.70666    25509.583   -27589.852    1115.1487    11587.837     20110.27    83972.789     83.77557 
   90500    1384.0043   -113.69437    1.2522762   -112.44209   -3568.6477    4.3799892    4.3799892    4.3799892   -3568.6477    561.24094    28954.945   -40222.129    27712.649    33040.084    36446.252    84.027051 
   90600    3063.7469    -115.1628    2.7721426   -112.39066    1739.1275     4.385753     4.385753     4.385753    1739.1275   -16406.259   -10272.502    31896.143    8372.2964   -17475.256    5521.4714    84.359209 
   90700    914.55851   -113.24759   0.82751176   -112.42008     3102.319    4.3905092    4.3905092    4.3905092     3102.319    40473.522    4362.9245   -35529.489   -2967.9867    19874.198    106816.46    84.633962 
   90800    2952.7243   -115.03719     2.671687   -112.36551    4701.5948    4.3962897    4.3962897    4.3962897    4701.5948   -43108.691   -11164.252    68377.728   -7355.5032    47805.857   -31001.461    84.968686 
   90900    1185.9031   -113.44876      1.07303   -112.37573   -6264.5889    4.3905301    4.3905301    4.3905301   -6264.5889     88919.98   -84482.654   -23231.092    12081.915   -25017.915    95024.838    84.635169 
   91000    2429.3607     -114.539    2.1981366   -112.34087    20415.451    4.3821963    4.3821963    4.3821963    20415.451    18257.664    7502.8436    35485.846   -7071.1837    14692.868   -40693.759    84.154138 
   91100    1555.4959    -113.7717    1.4074454   -112.36425   -44462.663    4.3967812    4.3967812    4.3967812   -44462.663    52079.258    -103624.1   -81843.149   -6973.8742    21963.523    97841.181    84.997187 
   91200    2192.4468   -114.34735    1.9837719   -112.36357   -23001.484    4.3883601    4.3883601    4.3883601   -23001.484    36506.075   -26308.127   -79202.398    10109.701   -981.30962    54849.378    84.509743 
   91300    2126.5112   -114.26762     1.924112   -112.34351    16608.546    4.3779476    4.3779476    4.3779476    16608.546    39317.622    31562.302   -21054.285    1008.9436   -612.02198    60549.417    83.909608 
   91400    1647.5858   -113.85416    1.4907702   -112.36339   -39257.571     4.398488     4.398488     4.398488   -39257.571    29660.919   -78142.404   -69291.229   -5092.8897    13056.757    79286.459    85.096216 
   91500    2379.6397   -114.49579     2.153148   -112.34264    27229.145    4.3890608    4.3890608    4.3890608    27229.145    26339.945   -2641.4937    57988.985    -14796.52    18758.336   -5719.9185    84.550229 
   91600    1403.7352   -113.63496    1.2701291   -112.36483    39651.668     4.389614     4.389614     4.389614    39651.668    104062.29    8091.9392    6800.7776    10498.771   -3001.6157    91826.485    84.582204 
   91700    2639.3408   -114.70654     2.388131   -112.31841   -25986.194    4.4054058    4.4054058    4.4054058   -25986.194   -44713.603   -39050.807    5805.8286   -18587.635   -2417.2061   -29452.487    85.498356 
   91800     1227.934   -113.45173    1.1110605   -112.34067   -7117.2588    4.3854032    4.3854032    4.3854032   -7117.2588    85425.115   -87031.952    -19744.94   -16867.122    7472.1298    110108.01    84.339027 
   91900    2780.7181   -114.84772    2.5160522   -112.33167    29892.533    4.3720898    4.3720898    4.3720898    29892.533   -30223.017    82135.916    37764.699    13124.322   -27501.141   -32531.281    83.573236 
   92000    1446.6977   -113.71408    1.3090025   -112.40508   -30290.902    4.3634706    4.3634706    4.3634706   -30290.902    28932.782   -46603.635   -73201.852    2430.1867     6846.831    69885.375    83.079939 
   92100    2090.4526   -114.30822    1.8914854   -112.41674    29295.354    4.3649525    4.3649525    4.3649525    29295.354     59557.83    32116.764   -3788.5311   -11548.207   -1003.0603    56825.837     83.16461 
   92200    1941.5594   -114.17006    1.7567637    -112.4133   -37948.819    4.4008932    4.4008932    4.4008932   -37948.819   -30817.559    -36627.44   -46401.459    5919.5855   -27861.476   -19764.132     85.23589 
   92300    1176.2022   -113.46154    1.0642525   -112.39729   -35516.329    4.3951565    4.3951565    4.3951565   -35516.329    26492.013   -88994.178   -44046.823    7161.6016    7365.9621    102524.46    84.902996 
   92400    3525.2546   -115.51925    3.1897245   -112.32953     3316.136    4.3783629    4.3783629    4.3783629     3316.136    11969.619   -27610.746    25589.534    5973.3443    6995.1182   -24954.508    83.933488 
   92500    883.68556   -113.16226   0.79957726   -112.36269   -50540.418    4.3897214    4.3897214    4.3897214   -50540.418    34722.763   -93059.874   -93284.143    12625.742    4978.4371    81657.229    84.588414 
   92600    3475.0352   -115.45953    3.1442849   -112.31524   -1378.7044    4.3965887    4.3965887    4.3965887   -1378.7044    15025.189   -30423.505    11262.202   -3518.7877    2918.3826    -10623.82    84.986025 
   92700    817.28164   -113.09367    0.7394936   -112.35418   -68325.398    4.4235342    4.4235342    4.4235342   -68325.398    -41572.27    -43486.35   -119917.57   -4479.5427   -8037.5733    52392.013    86.558193 
   92800     2560.771   -114.63658    2.3170394   -112.31954   -11673.012    4.3966073    4.3966073    4.3966073   -11673.012    8176.1143    -19491.58    -23703.57    4994.2459    3635.6849    50836.326    84.987103 
   92900    1354.0427   -113.54106    1.2251663   -112.31589    39557.518     4.359129     4.359129     4.359129    39557.518    36325.289    53344.016    29003.249   -1351.4579     5489.739   -13210.447    82.832192 
   93000    2520.3292   -114.61372    2.2804468   -112.33327   -374.77282    4.3782872    4.3782872    4.3782872   -374.77282     25365.95     7168.976   -33659.244   -12494.841   -26240.723     24303.54    83.929136 
   93100    1690.0716   -113.87287    1.5292123   -112.34365   -3407.6876    4.3968301    4.3968301    4.3968301   -3407.6876   -15222.203   -25338.316    30337.456    10168.259    32924.643    957.83744    85.000022 
   93200    1714.7598   -113.90224    1.5515507   -112.35068    4988.1728    4.4037108    4.4037108    4.4037108    4988.1728    25714.874   -10394.665   -355.69079    5257.0778    8608.1295   -18768.177    85.399704 
   93300    2291.8762   -114.40339    2.0737378   -112.32965    4407.2956    4.4020936    4.4020936    4.4020936    4407.2956    21716.126    27618.758   -36112.997    10380.002    452.42507    9368.9649    85.305657 
   93400    1738.8153   -113.89361    1.5733166   -112.32029   -25552.138    4.3954131    4.3954131    4.3954131   -25552.138   -54466.024    2684.5422   -24874.933   -3672.6843    37820.868   -2664.7172    84.917871 
   93500    2851.1943   -114.87586    2.5798205   -112.29604     22267.29    4.3843727    4.3843727    4.3843727     22267.29    55724.387    32940.605   -21863.123     27615.99   -8532.3354   -3303.2641    84.279584 
   93600    921.71685   -113.19251   0.83398877   -112.35852    5011.7982    4.3882629    4.3882629    4.3882629    5011.7982   -10796.092    62186.191   -36354.704    21873.287    13432.596    14281.296    84.504129 
   93700    3241.2134   -115.24721     2.932718   -112.31449    18016.106    4.3921862    4.3921862    4.3921862    18016.106    13140.418    19943.505    20964.395   -12882.396    15176.752    1581.8443    84.730978 
   93800    803.70111   -113.09225   0.72720565   -112.36504    9546.5097    4.3861769    4.3861769    4.3861769    9546.5097    494.14541    525.70786    27619.676    59734.877   -25091.342   -4695.4499    84.383671 
   93900    3314.0886    -115.3214    2.9986571   -112.32274    9320.6147    4.3951581    4.3951581    4.3951581    9320.6147   -7541.8236    37211.995   -1708.3277   -14648.521    13042.535    6592.2861    84.903091 
   94000    800.86152   -113.08962   0.72463634   -112.36498    19892.107    4.3931492    4.3931492    4.3931492    19892.107   -18951.654   -6677.0635     85305.04    19382.152   -1084.6609    36675.047    84.786724 
   94100    2761.6447   -114.81274    2.4987942   -112.31395    18507.172    4.3930377    4.3930377    4.3930377    18507.172   -20417.375    32745.191    43193.699    6526.9351    6713.7978   -11331.604    84.780268 
   94200    1318.8408   -113.53382    1.1933149   -112.34051    -14025.55    4.3919141    4.3919141    4.3919141    -14025.55   -19135.195    21351.509   -44292.964   -2694.4364    13090.513    66583.792    84.715236 
   94300    1871.2707   -114.04243     1.693165   -112.34927    31956.534    4.3843371    4.3843371    4.3843371    31956.534   -18604.489   -12842.008     127316.1    54528.737   -16345.269    7481.0427    84.277536 
   94400    2314.5823   -114.43983    2.0942827   -112.34554   -13078.386    4.3895423    4.3895423    4.3895423   -13078.386    9722.2674   -42429.179   -6528.2474   -29053.659    3499.2607    45893.374    84.578059 
   94500    1088.5549   -113.36546   0.98494734   -112.38052    17024.481    4.3786689    4.3786689    4.3786689    17024.481    20597.921   -32148.797    62624.319    11142.695    2788.8331    42536.086    83.951086 
   94600    2967.2058   -115.05173    2.6847902   -112.36694    18885.471    4.3851279    4.3851279    4.3851279    18885.471   -21313.963    20631.946    57338.431    13751.663   -4843.7031   -6969.2073    84.323147 
   94700    791.36244   -113.11612   0.71604137   -112.40007   -8400.9067    4.3972771    4.3972771    4.3972771   -8400.9067     23418.99   -30034.551   -18587.159   -16752.359   -23886.509    79744.474    85.025953 
   94800    2752.8074     -114.862     2.490798    -112.3712   -85.706483    4.3912992    4.3912992    4.3912992   -85.706483    1147.7789   -4972.6145    3567.7162    2280.1506    14244.002    13875.149    84.679654 
   94900    2229.6252   -114.40174    2.0174118   -112.38433   -9537.6729    4.3760806    4.3760806    4.3760806   -9537.6729   -27389.132    28224.175   -29448.061   -3535.6225   -49649.742    8736.7954    83.802297 
   95000      1217.89   -113.51066    1.1019725   -112.40869    11621.226     4.367926     4.367926     4.367926    11621.226    30982.824    11095.496   -7214.6407   -36590.811   -1744.2421    49707.989    83.334687 
   95100    2745.3336   -114.88237    2.4840355   -112.39834   -2772.0785     4.380845     4.380845     4.380845   -2772.0785   -37545.592    1062.8744    28166.482   -7306.5368    -4796.695   -20140.894    84.076315 
   95200    1031.4044   -113.35732   0.93323635   -112.42408   -40237.682    4.3874319    4.3874319    4.3874319   -40237.682   -805.12952   -4288.1554   -115619.76    16087.198   -48534.267    43188.292    84.456125 
   95300    2694.9597   -114.83706    2.4384562    -112.3986    11553.496    4.3758454    4.3758454    4.3758454    11553.496    62064.026    10400.382   -37803.919   -9367.7762    9774.4715    45716.975    83.788787 
   95400    1887.8575   -114.11874    1.7081731   -112.41057   -3377.1382    4.3798765    4.3798765    4.3798765   -3377.1382    8018.3484     57149.51   -75299.273    2759.4133   -28435.688   -35604.589    84.020565 
   95500         1443   -113.71985    1.3056567   -112.41419    7960.6106    4.3905024    4.3905024    4.3905024    7960.6106     25164.57    75512.585   -76795.324    8470.3041    -10269.36    53326.069    84.633568 
   95600    2516.7497   -114.64868    2.2772081   -112.37147   -20300.223    4.3980641    4.3980641    4.3980641   -20300.223    671.48972   -36144.532   -25427.627   -17002.268   -9331.1882   -5061.7831    85.071613 
   95700    1178.6767   -113.44585    1.0664914   -112.37936    -40824.31    4.3950604    4.3950604    4.3950604    -40824.31   -24176.823   -5752.7309   -92543.377   -3334.6108   -53989.764   -29008.846    84.897428 
   95800     3153.128    -115.1844    2.8530165   -112.33138    22771.133    4.3853388    4.3853388    4.3853388    22771.133    48011.931    22032.697   -1731.2269   -7705.3923    28594.339    11425.228    84.335312 
   95900    778.91615   -113.07467    0.7047797   -112.36989    357.94872    4.3942781    4.3942781    4.3942781    357.94872   -24263.051    63197.366   -37860.469   -34183.239   -60655.701   -14834.767    84.852105 
   96000    3322.0619   -115.32396    3.0058714   -112.31809   -8489.2703    4.4074059    4.4074059    4.4074059   -8489.2703    -10638.91    22547.173   -37376.075    7747.8307    22874.382    3802.9935    85.614859 
   96100    853.86312   -113.12264    0.7725933   -112.35004   -7066.8068    4.4009813    4.4009813    4.4009813   -7066.8068   -50933.518    65167.529   -35434.432   -54759.127   -50661.895   -17160.348    85.241009 
   96200    1892.5344   -114.07424    1.7124049   -112.36183   -212.21646    4.3805459    4.3805459    4.3805459   -212.21646    5760.3832    48273.494   -54670.527   -11681.883   -54310.286   -10355.478    84.059093 
   96300    2474.1265   -114.60671    2.2386416   -112.36807    39921.491     4.358939     4.358939     4.358939    39921.491    49412.512    47148.132    23203.828   -2996.5197    36417.902    8183.6412    82.821364 
   96400    1042.8087   -113.37427   0.94355519   -112.43072    16431.191    4.3728173    4.3728173    4.3728173    16431.191   -28494.483    70534.086    7253.9712   -45736.041   -64278.408   -13825.283    83.614961 
   96500    3187.0071   -115.24837     2.883671    -112.3647   -16491.579    4.4129697    4.4129697    4.4129697   -16491.579    268.90201    2285.1803    -52028.82    14597.952    9868.8003    20726.929    85.939503 
   96600    1030.4057   -113.27383   0.93233272    -112.3415   -46131.117    4.4233804    4.4233804    4.4233804   -46131.117   -84277.282   -57513.706    3397.6359   -57452.775    4288.0788   -15464.389    86.549163 
   96700    2913.7879    -114.9163    2.6364565   -112.27984    1131.3687    4.3994876    4.3994876    4.3994876    1131.3687    572.48818    6910.4897   -4088.8717    15168.678   -16802.331     27316.44    85.154241 
   96800    1123.0707   -113.34263    1.0161779   -112.32645   -28468.375    4.3750291    4.3750291    4.3750291   -28468.375    -65593.77   -46507.254      26695.9    2913.0578    37458.325    12811.879    83.741906 
   96900     2602.776   -114.68823    2.3550465   -112.33318    35953.409    4.3631307    4.3631307    4.3631307    35953.409   -347.30365    22477.176    85730.354   -40043.601    24041.357   -5736.2252    83.060525 
   97000    1497.0049   -113.73847    1.3545215   -112.38395   -23668.133    4.3839369    4.3839369    4.3839369   -23668.133   -35306.609   -22125.023   -13572.768    31747.322   -41639.433    36234.806    84.254458 
   97100    1954.1052   -114.15865    1.7681154   -112.39053   -6982.5882    4.3961734    4.3961734    4.3961734   -6982.5882   -19119.029   -25344.905    23516.169   -39.857377    25345.922   -10674.831    84.961943 
   97200    2495.1133   -114.63069     2.257631   -112.37306   -7697.0047    4.3932763    4.3932763    4.3932763   -7697.0047   -9236.4725    8321.3078   -22175.849   -8372.0262   -15909.525    13200.474    84.794085 
   97300    1009.7244   -113.29428   0.91361984   -112.38066    6680.6445    4.3856133    4.3856133    4.3856133    6680.6445     18212.81    22039.999   -20210.876    18488.167   -16775.994    43872.931    84.351152 
   97400    3197.4042   -115.22233    2.8930785   -112.32925   -6231.6079    4.3870875    4.3870875    4.3870875   -6231.6079   -4191.8872     9139.342   -23642.279    485.42989    13391.632   -28489.881     84.43624 
   97500    878.00424    -113.1666   0.79443669   -112.37217   -13403.962    4.3846037    4.3846037    4.3846037   -13403.962   -14328.628    33637.915   -59521.171    7557.3978   -28934.937    39297.531    84.292909 
   97600    3188.9475   -115.21854    2.8854268   -112.33311    6593.7036    4.3892917    4.3892917    4.3892917    6593.7036    55979.707   -7376.2228   -28822.373    17811.188    9353.0614    690.79442    84.563575 
   97700    610.06406    -112.9326   0.55199878    -112.3806   -53606.887    4.3939981    4.3939981    4.3939981   -53606.887   -37994.606   -13480.878   -109345.18   -33492.512    11466.542   -19898.694    84.835885 
   97800    3028.1577   -115.08735    2.7399407   -112.34741   -9386.4013    4.3732927    4.3732927    4.3732927   -9386.4013   -8400.9852    16781.581     -36539.8   -84.977545   -44730.976    18466.441    83.642236 
   97900     1191.459   -113.44841    1.0780571   -112.37035   -12570.869     4.372386     4.372386     4.372386   -12570.869    342.93858   -23863.771   -14191.775    23491.353    41164.426   -36909.638    83.590223 
   98000    2388.1101   -114.54403    2.1608122   -112.38322    -23209.96    4.3830782    4.3830782    4.3830782    -23209.96   -42281.669    14215.815   -41564.024   -9206.0775    2390.4415   -15223.352    84.204959 
   98100    2149.4109   -114.33452    1.9448321   -112.38968   -5257.3627    4.3880405    4.3880405    4.3880405   -5257.3627    14780.025   -27987.148   -2564.9654    9891.5844   -13128.871    25912.486    84.491276 
   98200    1263.3559   -113.53792    1.1431109   -112.39481   -1343.9877    4.3871662    4.3871662    4.3871662   -1343.9877   -8530.0746   -10724.134    15222.246    37788.984    21667.449   -16900.546    84.440784 
   98300    2959.8075   -115.02913     2.678096   -112.35104   -9132.3837    4.3875898    4.3875898    4.3875898   -9132.3837   -40603.154    5333.1409    7872.8621   -40498.038   -19217.089     358.0656    84.465245 
   98400    820.24035   -113.11893    0.7421707   -112.37676    10892.349    4.3799135    4.3799135    4.3799135    10892.349    6215.7465    17289.147     9172.152    12581.083    7573.4036    -713.6545    84.022694 
   98500       3415.2   -115.41951    3.0901447   -112.32936   -14888.313    4.3898449    4.3898449    4.3898449   -14888.313   -53612.998   -12809.438    21757.496   -15574.763   -4592.8884    9755.0123     84.59555 
   98600    923.59127   -113.20915   0.83568479   -112.37347   -34308.729    4.3938091    4.3938091    4.3938091   -34308.729   -59004.143   -38400.472   -5521.5708   -43439.248   -24910.557   -22507.417    84.824939 
   98700     3092.019   -115.11567    2.7977237   -112.31794    37260.676    4.3839565    4.3839565    4.3839565    37260.676    18186.912    48168.726    45426.389    19995.663    10144.769    18206.159    84.255585 
   98800    893.16291   -113.17485   0.80815257   -112.36669   -51815.941    4.3990302    4.3990302    4.3990302   -51815.941    -92688.08   -42429.672   -20330.072   -61535.856    4374.6293   -7092.8499    85.127685 
   98900    2884.8439   -114.94414    2.6102674   -112.33387    2097.9068    4.3894492    4.3894492    4.3894492    2097.9068    23482.356    15577.747   -32766.383    3567.7123    -12304.56   -12761.286    84.572681 
   99000    1466.0919   -113.68502    1.3265507   -112.35847   -14072.372    4.3867287    4.3867287    4.3867287   -14072.372    -75732.83    16121.556    17394.159   -11664.002    9230.7104    11660.192    84.415527 
   99100      1518.04   -113.74693    1.3735545   -112.37338   -19678.024    4.3867684    4.3867684    4.3867684   -19678.024   -75588.625     1928.253      14626.3   -63491.632     2098.925    -15739.81    84.417816 
   99200     2475.713   -114.59559    2.2400771   -112.35552    9524.5225     4.377596     4.377596     4.377596    9524.5225   -7299.3563    28955.184    6917.7396    41209.989    1675.7894    7970.3903    83.889387 
   99300    1047.7405   -113.33555   0.94801759   -112.38753   -22208.493    4.3910377    4.3910377    4.3910377   -22208.493   -86576.814   -8245.9226    28197.258     -21087.2    9940.7227    19179.887     84.66453 
   99400    2848.3601   -114.90745    2.5772561    -112.3302   -1493.8242    4.3988122    4.3988122    4.3988122   -1493.8242    6890.2885    21559.693   -32931.454    3461.1672   -8334.0816   -11730.766    85.115032 
   99500    1099.2144    -113.3467   0.99459228   -112.35211   -36759.413    4.4004728    4.4004728    4.4004728   -36759.413   -33964.685   -35574.077   -40739.479    1407.1025    36336.999     14080.53    85.211464 
   99600    3122.8035    -115.1409    2.8255783   -112.31532    3693.1849    4.3827339    4.3827339    4.3827339    3693.1849     32366.51   -10625.716    -10661.24   -13627.786   -14612.467   -4499.1788    84.185115 
   99700    907.02003    -113.1874   0.82069078   -112.36671   -5962.8807    4.3671395    4.3671395    4.3671395   -5962.8807    26223.293    166.48446   -44278.419    4716.2309   -6780.1249   -13347.542    83.289679 
   99800    3277.9733   -115.32193    2.9659791   -112.35595    10518.977    4.3714648    4.3714648    4.3714648    10518.977    7267.6693   -22544.541    46833.803    23764.224    -4609.204     18900.61    83.537401 
   99900    1121.3547   -113.41711    1.0146253   -112.40249    9897.6723    4.3843352    4.3843352    4.3843352    9897.6723    33179.755    5492.8926   -8979.6312   -2511.8861    14457.931   -57550.588    84.277425 
  100000    2068.0002   -114.26315    1.8711701   -112.39198   -4783.4779    4.4008849    4.4008849    4.4008849   -4783.4779    2143.7589   -30042.822    13548.629    -2563.886   -9636.9989     12268.62    85.235406 
Loop time of 21.931 on 1 procs for 100000 steps with 8 atoms

Pair  time (%) = 6.67897 (30.4545)
Kspce time (%) = 5.35445 (24.415)
Neigh time (%) = 0.258669 (1.17947)
Comm  time (%) = 0.927139 (4.22753)
Outpt time (%) = 0.0252209 (0.115001)
Other time (%) = 8.68651 (39.6084)

Nlocal:    8 ave 8 max 8 min
Histogram: 1 0 0 0 0 0 0 0 0 0
Nghost:    1756 ave 1756 max 1756 min
Histogram: 1 0 0 0 0 0 0 0 0 0
Neighs:    2013 ave 2013 max 2013 min
Histogram: 1 0 0 0 0 0 0 0 0 0

Total # of neighbors = 2013
Ave neighs/atom = 251.625
Neighbor list builds = 3387
Dangerous builds = 0
unfix 20
unfix 21
print "seeds:4097642"
seeds:4097642
