LAMMPS (10 Feb 2015)
# ---- initialize simulations
clear
units metal
dimension 3
boundary p p p
atom_style charge
atom_modify map array
# ---- create atoms
read_data /Users/eugeneragasa/pyflamestk_git/pypospack/tests/tests_integration/workflow/WorkflowLammpsThermalExpansion/param_7495/MgO_NaCl_unit.npt.T1300/lammps.structure
  triclinic box = (0 0 0) to (4.2565 4.2565 4.2565) with tilt (0 0 0)
  1 by 1 by 1 MPI processor grid
  reading atoms ...
  8 atoms
# ---- define interatomic potential
include potential.mod
mass 1 24.305
mass 2 15.999

group Mg type 1
4 atoms in group Mg
group O type 2
4 atoms in group O

set group Mg charge 1.61805343549
  4 settings made for charge
set group O charge -1.61805343549
  4 settings made for charge

variable R_cut equal 10.0

pair_style buck/coul/long ${R_cut}
pair_style buck/coul/long 10
pair_coeff 1 1 0.0 0.5 0.0 ${R_cut}
pair_coeff 1 1 0.0 0.5 0.0 10
pair_coeff 1 2 1411.7842896 0.281421547192 0.0 ${R_cut}
pair_coeff 1 2 1411.7842896 0.281421547192 0.0 10
pair_coeff 2 2 12275.1016291 0.0833185517679 22.1397903537 ${R_cut}
pair_coeff 2 2 12275.1016291 0.0833185517679 22.1397903537 10

kspace_style pppm 1.0e-5

neighbor 1.0 bin
neigh_modify every 1 delay 0 check yes
# ---- define settings
compute eng all pe/atom
compute eatoms all reduce sum c_eng
# ---- run minimization
reset_timestep 0
fix 1 all box/relax iso 0.0 vmax 0.001
thermo 10
thermo_style custom step pe lx ly lz xy xz yz press pxx pyy pzz pxy pxz pyz c_eatoms
min_style cg
minimize 1e-25 1e-25 5000 10000
PPPM initialization ...
  G vector (1/distance) = 0.352505
  grid = 8 8 8
  stencil order = 5
  estimated absolute RMS force accuracy = 3.81397e-05
  estimated relative force accuracy = 2.64865e-06
  using double precision FFTs
  3d grid and FFT values/proc = 3375 512
Neighbor list info ...
  1 neighbor list requests
  update every 1 steps, delay 0 steps, check yes
  master list distance cutoff = 11
Memory usage per processor = 4.06549 Mbytes
Step PotEng Lx Ly Lz Xy Xz Yz Press Pxx Pyy Pzz Pxy Pxz Pyz eatoms 
       0   -106.97328       4.2565       4.2565       4.2565            0            0            0    38192.574    38192.574    38192.574    38192.574 8.7875882e-11 -6.3416216e-11 -7.5192229e-11   -106.97328 
       9   -106.99342    4.2893301    4.2893301    4.2893301            0            0            0     -3.54441     -3.54441     -3.54441     -3.54441 -1.7895043e-11 -1.1181496e-10 -2.9549514e-11   -106.99342 
Loop time of 0.00942993 on 1 procs for 9 steps with 8 atoms

Minimization stats:
  Stopping criterion = linesearch alpha is zero
  Energy initial, next-to-last, final = 
        -106.973281584     -106.993416645     -106.993416645
  Force two-norm initial, final = 5.51503 0.00172663
  Force max component initial, final = 5.51503 0.00051974
  Final line search alpha, max atom move = 0.00390625 2.03024e-06
  Iterations, force evaluations = 9 26

Pair  time (%) = 0.00260353 (27.6092)
Kspce time (%) = 0.0014863 (15.7615)
Neigh time (%) = 0 (0)
Comm  time (%) = 0.000307083 (3.25647)
Outpt time (%) = 0 (0)
Other time (%) = 0.00503302 (53.3728)

Nlocal:    8 ave 8 max 8 min
Histogram: 1 0 0 0 0 0 0 0 0 0
Nghost:    2189 ave 2189 max 2189 min
Histogram: 1 0 0 0 0 0 0 0 0 0
Neighs:    2344 ave 2344 max 2344 min
Histogram: 1 0 0 0 0 0 0 0 0 0

Total # of neighbors = 2344
Ave neighs/atom = 293
Neighbor list builds = 0
Dangerous builds = 0
unfix 1
# ---- define output variables ----
variable natoms equal "count(all)"
variable tot_energy equal "c_eatoms"
variable length_x equal "lx"
variable length_y equal "ly"
variable length_z equal "lz"
variable tilt_xy equal "xy"
variable tilt_xz equal "xz"
variable tilt_yz equal "yz"
variable tot_press equal "press"
variable press_xx equal "pxx"
variable press_yy equal "pyy"
variable press_zz equal "pzz"
variable press_xy equal "pxy"
variable press_xz equal "pxz"
variable press_yz equal "pyz"

# ---- output ----
print "pypospack:output_section:begin"
pypospack:output_section:begin
print "tot_energy = ${tot_energy}"
tot_energy = -106.993416644887
print "num_atoms = ${natoms}"
num_atoms = 8
print "xx = ${length_x}"
xx = 4.28933011317114
print "yy = ${length_y}"
yy = 4.28933011317114
print "zz = ${length_z}"
zz = 4.28933011317114
print "xy = ${tilt_xy}"
xy = 0
print "xz = ${tilt_xz}"
xz = 0
print "yz = ${tilt_yz}"
yz = 0
print "tot_press = ${tot_press}"
tot_press = -3.54441004469774
print "pxx = ${press_xx}"
pxx = -3.5444100447524
print "pyy = ${press_yy}"
pyy = -3.54441004470836
print "pzz = ${press_zz}"
pzz = -3.54441004463246
print "pxy = ${press_xy}"
pxy = -1.78950429729069e-11
print "pxz = ${press_xz}"
pxz = -1.1181495634962e-10
print "pyz = ${press_yz}"
pyz = -2.95495135207349e-11
print "pypospack:output_section:done"
pypospack:output_section:done
print "pypospack:lammps_sim:done"
pypospack:lammps_sim:done
#------------------------------------------------------------------------------
# RUN THERMOSTAT
# running using an NPT Nose-Hoover style thermostat
#------------------------------------------------------------------------------
variable tempdamp equal 0.1
variable pressdamp equal 1.0
# set initial velocities
velocity all create 1300 1860061 mom yes dist gaussian loop all
# fix for Nose-Hoover style thermostat
fix 20 all npt temp 1300 1300 0.1 aniso 0.0 0.0 1.0 drag 1.0 couple xyz
variable boxx equal lx
variable boxy equal ly
variable boxz equal lz
variable boxp equal press
variable boxt equal temp
# calculate averages every 10000 steps
reset_timestep 0
fix 21 all ave/time 10 10 100 v_boxx v_boxy v_boxz v_boxp v_boxt file lattice.out
thermo_style custom step temp pe ke etotal press lx ly lz press pxx pyy pzz pxy pxz pyz vol
thermo_modify flush yes
thermo 100
run 100000
PPPM initialization ...
  G vector (1/distance) = 0.352181
  grid = 8 8 8
  stencil order = 5
  estimated absolute RMS force accuracy = 3.87093e-05
  estimated relative force accuracy = 2.68821e-06
  using double precision FFTs
  3d grid and FFT values/proc = 3375 512
Memory usage per processor = 3.06549 Mbytes
Step Temp PotEng KinEng TotEng Press Lx Ly Lz Press Pxx Pyy Pzz Pxy Pxz Pyz Volume 
       0         1300   -106.99342    1.1762673   -105.81716    15915.919    4.2893301    4.2893301    4.2893301    15915.919    17760.186    11324.093    18663.478    2282.8814    3783.6448   -1951.8455    78.916609 
     100    451.56438   -106.07967   0.40858494   -105.67109   -3599.3249    4.3178676    4.3178676    4.3178676   -3599.3249   -17301.535    8184.7704   -1681.2102    4242.6108   -10637.102   -3974.4215    80.502238 
     200    846.80451   -106.10168   0.76620652   -105.33547   -8736.2454    4.3465586    4.3465586    4.3465586   -8736.2454   -31527.622   -29999.691    35318.577    9102.8679    4205.9142    -1589.679    82.117671 
     300    1232.0101   -106.18156    1.1147487   -105.06681   -8197.2743    4.3437752    4.3437752    4.3437752   -8197.2743    15761.975    -12335.57   -28018.229    710.56761   -5631.6714    4275.6096    81.960016 
     400      1167.17   -105.90085    1.0560799   -104.84477   -9660.7335    4.3272521    4.3272521    4.3272521   -9660.7335   -25938.602    4227.6975   -7271.2961     13337.59   -15138.945   -4773.4214    81.028274 
     500    1315.1516   -105.90054    1.1899768   -104.71056    26994.235    4.3372616    4.3372616    4.3372616    26994.235    24127.405    2134.7561    54720.543    3013.1043    16438.434    9048.7322    81.591862 
     600    783.24384   -105.35334   0.70869549   -104.64464   -1856.3641    4.3573418    4.3573418    4.3573418   -1856.3641    -42906.13   -14640.327    51977.365    7946.4733   -14276.814   -19095.733    82.730353 
     700    1879.7783   -106.30681    1.7008629   -104.60595    -14985.16    4.3506865    4.3506865    4.3506865    -14985.16   -10700.045   -8144.0776   -26111.356    3246.4689    5486.7886   -4518.3259    82.351853 
     800    1449.0022   -105.92876    1.3110876   -104.61768   -6514.4587    4.3420885    4.3420885    4.3420885   -6514.4587    -7332.402   -7724.7003   -4486.2736    1685.5212   -7247.8438    -83.45594    81.864575 
     900     1686.557   -106.15959    1.5260322   -104.63356   -4753.7898    4.3386476    4.3386476    4.3386476   -4753.7898    395.48174   -5523.2722   -9133.5789    5412.1538   -15673.826    8671.4088     81.67011 
    1000     696.5485   -105.28483   0.63025172   -104.65458      30443.7    4.3499074    4.3499074    4.3499074      30443.7    21251.625    8570.8758    61508.598   -10332.004    19617.733    6572.6636    82.307618 
    1100    1417.7159   -105.92197    1.2827792   -104.63919   -8914.0279    4.3544433    4.3544433    4.3544433   -8914.0279   -41232.887   -9456.6407    23947.443    2269.1163   -10784.264    7500.7441     82.56537 
    1200    1278.7751   -105.79182    1.1570626   -104.63475   -3306.1389     4.334696     4.334696     4.334696   -3306.1389     5124.115   -17683.395     2640.863   -8573.1779    1395.8947   -898.72648    81.447155 
    1300    1561.0393     -106.053    1.4124611   -104.64054   -14100.697    4.3356062    4.3356062    4.3356062   -14100.697   -16782.727   -22678.979   -2840.3843   -8351.2301   -8415.8092    213.12444    81.498477 
    1400    1094.0215   -105.62714   0.98989368   -104.63725    14085.757    4.3509489    4.3509489    4.3509489    14085.757    -26165.38   -3404.8743    71827.526   -1678.2416   -13643.866   -8853.2397    82.366752 
    1500    846.61732    -105.4046   0.76603715   -104.63856   -9541.5201    4.3550917    4.3550917    4.3550917   -9541.5201   -21523.807   -60107.229    53006.476   -4059.6548    6865.7358    16262.826    82.602258 
    1600    1556.7847   -106.03474    1.4086115   -104.62613   -3203.8306    4.3445901    4.3445901    4.3445901   -3203.8306   -11917.535   -3301.4824    5607.5255   -3483.2107   -2213.2757    16471.388    82.006153 
    1700    1483.5935   -105.97491    1.3423865   -104.63253   -16514.497    4.3392206    4.3392206    4.3392206   -16514.497   -24483.035   -22735.644   -2324.8111   -18647.033    11453.114   -6219.6641    81.702468 
    1800    1643.2546   -106.12323    1.4868513   -104.63637   -805.88038    4.3448148    4.3448148    4.3448148   -805.88038    4760.7775   -9292.1013    2113.6827   -1535.3551   -9832.0274    7915.5717    82.018876 
    1900    818.44245   -105.37696   0.74054393   -104.63641    14013.514    4.3511329    4.3511329    4.3511329    14013.514   -39302.547    21807.474    59535.615   -17336.846   -617.87786   -19192.452    82.377202 
    2000    1492.9095   -105.97579    1.3508159   -104.62497   -2140.1967    4.3481761    4.3481761    4.3481761   -2140.1967   -13619.486   -27089.526    34288.422   -16897.505    2572.6145     4266.632     82.20938 
    2100     1181.146   -105.70053    1.0687257    -104.6318    6381.3174    4.3496413    4.3496413    4.3496413    6381.3174   -15162.041    53830.625   -19524.632   -7165.1329   -9623.7751    8986.6237    82.292517 
    2200      1550.24   -106.03106    1.4026897   -104.62837   -30185.642    4.3527414    4.3527414    4.3527414   -30185.642   -39625.891   -45654.328   -5276.7056   -22574.772    10738.719    -7926.355    82.468595 
    2300    1327.9119   -105.82886    1.2015226   -104.62734    21179.168    4.3485574    4.3485574    4.3485574    21179.168   -14497.066    31979.385    46055.185   -734.56144   -20457.472    9794.2836    82.231011 
    2400    733.65888   -105.30082   0.66382997   -104.63699   -9374.2764     4.362053     4.362053     4.362053   -9374.2764   -56688.006   -19981.036    48546.213   -21077.974    12466.246   -11963.417    82.998991 
    2500    1866.4277   -106.29319     1.688783   -104.60441   -11829.495    4.3537704    4.3537704    4.3537704   -11829.495   -14293.631   -8359.2054   -12835.649    66.696956   -10011.786   -1976.5623    82.527099 
    2600    1002.3352   -105.51961   0.90693393   -104.61268   -1759.3831    4.3519896    4.3519896    4.3519896   -1759.3831   -8799.6539    -28214.24    31735.745   -5767.5943   -8448.4148   -10363.756     82.42587 
    2700    1277.9837   -105.76801    1.1563465   -104.61166    1013.5067    4.3583839    4.3583839    4.3583839    1013.5067    5107.0345   -3113.2332    1046.7189   -14058.527    4996.1377   -2849.9127    82.789727 
    2800    1616.5383   -106.06652    1.4626778   -104.60384   -16768.763    4.3491811    4.3491811    4.3491811   -16768.763    12578.088   -34109.313   -28775.063   -4406.9262     3279.612   -675.18542    82.266395 
    2900    702.99303    -105.2631   0.63608287   -104.62702     4887.789    4.3540215    4.3540215    4.3540215     4887.789   -11951.593    41612.279   -14997.319   -5419.4321   -4176.1954     7846.501    82.541376 
    3000    1806.6634   -106.24685     1.634707   -104.61215    2166.4453    4.3502359    4.3502359    4.3502359    2166.4453     28777.88   -16264.736   -6013.8075    8575.1386    7539.9467    9758.1263    82.326269 
    3100    1058.9826   -105.57605   0.95818975   -104.61786   -3731.3227    4.3477595    4.3477595    4.3477595   -3731.3227   -13173.551    11884.385   -9904.8026    -13741.74    9007.0356   -8772.6109     82.18575 
    3200    1280.9674   -105.76627    1.1590462   -104.60722    6935.6027    4.3499301    4.3499301    4.3499301    6935.6027    2163.1783   -17501.879    36145.509    8839.2769   -1383.9208   -278.61084    82.308907 
    3300     1427.864   -105.89643    1.2919614   -104.60447    -6386.594    4.3527145    4.3527145    4.3527145    -6386.594   -5681.6312    -2018.304   -11459.847   -4639.6723   -6040.6486   -3342.2216    82.467064 
    3400    820.63638   -105.34225   0.74252905   -104.59972     24948.98    4.3552812    4.3552812    4.3552812     24948.98    63118.981   -24111.022    35838.981    5291.6149   -2764.2887   -13851.218    82.613039 
    3500    1426.7732   -105.87851    1.2909744   -104.58753   -3176.1401    4.3462687    4.3462687    4.3462687   -3176.1401     28939.28   -43586.465    5118.7645   -4179.4718   -17886.219    6182.0815    82.101242 
    3600    1102.5993   -105.59547   0.99765503   -104.59781    10374.889    4.3455556    4.3455556    4.3455556    10374.889     29592.96   -7106.2489    8637.9545    8366.6802   -12093.479   -19435.941    82.060838 
    3700     1123.369    -105.6189    1.0164478   -104.60245    -486.2409     4.342901     4.342901     4.342901    -486.2409   -2103.6565   -8529.9217    9174.8555   -1869.8673   -3649.9096    17834.966    81.910539 
    3800    1441.5677   -105.91044    1.3043607   -104.60608   -12162.879    4.3421921    4.3421921    4.3421921   -12162.879   -21656.385   -23160.323    8328.0724   -9934.4426    2210.8537   -13607.489    81.870437 
    3900    1323.0693   -105.80375    1.1971409   -104.60661    4276.3385    4.3452209    4.3452209    4.3452209    4276.3385    -16905.73   -5675.1099    35409.855    6969.9006    9693.2304    7299.5094    82.041878 
    4000    1157.2184   -105.66039    1.0470755   -104.61331    -7260.527    4.3411006    4.3411006    4.3411006    -7260.527   -51611.694   -17517.265    47347.379   -14544.581   -974.93845    12296.859    81.808709 
    4100    1882.6212   -106.32766    1.7034352   -104.62423   -13033.775    4.3487978    4.3487978    4.3487978   -13033.775   -9403.1804    -12847.06   -16851.084   -5108.0621   -3852.6957    7676.7186    82.244646 
    4200    794.46766   -105.35002   0.71885104   -104.63117    8688.1176    4.3568273    4.3568273    4.3568273    8688.1176   -21726.454    31359.922    16430.885   -8308.5361    -16092.32    1823.1133    82.701052 
    4300    1601.6959   -106.05627    1.4492481   -104.60702   -14646.561    4.3512679    4.3512679    4.3512679   -14646.561   -14802.443   -20958.171   -8179.0674   -13087.354    327.56806    4970.5952    82.384869 
    4400    1127.7718   -105.62216    1.0204316   -104.60173    28986.333    4.3462528    4.3462528    4.3462528    28986.333    23620.645     58751.33    4587.0258   -16388.957   -6988.5271   -15241.524    82.100337 
    4500    1336.9924   -105.81072    1.2097388   -104.60098   -11149.402    4.3475376    4.3475376    4.3475376   -11149.402    21538.502   -53791.511   -1195.1973   -16149.137    -3243.182    11708.119    82.173168 
    4600    1305.9389   -105.78376     1.181641   -104.60212    14300.058    4.3424021    4.3424021    4.3424021    14300.058    27801.917    29090.329   -13992.073    4985.4379   -13292.083   -15216.454    81.882315 
    4700    1258.3274   -105.75058     1.138561   -104.61202   -21836.743    4.3485985    4.3485985    4.3485985   -21836.743   -13985.329   -34435.593   -17089.306   -27334.904   -7326.1376   -1800.8418     82.23334 
    4800    1352.4492   -105.83132    1.2237245   -104.60759    1095.6506    4.3489003    4.3489003    4.3489003    1095.6506    47505.075   -8734.2609   -35483.862    9345.7635   -205.22781   -5368.7116    82.250466 
    4900    1198.4911   -105.70084    1.0844199   -104.61642   -30991.107    4.3485968    4.3485968    4.3485968   -30991.107   -31216.619   -29853.781   -31902.921   -16727.145   -23107.444   -11028.426    82.233244 
    5000    1208.3412   -105.70833    1.0933325     -104.615    6131.8695    4.3344555    4.3344555    4.3344555    6131.8695    14616.306     14319.94   -10540.638   -15603.432    1150.4906    7881.8833    81.433604 
    5100    1385.0401   -105.88092    1.2532134    -104.6277   -1244.1848    4.3425011    4.3425011    4.3425011   -1244.1848    28985.549    11033.758   -43751.861    13587.124   -15727.585   -14794.095    81.887914 
    5200    889.60847   -105.42509   0.80493644   -104.62015   -13474.767    4.3655003    4.3655003    4.3655003   -13474.767    48193.966   -42416.317   -46201.949   -21487.368   -6127.7289    12173.961     83.19593 
    5300    1469.5476   -105.93108    1.3296776    -104.6014    418.43963    4.3402031    4.3402031    4.3402031    418.43963    18658.299   -31055.898    13652.917    12499.212    11603.654   -9998.8056    81.757983 
    5400    1204.2984   -105.70594    1.0896745   -104.61626    4382.0553    4.3344488    4.3344488    4.3344488    4382.0553    16805.561    43038.785    -46698.18   -9371.7185   -15585.279   -1944.6623    81.433226 
    5500    1065.6837   -105.59994   0.96425304   -104.63569    17684.518    4.3503575    4.3503575    4.3503575    17684.518       131518   -47966.901    -30497.55   -18200.195   -2411.7266   -3906.9793    82.333172 
    5600    1687.6767   -106.15027    1.5270453   -104.62323   -22883.151    4.3665042    4.3665042    4.3665042   -22883.151    -7992.817   -18654.161   -42002.475    5218.4084   -1643.1259   -8561.6067    83.253334 
    5700    1196.9495   -105.69867    1.0830251   -104.61565     2722.147    4.3413926    4.3413926    4.3413926     2722.147    52460.564    -31628.57   -12665.552   -9925.8845   -2420.6201   -6557.7931     81.82522 
    5800    1324.0137   -105.82485    1.1979954   -104.62686   -1358.8782    4.3297072    4.3297072    4.3297072   -1358.8782    56943.345   -34968.895   -26051.084      5952.86    7025.5222   -16981.722    81.166269 
    5900    1676.7672   -106.16657    1.5171742   -104.64939   -24262.028    4.3566865    4.3566865    4.3566865   -24262.028    2142.0307   -19872.847   -55055.267   -10639.387   -15149.902    5264.0696    82.693037 
    6000    567.61051   -105.15734   0.51358591   -104.64375   -38351.914    4.3702556    4.3702556    4.3702556   -38351.914    33936.974   -99375.712   -49617.004       -46828    874.00123    -12691.68      83.4681 
    6100    1926.6701   -106.34364    1.7432916   -104.60035    10149.398    4.3312062    4.3312062    4.3312062    10149.398    50617.999    12844.694   -33014.498    5492.8755   -4442.7706    2143.9346      81.2506 
    6200    1221.2981   -105.73041    1.1050562   -104.62536   -16900.053    4.3336151    4.3336151    4.3336151   -16900.053    689.05313   -18744.111   -32645.101   -18971.895   -515.45264   -5466.9341    81.386247 
    6300    1014.6883   -105.55792   0.91811132   -104.63981   -13763.883    4.3556466    4.3556466    4.3556466   -13763.883    29208.629   -31809.039   -38691.237   -22795.833    12450.357   -872.31361    82.633834 
    6400    1535.4962     -106.011    1.3893493   -104.62165   -12598.318    4.3617604    4.3617604    4.3617604   -12598.318    36555.396   -16216.334   -58134.015    10453.884   -2619.0494    -8743.791    82.982288 
    6500    929.84152   -105.46874   0.84134015    -104.6274   -24138.485    4.3457744    4.3457744    4.3457744   -24138.485    4446.0721   -46498.389   -30363.137   -28695.799    12180.396   -1652.4896    82.073233 
    6600    1472.0724    -105.9475    1.3319621   -104.61554    23055.382    4.3239714    4.3239714    4.3239714    23055.382    60828.263     22176.39   -13838.507   -3776.2642    1606.4293    530.19841    80.844119 
    6700     1025.281   -105.56804   0.92769577   -104.64035    11389.688    4.3419845    4.3419845    4.3419845    11389.688    76331.068   -14978.821   -27183.182   -16202.606   -14708.063   -12220.363     81.85869 
    6800    1313.6632   -105.81938      1.18863   -104.63075   -10674.573    4.3548259    4.3548259    4.3548259   -10674.573    26815.852   -16610.124   -42229.447   -29296.859    5281.2349    7874.1283    82.587135 
    6900    1687.9142   -106.12752    1.5272602   -104.60026       -12739     4.356142     4.356142     4.356142       -12739    15774.959    1717.9561   -55709.914     21594.94   -5848.8602   -8149.3534    82.662033 
    7000    519.04908   -105.07741   0.46964652   -104.60777    14148.756    4.3371977    4.3371977    4.3371977    14148.756    93103.046   -17893.149   -32763.628   -13044.279   -2448.2334    8693.6268    81.588258 
    7100    1765.3485   -106.20953    1.5973244    -104.6122   -2732.4527    4.3300166    4.3300166    4.3300166   -2732.4527   -19623.432    41540.729   -30114.655    1104.9143    18304.696   -582.18771    81.183671 
    7200    1297.2774   -105.80314    1.1738039   -104.62933    9531.7567    4.3431971    4.3431971    4.3431971    9531.7567    68382.076   -7123.5068   -32663.299   -22942.789    9900.3537    1810.4202    81.927294 
    7300    787.26755   -105.33945   0.71233623   -104.62712   -30038.738    4.3600526    4.3600526    4.3600526   -30038.738   -3666.0328   -75970.031   -10480.151   -26564.865    15544.611    17426.089    82.884857 
    7400    1852.1535   -106.27011    1.6758674   -104.59424   -1873.0382    4.3472597    4.3472597    4.3472597   -1873.0382    16175.786   -6416.9538   -15377.947    9110.1552    4832.9742     -5061.62    82.157415 
    7500    1139.5292   -105.63219      1.03107   -104.60112   -6408.1234    4.3292323    4.3292323    4.3292323   -6408.1234   -31177.446   -3553.3474    15506.423   -27372.245    7460.6642    2726.1765    81.139562 
    7600    1462.5153   -105.92821    1.3233146    -104.6049   -2695.1314    4.3300742    4.3300742    4.3300742   -2695.1314     4594.002    6078.5843   -18757.981    7134.5843    18392.556    7409.3312    81.186909 
    7700    1114.2116   -105.61692    1.0081621   -104.60876    7720.5449    4.3432093    4.3432093    4.3432093    7720.5449    10311.945    6070.4911    6779.1986    -25044.59    -9473.613   -3544.8965    81.927984 
    7800    1061.0085   -105.56872   0.96002281    -104.6087    -1579.816    4.3491588    4.3491588    4.3491588    -1579.816    8426.3409   -1671.5851   -11494.204   -23059.492    22142.153    6059.8941    82.265132 
    7900    1318.7085   -105.77946    1.1931951   -104.58627    16352.353    4.3486404    4.3486404    4.3486404    16352.353    53433.047    4353.1378   -8729.1257   -11747.081    2145.8755    688.21261    82.235719 
    8000    763.48111   -105.27801   0.69081375   -104.58719    389.28746    4.3431287    4.3431287    4.3431287    389.28746      24516.1    -4335.622   -19012.616   -50048.572    19394.522    10730.695    81.923424 
    8100    1395.1327   -105.84105    1.2623454    -104.5787    16950.546    4.3453336    4.3453336    4.3453336    16950.546    11153.886    24200.634    15497.117   -642.37225    26012.854    7247.2369    82.048257 
    8200    784.10481   -105.28883   0.70947451   -104.57935    15948.143    4.3512183    4.3512183    4.3512183    15948.143    11632.412    1015.9043    35196.112   -34430.768    14335.781    23190.939    82.382054 
    8300    1023.4861   -105.49703   0.92607173   -104.57096    10732.367    4.3473233    4.3473233    4.3473233    10732.367    4695.1869   -34092.618    61594.531   -4668.9362     31988.26    12107.214     82.16102 
    8400    1203.4585   -105.65909    1.0889146   -104.57018    19321.818    4.3455346    4.3455346    4.3455346    19321.818   -6929.8367   -34282.453    99177.743   -18254.642    17141.552    3895.0806    82.059647 
    8500    895.50257    -105.3919   0.81026954   -104.58163    8426.6087    4.3471537    4.3471537    4.3471537    8426.6087    30256.698   -5695.5992    718.72735   -13082.865    21956.238    17308.673    82.151406 
    8600    1306.2495    -105.7626     1.181922   -104.58067    95.014815      4.34091      4.34091      4.34091    95.014815    633.02628   -1684.1756    1336.1937    3680.2831     24131.13   -1959.2795    81.797934 
    8700    1208.2924   -105.68636    1.0932884   -104.59307   -6282.6898    4.3415094    4.3415094    4.3415094   -6282.6898     44328.42   -54964.402   -8212.0873   -39230.901    1366.3395    13087.113    81.831823 
    8800    1603.7129   -106.03604    1.4510731   -104.58496   -4236.5795    4.3436515    4.3436515    4.3436515   -4236.5795   -5877.2442    7994.4351   -14826.929    14424.767    15387.221   -1978.6807    81.953013 
    8900    1043.5987   -105.53837   0.94427003    -104.5941   -12196.451    4.3422233    4.3422233    4.3422233   -12196.451   -27838.739   -21552.324    12801.709   -30031.974   -8754.0836    9035.6988      81.8722 
    9000     1258.903   -105.73622    1.1390819   -104.59713    4821.0649    4.3374417    4.3374417    4.3374417    4821.0649    34432.702   -9830.3843   -10139.123   -15945.184    5353.4984    6819.8901    81.602029 
    9100    1622.0748   -106.06395    1.4676874   -104.59626    8324.2314    4.3360416    4.3360416    4.3360416    8324.2314    21317.674    11749.823   -8094.8025   -5586.7521   -6352.5565    3134.3668    81.523033 
    9200    1021.3505   -105.53725   0.92413943   -104.61311   -3157.8923    4.3413405    4.3413405    4.3413405   -3157.8923    15383.086   -7824.7056   -17032.058   -24103.981   -853.07881     17380.51    81.822273 
    9300    1368.8652   -105.84841     1.238578   -104.60984   -5696.8872    4.3411619    4.3411619    4.3411619   -5696.8872    -1735.764    13397.003   -28751.901    14394.486    24033.122   -2324.3201    81.812176 
    9400    1489.8198   -105.95823    1.3480203   -104.61021    389.66064     4.336387     4.336387     4.336387    389.66064    5232.8407    4253.8827   -8317.7414   -34391.337   -7783.6642    17621.683    81.542515 
    9500    1369.2598    -105.8565     1.238935   -104.61757   -13984.011    4.3422714    4.3422714    4.3422714   -13984.011   -8952.3728   -3593.3483   -29406.312   -1287.1573     18540.63   -1234.3747    81.874919 
    9600    934.94063   -105.45843   0.84595393   -104.61248   -7439.2405    4.3390533    4.3390533    4.3390533   -7439.2405    9524.1006   -23417.256   -8424.5661   -18341.044    5303.6384   -4826.3011     81.69302 
    9700    1060.4216   -105.56953   0.95949177   -104.61004    18456.824    4.3351281    4.3351281    4.3351281    18456.824    7527.9154   -31562.861    79405.417   -11072.525   -13568.949    3549.5188    81.471519 
    9800    1431.7914   -105.90301    1.2955149    -104.6075   -11726.164    4.3475384    4.3475384    4.3475384   -11726.164   -12511.969   -34407.544    11741.021   -7873.3544    6617.9029   -22557.392    82.173218 
    9900    927.38979   -105.44506   0.83912177   -104.60594    6229.3515    4.3434727    4.3434727    4.3434727    6229.3515   -9196.6556   -39155.724    67040.434   -27432.354   -9918.7708   -181.70734     81.94289 
   10000    1514.4253   -105.96135    1.3702839   -104.59106   -3754.0514    4.3423548    4.3423548    4.3423548   -3754.0514    37339.529   -33268.759   -15332.924    8752.1536    4650.8826   -11557.261     81.87964 
   10100      1206.95   -105.68706    1.0920738   -104.59498   -10681.569    4.3431849    4.3431849    4.3431849   -10681.569   -26946.465    171.44139   -5269.6843   -35629.599    18016.469   -8957.5847    81.926604 
   10200     1844.601   -106.26438    1.6690338   -104.59534   -8926.0932    4.3463069    4.3463069    4.3463069   -8926.0932   -5568.2805   -33383.758    12173.759    4822.5979   -8379.2921    9167.5412    82.103407 
   10300    1254.3156   -105.73796    1.1349311   -104.60303   -596.48117    4.3346957    4.3346957    4.3346957   -596.48117    23287.404   -10532.616   -14544.232    -7623.029    9256.5372   -8511.8517    81.447141 
   10400     758.2073   -105.29957   0.68604189   -104.61353    31577.381    4.3281425    4.3281425    4.3281425    31577.381    52991.715    20545.386    21195.042   -23271.546   -1472.6509   -314.90134    81.078301 
   10500    1657.7693   -106.10825    1.4999845   -104.60827    788.85604    4.3473804    4.3473804    4.3473804    788.85604    28139.216   -31798.089    6025.4411    16120.743   -11348.454   -804.65254    82.164257 
   10600    1166.6573   -105.66205    1.0556161   -104.60643   -22871.239    4.3468055    4.3468055    4.3468055   -22871.239   -9923.4519   -43900.969   -14789.296   -30347.165   -2635.0096   -523.99311    82.131663 
   10700    1461.8368   -105.92161    1.3227007   -104.59891    1064.6436     4.328736     4.328736     4.328736    1064.6436     9656.352   -13935.349    7472.9276    6427.9324    6625.9218    3016.2978    81.111664 
   10800    916.33584   -105.44562   0.82911992    -104.6165    30950.255    4.3288021    4.3288021    4.3288021    30950.255    101253.08     -19526.2    11123.881   -11150.248    6530.8893    1361.1965     81.11538 
   10900     1513.091   -105.99004    1.3690765   -104.62097   -27728.447     4.344035     4.344035     4.344035   -27728.447   -30631.966    -40946.58   -11606.795   -31736.154    437.02351    2993.3871    81.974723 
   11000    1302.3205   -105.78916     1.178367   -104.61079    7325.9859    4.3385249    4.3385249    4.3385249    7325.9859    59644.247   -36105.086   -1561.2036    16236.352   -7467.5634    777.26301     81.66318 
   11100    974.45173    -105.4938    0.8817044    -104.6121   -10292.187    4.3387176    4.3387176    4.3387176   -10292.187    6733.4662    -54994.56    17384.532   -32506.188   -8235.2963    983.09801    81.674061 
   11200    1519.9767   -105.97994    1.3753068   -104.60464    16049.795    4.3365288    4.3365288    4.3365288    16049.795    60846.047   -9625.0442   -3071.6178    19019.537    3313.5483     4603.341    81.550512 
   11300    1169.4268   -105.67523    1.0581219   -104.61711   -28627.264    4.3440576    4.3440576    4.3440576   -28627.264   -35977.341   -58493.583    8589.1324   -7223.9841   -2966.5792     1049.489    81.976003 
   11400    1208.7783   -105.70458     1.093728   -104.61085     4061.974    4.3359551    4.3359551    4.3359551     4061.974    43767.961   -20287.896   -11294.143   -21681.232    9671.4668    8755.8945     81.51815 
   11500    1283.2357     -105.781    1.1610986    -104.6199    18941.658    4.3292704    4.3292704    4.3292704    18941.658    96765.384     -26200.4    -13740.01    6769.8955     11321.86    2876.8313    81.141707 
   11600    989.96873   -105.53788   0.89574451   -104.64213    28358.153     4.328867     4.328867     4.328867    28358.153    67321.025   -15229.407    32982.841   -30571.056     -9847.49    3832.1844    81.119024 
   11700    1650.8557   -106.12019    1.4937289   -104.62647    -20223.91    4.3529888    4.3529888    4.3529888    -20223.91   -1700.8508   -27579.851   -31391.029    6593.4283     18386.31    6458.3409     82.48266 
   11800    1097.5368   -105.60897   0.99307435    -104.6159    24094.059    4.3342988    4.3342988    4.3342988    24094.059    70381.668   -29533.625    31434.134   -21066.069   -8151.6209    4477.5616     81.42477 
   11900    1318.8978   -105.79994    1.1933665   -104.60658    25969.792    4.3237965    4.3237965    4.3237965    25969.792     35354.21    26419.746    16135.419    3399.9974    2399.4683    4938.3176    80.834311 
   12000    1802.2593   -106.23575    1.6307221   -104.60502   -19538.402     4.348583     4.348583     4.348583   -19538.402    8719.7976   -50831.389   -16503.614   -931.66989   -11402.419    -1534.372    82.232463 
   12100    578.31705    -105.1442   0.52327342   -104.62093   -7068.2114    4.3476194    4.3476194    4.3476194   -7068.2114   -13694.754   -20512.809    13002.929   -21971.538      10514.6    8451.9639     82.17781 
   12200    1855.9146   -106.28064    1.6792705   -104.60137    11014.301    4.3306478    4.3306478    4.3306478    11014.301    28977.751    21730.999   -17665.848    12927.385   -4889.5552    5809.3262    81.219177 
   12300    1355.9334    -105.8426    1.2268771   -104.61573   -17514.324    4.3391394    4.3391394    4.3391394   -17514.324   -613.48356   -47611.096   -4318.3931   -25139.021    4710.4525   -8433.8637    81.697883 
   12400    743.99822   -105.29775   0.67318523   -104.62456    28465.595    4.3408824    4.3408824    4.3408824    28465.595    88744.314    17582.306   -20929.835    14790.058    13940.394    7236.9541    81.796377 
   12500    1755.2777   -106.20501    1.5882121   -104.61679    -12862.23    4.3496131    4.3496131    4.3496131    -12862.23    -5239.953   -14792.851   -18553.887   -8996.2485    -476.1318   -11699.033    82.290912 
   12600    1379.4646    -105.8711    1.2481686   -104.62293   -10297.632    4.3389828    4.3389828    4.3389828   -10297.632   -10145.023   -10510.601   -10237.271   -12958.401     4493.569    5104.7961     81.68904 
   12700     1244.229    -105.7571    1.1258045    -104.6313     4130.075     4.336517     4.336517     4.336517     4130.075    72639.221   -16447.241   -43801.755    14637.576   -2695.1621   -12759.447     81.54985 
   12800    1294.3507   -105.80706    1.1711557   -104.63591    4551.4432    4.3420599    4.3420599    4.3420599    4551.4432     23737.36   -23801.738    13718.707   -33256.256   -7863.1071    2651.4791     81.86296 
   12900    1292.4065   -105.80079    1.1693965   -104.63139   -12874.737    4.3461579    4.3461579    4.3461579   -12874.737    -8528.417   -20535.854   -9559.9395    14660.588    13822.569     -12659.8    82.094959 
   13000    1165.8337   -105.67631    1.0548708   -104.62144    7604.5901    4.3463211    4.3463211    4.3463211    7604.5901    53376.422   -14963.028   -15599.623   -4903.8435   -1064.7874   -14419.894    82.104209 
   13100    1275.6914   -105.76758    1.1542724   -104.61331    14151.113    4.3487887    4.3487887    4.3487887    14151.113    36981.242    5353.4427    118.65529    632.76101    25402.302     2535.728    82.244132 
   13200    1278.3774   -105.76686    1.1567027   -104.61016   -26760.981    4.3566309    4.3566309    4.3566309   -26760.981   -28242.316   -50366.494   -1674.1336    21634.618   -2402.5579   -26671.064    82.689871 
   13300     1395.677   -105.86061    1.2628379   -104.59777    27397.018    4.3383429    4.3383429    4.3383429    27397.018    67089.039    20221.648   -5119.6316   -28148.573   -9224.9453   -3405.9048    81.652904 
   13400    1081.0321   -105.60069   0.97814053   -104.62255   -9797.5573    4.3345853    4.3345853    4.3345853   -9797.5573   -8719.0852   -17714.421   -2959.1652    22603.017    2969.7372    -7765.127    81.440916 
   13500    1393.2952   -105.89342    1.2606828   -104.63274   -7016.3659    4.3419731    4.3419731    4.3419731   -7016.3659    2252.5668   -2508.7333   -20792.931     8654.503    -12044.16   -5049.0963    81.858047 
   13600    1376.9357    -105.8702    1.2458803   -104.62431    2933.4695    4.3449078    4.3449078    4.3449078    2933.4695    13649.598    18560.785   -23409.975    2749.2603    6574.1889    3409.6184    82.024141 
   13700    968.23817    -105.4993   0.87608224   -104.62322   -31094.443    4.3428506    4.3428506    4.3428506   -31094.443   -5986.3728   -66361.012   -20935.943    23027.109   -7715.2043   -20123.968    81.907686 
   13800    1309.4458   -105.79792    1.1848141   -104.61311    41224.784    4.3355522    4.3355522    4.3355522    41224.784    74681.919    43606.481    5385.9514   -8450.5266     3784.938    -318.7471     81.49543 
   13900    1528.2244   -106.00366    1.3827696   -104.62089   -32581.346    4.3478415    4.3478415    4.3478415   -32581.346   -4126.3322   -49552.581   -44065.125    8140.9006    4664.5807   -13900.464    82.190402 
   14000    988.90015   -105.51298   0.89477764    -104.6182    9266.5294    4.3473238    4.3473238    4.3473238    9266.5294    55775.911   -2115.4706   -25860.853     16907.47    467.54005    1896.9258    82.161045 
   14100    1696.6134   -106.14363    1.5351314    -104.6085   -8344.6071    4.3455712    4.3455712    4.3455712   -8344.6071   -7644.2024     5391.664   -22781.283   -6930.1123    17857.649    -10774.21    82.061717 
   14200    1206.9892   -105.70672    1.0921092   -104.61461   -9781.6324    4.3452853    4.3452853    4.3452853   -9781.6324    17291.929   -15476.643   -31160.183    21310.706   -2642.5074    8038.7356    82.045525 
   14300    1178.2591   -105.68188    1.0661136   -104.61576    1159.8498    4.3417358    4.3417358    4.3417358    1159.8498    1856.6171     19103.04   -17480.108   -23280.003    10388.679   -4216.8716    81.844626 
   14400    1762.0963   -106.20549    1.5943817   -104.61111   -13277.866    4.3389542    4.3389542    4.3389542   -13277.866    21154.975   -29940.231   -31048.342    10745.167   -1394.1577    1671.0581    81.687421 
   14500    823.60626   -105.36745   0.74521625   -104.62223     6569.622    4.3415308    4.3415308    4.3415308     6569.622    39831.885   -8735.6962   -11387.323   -10538.838   -4139.6857      9156.49    81.833038 
   14600    1456.1322   -105.93884     1.317539    -104.6213    255.67452    4.3505546    4.3505546    4.3505546    255.67452    27326.742     -7117.48   -19442.238   -4098.5494    -2596.156   -6959.9448    82.344361 
   14700     1517.205   -105.99565     1.372799   -104.62285   -17151.747    4.3417709    4.3417709    4.3417709   -17151.747   -1757.7026   -19599.558    -30097.98    11993.858    -8021.282    12359.881    81.846614 
   14800    843.44798   -105.38659   0.76316945   -104.62342    25990.202    4.3282179    4.3282179    4.3282179    25990.202    71012.795    7052.9034   -95.092531   -10383.675     687.1723    1467.3254    81.082543 
   14900    1645.9601   -106.11513    1.4892993   -104.62583   -3391.4904      4.34152      4.34152      4.34152   -3391.4904    32186.966   -695.32588   -41666.111   -15526.857    12522.607    5619.7162    81.832427 
   15000    1363.0722   -105.86733    1.2333363     -104.634   -20168.523    4.3465919    4.3465919    4.3465919   -20168.523   -21900.893    -124.9776   -38479.697    10050.446    1595.2112    8663.4363     82.11956 
   15100    925.42809   -105.46554   0.83734678   -104.62819    9201.7857    4.3369018    4.3369018    4.3369018    9201.7857    20756.881    18403.767   -11555.291   -17775.484    713.11108     454.2481    81.571559 
   15200    1282.3403   -105.78109    1.1602885   -104.62081   -1626.9642    4.3284683    4.3284683    4.3284683   -1626.9642    -13904.17    21857.217    -12833.94    9425.9641    12455.247    18073.799    81.096616 
   15300    1439.4892   -105.92532    1.3024801   -104.62284   -8572.4161    4.3376156    4.3376156    4.3376156   -8572.4161   -17959.752   -13749.269    5991.7723   -8311.6842   -9488.1517   -7238.0776    81.611843 
   15400    1399.7668    -105.8715    1.2665384   -104.60497   -11950.821     4.341731     4.341731     4.341731   -11950.821   -24746.728     6954.312   -18060.047   -4816.7472     23341.38    8460.4666    81.844355 
   15500    858.89213   -105.38575   0.77714365   -104.60861    4172.1025    4.3415885    4.3415885    4.3415885    4172.1025   -31559.633    35437.888    8638.0525    3109.1031   -5414.4228   -2021.2995    81.836299 
   15600    1689.4237   -106.13305     1.528626   -104.60442   -5763.9463    4.3289442    4.3289442    4.3289442   -5763.9463   -13237.162    1063.2751   -5117.9524   -5567.0927    17017.949   -2585.0085    81.123368 
   15700    1144.7245   -105.65339    1.0357708   -104.61762    4955.1906     4.333344     4.333344     4.333344    4955.1906    904.83267    34949.832   -20989.093    1084.0919    13289.024    26529.387    81.370974 
   15800    1543.5103   -106.00721    1.3966006   -104.61061   -16001.971    4.3357196    4.3357196    4.3357196   -16001.971   -13185.068   -25584.264   -9236.5808    -447.5922   -6521.2654   -130.51643    81.504873 
   15900     967.1278   -105.49371   0.87507756   -104.61863    5131.0152    4.3390583    4.3390583    4.3390583    5131.0152    25621.614    38185.489   -48414.058   -2791.0069    29133.576    9657.6721    81.693304 
   16000     1823.127   -106.25323    1.6496036   -104.60363   -4768.7386     4.334442     4.334442     4.334442   -4768.7386   -2528.8371    13394.059   -25171.438    12788.811   -10731.075    16992.226     81.43284 
   16100    692.64723   -105.24012   0.62672177    -104.6134    26919.258     4.321496     4.321496     4.321496    26919.258    11144.524    97967.629   -28354.377   -24610.429    29934.573   -11587.605    80.705352 
   16200    1458.7505   -105.94855    1.3199081   -104.62864   -25622.265    4.3322517    4.3322517    4.3322517   -25622.265   -32501.072   -4253.0794   -40112.645    3043.7704   -3763.2027    12860.109    81.309452 
   16300    1580.4874   -106.05181    1.4300582   -104.62175    5086.7442     4.337752     4.337752     4.337752    5086.7442    21392.553     24617.81    -30750.13   -3009.7773    14521.207   -4431.1017    81.619545 
   16400    1158.7833   -105.66017    1.0484915   -104.61168   -12583.746    4.3307746    4.3307746    4.3307746   -12583.746   -21866.635    5814.6437   -21699.246   -14141.835    17536.167     9646.687    81.226314 
   16500     1031.222   -105.53461    0.9330713   -104.60154      19106.7    4.3190931    4.3190931    4.3190931      19106.7    3109.1149    54829.726   -618.74198    8994.9772     -19619.4    10075.607    80.570805 
   16600    1446.1408   -105.92252    1.3084986   -104.61402    2721.0821    4.3256395    4.3256395    4.3256395    2721.0821   -14718.657     24497.86   -1615.9566   -18619.122    35714.222    4427.0664    80.937718 
   16700    1361.2517   -105.84823    1.2316891   -104.61654   -6624.0702    4.3344346    4.3344346    4.3344346   -6624.0702   -10009.726    4697.5396   -14560.024   -5266.0616   -12741.568    14819.294    81.432426 
   16800    1035.7897   -105.55104   0.93720428   -104.61383    6005.1768     4.333238     4.333238     4.333238    6005.1768     9454.469    43271.453   -34710.392   -7097.5821    22656.193   -4004.7644       81.365 
   16900    1130.9967   -105.63286    1.0233496   -104.60951   -1297.7886    4.3339032    4.3339032    4.3339032   -1297.7886    1248.0029   -9926.7961    4785.4275   -17571.128    10110.548     9548.759    81.402474 
   17000    1661.9349   -106.10295    1.5037536    -104.5992    18863.701    4.3241233    4.3241233    4.3241233    18863.701    48178.832    24723.674   -16311.401   -2589.0274   -2101.3959    5003.4839     80.85264 
   17100    1150.0795   -105.64923    1.0406161   -104.60861   -17177.695    4.3361912    4.3361912    4.3361912   -17177.695   -34240.632     8260.377   -25552.828   -6979.5625    23861.256   -6056.5839    81.531468 
   17200      1297.77   -105.77143    1.1742496   -104.59718   -11014.797    4.3378008    4.3378008    4.3378008   -11014.797   -42207.885    7585.6505    1577.8427   -3458.0622   -500.14426    14608.652    81.622298 
   17300    1696.5914   -106.13201    1.5351116    -104.5969   -4631.3192    4.3315577    4.3315577    4.3315577   -4631.3192    -12725.89    10052.718   -11220.785    6512.5494    14949.645   -12562.526    81.270386 
   17400    1228.5855   -105.71461      1.11165   -104.60296   -21865.278    4.3443513    4.3443513    4.3443513   -21865.278    -34827.87   -13272.495   -17495.469   -12430.257    9038.8147    4943.1654    81.992627 
   17500     1236.105   -105.70503    1.1184538   -104.58658    16525.116    4.3324614    4.3324614    4.3324614    16525.116   -15546.354    54662.178    10459.523    13260.073    801.24996   -7859.6424    81.321261 
   17600    1025.3769   -105.53417   0.92778258   -104.60638   -17044.416    4.3294552    4.3294552    4.3294552   -17044.416   -37021.237    2132.1802   -16244.191   -16789.435    19042.167   -4204.6067      81.1521 
   17700     1889.786   -106.31091    1.7099181   -104.60099    13744.495    4.3291937    4.3291937    4.3291937    13744.495    21447.424    17935.104    1850.9573   -332.57174    4763.4752   -6077.9574    81.137395 
   17800    807.85484   -105.35078   0.73096403   -104.61982    15263.794    4.3281466    4.3281466    4.3281466    15263.794     16214.45    18697.214    10879.718   -13201.477    6770.7676   -2383.6825    81.078534 
   17900    1287.2786   -105.77778    1.1647567   -104.61302   -22353.746    4.3462841    4.3462841    4.3462841   -22353.746   -20332.989   -26996.259    -19731.99   -7902.4977    7399.3916   -10291.286    82.102114 
   18000     1609.284   -106.05909    1.4561139   -104.60298    24086.357    4.3278432    4.3278432    4.3278432    24086.357    19799.674    29093.074    23366.324    -1584.214     3221.658   -7320.6962    81.061487 
   18100     1053.459    -105.5668   0.95319181   -104.61361    5256.5254     4.321369     4.321369     4.321369    5256.5254   -10914.091    22024.324    4659.3429   -21592.102    4856.1146    -13791.77    80.698237 
   18200    1468.2964   -105.93197    1.3285455   -104.60342   -7615.6256    4.3362969    4.3362969    4.3362969   -7615.6256   -53975.271    32013.465   -885.07084   -1241.2135   -18543.749    4519.9023    81.537435 
   18300    1111.1243   -105.60851    1.0053687   -104.60314    4228.9222    4.3390191    4.3390191    4.3390191    4228.9222    11228.611    11732.852   -10274.696   -18881.153    7152.7946    3915.4461    81.691088 
   18400    1726.6707   -106.15532     1.562328   -104.59299   -24573.963    4.3413691    4.3413691    4.3413691   -24573.963   -12414.421   -22895.577    -38411.89   -9427.6819   -20320.785    4154.4637    81.823891 
   18500    1020.8836   -105.51483   0.92371697   -104.59111   -710.48247     4.320299     4.320299     4.320299   -710.48247   -47539.392    40511.645    4896.3002   -4821.6861   -19894.292    14628.446    80.638309 
   18600     1638.141   -106.08272    1.4822244    -104.6005   -10164.138    4.3293971    4.3293971    4.3293971   -10164.138    234.29096   -33825.262    3098.5581   -12984.908    12878.136   -964.58896    81.148831 
   18700    1414.2833   -105.87112    1.2796732   -104.59144   -23739.694    4.3571833    4.3571833    4.3571833   -23739.694   -20009.046   -16418.005    -34792.03    14406.074   -23824.296    15822.931    82.721328 
   18800    1340.7742   -105.78848    1.2131607   -104.57532    -25218.08    4.3496339    4.3496339    4.3496339    -25218.08   -39340.191   -25761.475   -10552.573   -13464.198    17117.586   -252.38426    82.292092 
   18900    1458.3049   -105.89654     1.319505   -104.57704   -7.8609373    4.3235287    4.3235287    4.3235287   -7.8609373    6214.4059    1045.7186   -7283.7074    8132.3137   -22856.052    2658.8271    80.819292 
   19000    1323.3376   -105.78855    1.1973837   -104.59117    33312.854    4.3116204    4.3116204    4.3116204    33312.854    43136.936     23160.31    33641.317   -1014.7031   -12536.196    6394.8212    80.153326 
   19100    1366.3212   -105.85619    1.2362761   -104.61992   -10651.313    4.3392581    4.3392581    4.3392581   -10651.313    8130.1888   -16712.017    -23372.11   -25366.971     12490.19   -9645.7491    81.704591 
   19200    1225.9123   -105.71274    1.1092312   -104.60351   -24573.751    4.3477111    4.3477111    4.3477111   -24573.751   -54610.625   -2357.4129   -16753.216    3252.6221   -35866.924   -3307.6812    82.183009 
   19300    1357.5584   -105.81752    1.2283474   -104.58917    21928.683    4.3211684    4.3211684    4.3211684    21928.683   -11000.445    43417.557    33368.936   -34144.942    24362.841   -1469.3681    80.687001 
   19400     1722.722   -106.15543     1.558755   -104.59667   -9727.1792     4.329556     4.329556     4.329556   -9727.1792   -25951.644    9067.9184   -12297.813   -3153.2418   -20104.345   -2757.5563    81.157765 
   19500    997.52132   -105.49851   0.90257826   -104.59593    2431.4798    4.3405175    4.3405175    4.3405175    2431.4798   -49493.252    35652.291      21135.4   -12321.624    14541.136     11382.31    81.775752 
   19600    1317.1806   -105.79007    1.1918127   -104.59826   -16083.556     4.340488     4.340488     4.340488   -16083.556   -33982.874   -11902.053   -2365.7402   -6131.7786    -1931.971   -3994.1806     81.77408 
   19700    1801.4395   -106.22357    1.6299803   -104.59359    19197.793    4.3239536    4.3239536    4.3239536    19197.793    20935.986    34808.427    1848.9658    1033.7337    -1877.675    9556.5846     80.84312 
   19800    683.11684   -105.22458   0.61809847   -104.60648    20706.535    4.3111387    4.3111387    4.3111387    20706.535    2363.9926    12485.997    47269.614   -19681.199    13243.815    5583.9524    80.126468 
   19900    1762.1107   -106.20021    1.5943948   -104.60582   -1483.0844    4.3318694    4.3318694    4.3318694   -1483.0844    3359.7983   -3861.9224   -3947.1291   -1023.1644   -8945.2535   -2750.1323    81.287929 
   20000    1081.8622   -105.59191   0.97889169   -104.61302    6472.5846    4.3385669    4.3385669    4.3385669    6472.5846   -4483.4022    10664.184    13236.972   -25662.678    19793.452    13134.179    81.665553 
   20100    1576.2068   -106.02598     1.426185    -104.5998   -399.88805    4.3284019    4.3284019    4.3284019   -399.88805    -11441.55    -14935.68    25177.566    5552.6585   -150.91732    9815.4076    81.092883 
   20200    1141.7217   -105.63498    1.0330538   -104.60192    11928.331    4.3244784    4.3244784    4.3244784    11928.331   -26367.203    40083.824    22068.371   -8376.1899   -4651.8984   -524.44356    80.872564 
   20300    1093.9199   -105.60955   0.98980175   -104.61975   -5046.5647    4.3302495    4.3302495    4.3302495   -5046.5647    666.81218   -41374.931    25568.425   -12644.589    5963.5541    2354.8445    81.196774 
   20400    1928.1256   -106.34425    1.7446085   -104.59964    7930.5168    4.3379058    4.3379058    4.3379058    7930.5168   -569.96108    2393.4033    21968.108    12755.521   -21398.903   -4908.4514    81.628222 
   20500    416.89366   -104.98442   0.37721414    -104.6072     6208.025    4.3291709    4.3291709    4.3291709     6208.025   -31134.649    10828.578    38930.146   -19063.874    13881.707   -4138.8311    81.136111 
   20600     1939.918   -106.34302    1.7552785   -104.58774    5412.8495    4.3293104    4.3293104    4.3293104    5412.8495    33123.811    -14395.91   -2489.3524    15147.741    4442.0006   -2648.6929    81.143953 
   20700    1441.6991    -105.9053    1.3044796   -104.60082   -11968.553     4.336254     4.336254     4.336254   -11968.553   -11876.416   -18880.092    -5149.152   -16212.138   -2916.4003    4673.0784     81.53501 
   20800    982.98713   -105.49179   0.88942741   -104.60236    14518.976    4.3353818    4.3353818    4.3353818    14518.976    29224.028    10194.415    4138.4848    844.89644    17097.347    4338.2298    81.485819 
   20900    1540.4212   -105.99178    1.3938055   -104.59798   -23124.413    4.3352027    4.3352027    4.3352027   -23124.413    -40646.88   -27722.071   -1004.2885   -12682.672   -25920.012    -2752.821    81.475723 
   21000    1230.8301   -105.72418    1.1136809    -104.6105    10819.266    4.3187042    4.3187042    4.3187042    10819.266     14124.29   -2162.3246    20495.833   -11044.467     14388.99    9137.2165    80.549042 
   21100    1502.2089   -105.97957    1.3592302   -104.62034    22438.597    4.3360429    4.3360429    4.3360429    22438.597    26209.792    3248.6624    37857.338   -1561.8085     13807.46    -7116.785    81.523107 
   21200    602.51138   -105.15767   0.54516496   -104.61251   -37616.753    4.3513042    4.3513042    4.3513042   -37616.753   -64218.351   -49680.043    1048.1347    -27868.69    -16576.78   -859.45778    82.386934 
   21300    1780.5733   -106.18592    1.6111001   -104.57482    20182.089    4.3184968    4.3184968    4.3184968    20182.089    51284.237   -4696.7596    13958.791     7149.585    32218.293    4017.8362    80.537437 
   21400    1168.7323   -105.65631    1.0574935   -104.59881   -25894.227     4.329667     4.329667     4.329667   -25894.227   -45948.106   -31588.088   -146.48753   -11385.117   -35377.935    2238.3963    81.164006 
   21500    1173.1764   -105.66098    1.0615146   -104.59947   -22964.656    4.3322926    4.3322926    4.3322926   -22964.656    -44397.47   -10574.266   -13922.231   -15501.141   -2440.8334   -232.85829    81.311754 
   21600    1260.3752    -105.7456     1.140414   -104.60518     18256.85    4.3281723    4.3281723    4.3281723     18256.85    43189.914   -8421.8671    20002.503    5378.2994   -764.35498   -688.07103    81.079976 
   21700    971.43798    -105.5041    0.8789775   -104.62512   -23259.107    4.3432945    4.3432945    4.3432945   -23259.107   -19305.545   -60969.356    10497.581   -20253.096   -13544.798     38.48563    81.932806 
   21800    1631.6883   -106.07444    1.4763858   -104.59805    29608.526    4.3392991    4.3392991    4.3392991    29608.526    68755.444    7630.8896    12439.245    7582.4782    13210.558    3793.7623    81.706903 
   21900    651.72072   -105.19307   0.58969061   -104.60338   -30825.822    4.3448952    4.3448952    4.3448952   -30825.822   -80607.176   -6075.2287   -5795.0611    -28975.47   -19950.719    6939.0908     82.02343 
   22000    1778.9303   -106.19148    1.6096135   -104.58186    10308.675    4.3321404    4.3321404    4.3321404    10308.675    11935.343   -2834.0507    21824.733    4191.4282    312.07559    1496.1624    81.303185 
   22100    1165.3954    -105.6547    1.0544742   -104.60022    3625.9422    4.3322665    4.3322665    4.3322665    3625.9422   -11108.331    41419.393   -19433.235    560.89964    -4149.964    10679.116    81.310289 
   22200     975.8044   -105.49356   0.88292832   -104.61063   -16004.687      4.33246      4.33246      4.33246   -16004.687   -31519.417    -17511.76    1017.1172   -14298.913   -24807.282       6810.1    81.321183 
   22300    1572.5677   -106.03346    1.4228923   -104.61057    23021.628    4.3255024    4.3255024    4.3255024    23021.628    23506.904     41709.55    3848.4291    8196.5857    20810.035   -1380.6324    80.930025 
   22400    1210.3913   -105.71606    1.0951875   -104.62087   -3037.0704     4.346256     4.346256     4.346256   -3037.0704    10730.805   -1782.6749   -18059.341   -26438.174   -14081.047    6104.5496    82.100518 
   22500    1612.4694   -106.05279    1.4589962   -104.59379   -10288.976    4.3472459    4.3472459    4.3472459   -10288.976    11262.585   -12947.629   -29181.884    864.45943    18552.776   -7102.2129     82.15663 
   22600    927.76808   -105.43174   0.83946406   -104.59228    37451.816    4.3207257    4.3207257    4.3207257    37451.816    19554.945    83980.041    8820.4604   -4749.2024    4529.8807   -170.81926    80.662205 
   22700    1445.3437   -105.91461    1.3077773   -104.60684    15915.358    4.3320487    4.3320487    4.3320487    15915.358    51747.797   -7198.8231    3197.0999   -19398.445      4920.46     -2086.39    81.298025 
   22800    1389.1729   -105.86344    1.2569529   -104.60649   -15707.619    4.3488289    4.3488289    4.3488289   -15707.619     -37626.2    42412.716   -51909.372   -602.74454    28033.368    5182.7112    82.246413 
   22900    1344.3469    -105.8126    1.2163933    -104.5962   -6638.4294    4.3400941    4.3400941    4.3400941   -6638.4294   -33276.226   -3691.9201    17052.858   -2200.6095   -17620.357    3786.1275     81.75182 
   23000    1236.1978   -105.71517    1.1185378   -104.59664    5807.8144    4.3334864    4.3334864    4.3334864    5807.8144    -11042.85    74032.558   -45566.266   -20346.627    42757.551   -500.90408    81.378993 
   23100    1487.4704   -105.94535    1.3458945   -104.59945   -6188.7405    4.3389636    4.3389636    4.3389636   -6188.7405   -4917.9613   -11027.981   -2620.2794   -6616.7235   -15745.048    2856.9919    81.687954 
   23200    1291.4785   -105.76825    1.1685569   -104.59969   -14459.049    4.3387269    4.3387269    4.3387269   -14459.049   -53964.798     47859.32    -37271.67    1794.7435    27459.446     128.2067    81.674586 
   23300    1052.6842   -105.55816   0.95249082   -104.60567   -559.87898    4.3449683    4.3449683    4.3449683   -559.87898    26172.072    1586.7704    -29438.48   -9080.9106    6226.4443   -8639.5053    82.027571 
   23400    1695.0865   -106.13178    1.5337499   -104.59803   -21384.189    4.3397819    4.3397819    4.3397819   -21384.189    -16220.25   -27956.476    -19975.84   -9213.5824   -5182.8721    4353.5643    81.734183 
   23500    982.36296   -105.49274   0.88886265   -104.60388     22396.85    4.3235259    4.3235259    4.3235259     22396.85    31925.664    55846.217   -20581.333   -2248.4796    38887.566    -3407.497    80.819133 
   23600    1523.2381   -105.99005    1.3782578   -104.61179   -1509.1873    4.3437104    4.3437104    4.3437104   -1509.1873    12213.114   -5886.8909   -10853.785   -8691.6135   -16049.041   -3070.5742    81.956346 
   23700    1152.1977   -105.65119    1.0425327   -104.60865    -14396.66    4.3493493    4.3493493    4.3493493    -14396.66    21511.522   -26412.556   -38288.944      3096.31    34935.736   -5944.1558     82.27594 
   23800    1656.6816    -106.0997    1.4990003    -104.6007    6825.6126    4.3393864    4.3393864    4.3393864    6825.6126     22506.35    1347.1524    -3376.665   -2556.6935    2087.3326   -2879.7265    81.711838 
   23900    1092.0908   -105.59153   0.98814669   -104.60338    25741.416    4.3320848    4.3320848    4.3320848    25741.416    61351.504    35847.636    -19974.89   -9180.9697    3575.9724    222.93775    81.300054 
   24000     1163.856     -105.671    1.0530814   -104.61792   -24201.106    4.3382696    4.3382696    4.3382696   -24201.106   -19046.988   -22049.378   -31506.953    5655.1823    38100.685   -11731.706    81.648762 
   24100    1751.1309   -106.19073      1.58446   -104.60627    12149.441    4.3438939    4.3438939    4.3438939    12149.441    39860.985   -12554.516    9141.8527    14751.228   -11294.109    938.24459    81.966735 
   24200    730.70161   -105.28097   0.66115417   -104.61981   -4599.1432    4.3461227    4.3461227    4.3461227   -4599.1432    22345.912    13150.671   -49294.012    -2276.335     33695.38   -8411.5798    82.092965 
   24300    1615.1699   -106.06719    1.4614397   -104.60575   -5782.9543     4.337304     4.337304     4.337304   -5782.9543   -19519.769   -16351.323    18522.229     15649.63   -7017.2518   -6874.1405    81.594257 
   24400    1456.4529   -105.92799    1.3178292   -104.61016    3974.8177    4.3267757    4.3267757    4.3267757    3974.8177    34896.479    4636.1717   -27608.198    3690.0206    19608.557   -4250.6934    81.001515 
   24500    902.41566   -105.44127   0.81652465   -104.62474    7822.5178    4.3429926    4.3429926    4.3429926    7822.5178    2423.6323    291.96423    20751.957   -867.94617    14101.176   -4396.0212    81.915725 
   24600    1701.9587    -106.1393     1.539968   -104.59933   -16246.412    4.3496255    4.3496255    4.3496255   -16246.412   -34099.085    11904.294   -26544.444    5185.9348     8297.707    4663.2835    82.291618 
   24700    1062.5976   -105.55565   0.96146061   -104.59419    17500.765    4.3350325    4.3350325    4.3350325    17500.765    13733.168    20278.074    18491.054   -3371.2491    24384.919   -9823.2151    81.466127 
   24800    1512.6577   -105.95597    1.3686845   -104.58728   -4288.9461    4.3401704    4.3401704    4.3401704   -4288.9461   -576.60358   -3759.4654   -8530.7692   -323.27189   -7689.1055   -92.632623    81.756134 
   24900    1215.0904   -105.69387    1.0994393   -104.59443    5157.1838    4.3364049    4.3364049    4.3364049    5157.1838   -35256.928    34673.456    16055.024    245.25086    38231.812    2326.6986    81.543527 
   25000    1398.6323     -105.866    1.2655119   -104.60048    18262.354    4.3414404    4.3414404    4.3414404    18262.354    25029.174   -4441.2207     34199.11   -10996.544   -17573.674   -3611.9411    81.827925 
   25100    1291.2776   -105.77441    1.1683751   -104.60604   -26607.474    4.3480081    4.3480081    4.3480081   -26607.474   -46645.451    10442.244   -43619.214    6418.6602    36681.551    -6141.989    82.199852 
   25200    1062.9881   -105.56802   0.96181394   -104.60621    34193.654    4.3256411    4.3256411    4.3256411    34193.654    9306.4032    54192.633    39081.927   -20948.252    9737.4616    376.05291     80.93781 
   25300    1505.9439   -105.97297    1.3626097   -104.61036   -1170.0461    4.3320843    4.3320843    4.3320843   -1170.0461   -19108.265    37893.067   -22294.939   -1062.8777    8064.8652   -20636.003    81.300027 
   25400    913.49169   -105.43804   0.82654647   -104.61149   -14166.103    4.3487418    4.3487418    4.3487418   -14166.103   -42769.607    22535.921   -22264.622   -12880.037    45070.147    6613.9086    82.241472 
   25500    1566.4638   -106.01411    1.4173693   -104.59674    16291.277     4.335771     4.335771     4.335771    16291.277   -17273.027    33554.249     32592.61   -8344.3115    -16709.92   -14969.468     81.50777 
   25600    1005.1861   -105.52379   0.90951347   -104.61428   -31004.761    4.3423052    4.3423052    4.3423052   -31004.761    -58904.87   -2795.8294   -31313.582    5680.3374    56514.207   -5803.2172    81.876833 
   25700    1637.0821   -106.08141    1.4812663   -104.60014    13688.934    4.3444007    4.3444007    4.3444007    13688.934   -16590.648    20952.813    36704.637   -3967.2653   -13495.274    6226.2014    81.995427 
   25800    1138.3621   -105.63516     1.030014   -104.60514   -24542.996    4.3539096    4.3539096    4.3539096   -24542.996   -54936.489    16062.448   -34754.948    2664.0869    45843.301    7359.8429    82.535015 
   25900    1641.3364   -106.06637    1.4851157   -104.58125   -15753.609    4.3382544    4.3382544    4.3382544   -15753.609   -22436.293   -26471.553    1647.0197    9304.3106    6468.9577    -5264.999    81.647906 
   26000    1264.6747   -105.73637    1.1443042   -104.59206    13191.252    4.3276526    4.3276526    4.3276526    13191.252    -29345.17    69189.123   -270.19874   -6992.4442    20006.113    3583.0277    81.050775 
   26100    1199.9625   -105.69636    1.0857513    -104.6106   -6399.4623    4.3477154    4.3477154    4.3477154   -6399.4623   -3499.6743   -17908.561    2209.8482    6699.9176    23412.688    2409.8056     82.18325 
   26200    1426.7331   -105.89245    1.2909381   -104.60151    3154.5787    4.3475687    4.3475687    4.3475687    3154.5787   -2308.0867    41994.751   -30222.929   -6229.0524   -478.31168    5476.1618    82.174931 
   26300    702.19936   -105.24469   0.63536474   -104.60932    11813.267    4.3411407    4.3411407    4.3411407    11813.267   -727.94709    6823.9406    29343.808   -4518.5368    27851.809   -13304.152    81.810977 
   26400    1552.0938   -106.00804    1.4043671   -104.60367    13894.532    4.3351904    4.3351904    4.3351904    13894.532    6048.6947   -6690.7309    42325.632    -2841.122   -7012.8252    5692.8909     81.47503 
   26500    1289.6226   -105.79003    1.1668777   -104.62315    2638.7033    4.3388874    4.3388874    4.3388874    2638.7033   -20031.604    39066.415   -11118.702   -13180.381    42304.309   -5885.1363    81.683652 
   26600    1301.6707   -105.78719     1.177779   -104.60941    4624.1597    4.3550693    4.3550693    4.3550693    4624.1597   -2881.6846    -24416.46    41170.623    7750.5024   -12459.033     1969.245     82.60098 
   26700    1333.9524   -105.80916    1.2069882   -104.60217   -1118.3977    4.3391133    4.3391133    4.3391133   -1118.3977   -37179.172    57877.328   -24053.348   -124.22629    36887.036   -165.18083    81.696411 
   26800    1285.1601   -105.76195    1.1628398   -104.59912    29209.314    4.3383898    4.3383898    4.3383898    29209.314      29728.8    18916.033    38983.107   -6747.4384    7704.1712     15932.11    81.655553 
   26900    1440.7647   -105.89991    1.3036342   -104.59628   -22366.837     4.356093     4.356093     4.356093   -22366.837   -50392.015   -2843.2302   -13865.265    9453.5247    30222.305    1630.7309    82.659243 
   27000    1236.6929   -105.71799    1.1189857   -104.59901   -17887.429    4.3439218    4.3439218    4.3439218   -17887.429   -49304.018    30618.616   -34976.884   -6552.6925    31668.667    8080.6522    81.968315 
   27100    1411.4083   -105.88268    1.2770719   -104.60561    21989.372    4.3353683    4.3353683    4.3353683    21989.372    22239.615   -12429.284    56157.785    16431.368   -15452.455    9479.0375    81.485062 
   27200    1166.9151   -105.67362    1.0558493   -104.61777    4141.6838    4.3384063    4.3384063    4.3384063    4141.6838   -12848.449    32359.526   -7086.0254   -5782.4433    29358.031   -4750.2645    81.656483 
   27300     1309.174   -105.79209    1.1845682   -104.60752    9856.8277    4.3525816    4.3525816    4.3525816    9856.8277   -4731.6549   -8416.9748    42719.113    -2543.385   -6645.3362   -2351.7835    82.459514 
   27400    1239.1588   -105.72377    1.1212169   -104.60255   -36273.551    4.3488977    4.3488977    4.3488977   -36273.551   -55858.533   -2336.8877   -50625.232     11184.69    42958.033   -2485.6183    82.250314 
   27500    1423.6482   -105.86411    1.2881469   -104.57596    50236.963    4.3172305    4.3172305    4.3172305    50236.963    14861.862    78389.949    57459.077   -11019.039   -7074.3037   -10794.197    80.466608 
   27600    1034.7892    -105.5426   0.93629898    -104.6063   -16536.893    4.3426389    4.3426389    4.3426389   -16536.893   -60965.303    11868.417   -513.79309    9989.2562    28948.394    5833.4681     81.89571 
   27700    1319.0876    -105.7896    1.1935382   -104.59606   -13654.834    4.3526033    4.3526033    4.3526033   -13654.834   -33017.174    3347.4476   -11294.775    -1803.829    23364.177    4323.2021    82.460745 
   27800     1376.063   -105.82997    1.2450908   -104.58488    18440.949    4.3404083    4.3404083    4.3404083    18440.949   -9404.6307    29783.276    34944.202   -7565.8314     8444.058    8628.8172     81.76958 
   27900    1095.6762   -105.58973   0.99139083   -104.59834   -31407.603    4.3442285    4.3442285    4.3442285   -31407.603   -51569.098    10734.914   -53388.625    5214.7169    49256.158   -6858.4332    81.985678 
   28000    1425.8857   -105.88744    1.2901713   -104.59727    41640.624    4.3290727    4.3290727    4.3290727    41640.624     47709.23    38718.438    38494.205   -13417.687   -9825.9654    11632.744     81.13059 
   28100    1351.7973   -105.85418    1.2231346   -104.63104   -46969.608     4.345263     4.345263     4.345263   -46969.608   -73504.897   -2332.3621   -65071.566   -393.04935    47725.977   -5479.9343    82.044259 
   28200    1294.4908   -105.78539    1.1712824    -104.6141     14337.03    4.3415096    4.3415096    4.3415096     14337.03    8084.2623     22751.31    12175.518     6813.426   -6691.9807    9900.2302    81.831835 
   28300    1243.4099   -105.73789    1.1250634   -104.61282   -4979.9023    4.3385002    4.3385002    4.3385002   -4979.9023   -21249.517    38051.057   -31741.247   -501.57326    29476.525     3691.616    81.661786 
   28400    1372.4187   -105.84227    1.2417933   -104.60048   -17872.312    4.3547223    4.3547223    4.3547223   -17872.312   -26493.358   -13649.655   -13473.924    25313.443    435.85425    -6566.856    82.581239 
   28500    1235.1504   -105.70868      1.11759   -104.59109    25797.918    4.3397381    4.3397381    4.3397381    25797.918   -9192.1756    98471.667   -11885.736    2759.4392    15450.909   -7780.6527    81.731703 
   28600    1412.2414    -105.8866    1.2778257   -104.60878   -19000.901    4.3444564    4.3444564    4.3444564   -19000.901   -29762.996   -2941.6824   -24298.025    14138.695    12613.036     1062.817    81.998579 
   28700    1578.5085   -106.05449    1.4282676   -104.62622   -10043.262    4.3426919    4.3426919    4.3426919   -10043.262   -21581.977   -8796.1544    248.34623    11151.091    2473.0313   -2827.9307    81.898709 
   28800    1506.2377   -106.00251    1.3628755   -104.63963    -5546.297    4.3438412    4.3438412    4.3438412    -5546.297   -6911.5954    16024.994    -25752.29   -19381.427    29076.609    4598.3505     81.96375 
   28900    1063.0685   -105.59669   0.96188671   -104.63481   -65.933588    4.3531949    4.3531949    4.3531949   -65.933588   -31774.382    37109.202     -5532.62      22383.5    -9423.927    3296.3332    82.494375 
   29000    1515.0578   -105.98011    1.3708561   -104.60926     5506.175    4.3489484    4.3489484    4.3489484     5506.175    8743.1034    -14213.74    21989.162   -3297.3097    32423.893    5854.6211    82.253194 
   29100    932.36554   -105.44688   0.84362393   -104.60326    7626.4492    4.3532518    4.3532518    4.3532518    7626.4492   -20166.208     26693.94    16351.616    22064.046    1137.9248   -3295.9304     82.49761 
   29200    1308.1908   -105.77842    1.1836786   -104.59474   -462.29525    4.3441392    4.3441392    4.3441392   -462.29525    -29596.42   -3531.1621    31740.696    13965.369    18902.688    3705.8041    81.980619 
   29300     1524.769   -105.98519     1.379643   -104.60555    10741.158    4.3438201    4.3438201    4.3438201    10741.158    8817.4675   -5766.5197    29172.525    5617.1205    19626.777   -204.83664    81.962558 
   29400    550.58234    -105.1188   0.49817847   -104.62062    21104.062    4.3572559    4.3572559    4.3572559    21104.062   -14155.076    44773.653     32693.61    14025.041    2092.2354   -1963.0502    82.725464 
   29500    1711.6334   -106.13871    1.5487219   -104.58998   -3172.7016     4.351453     4.351453     4.351453   -3172.7016   -15227.815   -20062.162    25771.872    -5663.005    22663.556   -78.134499    82.395387 
   29600    900.40471   -105.41525    0.8147051   -104.60055    3744.4407    4.3413283    4.3413283    4.3413283    3744.4407    3661.7226   -5799.2079    13370.808     202.3862   -3051.2307    10042.058    81.821584 
   29700     1494.104   -105.96038    1.3518967   -104.60848    6316.8182     4.341774     4.341774     4.341774    6316.8182   -7026.3294    33260.246   -7283.4625    7720.0806    13804.188   -7783.3856     81.84679 
   29800     1212.663   -105.71985    1.0972429    -104.6226   -13421.617    4.3469436    4.3469436    4.3469436   -13421.617   -7343.4552    -39538.13    6616.7337   -3404.3162   -8880.5031    14750.499    82.139495 
   29900    742.91132   -105.29864   0.67220178   -104.62644    8386.6105      4.34536      4.34536      4.34536    8386.6105    14240.147     18123.12   -7203.4344    14863.021   -6342.2294   -104.96011    82.049752 
   30000    2036.5675   -106.44956    1.8427291   -104.60683    5418.2539    4.3412706    4.3412706    4.3412706    5418.2539    15981.478   -20543.178    20816.462    2220.5769    6624.5409    10286.268    81.818324 
   30100    774.63034   -105.33285   0.70090181   -104.63195   -10670.375    4.3400078    4.3400078    4.3400078   -10670.375   -7495.5603   -37227.186    12711.621    22027.091   -10161.056   -8397.2673    81.746947 
   30200    1416.9136   -105.90647    1.2820532   -104.62441    6469.7026     4.342388     4.342388     4.342388    6469.7026    2641.9177    30603.316   -13836.125   -12888.685    7264.6467       6286.9    81.881517 
   30300    1425.1405   -105.91259     1.289497    -104.6231    736.47181    4.3376967    4.3376967    4.3376967    736.47181   -6356.2512   -39070.477    47636.144    2046.9467    -7350.323   -4152.9759    81.616419 
   30400    836.21293    -105.3923   0.75662303   -104.63568   -7546.9698    4.3456944    4.3456944    4.3456944   -7546.9698    -15286.99   -16364.692    9010.7725     8953.861   -3938.5747   -7874.3827    82.068697 
   30500    1663.6832   -106.12011    1.5053355   -104.61477    11378.468    4.3344705    4.3344705    4.3344705    11378.468    30967.799   -4106.9564    7274.5613   -5436.2265    9532.3339   -866.51318     81.43445 
   30600    1021.9057   -105.55091   0.92464172   -104.62627   -5648.1483    4.3438768    4.3438768    4.3438768   -5648.1483   -17247.874   -11307.799    11611.228    8908.9812   -14486.799   -361.92378    81.965767 
   30700    1910.0049   -106.33204    1.7282126   -104.60383   -21977.302    4.3493425    4.3493425    4.3493425   -21977.302   -473.19487   -36381.835   -29076.876    2492.3983    18502.411   -5528.0436    82.275557 
   30800    820.68015   -105.35608   0.74256864   -104.61351   -14292.801    4.3454939    4.3454939    4.3454939   -14292.801   -1342.9407   -13491.388   -28044.075   -8822.7702    17506.637     2749.205     82.05734 
   30900    1496.4229    -105.9605    1.3539949    -104.6065   -11318.073      4.33111      4.33111      4.33111   -11318.073   -9928.2879   -27432.525    3406.5939    15485.494   -4931.7583   -10216.306    81.245187 
   31000    1216.0244   -105.71256    1.1002845   -104.61227   -4763.5377    4.3404342    4.3404342    4.3404342   -4763.5377    32871.228   -8532.2534   -38629.588     -8451.48    44187.961    3149.0323    81.771044 
   31100    1348.6392   -105.82105    1.2202771   -104.60077   -11413.194    4.3431552    4.3431552    4.3431552   -11413.194   -9754.6379   -19748.695   -4736.2481     10520.42   -21468.621    959.40681    81.924924 
   31200      1314.67   -105.78615    1.1895411    -104.5966   -23630.209    4.3459702    4.3459702    4.3459702   -23630.209    1973.3716   -13500.293   -59363.706    4448.5178    35017.528   -6329.5617    82.084326 
   31300    1127.2206   -105.61586    1.0199329   -104.59592   -6643.7134    4.3481296    4.3481296    4.3481296   -6643.7134    14218.192   -20874.331   -13275.002    9341.2008    16849.609    4743.0884    82.206741 
   31400    1555.4914   -105.99404    1.4074413    -104.5866     14173.27    4.3239564    4.3239564    4.3239564     14173.27    7105.0806    1918.8905    33495.838    17004.682    -18154.02   -5574.7467    80.843278 
   31500     1006.505   -105.52513   0.91070683   -104.61442    7920.3405    4.3352153    4.3352153    4.3352153    7920.3405    24142.309    8602.0833   -8983.3706   -8245.0519    44232.541    655.54729    81.476433 
   31600    1565.4239   -106.01651    1.4164285   -104.60008   -7860.4596    4.3547368    4.3547368    4.3547368   -7860.4596   -9616.9983   -14461.107    496.72649    15943.494   -17337.374    754.65796    82.582061 
   31700    999.81099   -105.50787      0.90465   -104.60322    6958.3445    4.3461062    4.3461062    4.3461062    6958.3445    52204.066   -19016.915   -12312.117   -841.33531    42751.377   -5758.1846    82.092029 
   31800    1530.0959   -105.98028    1.3844629   -104.59582    2517.9119    4.3315422    4.3315422    4.3315422    2517.9119    17.401337    26207.378   -18671.043    14019.531    14843.766    7712.5216    81.269514 
   31900    1260.7148   -105.75097    1.1407212   -104.61025    13040.998    4.3251739    4.3251739    4.3251739    13040.998    14788.475    23280.878    1053.6407    8684.1251    7690.1186   -10437.436    80.911588 
   32000    1365.1562   -105.86888     1.235222   -104.63366   -5835.5892    4.3523925    4.3523925    4.3523925   -5835.5892    42303.843   -18025.608   -41785.002    7648.2192    19870.898   -543.63053    82.448764 
   32100    1551.8871   -106.01824    1.4041801   -104.61406   -18747.027    4.3636252    4.3636252    4.3636252   -18747.027   -35982.038    6383.2463   -26642.291    10249.317   -7250.6097   -7975.7319    83.088768 
   32200    908.49046   -105.41999   0.82202126   -104.59797    16301.627    4.3329901    4.3329901    4.3329901    16301.627    43723.311    19512.913   -14331.342   -14774.409    26114.267   -11616.225    81.351034 
   32300    1640.7469   -106.07254    1.4845823   -104.58796    16145.512    4.3269631    4.3269631    4.3269631    16145.512    13664.194    45848.348   -11076.006     132.5007   -18407.505    10084.227     81.01204 
   32400     972.9216   -105.49174   0.88031991   -104.61142   -3755.5427    4.3462944    4.3462944    4.3462944   -3755.5427    14783.941    10221.639   -36272.209   -8039.8205    38881.239   -11454.582    82.102699 
   32500    1659.8856   -106.09813    1.5018994   -104.59623   -16460.219    4.3491489    4.3491489    4.3491489   -16460.219   -16906.306   -1182.8635   -31291.488   -14381.095   -16268.559    890.68664    82.264572 
   32600    1154.2295   -105.63503    1.0443711   -104.59066   -7209.4331    4.3405869    4.3405869    4.3405869   -7209.4331    -5002.342    26516.376   -43142.333   -787.23534    19893.874    2217.0674    81.779671 
   32700    1385.8912   -105.85413    1.2539835   -104.60014   -13482.934    4.3307701    4.3307701    4.3307701   -13482.934   -21702.472    882.50124    -19628.83   -19744.588    25227.057   -5838.2185    81.226062 
   32800    1435.1024   -105.91847    1.2985108   -104.61996    17040.821    4.3389067    4.3389067    4.3389067    17040.821    7909.3104    38714.011    4499.1406     4695.407   -15469.274    4349.2017    81.684739 
   32900     1101.162   -105.62359    0.9963545   -104.62724   -22405.676    4.3617024    4.3617024    4.3617024   -22405.676    -518.6873   -3479.6102   -63218.731    4493.8777      39671.9    2574.7578     82.97898 
   33000    1513.7127   -105.98182     1.369639   -104.61218   -2004.3892    4.3346473    4.3346473    4.3346473   -2004.3892   -13283.831    1557.7259    5712.9375   -9499.1161   -15183.343   -2475.8508    81.444412 
   33100    1458.5009   -105.93116    1.3196823   -104.61148    21662.199    4.3261265    4.3261265    4.3261265    21662.199    17085.344    41194.693    6706.5584   -2946.5676    1136.9139    2790.6792     80.96506 
   33200     1251.208   -105.75739    1.1321193   -104.62527    7387.8785    4.3523091    4.3523091    4.3523091    7387.8785    74060.222   -18415.868   -33480.719    4863.7903   -7167.0651   -7900.0409    82.444025 
   33300    929.62037   -105.47175   0.84114004   -104.63061    811.41272    4.3532014    4.3532014    4.3532014    811.41272    28972.423    2261.3669   -28799.552    -4395.904   -14140.481    1735.4367    82.494742 
   33400    1897.1778   -106.32372    1.7166064   -104.60711   -7153.4537    4.3485505    4.3485505    4.3485505   -7153.4537   -16853.477    25279.262   -29886.146   -9062.8817    15227.231    -9879.515    82.230617 
   33500      802.938   -105.34419   0.72651518   -104.61768   -11055.332     4.347084     4.347084     4.347084   -11055.332    25104.194   -5170.5248   -53099.664    11254.528   -36805.134    3046.1036    82.147455 
   33600    1268.1605   -105.76449    1.1474583   -104.61703    18732.276    4.3369079    4.3369079    4.3369079    18732.276    38550.797    40410.702   -22764.672   -27997.182    19363.899   -3366.1241    81.571901 
   33700    1645.8481   -106.11367     1.489198   -104.62447   -22892.529    4.3475269    4.3475269    4.3475269   -22892.529   -23786.357   -1092.0456   -43799.185    21886.744   -28149.608   -458.65624    82.172563 
   33800    772.67666   -105.32364   0.69913408   -104.62451     11330.03    4.3494571    4.3494571    4.3494571     11330.03    65793.199   -10305.623   -21497.487   -10292.662   -8761.7435   -4624.7287     82.28206 
   33900    1785.9375   -106.21949    1.6159538   -104.60354    8806.0462    4.3462883    4.3462883    4.3462883    8806.0462    37101.796    22038.423    -32722.08    10626.909    1406.5754    8074.1907    82.102353 
   34000    1027.3626   -105.54176   0.92957924   -104.61218   -4616.3275    4.3451573    4.3451573    4.3451573   -4616.3275    18623.635   -21804.294   -10668.323    4090.3746   -17283.747    347.42968    82.038275 
   34100    1193.8937   -105.68681    1.0802601   -104.60655    30197.685    4.3479916    4.3479916    4.3479916    30197.685    59136.128    44844.133   -13387.206   -14803.008    9516.8451   -6959.1269    82.198917 
   34200    1311.1241   -105.80475    1.1863326   -104.61842   -32035.009    4.3489197    4.3489197    4.3489197   -32035.009   -31607.943   -25626.408   -38870.677    9740.5087   -14979.453    12491.675    82.251567 
   34300    1532.7314   -106.00581    1.3868476   -104.61896    -10425.38    4.3350523    4.3350523    4.3350523    -10425.38   -29408.926    1281.1352   -3148.3487    4940.5574    2684.7529   -8528.0661    81.467246 
   34400    1101.5321   -105.62569   0.99668939     -104.629    24405.336    4.3407395    4.3407395    4.3407395    24405.336    70473.115     10719.49   -7976.5971   -15102.181    2831.2037   -11742.866    81.788298 
   34500    1285.9824   -105.78055    1.1635839   -104.61697   -17059.511    4.3504339    4.3504339    4.3504339   -17059.511   -8146.1977   -47699.658    4667.3219    15261.115    -8264.791    4128.9162    82.337511 
   34600     1163.296   -105.65983    1.0525747   -104.60726    17078.896     4.341065     4.341065     4.341065    17078.896    20547.164    45076.484   -14386.959   -6557.2184     13012.94   -886.48625    81.806699 
   34700    1573.0288   -106.03312    1.4233096   -104.60981   -8024.5147    4.3391566    4.3391566    4.3391566   -8024.5147    1112.8671   -7815.6968   -17370.714    605.65358    1872.3611   -722.70847    81.698853 
   34800    1204.3042   -105.69562    1.0896797   -104.60594    19491.301    4.3423602    4.3423602    4.3423602    19491.301    31468.166    6466.9134    20538.822    6558.7967   -603.14709    10061.011    81.879943 
   34900    1067.4947   -105.57056   0.96589163   -104.60467   -9654.9438    4.3540912    4.3540912    4.3540912   -9654.9438   -15702.183     2984.888   -16247.536    1757.3542    22461.796    2086.1529     82.54534 
   35000    1595.6778   -106.03226    1.4438028   -104.58846    9509.8003    4.3444846    4.3444846    4.3444846    9509.8003        49957   -4628.1131   -16799.485    2426.3409   -18102.726   -60.734265    82.000175 
   35100    1185.5872   -105.67818    1.0727442   -104.60544   -17982.008    4.3353347    4.3353347    4.3353347   -17982.008   -24865.035   -2424.9011   -26656.087   -223.68352    35569.807    6548.9013    81.483167 
   35200    1369.9311   -105.84467    1.2395424   -104.60513    26746.661    4.3332145    4.3332145    4.3332145    26746.661    47133.279    32722.047    384.65637    -1588.554   -6424.8929    4238.3685    81.363678 
   35300     1084.968   -105.60161   0.98170185   -104.61991   -28542.637    4.3493072    4.3493072    4.3493072   -28542.637    -20171.41   -29722.227   -35734.275    -5841.231    20139.339    711.49881    82.273551 
   35400     1063.236   -105.57571   0.96203829   -104.61367   -7979.6165    4.3481847    4.3481847    4.3481847   -7979.6165    -20903.51    19432.874   -22468.213   -15159.819    27128.175    -1592.113    82.209869 
   35500    1829.4118   -106.25203    1.6552902   -104.59674   -3448.9773    4.3343391    4.3343391    4.3343391   -3448.9773    13962.807   -11515.021   -12794.718    3027.0719    -6304.546      4103.58    81.427044 
   35600    453.05861   -105.03114   0.40993696   -104.62121   -752.65568    4.3310959    4.3310959    4.3310959   -752.65568   -32069.848    50335.014   -20523.132    13094.067    41023.856   -10020.992    81.244391 
   35700    1930.1578   -106.36588    1.7464473   -104.61944   -7415.3732    4.3374935    4.3374935    4.3374935   -7415.3732    6189.4764    -1399.773   -27035.823   -15653.208   -12413.118    12310.114    81.604951 
   35800    1054.2312   -105.57921   0.95389051   -104.62532   -21583.101    4.3561558    4.3561558    4.3561558   -21583.101   -16196.811    5570.6793   -54123.173    17827.166     28081.24    -4791.897    82.662822 
   35900    1323.0959   -105.81181    1.1971649   -104.61464   -3151.8298    4.3316948    4.3316948    4.3316948   -3151.8298    5656.9675   -12212.331   -2900.1256   -20386.345   -947.18618    17688.521    81.278101 
   36000    1180.3275   -105.68264    1.0679851   -104.61466    11026.597    4.3234225    4.3234225    4.3234225    11026.597    33449.432    26539.874   -26909.514    9453.0928   -11657.998   -3622.0254    80.813334 
   36100    1522.1015   -105.99813    1.3772294    -104.6209     5000.919    4.3391574    4.3391574    4.3391574     5000.919    23630.516    15353.557   -23981.316    5367.5823    24764.997    7698.2907    81.698898 
   36200    1209.1312   -105.71925    1.0940473    -104.6252   -2208.9134    4.3526383    4.3526383    4.3526383   -2208.9134    27140.116   -19538.027   -14228.829   -3072.7441   -17706.854     1670.313    82.462737 
   36300    1124.9813   -105.62715    1.0179068   -104.60924    5697.1392    4.3470866    4.3470866    4.3470866    5697.1392     23936.16    28786.178    -35630.92   -4063.6644     5601.619    9556.2082    82.147599 
   36400    1573.9708   -106.02836    1.4241618    -104.6042   -7541.2585    4.3313193    4.3313193    4.3313193   -7541.2585    -24956.99   -11184.805    13518.019    1931.0921    2346.6756   -8139.0708    81.256968 
   36500    905.08226   -105.44116   0.81893745   -104.62222    775.73607    4.3376624    4.3376624    4.3376624    775.73607    3677.4312    28126.791   -29477.014   -352.10554   -34750.335    15321.519    81.614483 
   36600    1624.4676   -106.08251    1.4698524   -104.61266    9576.2967    4.3449238    4.3449238    4.3449238    9576.2967    26467.375   -25095.955     27357.47     3251.995    12571.562    -6347.637    82.025049 
   36700    885.89769      -105.42   0.80157884   -104.61842    -39400.42    4.3504823    4.3504823    4.3504823    -39400.42   -71233.586   -29578.545    -17389.13   -3857.9294   -28966.209   -4131.6011    82.340256 
   36800     1544.324   -105.99918    1.3973368   -104.60185    14170.979    4.3361453    4.3361453    4.3361453    14170.979    24227.746    -4983.916    23269.106   -9416.1019   -3749.1167    4098.2813    81.528881 
   36900    1392.4124    -105.8664     1.259884   -104.60651   -9083.2999    4.3325374    4.3325374    4.3325374   -9083.2999   -26289.582    -11704.16    10743.843    8369.5601   -7611.0985    2680.3006    81.325543 
   37000    888.51104    -105.4245   0.80394346   -104.62056   -14370.286    4.3359532    4.3359532    4.3359532   -14370.286   -17674.731   -4054.0681   -21382.059   -9426.3005    -35868.86   -4133.9117    81.518044 
   37100    1607.5763   -106.06823    1.4545688   -104.61366    5769.5032    4.3421113    4.3421113    4.3421113    5769.5032   -8838.8303   -1883.6248    28030.965   -2097.0106    26250.146    7946.3494    81.865863 
   37200    1076.4414   -105.59792   0.97398679   -104.62393    1251.8203    4.3393987    4.3393987    4.3393987    1251.8203    27760.345    8721.3087   -32726.193   -2653.7333   -36866.209   -10631.381    81.712533 
   37300    1349.5866   -105.84604    1.2211343   -104.62491   -2267.5711    4.3407956    4.3407956    4.3407956   -2267.5711   -16319.605   -7650.5733    17167.465   -10933.826    15444.659   -5179.1803    81.791468 
   37400    1515.1084   -105.98801    1.3709019   -104.61711    4400.1731     4.338362     4.338362     4.338362    4400.1731    17847.332    13014.617   -17661.429    13221.848   -5161.5972    5270.9388     81.65398 
   37500    940.52034    -105.4768   0.85100257   -104.62579   -18288.986     4.350227     4.350227     4.350227   -18288.986   -63958.531   -8547.7496    17639.322   -19266.968   -18394.674   -7779.8645    82.325761 
   37600    1541.3348   -106.00429    1.3946322   -104.60966   -13982.688    4.3408139    4.3408139    4.3408139   -13982.688   -17455.055    6444.7708   -30937.781    7043.1366    39532.538    8082.8742    81.792504 
   37700    1326.6863   -105.81258    1.2004137   -104.61217    1074.8917    4.3246624    4.3246624    4.3246624    1074.8917   -11069.197    18876.899   -4583.0269   -4056.1509   -28901.468    -5995.555    80.882885 
   37800    1209.1838   -105.72186    1.0940949   -104.62777    832.31256    4.3343421    4.3343421    4.3343421    832.31256   -16369.086    19929.542    -1063.519   -5409.7811    23737.575    3790.8309    81.427211 
   37900    1354.3741   -105.84768    1.2254661   -104.62222    3247.3134    4.3506315    4.3506315    4.3506315    3247.3134    5129.0853    35057.716   -30444.861    10591.309   -2500.0939    961.02745     82.34873 
   38000    1490.5709   -105.96106    1.3486999   -104.61236   -18926.141    4.3464459    4.3464459    4.3464459   -18926.141   -42219.901   -12581.412     -1977.11   -9130.3182   -6770.8592    6628.8917    82.111283 
   38100    914.18529   -105.43672   0.82717406   -104.60955    27860.784    4.3385042    4.3385042    4.3385042    27860.784    19564.478    61411.144    2606.7284    -10140.21    8893.7687   -662.53935    81.662008 
   38200    1540.8082   -106.01201    1.3941556   -104.61785   -5416.0079    4.3398958    4.3398958    4.3398958   -5416.0079   -33821.018    28861.487   -11288.493   -2032.4829    -15118.06    910.11182    81.740618 
   38300    1264.7767    -105.7805    1.1443966    -104.6361   -8502.1707    4.3492046    4.3492046    4.3492046   -8502.1707   -8123.3823   -19164.813    1781.6832   -22572.031     19192.76   -2674.6073     82.26773 
   38400    1214.7584   -105.72199    1.0991389   -104.62285   -2415.2065     4.357043     4.357043     4.357043   -2415.2065    -27001.68     40953.97   -21197.909    10341.741   -9452.9321   -8830.5709    82.713335 
   38500    1329.4105   -105.81105    1.2028785   -104.60817   -10128.459    4.3484465    4.3484465    4.3484465   -10128.459   -18281.032   -16342.091    4237.7453   -21361.513    9622.6313   -5819.5643    82.224715 
   38600    1364.6515    -105.8408    1.2347654   -104.60604     36.13885    4.3435642    4.3435642    4.3435642     36.13885   -18554.472    21790.722   -3127.8335    10609.225   -1077.4595   -1217.5707    81.948074 
   38700    1193.4514   -105.68817    1.0798599   -104.60831   -3262.5199    4.3553604    4.3553604    4.3553604   -3262.5199   -13254.313    5499.2162   -2032.4625   -5874.8101   -8609.2908    3479.9045    82.617547 
   38800    1366.0421   -105.84213    1.2360236   -104.60611   -26629.141    4.3494655    4.3494655    4.3494655   -26629.141   -27053.489   -18600.477   -34233.458   -1613.7191    26033.066   -6219.1961    82.282537 
   38900    1317.8071   -105.79609    1.1923796   -104.60371    18938.223    4.3450645    4.3450645    4.3450645    18938.223   -2250.7789    38885.018    20180.432    510.34144   -22558.396    16149.513    82.033017 
   39000    1560.7762   -106.02604    1.4122231   -104.61382   -32569.293    4.3440145    4.3440145    4.3440145   -32569.293   -59454.518   -26034.361   -12219.002   -15334.783    26546.098   -3246.4394    81.973562 
   39100    911.32127   -105.44186   0.82458263   -104.61728    33977.194    4.3406502    4.3406502    4.3406502    33977.194    27929.088    23842.817    50159.676    10974.971     1828.196    1841.8132    81.783248 
   39200    1831.6988   -106.27153    1.6573596   -104.61417   -14410.365    4.3424364    4.3424364    4.3424364   -14410.365    -11426.26   -28367.463   -3437.3709   -11490.034    12975.269    955.87407    81.884255 
   39300    861.92504   -105.40255   0.77988789   -104.62266    27954.801    4.3472328    4.3472328    4.3472328    27954.801    34667.537    17572.747    31624.118    3249.7301    28550.676    9221.3595    82.155891 
   39400    1699.0855   -106.12937    1.5373683     -104.592   -23886.677    4.3624684    4.3624684    4.3624684   -23886.677   -36415.185   -56073.511    20828.666    -11236.87     837.4752    8713.3407    83.022706 
   39500    758.32109   -105.27583   0.68614486   -104.58968    25604.503      4.34117      4.34117      4.34117    25604.503    11169.116    11016.194    54628.198   -8104.8031     30905.27    6637.3891    81.812634 
   39600    1613.4469   -106.04096    1.4598806   -104.58108    15920.587    4.3402525    4.3402525    4.3402525    15920.587    25264.835   -11201.758    33698.683    387.09549    12047.369    14724.607    81.760773 
   39700    952.67462   -105.45695   0.86200001   -104.59495   -6005.5354    4.3543256    4.3543256    4.3543256   -6005.5354   -30489.854    683.63092    11789.617   -30399.357    15739.493    5804.3302    82.558671 
   39800    1448.4847   -105.89162    1.3106194     -104.581   -1453.7906    4.3590649    4.3590649    4.3590649   -1453.7906   -12905.951   -973.10866     9517.688    12972.747    10632.896    15155.156    82.828539 
   39900    978.61489   -105.46362   0.88547132   -104.57815    926.17032    4.3624044    4.3624044    4.3624044    926.17032   -19387.794    21475.613    690.69192   -13991.884      25189.1    13465.236    83.019051 
   40000    1216.3369   -105.67035    1.1005672   -104.56978   -13390.656    4.3507627    4.3507627    4.3507627   -13390.656   -35649.267    7951.7441   -12474.446   -5333.2757    14936.536    23249.827    82.356181 
   40100    1004.1913    -105.4822   0.90861338   -104.57358    31476.619    4.3537611    4.3537611    4.3537611    31476.619    28693.348     55138.48     10598.03   -15018.515    3964.2994    7568.3816    82.526568 
   40200    1017.6183   -105.49864   0.92076244   -104.57788   -23604.281    4.3733441    4.3733441    4.3733441   -23604.281   -23591.569   -4896.0201   -42325.254   -34079.703    26933.016    6044.0052    83.645184 
   40300    1787.5872   -106.17335    1.6174464    -104.5559   -14340.565    4.3606883    4.3606883    4.3606883   -14340.565    -17724.49   -9983.2613   -15313.944     3503.035    -2537.334    7997.4688    82.921113 
   40400    547.80879   -105.07768    0.4956689   -104.58201    23900.305    4.3437939    4.3437939    4.3437939    23900.305   -5441.4608    4180.5338    72961.844   -20120.987    17327.551    30418.574    81.961075 
   40500    1424.4042   -105.87665    1.2888309   -104.58782    22466.365    4.3502726    4.3502726    4.3502726    22466.365   -12312.603    -13914.46    93626.158    2481.0458    17130.766    10817.995    82.328348 
   40600      780.237   -105.31361   0.70597483   -104.60763   -2333.2505    4.3702564    4.3702564    4.3702564   -2333.2505    21912.494   -35246.677    6334.4316   -31545.184    16045.068    12649.026    83.468146 
   40700    1342.6683   -105.79275    1.2148744   -104.57788   -13615.082    4.3663258    4.3663258    4.3663258   -13615.082   -11030.321   -6103.9116   -23711.013    -12524.99    19933.762    4756.3703    83.243135 
   40800    1193.3149   -105.63834    1.0797364    -104.5586    38883.836    4.3427684    4.3427684    4.3427684    38883.836    63214.341    38209.578    15227.588   -26496.847    9457.5839    19173.796    81.903039 
   40900     1000.584   -105.50086   0.90534943   -104.59551   -5070.2613    4.3524801    4.3524801    4.3524801   -5070.2613   -1533.5001    23831.417     -37508.7   -11285.952    10895.055    7362.5228    82.453745 
   41000    1545.7728    -105.9817    1.3986477   -104.58305    20028.927    4.3538968    4.3538968    4.3538968    20028.927    8405.3296    39137.561    12543.889    11946.048   -10109.705    9220.8696    82.534283 
   41100    852.36894   -105.37117   0.77124133   -104.59993    16506.366    4.3465508    4.3465508    4.3465508    16506.366    14283.297     37104.28   -1868.4793   -17467.366    18705.497    8569.1862    82.117228 
   41200    1806.5833   -106.22259    1.6346345   -104.58796   -8348.1837    4.3531163    4.3531163    4.3531163   -8348.1837    10585.993     1713.288   -37343.833    2846.7302   -19280.329    3655.8552    82.489905 
   41300    920.84339   -105.42715   0.83319845   -104.59395    34694.013    4.3421593    4.3421593    4.3421593    34694.013    19815.244    50574.504    33692.292   -23414.842    28501.628     11672.45    81.868581 
   41400    1382.3185   -105.85736    1.2507508   -104.60661   -8094.3555    4.3503244    4.3503244    4.3503244   -8094.3555    9121.1347   -1849.0088   -31555.192   -17428.972   -11309.145   -4440.8307    82.331294 
   41500    1536.5017   -105.99474    1.3902591   -104.60448     11568.38    4.3389871    4.3389871    4.3389871     11568.38    41437.882   -5051.2579   -1681.4851    9238.5107   -2539.8633   -3472.5627    81.689284 
   41600    939.58236   -105.46774   0.85015387   -104.61759    25570.124    4.3301258    4.3301258    4.3301258    25570.124   -4303.9508    65472.228    15542.093   -35425.117    15710.989    5983.4628    81.189811 
   41700    1593.1117    -106.0527    1.4414809   -104.61122   -740.32237    4.3605337    4.3605337    4.3605337   -740.32237    5318.8529    7519.6545   -15059.474    13592.292   -2145.4055    1826.2346    82.912297 
   41800    1510.6953   -105.96334    1.3669089   -104.59643   -36658.487    4.3565763    4.3565763    4.3565763   -36658.487   -45718.273   -42207.526   -22049.662   -12420.205    22275.917   -4608.5682    82.686762 
   41900    930.15273    -105.4277   0.84162174   -104.58607    50707.848    4.3385264    4.3385264    4.3385264    50707.848    14832.852     82747.73    54542.963   -18227.048   -4910.3751    1590.6572    81.663263 
   42000    1706.8517   -106.13586    1.5443953   -104.59146   -9191.0698    4.3409686    4.3409686    4.3409686   -9191.0698   -7849.8117   -4488.0598   -15235.338   -2329.4201    14411.797   -10790.298    81.801249 
   42100    833.89153   -105.36475   0.75452258   -104.61023    18933.598    4.3443855    4.3443855    4.3443855    18933.598   -40431.641    37899.644     59332.79   -16749.298    14655.081     -495.984    81.994563 
   42200    1868.2672    -106.2845    1.6904474   -104.59405   -16141.674    4.3589754    4.3589754    4.3589754   -16141.674   -6219.2006   -8921.5468   -33284.274    2342.6753    1747.4498   -39.234744     82.82344 
   42300    610.03114   -105.16003   0.55196899   -104.60806   -3728.4288    4.3429161    4.3429161    4.3429161   -3728.4288   -35414.764    1610.0229    22619.455   -25887.558    21945.893   -10820.537    81.911393 
   42400    2227.7372   -106.60882    2.0157034   -104.59311    2062.5692    4.3306985    4.3306985    4.3306985    2062.5692    5759.1465   -10885.056    11313.617    18559.541    8598.1644   -189.30308    81.222029 
   42500     663.7994   -105.22632   0.60061965    -104.6257   -10397.377    4.3545806    4.3545806    4.3545806   -10397.377   -31237.474    1403.4673   -1358.1233   -27811.223    8370.5253   -14839.294    82.573176 
   42600    1462.2496   -105.92596    1.3230742   -104.60289   -25989.637    4.3532834    4.3532834    4.3532834   -25989.637   -30006.932   -21529.252   -26432.726   -9781.6025     20597.88    7810.6967    82.499404 
   42700     1578.844   -106.01398    1.4285712   -104.58541    19142.565    4.3407678    4.3407678    4.3407678    19142.565     16462.25    16208.532    24756.913   -4264.5224    -3650.581    5947.4947    81.789897 
   42800    576.27939   -105.12564    0.5214297   -104.60421    9848.4932    4.3495775    4.3495775    4.3495775    9848.4932   -2080.1873    16019.329    15606.338   -34743.559    24769.398   -19116.542    82.288896 
   42900    1890.7983   -106.29788     1.710834   -104.58705   -19416.949    4.3565749    4.3565749    4.3565749   -19416.949   -20352.541     -7151.32   -30746.986    12026.688   -19841.947    6919.5811    82.686681 
   43000    904.96194   -105.41709   0.81882858   -104.59826   -5428.5178    4.3464461    4.3464461    4.3464461   -5428.5178   -38367.807    33939.812   -11857.558   -13977.348    10162.502    -4788.345    82.111293 
   43100    1563.4097   -106.01023     1.414606   -104.59563    11156.025    4.3323652    4.3323652    4.3323652    11156.025   -4804.5395    9584.0746    28688.539   -7990.3281   -10702.658   -1361.3276    81.315844 
   43200    1337.9266   -105.82942    1.2105841   -104.61884   -19616.108      4.34607      4.34607      4.34607   -19616.108       -47327    14158.806    -25680.13   -2584.4678    7600.1649   -782.33712    82.089981 
   43300    969.40746   -105.48567   0.87714024   -104.60853    2942.2124    4.3599708    4.3599708    4.3599708    2942.2124   -15389.008   -10979.931    35195.576   -17490.822    5831.5739   -28693.044    82.880192 
   43400     1549.626   -105.98668    1.4021342   -104.58455   -3589.8226    4.3499424    4.3499424    4.3499424   -3589.8226   -11944.991    22066.811   -20891.287    2727.1482   -11464.156   -3387.5543    82.309603 
   43500    1286.0343   -105.75454    1.1636309   -104.59091   -29515.002    4.3470193    4.3470193    4.3470193   -29515.002   -70630.248   -16074.444   -1840.3144    -19959.94    22399.614    13722.837    82.143785 
   43600    1420.2391   -105.86887    1.2850622   -104.58381     34212.53    4.3430591    4.3430591    4.3430591     34212.53    27764.434    61919.032    12954.123    5414.6821   -11526.566   -24142.338    81.919484 
   43700    994.30653   -105.50192   0.89966944   -104.60226    -12729.72    4.3546277    4.3546277    4.3546277    -12729.72   -45072.756    12318.944   -5435.3483   -17348.103    16212.428   -4059.3051    82.575856 
   43800    1697.6464   -106.12232    1.5360662   -104.58626   -23458.921    4.3565469    4.3565469    4.3565469   -23458.921   -31168.572   -39347.124    138.93427    3679.2204    1505.0536    13899.902    82.685085 
   43900    1119.6614   -105.59758    1.0130931   -104.58448    13725.732    4.3404724    4.3404724    4.3404724    13725.732   -19902.915    52298.903    8781.2085   -4519.6127    10128.366   -8924.6786    81.773203 
   44000    1228.7337   -105.70638    1.1117841    -104.5946   -922.16582    4.3428451    4.3428451    4.3428451   -922.16582   -35772.601    19349.961    13656.142   -14834.616     20032.43    13633.454    81.907377 
   44100    1576.2349   -106.02153    1.4262104   -104.59532   -12236.881    4.3505816    4.3505816    4.3505816   -12236.881   -26326.603   -30508.433    20124.393    17736.238   -14421.614    2115.9271    82.345895 
   44200    843.57224   -105.37049   0.76328189   -104.60721    20648.852    4.3481755    4.3481755    4.3481755    20648.852    12178.649    24786.304    24981.603   -19577.978   -5802.5988   -2711.7318    82.209345 
   44300    1374.4848     -105.849    1.2436628   -104.60534     13374.05    4.3528265    4.3528265    4.3528265     13374.05   -6781.1145   -8290.7948    55194.058    27771.894   -17559.393    24334.946    82.473432 
   44400    1012.9406   -105.50952   0.91652992   -104.59299    15665.143    4.3694104    4.3694104    4.3694104    15665.143   -5060.1233    19252.714    32802.838    1635.1781    1740.5074    14348.681    83.419678 
   44500    949.17385   -105.43049   0.85883245   -104.57166    8030.5212    4.3697892    4.3697892    4.3697892    8030.5212   -11973.211    16954.383    19110.392    25923.545   -20618.217    25552.926    83.441379 
   44600     955.9402   -105.41993   0.86495478   -104.55497    21320.771    4.3608374    4.3608374    4.3608374    21320.771   -28835.418    74009.711     18788.02    20235.467   -12463.227    17091.057    82.929623 
   44700    1215.3389   -105.65403    1.0996642   -104.55436    11942.962    4.3465487    4.3465487    4.3465487    11942.962   -2491.7199    35095.923    3224.6826    22433.794   -10999.641    18936.007     82.11711 
   44800    1163.8083   -105.63534    1.0530382    -104.5823     -5073.51    4.3559447    4.3559447    4.3559447     -5073.51    9498.9892   -21985.377   -2734.1424    27808.734   -6400.1731   -9696.5759    82.650802 
   44900    1377.5431      -105.83    1.2464299   -104.58357   -5050.3393    4.3553285    4.3553285    4.3553285   -5050.3393    24844.175    8717.1937   -48712.386   -6026.1492    2766.7222    11233.049    82.615734 
   45000    1147.1212   -105.62922    1.0379394   -104.59128    1057.8797    4.3461349    4.3461349    4.3461349    1057.8797    20347.444   -36950.661    19776.856    22646.823   -13739.912   -5706.4632    82.093657 
   45100    1275.8162   -105.75572    1.1543853   -104.60133    6256.8599    4.3431604    4.3431604    4.3431604    6256.8599   -1171.3167    62459.252   -42517.356   -8576.4082    2382.8907   -13271.367    81.925216 
   45200    1356.5381   -105.83651    1.2274242   -104.60909    12266.072    4.3433469    4.3433469    4.3433469    12266.072     2304.596    16558.081     17935.54    16047.173   -3814.2245   -762.96112    81.935771 
   45300    1222.1231   -105.71896    1.1058027   -104.61316   -26997.015    4.3586562    4.3586562    4.3586562   -26997.015   -37369.309   -29096.741   -14524.995    25366.174   -3211.6295   -7780.2094    82.805243 
   45400    1557.0656   -106.00379    1.4088657   -104.59493   -2141.2239    4.3536847    4.3536847    4.3536847   -2141.2239   -10179.075    16782.129   -13026.726    5680.3527   -9359.5745    1611.8877    82.522222 
   45500    1149.1699   -105.64202    1.0397931   -104.60223    2685.1332    4.3500526    4.3500526    4.3500526    2685.1332   -21221.716    50832.385   -21555.269    26515.013   -1614.4281    11794.138     82.31586 
   45600    1187.4932   -105.67845    1.0744688   -104.60398   -14932.625    4.3586731    4.3586731    4.3586731   -14932.625   -24057.974    30153.153   -50893.055   -5284.1207    5879.0392   -18979.614    82.806208 
   45700    1662.4193   -106.10331    1.5041919   -104.59912   -11350.833    4.3497321    4.3497321    4.3497321   -11350.833   -10409.496   -28279.424    4636.4207   -1059.6395   -8639.5198    17413.717    82.297667 
   45800    1064.0839   -105.57373   0.96280543   -104.61093   -10651.759    4.3516019    4.3516019    4.3516019   -10651.759    8397.1361    57.448823   -40409.863   -3418.5641   -1612.9058   -26957.058    82.403842 
   45900    1649.7034   -106.08925    1.4926863   -104.59657   -8216.8905    4.3556183    4.3556183    4.3556183   -8216.8905   -32299.041     27153.32    -19504.95   -19885.998   -3066.9079   -10772.783    82.632226 
   46000     1002.062   -105.50091   0.90668676   -104.59422    408.35217    4.3593376    4.3593376    4.3593376    408.35217   -12731.236    32616.669   -18660.377    17887.027   -8152.3899   -11609.554    82.844087 
   46100    1471.3542   -105.90833    1.3313122   -104.57702   -19237.402    4.3597787    4.3597787    4.3597787   -19237.402   -23794.759     3884.873    -37802.32   -2247.6659    7349.7697   -17689.555    82.869235 
   46200    1564.1691   -105.98912    1.4152931   -104.57383   -5188.4292    4.3513661    4.3513661    4.3513661   -5188.4292   -24175.036   -13960.016    22569.764    15839.445    -2753.688   -17539.465    82.390452 
   46300    1449.0669   -105.89723    1.3111462   -104.58608   -27279.585    4.3596059    4.3596059    4.3596059   -27279.585   -19360.697   -35262.148    -27215.91    13303.607    4077.1286    -15738.04    82.859383 
   46400    1729.5559    -106.1387    1.5649386   -104.57376    -22577.39    4.3618747    4.3618747    4.3618747    -22577.39   -37027.284   -29488.435   -1216.4521   -9988.1837    1723.8194   -159.42552    82.988814 
   46500    1166.9981   -105.63009    1.0559244   -104.57417    6600.3214    4.3467002    4.3467002    4.3467002    6600.3214   -7897.2978   -5137.4676     32835.73    24740.695    -687.6615   -21101.133    82.125697 
   46600    1387.5699    -105.8454    1.2555024    -104.5899    2900.0084    4.3481036    4.3481036    4.3481036    2900.0084    9411.1786    12090.302   -12801.455   -29549.338     1846.231    -2715.691    82.205269 
   46700    1364.5887    -105.8288    1.2347085    -104.5941    7997.1907    4.3579399    4.3579399    4.3579399    7997.1907    5976.9867    -9624.232    27638.818    9675.1836    11434.837    5776.8097    82.764427 
   46800    819.09644   -105.33439   0.74113567   -104.59326    9452.8499    4.3624824    4.3624824    4.3624824    9452.8499    41381.977   -14394.735    1371.3082   -8602.9229    14032.902   -8804.7006    83.023505 
   46900    1713.6252   -106.12493    1.5505241   -104.57441   -1884.3108    4.3501261    4.3501261    4.3501261   -1884.3108    29600.547   -40398.966    5145.4866    -12511.66    4899.3125   -1611.0258    82.320031 
   47000    659.63849   -105.18954   0.59685477   -104.59269    32798.616    4.3458664    4.3458664    4.3458664    32798.616    47660.338    19523.662    31211.849    9960.1335    8771.9798    2328.0489    82.078445 
   47100    1592.4517   -106.03893    1.4408838   -104.59805   -19539.194    4.3516383    4.3516383    4.3516383   -19539.194   -24119.455   -28592.645   -5905.4821   -22334.137    1611.3316   -1144.7651    82.405912 
   47200    1538.4358   -105.98799    1.3920091   -104.59598   -15763.596    4.3616063    4.3616063    4.3616063   -15763.596   -9593.6183    -1342.432   -36354.737    6395.5251   -8336.5528   -11401.575    82.973496 
   47300    1082.3787   -105.56934   0.97935897   -104.58998   -15433.984    4.3609096    4.3609096    4.3609096   -15433.984   -20994.433    -52086.76     26779.24     -8816.39    2720.3815    5758.2233     82.93374 
   47400    1734.6928   -106.14618    1.5695865    -104.5766   -9542.8588    4.3473715    4.3473715    4.3473715   -9542.8588   -7098.8184   -14775.585   -6754.1726   -7790.5687   -10495.453    10936.513    82.163754 
   47500    964.32219   -105.46536   0.87253898   -104.59282    25104.356    4.3437768    4.3437768    4.3437768    25104.356    65745.096   -22493.885    32061.856    9641.5539   -1135.7009   -3207.0368    81.960106 
   47600    1352.3412   -105.83669    1.2236267   -104.61306   -39845.459    4.3570193    4.3570193    4.3570193   -39845.459    -40171.96   -62772.573   -16591.844   -34776.811    608.51992    4630.6486    82.711989 
   47700    1509.4916   -105.96677    1.3658197   -104.60095    17713.196    4.3501292    4.3501292    4.3501292    17713.196    12807.203    4155.3811    36177.005    6282.5904    13347.134   -4550.0263    82.320212 
   47800    1364.3465   -105.84393    1.2344894   -104.60944   -48503.267    4.3552599    4.3552599    4.3552599   -48503.267   -67178.268   -52859.272    -25472.26   -13063.803   -931.78239   -2850.2677    82.611825 
   47900    1091.0685   -105.59723   0.98722171   -104.61001     2459.384    4.3451371    4.3451371    4.3451371     2459.384   -2039.7559    4165.9149    5251.9928    253.41785    3248.3978    17223.016    82.037126 
   48000    1680.5051   -106.12374    1.5205563   -104.60318    20011.133    4.3371538    4.3371538    4.3371538    20011.133    41177.326    10784.104    8071.9681    10437.714   -16831.492   -10681.938    81.585777 
   48100    714.13953   -105.26842   0.64616846   -104.62225   -24088.282    4.3656807    4.3656807    4.3656807   -24088.282   -30374.521   -21239.733   -20650.592   -10315.198    2663.8545    11941.388    83.206239 
   48200    1037.3513   -105.52785   0.93861726   -104.58923    13717.011    4.3560334    4.3560334    4.3560334    13717.011    62527.135    2026.2091   -23402.311    6074.6104   -7687.5371   -4363.9262    82.655852 
   48300    1711.2565   -106.12911    1.5483808   -104.58073    3132.2264    4.3373366    4.3373366    4.3373366    3132.2264   -11552.002   -11803.949     32752.63   -14843.374   -5153.9296    6400.0213    81.596096 
   48400    1046.3793   -105.55293     0.946786   -104.60615   -20412.347    4.3618588    4.3618588    4.3618588   -20412.347    -7021.045   -33591.376    -20624.62   -3917.8383    18735.983    6635.5722    82.987907 
   48500    1449.7404   -105.89351    1.3117556   -104.58175    8651.0054    4.3634101    4.3634101    4.3634101    8651.0054    14772.819    32706.806   -21526.609   -5976.2481    2468.6075   -19893.699    83.076481 
   48600    908.41022   -105.40706   0.82194866   -104.58511    13404.013    4.3569936    4.3569936    4.3569936    13404.013    66515.947   -9908.3492   -16395.558   -3710.9467    16442.783    19801.214    82.710523 
   48700    1276.0777   -105.74645    1.1546219   -104.59183   -5176.4983    4.3534856    4.3534856    4.3534856   -5176.4983    33951.244   -14792.994   -34687.745      12178.1   -2241.7785   -9768.5061    82.510905 
   48800    1446.7915   -105.90653    1.3090874   -104.59744    4895.3757    4.3335257    4.3335257    4.3335257    4895.3757    7686.9252   -2905.1195    9904.3214   -4624.0392   -10020.469    1066.4905    81.381206 
   48900    1247.3262   -105.75135    1.1286069   -104.62275   -1854.3158    4.3444948    4.3444948    4.3444948   -1854.3158    9759.4568   -6335.8891   -8986.5152   -3819.9085   -9560.3607    5972.0335    82.000754 
   49000    1046.2134   -105.56152   0.94663587   -104.61488   -6690.1832    4.3640234    4.3640234    4.3640234   -6690.1832    48536.428   -21291.207   -47315.771   -11272.806   -21514.825   -7611.2184     83.11152 
   49100    1196.0329   -105.68501    1.0821957   -104.60281    13011.561    4.3405511    4.3405511    4.3405511    13011.561    20806.718   -32567.494    50795.459    -8796.359    26817.433    6589.3425    81.777651 
   49200    1629.9835   -106.08264    1.4748433    -104.6078   -9904.3599    4.3390848    4.3390848    4.3390848   -9904.3599   -23433.868   -6141.9822   -137.22998   -73.327948   -13257.502   -4416.9822    81.694799 
   49300    1092.8092   -105.60717   0.98879673   -104.61838   -5397.3631    4.3579208    4.3579208    4.3579208   -5397.3631    25649.518   -42956.754    1115.1471   -3299.0114    7322.8502   -2078.1306    82.763338 
   49400    977.05705   -105.49274   0.88406175   -104.60868    25766.102    4.3489831    4.3489831    4.3489831    25766.102     49690.15   -41805.756    69413.912    6790.7678   -17804.323    1039.5724    82.255163 
   49500    1324.9182       -105.8    1.1988139   -104.60118    3217.8251    4.3415869    4.3415869    4.3415869    3217.8251     39413.56   -21742.384   -8017.7011   -4715.8336   -19484.083   -5186.5552    81.836207 
   49600    1280.0615   -105.77503    1.1582265    -104.6168   -9179.7054    4.3484109    4.3484109    4.3484109   -9179.7054    -35435.28    -45805.04    53701.204    1022.5265    9791.9595    -11899.34    82.222701 
   49700    1667.4172   -106.12455    1.5087141   -104.61584   -4085.2636    4.3487743    4.3487743    4.3487743   -4085.2636    24441.558    -25161.81   -11535.539    4030.3342    6362.2931   -8693.2965    82.243312 
   49800    819.70192   -105.36541   0.74168352   -104.62373    948.55579    4.3448546    4.3448546    4.3448546    948.55579    40092.683    -17287.65   -19959.366    3540.4815    3225.6908    67.369492    82.021129 
   49900     1609.785   -106.07054    1.4565673   -104.61397   -1979.0104    4.3433104    4.3433104    4.3433104   -1979.0104   -19147.295    7296.6299    5913.6336    12700.996   -996.67576   -15256.946    81.933709 
   50000    1628.8681   -106.07873    1.4738341    -104.6049   -21577.819    4.3596932    4.3596932    4.3596932   -21577.819    2410.4898   -13779.654   -53364.294    1103.7467   -9872.8005     2004.095    82.864358 
   50100    1352.3682   -105.81443    1.2236511   -104.59077   -38125.275    4.3592071    4.3592071    4.3592071   -38125.275   -48422.067   -24862.665   -41091.092    7692.8006   -11771.164   -10377.538    82.836648 
   50200    1181.5789   -105.65977    1.0691174   -104.59065    25796.444    4.3410617    4.3410617    4.3410617    25796.444     72937.19    26627.999   -22175.858   -1081.3989   -6623.8528    5326.7316    81.806512 
   50300    1565.6857    -106.0122    1.4166653   -104.59553    7822.3056    4.3333931    4.3333931    4.3333931    7822.3056    25782.483    3151.4916   -5467.0579   -7436.0716    1770.7667     -8246.17    81.373737 
   50400    721.14539   -105.27557    0.6525075   -104.62306    8796.5873    4.3411165    4.3411165    4.3411165    8796.5873    51278.435    17029.185   -41917.859   -2877.9227    14140.438    13375.967    81.809611 
   50500    1866.2611   -106.30519    1.6886323   -104.61656   -22033.638    4.3557697    4.3557697    4.3557697   -22033.638    -33460.12    989.41072   -33630.204    11730.858    2933.8236    12062.379    82.640843 
   50600    1385.9181   -105.86476    1.2540078   -104.61075    771.65499    4.3443377    4.3443377    4.3443377    771.65499    9390.1502   -7098.4072    23.221937    5509.6732    12138.142    11888.197    81.991858 
   50700    1221.8704    -105.7117     1.105574   -104.60612    -802.6049    4.3342761    4.3342761    4.3342761    -802.6049    1257.0347    -15601.04    11936.191    13571.274   -5824.1554     26779.19    81.423489 
   50800    1545.0015   -105.99566    1.3979498   -104.59771    13906.155    4.3523387    4.3523387    4.3523387    13906.155    28927.287   -8472.7689    21263.947    -3846.975   -1157.2665    1948.5539    82.445707 
   50900    835.77812   -105.36362    0.7562296   -104.60739   -9474.8583    4.3549964    4.3549964    4.3549964   -9474.8583    8340.7259   -59504.257    22738.957    6090.4865   -4521.3055    29731.639    82.596832 
   51000    1562.5505   -106.00999    1.4138285   -104.59616   -2780.0703    4.3433315    4.3433315    4.3433315   -2780.0703   -4288.4082   -9586.3272    5534.5244   -8087.1327   -3565.7655   -381.42117    81.934902 
   51100    1402.1659   -105.86689    1.2687092   -104.59818    15606.164    4.3379084    4.3379084    4.3379084    15606.164    14432.576    4964.2669    27421.648   -5278.0845     6471.674   -433.48044     81.62837 
   51200    1358.1516   -105.83564    1.2288841   -104.60676   -38532.457    4.3478052    4.3478052    4.3478052   -38532.457   -31502.694   -51838.407   -32256.269    -8867.708    3582.1262    16842.183    82.188346 
   51300    1780.7288   -106.20439    1.6112409   -104.59315   -11968.191    4.3507552    4.3507552    4.3507552   -11968.191   -20511.897   -9089.9839   -6302.6916   -11090.472    7524.0994   -4550.3622    82.355751 
   51400    1368.9155   -105.83455    1.2386236   -104.59593   -17348.961    4.3440344    4.3440344    4.3440344   -17348.961   -25962.114   -7062.8457   -19021.921    6985.7452    6536.7161    7268.6304    81.974686 
   51500    1174.8958   -105.66351    1.0630704   -104.60044    9024.7293    4.3300788    4.3300788    4.3300788    9024.7293    14406.857    6638.5701     6028.761     722.8574   -9000.2046   -10299.454    81.187171 
   51600    1393.1193   -105.86255    1.2605236   -104.60203    16254.633    4.3396526    4.3396526    4.3396526    16254.633    62324.984    -6218.829   -7342.2547    9911.4606    529.73102    14838.065    81.726877 
   51700    1014.8582   -105.52658   0.91826503   -104.60831   -5872.4424    4.3538029    4.3538029    4.3538029   -5872.4424    41327.443   -37659.343   -21285.428    24986.507    -12150.12   -12708.208    82.528944 
   51800    1113.9681   -105.60873    1.0079417   -104.60079    9262.2612    4.3437876    4.3437876    4.3437876    9262.2612    24782.994    12799.404   -9795.6148   -3221.5442   -7087.4909   -7687.2487    81.960715 
   51900    1790.6325   -106.21013    1.6202019   -104.58992   -2862.1515       4.3337       4.3337       4.3337   -2862.1515   -7950.9689    5115.1769   -5750.6625    1031.4684    585.33391    15253.366    81.391027 
   52000    1329.0883   -105.80595     1.202587   -104.60336   -22703.428    4.3391363    4.3391363    4.3391363   -22703.428   -46141.002   -14876.737   -7092.5459   -8071.2542   -6762.4906   -18848.625    81.697707 
   52100    1594.5452   -106.05222     1.442778   -104.60944   -1571.5636    4.3525129    4.3525129    4.3525129   -1571.5636   -32668.027    43587.145   -15633.809   -17589.106    398.32789    3760.4514    82.455608 
   52200    1452.5544    -105.9323    1.3143018   -104.61799    11089.792    4.3373189    4.3373189    4.3373189    11089.792    30673.255   -15738.264    18334.386    7226.6045   -7398.5531   -9436.8865    81.595098 
   52300    862.65787   -105.40458   0.78055097   -104.62403    29890.625    4.3246223    4.3246223    4.3246223    29890.625    35457.282    12575.344    41639.248    -15369.44   -8285.0539   -6261.1804    80.880632 
   52400    1605.3256   -106.06283    1.4525324    -104.6103    5963.1961    4.3503072    4.3503072    4.3503072    5963.1961    37225.886    21315.568   -40651.865    11518.034    5061.0261    1183.3803    82.330313 
   52500    1224.8746   -105.72447    1.1082923   -104.61618   -12921.875    4.3428987    4.3428987    4.3428987   -12921.875   -21849.029   -50298.888    33382.292   -12667.156   -4227.4728    1426.6564     81.91041 
   52600    1123.3392   -105.63323    1.0164209   -104.61681   -579.16064    4.3318874    4.3318874    4.3318874   -579.16064   -31446.489    15241.375    14467.632   -17574.169    4369.4707   -3112.6187    81.288943 
   52700     2122.485   -106.52649    1.9204691   -104.60602    -22366.25    4.3371591    4.3371591    4.3371591    -22366.25   -38759.241    518.75458   -28858.264    5913.3411    7348.8495    4586.1887    81.586081 
   52800     924.6459   -105.44792   0.83663905   -104.61128    2313.6528    4.3427481    4.3427481    4.3427481    2313.6528   -48005.526    2937.4665    52009.018    -28218.96   -1391.9579   -786.78249    81.901889 
   52900    1358.9678   -105.84016    1.2296226   -104.61054   -5635.2408    4.3394364    4.3394364    4.3394364   -5635.2408    4345.4158   -6716.5245   -14534.614    7131.7101    9228.7012    15848.409    81.714659 
   53000    1851.0376   -106.28369    1.6748577   -104.60883   -725.76201    4.3390747    4.3390747    4.3390747   -725.76201   -16819.057    27232.215   -12590.444    777.97764   -9732.8793   -14108.114    81.694231 
   53100    1022.6741    -105.5391   0.92533702   -104.61376    14574.839    4.3367838    4.3367838    4.3367838    14574.839    -1961.098    43835.352    1850.2631    4968.2328    8045.4405   -1751.6743    81.564902 
   53200    1387.5999   -105.87852    1.2555295   -104.62299   -20402.098    4.3485513    4.3485513    4.3485513   -20402.098   -14025.457   -2840.1621   -44340.676     11261.57    5655.2181    14917.603    82.230666 
   53300    1564.1661   -106.02484    1.4152903   -104.60955    29183.766     4.339232     4.339232     4.339232    29183.766   -22327.147    81007.633    28870.811     4155.268    188.43078   -15354.556    81.703113 
   53400     756.7479   -105.31432    0.6847214    -104.6296   -1519.7053    4.3291704    4.3291704    4.3291704   -1519.7053    11575.674   -4071.4049   -12063.385     10966.44    16003.065    21011.945    81.136082 
   53500    1629.5253   -106.09786    1.4744287   -104.62343    818.75084    4.3404992    4.3404992    4.3404992    818.75084   -11978.211   -254.21725    14688.681    6017.3627   -3067.1719    10032.359    81.774713 
   53600    1250.7908   -105.74581    1.1317418   -104.61406   -21995.459    4.3653798    4.3653798    4.3653798   -21995.459   -35558.647    24758.005   -55185.734   -14749.851    13206.056    9856.1055    83.189039 
   53700    635.75304   -105.18157   0.57524271   -104.60632   -12717.612    4.3467917    4.3467917    4.3467917   -12717.612    1453.8562    5603.0771   -45209.768     4637.608   -2160.3349    37525.651    82.130882 
   53800    1759.6336   -106.16536    1.5921535    -104.5732    32139.592     4.313594     4.313594     4.313594    32139.592    7136.1637    58239.637    31042.976   -5991.8005    18323.479   -1360.0985    80.263448 
   53900    918.56796   -105.45298    0.8311396   -104.62184   -8904.2032    4.3398653    4.3398653    4.3398653   -8904.2032    13796.371   -27177.521    -13331.46    4412.5687   -8326.1808    36145.285    81.738895 
   54000    1420.9784   -105.88833    1.2857311    -104.6026   -28307.498    4.3593077    4.3593077    4.3593077   -28307.498   -51588.607   -53764.403    20430.517     8047.034    9679.3379    6729.8797    82.842384 
   54100    1468.5856   -105.91473    1.3288072   -104.58592   -14342.076    4.3472285    4.3472285    4.3472285   -14342.076   -19316.184   -13053.205    -10656.84   -9483.7337    11791.191    5649.9441    82.155644 
   54200    941.56347   -105.44935   0.85194642    -104.5974   -11322.708    4.3220037    4.3220037    4.3220037   -11322.708   -30962.506   -29546.033    26540.416    32495.062   -1528.1643     20119.15    80.733799 
   54300    1874.6969   -106.30123    1.6962651   -104.60497    28704.317    4.3169816    4.3169816    4.3169816    28704.317    21602.156    43008.337    21502.458   -20275.972    7350.1463   -9998.3652    80.452693 
   54400    868.74794   -105.41526   0.78606139    -104.6292    -31205.16    4.3546287    4.3546287    4.3546287    -31205.16   -35746.138   -34060.116   -23809.225    20613.401   -5121.5337    31644.947    82.575915 
   54500    1279.3242    -105.7726    1.1575594   -104.61504   -19475.354    4.3381612    4.3381612    4.3381612   -19475.354   -49865.806   -14029.996    5469.7403    9148.3075    15386.433   -2948.7142    81.642642 
   54600    1153.4499   -105.64121    1.0436657   -104.59754    60413.085    4.3180577    4.3180577    4.3180577    60413.085    42932.985    27942.412    110363.86    -13959.88   -2827.0818     17730.64    80.512871 
   54700    1300.0015   -105.79222    1.1762687   -104.61596   -22367.951    4.3351072    4.3351072    4.3351072   -22367.951   -18421.078   -53357.501    4674.7253    18037.843    12989.476    16889.608    81.470342 
   54800    1307.5983   -105.78604    1.1831425    -104.6029    13334.514    4.3486189    4.3486189    4.3486189    13334.514   -3347.4196   -356.12675    43707.088   -22053.372    5426.7044   -2300.3409    82.234501 
   54900     1260.702   -105.74079    1.1407096   -104.60008   -33869.076    4.3500452    4.3500452    4.3500452   -33869.076   -18611.996   -54815.497   -28179.734    17952.951     4577.735    21863.589    82.315439 
   55000    1326.0499   -105.79477    1.1998378   -104.59493    15840.226    4.3212809    4.3212809    4.3212809    15840.226   -7882.8921   -18095.843    73499.413   -8193.5853   -14043.465   -4787.3462    80.693302 
   55100    1329.6899    -105.8125    1.2031313   -104.60937    17410.484    4.3264318    4.3264318    4.3264318    17410.484    23342.544   -11013.128    39902.037    8553.3583   -14592.172      11038.2    80.982202 
   55200    1076.6444   -105.58289    0.9741705   -104.60872   -31546.737    4.3496449    4.3496449    4.3496449   -31546.737   -28959.433   -77215.274    11534.494    11162.085   -7803.2827    17398.488    82.292717 
   55300    1595.6682   -106.03298    1.4437941   -104.58918    12391.508    4.3322264    4.3322264    4.3322264    12391.508   -15622.688   -5873.0338    58670.246   -2833.5508   -7244.4483   -4240.1075    81.308031 
   55400    815.27579    -105.3451   0.73767866   -104.60742   -14016.825    4.3289387    4.3289387    4.3289387   -14016.825    2938.2512   -25904.657   -19084.071    20509.131    13695.131    22912.481    81.123057 
   55500    1869.0527   -106.29909    1.6911582   -104.60793    -8148.387    4.3319941    4.3319941    4.3319941    -8148.387   -16666.831   -12255.308    4476.9781   -310.94688   -2450.0232   -14467.402    81.294948 
   55600     1151.816   -105.66132    1.0421873   -104.61913   -12685.924     4.340363     4.340363     4.340363   -12685.924    3630.9437   -20586.574    -21102.14    8250.7145    3948.1154    14584.242    81.767019 
   55700    901.28947   -105.43235   0.81550565   -104.61685   -15411.817    4.3330204    4.3330204    4.3330204   -15411.817    17311.461   -41777.272   -21769.641   -2410.5373    5364.2901   -1547.6951    81.352746 
   55800    1737.6439    -106.1696    1.5722567   -104.59735    14790.927    4.3279884    4.3279884    4.3279884    14790.927    3237.7637   -6097.6123    47232.629    5280.3715   -16785.189   -3654.6483    81.069646 
   55900    954.36766    -105.4804   0.86353191   -104.61687   -24665.062     4.346271     4.346271     4.346271   -24665.062    9784.9012   -62569.319   -21210.768     21588.57   -8619.8611    29849.807     82.10137 
   56000    1384.6847   -105.85154    1.2528918   -104.59864    12347.371    4.3339262    4.3339262    4.3339262    12347.371   -11945.595    -2965.645    51953.353    2353.7169   -14164.862   -4423.0236    81.403776 
   56100     1028.007   -105.53206   0.93016238    -104.6019    2100.5152    4.3377138    4.3377138    4.3377138    2100.5152   -15422.635    6725.3526    14998.828    27763.081    973.06628    28559.061    81.617387 
   56200    1348.2007   -105.81008    1.2198803    -104.5902   -13955.047    4.3504317    4.3504317    4.3504317   -13955.047   -5941.4737    4405.4135    -40329.08    8107.3966   -5785.1845    7239.2789    82.337381 
   56300    1391.2754   -105.84073    1.2588552   -104.58188    20996.313    4.3305056    4.3305056    4.3305056    20996.313   -20198.195    30017.131    53170.004    6242.1728   -4745.8863    1432.9597    81.211181 
   56400    709.09108   -105.25156   0.64160051   -104.60996   -626.50254    4.3300003    4.3300003    4.3300003   -626.50254   -27493.758   -4624.2648    30238.515    23416.863    9676.4015    5510.8404    81.182752 
   56500    1847.9198    -106.2823    1.6720367   -104.61026   -5940.3699    4.3423913    4.3423913    4.3423913   -5940.3699   -18918.305   -15121.824    16219.019   -4123.3678   -3488.0179   -12119.997    81.881705 
   56600    1034.8222   -105.55557    0.9363289   -104.61925   -37182.065    4.3466841    4.3466841    4.3466841   -37182.065   -36924.372   -54834.156   -19787.665    17229.379    17977.745     23120.56    82.124785 
   56700    1368.9188   -105.84367    1.2386265   -104.60504    2456.2754    4.3253803    4.3253803    4.3253803    2456.2754   -11121.165    6934.6112     11555.38    283.87664   -6072.7139    9931.2858    80.923172 
   56800    1200.7752    -105.6957    1.0864866   -104.60922     28182.69    4.3190103    4.3190103    4.3190103     28182.69   -4015.4037     37568.37    50995.104   -6278.4148    4599.7897   -10493.325    80.566172 
   56900    1016.4132    -105.5528   0.91967207   -104.63313   -19696.687    4.3468135    4.3468135    4.3468135   -19696.687    -31669.46   -11151.749   -16268.853    10733.865    5084.7968    20770.784    82.132118 
   57000      1721.69   -106.15555    1.5578213   -104.59772   -4353.2786    4.3528307    4.3528307    4.3528307   -4353.2786   -20294.782    428.17638    6806.7703   -10751.679   -4118.8542   -18151.812    82.473673 
   57100    899.96551   -105.41388   0.81430771   -104.59957    7148.1935    4.3206721    4.3206721    4.3206721    7148.1935   -30883.808   -26226.505    78554.893     11927.57    4956.1996    13860.392    80.659203 
   57200    1470.8851   -105.94354    1.3308877   -104.61266    10755.293    4.3244511    4.3244511    4.3244511    10755.293   -10645.537    33656.231     9255.185    3737.4328    4651.5874    12599.905     80.87103 
   57300    1356.7288    -105.8427    1.2275968   -104.61511    26552.303      4.34005      4.34005      4.34005    26552.303   -24014.961    59933.821     43738.05    3220.4342    5177.5923    122.94397    81.749329 
   57400    805.40905   -105.34299   0.72875103   -104.61424     4166.933    4.3486988    4.3486988    4.3486988     4166.933   -46617.766    47713.632    11404.933    14723.129   -2702.8671    19594.871    82.239029 
   57500    1740.4012    -106.1669    1.5747516   -104.59215   -1747.4649    4.3442255    4.3442255    4.3442255   -1747.4649   -36337.662   -1631.8493    32727.117   -9512.0435   -11435.234   -6196.5177    81.985507 
   57600    1269.0417   -105.74521    1.1482556   -104.59696    29843.788    4.3191621    4.3191621    4.3191621    29843.788   -1642.0178    59202.623    31970.759    2330.9532      2836.17   -2134.3585    80.574666 
   57700    1133.8928   -105.64705      1.02597   -104.62108    10028.257    4.3284189    4.3284189    4.3284189    10028.257   -16400.061    35900.631    10584.201   -8556.7928   -21659.688    11345.785     81.09384 
   57800    1633.5508   -106.09115    1.4780711   -104.61307   -4145.7937    4.3463747    4.3463747    4.3463747   -4145.7937   -35565.983    25845.617    -2717.015   -8616.0951   -333.04238   -11692.987    82.107247 
   57900    851.52969   -105.39389   0.77048196   -104.62341    6017.3382    4.3404457    4.3404457    4.3404457    6017.3382   -24105.327     9075.775    33081.566    3188.1105   -8084.0099    23840.495    81.771691 
   58000    1583.1225   -106.04309    1.4324425   -104.61065   -15292.191    4.3295859    4.3295859    4.3295859   -15292.191   -27284.043    4061.4594    -22653.99   -6785.8567   -11499.298   -4929.5889    81.159446 
   58100    1472.2884   -105.93855    1.3321575   -104.60639     24154.98    4.3286276    4.3286276    4.3286276     24154.98   -21662.738    70624.829    23502.849     11072.09    1783.7321    3930.8943    81.105571 
   58200    478.63093   -105.06129   0.43307532   -104.62821    384.85153     4.346719     4.346719     4.346719    384.85153   -45734.586     43215.26    3673.8799    4835.2831   -3854.4223   -1958.3208    82.126764 
   58300    1880.9699   -106.30227    1.7019411   -104.60033   -10716.604    4.3521669    4.3521669    4.3521669   -10716.604   -50833.238     30695.57   -12012.143    4797.9298    7321.7614   -591.39343    82.435945 
   58400    1136.4153   -105.63679    1.0282524   -104.60854    5341.2308    4.3295314    4.3295314    4.3295314    5341.2308   -46952.827    14676.234    48300.285    10373.987   -12449.726    16228.143    81.156383 
   58500    1291.2925   -105.78968    1.1683886   -104.62129   -7584.1256    4.3250613    4.3250613    4.3250613   -7584.1256   -41615.369    9770.2093    9092.7824   -908.20291    14620.003    19468.379    80.905268 
   58600     1784.225   -106.22735    1.6144042   -104.61295    6615.4602    4.3413565    4.3413565    4.3413565    6615.4602   -37460.264    19968.132    37338.513    6211.5854   -14039.084   -6248.2812    81.823181 
   58700    1022.4924    -105.5419   0.92517259   -104.61673   -27734.637    4.3492162    4.3492162    4.3492162   -27734.637   -61658.495   -686.48806   -20858.928    6920.5899    12649.811    17036.337     82.26839 
   58800    1288.3289   -105.77833     1.165707   -104.61262    5777.7085    4.3357258    4.3357258    4.3357258    5777.7085   -65447.735    30702.344    52078.517   -4386.0234    9222.8946   -7716.8256    81.505218 
   58900    1779.5078   -106.21746    1.6101361   -104.60733    28716.039    4.3125327    4.3125327    4.3125327    28716.039    4207.8921    51934.608    30005.617    9218.6694   -2253.9874    1341.7527     80.20422 
   59000    547.27231   -105.14505   0.49518349   -104.64987   -2950.8071    4.3363103    4.3363103    4.3363103   -2950.8071   -57329.897    25386.366     23091.11   -13307.014    20037.206      23912.4    81.538188 
   59100    1839.0235   -106.27926    1.6639871   -104.61527    -24997.54    4.3495744    4.3495744    4.3495744    -24997.54   -57064.573   -26542.527     8614.479    4736.1969   -385.13304   -11789.131    82.288715 
   59200    1038.8512   -105.56785   0.93997441   -104.62788    16751.649    4.3282856    4.3282856    4.3282856    16751.649   -36472.499    13037.751    73689.695   -4735.7462   -573.37952    22758.218    81.086344 
   59300    1190.5787   -105.71332    1.0772606   -104.63606   -3889.3703    4.3160305    4.3160305    4.3160305   -3889.3703   -12279.486   -12117.195     12728.57     -3431.19    4196.6599    2493.9166     80.39953 
   59400    1502.5842   -105.99806    1.3595698   -104.63849    21948.746    4.3355225    4.3355225    4.3355225    21948.746   -50482.593    4339.2223    111989.61    4542.1684   -1884.2226   -7298.8896    81.493753 
   59500    1234.5754   -105.75422    1.1170698   -104.63715   -26814.707    4.3423818    4.3423818    4.3423818   -26814.707   -54320.624   -9464.9256    -16658.57   -4175.8131     12848.98    23283.592    81.881168 
   59600      1043.97   -105.57329   0.94460598   -104.62868     15824.28    4.3294949    4.3294949    4.3294949     15824.28   -43920.033   -17765.452    109158.32    9930.2544   -4120.1183    6608.6215    81.154331 
   59700    1974.1842   -106.40447    1.7862834   -104.61818     4117.292    4.3297377    4.3297377    4.3297377     4117.292   -39535.364    46463.719     5423.522   -1107.4202   -7084.5408    4500.9369    81.167987 
   59800    861.31018   -105.41085   0.77933155   -104.63152    6679.7967    4.3325567    4.3325567    4.3325567    6679.7967   -55567.924    -2489.624    78096.938     8798.581   -1823.4262    21114.976     81.32663 
   59900    1209.1115   -105.72963    1.0940295    -104.6356   -14211.471    4.3419225    4.3419225    4.3419225   -14211.471    -53366.56    16233.786   -5501.6389    3018.5352   -26064.982   -3827.3271    81.855188 
   60000    1864.8871   -106.30639     1.687389   -104.61901    26.840003    4.3366234    4.3366234    4.3366234    26.840003   -34967.648    24643.791    10404.376    6906.4843    3482.2313    9758.1031    81.555853 
   60100    752.12068   -105.31383    0.6805346    -104.6333     -19356.5    4.3303903    4.3303903    4.3303903     -19356.5   -61966.663   -23106.755    27003.918    832.40126   -18063.286    14153.533    81.204693 
   60200    1224.3569   -105.73827    1.1078238   -104.63045    13348.018    4.3269626    4.3269626    4.3269626    13348.018    -45478.93    44334.917    41188.067    1194.0509    -2535.817   -15339.238    81.012016 
   60300     1675.761   -106.14632    1.5162637   -104.63005    -5448.381    4.3428011    4.3428011    4.3428011    -5448.381   -41795.652    7.2788381     25443.23   -126.47284   -834.15932    977.42436    81.904888 
   60400     458.5183   -105.04806     0.414877   -104.63318   -19276.133    4.3494516    4.3494516    4.3494516   -19276.133   -88281.049    37226.761    -6774.111   -17426.512   -15461.075      2580.94    82.281746 
   60500    1670.5327   -106.11618    1.5115331   -104.60464    9538.3727    4.3274731    4.3274731    4.3274731    9538.3727   -23284.333    39831.116    12068.334    2018.8408    18962.092    5244.0092    81.040692 
   60600    1754.8052   -106.20486    1.5877846   -104.61707   -1594.2865    4.3269151    4.3269151    4.3269151   -1594.2865   -28110.675    13926.516    9401.3002    -5888.375   -5072.5256    15968.369    81.009344 
   60700    736.59621   -105.30857   0.66648773   -104.64209    7301.3181    4.3305317    4.3305317    4.3305317    7301.3181   -58838.374    52953.589     27788.74   -6896.5668    24556.635    2214.8533     81.21265 
   60800    1485.7973   -105.96873    1.3443806   -104.62435    10657.841    4.3429358    4.3429358    4.3429358    10657.841   -29440.927    38835.088     22579.36    5001.5879    2447.3719   -7189.0243    81.912509 
   60900    1441.1446   -105.92261    1.3039779   -104.61863    7671.7625    4.3337383    4.3337383    4.3337383    7671.7625   -26383.407    14468.079    34930.615   -12659.001     15966.13   -7022.9374    81.393185 
   61000     1068.733     -105.595   0.96701208   -104.62799   -10560.591    4.3296645    4.3296645    4.3296645   -10560.591   -66027.548    27938.926    6406.8468    9450.8124    12369.837      10789.1    81.163867 
   61100    1702.3588   -106.16136      1.54033   -104.62103    2106.4673     4.335616     4.335616     4.335616    2106.4673   -38291.095   -4987.9271    49598.424    3637.2413   -10856.827    -6045.098    81.499026 
   61200    1229.1594   -105.74274    1.1121692   -104.63057    6647.4105    4.3332164    4.3332164    4.3332164    6647.4105     -28239.8      16493.3    31688.731    -4063.556    9112.8944     10230.97    81.363782 
   61300    754.56079   -105.32048   0.68274246   -104.63774   -717.96777    4.3356543    4.3356543    4.3356543   -717.96777   -73400.483    14081.123    57165.457    12140.418   -13641.723   -12567.176    81.501191 
   61400    1732.2921   -106.17814    1.5674143   -104.61073    5612.9786    4.3337348    4.3337348    4.3337348    5612.9786   -52165.917    28826.449    40178.404   -4019.6902   -3585.3715    1452.0157    81.392989 
   61500    1241.2017   -105.74245    1.1230654   -104.61939   -11510.496    4.3363718    4.3363718    4.3363718   -11510.496   -61085.286    24855.707    1698.0922    3760.1615    5175.7333    2939.9448    81.541657 
   61600    780.68605   -105.32979   0.70638114   -104.62341   -4566.2175    4.3396028    4.3396028    4.3396028   -4566.2175   -52764.454    32279.448    6786.3533   -297.02111   -32525.726    -4777.481    81.724061 
   61700    1913.2393    -106.3336    1.7311391   -104.60246    11438.413    4.3304545    4.3304545    4.3304545    11438.413   -32937.222    26196.324    41056.136    7373.6873    10065.095    15386.915    81.208306 
   61800     778.0758   -105.33068   0.70401933   -104.62666    8407.0325    4.3338167    4.3338167    4.3338167    8407.0325   -68386.493     32216.31     61391.28   -5902.2838   -13929.081    7727.3082    81.397603 
   61900    1522.3507   -105.99783    1.3774549   -104.62037     -5350.78    4.3450448    4.3450448    4.3450448     -5350.78   -39953.153    13016.769    10884.044   -1219.1046   -3451.4297   -1663.8239    82.031903 
   62000    1617.3564   -106.06508     1.463418   -104.60166   -8362.9371    4.3491232    4.3491232    4.3491232   -8362.9371   -54505.384    4546.0247    24870.548    204.84861   -5411.5661   -15041.972    82.263114 
   62100    906.41855   -105.42332   0.82014655   -104.60318   -13577.344     4.332416     4.332416     4.332416   -13577.344   -60624.324    35867.139   -15974.848   -6732.4798   -11795.478   -7298.2325    81.318707 
   62200    1790.2606   -106.21602    1.6198654   -104.59615    15894.573    4.3303459    4.3303459    4.3303459    15894.573     -23881.9    34228.785    37336.833   -4830.8588    11346.442   -7507.0119    81.202196 
   62300    1230.3943   -105.71832    1.1132866   -104.60503   -5245.7079    4.3425461    4.3425461    4.3425461   -5245.7079   -69056.932    74383.146   -21063.338   -5335.5612   -25576.437    579.18903    81.890463 
   62400    834.94072   -105.37604   0.75547191   -104.62057   -12873.464    4.3375101    4.3375101    4.3375101   -12873.464   -47884.837    3017.9862    6246.4589   -396.90633    19614.738    845.65193    81.605886 
   62500    1474.1557   -105.95446     1.333847   -104.62061    25380.093    4.3225997    4.3225997    4.3225997    25380.093   -10564.088    40835.324    45869.042   -12460.548   -11607.488   -3524.9563    80.767205 
   62600    1139.6833   -105.66593    1.0312094   -104.63472    11297.372    4.3271742    4.3271742    4.3271742    11297.372   -45014.834    73179.842    5727.1087   -11032.721   -117.43761    -4768.301    81.023897 
   62700    1099.2281   -105.62204   0.99460468   -104.62743   -32765.333    4.3521549    4.3521549    4.3521549   -32765.333    -77351.59   -17968.004   -2976.4054    21381.091    14173.624   -3490.6252    82.435263 
   62800    1591.6209   -106.04496     1.440132   -104.60483   -6341.6462    4.3349789    4.3349789    4.3349789   -6341.6462   -49729.239    47421.106   -16716.805   -7660.9989   -9519.2442   -3533.7693    81.463108 
   62900    1249.2407   -105.73883    1.1303392   -104.60849   -4599.8206    4.3168735    4.3168735    4.3168735   -4599.8206   -43514.807     49210.93   -19495.585    10755.278    25044.592   -4538.9835    80.446652 
   63000     1206.935   -105.71836    1.0920602    -104.6263    1017.1305    4.3247304    4.3247304    4.3247304    1017.1305   -36936.076    16659.313    23328.154    14417.157   -8387.3318    192.16422    80.886699 
   63100    1171.5083   -105.69361    1.0600054    -104.6336   -15839.946     4.343759     4.343759     4.343759   -15839.946   -53824.801    38210.439   -31905.476   -8518.7247    17132.605   -10755.813    81.959095 
   63200    1643.0549   -106.10652    1.4866706   -104.61985   -18805.868    4.3370521    4.3370521    4.3370521   -18805.868   -51645.246    -5596.143    823.78482    14941.762   -869.24251   -258.98012     81.58004 
   63300    985.82428   -105.51164   0.89199452   -104.61965    15421.647    4.3149201    4.3149201    4.3149201    15421.647   -21378.554    37792.505    29850.989   -313.49729    5973.0439    5185.0822    80.337495 
   63400    1354.0683    -105.8556    1.2251895   -104.63041    10412.995    4.3269832    4.3269832    4.3269832    10412.995   -26021.285    66644.429   -9384.1573    4414.4447    10290.226   -2313.2496    81.013171 
   63500    1547.4936   -106.02689    1.4002048   -104.62669    5825.2068    4.3409856    4.3409856    4.3409856    5825.2068   -22442.221    37658.947    2258.8942    11174.706   -3171.9495    5212.7452    81.802208 
   63600    718.79951   -105.28289   0.65038491   -104.63251   -27071.034    4.3428743    4.3428743    4.3428743   -27071.034   -17980.192   -8231.0084   -55001.901   -11837.689    19049.299   -23024.156     81.90903 
   63700    2112.6407   -106.51435    1.9115617   -104.60279   -7250.8952    4.3244972    4.3244972    4.3244972   -7250.8952   -27831.632    21613.066   -15534.119    9111.4489   -1359.5691   -3537.0735    80.873616 
   63800    839.56172   -105.38506   0.75965309    -104.6254    18888.056    4.3253027    4.3253027    4.3253027    18888.056    6161.2555    61107.698   -10604.786     3378.708    10543.061    3983.7126    80.918815 
   63900    1216.6596   -105.73152    1.1008592   -104.63066   -35707.089    4.3435779    4.3435779    4.3435779   -35707.089   -7799.6629   -53474.452   -45847.153    994.28419    7487.4847    -6575.874    81.948848 
   64000    1819.1206   -106.25093    1.6459785   -104.60495    2305.7007    4.3376563    4.3376563    4.3376563    2305.7007     10984.16    10818.928   -14885.986    9768.3641    4432.4284    9929.4763    81.614142 
   64100    860.38093   -105.39164   0.77849074   -104.61315   -19203.418    4.3316056    4.3316056    4.3316056   -19203.418   -14079.249    1401.5931   -44932.599   -12832.508    11503.189   -24058.477    81.273083 
   64200    1253.0427   -105.74436    1.1337794   -104.61058     10633.56    4.3192049    4.3192049    4.3192049     10633.56    18161.751   -3353.9586    17092.888    9007.6922    1094.0687    -12502.24     80.57706 
   64300    1429.4838   -105.91324     1.293427   -104.61981   -4268.7536    4.3368867    4.3368867    4.3368867   -4268.7536   -49118.451    58218.697   -21906.507   -317.31566    30739.153   -6025.6356    81.570709 
   64400    988.66859    -105.5012   0.89456812   -104.60664    -16015.04    4.3446969    4.3446969    4.3446969    -16015.04   -39264.952    -4522.594    -4257.575   -2842.8389    1548.0533    -31992.47    82.012196 
   64500    1013.3425   -105.51711   0.91689357   -104.60022    17604.886      4.32143      4.32143      4.32143    17604.886   -26462.967    23571.908    55705.716   -4171.1445    10250.686    230.22846    80.701658 
   64600    1363.5736   -105.83952    1.2337901   -104.60573    6975.8093    4.3276664    4.3276664    4.3276664    6975.8093    1964.8965    34446.491   -15483.959    4402.1817    20960.347   -25927.969    81.051549 
   64700    1370.3113   -105.84969    1.2398864    -104.6098   -7592.7641    4.3379785    4.3379785    4.3379785   -7592.7641   -24910.393   -3419.5728    5551.6737    5093.9232   -10940.992   -18850.087    81.632331 
   64800    671.16383   -105.22145   0.60728314   -104.61417    1880.1104    4.3361693    4.3361693    4.3361693    1880.1104   -4495.3191    33676.494   -23540.844    3962.0375      16173.6    4633.5891    81.530234 
   64900     1676.972   -106.12374    1.5173595   -104.60638   -16556.148    4.3234715    4.3234715    4.3234715   -16556.148   -23278.303    9836.4374   -36226.576    10301.383   -16557.455   -12762.243    80.816083 
   65000    1395.9425   -105.87898    1.2630781    -104.6159    9816.2341    4.3221035    4.3221035    4.3221035    9816.2341    25380.588   -1242.1934    5310.3071   -3256.4262    13707.184   -4753.3052    80.739397 
   65100    1049.6164   -105.57617   0.94971496   -104.62645   -33044.803    4.3343784    4.3343784    4.3343784   -33044.803   -70914.992    8007.7829   -36227.201   -59.997101    4519.1464    3590.8314    81.429255 
   65200    1236.3169   -105.74069    1.1186455   -104.62205   -19630.992    4.3373181    4.3373181    4.3373181   -19630.992   -25840.595   -9162.4849   -23889.897    -3344.897   -16754.768   -14206.098     81.59505 
   65300    1723.1228   -106.16973    1.5591177   -104.61061   -7733.7806    4.3279785    4.3279785    4.3279785   -7733.7806   -20516.712   -3831.2197    1146.5902   -5.4616571    17322.659    2067.9133    81.069089 
   65400    790.10406   -105.33874   0.71490276   -104.62384    3404.1506    4.3202328    4.3202328    4.3202328    3404.1506   -4076.9787     51456.62   -37167.189     1181.658   -13438.353   -16684.972    80.634603 
   65500    1505.2823   -105.98817    1.3620111   -104.62616   -4760.0083    4.3293156    4.3293156    4.3293156   -4760.0083   -15280.136    9433.7782   -8433.6671   -6560.3323     4603.818   -22070.545    81.144245 
   65600    1322.7379   -105.82174     1.196841    -104.6249    3861.9068    4.3358624    4.3358624    4.3358624    3861.9068    -19486.89    29579.141    1493.4693    6544.8123   -14844.537     2382.797    81.512924 
   65700    1030.2347   -105.55246   0.93217796   -104.62028   -3573.6232     4.337413     4.337413     4.337413   -3573.6232   -5197.7251    18640.152   -24163.296    3141.6596   -68.795763   -29255.564    81.600409 
   65800    1608.0461   -106.06102    1.4549939   -104.60602    2220.7623    4.3273502    4.3273502    4.3273502    2220.7623    2418.8811   -9257.4848     13500.89     -4821.16    10605.827    18042.227    81.033785 
   65900    1183.1789   -105.68679    1.0705651   -104.61622    2616.6002    4.3197043    4.3197043    4.3197043    2616.6002   -25460.736    37965.242   -4654.7061    2172.7746   -25686.107   -20747.902    80.605011 
   66000    1079.0513   -105.60511   0.97634827   -104.62876    673.36641    4.3373959    4.3373959    4.3373959    673.36641    29135.015   -10845.345    -16269.57   -1328.2772    17391.887   -5786.2788    81.599444 
   66100    1559.7507   -106.02406    1.4112952   -104.61277   -16676.893    4.3397405    4.3397405    4.3397405   -16676.893   -8512.2694   -32751.113   -8767.2972   -5582.5012    -10428.66    2739.7484    81.731843 
   66200    999.58033     -105.514   0.90444129   -104.60956   -12168.274    4.3202328    4.3202328    4.3202328   -12168.274   -20142.418    18382.859   -34745.262   -4159.1546    -10233.22   -43592.315    80.634605 
   66300    1459.4571   -105.92553    1.3205474   -104.60499    9339.6662    4.3236283    4.3236283    4.3236283    9339.6662    22602.999    8881.0214   -3465.0216   -5160.4988    26641.212    21917.159    80.824878 
   66400    1197.9256   -105.70031    1.0839082   -104.61641   -21653.636    4.3341924    4.3341924    4.3341924   -21653.636    14120.517   -35781.582   -43299.842   -4329.9019    2754.5384   -38774.654    81.418775 
   66500    1387.3728   -105.87025     1.255324   -104.61493    1186.4563    4.3350282    4.3350282    4.3350282    1186.4563    10730.064    26111.491   -33282.186    -6999.927   -9072.8368    -6861.621    81.465886 
   66600    1172.3618   -105.67317    1.0607776   -104.61239    15987.566    4.3263027    4.3263027    4.3263027    15987.566    62587.491    6497.4135   -21122.206    2362.0287    19105.468   -11427.017    80.974956 
   66700    1150.4182   -105.66014    1.0409226   -104.61922   -513.65669    4.3170923    4.3170923    4.3170923   -513.65669    -3429.603    -13369.03    15257.662   -3701.6979   -13601.035    -30887.55    80.458886 
   66800     1482.917   -105.96378    1.3417744     -104.622   -710.24162    4.3375949    4.3375949    4.3375949   -710.24162    33539.251    214.22891   -35884.204    8562.5193    14032.709    7829.2549    81.610674 
   66900    1300.9981   -105.79552    1.1771704   -104.61835    -9190.805    4.3323298    4.3323298    4.3323298    -9190.805    4380.3703   -15764.144   -16188.641    10551.846    17193.007   -40202.123    81.313851 
   67000    1356.0816   -105.83035    1.2270111   -104.60334    17665.832    4.3164479    4.3164479    4.3164479    17665.832    13178.817     669.7845    39148.896     5222.821   -20770.329    7306.0231    80.422857 
   67100    984.58831   -105.51277    0.8908762    -104.6219   -29898.496    4.3315091    4.3315091    4.3315091   -29898.496   -3368.8518    -40216.43   -46110.207      5485.83    11217.641   -25870.357    81.267647 
   67200    1688.9175   -106.14559    1.5281681   -104.61742    -8899.683    4.3273948    4.3273948    4.3273948    -8899.683   -5370.2993   -27615.517    6286.7674     4039.433    7730.6412   -6658.1166    81.036294 
   67300    1427.4109   -105.90989    1.2915514   -104.61834   -6888.6327    4.3376069    4.3376069    4.3376069   -6888.6327    14390.243    -46203.09    11146.949    1308.5152    6943.8648   -7113.0366    81.611354 
   67400    804.47956   -105.35098   0.72791001   -104.62307   -12475.307    4.3240274    4.3240274    4.3240274   -12475.307     9398.369   -29239.861   -17584.428   -2645.9979    10886.783   -36730.549    80.847259 
   67500    1524.0249   -105.98842    1.3789698   -104.60945    18292.974    4.3114358    4.3114358    4.3114358    18292.974     26170.65    -7380.051    36088.323    5367.0773    14316.273    14675.666    80.143032 
   67600    1265.5836   -105.76886    1.1451266   -104.62374   -14370.586    4.3368878    4.3368878    4.3368878   -14370.586    30427.443    -48000.02   -25539.181    3161.4222    2258.1821   -39965.922    81.570767 
   67700    1680.0672   -106.12926    1.5201601    -104.6091   -21257.998    4.3345416    4.3345416    4.3345416   -21257.998   -32558.249   -10158.003   -21057.742    2206.9128    14555.944   -919.25663    81.438455 
   67800    871.69483   -105.40356    0.7887278   -104.61484    -6708.607    4.3289698    4.3289698    4.3289698    -6708.607     27507.44   -33846.366   -13786.895   -4958.7948   -13280.095   -20757.234    81.124806 
   67900    1512.5444   -105.97837    1.3685819   -104.60978   -13717.318    4.3211442    4.3211442    4.3211442   -13717.318    383.82308   -8336.7007   -33199.077     5069.869     13806.51   -33322.312    80.685645 
   68000     1506.733   -105.97583    1.3633237   -104.61251    15226.715    4.3281692    4.3281692    4.3281692    15226.715    29190.927    19353.872   -2864.6528   -19297.686   -442.98668    2232.8148    81.079805 
   68100    944.50787    -105.4649   0.85461057   -104.61028   -30225.292    4.3438173    4.3438173    4.3438173   -30225.292    8123.9963   -45127.292   -53672.582   -3724.2546   -337.08846   -36359.014    81.962394 
   68200    1577.0878   -106.02066    1.4269822   -104.59368     2025.875    4.3232927    4.3232927    4.3232927     2025.875   -6000.9301    19153.958   -7075.4025    3978.6025    18783.655    4915.4433    80.806059 
   68300    1170.5576   -105.66783    1.0591451   -104.60868    7580.2885    4.3219898    4.3219898    4.3219898    7580.2885     34188.09   -5854.4739   -5592.7506   -6334.5327   -16773.347   -27874.794    80.733022 
   68400    1283.1476   -105.77871    1.1610189   -104.61769   -10066.458    4.3307664    4.3307664    4.3307664   -10066.458    7211.3141   -14490.719    -22919.97    15076.283    12362.936   -10076.165    81.225855 
   68500    1118.7048   -105.62779    1.0122276   -104.61556    24332.581    4.3278191    4.3278191    4.3278191    24332.581    39714.153    21402.789      11880.8    15731.406    13094.072    3336.4754    81.060131 
   68600    1314.8796   -105.80314    1.1897307   -104.61341   -18500.554    4.3330969    4.3330969    4.3330969   -18500.554   -30325.291    7535.2984   -32711.669   -5463.8045   -17725.192   -25814.192    81.357053 
   68700    1277.7473   -105.76645    1.1561326   -104.61032    11132.623    4.3331893    4.3331893    4.3331893    11132.623    13678.056    3565.4474    16154.365    17174.364    20801.593    23149.309    81.362255 
   68800    1326.9219   -105.80876    1.2006268   -104.60814    3534.7678     4.323553     4.323553     4.323553    3534.7678    26902.143    13046.804   -29344.643    3106.3121   -3071.1785    -18678.83    80.820656 
   68900    1346.7862   -105.82965    1.2186005   -104.61105   -3216.7284     4.321821     4.321821     4.321821   -3216.7284    7051.3658   -12777.195   -3924.3558    3204.8492   -3579.0903   -11413.828    80.723564 
   69000    1346.6664   -105.82897     1.218492   -104.61048    -446.3085    4.3361874    4.3361874    4.3361874    -446.3085    12147.623   -6511.5596   -6974.9893    9340.3271   -2019.8323    14726.371    81.531254 
   69100    966.47542   -105.48713   0.87448727   -104.61264   -20887.166    4.3405578    4.3405578    4.3405578   -20887.166   -5343.0578   -16964.571    -40353.87    3712.2052   -22950.684   -32320.561    81.778025 
   69200    1731.8732   -106.16414    1.5670353    -104.5971    11632.273    4.3254468    4.3254468    4.3254468    11632.273    34221.327    6000.3594   -5324.8667    2471.0311    1654.6798    13476.055    80.926902 
   69300    986.61979   -105.50697   0.89271432   -104.61425   -1203.2454    4.3158237    4.3158237    4.3158237   -1203.2454     4814.209    12344.237   -20768.182    391.31377   -20307.422   -11479.141    80.387975 
   69400    1145.1656   -105.66105    1.0361699   -104.62488   -14277.982    4.3293427    4.3293427    4.3293427   -14277.982   -36332.242    13049.526   -19551.231    6371.8713   -10420.079   -16840.334    81.145773 
   69500    1662.2706   -106.11222    1.5040574   -104.60816    -10268.32     4.339172     4.339172     4.339172    -10268.32   -16846.378   -679.06435   -13279.517    1597.5518    13617.655    11068.223    81.699723 
   69600    1101.9125   -105.61037   0.99703357   -104.61334   -38168.569    4.3291301    4.3291301    4.3291301   -38168.569   -27227.109   -31311.316   -55967.282   -8576.5208   -32410.768   -26609.605    81.133816 
   69700    1388.8389   -105.86734    1.2566506   -104.61069    1293.5456     4.315201     4.315201     4.315201    1293.5456   -37171.125    25107.665    15944.096     6039.386    40468.183    4822.9527    80.353186 
   69800     1334.516   -105.82258    1.2074982   -104.61508     4446.562    4.3212889    4.3212889    4.3212889     4446.562    9589.3549    13338.732   -9588.4009    -3676.572   -9487.0308    911.46106    80.693753 
   69900    1242.1762    -105.7455    1.1239471   -104.62155    -22477.95    4.3351365    4.3351365    4.3351365    -22477.95    -27900.58   -625.60946   -38907.661    -1416.203    10143.571   -12775.962    81.471988 
   70000    1330.7235   -105.81533    1.2040666   -104.61127   -8952.4178    4.3401227    4.3401227    4.3401227   -8952.4178   -20195.764    2578.2048   -9239.6949    5363.8465    36631.206    7159.1029    81.753437 
   70100    1242.2033   -105.72426    1.1239716   -104.60029    20279.419    4.3215351    4.3215351    4.3215351    20279.419    19367.281     36785.02    4685.9561    2388.7373   -18235.624   -3052.8497    80.707546 
   70200    978.22879   -105.49855   0.88512197   -104.61343   -22657.989    4.3180836    4.3180836    4.3180836   -22657.989   -47457.879     14003.78   -34519.869     807.9958     49317.63   -405.77727    80.514322 
   70300    1671.2195   -106.12432    1.5121545   -104.61217    16418.603    4.3300568    4.3300568    4.3300568    16418.603    578.00298    3539.8108    45137.995   -1909.3128    -10337.88    7372.1447    81.185932 
   70400    1012.7734   -105.53522   0.91637868   -104.61884   -9730.7519    4.3347746    4.3347746    4.3347746   -9730.7519   -55486.401    68105.765   -41811.619    7475.4786    31818.683    2422.0115    81.451588 
   70500    1098.7052   -105.61128   0.99413151   -104.61715   -10224.934     4.327228     4.327228     4.327228   -10224.934   -65979.483   -301.77431    35606.454   -11819.955    12047.166    1897.8448    81.026922 
   70600     1694.676   -106.14599    1.5333784   -104.61261    6197.5096    4.3225211    4.3225211    4.3225211    6197.5096   -8724.3658    31119.422   -3802.5273   -5852.7108   -1836.7854     2306.867    80.762802 
   70700    1156.0906   -105.66971    1.0460551   -104.62365    -14049.78    4.3324563    4.3324563    4.3324563    -14049.78   -57187.705    23669.597   -8631.2318   -4804.1268    23470.451   -1998.4528    81.320975 
   70800    1237.2115   -105.73437    1.1194549   -104.61492   -9814.3452    4.3319649    4.3319649    4.3319649   -9814.3452   -47558.129    -15740.16    33855.253   -8123.6928   -20991.482    3036.7869    81.293304 
   70900    1659.5386   -106.11041    1.5015854   -104.60882    2448.8231     4.330262     4.330262     4.330262    2448.8231   -8918.4282    35880.796   -19615.899     1262.203    16298.787   -22186.884    81.197476 
   71000    1222.6742   -105.71977    1.1063013   -104.61347   -4770.0266    4.3264893    4.3264893    4.3264893   -4770.0266   -44961.526   -8884.9866    39536.432    7906.1076   -20017.095   -13848.416     80.98543 
   71100    1183.4386     -105.687    1.0708001    -104.6162    18791.203    4.3278374    4.3278374    4.3278374    18791.203   -18189.964    49055.333    25508.239   -9727.6509   -5393.3237   -2229.8257    81.061161 
   71200    1574.1121   -106.03493    1.4242897   -104.61065   -1691.5215    4.3367236    4.3367236    4.3367236   -1691.5215   -24646.929    9350.0643      10222.3    6059.2055   -2633.5711   -8480.7071    81.561503 
   71300    792.82167   -105.33855   0.71736171   -104.62119    8340.7863    4.3271286    4.3271286    4.3271286    8340.7863   -55762.894    5047.5298    75737.723    -7811.815   -24274.936     15629.18    81.021336 
   71400    2055.4386   -106.46204     1.859804   -104.60224    8182.7558    4.3235459    4.3235459    4.3235459    8182.7558    5196.6949    17964.266    1387.3062    10594.511     16287.05    5230.1902    80.820256 
   71500    895.77626   -105.43302   0.81051719    -104.6225    4305.3686    4.3263581    4.3263581    4.3263581    4305.3686   -54600.726    8007.5977    59509.234   -11125.923   -15026.243   -11969.493    80.978063 
   71600    1213.9753   -105.72652    1.0984304   -104.62809   -17090.822    4.3397917    4.3397917    4.3397917   -17090.822    -55068.36    2221.3006    1574.5922   -3807.6504   -8644.4442    4136.5811    81.734732 
   71700     1771.347    -106.2148     1.602752   -104.61205   -11409.879    4.3301591    4.3301591    4.3301591   -11409.879   -36200.019    18307.343    -16336.96    -4208.564    34626.588   -14954.604    81.191687 
   71800    956.37802    -105.4787   0.86535093   -104.61335    5032.8287    4.3130284    4.3130284    4.3130284    5032.8287    -42900.04    8506.7513    49491.775   -19144.577   -20720.493   -9751.1038     80.23188 
   71900    1086.1053   -105.61351   0.98273086   -104.63077   -19685.309    4.3282922    4.3282922    4.3282922   -19685.309   -64223.671    29463.863   -24296.118    1451.6276    41799.167   -1325.3847    81.086719 
   72000    1883.5977   -106.31455    1.7043187   -104.61023   -4036.2761    4.3382453    4.3382453    4.3382453   -4036.2761   -38555.504    25644.469    802.20729   -9497.6281    1914.3807   -17716.417    81.647393 
   72100      943.622   -105.47694   0.85380902   -104.62313   -10117.552    4.3265885    4.3265885    4.3265885   -10117.552   -64461.241    17063.325     17045.26   -9385.1173    24829.518    7936.7312    80.991002 
   72200    1178.5312   -105.69255    1.0663598   -104.62619    10411.107    4.3239177    4.3239177    4.3239177    10411.107   -44558.685    63425.369    12366.639    9272.0804    8869.6006    3263.2403    80.841111 
   72300     1905.756   -106.34436     1.724368      -104.62    7132.7394    4.3248836    4.3248836    4.3248836    7132.7394   -31008.728     11148.27    41258.676   -4538.6255    7967.7742     22836.29    80.895296 
   72400    758.60604   -105.32023   0.68640269   -104.63383   -8553.3561    4.3331743    4.3331743    4.3331743   -8553.3561   -54361.512    49690.179   -20988.736    871.21195    27179.061   -7236.7283    81.361413 
   72500    1467.0031   -105.94364    1.3273752   -104.61627   -6500.0143    4.3360327    4.3360327    4.3360327   -6500.0143    -50805.41    31177.121    128.24546    6457.0492     -29695.9    16733.887    81.522529 
   72600    1608.4783   -106.06952     1.455385   -104.61413    14970.945    4.3154254    4.3154254    4.3154254    14970.945   -32278.071    44840.747    32350.157   -5783.0925    37025.765   -5388.8098    80.365722 
   72700     1083.338   -105.61434   0.98022701   -104.63411    2514.8953    4.3231702    4.3231702    4.3231702    2514.8953   -38699.815    48714.683   -2470.1813    12617.674   -23980.281   -7700.3468    80.799192 
   72800    1392.6206   -105.88353    1.2600724   -104.62346   -12149.491    4.3393336    4.3393336    4.3393336   -12149.491   -67469.968    18866.871    12154.624   -5153.8479    1452.5213   -3636.1723    81.708855 
   72900    1574.7065   -106.03892    1.4248276   -104.61409   -5746.4913    4.3286473    4.3286473    4.3286473   -5746.4913    -45724.89     32468.24   -3982.8241    8266.2982   -7791.8115   -9281.2106    81.106676 
   73000    901.15714   -105.44254   0.81538592   -104.62716   -22924.054    4.3329838    4.3329838    4.3329838   -22924.054   -64219.901   -9800.0551    5247.7933    7463.3796   -17620.531    9303.8259    81.350684 
   73100    1826.8005   -106.26379    1.6529275   -104.61086    19365.584    4.3179886    4.3179886    4.3179886    19365.584   -819.79946    46528.641     12387.91   -6925.5051    4054.1534   -1063.5824    80.509009 
   73200      841.895   -105.39513   0.76176429   -104.63337     -27742.5    4.3292936    4.3292936    4.3292936     -27742.5   -74669.836    4913.8304   -13471.496    12960.496   -29688.432    7613.3015    81.143012 
   73300    1435.1829   -105.91885    1.2985837   -104.62026   -15922.694    4.3313435    4.3313435    4.3313435   -15922.694   -45097.829   -6811.4633    4141.2112   -5339.5924    11184.941    877.45873    81.258325 
   73400     1512.258    -105.9796    1.3683228   -104.61127    22554.611    4.3193761    4.3193761    4.3193761    22554.611   -7922.4526     57536.22    18050.065    6342.2915   -20541.303   -8228.7398    80.586644 
   73500     1065.277   -105.58499   0.96388506   -104.62111   -17112.985    4.3279418    4.3279418    4.3279418   -17112.985   -59674.847   -11159.562    19495.455   -868.10516   -585.82761    -512.2804    81.067026 
   73600    1167.1885   -105.66701    1.0560967   -104.61091    11597.371    4.3369027    4.3369027    4.3369027    11597.371   -30167.212     63112.05    1847.2742   -17049.773   -3890.3553   -8536.4162    81.571608 
   73700    1551.2609   -106.00561    1.4036135   -104.60199   -7350.4457    4.3384065    4.3384065    4.3384065   -7350.4457   -25692.509   -5257.4441    8898.6161    15959.762    -13248.04    2413.2118    81.656492 
   73800    1019.3559   -105.52729   0.92233467   -104.60496    4182.1448    4.3173851    4.3173851    4.3173851    4182.1448   -30699.428   -7727.7811    50973.644   -10551.019    11666.196   -10313.568    80.475255 
   73900    1478.4469    -105.9396    1.3377298   -104.60187     21912.72    4.3175597    4.3175597    4.3175597     21912.72   -4209.5885    50429.033    19518.715   -37.130113   -9035.3383    16765.734     80.48502 
   74000    1070.0882   -105.57624    0.9682383     -104.608   -19282.489    4.3406567    4.3406567    4.3406567   -19282.489   -48726.968   -33402.833    24282.334    22915.283    330.94348    2033.7014     81.78362 
   74100    1384.4729   -105.84967    1.2527001   -104.59697   -4776.7211    4.3343922    4.3343922    4.3343922   -4776.7211   -37463.351    21153.421    1979.7668   -26672.147    1382.4248    7190.5266    81.430034 
   74200    1375.8608   -105.83856    1.2449078   -104.59365    14311.446    4.3174643    4.3174643    4.3174643    14311.446   -10422.063    39985.572    13370.829     25845.53   -3265.2703    4246.4683    80.479685 
   74300    852.17533   -105.38811   0.77106614   -104.61704   -7718.3135    4.3237567    4.3237567    4.3237567   -7718.3135    -53133.28     18549.15    11429.189    -18343.67    10689.838   -6716.4984    80.832075 
   74400    1743.4903   -106.19051    1.5775467   -104.61296    1546.6423    4.3337557    4.3337557    4.3337557    1546.6423   -4787.7215    29019.412   -19591.764   -10530.826   -1676.5812    8531.8815    81.394166 
   74500    1267.4762   -105.77025    1.1468391   -104.62341   -19766.413    4.3340911    4.3340911    4.3340911   -19766.413    -50801.69    1606.6088   -10104.157    23844.634    5497.6336    1717.3894    81.413066 
   74600    1122.4396   -105.63378    1.0156069   -104.61817    14331.503    4.3214575    4.3214575    4.3214575    14331.503   -42401.785     54178.06    31218.234   -12559.838    1950.6188    7133.0198    80.703198 
   74700    1450.7873   -105.92956    1.3127028   -104.61685    6100.1274    4.3285365    4.3285365    4.3285365    6100.1274   -7431.8994    23300.952    2431.3296    14978.707   -11528.078    17928.941     81.10045 
   74800    1616.0054   -106.06552    1.4621956   -104.60332   -3299.8758    4.3315178    4.3315178    4.3315178   -3299.8758   -47773.601    18088.593     19785.38   -604.07074     8626.863   -279.75919    81.268136 
   74900    1072.3599   -105.57455   0.97029381   -104.60425     5294.727    4.3277639    4.3277639    4.3277639     5294.727   -33061.973    56031.198   -7085.0438   -3730.2375   -6581.9487    17251.896    81.057031 
   75000    1447.5114   -105.91405    1.3097388   -104.60431    7776.9786    4.3238859    4.3238859    4.3238859    7776.9786   -351.45673    10756.142     12926.25    17319.258   -8141.3524    5119.9635    80.839323 
   75100    1725.4251   -106.17118    1.5612009   -104.60998   -1979.3262    4.3286559    4.3286559    4.3286559   -1979.3262   -27100.677    20377.125    785.57361   -14407.909    3428.5361    9016.5094    81.107162 
   75200    1021.9328   -105.54435   0.92466624   -104.61969   -9190.2612    4.3306738    4.3306738    4.3306738   -9190.2612   -21205.479    10771.444   -17136.749    12890.634   -14499.638    29912.585    81.220644 
   75300    1398.0494   -105.87816    1.2649845   -104.61318    6014.2604    4.3332964    4.3332964    4.3332964    6014.2604    -23133.18    29316.198    11859.763    -5670.518    7729.1979   -13986.482    81.368287 
   75400    1472.0916   -105.94209    1.3319794   -104.61011   -14821.992     4.336499     4.336499     4.336499   -14821.992    318.14474   -13342.735   -31441.385   -7162.8427   -4165.9535    20168.315    81.548835 
   75500    1214.2214   -105.69835     1.098653   -104.59969    34609.044     4.317994     4.317994     4.317994    34609.044     34091.82    60046.786    9688.5272    1836.3928   -3086.2587    312.50516    80.509312 
   75600    972.96091   -105.49136   0.88035548     -104.611   -10887.152    4.3354552    4.3354552    4.3354552   -10887.152   -5484.6046   -8094.2132   -19082.639   -9119.3606    5949.8275    9567.7088    81.489959 
   75700     1712.112   -106.14842    1.5491549   -104.59927   -18515.574     4.338068     4.338068     4.338068   -18515.574   -2399.8853    -27068.23   -26078.608    3461.9084   -9231.5218    16586.527     81.63738 
   75800    1225.6276     -105.712    1.1089736   -104.60303    14178.148    4.3219086    4.3219086    4.3219086    14178.148    7939.2775    25736.504    8858.6618    12768.304    2879.0849   -6615.3268     80.72847 
   75900    1299.5038   -105.78495    1.1758183   -104.60913   -3443.5015    4.3293151    4.3293151    4.3293151   -3443.5015    25001.934   -12438.328   -22894.111   -12284.765    8565.7932     24176.69    81.144222 
   76000    1309.8569   -105.79283     1.185186   -104.60765    15890.955    4.3303608    4.3303608    4.3303608    15890.955    58932.204   -19639.495    8380.1542    19397.199   -4980.2169   -16159.724    81.203031 
   76100    990.02899   -105.51837   0.89579903   -104.62257   -1851.9312     4.327976     4.327976     4.327976   -1851.9312   -5174.0887    -8777.072    8395.3673   -3652.0383    15371.625    17468.439    81.068947 
   76200    1890.8879    -106.3173    1.7109151   -104.60638   -7998.1853    4.3325035    4.3325035    4.3325035   -7998.1853    16728.955    -15542.03   -25181.482    6837.3032    -20899.07   -6892.4168    81.323632 
   76300    750.27228   -105.29629   0.67886213   -104.61743     2030.362     4.321582     4.321582     4.321582     2030.362   -16288.468   -35339.574    57719.128    11189.578   -4304.0186    1140.7057    80.710173 
   76400    1547.6319   -106.01064    1.4003299   -104.61031    9926.2564    4.3264354    4.3264354    4.3264354    9926.2564    35246.192   -7214.7815    1747.3584   -13735.818     3570.021    1401.6697    80.982403 
   76500    1345.7301   -105.83007    1.2176448   -104.61242   -26975.738    4.3409857    4.3409857    4.3409857   -26975.738   -16496.225   -48029.729    -16401.26    24605.612   -13200.112   -11113.898    81.802214 
   76600     1323.692   -105.80571    1.1977043     -104.608    14659.573    4.3248997    4.3248997    4.3248997    14659.573    44004.312   -14893.517    14867.925   -25162.767    10792.718    6360.2652    80.896202 
   76700    1262.1301   -105.75108    1.1420018   -104.60907    12540.976    4.3225218    4.3225218    4.3225218    12540.976    53822.521   -14314.356   -1885.2379    6265.5549   -15346.442   -16831.018    80.762842 
   76800    884.41624   -105.41981    0.8002384   -104.61957   -21982.626    4.3353429    4.3353429    4.3353429   -21982.626   -28372.035   -25506.821   -12069.023    606.15776    1796.1868    4961.6398    81.483628 
   76900    1983.0494   -106.39322    1.7943048   -104.59891    4180.5235    4.3285556    4.3285556    4.3285556    4180.5235    4300.6314    2810.7476    5430.1916   -12707.989    6703.5421   -16490.836    81.101523 
   77000    1161.1266   -105.66226    1.0506117   -104.61165   -21910.967    4.3366257    4.3366257    4.3366257   -21910.967    2973.6438   -37062.925   -31643.621    23404.427   -10115.677    2669.1439    81.555979 
   77100    1340.4294   -105.81183    1.2128487   -104.59898    10825.325     4.328328     4.328328     4.328328    10825.325    9.3375129    12854.457    19612.181   -12860.722    9625.2069   -6760.0237    81.088731 
   77200    969.11316   -105.47746   0.87687395   -104.60058    37209.955    4.3177786    4.3177786    4.3177786    37209.955    83494.317    6286.7543    21848.794    24712.838   -4759.9756   -16650.966     80.49726 
   77300    1665.8007   -106.11406    1.5072515    -104.6068   -27929.234    4.3386596    4.3386596    4.3386596   -27929.234   -35362.842   -31281.119    -17143.74    12845.787    -13352.04    13165.928    81.670784 
   77400    1356.4881   -105.83239    1.2273789   -104.60501    13133.353    4.3297077    4.3297077    4.3297077    13133.353    52849.513    12501.936   -25951.391   -11780.976   -5718.9037   -26456.261    81.166296 
   77500    1143.0906    -105.6434    1.0342924   -104.60911   -5231.5103    4.3305725    4.3305725    4.3305725   -5231.5103   -27641.058   -25874.409    37820.936    25217.897   -2004.0865     5246.762    81.214945 
   77600    1380.4062   -105.85184    1.2490205   -104.60282   -4014.4202    4.3333065    4.3333065    4.3333065   -4014.4202    44532.554   -28940.117   -27635.697   -7625.3434   -5816.0818    -16189.25    81.368862 
   77700    1454.3613    -105.9181    1.3159367   -104.60216    9523.0718    4.3148467    4.3148467    4.3148467    9523.0718    32017.504    1122.3635   -4570.6516    20932.648   -1073.7962   -12830.656    80.333393 
   77800    1307.4727   -105.80045    1.1830288   -104.61742   -11088.332    4.3348472    4.3348472    4.3348472   -11088.332    7896.5311   -35488.232   -5673.2964    16329.291    -16278.91   -8777.6138    81.455679 
   77900    1152.0784   -105.64812    1.0424248   -104.60569   -5693.6517    4.3397367    4.3397367    4.3397367   -5693.6517    59147.398   -31434.055   -44794.298   -4511.7516    2108.2304   -19428.773    81.731626 
   78000    1268.5234   -105.75606    1.1477866   -104.60827   -21522.339    4.3288729    4.3288729    4.3288729   -21522.339   -48996.147    1393.9566   -16964.825    25401.604    2429.8707      700.907    81.119355 
   78100    1458.9052   -105.92491    1.3200481   -104.60486    6692.7236     4.323659     4.323659     4.323659    6692.7236    60978.863    -28439.17   -12461.521   -1854.1786   -17338.362   -30250.631      80.8266 
   78200    1247.5815    -105.7402     1.128838   -104.61136   -11266.935    4.3287911    4.3287911    4.3287911   -11266.935   -21954.336   -16772.915    4926.4455     13523.58     20205.83    6568.7486     81.11476 
   78300    1044.7326   -105.55843   0.94529602   -104.61313   -16420.639    4.3441932    4.3441932    4.3441932   -16420.639    2245.0384   -25950.073   -25556.883        13488   -11865.069   -16372.145    81.983675 
   78400    1736.0409   -106.17399    1.5708063   -104.60319   -18718.786    4.3322647    4.3322647    4.3322647   -18718.786   -2778.2629   -38376.272   -15001.822    283.71094   -7698.8963   -9369.8229    81.310186 
   78500    968.44913    -105.4874   0.87627313   -104.61113    7540.8287    4.3168713    4.3168713    4.3168713    7540.8287   -7419.5682    21638.032    8404.0223    31538.406    30859.955     3987.326    80.446529 
   78600     1489.344   -105.96571    1.3475898   -104.61812    5555.8152    4.3263655    4.3263655    4.3263655    5555.8152    36811.448   -20679.955    535.95257   -9218.0151    -11807.86   -18317.725    80.978478 
   78700    1010.4841   -105.53715   0.91430721   -104.62284   -5393.9469    4.3428421    4.3428421    4.3428421   -5393.9469   -26853.752    10224.823     447.0886    10624.504    22099.385    5029.4859    81.907206 
   78800    1433.7166   -105.90762    1.2972569   -104.61036   -1760.1411    4.3348135    4.3348135    4.3348135   -1760.1411   -3322.2686    20531.306   -22489.461    10479.674    11904.981    -18.36449    81.453782 
   78900    1677.0389   -106.12185    1.5174201   -104.60443   -568.83961    4.3229345    4.3229345    4.3229345   -568.83961    -21104.23    14681.498    4716.2127   -7638.8086    11392.675   -10749.361    80.785973 
   79000    751.16588   -105.30278   0.67967067   -104.62311    306.17953    4.3229156    4.3229156    4.3229156    306.17953   -53569.053    53305.052    1182.5394    34131.853    26910.467    8957.1813    80.784917 
   79100    1815.9805   -106.25621    1.6431373   -104.61308   -6871.9336     4.338337     4.338337     4.338337   -6871.9336    28494.688   -6076.9576   -43033.531   -15743.114   -17190.776    1725.9625    81.652568 
   79200    1105.0317   -105.61697    0.9998559   -104.61712   -10019.864    4.3414588    4.3414588    4.3414588   -10019.864   -3566.1707   -3336.0971   -23157.323    19514.371    5256.9883    3705.2646    81.828961 
   79300    1193.3695    -105.6927    1.0797858   -104.61291   -4280.9591    4.3332767    4.3332767    4.3332767   -4280.9591    6287.2836    3315.0962   -22445.257     10906.53   -8709.9049    2775.9294    81.367181 
   79400    1656.0711   -106.10309     1.498448   -104.60464   -4226.3988    4.3255361    4.3255361    4.3255361   -4226.3988   -8878.5176     13001.05   -16801.728   -3582.8632   -27982.026     5267.381    80.931914 
   79500    986.64283   -105.51045   0.89273517   -104.61772    13827.058    4.3291935    4.3291935    4.3291935    13827.058     21905.64    12839.306    6736.2296    26868.606     19785.19    4470.5015    81.137381 
   79600    1393.4064   -105.86754    1.2607834   -104.60675   -12668.279    4.3449232    4.3449232    4.3449232   -12668.279   -10083.989     10215.17   -38136.017   -8867.5844   -18594.295    1467.0579    82.025013 
   79700    1390.2661   -105.85718     1.257942   -104.59924   -13164.763    4.3322104    4.3322104    4.3322104   -13164.763   -43719.987   -17161.232     21386.93    32847.026   -3398.0808    2377.0474    81.307129 
   79800    1287.9926    -105.7672    1.1654028    -104.6018    7283.7893    4.3282017    4.3282017    4.3282017    7283.7893   -3459.0628    32152.449   -6842.0182   -4165.7496   -581.74096    4230.7031     81.08163 
   79900    1469.6796   -105.93508     1.329797   -104.60528   -12490.513    4.3370449    4.3370449    4.3370449   -12490.513   -14977.898    274.72804   -22768.369    23377.843   -25490.358    1589.1441    81.579635 
   80000    1321.9522   -105.80359    1.1961301   -104.60746    4509.7262    4.3359481    4.3359481    4.3359481    4509.7262   -1193.9848   -5553.4666     20276.63    15883.152    1160.3129    -2683.958    81.517758 
   80100    870.46531   -105.39544   0.78761531   -104.60782    22636.676    4.3328364    4.3328364    4.3328364    22636.676    41818.357     31275.71   -5184.0395   -13063.135   -25728.744   -2366.9589    81.342382 
   80200    1559.9608   -106.01323    1.4114853   -104.60175   -4663.3714    4.3382172    4.3382172    4.3382172   -4663.3714   -13091.278   -19413.941    18515.105    24706.136   -3708.5358   -8983.0778    81.645803 
   80300    1648.5143   -106.09102    1.4916104    -104.5994   -11939.774    4.3400149    4.3400149    4.3400149   -11939.774   -30296.194   -17358.143    11835.015    -10475.08   -11129.547    3999.3423    81.747344 
   80400    803.90171   -105.33791   0.72738717   -104.61052    3605.8422     4.337179     4.337179     4.337179    3605.8422    7669.5921    35868.474    -32720.54     3265.647   -12433.057   -10135.967      81.5872 
   80500    1527.2914   -105.98749    1.3819253   -104.60557    12531.051    4.3273969    4.3273969    4.3273969    12531.051    25602.185    -12658.22    24649.188    6377.0858    13500.361   -7646.1864    81.036409 
   80600    1228.5917   -105.72781    1.1116555   -104.61616    13553.765    4.3244307    4.3244307    4.3244307    13553.765    18379.726    21095.743    1185.8258   -1485.0316   -17713.578    3030.4131    80.869886 
   80700     1164.685   -105.67601    1.0538315   -104.62218   -10037.191     4.338915     4.338915     4.338915   -10037.191   -38249.467    36870.671   -28732.777    13876.158    2563.0788   -24395.559    81.685208 
   80800    1365.4963   -105.84535    1.2355298   -104.60982    12962.563    4.3297052    4.3297052    4.3297052    12962.563    2876.9838    12193.052    23817.653   -14328.888   -14755.141    1633.5315    81.166159 
   80900     1241.953   -105.73261    1.1237452   -104.60886   -9284.3061    4.3393713    4.3393713    4.3393713   -9284.3061    6884.5434   -4356.6202   -30380.841    1578.5699   -5269.2101   -5329.6479    81.710984 
   81000    1231.2558   -105.71661    1.1140662   -104.60255   -12216.062    4.3415406    4.3415406    4.3415406   -12216.062    39133.039   -54689.702   -21091.522    1454.5092    6131.2613   -14258.038    81.833589 
   81100    1332.9868   -105.79598    1.2061144   -104.58987    24692.277     4.320287     4.320287     4.320287    24692.277    38062.134    9313.9044    26700.792   -18163.983   -18509.554    350.20149    80.637637 
   81200    993.31892   -105.51734   0.89877583   -104.61856   -31569.152     4.331171     4.331171     4.331171   -31569.152    10690.193   -58108.198   -47289.452    21554.104     11672.54   -3874.3234    81.248622 
   81300    1824.4917   -106.26123    1.6508384   -104.61039   -19696.384    4.3402082    4.3402082    4.3402082   -19696.384   -4748.7368   -37011.956   -17328.461    4203.8018    7735.4581    4428.6189    81.758271 
   81400    1339.9945   -105.82468    1.2124552   -104.61223    14824.134    4.3340111    4.3340111    4.3340111    14824.134    50479.761   -25855.212    19847.853    13029.318   -3257.0913   -9297.3465    81.408556 
   81500    1057.6016   -105.56976   0.95694016   -104.61282   -32118.924    4.3435435    4.3435435    4.3435435   -32118.924   -11558.213   -57504.036   -27294.524    19748.752    10105.881    11052.371    81.946897 
   81600    1912.6237   -106.31826    1.7305821   -104.58768    6310.2247    4.3354189    4.3354189    4.3354189    6310.2247    41691.589   -18931.468    -3829.447    2934.0918    11403.866   -2486.4921    81.487914 
   81700     934.6598    -105.4513   0.84569983    -104.6056    9049.6002    4.3238323    4.3238323    4.3238323    9049.6002    51486.381   -28327.031      3989.45    6062.8077    433.65251   -5237.2663    80.836317 
   81800    1657.8751    -106.1043    1.5000802   -104.60422    180.34061    4.3355111    4.3355111    4.3355111    180.34061        22106   -19078.458   -2486.5206   -7194.3023    3929.3878    3866.8912    81.493111 
   81900     1288.621   -105.77507    1.1659714   -104.60909   -20984.693    4.3410339    4.3410339    4.3410339   -20984.693   -737.27571   -41646.735   -20570.069   -8179.6004   -4127.1753   -13948.305    81.804938 
   82000    1234.6487   -105.72224    1.1171361   -104.60511   -2066.3875    4.3364453    4.3364453    4.3364453   -2066.3875     3310.072   -7893.2774   -1615.9571    10399.871    8061.5257    14488.316    81.545804 
   82100    1338.5862   -105.81336     1.211181   -104.60218    2742.4949    4.3328126    4.3328126    4.3328126    2742.4949    14384.237    30408.096   -36564.849    -2023.862   -5256.3197   -15525.283    81.341042 
   82200     1220.778    -105.7141    1.1045856   -104.60952    16213.277    4.3221158    4.3221158    4.3221158    16213.277    41778.567    10084.838   -3223.5744    21051.779    6554.7681    20045.692    80.740082 
   82300    1334.5973   -105.81599    1.2075717   -104.60842   -7233.7706    4.3466192    4.3466192    4.3466192   -7233.7706   -27615.983    12915.118   -7000.4464    4151.3077    88.742935   -8123.1502    82.121104 
   82400    884.20547    -105.4008   0.80004769   -104.60075   -17923.105    4.3435589    4.3435589    4.3435589   -17923.105    62276.435    -50761.03   -65284.719   -3422.1998   -3540.7754     9395.672    81.947769 
   82500    1851.4943   -106.26213    1.6752709   -104.58686    9320.9641     4.312772     4.312772     4.312772    9320.9641   -132.96437    15259.015    12836.841    2432.9675    4206.3452    20009.565    80.217572 
   82600    1122.3568   -105.62308     1.015532   -104.60755   -11494.556    4.3216425    4.3216425    4.3216425   -11494.556    5375.3872   -19229.147   -20629.909   -24879.979   -2588.9174   -9758.4785    80.713561 
   82700    912.34718   -105.43698    0.8255109   -104.61147   -14933.786    4.3391339    4.3391339    4.3391339   -14933.786    18681.137   -13243.958   -50238.536    10055.552    9780.8227     31696.33    81.697575 
   82800    1939.4827   -106.34631    1.7548847   -104.59143   -11453.359    4.3371114    4.3371114    4.3371114   -11453.359    -30580.35    -5369.596    1589.8699   -5259.6714   -7668.7917   -4983.1643    81.583388 
   82900    774.28982   -105.31112    0.7005937   -104.61053   -23940.874    4.3295137    4.3295137    4.3295137   -23940.874    25561.552   -64421.377   -32962.797   -1908.7834    -9537.824    31682.289    81.155385 
   83000    1721.4934   -106.15129    1.5576434   -104.59365      14246.6    4.3236137    4.3236137    4.3236137      14246.6    7267.2597    19804.811    15667.729   -3061.2856   -1042.6226   -1941.1575    80.824059 
   83100    968.69997   -105.48742   0.87650009   -104.61092   -28253.433    4.3347086    4.3347086    4.3347086   -28253.433   -29528.867   -55751.522    520.09152   -24455.791   -17536.904    11091.404    81.447867 
   83200    1508.5792   -105.97298    1.3649942   -104.60799   -1768.7963    4.3294873    4.3294873    4.3294873   -1768.7963    3052.3648    19302.868   -27661.622   -2631.6306    6215.7221    1769.7845    81.153905 
   83300     1107.657   -105.61178    1.0022314   -104.60955    2721.5203    4.3315182    4.3315182    4.3315182    2721.5203   -28091.415    20863.709    15392.266   -18404.344    1771.7237    4665.8788    81.268158 
   83400    905.05353   -105.43167   0.81891146   -104.61276    -14814.21    4.3330727    4.3330727    4.3330727    -14814.21    13875.022   -29662.264   -28655.386     -7447.17   -12348.199    35339.793    81.355686 
   83500    1963.2303   -106.37461    1.7763721   -104.59823     258.0617     4.323232     4.323232     4.323232     258.0617   -16041.339   -1555.2022    18370.727   -925.40179    21980.758   -7468.7906    80.802653 
   83600    894.95988   -105.42639    0.8097785   -104.61661   -3102.4537      4.32487      4.32487      4.32487   -3102.4537   -11036.313   -13940.521    15669.473   -12218.469    4703.1114    22411.896    80.894533 
   83700    1451.8925   -105.92588    1.3137028   -104.61218    164.33341    4.3279304    4.3279304    4.3279304    164.33341    6205.4567    8018.5604   -13731.017    10725.376    3997.8937    2689.4692    81.066384 
   83800    1295.6208   -105.78506    1.1723049   -104.61276    8007.0477    4.3338466    4.3338466    4.3338466    8007.0477   -43474.663    17424.169    50071.637   -1545.7951    7353.3614    9914.3569     81.39929 
   83900    1193.7204   -105.69434    1.0801033   -104.61423   -18640.469    4.3357589    4.3357589    4.3357589   -18640.469   -10047.402   -18054.754    -27819.25   -10742.975   -13452.254    44779.826    81.507085 
   84000    1310.5169   -105.78549    1.1857832    -104.5997    34731.305    4.3184843    4.3184843    4.3184843    34731.305   -10741.192    19577.351    95357.756    11994.694    4807.8591   -812.64968    80.536737 
   84100    952.78484   -105.48932   0.86209975   -104.62722   -24823.928    4.3260618    4.3260618    4.3260618   -24823.928   -3578.6016     -41483.6   -29409.583   -18077.533   -802.10454    40840.003    80.961429 
   84200    1812.4797   -106.25571    1.6399697   -104.61574   -10104.349    4.3347306    4.3347306    4.3347306   -10104.349    -24623.56   -22567.903    16878.415   -1064.6119   -7424.2247    4924.4089     81.44911 
   84300     1245.906   -105.73757     1.127322   -104.61024   -29622.397    4.3408577    4.3408577    4.3408577   -29622.397   -4952.0771   -47747.331   -36167.784    4734.4787    10533.121    13147.806    81.794981 
   84400    801.25639   -105.34033   0.72499362   -104.61534   -23410.457    4.3281144    4.3281144    4.3281144   -23410.457   -1868.9791   -59430.505   -8931.8873    -16030.24    2533.1242    42655.392    81.076723 
   84500     1947.594   -106.36015     1.762224   -104.59793    33619.551    4.3138566    4.3138566    4.3138566    33619.551    6810.0467    46239.549    47809.058    3739.4557   -4233.8976   -9203.0837    80.278107 
   84600    916.40808    -105.4609   0.82918529   -104.63171   -25590.134     4.333779     4.333779     4.333779   -25590.134    -20625.25   -34540.487   -21604.666   -14944.783    -665.9303    50074.791    81.395478 
   84700    1269.4693    -105.7613    1.1486425   -104.61266    18433.238    4.3388946    4.3388946    4.3388946    18433.238   -20297.855    53698.291    21899.278   -3220.4839    -12105.86   -9635.9655    81.684056 
   84800    1565.2755   -106.02285    1.4162941   -104.60656   -17039.727    4.3340479    4.3340479    4.3340479   -17039.727   -12760.049   -17434.463    -20924.67   -13548.079    7988.3079    18718.421     81.41063 
   84900    1055.0747   -105.56757    0.9546538   -104.61292    9924.9227    4.3111774    4.3111774    4.3111774    9924.9227    -19552.01     13178.96    36147.819   -14546.857   -20016.656    19786.844    80.128623 
   85000    1473.1231   -105.94999    1.3329127   -104.61708    4244.1335    4.3295964    4.3295964    4.3295964    4244.1335     -16852.1    46267.896   -16683.396    5063.6935   -215.66896   -86.972538    81.160037 
   85100    1037.9752     -105.554   0.93918175   -104.61482   -27888.387    4.3414012    4.3414012    4.3414012   -27888.387   -29365.607   -443.22526   -53856.329   -9630.8749   -550.27371    18974.171    81.825704 
   85200    1243.8489   -105.73466    1.1254606    -104.6092    5015.4657    4.3161243    4.3161243    4.3161243    5015.4657    -35374.08    40291.846    10128.631   -12120.048   -22750.315    3369.7985    80.404772 
   85300    1696.4006   -106.14314    1.5349389    -104.6082   -9602.2069    4.3180449    4.3180449    4.3180449   -9602.2069   -434.30526    -21542.25   -6830.0657    7962.8022    4482.3088   -1888.9839    80.512155 
   85400    757.92066   -105.31574   0.68578254   -104.62995   -13876.205    4.3308882    4.3308882    4.3308882   -13876.205   -54775.215    31108.136   -17961.534   -25252.155   -23334.501    17221.132    81.232708 
   85500    1913.3245   -106.34517    1.7312162   -104.61396   -5432.0994    4.3383602    4.3383602    4.3383602   -5432.0994   -34232.042    13357.666    4578.0779    5482.4607   -5432.6773   -2384.9944    81.653879 
   85600    817.87131   -105.36159   0.74002715   -104.62156    10285.315    4.3237478    4.3237478    4.3237478    10285.315   -10436.436    46664.549   -5372.1671    -15429.88   -9860.4642    2655.5824    80.831576 
   85700    965.12033   -105.50482   0.87326116   -104.63156    -9867.354    4.3131341    4.3131341    4.3131341    -9867.354   -24727.598    4248.3908   -9122.8548   -17232.779   -25245.446    22503.912    80.237777 
   85800    2092.2545   -106.51814    1.8931159   -104.62502    6557.3227    4.3251114    4.3251114    4.3251114    6557.3227   -7643.5449    2191.9433     25123.57   -2717.3253    18874.633   -22406.906    80.908078 
   85900     831.0609   -105.38875   0.75196136   -104.63679   -22670.279    4.3346042    4.3346042    4.3346042   -22670.279   -23942.161   -30241.721   -13826.954   -22852.915    -28473.27    19275.061    81.441986 
   86000    1309.6681    -105.8035    1.1850152   -104.61848    1698.5286    4.3307155    4.3307155    4.3307155    1698.5286    5568.1189   -3824.7193    3352.1861    3118.6591    14324.253    13088.246    81.222989 
   86100    1712.7031   -106.16262    1.5496898   -104.61293    5884.3251    4.3220938    4.3220938    4.3220938    5884.3251   -27810.701    33561.278    11902.398   -12164.803   -3751.0045   -5851.2757    80.738849 
   86200    822.09629    -105.3757      0.74385   -104.63185    498.96655    4.3197148    4.3197148    4.3197148    498.96655    -5336.205    8912.3643   -2079.2596   -25334.741   -15557.069    24655.337    80.605604 
   86300    1658.0322   -106.12187    1.5002223   -104.62165    9214.6208    4.3328516    4.3328516    4.3328516    9214.6208    13287.142   -1850.6548    16207.375    7019.7607    17479.675    8047.8669    81.343238 
   86400    1029.0494   -105.56048   0.93110555   -104.62937   -12447.385    4.3310155    4.3310155    4.3310155   -12447.385   -33303.902   -21128.277    17090.025   -21161.843   -22077.238   -4278.9786    81.239866 
   86500    1431.7154   -105.91354    1.2954462   -104.61809    5640.4806     4.315213     4.315213     4.315213    5640.4806    18364.301   -21903.015    20460.156    3367.2027     13187.94    28051.272    80.353857 
   86600    1323.8544   -105.80945    1.1978513    -104.6116    2606.5287    4.3301075    4.3301075    4.3301075    2606.5287   -13235.992    20715.841    339.73721    4367.1689   -12965.474   -25639.207    81.188784 
   86700    932.96912   -105.45935   0.84417007   -104.61518   -24033.553    4.3343158    4.3343158    4.3343158   -24033.553   -27253.543    -32779.71   -12067.407   -16295.803   -7795.8274    20547.995     81.42573 
   86800    1558.2399   -106.01057    1.4099282   -104.60064    14965.739    4.3260788    4.3260788    4.3260788    14965.739    28051.261    12815.434    4030.5225    19446.225    355.05819   -5097.9971    80.962382 
   86900    1325.7405     -105.809    1.1995579   -104.60944   -25285.364    4.3306311    4.3306311    4.3306311   -25285.364   -30947.687   -30273.211   -14635.193   -17737.892   -17569.736    -5748.449    81.218239 
   87000     1146.671    -105.6481     1.037532   -104.61057   -5779.1848    4.3275154    4.3275154    4.3275154   -5779.1848    -4488.836   -14887.569     2038.851   -12186.559   -1502.6154    16844.498    81.043065 
   87100    1565.4097   -106.02722    1.4164156   -104.61081   -1153.4772    4.3294977    4.3294977    4.3294977   -1153.4772    19574.781    4189.4723   -27224.685   -10701.602   -5850.4033   -36863.538    81.154488 
   87200    1030.4025   -105.54649   0.93232983   -104.61416    4387.4902    4.3267884    4.3267884    4.3267884    4387.4902   -36196.628    24211.395    25147.704   -26629.537   -4821.2106    10616.259     81.00223 
   87300     1238.158   -105.73121    1.1203114    -104.6109   -14589.414    4.3295601    4.3295601    4.3295601   -14589.414   -17187.956   -316.52619    -26263.76    4674.0294   -4683.2003   -11919.361    81.157995 
   87400    1414.5984   -105.89672    1.2799583   -104.61676   -4503.1825    4.3259572    4.3259572    4.3259572   -4503.1825   -15789.717    2975.8499    -695.6804   -16100.499   -8293.6061   -14853.968    80.955554 
   87500    1447.5245   -105.92481    1.3097506   -104.61506    5336.7085    4.3198732    4.3198732    4.3198732    5336.7085    6758.1091   -485.30136    9737.3177   -5840.1035    -3954.165    21350.041    80.614469 
   87600    981.15244   -105.51074   0.88776735   -104.62298    2906.3813    4.3300104    4.3300104    4.3300104    2906.3813     -8197.52    38120.759   -21204.096    7873.3494   -2097.6982   -24410.924    81.183323 
   87700     1372.414   -105.85615     1.241789   -104.61436    361.96532    4.3336491    4.3336491    4.3336491    361.96532   -11601.078    10422.206    2264.7683   -13835.584   -5183.5453    10602.999    81.388162 
   87800    1575.9287    -106.0362    1.4259334   -104.61027   -484.06278    4.3229791    4.3229791    4.3229791   -484.06278    22263.429   -25265.248    1549.6304   -2122.5282   -2609.0132   -7936.5563    80.788475 
   87900    1107.0217    -105.6165    1.0016565   -104.61484    7149.2278    4.3254668    4.3254668    4.3254668    7149.2278    20388.199    13736.434    -12676.95   -895.01893   -2011.7542   -24203.613    80.928029 
   88000    1361.4831    -105.8429    1.2318985     -104.611     6649.467    4.3305609    4.3305609    4.3305609     6649.467   -23562.876    48076.804   -4565.5267   -23448.524   -1769.5953     6867.991    81.214287 
   88100    1145.5971   -105.65569    1.0365603   -104.61913    14034.358    4.3311526    4.3311526    4.3311526    14034.358    11899.508    32869.511    -2665.944   -1989.7678   -2277.0178   -31276.883    81.247582 
   88200    1471.9403   -105.94185    1.3318425      -104.61   -5702.3926    4.3327672    4.3327672    4.3327672   -5702.3926   -21683.827    19327.132   -14750.483   -22100.532      3562.02    4846.6974     81.33848 
   88300    1465.4078   -105.93211    1.3259318   -104.60617   -13907.361    4.3265028    4.3265028    4.3265028   -13907.361   -26747.223    -5320.437   -9654.4225   -5845.9835    -2120.331   -19607.254    80.986192 
   88400    1105.4129   -105.61727    1.0002008   -104.61707    2794.6632    4.3247447    4.3247447    4.3247447    2794.6632   -21399.918    50440.381   -20656.474   -6500.4252    501.52992    -11602.81    80.887503 
   88500    1491.9446   -105.96661    1.3499428   -104.61666    -19249.98    4.3452946    4.3452946    4.3452946    -19249.98   -43526.619    9214.8208   -23438.143   -18875.142    10446.297    5630.4807    82.046048 
   88600    1036.4531   -105.54627   0.93780451   -104.60846    -96.13271    4.3347579    4.3347579    4.3347579    -96.13271     -7769.43    22810.703   -15329.671    9846.8663    2194.7324   -34413.893    81.450649 
   88700    1203.5114   -105.68648    1.0889624   -104.59752    13577.304    4.3091254    4.3091254    4.3091254    13577.304   -23379.208    46632.207    17478.913   -31119.156    7867.8931    11521.457     80.01426 
   88800    1431.6217   -105.90623    1.2953614   -104.61086    -8644.901    4.3298071    4.3298071    4.3298071    -8644.901   -1192.2797   -29193.338    4450.9146    2698.0494     3495.348   -9051.4887    81.171889 
   88900    1314.8755   -105.80607     1.189727   -104.61635   -13135.552    4.3339372    4.3339372    4.3339372   -13135.552   -24650.264   -2357.2339   -12399.158    2414.6086    6781.3912   -18617.974    81.404391 
   89000    1215.5517   -105.71072    1.0998568   -104.61087    21849.355    4.3337459    4.3337459    4.3337459    21849.355   -12413.391    89439.259   -11477.804   -11153.104   -4426.3188    984.64683    81.393615 
   89100    871.55129    -105.4104   0.78859793    -104.6218     9756.747    4.3281197    4.3281197    4.3281197     9756.747   -5566.1628    49592.717   -14756.313    7245.4223    6372.8171   -18914.995    81.077024 
   89200    1550.2892    -106.0226    1.4027342   -104.61986      4096.65    4.3304129    4.3304129    4.3304129      4096.65   -18327.565    35198.183   -4580.6675    3710.2776   -2700.4261   -4440.9368    81.205964 
   89300    1730.3922   -106.17391    1.5656952   -104.60821   -9666.1006    4.3374974    4.3374974    4.3374974   -9666.1006   -4907.0937    14676.574   -38767.782    10081.473    3164.3081     2286.272     81.60517 
   89400    606.38802   -105.16511   0.54867262   -104.61644    -8686.453    4.3371499    4.3371499    4.3371499    -8686.453   -44555.717    54897.062   -36400.704    11396.555    740.60062   -10681.694    81.585559 
   89500     1668.704   -106.10702    1.5098785   -104.59714    18915.589    4.3286928    4.3286928    4.3286928    18915.589    10479.101    53137.501    -6869.836    20779.793    1681.8885    10565.303    81.109235 
   89600    1173.4385   -105.67248    1.0617518   -104.61072   -649.21896    4.3202193    4.3202193    4.3202193   -649.21896    33617.717    9013.2314   -44578.605    5899.6981    4121.1385   -12737.133    80.633846 
   89700    1507.2188    -105.9791    1.3637632   -104.61533    -18327.27    4.3342272    4.3342272    4.3342272    -18327.27   -23005.525   -9579.4999   -22396.786    24268.078   -3029.6917    1329.8069    81.420738 
   89800    852.51244    -105.3874   0.77137117   -104.61603    2926.1799    4.3359522    4.3359522    4.3359522    2926.1799    45846.893    6715.2724   -43783.625   -19205.031    5128.9355   -3696.7254    81.517987 
   89900    1474.1168   -105.95397    1.3338118   -104.62015   -12171.267    4.3313688    4.3313688    4.3313688   -12171.267    2078.8582    13238.356   -51831.014    15244.377   -15941.959    -20671.48     81.25975 
   90000    1520.3234   -105.99337    1.3756206   -104.61775    18991.462    4.3147775    4.3147775    4.3147775    18991.462    17118.816    39382.242    473.32858   -12386.265    11207.435    8221.7872    80.329526 
   90100    817.68308   -105.37154   0.73985683   -104.63168   -24098.764    4.3282564    4.3282564    4.3282564   -24098.764   -8674.7815   -9930.7299   -53690.781   -4253.0647   -7541.8787    -24882.26    81.084705 
   90200    1770.2484   -106.20924    1.6017579   -104.60748   -7341.4993    4.3385535    4.3385535    4.3385535   -7341.4993   -24893.395    28122.951   -25254.054    3392.0339    3853.7652    3472.8147    81.664796 
   90300    1028.2074   -105.54923   0.93034368   -104.61889   -5036.4982    4.3289739    4.3289739    4.3289739   -5036.4982   -5991.9511    18977.845   -28095.389   -16862.117    7844.2444   -9672.3024    81.125035 
   90400     1313.012   -105.79754    1.1880408    -104.6095    17997.653    4.3234772    4.3234772    4.3234772    17997.653    33465.727    38266.487   -17739.255   -13641.435    2139.5504   -14833.875    80.816404 
   90500    1339.5974   -105.82508    1.2120958   -104.61298   -12562.047    4.3309591    4.3309591    4.3309591   -12562.047   -9732.6871    3305.7455     -31259.2    5470.8852    18225.875    3238.5378    81.236697 
   90600    1131.7846   -105.63902    1.0240625   -104.61496   -707.99565     4.334294     4.334294     4.334294   -707.99565    36873.915    3752.9664   -42750.869   -8156.4715   -11758.393   -30541.406      81.4245 
   90700    1474.9062   -105.93687    1.3345261   -104.60234   -4877.8652    4.3350914    4.3350914    4.3350914   -4877.8652   -9173.1521    29996.486    -35456.93    24371.064    32674.657     8722.607    81.469448 
   90800    1145.0791   -105.64388    1.0360916   -104.60778   -2366.5292    4.3182439    4.3182439    4.3182439   -2366.5292   -13354.257    32967.843   -26713.173    5042.4082    -4816.002   -26494.445    80.523286 
   90900    1190.6905   -105.69733    1.0773618   -104.61997   -4005.8505    4.3218118    4.3218118    4.3218118   -4005.8505   -22768.563    9926.9689    824.04308   -1461.9246    16508.302   -9196.1541    80.723048 
   91000    1414.4198   -105.89547    1.2797968   -104.61568   -35326.069    4.3361273    4.3361273    4.3361273   -35326.069    -34930.68   -27954.283   -43093.243    32298.707    22856.899   -9032.5288    81.527864 
   91100    1461.3634   -105.92465    1.3222723   -104.60238   -2039.4492    4.3240288    4.3240288    4.3240288   -2039.4492    13588.589   -6086.2651   -13620.671   -10267.389   -4593.7176   -28913.885    80.847337 
   91200    1002.4509   -105.51593   0.90703867   -104.60889    28.072497    4.3307957    4.3307957    4.3307957    28.072497   -33327.689     34747.24   -1335.3342    16216.467    34416.644    13520.588      81.2275 
   91300    1183.6199   -105.68004    1.0709642   -104.60907   -18027.867    4.3298974    4.3298974    4.3298974   -18027.867    9518.6489   -21374.563   -42227.687     6582.817   -10525.447   -31508.924    81.176968 
   91400    1537.8818   -105.99697    1.3915078   -104.60546   -307.94917    4.3238023    4.3238023    4.3238023   -307.94917   -18449.704    26679.373   -9153.5166   -4926.0483    24953.363   -5551.2492    80.834633 
   91500    1383.1161   -105.86037    1.2514726    -104.6089   -14052.098    4.3283086    4.3283086    4.3283086   -14052.098    605.41645   -29538.267   -13223.445    14553.746    6334.2783   -7454.8683    81.087638 
   91600    899.39845   -105.43491   0.81379462   -104.62112   -18829.913    4.3260259    4.3260259    4.3260259   -18829.913   -25526.133    9636.4265   -40600.032   -9882.0088   -14170.232   -28729.022    80.959411 
   91700    1565.9574   -106.02565    1.4169112   -104.60874   -1555.2687    4.3289145    4.3289145    4.3289145   -1555.2687   -25742.323     12985.43    8091.0868   -8297.4336    14962.167    4199.9193    81.121696 
   91800    1095.9335   -105.60581   0.99162362   -104.61419   -29187.582    4.3324703    4.3324703    4.3324703   -29187.582    6812.9993   -29729.723   -64646.023    3416.0232   -12084.565   -31011.767    81.321764 
   91900    1356.9014   -105.83768    1.2277529   -104.60993   -10337.231    4.3241656    4.3241656    4.3241656   -10337.231   -27040.252   -11951.965    7980.5253   -21509.973   -14538.097   -8039.4015    80.855013 
   92000    1578.2448   -106.03646     1.428029   -104.60843    5188.9735    4.3214824    4.3214824    4.3214824    5188.9735   -16782.254    10392.926    21956.249   -9144.6822    559.65915   -8084.1975     80.70459 
   92100    986.95775   -105.52259   0.89302011   -104.62957   -18617.158    4.3249328    4.3249328    4.3249328   -18617.158    11384.533   -36126.373   -31109.636   -6675.7008   -24870.025    -28209.84    80.898055 
   92200    1546.5481   -106.01838    1.3993492   -104.61903    14775.612    4.3296233    4.3296233    4.3296233    14775.612   -28964.679   -11489.306    84780.822   -28059.088    2614.5148    9057.7398     81.16155 
   92300    1637.2811   -106.09699    1.4814463   -104.61554   -12463.643    4.3262604    4.3262604    4.3262604   -12463.643   -11454.571   -7456.4713   -18479.886    7142.9386   -16564.589   -14527.443    80.972576 
   92400    666.93125   -105.22867   0.60345341   -104.62522    13233.629    4.3200655    4.3200655    4.3200655    13233.629   -22902.203    1130.5544    61472.536   -25500.587   -13594.855   -10253.499    80.625236 
   92500    1606.7691   -106.06921    1.4538385   -104.61537    5749.5049    4.3240479    4.3240479    4.3240479    5749.5049   -6228.3488    6761.5483    16715.315   -947.15514    24700.957    9119.3797    80.848413 
   92600    1238.2171   -105.74364    1.1203648   -104.62328    8717.5832    4.3231885    4.3231885    4.3231885    8717.5832   -5593.6363   -3616.6948    35363.081   -7058.0267   -27046.525   -18720.761    80.800217 
   92700    1224.2858   -105.73876    1.1077595     -104.631   -12643.751    4.3280778    4.3280778    4.3280778   -12643.751   -32611.032   -10805.351    5485.1312   -19570.901    2696.7631    5312.2168    81.074668 
   92800    1311.5583   -105.80707    1.1867255   -104.62034    20156.885    4.3228522    4.3228522    4.3228522    20156.885    24116.563    204.92067     36149.17     7190.074   -932.97851    25352.567    80.781363 
   92900    1075.7124   -105.59676   0.97332715   -104.62344   -25113.236    4.3323749    4.3323749    4.3323749   -25113.236   -36227.399     -27130.4    -11981.91    -23339.36   -21692.782   -19813.309    81.316389 
   93000    1456.3287   -105.93073    1.3177168   -104.61301   -19235.441    4.3335374    4.3335374    4.3335374   -19235.441   -2454.9459    -38414.31   -16837.067    2386.2442      2503.77    18709.938    81.381868 
   93100    1598.2049   -106.05563    1.4460893   -104.60954    12101.225    4.3121519    4.3121519    4.3121519    12101.225     18175.24   -518.34455     18646.78   -9148.9885   -6084.8141    5439.3347    80.182974 
   93200    1235.8087   -105.73808    1.1181856   -104.61989    -23956.58    4.3245924    4.3245924    4.3245924    -23956.58   -14623.404    -41213.33   -16033.004   -8779.8428   -3720.9358    -21669.35    80.878955 
   93300    948.81418   -105.48087   0.85850701   -104.62236   -3970.2973     4.331456     4.331456     4.331456   -3970.2973    14603.318    -13258.42    -13255.79    3551.9016    5995.6008    46772.518    81.264661 
   93400     1701.934   -106.15408    1.5399457   -104.61413    6537.4928    4.3288637    4.3288637    4.3288637    6537.4928   -20721.857    8771.2932    31563.042   -21151.934    2040.5073   -6357.9686    81.118839 
   93500    997.57372   -105.52258   0.90262567   -104.61995   -4868.5903    4.3284774    4.3284774    4.3284774   -4868.5903    866.61427    -29478.56    14006.174    4183.5119    6698.6548    27732.304    81.097126 
   93600     1302.154   -105.79306    1.1782163   -104.61484   -8308.5574    4.3245458    4.3245458    4.3245458   -8308.5574   -12922.838   -20623.143    8620.3089    -10246.94    19429.207    13269.046    80.876343 
   93700     1787.572   -106.22783    1.6174327    -104.6104    -9166.378    4.3313621    4.3313621    4.3313621    -9166.378   -13145.443   -19806.474    5452.7827   -11559.179    787.78062   -5402.7792    81.259374 
   93800    1031.2551     -105.553   0.93310131    -104.6199    -22345.37    4.3421833    4.3421833    4.3421833    -22345.37    -11325.94   -17450.875   -38259.295   -2545.6049    24300.516    24396.892    81.869936 
   93900    1742.7988   -106.17525     1.576921   -104.59833    7969.0592    4.3360168    4.3360168    4.3360168    7969.0592   -15950.132    22995.345    16861.964   -10029.578    11820.704   -1805.4187    81.521634 
   94000    984.40102   -105.49381   0.89070673   -104.60311     11517.55    4.3258956    4.3258956    4.3258956     11517.55    10887.868   -22823.989    46488.772     2745.463    6970.8739    41463.547    80.952099 
   94100    1284.2916   -105.77542     1.162054   -104.61337    -7553.404    4.3310739    4.3310739    4.3310739    -7553.404   -25883.306   -12239.606      15462.7   -4048.1608    14746.217    6739.2351    81.243156 
   94200    1537.3879   -106.00244    1.3910609   -104.61138    5534.3794    4.3308296    4.3308296    4.3308296    5534.3794   -25491.978     1656.246     40438.87    3091.6949   -15317.137    1279.6087    81.229406 
   94300    1272.4067   -105.76758    1.1513003   -104.61628   -24639.954    4.3333823    4.3333823    4.3333823   -24639.954    11555.594   -42263.222   -43212.233    2693.9793    3438.6232    12573.973    81.373131 
   94400    1487.4478   -105.94874    1.3458741   -104.60287    -4869.643    4.3330334    4.3330334    4.3330334    -4869.643   -23832.051    5291.2154    3931.9064   -1788.3515   -18844.497   -21166.093    81.353476 
   94500    1229.0102   -105.71694    1.1120343   -104.60491    1182.8181    4.3371257    4.3371257    4.3371257    1182.8181   -9141.1401    2305.8657    10383.729    6513.5791   -18934.945    23665.835    81.584196 
   94600    1265.0304   -105.74239    1.1446261   -104.59777   -10845.254    4.3365211    4.3365211    4.3365211   -10845.254   -14225.142   -880.80981   -17429.812   -3655.5671    2834.6189    2293.5775    81.550079 
   94700    1278.2587   -105.75445    1.1565954   -104.59785    22121.864    4.3137146    4.3137146    4.3137146    22121.864   -14175.357    52680.881    27860.067    5899.8173   -30845.422    317.38158    80.270176 
   94800    1738.2466   -106.18235    1.5728021   -104.60955   -13174.926    4.3310514    4.3310514    4.3310514   -13174.926   -25014.259   -2075.7741   -12434.746   -3798.8034    14159.881    20243.156     81.24189 
   94900     871.8857   -105.40757   0.78890051   -104.61867   -7823.9743    4.3358834    4.3358834    4.3358834   -7823.9743    -57677.76    71353.655   -37147.817    4523.3612   -30886.012   -10723.013    81.514109 
   95000     1984.184   -106.39236    1.7953314   -104.59703    6522.7928    4.3320529    4.3320529    4.3320529    6522.7928   -21013.755    32613.027    7969.1063   -9640.8111    4947.9398    3425.8664    81.298263 
   95100    1200.3483   -105.68444    1.0861004   -104.59834   -41361.543    4.3440399    4.3440399    4.3440399   -41361.543   -80623.185   -1802.3331    -41659.11   -4393.1219   -30869.579   -6712.4638    81.974998 
   95200     1300.254   -105.76687    1.1764972   -104.59038   -2803.0821    4.3293124    4.3293124    4.3293124   -2803.0821   -34765.563    42288.541   -15932.224    49.588548   -16.557494   -7855.9112    81.144069 
   95300    1811.9771   -106.23378     1.639515   -104.59427   -2762.6144    4.3268281    4.3268281    4.3268281   -2762.6144   -12816.027    -10972.86    15501.043   -6839.9604   -22973.146   -1611.6389    81.004458 
   95400    797.88325   -105.33354   0.72194153    -104.6116   -9327.3811    4.3356844    4.3356844    4.3356844   -9327.3811   -25875.455     34408.16   -36514.848   -7076.3761   -29701.002   -8149.9974    81.502888 
   95500    1468.1025   -105.92239      1.32837   -104.59402   -238.91984    4.3374136    4.3374136    4.3374136   -238.91984    20368.325   -8650.9621   -12434.123   -4533.9935    13529.265   -16358.044     81.60044 
   95600    1131.7194   -105.61874    1.0240035   -104.59474   -757.05867    4.3410363    4.3410363    4.3410363   -757.05867   -29055.578     28703.71   -1919.3079    3804.1046    -43131.42    9096.0051    81.805076 
   95700    1320.8746   -105.78776    1.1951551    -104.5926   -10220.621    4.3321004    4.3321004    4.3321004   -10220.621    14308.911   -22234.118   -22736.657   -7376.9865    26968.032   -21655.406    81.300937 
   95800    1202.8097   -105.68764    1.0883275   -104.59931    18222.549    4.3203111    4.3203111    4.3203111    18222.549   -16059.999    65886.626    4841.0199    4527.3316     -19373.5    13213.671    80.638986 
   95900    1334.2895   -105.82155    1.2072932   -104.61426   -12793.485    4.3231622    4.3231622    4.3231622   -12793.485   -19660.003    5637.6781   -24358.129     -3850.15    1841.7783   -9386.7291    80.798743 
   96000    1079.7888   -105.60202   0.97701561     -104.625   -13225.408    4.3389319    4.3389319    4.3389319   -13225.408    2438.1554    3168.4988   -45282.879    -3412.377    22512.395    -5743.238    81.686162 
   96100    2053.4124   -106.45859    1.8579706   -104.60062   -22474.012    4.3419135    4.3419135    4.3419135   -22474.012   -38094.092   -13823.021   -15504.923   -1623.9228   -2642.4412    4319.3271    81.854679 
   96200    833.82737   -105.36133   0.75446453   -104.60687   -11381.914    4.3271735    4.3271735    4.3271735   -11381.914    3017.2453    -6357.905   -30805.081    6713.1277    30701.896   -9660.2015    81.023862 
   96300    1528.7891   -105.98619    1.3832805    -104.6029    7986.2109    4.3301747    4.3301747    4.3301747    7986.2109   -3935.3405    38892.816   -10998.843    -5178.576    1391.5322    4308.9442    81.192566 
   96400    1518.2378    -105.9846    1.3737335   -104.61087   -29860.343    4.3432136    4.3432136    4.3432136   -29860.343   -48088.469   -30134.803   -11357.757    6723.2449    21534.929   -16308.528    81.928227 
   96500    1339.3482   -105.82329    1.2118704   -104.61142   -6796.4157    4.3380696    4.3380696    4.3380696   -6796.4157    18094.342    4029.9534   -42513.542    123.17279    14510.746   -5970.6804    81.637473 
   96600     1339.117   -105.82043    1.2116612   -104.60877     1093.597    4.3357045    4.3357045    4.3357045     1093.597   -7129.9864   -86.142902     10496.92    25644.404   -18179.663   -110.45434     81.50402 
   96700    1139.8887   -105.63898    1.0313952   -104.60759    3937.4251    4.3281157    4.3281157    4.3281157    3937.4251    38666.236    -13985.97   -12867.991    3865.1826     24738.23   -3594.6613    81.076799 
   96800    1243.5302    -105.7344    1.1251723   -104.60923    12783.817     4.347088     4.347088     4.347088    12783.817    33256.754    10656.727   -5562.0302     7034.622   -10565.493    7084.4563     82.14768 
   96900    924.56889   -105.44452   0.83656936   -104.60795    -11221.21    4.3423009    4.3423009    4.3423009    -11221.21    11068.708    -32059.55   -12672.786    30682.541   -1374.9645   -2883.9523    81.876591 
   97000      1292.95   -105.76244    1.1698883   -104.59255     22756.21    4.3225963    4.3225963    4.3225963     22756.21    31052.518    35426.678    1789.4343   -354.64768    16539.719     8015.111    80.767014 
   97100    1550.5752   -106.00858    1.4029931   -104.60558   -6356.2453    4.3406225    4.3406225    4.3406225   -6356.2453   -21712.908    14838.793   -12194.621    942.02985    -18991.51    3011.9487    81.781684 
   97200    1249.5935   -105.72967    1.1306585   -104.59902   -31532.354    4.3511385    4.3511385    4.3511385   -31532.354   -34557.664   -6990.1366   -53049.261    261.22585    12997.311   -12853.902    82.377521 
   97300    1403.5238   -105.85525    1.2699379   -104.58531   -6274.8398    4.3379201    4.3379201    4.3379201   -6274.8398   -34848.772    4855.5741    11168.678   -21252.962   -16716.197    4256.0663    81.629033 
   97400    1391.6907   -105.84259     1.259231   -104.58336    -5010.139     4.329906     4.329906     4.329906    -5010.139   -1824.8315     18331.92   -31537.505    15432.409    6768.7851   -16276.825    81.177452 
   97500     1620.369   -106.05587    1.4661439   -104.58972   -13972.307    4.3350541    4.3350541    4.3350541   -13972.307   -20703.692    2426.5248   -23639.754   -18045.041   -5115.2676    -7603.776    81.467344 
   97600     835.5202   -105.35643   0.75599624   -104.60044    8933.7512    4.3406834    4.3406834    4.3406834    8933.7512    12657.774    16068.287   -1924.8075    9396.5325    -16618.39    1307.7741    81.785125 
   97700    1517.1344   -105.95993    1.3727351    -104.5872   -1091.2663    4.3422066    4.3422066    4.3422066   -1091.2663    10824.766    19855.295    -33953.86    13499.578    13480.842   -21397.184    81.871256 
   97800    966.32684   -105.46836   0.87435283   -104.59401    18608.166    4.3260364    4.3260364    4.3260364    18608.166    12858.635    60910.249   -17944.385    -2787.451    -29075.88    2699.8867    80.960003 
   97900    1391.9659    -105.8595      1.25948   -104.60002    2735.7314    4.3283835    4.3283835    4.3283835    2735.7314   -4022.9612    26508.024   -14277.869    4318.1382    15476.396   -18749.061    81.091851 
   98000    1495.1301   -105.95766    1.3528251   -104.60483   -27509.956    4.3402662    4.3402662    4.3402662   -27509.956   -32635.816    9877.6912   -59771.743    1248.5143   -29027.012   -16965.545    81.761547 
   98100    1586.3896   -106.03291    1.4353986   -104.59751   -1643.4844     4.332935     4.332935     4.332935   -1643.4844    5336.2941    1959.3201   -12226.067   -10785.312    3038.2814    1631.3713    81.347933 
   98200    1302.5043   -105.78342    1.1785333   -104.60488   -28464.447    4.3370857    4.3370857    4.3370857   -28464.447   -24071.012   -3825.1574   -57497.171    5053.3555   -18274.565   -30065.724    81.581935 
   98300    1325.1989   -105.80475    1.1990678   -104.60569    1340.0643    4.3369016    4.3369016    4.3369016    1340.0643   -9538.9292      54061.7   -40502.578    4154.6062   -13055.694   -9421.0806     81.57155 
   98400    1131.6707   -105.62281    1.0239594   -104.59886    22155.758     4.336521     4.336521     4.336521    22155.758    23109.718    63101.849   -19744.293     390.6389   -1523.4899   -7205.4173    81.550077 
   98500    830.45481   -105.35567   0.75141296   -104.60425    894.24192    4.3429396    4.3429396    4.3429396    894.24192   -17533.798    76333.084   -56116.561    21213.761    -34878.21   -24752.943    81.912722 
   98600    1460.2528   -105.90751    1.3212674   -104.58624    21285.611    4.3381197    4.3381197    4.3381197    21285.611    17459.255    30454.396    15943.181   -2298.8888    23009.786    6143.5566    81.640303 
   98700     849.2494   -105.36774    0.7684187   -104.59932   -27779.937    4.3387491    4.3387491    4.3387491   -27779.937   -45898.942    11604.652   -49045.521    3453.7654   -51030.782   -16168.513    81.675839 
   98800     1932.175   -106.33179    1.7482726   -104.58352    511.20332    4.3372651    4.3372651    4.3372651    511.20332    96.759537    6501.7139   -5064.8635    3791.9125    6767.6836   -2118.9399    81.592059 
   98900    1094.1201   -105.59407   0.98998288   -104.60409   -27132.059    4.3406324    4.3406324    4.3406324   -27132.059   -63108.781    7237.5513   -25524.947   -14860.261   -38608.572    5305.5155    81.782246 
   99000    1490.5134   -105.94675    1.3486478   -104.59811   -31118.608    4.3373108    4.3373108    4.3373108   -31118.608   -47549.256   -22719.245   -23087.324    3140.2284   -18963.152    -7710.082    81.594641 
   99100    1850.8618   -106.27009    1.6746987   -104.59539    -11715.99    4.3374588    4.3374588    4.3374588    -11715.99   -27189.891    8914.5701    -16872.65   -10889.528   -18872.225    21367.522    81.602992 
   99200    1027.3997   -105.53341   0.92961288    -104.6038    -27107.51     4.337627     4.337627     4.337627    -27107.51   -47785.704   -8267.9637   -25268.861   -4498.4177   -36230.942   -7290.8763    81.612488 
   99300    1600.2635    -106.0441     1.447952   -104.59615    17699.366    4.3345481    4.3345481    4.3345481    17699.366    10215.759    13708.844    29173.496    137.10855    13545.826    8124.2645    81.438823 
   99400    1170.6566   -105.65929    1.0592347   -104.60005   -10863.952    4.3452713    4.3452713    4.3452713   -10863.952    -9213.052   -19490.098   -3888.7073   -1734.2826   -20602.993   -90.097528    82.044733 
   99500    1195.1467   -105.68368    1.0813938   -104.60229    6034.2691    4.3389849    4.3389849    4.3389849    6034.2691    27469.089   -21061.423    11695.141    12499.283    14393.638   -12341.178    81.689158 
   99600    1487.8767    -105.9451    1.3462621   -104.59884    24678.518    4.3328867    4.3328867    4.3328867    24678.518    23642.219      28592.4    21800.934     11730.43    858.61939    4293.3084    81.345213 
   99700    1175.1121    -105.6721    1.0632661   -104.60883    -2267.668    4.3337745    4.3337745    4.3337745    -2267.668   -3255.6785   -593.11506   -2954.2105    8796.3591   -20244.785   -14217.774    81.395225 
   99800     1348.851     -105.834    1.2204687   -104.61354    10201.217    4.3318045    4.3318045    4.3318045    10201.217    2805.8113    27348.408    449.43195   -3353.9473    13713.134   -5764.9701    81.284277 
   99900    1319.6132   -105.80819    1.1940137   -104.61418    20206.414    4.3397165    4.3397165    4.3397165    20206.414    55077.192    7356.2405   -1814.1903   -4053.8766   -20603.784   -1660.5034    81.730483 
  100000    1233.2554   -105.72572    1.1158754   -104.60984   -12733.993    4.3377362    4.3377362    4.3377362   -12733.993   -17103.192   -20296.468   -802.31928   -5889.1614    939.55487    -11562.25    81.618651 
Loop time of 22.2858 on 1 procs for 100000 steps with 8 atoms

Pair  time (%) = 7.10214 (31.8685)
Kspce time (%) = 5.31473 (23.8481)
Neigh time (%) = 0.08321 (0.373377)
Comm  time (%) = 1.06249 (4.76755)
Outpt time (%) = 0.0244517 (0.109719)
Other time (%) = 8.69878 (39.0328)

Nlocal:    8 ave 8 max 8 min
Histogram: 1 0 0 0 0 0 0 0 0 0
Nghost:    2056 ave 2056 max 2056 min
Histogram: 1 0 0 0 0 0 0 0 0 0
Neighs:    2127 ave 2127 max 2127 min
Histogram: 1 0 0 0 0 0 0 0 0 0

Total # of neighbors = 2127
Ave neighs/atom = 265.875
Neighbor list builds = 967
Dangerous builds = 0
unfix 20
unfix 21
print "seeds:1860061"
seeds:1860061
