LAMMPS (10 Feb 2015)
# ---- initialize simulations
clear
units metal
dimension 3
boundary p p p
atom_style charge
atom_modify map array
# ---- create atoms
read_data /Users/eugeneragasa/pyflamestk_git/pypospack/tests/tests_integration/workflow/WorkflowLammpsThermalExpansion/param_6993/MgO_NaCl_unit.npt.T1600/lammps.structure
  triclinic box = (0 0 0) to (4.2565 4.2565 4.2565) with tilt (0 0 0)
  1 by 1 by 1 MPI processor grid
  reading atoms ...
  8 atoms
# ---- define interatomic potential
include potential.mod
mass 1 24.305
mass 2 15.999

group Mg type 1
4 atoms in group Mg
group O type 2
4 atoms in group O

set group Mg charge 1.61814101446
  4 settings made for charge
set group O charge -1.61814101446
  4 settings made for charge

variable R_cut equal 10.0

pair_style buck/coul/long ${R_cut}
pair_style buck/coul/long 10
pair_coeff 1 1 0.0 0.5 0.0 ${R_cut}
pair_coeff 1 1 0.0 0.5 0.0 10
pair_coeff 1 2 1169.10574889 0.285525631363 0.0 ${R_cut}
pair_coeff 1 2 1169.10574889 0.285525631363 0.0 10
pair_coeff 2 2 5328.19415446 0.197938803692 16.6059399876 ${R_cut}
pair_coeff 2 2 5328.19415446 0.197938803692 16.6059399876 10

kspace_style pppm 1.0e-5

neighbor 1.0 bin
neigh_modify every 1 delay 0 check yes
# ---- define settings
compute eng all pe/atom
compute eatoms all reduce sum c_eng
# ---- run minimization
reset_timestep 0
fix 1 all box/relax iso 0.0 vmax 0.001
thermo 10
thermo_style custom step pe lx ly lz xy xz yz press pxx pyy pzz pxy pxz pyz c_eatoms
min_style cg
minimize 1e-25 1e-25 5000 10000
PPPM initialization ...
  G vector (1/distance) = 0.352506
  grid = 8 8 8
  stencil order = 5
  estimated absolute RMS force accuracy = 3.81426e-05
  estimated relative force accuracy = 2.64886e-06
  using double precision FFTs
  3d grid and FFT values/proc = 3375 512
Neighbor list info ...
  1 neighbor list requests
  update every 1 steps, delay 0 steps, check yes
  master list distance cutoff = 11
Memory usage per processor = 4.06549 Mbytes
Step PotEng Lx Ly Lz Xy Xz Yz Press Pxx Pyy Pzz Pxy Pxz Pyz eatoms 
       0   -108.09373       4.2565       4.2565       4.2565            0            0            0    -32837.55    -32837.55    -32837.55    -32837.55 6.8800808e-12 1.9793426e-10 1.5308399e-10   -108.09373 
       9   -108.11055     4.226584     4.226584     4.226584            0            0            0    13.792758    13.792758    13.792758    13.792758 -4.4920118e-11 -8.154534e-11 2.0970287e-11   -108.11055 
Loop time of 0.00981021 on 1 procs for 9 steps with 8 atoms

Minimization stats:
  Stopping criterion = linesearch alpha is zero
  Energy initial, next-to-last, final = 
         -108.09372829     -108.110551709     -108.110551709
  Force two-norm initial, final = 4.74176 0.0024943
  Force max component initial, final = 4.74176 0.00196378
  Final line search alpha, max atom move = 0.00390625 7.67103e-06
  Iterations, force evaluations = 9 28

Pair  time (%) = 0.00271749 (27.7007)
Kspce time (%) = 0.00151062 (15.3984)
Neigh time (%) = 0 (0)
Comm  time (%) = 0.000301838 (3.07677)
Outpt time (%) = 0 (0)
Other time (%) = 0.00528026 (53.8241)

Nlocal:    8 ave 8 max 8 min
Histogram: 1 0 0 0 0 0 0 0 0 0
Nghost:    2189 ave 2189 max 2189 min
Histogram: 1 0 0 0 0 0 0 0 0 0
Neighs:    2344 ave 2344 max 2344 min
Histogram: 1 0 0 0 0 0 0 0 0 0

Total # of neighbors = 2344
Ave neighs/atom = 293
Neighbor list builds = 0
Dangerous builds = 0
unfix 1
# ---- define output variables ----
variable natoms equal "count(all)"
variable tot_energy equal "c_eatoms"
variable length_x equal "lx"
variable length_y equal "ly"
variable length_z equal "lz"
variable tilt_xy equal "xy"
variable tilt_xz equal "xz"
variable tilt_yz equal "yz"
variable tot_press equal "press"
variable press_xx equal "pxx"
variable press_yy equal "pyy"
variable press_zz equal "pzz"
variable press_xy equal "pxy"
variable press_xz equal "pxz"
variable press_yz equal "pyz"

# ---- output ----
print "pypospack:output_section:begin"
pypospack:output_section:begin
print "tot_energy = ${tot_energy}"
tot_energy = -108.110551708828
print "num_atoms = ${natoms}"
num_atoms = 8
print "xx = ${length_x}"
xx = 4.22658398474032
print "yy = ${length_y}"
yy = 4.22658398474032
print "zz = ${length_z}"
zz = 4.22658398474032
print "xy = ${tilt_xy}"
xy = 0
print "xz = ${tilt_xz}"
xz = 0
print "yz = ${tilt_yz}"
yz = 0
print "tot_press = ${tot_press}"
tot_press = 13.7927584127517
print "pxx = ${press_xx}"
pxx = 13.7927584125475
print "pyy = ${press_yy}"
pyy = 13.7927584121258
print "pzz = ${press_zz}"
pzz = 13.7927584135819
print "pxy = ${press_xy}"
pxy = -4.49201179574407e-11
print "pxz = ${press_xz}"
pxz = -8.15453399591787e-11
print "pyz = ${press_yz}"
pyz = 2.09702873442201e-11
print "pypospack:output_section:done"
pypospack:output_section:done
print "pypospack:lammps_sim:done"
pypospack:lammps_sim:done
#------------------------------------------------------------------------------
# RUN THERMOSTAT
# running using an NPT Nose-Hoover style thermostat
#------------------------------------------------------------------------------
variable tempdamp equal 0.1
variable pressdamp equal 1.0
# set initial velocities
velocity all create 1600 2042416 mom yes dist gaussian loop all
# fix for Nose-Hoover style thermostat
fix 20 all npt temp 1600 1600 0.1 aniso 0.0 0.0 1.0 drag 1.0 couple xyz
variable boxx equal lx
variable boxy equal ly
variable boxz equal lz
variable boxp equal press
variable boxt equal temp
# calculate averages every 10000 steps
reset_timestep 0
fix 21 all ave/time 10 10 100 v_boxx v_boxy v_boxz v_boxp v_boxt file lattice.out
thermo_style custom step temp pe ke etotal press lx ly lz press pxx pyy pzz pxy pxz pyz vol
thermo_modify flush yes
thermo 100
run 100000
PPPM initialization ...
  G vector (1/distance) = 0.352801
  grid = 8 8 8
  stencil order = 5
  estimated absolute RMS force accuracy = 3.76353e-05
  estimated relative force accuracy = 2.61363e-06
  using double precision FFTs
  3d grid and FFT values/proc = 3375 512
Memory usage per processor = 3.06549 Mbytes
Step Temp PotEng KinEng TotEng Press Lx Ly Lz Press Pxx Pyy Pzz Pxy Pxz Pyz Volume 
       0         1600   -108.11055    1.4477136   -106.66284    20494.278     4.226584     4.226584     4.226584    20494.278    21499.009    23364.424      16619.4    16277.468    2835.3446    2309.9473    75.503748 
     100    414.17366   -106.86241   0.37475303   -106.48766    35562.388    4.2573632    4.2573632    4.2573632    35562.388     68116.23    13145.859    25425.076   -6775.6938     1200.718   -2223.8536    77.165308 
     200    1399.4866   -107.35629    1.2662849   -106.09001   -45911.767    4.3062199    4.3062199    4.3062199   -45911.767   -41191.652   -55385.352   -41158.296    11455.751    5139.8259   -1366.1706    79.852518 
     300    1102.8873   -106.72923    0.9979156   -105.73132    5051.6887    4.3157443    4.3157443    4.3157443    5051.6887     38639.75   -26073.035    2588.3506    9979.0423   -8558.0581    1301.0388    80.383537 
     400     1065.647    -106.4169   0.96421977   -105.45268    6587.2534    4.2886025    4.2886025    4.2886025    6587.2534    68717.406   -16561.257   -32394.389   -11480.043   -1447.7438    7482.5983    78.876455 
     500    2017.5993   -107.08306    1.8255662   -105.25749    16338.967     4.282736     4.282736     4.282736    16338.967    18435.028   -2148.5077    32730.382    21734.618    4288.2524   -9542.4983    78.553208 
     600    1562.4973   -106.62334    1.4137804   -105.20956   -8008.7289    4.3147098    4.3147098    4.3147098   -8008.7289    12118.148   -34612.396   -1531.9388   -9856.2654   -20354.727    5421.1136    80.325748 
     700    1468.3087   -106.48432    1.3285566   -105.15576   -24559.275    4.3373984    4.3373984    4.3373984   -24559.275    35244.969   -64210.105   -44712.689   -162.49291   -7401.7496    34.555239    81.599581 
     800    2106.5456   -107.04373    1.9060467   -105.13769   -21682.855    4.3056178    4.3056178    4.3056178   -21682.855    -22676.46    -28351.01   -14021.096    1512.9983    -7416.301    3423.8706    79.819027 
     900    1137.1421   -106.18264    1.0289101   -105.15373    23120.423    4.2712526    4.2712526    4.2712526    23120.423    89580.845    -10488.03   -9731.5452   -21620.351   -23076.594    7687.5345    77.923021 
    1000    2155.6931   -107.13688    1.9505164   -105.18636    19311.761    4.2829648    4.2829648    4.2829648    19311.761    20319.988    34705.931    2909.3648   -6592.7242    10611.654    -6282.146    78.565799 
    1100    1675.7695   -106.71629    1.5162715   -105.20002   -22472.566    4.3111757    4.3111757    4.3111757   -22472.566    22499.109   -36922.562   -52994.244    11115.543   -16109.945   -16979.488    80.128528 
    1200    1540.1731   -106.56151     1.393581   -105.16793    -27606.94     4.323499     4.323499     4.323499    -27606.94   -5386.0715   -84396.146     6961.398   -8093.1763   -7863.0216   -8629.9668    80.817628 
    1300     1341.264   -106.36221    1.2136039   -105.14861   -6779.5821    4.2996407    4.2996407    4.2996407   -6779.5821    4189.8958    16074.939   -40603.582    4144.0047    15399.355    3863.1959    79.487072 
    1400    1267.2212   -106.29322    1.1466084   -105.14661    37259.971    4.2728313    4.2728313    4.2728313    37259.971    51045.582    25418.758    35315.574    307.43827   -14763.383   -5189.6983    78.009455 
    1500    2308.9828   -107.26829    2.0892161   -105.17907   -10368.891    4.2949973    4.2949973    4.2949973   -10368.891   -19547.281    -24914.43    13355.038    8416.6328    23224.836   -11317.369    79.229825 
    1600    1597.0919   -106.61405    1.4450823   -105.16897   -22251.366    4.3110275    4.3110275    4.3110275   -22251.366    -65053.16   -3833.5055    2132.5671    9150.7156    27292.091     2526.285    80.120266 
    1700    1453.7696   -106.45381    1.3154013   -105.13841    23954.107    4.3016721    4.3016721    4.3016721    23954.107      13894.3    41951.817    16016.203    1957.2584   -3242.5866   -13167.132    79.599786 
    1800    952.96996   -106.00933   0.86226725   -105.14707   -3931.7877     4.306353     4.306353     4.306353   -3931.7877   -39622.797    20410.079    7417.3556    11511.404    21769.736   -19114.547    79.859923 
    1900    1145.8716   -106.17674    1.0368087   -105.13993    -2785.564    4.2943897    4.2943897    4.2943897    -2785.564    12487.298    2545.8904   -23389.881   -12855.075    28433.164   -24887.773    79.196201 
    2000    1973.4686   -106.92597    1.7856358   -105.14033    44834.523    4.2886863    4.2886863    4.2886863    44834.523    50168.679    15181.532    69153.357    9210.8141    6354.9363   -1943.6092    78.881079 
    2100    1568.5628   -106.58486    1.4192685   -105.16559   -30411.478    4.3160168    4.3160168    4.3160168   -30411.478   -28226.765   -23130.237   -39877.433    1608.6029    8513.2785   -17158.351    80.398767 
    2200    1260.1905   -106.26671    1.1402469   -105.12646   -39246.539    4.3236911    4.3236911    4.3236911   -39246.539   -29684.686   -50178.853   -37876.077    3625.9403    2222.7143   -41577.281    80.828402 
    2300     2064.099   -106.96701    1.8676402   -105.09937   -2046.4025    4.2993488    4.2993488    4.2993488   -2046.4025    -14841.37    -4473.929    13176.091   -9051.2824    9644.9285    5146.4629    79.470886 
    2400     2008.717   -106.93949    1.8175293   -105.12196   -12402.738    4.2917873    4.2917873    4.2917873   -12402.738   -19149.921   -19100.717    1042.4244   -20891.357   -453.14826   -11049.415    79.052314 
    2500    1864.5482   -106.83262    1.6870824   -105.14553    -15764.58    4.3114745    4.3114745    4.3114745    -15764.58   -33592.824   -8861.8282   -4839.0881    3209.0275   -9965.7842   -6943.1025    80.145189 
    2600    1639.8034   -106.61923    1.4837286    -105.1355   -29136.209    4.3208212    4.3208212    4.3208212   -29136.209   -46379.627   -9662.0823   -31366.918   -4766.1033    13831.012   -2512.9795    80.667553 
    2700    1270.1378   -106.26932    1.1492474   -105.12008    17302.164    4.3075604    4.3075604    4.3075604    17302.164    25438.872      17323.2    9144.4199   -7090.8396   -9564.4597   -16938.075    79.927112 
    2800     2371.068   -107.27025    2.1453921   -105.12486   -4130.5189     4.300353     4.300353     4.300353   -4130.5189    -28502.57   -29482.582    45593.595    9311.7397   -4453.4138     8749.965     79.52658 
    2900    1852.8186   -106.83216    1.6764692   -105.15569    3485.9331    4.3089598    4.3089598    4.3089598    3485.9331   -33755.257     59174.71   -14961.653    7327.2251    4190.0074   -21315.796    80.005038 
    3000    1267.4541   -106.29684    1.1468191   -105.15002   -3854.9358    4.3334571    4.3334571    4.3334571   -3854.9358   -25551.872    13349.085    637.98033    2614.1138    -3175.453   -21597.764    81.377343 
    3100    1232.8933   -106.22688    1.1155478   -105.11133   -10505.831    4.3255448    4.3255448    4.3255448   -10505.831    59969.025   -57841.494   -33645.025   -1475.6907    27586.541   -18039.135    80.932404 
    3200     1336.935   -106.31132    1.2096868   -105.10164    37475.151    4.2893049    4.2893049    4.2893049    37475.151    118332.58    -23327.27    17420.142    318.69996    3319.4389    386.65209    78.915218 
    3300    2085.9372   -107.01879    1.8873998   -105.13139     30495.51    4.2886619    4.2886619    4.2886619     30495.51    121989.27   -23668.866   -6833.8708    12503.965   -10473.765   -969.62143    78.879732 
    3400    871.21788   -105.97066   0.78829625   -105.18237   -17943.653    4.3284998    4.3284998    4.3284998   -17943.653    47911.498   -95791.012   -5951.4452     4070.773   -4153.9311   -22588.057    81.098382 
    3500    1647.6108    -106.6243    1.4907929   -105.13351   -18985.325    4.3243329    4.3243329    4.3243329   -18985.325    26152.447    -66213.13   -16895.291    1127.4545   -3287.7102   -2490.0393    80.864398 
    3600    1979.2001   -106.91402    1.7908218    -105.1232    6926.3982     4.274657     4.274657     4.274657    6926.3982    19581.412    26227.916   -25030.133   -19936.763   -18875.587    11893.406    78.109491 
    3700    888.14744   -105.98589   0.80361447   -105.18227    48803.384    4.2697004    4.2697004    4.2697004    48803.384    10101.621    49137.327    87171.204   -6351.2426    46097.325   -22706.697    77.838097 
    3800    1571.1071   -106.63032    1.4215707   -105.20875    9456.5496    4.3036964    4.3036964    4.3036964    9456.5496    14206.661   -24827.799    38990.787   -4318.9813   -29790.293    2761.0034    79.712218 
    3900    1615.5634   -106.65261    1.4617957   -105.19082   -41406.054    4.3138285    4.3138285    4.3138285   -41406.054    10647.469   -94972.393   -39893.239    -724.3895   -10962.361   -18873.763    80.276534 
    4000    1191.6773   -106.24763    1.0782547   -105.16938    11859.145    4.3003661    4.3003661    4.3003661    11859.145    65208.458   -36808.642    7177.6189    10146.047   -4541.5587    243.18727    79.527311 
    4100     1818.985   -106.80401    1.6458558   -105.15816   -25755.966    4.2909267    4.2909267    4.2909267   -25755.966    7486.5796   -29228.317   -55526.162   -8757.8967   -14153.511   -12387.452    79.004764 
    4200    1511.0154   -106.53314    1.3671985   -105.16594   -1706.2388    4.2993752    4.2993752    4.2993752   -1706.2388    375.92047   -34061.008    28566.371   -9702.0477    -7510.558    737.61862    79.472345 
    4300    1832.4549   -106.80478    1.6580437   -105.14674    14514.317    4.3014957    4.3014957    4.3014957    14514.317    34268.453   -40641.718    49916.217   -6513.2941   -598.46203     6235.918    79.589995 
    4400    1423.5971   -106.44879    1.2881006   -105.16069   -2190.7931    4.2971091    4.2971091    4.2971091   -2190.7931     9867.866    -31529.77    15089.525    6932.0918   -1396.4538   -10955.426    79.346752 
    4500    2139.4289   -107.09816    1.9358002   -105.16236    4633.0414    4.2968489    4.2968489    4.2968489    4633.0414   -7832.3072   -15189.867    36921.299   -6500.5311     5378.158    6626.8834    79.332335 
    4600      1119.17   -106.19015    1.0126485    -105.1775   -26052.813    4.3055456    4.3055456    4.3055456   -26052.813    34370.659   -40804.725   -71724.373    1711.4687   -15017.898   -22702.457     79.81501 
    4700    1647.2437   -106.64818    1.4904607   -105.15772   -27032.825    4.3081217    4.3081217    4.3081217   -27032.825   -17117.462   -27462.365   -36518.648    1642.2384   -7436.8716    7319.5814    79.958361 
    4800    2212.3963   -107.14744    2.0018227   -105.14562   -12159.519     4.308372     4.308372     4.308372   -12159.519    36338.373   -58434.139    -14382.79    10967.485    14275.949   -5937.6362    79.972302 
    4900    1597.5917   -106.59153    1.4455345   -105.14599   -13844.029    4.3081045    4.3081045    4.3081045   -13844.029    5468.8343   -44243.485   -2757.4359      922.329   -23020.569    6232.4283    79.957403 
    5000    1606.3874   -106.59345     1.453493   -105.13996    8819.3924    4.2938719    4.2938719    4.2938719    8819.3924    4455.4335   -16712.738    38715.482    -7134.873     335.6171    4922.6802    79.167558 
    5100     1498.189   -106.52953    1.3555929   -105.17394   -1650.2948    4.2920898    4.2920898    4.2920898   -1650.2948     67544.53   -43325.652   -29169.762    1811.2488   -267.32276   -16305.821    79.069027 
    5200    1386.1431   -106.44735    1.2542114   -105.19314   -5558.2244    4.3030307    4.3030307    4.3030307   -5558.2244   -31080.741   -22402.023     36808.09    10436.527   -29105.923     7224.187    79.675233 
    5300    2219.0427   -107.19557    2.0078365   -105.18773   -22958.947    4.2978891    4.2978891    4.2978891   -22958.947   -23989.409   -47793.564     2906.133    6998.1374   -8981.1787    -16525.48    79.389966 
    5400    1788.6245   -106.82551     1.618385   -105.20713     1657.854    4.2899044    4.2899044    4.2899044     1657.854    29505.057   -32809.417    8277.9223   -6680.6256    7927.2334    279.79467    78.948313 
    5500    1282.3038   -106.37645    1.1602554    -105.2162    41954.852    4.2936213    4.2936213    4.2936213    41954.852    108.49837   -9348.4498    135104.51     6803.884   -19436.809    10163.822    79.153697 
    5600    1501.5424   -106.57263    1.3586271     -105.214   -39812.624    4.3125231    4.3125231    4.3125231   -39812.624   -14891.887   -51560.636   -52985.349   -991.04733     1045.244    4843.3149    80.203679 
    5700    1738.9377   -106.76397    1.5734274   -105.19054   -14320.346    4.3058321    4.3058321    4.3058321   -14320.346   -30327.357   -7925.0704    -4708.612    2459.7708     349.5771   -1059.9502    79.830945 
    5800    1420.3455   -106.46162    1.2851585   -105.17646    39916.725    4.2934941    4.2934941    4.2934941    39916.725   -10940.438    45892.573     84798.04    12944.238   -26795.573    2049.9682    79.146664 
    5900    1332.7875   -106.39052    1.2059341   -105.18458    31488.735    4.2957782    4.2957782    4.2957782    31488.735     7001.427    30229.923    57234.856    287.12177    16546.273   -7702.1225    79.273048 
    6000    1712.1863   -106.73519    1.5492221   -105.18597   -26024.671     4.316357     4.316357     4.316357   -26024.671    -30392.54   -32009.655   -15671.819   -1024.7187    11501.955   -10401.968    80.417779 
    6100    1563.6471   -106.57216    1.4148208   -105.15734   -4330.3022    4.3068191    4.3068191    4.3068191   -4330.3022   -34257.493    14147.757    7118.8297   -3012.6447   -14112.126   -733.95802    79.885858 
    6200    1625.4195   -106.60401    1.4707137    -105.1333    15323.868    4.2839675    4.2839675    4.2839675    15323.868      20840.3     56759.54   -31628.236     3646.332   -4483.3728    1739.1584     78.62099 
    6300     1041.277   -106.11214    0.9421693   -105.16997    36728.604    4.2961591    4.2961591    4.2961591    36728.604    20174.203   -39459.337    129470.94    -14167.61   -1247.7394   -10219.538    79.294138 
    6400    1504.3911   -106.54845    1.3612047   -105.18724   -10674.335    4.3175996    4.3175996    4.3175996   -10674.335      9879.64   -63968.728    22066.082   -4095.1292   -5503.8297      2872.95    80.487249 
    6500    2042.3625   -107.02217    1.8479726   -105.17419   -27370.893    4.3018517    4.3018517    4.3018517   -27370.893   -21600.112   -43281.331   -17231.237   -1966.2369    18014.867   -15691.108    79.609759 
    6600     1539.609   -106.55949    1.3930706   -105.16642    14684.717    4.2828562    4.2828562    4.2828562    14684.717   -15751.164    17985.238    41820.078    3141.9374    11425.874    5643.8945    78.559822 
    6700    1513.6357   -106.57692    1.3695694   -105.20735   -15220.016    4.3004133    4.3004133    4.3004133   -15220.016    9235.6191   -27893.258   -27002.409    2817.9541   -24010.703   -16560.336    79.529926 
    6800    1922.8554   -106.93568    1.7398399   -105.19584   -18703.275    4.3106916    4.3106916    4.3106916   -18703.275    8639.7538   -42300.148   -22449.431   -3565.1335    7687.7328   -357.04635    80.101537 
    6900    1919.7598   -106.92756     1.737039   -105.19052   -1234.8818    4.2977083    4.2977083    4.2977083   -1234.8818   -41687.003   -27739.691    65722.049    3205.5591    14618.129   -6538.2919    79.379947 
    7000    1448.0885   -106.50612    1.3102609   -105.19586   -7588.5097    4.3032048    4.3032048    4.3032048   -7588.5097   -27272.768   -38637.072    43144.312   -9982.4407   -9820.1787   -3228.3074    79.684904 
    7100    2105.9317   -107.08378    1.9054913   -105.17829    -34674.65     4.323593     4.323593     4.323593    -34674.65   -38253.544   -31218.163   -34552.243    6913.1698    10135.215     9454.982    80.822895 
    7200    1205.4015   -106.24712    1.0906726   -105.15645        12781    4.3185671    4.3185671    4.3185671        12781    38130.448     -28538.8    28751.353    10305.001    7357.9891   -23923.175    80.541368 
    7300    1313.0372   -106.35139    1.1880637   -105.16333    25454.906    4.3107148    4.3107148    4.3107148    25454.906    5858.8103   -29854.359    100360.27    7878.0437   -22392.496   -15466.423    80.102831 
    7400    1606.8243   -106.63917    1.4538884   -105.18528     5399.039    4.3115375    4.3115375    4.3115375     5399.039   -17261.148   -32618.845     66077.11   -8115.1416    13296.771     5706.652    80.148702 
    7500    1465.6254   -106.51264    1.3261287   -105.18651   -16433.368    4.3034121    4.3034121    4.3034121   -16433.368   -5632.2704   -57866.093    14198.259   -6855.5472    2184.2452   -24111.954    79.696419 
    7600    2066.7006      -107.05    1.8699941   -105.18001    5608.6062    4.3057332    4.3057332    4.3057332    5608.6062   -20783.127   -16567.603    54176.548    18414.122   -360.47104   -6767.8253    79.825444 
    7700    1066.9655   -106.16787   0.96541281   -105.20245   -26978.994    4.3301753    4.3301753    4.3301753   -26978.994   -30240.567   -43315.852   -7380.5642    11466.653   -3152.5313   -23207.622    81.192595 
    7800    1922.3481   -106.89531    1.7393809   -105.15593   -18415.065    4.3305915    4.3305915    4.3305915   -18415.065   -12109.048   -54180.498    11044.353     3277.161    10801.645    7732.4416    81.216011 
    7900    1560.5955   -106.56132    1.4120596   -105.14926    17745.542    4.3088201    4.3088201    4.3088201    17745.542    57875.897    15606.562   -20245.833   -19998.175    19881.316    4564.9727    79.997258 
    8000    1080.4725   -106.14054   0.97763419   -105.16291    43240.975    4.2975265    4.2975265    4.2975265    43240.975    46362.469    16549.995     66810.46   -17071.969   -6840.2382   -19506.946    79.369871 
    8100    1944.2805    -106.9246    1.7592259   -105.16538    2324.2458    4.3104946    4.3104946    4.3104946    2324.2458    26878.479    5668.9355   -25574.677   -2706.4928    14331.102    18252.808    80.090556 
    8200    1478.4003   -106.51356    1.3376877   -105.17587   -20492.192    4.3256093    4.3256093    4.3256093   -20492.192    19076.001   -28696.979   -51855.599   -14855.366   -5083.3759   -29727.491    80.936026 
    8300    1569.5394   -106.56932    1.4201522   -105.14917   -3593.0419    4.3258555    4.3258555    4.3258555   -3593.0419   -51897.189   -18641.318    59759.381    1960.3055    11803.161    11218.203    80.949843 
    8400    1810.7951   -106.77929    1.6384455   -105.14084   -23397.573    4.3055339    4.3055339    4.3055339   -23397.573   -22185.756    -8279.815   -39727.147    17569.603    20109.767   -22610.197    79.814362 
    8500    1682.1528    -106.6629    1.5220472   -105.14085    26913.129    4.2757168    4.2757168    4.2757168    26913.129    53974.527   -1042.6771    27807.539    454.98947   -12145.163   -19873.633    78.167603 
    8600    1772.7065    -106.8015    1.6039821   -105.19752    -9110.388    4.2964774    4.2964774    4.2964774    -9110.388   -29394.526    6493.1805    -4429.818     18827.88    1049.7423    6404.1309     79.31176 
    8700    1715.6628    -106.7273    1.5523677   -105.17493   -69334.152    4.3258023    4.3258023    4.3258023   -69334.152   -58440.957   -67804.245   -81757.253   -2518.5772    16056.002   -13471.531    80.946857 
    8800    1589.9332   -106.58629     1.438605   -105.14769    24533.431     4.289555     4.289555     4.289555    24533.431   -1137.9417    31182.316    43555.919   -6804.6563   -9209.8228    6485.1142    78.929021 
    8900    1596.1825   -106.57468    1.4442595   -105.13042    52308.405    4.2641171    4.2641171    4.2641171    52308.405    39478.435    61406.254    56040.526    17885.551   -3571.3576    5466.6623    77.533139 
    9000    1905.8707   -106.90342    1.7244718   -105.17895    6578.0724    4.3009029    4.3009029    4.3009029    6578.0724    4420.4582    50393.653   -35079.894    9442.1818    13861.929   -10449.171    79.557096 
    9100    1670.0468   -106.65934    1.5110935   -105.14825   -25650.842    4.3219532    4.3219532    4.3219532   -25650.842   -7995.9943   -2095.0767   -66861.455    13550.809   -17018.506   -3958.3683    80.730971 
    9200    1255.2308   -106.26957    1.1357592   -105.13381    17884.231     4.298282     4.298282     4.298282    17884.231    47391.845    44269.048     -38008.2    21393.781    12461.471    7989.0094     79.41174 
    9300    2643.7632   -107.51716    2.3921325   -105.12503   -8381.7941    4.2761505    4.2761505    4.2761505   -8381.7941   -12630.041    7944.4196   -20459.761    13757.661   -7392.6793   -12647.054     78.19139 
    9400     878.1992    -105.9716    0.7946131   -105.17698    29173.069    4.2851685    4.2851685    4.2851685    29173.069   -10004.363    104913.77   -7390.2037    10892.526   -9400.3043    14491.558    78.687129 
    9500    1904.6603   -106.90323    1.7233766   -105.17985   -39648.158    4.3117914    4.3117914    4.3117914   -39648.158   -20845.502   -21396.415   -76702.557    18788.778   -17.533884    18186.028    80.162867 
    9600    1534.7832   -106.54628    1.3887041   -105.15757    6399.6839    4.2988567    4.2988567    4.2988567    6399.6839    -13833.28    63525.244   -30492.912   -13277.984   -33340.586    2681.4078    79.443596 
    9700    1441.8589   -106.45562    1.3046243     -105.151    13313.727    4.2748488    4.2748488    4.2748488    13313.727   -1453.9508    12014.465    29380.666    29206.823    6881.9925    2665.0998    78.120008 
    9800    1852.4097   -106.84679    1.6760992   -105.17069     4830.729    4.2852162    4.2852162    4.2852162     4830.729    14894.988    21912.687   -22315.488   -1462.7459   -11056.032   -22658.455    78.689757 
    9900    1152.2452   -106.22271    1.0425757   -105.18013   -6496.8042    4.3132703    4.3132703    4.3132703   -6496.8042   -29870.884    74492.991   -64112.519    2694.1185   -12146.576    640.05901    80.245377 
   10000    1620.1076   -106.61936    1.4659074   -105.15345   -37831.336    4.3045865    4.3045865    4.3045865   -37831.336   -53627.396   -28909.661   -30956.951   -15539.325    5532.0279     8779.664    79.761683 
   10100     1166.382   -106.20271     1.055367   -105.14734    33101.853    4.2732711    4.2732711    4.2732711    33101.853    -23883.84    119328.62    3860.7782   -11778.093   -36531.005   -31997.265    78.033544 
   10200    1958.4069   -106.94022    1.7720077   -105.16821    22318.135    4.2818859    4.2818859    4.2818859    22318.135     9644.545     42963.44    14346.419   -8057.5699    2457.8725   -16548.866    78.506438 
   10300    1417.1272   -106.47696    1.2822465   -105.19471    8090.8877    4.3079939    4.3079939    4.3079939    8090.8877   -33285.029    38869.058    18688.634   -775.92679   -31464.429    3103.1633    79.951244 
   10400    1650.9866   -106.66475    1.4938474    -105.1709   -24303.931    4.3337838    4.3337838    4.3337838   -24303.931   -56410.127      12267.2   -28768.866   -10321.723    -1823.243    -4659.105    81.395747 
   10500     1969.289   -106.92802    1.7818541   -105.14617   -34379.234    4.3146516    4.3146516    4.3146516   -34379.234   -81871.987    40501.871   -61767.585    4911.4896   -21180.396    6307.1287    80.322498 
   10600    1741.4808   -106.69979    1.5757284   -105.12406    24201.783    4.2688597    4.2688597    4.2688597    24201.783   -43816.705     99098.12    17323.933   -12542.074   -17906.986    2136.2558    77.792126 
   10700    1344.4756   -106.39214    1.2165097   -105.17563    30909.492    4.2780333    4.2780333    4.2780333    30909.492   -26878.453    65288.284    54318.645   -11240.772    8303.5767   -7670.6735    78.294721 
   10800    1583.0751   -106.63448    1.4323996   -105.20208   -47134.907    4.3191102    4.3191102    4.3191102   -47134.907   -98524.794     17073.28   -59953.206    2131.7198   -29918.362    4855.8766    80.571762 
   10900    1331.4418   -106.37173    1.2047165   -105.16702   -54476.611    4.3236002    4.3236002    4.3236002   -54476.611   -107036.12   -25664.153   -30729.558   -38004.624    22433.337    7995.3565    80.823302 
   11000    2107.1941   -107.04842    1.9066335   -105.14179    4313.2224    4.2593633    4.2593633    4.2593633    4313.2224    16937.378    7667.4316   -11665.142   -8389.1186   -15611.953   -3515.8742    77.274116 
   11100    1596.1229    -106.6032    1.4442056   -105.15899    45426.778    4.2444016    4.2444016    4.2444016    45426.778   -12266.993    134278.01    14269.318   -4021.4658    12524.277   -11327.762    76.462662 
   11200    1712.7362   -106.75767    1.5497198   -105.20795   -13787.667    4.2927489    4.2927489    4.2927489   -13787.667   -76691.037    12127.877    23200.157   -22436.262    7098.7778    903.14749    79.105462 
   11300    1103.5612   -106.17565   0.99852534   -105.17712   -12942.318    4.3243307    4.3243307    4.3243307   -12942.318   -78085.562    64090.002   -24831.393    5820.6804   -18918.011    13329.218    80.864272 
   11400    1798.2464   -106.76133    1.6270911   -105.13424   -18409.791    4.3094623    4.3094623    4.3094623   -18409.791   -30798.786    25825.933    -50256.52    10642.502    31179.142    3001.4438     80.03303 
   11500    2131.8304   -107.04156    1.9289249   -105.11264    23138.647     4.265116     4.265116     4.265116    23138.647    14437.032    28132.234    26846.676   -6808.5929   -18092.434   -22442.811    77.587639 
   11600    1047.5974   -106.10993   0.94788818   -105.16205    24670.109    4.2625792    4.2625792    4.2625792    24670.109   -24937.548    74136.291    24811.583    9615.6098    15328.336    15373.023    77.449282 
   11700     1979.915   -106.97706    1.7914687   -105.18559   -14609.223    4.2986992    4.2986992    4.2986992   -14609.223   -37339.532    26666.447   -33154.585    3891.7864     17982.27    7831.9941    79.434866 
   11800     1582.839    -106.5963     1.432186   -105.16412   -13704.345    4.3072286    4.3072286    4.3072286   -13704.345   -23455.821   -5340.9334   -12316.281   -18739.851    -17384.15   -6353.4698    79.908643 
   11900    1055.8943   -106.09975   0.95539539   -105.14435    14110.605    4.2854445    4.2854445    4.2854445    14110.605   -29085.528    11154.388    60262.957    11649.889    28041.096   -15729.112    78.702336 
   12000    1747.8988   -106.72503    1.5815356   -105.14349    25754.272    4.2778648    4.2778648    4.2778648    25754.272    36371.332    19526.565     21364.92   -2150.3584   -12985.331    9625.8379    78.285468 
   12100    1521.2139   -106.54359    1.3764263   -105.16717   -2646.0374    4.2840853    4.2840853    4.2840853   -2646.0374   -19017.134    57800.419   -46721.396   -188.44462    3556.3892    5927.2258    78.627476 
   12200    1725.5508   -106.74134    1.5613147   -105.18002   -7800.1986    4.3048998    4.3048998    4.3048998   -7800.1986   -60526.068    23628.919    13496.553   -8028.7644    23196.117    5900.4385    79.779104 
   12300    1543.7827   -106.54424    1.3968471   -105.14739   -44854.526     4.321114     4.321114     4.321114   -44854.526   -60871.099    -16179.84   -57512.638   -6705.3879   -11773.647    158.92075    80.683952 
   12400    859.92273   -105.92519   0.77807615   -105.14711   -395.97877    4.2788431    4.2788431    4.2788431   -395.97877    47626.816    13439.811   -62254.563    23015.787    32381.614   -17829.486     78.33919 
   12500     2271.405   -107.17523     2.055215   -105.12002    18086.572    4.2497444    4.2497444    4.2497444    18086.572    21867.394    16178.743    16213.578   -13337.244   -6358.3411     440.8909    76.751777 
   12600    1018.8904   -106.10879   0.92191347   -105.18687   -2473.8113    4.2772555    4.2772555    4.2772555   -2473.8113    28591.353    23772.874    -59785.66   -3215.4523   -9304.6789    5105.8615    78.252025 
   12700     1928.733    -106.9152    1.7451582   -105.17004   -51544.195    4.3066926    4.3066926    4.3066926   -51544.195   -52010.414   -26086.876   -76535.294   -15098.033    29597.245   -19840.945    79.878818 
   12800    1851.9299   -106.81681    1.6756651   -105.14115   -33684.897    4.3027305    4.3027305    4.3027305   -33684.897   -31882.671   -28974.553   -40197.466    3475.9452   -17903.733    3288.9935    79.658557 
   12900    1822.8404   -106.77867    1.6493443   -105.12933   -20162.839    4.2870329    4.2870329    4.2870329   -20162.839   -9878.1214   -4093.7638   -46516.631   -18240.849    19773.589   -17740.401    78.789882 
   13000    1678.2699   -106.65783    1.5185339    -105.1393    -19446.92    4.2839749    4.2839749    4.2839749    -19446.92   -18378.838   -32700.117   -7261.8041     6794.467    5300.7551    16506.143    78.621395 
   13100    1634.1747   -106.62595    1.4786356   -105.14732   -5556.1064     4.280551     4.280551     4.280551   -5556.1064    53.688166   -27376.141    10654.133   -6447.8042    3217.3925    10524.445    78.433037 
   13200    2005.1711   -106.97098     1.814321   -105.15666   -31144.969    4.3033337    4.3033337    4.3033337   -31144.969   -58106.378    8876.8946   -44205.422   -7837.1873    16123.621   -30318.655    79.692064 
   13300    1530.1414   -106.51951    1.3845041   -105.13501   -34934.849    4.3147588    4.3147588    4.3147588   -34934.849   -42129.996   -26136.398   -36538.153    675.83091    -2650.238    43300.486    80.328482 
   13400    1428.2866   -106.41534    1.2923438   -105.12299    14791.148    4.2746605    4.2746605    4.2746605    14791.148    15005.389   -7176.9509    36545.007   -5158.0278     2973.575   -7653.8367    78.109682 
   13500    1386.9685   -106.39143    1.2549582   -105.13647    39283.452    4.2587728    4.2587728    4.2587728    39283.452    55083.687    28158.317    34608.352   -11687.528    9028.4409   -5323.8382    77.241982 
   13600    1536.7128   -106.56688      1.39045   -105.17643    -13227.12    4.2889554    4.2889554    4.2889554    -13227.12    5707.0435   -22364.869   -23023.534     6604.788   -10162.207    48273.176    78.895928 
   13700    1280.3365   -106.32068    1.1584754    -105.1622   -7153.0058    4.3137072    4.3137072    4.3137072   -7153.0058    15027.961   -14568.317   -21918.661   -3168.8552    1483.8498    -28973.74    80.269762 
   13800    1603.6568   -106.58186    1.4510224   -105.13084    6431.9249    4.3030674    4.3030674    4.3030674    6431.9249    11077.181    12282.982   -4064.3889   -14948.362   -1492.6954    36449.013    79.677273 
   13900    1539.5529   -106.51747    1.3930198   -105.12445     21803.39    4.2819598    4.2819598    4.2819598     21803.39    45769.746    6055.6712    13584.751    942.01195   -1704.5637   -2596.8269    78.510503 
   14000    1687.2869   -106.66511    1.5266927   -105.13842   -14629.984     4.277078     4.277078     4.277078   -14629.984    33897.123   -27641.453   -50145.623   -14377.156    11831.276   -32250.082     78.24228 
   14100    1469.3869   -106.49142    1.3295321   -105.16188    37424.099    4.2768706    4.2768706    4.2768706    37424.099     52830.31    15645.467     43796.52   -5375.3676    6139.5886    39822.913    78.230903 
   14200    1484.5042   -106.52193    1.3432106   -105.17872   -18530.008    4.3012387    4.3012387    4.3012387   -18530.008   -38162.953    -11974.79   -5452.2799    12591.511    9800.1334   -18154.542     79.57573 
   14300    1845.7195   -106.82653    1.6700458   -105.15649   -25621.293    4.2961486    4.2961486    4.2961486   -25621.293    4912.0049   -43988.238   -37787.645   -22455.309   -2015.3416    12029.535    79.293555 
   14400    1423.6994   -106.42248    1.2881931   -105.13429    36963.037    4.2666525    4.2666525    4.2666525    36963.037    36690.091   -6643.7417    80842.763    20148.599    5044.0888    17572.857    77.671523 
   14500    1432.8788   -106.46631    1.2964989   -105.16981   -3533.5543    4.2829519    4.2829519    4.2829519   -3533.5543    30729.434   -10740.335   -30589.761    15160.805    28467.932   -30978.276    78.565087 
   14600     1532.219   -106.54009    1.3863839   -105.15371   -9557.1694    4.3039191    4.3039191    4.3039191   -9557.1694    40407.497   -30980.742   -38098.263   -18357.251   -1587.9462    27485.273     79.72459 
   14700    1440.7309   -106.44309    1.3036036   -105.13949   -1595.6593    4.2922515    4.2922515    4.2922515   -1595.6593    24112.991   -25606.892   -3293.0772    31560.461    3562.3741    4681.9337    79.077966 
   14800    1625.6587   -106.60421    1.4709302   -105.13328    18862.573    4.2927905    4.2927905    4.2927905    18862.573    33549.886    9539.7385    13498.095   -12674.438    15734.648   -15595.985    79.107759 
   14900    1353.3351   -106.36072    1.2245261   -105.13619    4459.7397    4.2954936    4.2954936    4.2954936    4459.7397    30074.297   -52098.365    35403.288    10292.247   -4491.1608    24631.565    79.257291 
   15000    1309.5214   -106.32795    1.1848825   -105.14306   -6178.2453    4.2822234    4.2822234    4.2822234   -6178.2453   -17707.862   -69984.817    69157.943    32658.099     15539.35   -23575.023    78.525005 
   15100    2030.0238   -106.99072    1.8368082   -105.15391    9858.1111      4.27916      4.27916      4.27916    9858.1111    40492.145    455.48448   -11373.297   -21868.437    -13404.99    14354.422    78.356598 
   15200    1576.4456   -106.59279    1.4264011   -105.16639    4173.2215    4.2813943    4.2813943    4.2813943    4173.2215    6915.0668   -48759.234    54363.831    24358.779    7519.1281    12426.466    78.479398 
   15300    1323.7079   -106.36932    1.1977188    -105.1716    11065.788    4.2853578    4.2853578    4.2853578    11065.788    38796.147   -47821.471    42222.687     14308.22   -1368.7147   -29427.547    78.697557 
   15400    2178.7189   -107.12529    1.9713506   -105.15394   -14147.541    4.2973644    4.2973644    4.2973644   -14147.541    15958.995    -39263.61   -19138.009    12039.368   -3790.0054    7720.0122    79.360891 
   15500    1354.6801   -106.38623     1.225743   -105.16049   -3755.3668    4.2890792    4.2890792    4.2890792   -3755.3668    4115.3755   -16798.544    1417.0685    24924.668   -2590.0737   -21388.526     78.90276 
   15600    1900.8042   -106.87727    1.7198876   -105.15739    10331.538    4.2859079    4.2859079    4.2859079    10331.538    45714.593    353.67369   -15073.652    14431.749   -1191.6146   -13446.577    78.727871 
   15700    2183.0492   -107.12849    1.9752688   -105.15322    -8780.587    4.3010857    4.3010857    4.3010857    -8780.587    30735.115   -19588.661   -37488.215    21933.971   -6917.7809   -1727.0808    79.567237 
   15800    1256.4115   -106.29553    1.1368276   -105.15871   -10623.467     4.296157     4.296157     4.296157   -10623.467      10035.9   -3428.6392   -38477.661    21495.747    1088.5361   -38277.348    79.294019 
   15900    2035.9498   -106.98776    1.8421701   -105.14559    2917.2548    4.2865472    4.2865472    4.2865472    2917.2548    42803.629    6286.5396   -40338.404   -7813.9818    12671.024    12206.342    78.763105 
   16000    1291.1961   -106.32877    1.1683014   -105.16047    10632.395    4.2878753    4.2878753    4.2878753    10632.395    36699.621    -22383.94    17581.506    21150.553   -4979.6835   -6121.3973     78.83634 
   16100     1547.019   -106.55768    1.3997753    -105.1579    -1232.951    4.2850439    4.2850439    4.2850439    -1232.951     24599.34    9366.6625   -37664.856    14936.768    9649.3918   -18401.016    78.680269 
   16200    1825.9251   -106.81893    1.6521354    -105.1668      13393.3    4.2860521    4.2860521    4.2860521      13393.3    50800.927    29640.924   -40261.951   -16402.775    7680.2182    24041.643    78.735815 
   16300    1624.2093   -106.63956    1.4696187   -105.16994    20158.549    4.2900058    4.2900058    4.2900058    20158.549    11154.993    44269.501    5051.1548    21445.876    3271.3554   -11620.492    78.953909 
   16400    1825.6904    -106.8089    1.6519231   -105.15697   -100.07367    4.2894603    4.2894603    4.2894603   -100.07367   -12491.646    43020.473   -30829.049   -929.36907    20013.406    561.23601    78.923793 
   16500     1290.656   -106.32543    1.1678127   -105.15762    1977.4794    4.2830051    4.2830051    4.2830051    1977.4794    14382.079    26202.446   -34652.087    609.06796   -8457.2633    34347.609    78.568014 
   16600    1627.4556   -106.63953     1.472556   -105.16698    2697.8845    4.2767611    4.2767611    4.2767611    2697.8845   -19675.286   -7551.4421    35320.382    25427.348    6127.4341   -8163.4564    78.224893 
   16700    1912.0006   -106.90459    1.7300183   -105.17457   -1411.8202      4.27966      4.27966      4.27966   -1411.8202    48393.085   -4784.2447   -47844.301    7416.0323    12634.176      19358.6    78.384071 
   16800    1449.1093   -106.49551    1.3111846   -105.18433    5403.0993    4.2780481    4.2780481    4.2780481    5403.0993    37891.151   -5117.1774   -16564.676    3664.5592   -4477.0395    39376.218    78.295532 
   16900    1905.2931   -106.90026    1.7239492   -105.17631    3194.0094    4.2767998    4.2767998    4.2767998    3194.0094    5294.0783   -517.12509     4805.075    9458.2777    -2056.245   -473.11982    78.227017 
   17000    1894.6737   -106.89326    1.7143406   -105.17892   -11160.543    4.2794561    4.2794561    4.2794561   -11160.543   -18691.567    6193.7339   -20983.795    1380.8315    1968.6904    23504.904    78.372863 
   17100    761.66955    -105.8856   0.68917462   -105.19642    8492.9832    4.2898839    4.2898839    4.2898839    8492.9832    4443.8056    384.20137    20650.943    14793.121   -9963.8198    16790.461     78.94718 
   17200     1880.707   -106.86288    1.7017032   -105.16118   -1340.1163    4.2948586    4.2948586    4.2948586   -1340.1163   -3156.8239      14056.3   -14919.825    5945.4766   -9082.3699   -12991.278    79.222145 
   17300     1910.624   -106.89127    1.7287727    -105.1625     12578.42    4.2727947    4.2727947    4.2727947     12578.42    17346.768    47140.909   -26752.416   -11168.803   -20725.201    20401.104    78.007452 
   17400    1276.9869   -106.33794    1.1554446    -105.1825    26280.049    4.2637445    4.2637445    4.2637445    26280.049    22153.272     37849.49    18837.384    32283.553    -17996.95    11075.814    77.512819 
   17500    2016.5299   -107.01221    1.8245986   -105.18761   -10494.146    4.2938001    4.2938001    4.2938001   -10494.146    13662.561    2805.4791   -47950.478    3486.8368   -14.850868   -5049.8468    79.163587 
   17600    1357.4271   -106.39544    1.2282286   -105.16721   -16552.597    4.3070832    4.3070832    4.3070832   -16552.597    22886.075   -4406.8603   -68137.004    9724.6262    -10760.91    25217.915    79.900555 
   17700    1094.0501   -106.14139   0.98991952   -105.15147     1231.139    4.2865727    4.2865727    4.2865727     1231.139    41679.398   -3230.4878   -34755.493    15106.108   -694.81633   -19445.931     78.76451 
   17800    1588.2441    -106.5829    1.4370766   -105.14583      23745.2    4.2753154    4.2753154    4.2753154      23745.2    66581.976    13486.553   -8832.9294    1115.6949    625.31355   -11698.726    78.145591 
   17900    2157.1887   -107.10918    1.9518697   -105.15731    -6906.059    4.2762629    4.2762629    4.2762629    -6906.059    6310.9642    11175.741   -38204.882   -1831.0725    -8413.596    17952.522     78.19756 
   18000     1689.008   -106.70527    1.5282499   -105.17702   -8953.2571    4.2848339    4.2848339    4.2848339   -8953.2571     22887.76    4988.5506   -54736.082    14775.257    8405.6033   -23788.044    78.668698 
   18100    1350.7089   -106.38531    1.2221498   -105.16316    7628.9146    4.2989652    4.2989652    4.2989652    7628.9146    64770.073   -21503.792   -20379.537   -238.38121    26159.375   -6327.1499    79.449614 
   18200    1562.0741   -106.56262    1.4133975   -105.14922   -1430.9336    4.2890819    4.2890819    4.2890819   -1430.9336     -6182.15    -11302.41    13191.759    10842.794   -1945.1336   -133.12276    78.902907 
   18300    1735.9186   -106.72351    1.5706956   -105.15282    4478.3088    4.2633593    4.2633593    4.2633593    4478.3088   -1384.2278   -7134.2431    21953.397      11171.4   -3547.4862   -10440.006    77.491812 
   18400    1749.8737   -106.76955    1.5833225   -105.18623    10499.008    4.2676628    4.2676628    4.2676628    10499.008    37557.606    22878.658    -28939.24   -9278.6766    36509.294   -2827.2416    77.726712 
   18500    1729.5632   -106.75664    1.5649451   -105.19169   -12642.181    4.2961461    4.2961461    4.2961461   -12642.181   -3515.9207   -20308.088   -14102.534    5686.7991   -4118.9729   -1192.5917    79.293417 
   18600    1474.1994   -106.50015    1.3338866   -105.16627   -39.390021    4.2926514    4.2926514    4.2926514   -39.390021    46470.243    14401.083   -60989.496    21431.565    8687.1553   -18162.655    79.100068 
   18700    1566.5084   -106.57332    1.4174098   -105.15591    1622.6363     4.282472     4.282472     4.282472    1622.6363    28787.423   -175.81057   -23743.704   -23586.623    22482.444   -1217.5673    78.538679 
   18800     1852.793   -106.83417    1.6764461   -105.15772    3887.1083    4.2861729    4.2861729    4.2861729    3887.1083   -15531.688   -7531.4556    34724.469   -32434.941    -4930.011    -3920.814    78.742476 
   18900    1477.1127   -106.49316    1.3365227   -105.15664    8283.3155    4.2950371    4.2950371    4.2950371    8283.3155    29729.257    32583.302   -37462.613    11333.148    34408.578   -8352.6656    79.232027 
   19000    1693.6137   -106.68067    1.5324173   -105.14825    4098.7811    4.3029116    4.3029116    4.3029116    4098.7811    43784.844   -4315.5307    -27172.97   -20184.779   -7581.7641   -3359.7979    79.668615 
   19100    1838.7994    -106.8021    1.6637843   -105.13832   -11221.616     4.295113     4.295113     4.295113   -11221.616   -16859.009    7529.9433   -24335.782    -13812.31    5177.1627   -17975.312    79.236225 
   19200    1709.1798   -106.67905    1.5465018   -105.13255    8942.0389    4.2831865    4.2831865    4.2831865    8942.0389    3605.9459     71669.65   -48449.479    5652.8716    17934.925    7651.6804    78.577998 
   19300    1465.3132   -106.47094    1.3258462    -105.1451    12076.008    4.2935882    4.2935882    4.2935882    12076.008   -783.69132    16507.826    20503.889   -2454.7654   -20328.559   -4343.3821    79.151868 
   19400    1104.9629   -106.15888   0.99979365   -105.15909   -33628.802    4.3007917    4.3007917    4.3007917   -33628.802   -54845.852    11240.169   -57280.722   -10385.461    52670.262     -11620.8    79.550923 
   19500     1927.445   -106.88551    1.7439927   -105.14152    15645.591     4.280792     4.280792     4.280792    15645.591   -24321.772    69501.862    1756.6825   -35.885661   -8151.9069    4123.0111    78.446285 
   19600    1796.5296   -106.78933    1.6255377   -105.16379    1905.0101    4.2772169    4.2772169    4.2772169    1905.0101   -18384.161    35204.846   -11105.655   -13181.554    19244.866    6132.5784    78.249904 
   19700    1225.3498   -106.30579    1.1087222   -105.19707   -40715.095    4.2837861    4.2837861    4.2837861   -40715.095   -63039.067   -11439.756   -47666.461   -13918.063     56337.42    -20355.89    78.611004 
   19800    1613.7048   -106.64418     1.460114   -105.18406    23159.263    4.2847271    4.2847271    4.2847271    23159.263    1715.5495    4704.9254    63057.315     10403.12   -19532.183     1366.997    78.662818 
   19900    960.19927   -106.05743   0.86880848   -105.18862   -14456.599      4.29048      4.29048      4.29048   -14456.599   -39808.616    40314.156   -43875.338    8957.5933    55753.776    11578.225    78.980095 
   20000    1619.0286   -106.62609    1.4649311   -105.16116    23681.208    4.2842197    4.2842197    4.2842197    23681.208    4970.9983       2636.8    63435.825   -11004.437    -4723.036   -19496.646    78.634878 
   20100    2003.4055   -106.96225    1.8127234   -105.14953   -7388.8377    4.2935921    4.2935921    4.2935921   -7388.8377   -23606.766    17726.368   -16286.115    5586.1104     18297.44   -9654.5014    79.152081 
   20200    1530.5565   -106.53362    1.3848797   -105.14874   -28220.043     4.285608     4.285608     4.285608   -28220.043   -44751.517    1417.3645   -41325.975   -14079.805    47699.078    15498.635    78.711343 
   20300    1469.8571   -106.47195    1.3299576     -105.142    39158.756    4.2713674    4.2713674    4.2713674    39158.756    48630.814   -47923.066    116768.52   -8702.4167   -17008.758   -12245.777    77.929299 
   20400    1339.2485   -106.37859    1.2117802   -105.16681   -38711.802    4.2954524    4.2954524    4.2954524   -38711.802   -55687.866   -40030.781   -20416.758    20398.486    35060.195    1443.6442    79.255013 
   20500    1592.6862    -106.6015    1.4410959   -105.16041   -31698.557    4.2853369    4.2853369    4.2853369   -31698.557   -8339.7765   -30985.506   -55770.388   -8613.7887    14602.865   -18742.989    78.696411 
   20600    2009.9155   -106.96525    1.8186138   -105.14663    31466.525    4.2580839    4.2580839    4.2580839    31466.525    43690.927   -14666.136    65374.784   -7465.3111   -1683.3211    -11560.65    77.204506 
   20700    1342.1365   -106.40168    1.2143933   -105.18729    1175.1912    4.2765916    4.2765916    4.2765916    1175.1912    -16503.88    37749.485   -17720.031    23482.227    25102.784   -5210.1619     78.21559 
   20800    1562.5708   -106.59038    1.4138469   -105.17653    -17563.83    4.2908197    4.2908197    4.2908197    -17563.83    2699.9641     -25590.2   -29801.252   -11532.225    5257.1351   -32646.449    78.998855 
   20900    1285.3596   -106.32623    1.1630204   -105.16321   -6704.7442    4.3013838    4.3013838    4.3013838   -6704.7442    19519.751    -42928.29    3294.3062    1455.9147    19109.812    3583.3772    79.583782 
   21000     1133.292   -106.16919    1.0254264   -105.14376   -18044.068    4.3068255    4.3068255    4.3068255   -18044.068   -4890.4876    2594.9366   -51836.653    4233.7279    21332.315   -6823.0804    79.886211 
   21100    2198.1439   -107.10514    1.9889268   -105.11622   -3097.1337    4.2853909    4.2853909    4.2853909   -3097.1337   -3069.5133    -16128.34    9906.4523    13687.322    5881.1648   -20045.747    78.699383 
   21200    1429.4938   -106.42694     1.293436   -105.13351    -4854.566     4.272077     4.272077     4.272077    -4854.566   -2516.4956   -5402.7851   -6644.4172    13526.168    13491.984    5009.8575    77.968149 
   21300    1498.4403    -106.5104    1.3558203   -105.15458   -21289.451    4.2830358    4.2830358    4.2830358   -21289.451   -2692.8056   -9981.0981    -51194.45   -9448.3592    17757.116   -2941.6699    78.569701 
   21400    1692.0546   -106.69566    1.5310066   -105.16465   -30546.359     4.301445     4.301445     4.301445   -30546.359   -12783.364    -61159.97   -17695.742    11348.651    -3140.982   -7113.3449     79.58718 
   21500    1240.1879    -106.2847    1.1221481   -105.16255   -13321.533    4.3018283    4.3018283    4.3018283   -13321.533   -23995.895    45818.561   -61787.265    3383.2277    16119.158    12106.938    79.608458 
   21600    2064.2668   -107.00753     1.867792   -105.13974    24228.096    4.2775667    4.2775667    4.2775667    24228.096    20987.516    51195.851    500.92051    -26810.14    6238.4505    9212.1403    78.269104 
   21700    1702.8313   -106.69825    1.5407575   -105.15749    5781.9044    4.2792847    4.2792847    4.2792847    5781.9044    12950.215   -940.19943    5335.6972   -7510.6205    11099.046    20152.591    78.363448 
   21800    1243.0161   -106.28867    1.1247071   -105.16397   -1706.2747     4.292465     4.292465     4.292465   -1706.2747    32456.169     23890.12   -61465.113     2004.381    28508.175    14795.696    79.089765 
   21900    1586.8191    -106.5976    1.4357873   -105.16181   -15412.207    4.2943928    4.2943928    4.2943928   -15412.207    15453.968   -25483.846   -36206.742   -1465.1474   -1241.8406   -2496.2913    79.196371 
   22000    1495.5556   -106.51312    1.3532101   -105.15991    16551.964    4.2942547    4.2942547    4.2942547    16551.964    61960.773   -3455.0949   -8849.7858   -4906.1587    13746.706    848.27598    79.188736 
   22100    1817.0595   -106.79296    1.6441136   -105.14885   -7396.8365    4.2988416    4.2988416    4.2988416   -7396.8365   -26990.711    42770.256   -37970.055    -8317.717    6091.4749   -1700.1482    79.442761 
   22200    1224.3138   -106.24754    1.1077849   -105.13976    12130.936    4.2911686    4.2911686    4.2911686    12130.936   -1581.5757   -6200.8959     44175.28   -9112.5089   -23064.456     -1326.62    79.018129 
   22300    1611.5198   -106.60293     1.458137   -105.14479   -10437.419    4.2846492    4.2846492    4.2846492   -10437.419    -28282.76   -2362.9034   -666.59443   -3474.2007    29586.375    744.86696    78.658525 
   22400    1732.3862   -106.72773    1.5674994   -105.16023    11129.831    4.2804964    4.2804964    4.2804964    11129.831    5899.9844    49359.583   -21870.074   -8664.9471     19698.11   -7674.2682    78.430037 
   22500     1805.437   -106.81062    1.6335973   -105.17702    7553.9839    4.2851926    4.2851926    4.2851926    7553.9839   -16828.566    42635.863   -3145.3458    21898.986   -11597.379   -1227.5031    78.688459 
   22600    1427.0641   -106.46984    1.2912376    -105.1786   -20568.108    4.3037933    4.3037933    4.3037933   -20568.108    -2713.329   -8622.5437   -50368.451    -4561.556    41223.072    11561.414    79.717598 
   22700    2173.7365   -107.10781    1.9668425   -105.14097   -1672.8636    4.2906496    4.2906496    4.2906496   -1672.8636   -21754.458   -46.755781    16782.623    456.12982   -14626.814    1685.5865    78.989458 
   22800    1168.2756   -106.20421    1.0570803   -105.14713    24479.516    4.2796825    4.2796825    4.2796825    24479.516   -14263.658    71067.071    16635.136     10119.54    35659.524   -3505.7372    78.385303 
   22900    1760.4647   -106.74212    1.5929054   -105.14922   -4897.3856    4.2955115    4.2955115    4.2955115   -4897.3856   -33200.203    32447.227    -13939.18   -5109.5112    25714.498    2194.0035    79.258283 
   23000    1551.8173   -106.54411    1.4041169   -105.13999   -6655.6198    4.3093288    4.3093288    4.3093288   -6655.6198   -13790.281    15627.528   -21804.107    32455.851    5859.1722    1732.1665    80.025593 
   23100    1135.3133   -106.16044    1.0272553   -105.13318   -3414.5949    4.3001115    4.3001115    4.3001115   -3414.5949   -73079.369    97797.393   -34961.808   -4758.6968    46272.047   -1119.2941    79.513187 
   23200    1759.8354   -106.71603     1.592336   -105.12369    28353.541    4.2746106    4.2746106    4.2746106    28353.541    38749.659     18575.16    27735.804    162.16433    -14745.86    20899.731    78.106951 
   23300    1574.1039   -106.57471    1.4242823   -105.15043    15220.303    4.2734345    4.2734345    4.2734345    15220.303   -3316.4438     33266.22    15711.132     21757.69    30112.277   -11403.358    78.042498 
   23400    1466.2187   -106.49704    1.3266655   -105.17038    -8293.079    4.2954445    4.2954445    4.2954445    -8293.079   -6621.8613    18526.556   -36783.932    -12245.98    31944.863    1906.8977    79.254576 
   23500    1317.1832   -106.34575     1.191815   -105.15393     15700.93     4.294941     4.294941     4.294941     15700.93    58257.048    20555.791    -31710.05    12241.099   -19593.944     8772.753    79.226708 
   23600    1535.4133   -106.54343    1.3892742   -105.15416    2754.6523    4.2839842    4.2839842    4.2839842    2754.6523    9021.3089    44000.494   -44757.846     18689.93    30856.992   -479.72205    78.621907 
   23700    1728.1493   -106.71598    1.5636658   -105.15231    8658.8818    4.2785062    4.2785062    4.2785062    8658.8818    53278.784    -12262.36   -15039.778   -8716.9609    9253.2275    18201.281     78.32069 
   23800    1959.0312   -106.92903    1.7725726   -105.15646   -4935.1578    4.2742154    4.2742154    4.2742154   -4935.1578    38390.807   -29088.929   -24107.351     1304.103    5677.2511    5993.3102    78.085285 
   23900    1236.1844   -106.29656    1.1185256   -105.17803   -4988.9949    4.2866619    4.2866619    4.2866619   -4988.9949    44636.566   -8512.4696   -51091.081    28824.948    24436.587   -6366.5285    78.769427 
   24000    1640.1108   -106.66115    1.4840067   -105.17715   -32393.688    4.2942593    4.2942593    4.2942593   -32393.688    43281.223   -54784.868   -85677.419   -12692.392    8107.0333    32611.384    79.188988 
   24100     1730.959   -106.73848    1.5662081   -105.17228   -23660.796    4.2827679    4.2827679    4.2827679   -23660.796   -463.97003   -32865.069   -37653.348     10779.74   -7054.5993    13688.566    78.554961 
   24200    1570.5798   -106.59832    1.4210936   -105.17723    2260.0882    4.2691465    4.2691465    4.2691465    2260.0882    16408.479    -15226.64    5598.4255    22359.215    17037.146    7872.2466    77.807804 
   24300    1838.2648   -106.86553    1.6633006   -105.20222    15189.974    4.2853201    4.2853201    4.2853201    15189.974    103237.74   -52038.103   -5629.7101    -6865.018   -2641.0585    27669.988    78.695482 
   24400    1440.8191   -106.49504    1.3036834   -105.19136   -20486.802    4.2986902    4.2986902    4.2986902   -20486.802   -23190.005    17105.403   -55375.803    154.11147     23847.47    137.56549    79.434369 
   24500    867.53772   -105.96192   0.78496636   -105.17695    1762.8339    4.2813772    4.2813772    4.2813772    1762.8339    43808.945   -4624.1075   -33896.335   -5873.4836    -1379.458    22953.677     78.47846 
   24600    2031.3017   -107.00423    1.8379645   -105.16627    2771.3694    4.2798829    4.2798829    4.2798829    2771.3694    63684.564   -35394.004   -19976.452   -15846.984    13148.141    851.51066    78.396317 
   24700    2072.9066   -107.05154    1.8756095   -105.17593   -1655.3736    4.2758699    4.2758699    4.2758699   -1655.3736    44488.715   -7564.9936   -41889.842    12375.642    28311.459    7038.2216    78.175998 
   24800    1338.4129   -106.40286    1.2110242   -105.19184    11727.706    4.2754403    4.2754403    4.2754403    11727.706    26860.649    24211.723   -15889.254    6347.6661   -7589.3541    21948.541    78.152439 
   24900    1501.1822   -106.56536    1.3583012   -105.20706   -7640.4624    4.3035588    4.3035588    4.3035588   -7640.4624    54125.504   -29781.562   -47265.328   -20125.031   -8170.3787   -981.20659     79.70457 
   25000    1623.8856   -106.63845    1.4693258   -105.16912   -27471.231    4.3161217    4.3161217    4.3161217   -27471.231     36327.98   -67849.418   -50892.256    4136.5801   -4602.7993    31490.324    80.404628 
   25100    1826.2787   -106.79232    1.6524554   -105.13986    5706.2216    4.2861821    4.2861821    4.2861821    5706.2216   -2266.9359    -43995.04    63380.641   -2748.8273    -30769.25   -2982.1816    78.742982 
   25200    1691.7028   -106.67238    1.5306882   -105.14169    22911.696    4.2751696    4.2751696    4.2751696    22911.696    93457.126   -34008.757    9286.7186    510.41209   -20658.091     3172.061    78.137596 
   25300    1688.9859   -106.69065      1.52823   -105.16242   -8037.3366    4.2968879    4.2968879    4.2968879   -8037.3366    33016.719   -64036.256    6907.5266    1031.2346    15792.127    26200.197    79.334494 
   25400    1599.1762   -106.59419    1.4469682   -105.14723    3579.0719    4.2965023    4.2965023    4.2965023    3579.0719    7012.3826   -21935.694    25660.527    2855.5572   -22294.597   -9572.1599     79.31314 
   25500    1199.0945   -106.24827    1.0849659    -105.1633   -15761.728    4.2950543    4.2950543    4.2950543   -15761.728    54903.649   -58138.411   -44050.423   -1944.4611   -7743.1631    37389.642    79.232978 
   25600    1978.4872   -106.95129    1.7901768   -105.16112     8828.543    4.2877282    4.2877282    4.2877282     8828.543    60920.696   -31516.025   -2919.0414    8750.7366    2813.4254    8784.2194    78.828222 
   25700    1533.0081   -106.55714    1.3870979   -105.17005    14556.437     4.284775     4.284775     4.284775    14556.437     10542.58    52678.882    -19552.15   -11031.616   -24800.719    9379.7466    78.665456 
   25800     1516.995    -106.5467     1.372609   -105.17409   -43262.313    4.3060958    4.3060958    4.3060958   -43262.313   -19714.102   -49672.258   -60400.579    4324.9506   -981.04518    36444.939    79.845613 
   25900    1861.1353   -106.83381    1.6839943   -105.14981    15149.394    4.3020314    4.3020314    4.3020314    15149.394    3745.2969    15049.367    26653.517    17360.781   -6244.0362   -11304.927    79.619734 
   26000    1343.5625   -106.37625    1.2156836   -105.16056   -15463.875    4.2915676    4.2915676    4.2915676   -15463.875    18470.198   -14302.965   -50558.859   -4681.3864   -15001.403    34048.912    79.040169 
   26100    1589.2119   -106.60283    1.4379523   -105.16488    -613.6221    4.2776409    4.2776409    4.2776409    -613.6221    15017.237   -8478.1945   -8379.9086     3263.582    7199.9784    24476.012     78.27318 
   26200    2223.0861   -107.17765     2.011495   -105.16615    27773.992    4.2741615    4.2741615    4.2741615    27773.992    19958.249    41421.107    21942.619    2444.0776   -30918.535   -7721.1795    78.082332 
   26300      855.782   -105.96881   0.77432954   -105.19448   -18835.344    4.3107146    4.3107146    4.3107146   -18835.344   -7880.9537    22081.508   -70706.585   -4220.8847    6486.8632    40787.919    80.102824 
   26400    1806.4638   -106.78655    1.6345264   -105.15202   -33560.611    4.3071106    4.3071106    4.3071106   -33560.611   -23948.454   -16689.413   -60043.966   -6373.2572    19911.776   -9139.5802     79.90208 
   26500    1571.3119   -106.55661     1.421756   -105.13486    70979.368    4.2534176    4.2534176    4.2534176    70979.368    76831.433    113020.34    23086.329   -4419.9321   -35060.534    13344.397    76.950966 
   26600    1297.7712   -106.36409    1.1742506   -105.18984     9710.813    4.2635825    4.2635825    4.2635825     9710.813   -282.52823   -27783.417    57198.384   -21148.203    3496.9832    34725.913    77.503984 
   26700    2138.6811   -107.10944    1.9351236   -105.17432   -20620.739    4.2968375    4.2968375    4.2968375   -20620.739   -54052.977    6732.2849   -14541.523   -1709.1329    4412.5096   -16469.211    79.331707 
   26800    1512.7707    -106.5285    1.3687867   -105.15972   -2500.8383    4.2996225    4.2996225    4.2996225   -2500.8383   -21038.352    16372.613   -2836.7754    1256.8251   -10972.078    24573.041    79.486062 
   26900    996.59784   -106.06303   0.90174267   -105.16129   -6988.6415    4.2984845    4.2984845    4.2984845   -6988.6415   -46536.511    15790.598    9779.9885   -19116.096     21270.51     27535.78    79.422962 
   27000     2643.271   -107.53028    2.3916872   -105.13859   -16339.327    4.2869359    4.2869359    4.2869359   -16339.327   -31318.882   -5805.1311   -11893.968    21817.516   -8259.3452   -5452.3058    78.784532 
   27100    1024.9275   -106.09679    0.9273759   -105.16942   -2373.0748    4.2843126    4.2843126    4.2843126   -2373.0748   -17010.787    4254.2632    5637.2997   -23170.841   -4223.5335    34285.278    78.639988 
   27200    1680.0711   -106.69237    1.5201636    -105.1722   -15675.986    4.2889804    4.2889804    4.2889804   -15675.986    -4884.611   -31660.518   -10482.829    1024.4461    28111.213    24919.775    78.897309 
   27300    1998.6647   -106.96766    1.8084339   -105.15922    9859.9742    4.2794501    4.2794501    4.2794501    9859.9742     8826.677    68012.578   -47259.333    12501.593   -11497.805   -18113.422    78.372533 
   27400    1189.5744   -106.25349    1.0763519   -105.17713   -33521.527    4.2850936    4.2850936    4.2850936   -33521.527   -24456.142   -32065.941   -44042.499   -38661.228    7685.1105    40074.516    78.683004 
   27500    1633.4514   -106.64348    1.4779812    -105.1655   -6007.7583    4.2943765    4.2943765    4.2943765   -6007.7583    18544.244   -13182.284   -23385.236    17061.138    9062.2283   -1074.5159    79.195474 
   27600    1707.6654   -106.69796    1.5451315   -105.15283   -7962.9527    4.2905122    4.2905122    4.2905122   -7962.9527   -6978.4446   -33413.157    16502.743   -22501.118   -30.011059    14550.303    78.981873 
   27700    1240.0687   -106.28781    1.1220403   -105.16577    5262.5942    4.2864991    4.2864991    4.2864991    5262.5942   -22118.117    35083.194    2822.7063   -33922.808   -5330.8632    10961.409    78.760455 
   27800    2346.0336   -107.27052    2.1227405   -105.14778   -368.59845    4.2862503    4.2862503    4.2862503   -368.59845    10171.623    13668.188   -24945.606    20358.262   -5310.7724   -26739.568    78.746741 
   27900    932.66031   -106.00578   0.84389064   -105.16189    8225.1865    4.2985467    4.2985467    4.2985467    8225.1865    34068.369    5105.7178   -14498.527   -19302.245     13730.75    25949.676    79.426412 
   28000    1229.4531   -106.25092     1.112435   -105.13848    12595.571    4.3052588    4.3052588    4.3052588    12595.571    43474.173   -14625.725    8938.2637   -1715.8582    3657.9276   -3186.0579     79.79906 
   28100    1771.3558   -106.72145    1.6027599   -105.11869    12251.968    4.2964504    4.2964504    4.2964504    12251.968    20838.433   -6971.7233    22889.194   -2262.3936    11473.428   -11716.164    79.310267 
   28200    1805.8988   -106.76251    1.6340152   -105.12849   -15217.526     4.288509     4.288509     4.288509   -15217.526   -25341.385   -35505.352     15194.16   -10026.787    974.24223    7733.3972    78.871297 
   28300    1741.9957   -106.72112    1.5761943   -105.14493    12387.365    4.2758332    4.2758332    4.2758332    12387.365    29218.248    16712.381   -8768.5332    17465.715   -17851.867   -24159.889    78.173986 
   28400    1562.1652    -106.5683    1.4134799   -105.15482    48399.405    4.2706061    4.2706061    4.2706061    48399.405    47650.386    37883.268    59664.562   -22785.408    2961.9397    9637.5877     77.88764 
   28500    1469.2715   -106.52286    1.3294278   -105.19343    -11490.55    4.2999218    4.2999218    4.2999218    -11490.55    6141.8492   -36210.289   -4403.2105    6896.1092    4180.4573    21177.271     79.50266 
   28600    1741.8625    -106.7442    1.5760738   -105.16813   -35460.604    4.3036314    4.3036314    4.3036314   -35460.604   -20781.719   -38864.244   -46735.849    25139.677   -7190.7038   -11796.544    79.708601 
   28700    1662.2718   -106.64408    1.5040584   -105.14002    33258.429    4.2703186    4.2703186    4.2703186    33258.429    86162.751   -24673.858    38286.393   -35746.122    8107.5033    4421.1906    77.871909 
   28800    1626.6004    -106.6293    1.4717822   -105.15752   -11665.179    4.2761281    4.2761281    4.2761281   -11665.179    -35390.89    15628.731   -15233.377    16413.315    20558.501    7090.0014    78.190164 
   28900    1622.6401   -106.63666    1.4681989   -105.16846    -29138.15    4.2941637    4.2941637    4.2941637    -29138.15   -15908.376   -35180.122   -36325.953    27091.382    -13092.34   -15824.366    79.183701 
   29000    1576.1236   -106.58989    1.4261097   -105.16378    38817.297    4.2935857    4.2935857    4.2935857    38817.297     111157.9   -4257.2523    9551.2447    2139.6839    13262.553    8368.6105    79.151731 
   29100    1340.5618   -106.37485    1.2129685   -105.16189   -2045.0011    4.3001243    4.3001243    4.3001243   -2045.0011    27442.838   -1505.9522   -32071.889    17640.397     23727.84   -1766.9987    79.513895 
   29200    1639.7127   -106.62216    1.4836465   -105.13851    3218.3696    4.2967076    4.2967076    4.2967076    3218.3696    80783.962   -19970.313    -51158.54   -5251.9761   -13412.002   -3733.8366    79.324509 
   29300    1709.4071   -106.70238    1.5467074   -105.15567   -3005.7332    4.2706094    4.2706094    4.2706094   -3005.7332    30949.207   -42401.588    2435.1811     28711.25   -7736.3858    3849.0446     77.88782 
   29400    1539.3093   -106.56659    1.3927994   -105.17379    4781.7724    4.2565046    4.2565046    4.2565046    4781.7724    25758.137   -17794.029    6381.2098    14470.173   -5125.2798   -25529.192    77.118635 
   29500     1614.635   -106.66836    1.4609557   -105.20741    3018.1409    4.2837869    4.2837869    4.2837869    3018.1409    33003.249    5536.1401   -29484.966      1961.51   -20415.416    393.26039    78.611045 
   29600    1700.1425   -106.72213    1.5383247    -105.1838   -24370.778    4.3142315    4.3142315    4.3142315   -24370.778    56422.275   -84082.537   -45452.073    31567.527   -3806.7174   -3217.0921    80.299038 
   29700    1076.7652   -106.13273   0.97427979   -105.15845   -23915.101    4.3068031    4.3068031    4.3068031   -23915.101    56271.446   -57787.764   -70228.986   -1800.9277    -12583.16   -26534.989    79.884963 
   29800    1319.8587   -106.32874    1.1942359   -105.13451    10936.898    4.2776364    4.2776364    4.2776364    10936.898    23187.198    3275.1093    6348.3871     6879.312   -1631.7253    4120.7976    78.272933 
   29900    1985.3848   -106.92971    1.7964179    -105.1333    32871.152    4.2632972    4.2632972    4.2632972    32871.152    69183.059   -29954.917    59385.315    13949.175    -8653.826   -21205.807    77.488424 
   30000    1379.6579   -106.42677    1.2483435   -105.17843   -19496.838    4.2900226    4.2900226    4.2900226   -19496.838   -48499.607    18075.716   -28066.623   -1474.5535    -26763.47    824.16876    78.954835 
   30100    1723.2294    -106.7113    1.5592142   -105.15208   -29192.625    4.2992598    4.2992598    4.2992598   -29192.625   -8574.4122   -1004.9867   -77998.475    1731.9315    17455.148    14034.804    79.465947 
   30200    1662.5574   -106.64226    1.5043169   -105.13794    11737.737    4.2831012    4.2831012    4.2831012    11737.737    48924.038   -51571.097    37860.269   -4873.5089    368.48213   -10423.168    78.573301 
   30300    1231.5229   -106.28171    1.1143078   -105.16741    -27531.46    4.2790387    4.2790387    4.2790387    -27531.46   -35891.688   -6764.4209   -39938.272   -12627.499   -23170.262    4647.4318    78.349934 
   30400     1442.976   -106.48541     1.305635   -105.17978    26084.062    4.2649292    4.2649292    4.2649292    26084.062    81245.174   -10712.095    7719.1065    4406.2313    14420.184    10408.233    77.577447 
   30500    2143.1553   -107.12766     1.939172   -105.18849    7770.3813    4.2721817    4.2721817    4.2721817    7770.3813    18373.715    3.8137421    4933.6155    13234.864   -11233.259   -6013.7892     77.97388 
   30600    1115.7541   -106.19629    1.0095577   -105.18674    7181.6383     4.295236     4.295236     4.295236    7181.6383    54263.356    8240.4994    -40958.94   -13026.285   -15305.086    -869.9195    79.243033 
   30700    1581.4569   -106.58058    1.4309354   -105.14965   -26998.282     4.304378     4.304378     4.304378   -26998.282    13140.375   -66029.428   -28105.793    3970.1461    15043.467   -8515.0884    79.750097 
   30800    1819.9158   -106.78981    1.6466981   -105.14311   -21356.337    4.2860702    4.2860702    4.2860702   -21356.337    7345.6991   -55881.331    -15533.38    7351.6673   -7710.9041    3324.3845    78.736815 
   30900    1318.7467    -106.3405    1.1932297   -105.14727    23781.957    4.2485107    4.2485107    4.2485107    23781.957    82032.929    17623.746   -28310.804     823.0908    225.88265     36719.39    76.684954 
   31000    1976.7061   -106.97007    1.7885652   -105.18151    17138.862     4.255798     4.255798     4.255798    17138.862    22936.978   -3587.2112    32066.818    29834.328     4672.515   -4508.4007    77.080233 
   31100    1477.8029   -106.52148    1.3371471   -105.18434   -24897.566     4.298996     4.298996     4.298996   -24897.566    21380.614   -50578.426   -45494.884    634.96424   -8756.6074    11926.218    79.451322 
   31200    1216.4869    -106.2633    1.1007029    -105.1626   -32733.088     4.300456     4.300456     4.300456   -32733.088   -31025.529    18139.544   -85313.279    1676.2115    7196.8145    29846.157    79.532296 
   31300     2257.081   -107.18562    2.0422543   -105.14336    8355.2695    4.2690275    4.2690275    4.2690275    8355.2695    16512.846   -9460.9209    18013.883    9516.8212   -4137.6902   -7826.6403    77.801303 
   31400    1145.3649    -106.2068    1.0363502   -105.17045    18916.075    4.2642731    4.2642731    4.2642731    18916.075    53760.435    8432.3316   -5444.5416   -10344.973   -2812.5112    16263.765    77.541647 
   31500    2232.8052   -107.18963     2.020289   -105.16934     -17511.5    4.2839667    4.2839667    4.2839667     -17511.5   -6986.3441   -21304.377   -24243.778   -21056.186    15583.946    6509.9231    78.620943 
   31600    1574.1465   -106.58895    1.4243208   -105.16463    2515.7845    4.2873098    4.2873098    4.2873098    2515.7845    3045.4172    11273.952   -6772.0162    7437.6276   -16061.471   -522.20829    78.805152 
   31700    887.35749   -105.97246   0.80289971   -105.16956   -10663.173    4.2872365    4.2872365    4.2872365   -10663.173    768.20711   -50511.728    17754.001   -15359.334    4421.6761    14890.144    78.801108 
   31800    2025.3053   -106.97614    1.8325388    -105.1436    13561.088    4.2908521    4.2908521    4.2908521    13561.088   -24778.032    28547.336    36913.959   -6481.5092   -12303.573   -968.37344    79.000647 
   31900    1443.2613    -106.4624    1.3058931   -105.15651   -8928.2127    4.2820698    4.2820698    4.2820698   -8928.2127     23815.34   -15940.428    -34659.55    3820.5512    3110.0421    20490.136    78.516556 
   32000    1905.8318   -106.88188    1.7244367   -105.15744    7249.7028    4.2783677    4.2783677    4.2783677    7249.7028   -12104.312   -16159.694    50013.114   -29882.961   -2766.9117   -4187.4591    78.313081 
   32100    1328.2197     -106.359    1.2018011    -105.1572   -1371.2287     4.291816     4.291816     4.291816   -1371.2287   -23924.001    28343.759    -8533.444    18934.832    -4445.345    2358.9723    79.053897 
   32200    1145.3915   -106.20083    1.0363743   -105.16446   -33711.014    4.2776875    4.2776875    4.2776875   -33711.014    39559.528   -54947.155   -85745.416   -3147.7204    9983.4603     1041.965    78.275737 
   32300    2034.9132   -106.98749    1.8412322   -105.14626    21282.408    4.2682154    4.2682154    4.2682154    21282.408    9137.8348    22652.919    32056.469   -6928.9957   -4877.3845   -2609.0412    77.756909 
   32400    1052.6149   -106.13036   0.95242809   -105.17793   -39141.036    4.2887358    4.2887358    4.2887358   -39141.036   -26695.005   -32459.897   -58268.205      19669.7    9279.6149    20597.963    78.883812 
   32500    1787.4389   -106.77045    1.6173123   -105.15313   -8729.4426    4.2848672    4.2848672    4.2848672   -8729.4426    19917.758   -13255.359   -32850.726   -5600.2336    6244.3562    4294.2517    78.670533 
   32600    1708.0329   -106.69147    1.5454641     -105.146    1839.1362    4.2777686    4.2777686    4.2777686    1839.1362    50139.914   -4760.8377   -39861.667   -13337.351    1494.8202    1207.4732    78.280188 
   32700    1064.3098   -106.13537   0.96300983   -105.17236   -9198.0422    4.2814635    4.2814635    4.2814635   -9198.0422    51250.396   -25816.563    -53027.96    9041.5975    -3639.948    17718.549    78.483208 
   32800    1802.1912   -106.79116    1.6306604    -105.1605    52238.144    4.2801314    4.2801314    4.2801314    52238.144     110781.5    10583.749    35349.186   -24841.183    833.95727    340.95459    78.409972 
   32900    1379.7289    -106.4218    1.2484077   -105.17339   -3154.3064     4.280286     4.280286     4.280286   -3154.3064    12832.921     37667.24    -59963.08   -14659.551    -5808.765    7710.4164    78.418471 
   33000    1833.8442   -106.81869    1.6593008   -105.15939    8572.9653    4.2795469    4.2795469    4.2795469    8572.9653     71412.44    -7548.019   -38145.525   -3999.2615   -643.97796    13555.939    78.377857 
   33100    1927.9721   -106.89821    1.7444697   -105.15374    4514.7084    4.2764824    4.2764824    4.2764824    4514.7084   -5063.1121    26424.189   -7816.9521   -10773.215     2173.101   -2414.2301    78.209598 
   33200    588.01254    -105.7144   0.53204611   -105.18235   -20364.506    4.2873723    4.2873723    4.2873723   -20364.506   -11058.683      13325.1   -63359.935   -7153.7117   -23277.585    14510.037    78.808597 
   33300    2071.2732   -107.02892    1.8741315   -105.15479    880.27465    4.2917134    4.2917134    4.2917134    880.27465   -8741.7375    26934.119   -15551.558    13415.749    19010.587    4421.7587    79.048228 
   33400     1387.795   -106.41914    1.2557061   -105.16343    9453.2092    4.2830411    4.2830411    4.2830411    9453.2092    20885.821    41154.845   -33681.038   -3051.3168    5517.1543    10037.197    78.569992 
   33500    1743.3149   -106.73591    1.5773879   -105.15852    4805.3262    4.2931029    4.2931029    4.2931029    4805.3262    5614.1495    57618.176   -48816.347   -5874.6974    -18076.46    9618.5044    79.125032 
   33600    1452.1593   -106.45146    1.3139442   -105.13752    -6718.696    4.3011377    4.3011377    4.3011377    -6718.696   -26258.548    39096.207   -32993.746    23034.549    13740.095   -10283.991    79.570127 
   33700    1538.2978   -106.52277    1.3918842   -105.13088   -5655.4142    4.2852256    4.2852256    4.2852256   -5655.4142   -38550.289    36074.619   -14490.573    -5360.311    1714.8046     7585.649    78.690278 
   33800    1543.6284   -106.54179    1.3967074   -105.14509    46293.457    4.2805231    4.2805231    4.2805231    46293.457    79793.002    17554.182    41533.186    2903.3887   -5455.5175   -221.11743      78.4315 
   33900      1336.02   -106.37054     1.208859   -105.16168   -17936.488    4.2963049    4.2963049    4.2963049   -17936.488   -674.49396   -15464.488   -37670.482    4179.8177   -17883.793   -3864.3445    79.302207 
   34000     1831.617   -106.79788    1.6572855   -105.14059   -10025.799    4.2845373    4.2845373    4.2845373   -10025.799   -35487.091    70206.391   -64796.696   -11312.028   -43154.662    5108.1848    78.652366 
   34100    1268.2737   -106.28489    1.1475607   -105.13733    37915.578    4.2728046    4.2728046    4.2728046    37915.578    79152.732    45076.353   -10482.352    5519.3835    12441.982   -3067.5503    78.007994 
   34200    1339.3637   -106.39068    1.2118845   -105.17879   -23552.375    4.2974425    4.2974425    4.2974425   -23552.375    -27777.05    28040.471   -70920.545   -4616.8698   -9877.3217    783.80948    79.365222 
   34300     2135.846   -107.07873    1.9325584   -105.14617   -649.49273    4.3044094    4.3044094    4.3044094   -649.49273    3002.4417    19704.933   -24655.853   -28959.266   -14613.377    23396.652    79.751843 
   34400    1309.3014    -106.3241    1.1846834   -105.13942    5060.8945    4.2861525    4.2861525    4.2861525    5060.8945   -7045.1071   -8542.1853    30769.976      13459.7      15772.2   -1415.7153    78.741348 
   34500    1909.4764   -106.87367    1.7277343   -105.14594   -7552.5895    4.2773761    4.2773761    4.2773761   -7552.5895   -14137.123    33828.876   -42349.521   -4758.6542   -18296.491    8628.9214    78.258643 
   34600    1631.3992   -106.63892    1.4761242   -105.16279   -267.50294     4.278222     4.278222     4.278222   -267.50294   -10942.883   -25053.473    35193.847   -32481.884   -8752.7136   -2199.6111     78.30508 
   34700    1407.8956   -106.44528    1.2738935   -105.17138    2612.1775    4.2972967    4.2972967    4.2972967    2612.1775   -33037.184    42620.198   -1746.4811     17968.55    23277.827    5707.0932     79.35714 
   34800    1622.3526   -106.61162    1.4679387   -105.14368   -22730.868    4.3165326    4.3165326    4.3165326   -22730.868   -8988.2397   -26057.662   -33146.703   -21288.567   -9383.7457    15090.881    80.427596 
   34900    1064.3544   -106.11181   0.96305023   -105.14876   -17287.727    4.2930745    4.2930745    4.2930745   -17287.727   -16291.117   -42603.507     7031.444   -14799.094    153.80757   -3247.9756    79.123462 
   35000    1949.0092   -106.88562    1.7635044   -105.12212     45035.56     4.256796     4.256796     4.256796     45035.56    81757.616    61116.985   -7767.9197    22515.708    2498.8867   -9413.0392    77.134474 
   35100     1572.039   -106.61473    1.4224139   -105.19232    13233.504    4.2826238    4.2826238    4.2826238    13233.504     9541.288    34543.442   -4384.2174    6773.1214   -2709.5698    1336.2502     78.54703 
   35200    797.15533   -105.90743   0.72128289   -105.18615    -14521.34    4.3209868    4.3209868    4.3209868    -14521.34    21369.257   -59918.161   -5015.1171    29147.573    10217.161    773.36136    80.676831 
   35300    2215.9779   -107.12673    2.0050633   -105.12167   -16699.105     4.310342     4.310342     4.310342   -16699.105    6493.4032    8299.2238   -64889.943    11180.627    9802.4691     10606.12    80.082052 
   35400    1856.2328   -106.78068    1.6795584   -105.10112    2246.1537    4.2857987    4.2857987    4.2857987    2246.1537   -33072.333    3117.8795    36692.915    8685.5058     -2132.14    13561.784    78.721854 
   35500    1636.1069   -106.61293    1.4803839   -105.13255   -11039.003    4.2917117    4.2917117    4.2917117   -11039.003   -29689.916    14489.701   -17916.792    10150.276   -3213.3822   -8329.3086    79.048132 
   35600    1863.4211   -106.82542    1.6860626   -105.13935    11630.189    4.3036777    4.3036777    4.3036777    11630.189     34848.64    46454.373   -46412.444     5643.777   -5492.9692   -16391.591    79.711177 
   35700    1072.6343    -106.1207   0.97054204   -105.15016    8923.4383    4.3144121    4.3144121    4.3144121    8923.4383    -36480.19    40578.261    22672.243    13104.579    8764.9823   -586.60265    80.309119 
   35800    2336.8275   -107.22679    2.1144107   -105.11238   -22899.003    4.3141025    4.3141025    4.3141025   -22899.003   -9078.7331   -13805.448   -45812.829    14935.376     9020.514    192.24198    80.291831 
   35900    1563.5529   -106.53916    1.4147355   -105.12443    23804.567     4.274087     4.274087     4.274087    23804.567    19015.838    12254.577    40143.285   -16861.127    5951.4061   -6343.3851    78.078251 
   36000    1538.9548   -106.55453    1.3924787   -105.16205    27056.286    4.2635716    4.2635716    4.2635716    27056.286    4812.5143    18824.919    57531.424    20799.741    23192.392   -1868.8825    77.503385 
   36100    2003.8842   -107.00336    1.8131565    -105.1902    9623.4689     4.310981     4.310981     4.310981    9623.4689    62136.687   -2138.7547   -31127.525   -326.99306   -2916.6543   -9908.7959    80.117672 
   36200    961.73748   -106.03093   0.87020028   -105.16073    -39925.87    4.3377415    4.3377415    4.3377415    -39925.87   -53578.072   -43873.526   -22326.011    7172.8312    -3353.161   -1932.0427    81.618951 
   36300    1913.6762   -106.85393    1.7315344   -105.12239   -10750.345    4.3029186    4.3029186    4.3029186   -10750.345   -44066.232    55920.146   -44104.948     16888.02    4705.6006    2630.9357    79.669004 
   36400    2040.1745    -106.9523    1.8459928   -105.10631    35113.274    4.2633601    4.2633601    4.2633601    35113.274    45030.927    58046.881    2262.0156   -3258.2195    4414.0071   -1099.5996    77.491851 
   36500    1267.1532   -106.31331    1.1465469   -105.16677   -26426.178    4.2803304    4.2803304    4.2803304   -26426.178   -75757.813   -54562.916    51042.194   -2056.7764   -9712.1557   -106.03746     78.42091 
   36600    2048.5729   -107.01798    1.8535918   -105.16439   -22911.398    4.3109129    4.3109129    4.3109129   -22911.398    -13042.42   -14779.984    -40911.79   -17198.726     18187.74   -9961.8018    80.113874 
   36700    1854.0488   -106.82022    1.6775823   -105.14264   -41420.512     4.332649     4.332649     4.332649   -41420.512   -63727.785   -41094.268   -19439.485    3033.9056    3951.9366    -10590.56    81.331824 
   36800    1207.3255   -106.22091    1.0924134    -105.1285   -23488.127    4.3012439    4.3012439    4.3012439   -23488.127   -4060.4165   -76455.641    10051.677    11173.425    2856.1149    1382.2073    79.576021 
   36900    2594.3085   -107.43216    2.3473849   -105.08477    5468.8015     4.273846     4.273846     4.273846    5468.8015    19625.885    34182.926   -37402.406   -9036.3721    8694.2653    8568.7075    78.065041 
   37000    1454.7127   -106.46955    1.3162546    -105.1533   -29633.424    4.3109351    4.3109351    4.3109351   -29633.424   -30556.684   -68380.589        10037    12725.622   -21442.929     9433.586    80.115116 
   37100    1163.3766   -106.17765    1.0526476   -105.12501   -46028.432    4.3304382    4.3304382    4.3304382   -46028.432   -44043.042   -31545.816   -62496.439   -782.09199    27825.808    -5930.092    81.207384 
   37200    1875.8962   -106.80262    1.6973503   -105.10527    4073.3004    4.2885747    4.2885747    4.2885747    4073.3004   -19764.294    69621.063   -37636.868    8286.1043   -14313.009   -20704.787    78.874923 
   37300    2030.4904     -106.946    1.8372304   -105.10877    10536.534    4.2624809    4.2624809    4.2624809    10536.534   -1897.4777    9523.2832    23983.797   -14629.509    9356.5001      15710.9    77.443919 
   37400    1629.2357   -106.65303    1.4741667   -105.17887   -20120.669     4.288221     4.288221     4.288221   -20120.669   -25036.483      4185.83   -39511.353   -20891.928    15563.624   -13846.488    78.855409 
   37500    1253.6006   -106.31349    1.1342842    -105.1792    -4528.115    4.3182661    4.3182661    4.3182661    -4528.115   -33366.036    47153.275   -27371.584    4144.8765   -39315.517   -2803.0696     80.52453 
   37600    1499.2913   -106.50285    1.3565903   -105.14626   -3625.2695    4.3055689    4.3055689    4.3055689   -3625.2695   -18235.796   -30757.042    38117.029   -22678.097    7127.1706    67.283387    79.816307 
   37700      1331.57    -106.3339    1.2048325   -105.12907    2144.1109    4.2890714    4.2890714    4.2890714    2144.1109   -40492.585    57976.028   -11051.111    2011.7353   -10678.288    5165.5732    78.902327 
   37800    2012.8492   -106.94802    1.8212682   -105.12675   -10104.285     4.295276     4.295276     4.295276   -10104.285   -20416.009    -20760.03    10863.186   -7925.0814   -9637.5723   -12776.969    79.245249 
   37900    1025.1879   -106.06473   0.92761158   -105.13712    14827.681    4.3022818    4.3022818    4.3022818    14827.681   -7164.0161    10534.584    41112.476   -36912.992   -8239.1965     606.5301     79.63364 
   38000    1821.6543   -106.77272    1.6482711   -105.12445   -10647.648    4.3047963    4.3047963    4.3047963   -10647.648   -33858.559    825.09312    1090.5223    5504.3419    11670.657    9415.8045    79.773346 
   38100     2108.568   -107.02867    1.9078766   -105.12079   -29673.906     4.299075     4.299075     4.299075   -29673.906    -39643.58   -62496.861    13118.722   -24740.144    16826.802   -15971.728    79.455699 
   38200    1642.4343    -106.6197    1.4861091   -105.13359    8950.8578    4.2720808    4.2720808    4.2720808    8950.8578   -36612.483    38431.519    25033.537   -9447.9969   -15567.579    6155.7191    77.968355 
   38300    1872.7764   -106.85204    1.6945274   -105.15751    4807.8725    4.2753712    4.2753712    4.2753712    4807.8725    1081.7616   -683.89164    14025.747   -560.75566    22508.303   -312.55305    78.148653 
   38400    1851.3917   -106.83602    1.6751781   -105.16084   -38760.115    4.3110039    4.3110039    4.3110039   -38760.115   -63190.706   -30642.894   -22446.744   -14672.267    6234.3594     -19546.1    80.118949 
   38500    1479.7225   -106.48744     1.338884   -105.14856   -26631.546    4.3029861    4.3029861    4.3029861   -26631.546   -34991.053    17171.099   -62074.684   -2498.7302   -28858.148    6294.7028    79.672753 
   38600    1594.1509   -106.58957    1.4424212   -105.14715     11169.83    4.2734569    4.2734569    4.2734569     11169.83    9966.6197    28989.607   -5446.7378   -10557.242    50412.179   -1428.6343    78.043723 
   38700    1836.5121   -106.82327    1.6617148   -105.16155    11916.966    4.2682801    4.2682801    4.2682801    11916.966   -23793.219    57095.308    2448.8073   -10712.337   -26278.129    3897.3806    77.760447 
   38800    1233.3737    -106.3094    1.1159824   -105.19342    439.25413    4.2891054    4.2891054    4.2891054    439.25413     38509.69    12455.057   -49646.985   -12575.846    -18192.49    10148.703    78.904208 
   38900    1764.0167   -106.76453    1.5961194   -105.16841   -17567.982    4.3065721    4.3065721    4.3065721   -17567.982    -17237.57   -20534.152   -14932.223    -800.4512    51401.898   -11343.412    79.872113 
   39000    1314.4941   -106.34784    1.1893819   -105.15846    12130.834    4.2933115    4.2933115    4.2933115    12130.834    50052.948   -19071.569     5411.123    220.97585   -45998.001    4057.7405    79.136564 
   39100     1408.797   -106.44156    1.2747091   -105.16685    15214.009    4.2724715    4.2724715    4.2724715    15214.009    14299.723    13815.744    17526.558    7968.9418   -35286.774    8218.0069    77.989751 
   39200    1884.9379   -106.87907    1.7055314   -105.17353    48157.777    4.2685195    4.2685195    4.2685195    48157.777    90128.101     5582.401     48762.83   -4121.9769    16573.704    6736.9858    77.773528 
   39300    1316.8919   -106.39992    1.1915515   -105.20837   -11088.226    4.3018182    4.3018182    4.3018182   -11088.226   -48715.936   -16729.313     32180.57   -1414.3518    -39696.22    9852.0118    79.607899 
   39400    1593.0698   -106.59941    1.4414431   -105.15796   -62776.149    4.3216172    4.3216172    4.3216172   -62776.149   -61095.657   -70593.687   -56639.102    28766.338   -24841.729     1838.541    80.712143 
   39500    2470.4244   -107.35919    2.2352919    -105.1239   -24089.152    4.2908434    4.2908434    4.2908434   -24089.152    5239.2933   -46701.616   -30805.134   -13120.713   -9839.4657    4772.6502    79.000162 
   39600    1310.2076    -106.3146    1.1855034    -105.1291    20234.068    4.2641889    4.2641889    4.2641889    20234.068    28355.762    15684.874    16661.569    22613.344   -55824.629   -2245.3535    77.537053 
   39700    1170.4503   -106.24965     1.059048    -105.1906    36120.032    4.2834048    4.2834048    4.2834048    36120.032    175668.01   -37947.207   -29360.706    23916.301   -24921.262   -8981.8124    78.590014 
   39800    2139.5483   -107.10202    1.9359082   -105.16611   -29789.983     4.322752     4.322752     4.322752   -29789.983     19594.91   -44818.464   -64146.397     1953.512   -6076.9598   -184.70175     80.77574 
   39900    1007.3585   -106.07065   0.91147912   -105.15917   -59608.566    4.3157372    4.3157372    4.3157372   -59608.566   -48473.008   -57359.798   -72992.893    49635.272   -42512.106    481.12602    80.383141 
   40000     1860.878   -106.83373    1.6837615   -105.14997   -5867.5229    4.2591862    4.2591862    4.2591862   -5867.5229    8849.8315   -42758.137    16305.737    14011.745    9063.0429   -11923.017    77.264479 
   40100    1971.6468   -106.94429    1.7839875    -105.1603    54609.409     4.241401     4.241401     4.241401    54609.409    85130.551    38920.396    39777.281    -18101.53   -14169.238   -775.84045    76.300608 
   40200    1469.7163   -106.53697    1.3298302   -105.20714     -1416.06    4.2809105    4.2809105    4.2809105     -1416.06    60052.263   -39963.565   -24336.878    18841.131   -30780.017   -3960.8117    78.452797 
   40300     1341.478   -106.40269    1.2137975   -105.18889   -20968.503    4.3048413    4.3048413    4.3048413   -20968.503    10312.564   -55788.716   -17429.357   -5212.8366    10485.318   -2213.5507    79.775852 
   40400    1766.9345   -106.75797    1.5987595   -105.15921   -19113.396     4.299372     4.299372     4.299372   -19113.396   -32262.031   -8168.0965   -16910.061   -30453.301   -20281.788   -3200.1731     79.47217 
   40500    1803.5937   -106.76637    1.6319294   -105.13444    14696.671    4.2760637    4.2760637    4.2760637    14696.671    7969.6569    10400.313    25720.044    20349.095    4507.6506   -15848.904    78.186629 
   40600    897.80909   -105.95913   0.81235653   -105.14678    24382.243    4.2660577    4.2660577    4.2660577    24382.243   -8210.7181    42189.384    39168.064   -35019.174     13568.36   -5691.4556    77.639044 
   40700    1611.5738   -106.62377    1.4581858   -105.16559    13053.628     4.285277     4.285277     4.285277    13053.628    909.21316    64018.674   -25767.004    6229.0657   -26134.522    7902.8516    78.693108 
   40800    1904.0242    -106.8773    1.7228011    -105.1545   -36683.955    4.3013024    4.3013024    4.3013024   -36683.955   -55905.112   -38127.243    -16019.51    -27853.62    5322.7503   -9369.0884    79.579264 
   40900    1447.9486   -106.45615    1.3101343   -105.14602   -17612.555    4.2885812    4.2885812    4.2885812   -17612.555   -38790.816    4546.1006   -18592.949   -29563.633   -4214.5823   -1635.4596    78.875282 
   41000    1619.0928   -106.61074    1.4649892   -105.14575    32985.907    4.2649512    4.2649512    4.2649512    32985.907    63353.221    30337.209      5267.29    13396.529   -7660.1786   -4812.9411    77.578644 
   41100    1575.8424   -106.59913    1.4258553   -105.17327    15985.782    4.2683007    4.2683007    4.2683007    15985.782   -14430.915    -18141.19     80529.45   -48893.414    11739.279   -2218.5062    77.761569 
   41200    1425.6446    -106.4744    1.2899532   -105.18445   -1328.5854     4.290643     4.290643     4.290643   -1328.5854    29354.831   -20819.606   -12520.981   -9386.2009   -6564.6066    5899.7451    78.989096 
   41300      1357.96   -106.40447    1.2287108   -105.17576    -4016.548    4.2953517    4.2953517    4.2953517    -4016.548    68407.688   -4638.4084   -75818.924   -10591.164    8394.9037     12136.48    79.249439 
   41400    2109.6618   -107.05217    1.9088663    -105.1433    45245.755    4.2746478    4.2746478    4.2746478    45245.755    75893.302    13904.017    45939.946   -25138.019    17702.759    1689.7718    78.108986 
   41500    1006.1812   -106.08595   0.91041392   -105.17553     14253.72    4.2817803    4.2817803    4.2817803     14253.72    67628.636   -30008.537    5141.0611    2511.8466   -11674.603     1216.333    78.500628 
   41600    1320.0043   -106.35089    1.1943676   -105.15653   -14823.722    4.3015403    4.3015403    4.3015403   -14823.722    7747.3793   -1299.3213   -50919.224   -7774.9353     28012.85    -489.0031    79.592471 
   41700    2009.8973   -106.95741    1.8185973   -105.13882    7283.5332     4.281827     4.281827     4.281827    7283.5332   -5797.6802    23551.841    4096.4389   -6308.1881   -7917.0798    10948.582      78.5032 
   41800    1181.2479   -106.22752     1.068818   -105.15871    19341.575    4.2707631    4.2707631    4.2707631    19341.575    60674.391    5638.1158   -8287.7822   -14023.677   -4725.9814    10460.518     77.89623 
   41900    1867.6221   -106.85202    1.6898637   -105.16216   -11326.768    4.2859847    4.2859847    4.2859847   -11326.768   -10377.543   -20367.954    -3234.806    13635.071    16647.451   -3623.3061    78.732105 
   42000    1341.2721   -106.37122    1.2136112   -105.15761    10345.008    4.2850587    4.2850587    4.2850587    10345.008   -32133.254    66868.318   -3700.0396   -8705.1977   -34610.267      24568.2    78.681085 
   42100    1964.6629   -106.92456    1.7776683   -105.14689    -16264.37    4.2780579    4.2780579    4.2780579    -16264.37   -14617.013   -24754.388    -9421.709    13016.492    20976.626   -9014.4038    78.296071 
   42200    1144.7309   -106.19973    1.0357766   -105.16395   -13288.881    4.2872309    4.2872309    4.2872309   -13288.881   -51410.826     18206.85   -6662.6668   -13909.588   -14034.404   -11228.166    78.800797 
   42300    2016.5051   -106.97587    1.8245762   -105.15129   -26146.159    4.2871443    4.2871443    4.2871443   -26146.159   -32183.968   -10310.619    -35943.89   -11291.124   -29330.428    11033.592    78.796022 
   42400    1863.6119   -106.83358    1.6862352   -105.14734   -23208.491    4.2901996    4.2901996    4.2901996   -23208.491   -17783.629   -15374.712   -36467.132    22160.522      20511.5   -13371.099     78.96461 
   42500    1282.6112   -106.31183    1.1605336   -105.15129   -31442.812    4.2912218    4.2912218    4.2912218   -31442.812    -36064.47   -34560.519   -23703.446   -43533.528   -31044.819    2486.5179    79.021069 
   42600    1960.4494   -106.91194    1.7738558   -105.13809    698.12709    4.2744219    4.2744219    4.2744219    698.12709   -10193.533    11097.613    1190.3014    9431.3135    4057.6166    7495.6958    78.096604 
   42700     1052.945   -106.12085    0.9527268   -105.16812   -30492.607    4.2810002    4.2810002    4.2810002   -30492.607   -45678.389    -45579.07   -220.36378   -21265.069    20277.455   -27834.727    78.457731 
   42800    1936.5415   -106.90613    1.7522235   -105.15391   -9126.4463    4.2959516    4.2959516    4.2959516   -9126.4463   -40899.105    7264.2312    6255.5345   -24932.149   -1416.9511    14390.357    79.282644 
   42900    1236.1509   -106.27477    1.1184953   -105.15628   -10009.228    4.2904726    4.2904726    4.2904726   -10009.228    4712.5772     114.5689    -34854.83    14478.108    13083.986   -14125.076    78.979683 
   43000    1236.2765   -106.27887    1.1186089   -105.16026     9021.836    4.2700988    4.2700988    4.2700988     9021.836   -17772.477    22195.319    22642.666   -25450.355    25494.801   -33135.244    77.859889 
   43100    2093.4106   -107.04383    1.8941619   -105.14967    23499.419    4.2657696    4.2657696    4.2657696    23499.419    7795.7053    33042.512    29660.039    7671.8057   -19224.823    2655.3745    77.623315 
   43200    796.02586   -105.90865   0.72026092   -105.18839    -16726.77    4.2887092    4.2887092    4.2887092    -16726.77   -49280.615     34774.47   -35674.164   -16061.599     23626.67    377.82418    78.882343 
   43300    2259.3251    -107.1897    2.0442848   -105.14542   -43536.477    4.3016891    4.3016891    4.3016891   -43536.477   -64004.741   -25988.434   -40616.256   -9782.7178   -2283.2386   -15780.142    79.600729 
   43400    1278.4412   -106.30185    1.1567605   -105.14509    17747.015    4.2704195    4.2704195    4.2704195    17747.015   -3396.3342    94222.152   -37584.772    14119.109    -19720.76    22891.934    77.877431 
   43500    2208.1281   -107.13978    1.9979607   -105.14182    13093.719    4.2633748    4.2633748    4.2633748    13093.719   -1725.8826     21759.44    19247.601   -24525.605    24718.876   -23198.549    77.492653 
   43600    1301.8187   -106.33499     1.177913   -105.15707    21926.296    4.2802393    4.2802393    4.2802393    21926.296   -12384.829    123236.89   -45073.178    8944.3904   -33636.202    26154.457    78.415906 
   43700    1498.1893   -106.51389    1.3555932    -105.1583   -17819.732    4.3005975    4.3005975    4.3005975   -17819.732   -32420.745     49869.56    -70908.01   -14451.788    15408.309    6532.1349    79.540147 
   43800     1730.887   -106.69865    1.5661429   -105.13251   -174.04756    4.3008109    4.3008109    4.3008109   -174.04756   -46294.575    111856.92    -66084.49    7430.4512   -29488.738   -10753.586    79.551987 
   43900    1219.2653   -106.24339    1.1032168   -105.14017    4204.3658     4.278347     4.278347     4.278347    4204.3658    25913.534    50931.368   -64231.805     7527.517   -12111.042    17113.199    78.311946 
   44000    1789.1061   -106.75511    1.6188208   -105.13629     13623.56    4.2683108    4.2683108    4.2683108     13623.56    31487.537    24677.531   -15294.389    22015.735    4691.6115    19385.847    77.762123 
   44100    1186.5636   -106.24268    1.0736277   -105.16905    19929.773    4.2742202    4.2742202    4.2742202    19929.773   -23118.481    109752.45   -26844.654   -2574.8176   -58609.157   -10461.866    78.085551 
   44200    1689.2646    -106.6936    1.5284821   -105.16512    -14403.49    4.3017179    4.3017179    4.3017179    -14403.49     13970.82   -16464.584   -40716.706   -2583.7372    25173.383     47932.29     79.60233 
   44300    1543.9384   -106.54962    1.3969879   -105.15264   -17260.466    4.2929631    4.2929631    4.2929631   -17260.466   -41787.402    27293.777   -37287.773    1594.2366   -65030.051    1887.4841    79.117302 
   44400    1752.1496   -106.72814    1.5853818   -105.14276    37794.281     4.271889     4.271889     4.271889    37794.281     34506.04    59285.959    19590.844     14280.47    1095.1128    15456.881    77.957857 
   44500    1318.3111   -106.35208    1.1928356   -105.15924    5255.3709    4.2804623    4.2804623    4.2804623    5255.3709   -18335.525    82790.029   -48688.392   -10407.318   -17724.298    24722.455    78.428158 
   44600    1924.8582   -106.89371    1.7416522   -105.15206   -9661.6317    4.2790759    4.2790759    4.2790759   -9661.6317   -11836.182    528.31821   -17677.031    126.64879   -41120.097   -5900.6218    78.351981 
   44700    1488.9033   -106.50458     1.347191   -105.15739    21055.765    4.2898851    4.2898851    4.2898851    21055.765    9078.4209    39195.898    14892.976    4798.5207     -959.521    8230.7285    78.947245 
   44800    1271.9952   -106.29926     1.150928   -105.14834   -25678.613    4.3020667    4.3020667    4.3020667   -25678.613   -60515.826    47232.234   -63752.248    8066.5668   -61348.161    27108.199    79.621697 
   44900    1594.0631   -106.56726    1.4423418   -105.12492    16650.163    4.2731661    4.2731661    4.2731661    16650.163    30747.972   -33047.509    52250.025     18590.71    2356.3942   -28191.476    78.027795 
   45000     1591.153   -106.57327    1.4397086   -105.13356    6026.0018    4.2659705    4.2659705    4.2659705    6026.0018   -5213.4361    29697.248   -6405.8064      6098.56   -24715.314   -6761.6053    77.634284 
   45100    1704.7735   -106.69547    1.5425149   -105.15296   -18602.156    4.2925193    4.2925193    4.2925193   -18602.156   -43843.645    17332.896    -29295.72   -2118.1509   -36435.051    1210.6026    79.092765 
   45200     1703.782    -106.6851    1.5416178   -105.14348   -32548.361    4.3009434    4.3009434    4.3009434   -32548.361   -19602.082   -63387.149   -14655.852    11329.047    4410.7561    -37158.79     79.55934 
   45300    1710.2994   -106.67272    1.5475148    -105.1252    327.46126    4.2976499    4.2976499    4.2976499    327.46126   -8587.2187    42672.318   -33102.716   -963.56026    -36881.81   -1764.1184    79.376712 
   45400    1715.4713     -106.673    1.5521945    -105.1208   -16288.538    4.2939236    4.2939236    4.2939236   -16288.538   -7152.8206    3112.1943   -44824.987    1956.4342     3869.701   -23179.827    79.170418 
   45500     1377.981   -106.38821    1.2468262   -105.14139    18880.152    4.2757497    4.2757497    4.2757497    18880.152    38647.392   -6100.0436    24093.107    18029.632   -17297.925    -12998.57    78.169407 
   45600    1774.2874   -106.76167    1.6054125   -105.15626    14096.556    4.2760404    4.2760404    4.2760404    14096.556    52384.292    29408.768   -39503.392   -1055.3832   -23549.335    2055.7733    78.185352 
   45700    1268.5835   -106.31895     1.147841   -105.17111   -9501.9197    4.2975042    4.2975042    4.2975042   -9501.9197    31854.985   -7860.6479   -52500.096     23412.61    17586.182   -25398.227    79.368639 
   45800    1702.4447   -106.69864    1.5404078   -105.15823    2402.9253    4.2827694    4.2827694    4.2827694    2402.9253    24690.342    16986.895   -34468.461    17416.529   -45979.679   -3108.9033    78.555045 
   45900    1605.4071   -106.61088    1.4526061   -105.15828    26427.057    4.2765394    4.2765394    4.2765394    26427.057    27636.571    44438.471    7206.1287   -2212.4764    9037.5485   -2430.6822    78.212728 
   46000    1589.3374   -106.59295    1.4380659   -105.15489   -3053.1293    4.2970247    4.2970247    4.2970247   -3053.1293      11519.4    -82.74719   -20596.041     13495.34   -13903.866    347.00909    79.342072 
   46100     1615.304   -106.60276     1.461561    -105.1412   -26484.578    4.2923891    4.2923891    4.2923891   -26484.578   -46633.595    29034.141    -61854.28   -5095.3221   -32417.065   -5853.2743    79.085571 
   46200    1725.8462   -106.69576    1.5615819   -105.13418    20390.182    4.2767743    4.2767743    4.2767743    20390.182    75405.438   -40599.549    26364.656    -7172.169    22048.286   -14846.642    78.225619 
   46300    1803.5031   -106.78907    1.6318475   -105.15722    -34418.19    4.2970469    4.2970469    4.2970469    -34418.19   -60542.999    26805.012   -69516.582    2864.4337   -35724.408   -419.54401    79.343307 
   46400    1372.2232    -106.3764    1.2416164   -105.13478   -20215.144    4.3035881    4.3035881    4.3035881   -20215.144    14317.726   -43619.302   -31343.858    5687.4763   -11103.142   -2265.4008    79.706197 
   46500    1598.3001   -106.56045    1.4461755   -105.11427    29109.511     4.274459     4.274459     4.274459    29109.511   -14226.066    7001.5423    94553.058    7518.9933   -3325.7031    15997.284     78.09864 
   46600    1782.6063   -106.74951    1.6129396   -105.13657    -22211.33    4.2745731    4.2745731    4.2745731    -22211.33   -25174.568    7087.8063   -48547.228    4404.8457   -43953.356   -17004.472    78.104896 
   46700    1594.9198   -106.59921    1.4431169    -105.1561   -264.17535     4.290659     4.290659     4.290659   -264.17535     -39342.2   -34785.372    73335.046   -5904.2148    21009.848   -8787.9692    78.989981 
   46800    1366.5582   -106.39379    1.2364906    -105.1573    7400.6682    4.3004869    4.3004869    4.3004869    7400.6682   -6961.2018    12153.605    17009.601   -1781.0749   -31638.778    12018.448    79.534013 
   46900    1404.4322   -106.42179    1.2707598   -105.15103    7547.0001     4.294547     4.294547     4.294547    7547.0001    433.76866   -25551.513    47758.745    4743.1947    11546.581   -25734.989    79.204908 
   47000    1889.5243   -106.86291    1.7096813   -105.15323   -8362.4974    4.2792132    4.2792132    4.2792132   -8362.4974   -13232.454   -4925.6094   -6929.4292   -9558.4184   -11136.262   -7265.3049    78.359524 
   47100    1417.4796   -106.46213    1.2825653   -105.17956    9378.6045    4.2706018    4.2706018    4.2706018    9378.6045   -45312.453        59001    14447.266    4247.5615   -56029.713    9754.7676    77.887405 
   47200    1746.5984   -106.76126     1.580359    -105.1809    2138.5526    4.2770613    4.2770613    4.2770613    2138.5526   -5336.9038   -5406.2944    17158.856    5017.3602    17076.781   -29295.075    78.241367 
   47300     1191.517   -106.25728    1.0781096   -105.17917   -36978.826    4.2925718    4.2925718    4.2925718   -36978.826   -56263.297    4503.5183   -59176.698   -10350.665    -67333.65     285.6677    79.095667 
   47400    1648.3981   -106.64262    1.4915053   -105.15112    13084.739    4.2827114    4.2827114    4.2827114    13084.739   -2686.3606     14611.27    27329.307    -2292.581    -11474.17    3041.6134    78.551851 
   47500    1461.3167   -106.47811      1.32223   -105.15588    151.18373     4.280868     4.280868     4.280868    151.18373     34789.14    12140.466   -46476.055   -9521.5857   -11581.731   -29956.058     78.45046 
   47600    1444.4686   -106.46113    1.3069856   -105.15414    -9773.845    4.2949619    4.2949619    4.2949619    -9773.845   -61531.876    51153.108   -18942.767   -8631.4749   -59053.814    11325.968    79.227863 
   47700    2082.2013   -107.01842    1.8840195    -105.1344    19576.543    4.2754628    4.2754628    4.2754628    19576.543    33309.845    -22454.38    47874.165    14282.897      18024.6    3823.0645    78.153675 
   47800    954.85723   -106.02007   0.86397488    -105.1561    22631.218    4.2714851    4.2714851    4.2714851    22631.218    24024.538    68266.888   -24397.771   -6357.3534   -60831.935   -28607.589    77.935747 
   47900    2090.5815   -107.05095    1.8916021   -105.15935   -14879.147    4.2829497    4.2829497    4.2829497   -14879.147   -19283.378   -20390.911   -4963.1504    16997.744   -5233.7328    23658.467    78.564967 
   48000    1664.6257   -106.67113    1.5061883   -105.16494   -7533.0555    4.2749188    4.2749188    4.2749188   -7533.0555    13476.045   -23368.992   -12706.219    21853.132   -14487.555    2923.5527    78.123846 
   48100    1486.1022   -106.51782    1.3446565   -105.17316   -4481.7713    4.2843917    4.2843917    4.2843917   -4481.7713   -19956.893    66578.002   -60066.423   -14449.451   -39054.192   -15117.504    78.644345 
   48200    1781.0717    -106.7637    1.6115511   -105.15215   -15029.678    4.2932407    4.2932407    4.2932407   -15029.678   -41014.485    -6163.551    2089.0003    6101.6188    24623.582    34874.517     79.13265 
   48300    1668.2801   -106.65867    1.5094949   -105.14917    13187.188    4.2683853    4.2683853    4.2683853    13187.188    19639.414    6251.2662    13670.884    27152.823   -49353.046   -25018.021    77.766192 
   48400    1502.1968    -106.5166    1.3592193   -105.15738    47325.087    4.2680167    4.2680167    4.2680167    47325.087    60750.227    78077.858    3147.1774   -10057.476   -7813.3646    16692.257    77.746051 
   48500    1950.0146   -106.92575    1.7644142   -105.16134   -10221.267    4.2962881    4.2962881    4.2962881   -10221.267   -21741.093   -16970.108    8047.4004    10202.769    5548.5103    12508.311    79.301281 
   48600    1313.2735   -106.34246    1.1882775   -105.15418   -11331.395    4.2921607    4.2921607    4.2921607   -11331.395   -9154.5255   -8514.8862   -16324.773    16405.857   -27294.721   -13800.201    79.072944 
   48700    1227.1007   -106.24691    1.1103065    -105.1366    35266.903    4.2703077    4.2703077    4.2703077    35266.903    68684.767    33026.763    4089.1793    4817.7446    17018.094     45485.63    77.871317 
   48800     2050.174   -106.99978    1.8550406   -105.14474    5443.1046    4.2697421    4.2697421    4.2697421    5443.1046    9127.0942    35200.125   -27997.906   -3550.8747   -22944.718   -15514.435    77.840379 
   48900      928.294   -106.01735   0.83993992   -105.17741    29685.057    4.2798685    4.2798685    4.2798685    29685.057    102340.45    6829.0185   -20114.303    12309.223    -13875.79    19261.576    78.395525 
   49000    2148.3694    -107.0951    1.9438898   -105.15121   -9690.6559    4.3017679    4.3017679    4.3017679   -9690.6559    44263.952   -26489.139   -46846.781   -11242.936    5634.9079   -1542.5404    79.605106 
   49100    916.15055   -105.96658   0.82895227   -105.13762   -32605.387    4.3047309    4.3047309    4.3047309   -32605.387   -17790.586    4511.0367   -84536.612    15048.431   -46400.106    4675.9611    79.769709 
   49200     1508.644   -106.47948    1.3650528   -105.11443    29317.803    4.2690948    4.2690948    4.2690948    29317.803    77683.307   -3336.8965    13606.998    12701.312    12297.102    14236.932    77.804981 
   49300    1746.3151   -106.70676    1.5801026   -105.12665    5783.8677    4.2608502    4.2608502    4.2608502    5783.8677   -11372.252    19700.225    9023.6302   -29678.262   -5816.5229   -13836.856    77.355075 
   49400    1296.4866   -106.33371    1.1730883   -105.16062   -17135.732    4.2889806    4.2889806    4.2889806   -17135.732    19532.376    -14201.56   -56738.011    3649.7083   -32982.878    14726.963    78.897317 
   49500    2169.8082   -107.09587    1.9632881   -105.13258   -1197.0265    4.2990412    4.2990412    4.2990412   -1197.0265   -7282.0633   -31277.131    34968.115   -3597.3131    19247.097     -2259.26    79.453825 
   49600    1014.4334   -106.06916   0.91788062   -105.15128   -19614.943    4.2887957    4.2887957    4.2887957   -19614.943   -41040.894    2089.2525   -19893.189   -23643.499   -28192.641    7633.1529    78.887113 
   49700    2178.4369    -107.0976    1.9710955    -105.1265     5102.212    4.2705307    4.2705307    4.2705307     5102.212    13363.649   -14321.432    16264.419   -10515.377   -28385.182    27018.213    77.883514 
   49800    1525.2466   -106.53334    1.3800752   -105.15326   -434.13949    4.2757973    4.2757973    4.2757973   -434.13949    9385.3583   -23140.046    12452.269    500.75814    10351.727   -14101.098     78.17202 
   49900     1678.684   -106.68634    1.5189086   -105.16743   -11661.619     4.304246     4.304246     4.304246   -11661.619    12234.475   -19791.672   -27427.661   -26298.595   -31923.267    15316.846    79.742759 
   50000    1713.8641   -106.68884    1.5507402    -105.1381   -47994.877    4.3198697    4.3198697    4.3198697   -47994.877   -30317.907   -70108.954    -43557.77    23866.486    5319.5473   -16573.949    80.614271 
   50100    1448.5015   -106.45135    1.3106346   -105.14072   -31376.963     4.288054     4.288054     4.288054   -31376.963    -42526.05   -199.53003   -51405.308    -24406.74    16572.081   -11341.227    78.846196 
   50200     1976.515   -106.90496    1.7883923   -105.11657     44024.18    4.2372623    4.2372623    4.2372623     44024.18    31775.528    34497.429    65799.582    26204.403   -15203.949    3714.8475    76.077467 
   50300    1162.0872   -106.23325    1.0514809   -105.18176    38104.169    4.2525465    4.2525465    4.2525465    38104.169    26123.199    23561.185    64628.122    28823.185    19326.565   -13143.457    76.903698 
   50400    2001.7771    -106.9834      1.81125   -105.17215   -27549.485    4.3039096    4.3039096    4.3039096   -27549.485   -42392.123    -18232.37    -22023.96   -33999.367    18882.919     5757.386    79.724061 
   50500    1278.0663    -106.3125    1.1564212   -105.15607    7149.4511    4.2955247    4.2955247    4.2955247    7149.4511   -15109.525   -20568.089    57125.967    40375.447    -7488.297    17246.077    79.259014 
   50600    1550.1578    -106.5244    1.4026153   -105.12179    47747.328    4.2673971    4.2673971    4.2673971    47747.328    34191.205     106316.8    2733.9739   -2869.3656    21443.137    7492.6578    77.712192 
   50700    1467.4183   -106.46984    1.3277509   -105.14209    8421.9101    4.2770528    4.2770528    4.2770528    8421.9101   -50189.098    39314.953    36139.876    23841.461    26441.244   -11938.214    78.240899 
   50800    1747.3892   -106.72466    1.5810745   -105.14359    2299.2969    4.2872662    4.2872662    4.2872662    2299.2969   -43422.031    2793.5127    47526.409    26812.077    -2064.729     11192.45    78.802746 
   50900    1580.3508   -106.58449    1.4299346   -105.15455    12307.966    4.2785239    4.2785239    4.2785239    12307.966   -6589.8756    37753.863    5759.9104   -20969.999    29454.478   -225.14597    78.321659 
   51000     1653.153   -106.65937    1.4958076   -105.16356     14519.25    4.2740987    4.2740987    4.2740987     14519.25   -40126.962    34270.409    49414.303    47295.656    2947.1038    696.40298    78.078894 
   51100    1907.6357   -106.89819    1.7260689   -105.17212   -3837.8418    4.2802493    4.2802493    4.2802493   -3837.8418   -33608.921    6004.1094    16091.286    -16686.88   -10479.433    954.01358    78.416454 
   51200    1061.4184   -106.13617    0.9603937   -105.17578    19478.001    4.2772425    4.2772425    4.2772425    19478.001   -27495.766     31688.42    54241.351    -27459.26    565.82496    4809.5608    78.251308 
   51300    2031.8735   -107.00754    1.8384818   -105.16906   -3358.8528    4.2804897    4.2804897    4.2804897   -3358.8528   -51639.495    2158.2575    39404.679     24834.44   -4530.5123   -7121.0723    78.429669 
   51400    1273.0558   -106.31985    1.1518876   -105.16796   -12284.995    4.2875026    4.2875026    4.2875026   -12284.995   -20243.186   -62263.806    45652.008   -58215.785     4543.991   -1200.5964    78.815782 
   51500    1501.4544   -106.50295    1.3585475    -105.1444    33867.949    4.2759518    4.2759518    4.2759518    33867.949    46591.318    25047.213    29965.317    19831.559    10108.292   -15830.853    78.180492 
   51600    1777.8259   -106.76223    1.6086142   -105.15361   -8055.3298    4.2851108    4.2851108    4.2851108   -8055.3298   -19302.474   -1952.6657   -2910.8495   -61379.928   -1869.1928    2529.3206    78.683954 
   51700    2160.3559   -107.09837    1.9547354   -105.14364   -27450.892    4.2928643    4.2928643    4.2928643   -27450.892   -16040.595   -33888.646   -32423.436   -24868.898   -6786.0367   -6154.6136    79.111838 
   51800    1678.4084   -106.65918    1.5186592   -105.14052    6064.6554    4.2765868    4.2765868    4.2765868    6064.6554    35315.683    321.93369    -17443.65   -8028.4022   -6191.6621    -15801.54    78.215329 
   51900     1043.681   -106.10975   0.94434453    -105.1654   -1719.7734    4.2728592    4.2728592    4.2728592   -1719.7734   -17484.058   -51016.891    63341.629   -81703.557   -314.64326    3201.6268    78.010984 
   52000    2743.7413   -107.63281    2.4825948   -105.15021    3335.1515    4.2853989    4.2853989    4.2853989    3335.1515   -7607.1742    40885.788   -23273.159    10033.674   -14247.693   -2043.5248    78.699824 
   52100    903.68117   -105.98662   0.81766971   -105.16895   -15265.613    4.2949673    4.2949673    4.2949673   -15265.613   -41844.431   -32090.514    28138.106   -79188.913     6839.426    8399.7492    79.228162 
   52200    1809.3076   -106.77063    1.6370995   -105.13353   -6570.4448    4.2924405    4.2924405    4.2924405   -6570.4448   -12007.475   -19006.728    11302.868    799.93892   -2962.1137   -7894.6425    79.088411 
   52300    1903.6295   -106.85441    1.7224439   -105.13197   -2359.4815    4.2776233    4.2776233    4.2776233   -2359.4815   -24259.095   -9925.8332    27106.484   -40147.741    11865.124    13014.804     78.27221 
   52400    1241.8617   -106.27885    1.1236625   -105.15519    12326.854    4.2694801    4.2694801    4.2694801    12326.854   -45062.916    9516.8559    72526.623   -33674.239   -12315.969   -4846.5315    77.826049 
   52500     1663.269    -106.6643    1.5049607   -105.15934    10975.403    4.2784586    4.2784586    4.2784586    10975.403    30639.441     22209.79    -19923.02    14368.545    9209.2885   -3318.7219    78.318076 
   52600    1535.8796   -106.56189    1.3896961   -105.17219    9209.0669     4.290264     4.290264     4.290264    9209.0669    -29853.55    6117.1246    51363.626   -49571.685    1163.4378    5579.0487    78.968164 
   52700    1909.1296   -106.88448    1.7274206   -105.15706   -552.23715    4.2818522    4.2818522    4.2818522   -552.23715    -4402.181    27646.659   -24901.189    42188.279    13068.596    9977.3363    78.504584 
   52800    1161.0658   -106.20761    1.0505567   -105.15705    9059.7889    4.2584182    4.2584182    4.2584182    9059.7889    10651.856    15043.785    1483.7257   -23538.826   -11580.765   -5925.4486    77.222692 
   52900    2307.0825   -107.24351    2.0874967   -105.15601    33903.135    4.2615456    4.2615456    4.2615456    33903.135    30470.107    49114.634    22124.664   -3707.6467    11320.891    8944.9201    77.392956 
   53000    1032.8822   -106.11546   0.93457351   -105.18088    -18559.21    4.2894761    4.2894761    4.2894761    -18559.21   -3701.5224   -30445.964   -21530.144    30456.881   -3098.0529    7337.6891    78.924668 
   53100    2036.6194    -106.9909     1.842776   -105.14812   -34395.051    4.2954294    4.2954294    4.2954294   -34395.051   -4720.7327   -45592.848   -52871.573   -18752.112   -3318.0568   -21158.387    79.253737 
   53200    1892.7958   -106.84565    1.7126414   -105.13301   -12382.858    4.2858935    4.2858935    4.2858935   -12382.858    3478.4471   -8154.1808    -32472.84    28143.811    24639.691    20337.575    78.727077 
   53300    1454.5459   -106.45198    1.3161037   -105.13587   -23602.704    4.2847469    4.2847469    4.2847469   -23602.704    31326.021   -72075.356   -30058.777    9077.2678   -7680.5484   -7956.1591    78.663908 
   53400    2394.4408   -107.29592    2.1665404   -105.12938   -5391.3943    4.2716129    4.2716129    4.2716129   -5391.3943    1992.9638    19888.854   -38056.001   -58.774431    25936.531   -9788.2699    77.942741 
   53500    1051.2016   -106.11546    0.9511493   -105.16431    3498.1835    4.2660368    4.2660368    4.2660368    3498.1835   -8607.7883    27886.726   -8784.3874    27669.741    2625.5716    12090.546    77.637902 
   53600    1710.9364   -106.71535    1.5480912   -105.16726    -2101.426    4.2826653    4.2826653    4.2826653    -2101.426    178.15478    33350.513   -39832.945   -8159.9075   -14328.699   -3595.5221    78.549315 
   53700    1974.2309   -106.93672    1.7863256   -105.15039    6428.8936    4.2854488    4.2854488    4.2854488    6428.8936   -13739.748    36244.503   -3218.0744    23522.063    12727.466   -7761.0867    78.702572 
   53800    921.35417   -105.99681   0.83366062   -105.16315   -15303.917    4.2796757    4.2796757    4.2796757   -15303.917   -5287.9385   -24799.474   -15824.339    17190.336    -6847.126   -4401.5829     78.38493 
   53900    2358.0924   -107.27342    2.1336515   -105.13977   -1836.1003     4.269193     4.269193     4.269193   -1836.1003    5660.8258    1828.6103   -12997.737   -7005.8397   -22602.976   -5438.5245    77.810351 
   54000    1315.0335   -106.35541    1.1898699   -105.16554    4600.2568    4.2689515    4.2689515    4.2689515    4600.2568   -20933.217   -5197.3291    39931.317    46911.056    12373.307    9997.5768    77.797144 
   54100    1640.5646   -106.64664    1.4844173   -105.16223   -14295.303    4.2833283    4.2833283    4.2833283   -14295.303    11986.987   -22074.327   -32798.568   -20233.425   -29348.079    1143.5062    78.585802 
   54200    1709.2133   -106.69847    1.5465321   -105.15194   -15316.911    4.2790458    4.2790458    4.2790458   -15316.911   -31053.695   -18959.927    4062.8887      38637.5    3751.5762    -3497.562    78.350327 
   54300      860.125   -105.95073   0.77825917   -105.17247    -2463.519    4.2634448    4.2634448    4.2634448    -2463.519   -13575.406   -12319.446    18504.295    21571.041    7527.7092        14447    77.496474 
   54400    2266.1871   -107.21642    2.0504937   -105.16592    24604.826     4.260979     4.260979     4.260979    24604.826    36990.093    31460.004    5364.3822   -30276.336   -7996.0898   -2541.4138    77.362089 
   54500    1441.1861   -106.49081    1.3040155    -105.1868   -5971.1961    4.2759674    4.2759674    4.2759674   -5971.1961   -17099.892   -17348.052    16534.356    60021.623    7563.2642    3432.0198    78.181348 
   54600    1305.1751   -106.35722    1.1809498   -105.17627   -7456.5181    4.2880393    4.2880393    4.2880393   -7456.5181    4784.8697   -23170.379   -3984.0454   -30164.371    3693.8099    12658.676    78.845384 
   54700    1765.7147   -106.74857    1.5976558   -105.15092    3575.0035    4.2853435    4.2853435    4.2853435    3575.0035    30445.478   -21546.245    1825.7776    13179.657   -1594.8772   -2166.9564    78.696771 
   54800    1689.4135   -106.68378    1.5286169   -105.15517   -1610.2039    4.2582527    4.2582527    4.2582527   -1610.2039     24130.86   -46489.903    17528.432    26617.833    4978.9565   -6243.9225    77.213685 
   54900    1176.7161   -106.22986    1.0647175   -105.16514     37015.76    4.2489227    4.2489227    4.2489227     37015.76    85331.122    24929.474    786.68456   -46320.806   -3465.4359    4897.3895    76.707265 
   55000    1957.5316    -106.9477    1.7712158   -105.17648   -30387.555    4.2790522    4.2790522    4.2790522   -30387.555   -25840.376   -9195.0723   -56127.217    19089.721     4065.889   -4458.5844    78.350675 
   55100    1640.6871   -106.65586    1.4845282   -105.17133    11018.581    4.2761413    4.2761413    4.2761413    11018.581    75613.494   -36020.522   -6537.2271   -40632.291    6974.4021   -13305.785    78.190886 
   55200    1404.5754   -106.43666    1.2708893   -105.16577    31639.432    4.2685995    4.2685995    4.2685995    31639.432    27626.626    38732.099    28559.569   -31122.571   -1919.8248   -2802.9227    77.777902 
   55300    1806.0294   -106.79079    1.6341333   -105.15666   -21376.705     4.276706     4.276706     4.276706   -21376.705   -43005.395    20082.356   -41207.075    17199.982    8331.7528   -4675.6331    78.221868 
   55400    1167.4415   -106.22505    1.0563256   -105.16873   -5565.2589    4.2628998    4.2628998    4.2628998   -5565.2589    31769.971   -51695.124    3229.3758   -75567.492    5037.3586    6225.1862    77.466756 
   55500    2129.3494   -107.09832    1.9266801   -105.17164     15889.58    4.2622535    4.2622535    4.2622535     15889.58    32419.639    2803.6302     12445.47    10136.818   -5072.6738     18268.57    77.431526 
   55600    1529.2766   -106.56561    1.3837216   -105.18189   -13594.366    4.2739912    4.2739912    4.2739912   -13594.366   -22336.266    -27548.98    9102.1485    -29577.62    7121.8164   -67.401058       78.073 
   55700    741.49316   -105.85684   0.67091859   -105.18592    12769.672    4.2696967    4.2696967    4.2696967    12769.672      36635.5   -43930.047    45603.564   -48463.872    3605.4592    3782.4355    77.837892 
   55800    2546.4296   -107.46648     2.304063   -105.16242   -5260.1461    4.2746519    4.2746519    4.2746519   -5260.1461    10397.977    6252.7682   -32431.184    31178.183    14213.589    6780.2334    78.109211 
   55900    1433.2627   -106.47299    1.2968462   -105.17614   -10374.857    4.2753152    4.2753152    4.2753152   -10374.857    -4227.863   -37698.479     10801.77   -77194.558    2685.3043     2165.873    78.145582 
   56000    1379.7072   -106.42226    1.2483881   -105.17387    16538.488    4.2601046    4.2601046    4.2601046    16538.488    49177.487    21375.124   -20937.148    2483.2268   -7157.3787    8914.9591    77.314472 
   56100    1729.2069   -106.74006    1.5646227   -105.17543    7770.4228    4.2649112    4.2649112    4.2649112    7770.4228   -9536.9073    56257.748   -23409.572   -12950.404   -215.96873    5330.3069    77.576464 
   56200     1671.028   -106.68363    1.5119813   -105.17164   -301.97959    4.2789633    4.2789633    4.2789633   -301.97959    2208.9446    -27417.47    24302.586   -60243.707    486.63374   -3687.3008    78.345793 
   56300    1877.3768   -106.86714      1.69869   -105.16845   -6741.8774    4.2721576    4.2721576    4.2721576   -6741.8774   -17219.875    30236.751   -33242.508    28546.898   -22080.232    13244.535    77.972562 
   56400    1058.1317   -106.14265   0.95741977   -105.18523   -3070.2753    4.2635502    4.2635502    4.2635502   -3070.2753   -4633.1576    5720.3658   -10298.034     -39086.5   -213.83836    1184.9837    77.502223 
   56500    2056.6757   -107.04099    1.8609234   -105.18006    29559.348    4.2712289    4.2712289    4.2712289    29559.348      54697.5     13072.18    20908.365    421.21785    2129.6497   -11307.959    77.921722 
   56600    1855.8464   -106.85151    1.6792088    -105.1723   -5617.3361    4.2873685    4.2873685    4.2873685   -5617.3361   -9806.9547    46222.492   -53267.545    18219.184   -3525.4168    9577.8666    78.808388 
   56700    1167.1925   -106.23054    1.0561003   -105.17444   -28863.373     4.280926     4.280926     4.280926   -28863.373   -1294.4421   -30838.121   -54457.557   -42064.564   -8228.4317   -5370.9817    78.453652 
   56800    1737.3048   -106.74278    1.5719499   -105.17083    20424.691    4.2583561    4.2583561    4.2583561    20424.691    85347.896    5963.6203   -30037.442    16222.725    10.996386   -32667.953    77.219314 
   56900    2350.8813   -107.30098    2.1271268   -105.17386    38149.059    4.2587831    4.2587831    4.2587831    38149.059    19249.614    91349.253    3848.3096   -18629.189   -4530.8396    7299.7621    77.242541 
   57000    1010.9873   -106.11524   0.91476255   -105.20048   -11953.696    4.2857996    4.2857996    4.2857996   -11953.696    41012.098   -28734.617    -48138.57   -29958.705   -3912.1202     -21286.2    78.721904 
   57100    1961.2083   -106.92821    1.7745425   -105.15366   -10510.915     4.305176     4.305176     4.305176   -10510.915     8688.787    33072.892   -73294.424    12103.759    5840.7899   -1202.5389    79.794458 
   57200    1829.7439   -106.80263    1.6555907   -105.14703   -5448.8532    4.2867139    4.2867139    4.2867139   -5448.8532    6312.8438    7659.5027   -30318.906   -33242.908   -522.18445   -5274.3841    78.772295 
   57300    913.31546   -105.97998   0.82638702   -105.15359    26146.557    4.2431891    4.2431891    4.2431891    26146.557    99104.182    13877.843   -34542.353   -11592.013    10335.665   -30890.928    76.397152 
   57400    1896.8282    -106.8964      1.71629   -105.18011    11805.297    4.2408459    4.2408459    4.2408459    11805.297    41188.738    39869.522   -45642.367    14796.037    9660.2079    25142.422    76.270657 
   57500    1648.8311   -106.69721     1.491897   -105.20531    11893.004    4.2679995    4.2679995    4.2679995    11893.004    27400.818    8094.7539    183.43963   -20630.894   -14785.606   -5682.8017    77.745108 
   57600    1388.4231   -106.45611    1.2562744   -105.19983   -31639.664    4.2923618    4.2923618    4.2923618   -31639.664    51082.806       -76600   -69401.798   -14501.596    6860.8705   -22658.381    79.084059 
   57700    1882.3736   -106.87228    1.7032112   -105.16907   -26417.035     4.280302     4.280302     4.280302   -26417.035   -1316.3755   -32602.656   -45332.074    14149.631    8224.5269    20929.804    78.419351 
   57800    1354.3534   -106.38718    1.2254474   -105.16173    116.90566    4.2471161    4.2471161    4.2471161    116.90566    -41243.97   -16322.214      57916.9   -5307.8152    -12639.65   -18141.531    76.609458 
   57900    1532.7372   -106.57271    1.3868529   -105.18586   -7510.6309    4.2451716    4.2451716    4.2451716   -7510.6309    57214.637   -35540.215   -44206.315   -15943.058    30404.577    -31944.22    76.504284 
   58000    2109.9062   -107.09787    1.9090874   -105.18879   -7522.2785    4.2707916    4.2707916    4.2707916   -7522.2785   -3809.9942   -30390.117    11633.276    16370.731    11674.663    14937.457    77.897789 
   58100      1204.63   -106.28482    1.0899745   -105.19485    -32967.23    4.2808229    4.2808229    4.2808229    -32967.23   -39008.915   -94784.126     34891.35   -1059.0163   -4640.5889   -36501.449    78.447985 
   58200    1642.3363   -106.66266    1.4860204   -105.17664    2166.9397    4.2696859    4.2696859    4.2696859    2166.9397    18630.358    -23040.73    10911.191   -18168.139    34749.724   -30294.439    77.837301 
   58300    1971.1834   -106.94688    1.7835682   -105.16331    -8338.062    4.2670454    4.2670454    4.2670454    -8338.062    3444.0812   -34551.984    6093.7165    19615.168    3700.8628    4778.3227     77.69298 
   58400    994.65144   -106.08529   0.89998153   -105.18531   -5380.3935    4.2716765    4.2716765    4.2716765   -5380.3935    26889.074   -80347.457    37317.203   -19459.531    597.67073   -53924.778    77.946224 
   58500    2242.6273   -107.19247    2.0291764   -105.16329   -7707.0527    4.2817967    4.2817967    4.2817967   -7707.0527    27402.641   -26492.003   -24031.796    -9246.381    -1466.228    6518.7722    78.501531 
   58600    1494.3667   -106.51057    1.3521344   -105.15843   -17240.477    4.2905032    4.2905032    4.2905032   -17240.477    14551.999   -42899.088   -23374.341   -280.54456    29008.135   -6893.2816    78.981373 
   58700    1883.7185   -106.84387    1.7044281   -105.13944   -17521.438    4.2885576    4.2885576    4.2885576   -17521.438   -17726.999   -42855.161     8017.847   -2982.4424    5802.9579   -26506.534     78.87398 
   58800    1771.8079   -106.73494     1.603169   -105.13177    11651.893    4.2704152    4.2704152    4.2704152    11651.893    38661.682   -12264.042    8558.0407    8612.4831    14462.287    58415.002    77.877198 
   58900    1552.4045   -106.54847    1.4046482   -105.14382    33251.832     4.265927     4.265927     4.265927    33251.832   -4206.8011    2314.6389    101647.66    38.181243    37638.848   -24247.741    77.631906 
   59000     1507.122   -106.52305    1.3636757   -105.15937   -12452.007    4.2769801    4.2769801    4.2769801   -12452.007    4505.6998   -53347.345    11485.626   -2558.6582   -6743.2313    38865.542    78.236908 
   59100    1313.1808   -106.35499    1.1881936    -105.1668   -6758.6519    4.2715798    4.2715798    4.2715798   -6758.6519   -7910.1591   -25192.864    12827.067   -768.29752    10504.885    42823.806    77.940927 
   59200    2011.4611   -106.97645    1.8200122   -105.15644    4570.2698    4.2597307    4.2597307    4.2597307    4570.2698   -18439.918     36240.11   -4089.3832    603.39831    50608.318    -8813.894    77.294114 
   59300    1405.4459   -106.44505    1.2716769   -105.17338    -24956.28    4.2727888    4.2727888    4.2727888    -24956.28    42876.691   -73606.666   -44138.867    5121.2128   -22446.667    84387.587    78.007129 
   59400    1893.1273   -106.85933    1.7129414   -105.14639   -10778.181    4.2783328    4.2783328    4.2783328   -10778.181   -45709.282    18058.175    -4683.437   -1640.1231    16259.558   -11645.754    78.311165 
   59500    1073.6896   -106.12289   0.97149692   -105.15139    24525.948    4.2664136    4.2664136    4.2664136    24525.948   -4788.6551     37108.77    41257.728   -10074.725     23250.27    43685.827    77.658478 
   59600    1797.4323    -106.7847    1.6263545   -105.15834   -3463.1967    4.2711896    4.2711896    4.2711896   -3463.1967   -3233.2691   -29851.232    22694.911    10842.672   -22348.402    35583.137     77.91957 
   59700    1934.3272   -106.90244    1.7502199   -105.15222   -5477.6377    4.2686441    4.2686441    4.2686441   -5477.6377   -65235.237    11375.456    37426.868    104.97785     30556.02   -15823.635    77.780343 
   59800     1132.886    -106.1992     1.025059   -105.17414    8853.0542    4.2541051    4.2541051    4.2541051    8853.0542    11958.576    10881.119    3719.4678   -6303.1005    14836.994    87364.469    76.988284 
   59900    2254.1809   -107.21508    2.0396303   -105.17545    7412.3786    4.2646239    4.2646239    4.2646239    7412.3786   -19700.677    -8089.994    50027.807    3337.7831   -13542.791   -17558.767    77.560786 
   60000    797.98465     -105.916   0.72203328   -105.19396   -19974.249     4.286066     4.286066     4.286066   -19974.249   -32997.841   -45735.572    18810.666   -9784.9133    24000.376    31078.314    78.736582 
   60100    1871.4726   -106.86297    1.6933477   -105.16962   -16179.959    4.2824625    4.2824625    4.2824625   -16179.959   -5655.7331   -33692.228   -9191.9151    896.38707    6232.4792     46299.11    78.538154 
   60200    1613.3558   -106.61631    1.4597982   -105.15651    12795.555    4.2640638    4.2640638    4.2640638    12795.555    -27201.61     52061.82    13526.456    2353.0717    1674.0645   -33208.781    77.530231 
   60300    1508.3658   -106.51418     1.364801   -105.14938   -26966.122    4.2669692    4.2669692    4.2669692   -26966.122   -18188.561   -2888.9422   -59820.864   -6808.9894    29650.427    48261.925    77.688822 
   60400    2050.2412   -106.99586    1.8551013   -105.14076   -17201.724    4.2789811    4.2789811    4.2789811   -17201.724   -10542.914   -38775.085   -2287.1732    10020.168   -9907.5568   -1730.4818    78.346772 
   60500    1246.1812   -106.27991     1.127571   -105.15234    5897.9621    4.2755818    4.2755818    4.2755818    5897.9621   -18649.015    68686.905   -32344.004   -14113.568    29381.739   -18969.143    78.160202 
   60600    1914.2296   -106.88034    1.7320352    -105.1483    2195.0499    4.2706535    4.2706535    4.2706535    2195.0499   -36762.111   -4247.7478    47595.009    30617.665    10795.728    8065.3456    77.890233 
   60700    1772.6136   -106.76425     1.603898   -105.16035    17770.185    4.2604097    4.2604097    4.2604097    17770.185    -17402.82   -4087.5238      74800.9    22361.635    201.26748   -13325.321    77.331082 
   60800    1200.7912   -106.25576    1.0865011   -105.16926    48801.608    4.2612322    4.2612322    4.2612322    48801.608     -18546.1    85599.594     79351.33   -12407.187    23606.869    -15694.21    77.375878 
   60900    1162.8994   -106.24888    1.0522158   -105.19667   -40018.651    4.2852994    4.2852994    4.2852994   -40018.651   -108049.78   -75412.242    63406.071    88913.988    1256.6107    6570.9039    78.694345 
   61000    2414.9988   -107.34425    2.1851417   -105.15911      6681.91    4.2735912    4.2735912    4.2735912      6681.91   -21197.659    35539.103    5704.2853   -30446.131    -13964.52    14708.371    78.051084 
   61100    1402.7647   -106.43015     1.269251    -105.1609   -7883.2624    4.2555788    4.2555788    4.2555788   -7883.2624   -30244.566   -32217.855    38812.633    87012.868    11863.202   -2926.2555    77.068321 
   61200     1698.048   -106.70549    1.5364295   -105.16906   -26493.412    4.2703117    4.2703117    4.2703117   -26493.412   -48659.666    -35985.52    5164.9507   -6780.7951   -5054.2594    3672.7248    77.871533 
   61300    1486.7901   -106.50045    1.3452789   -105.15517   -24330.561    4.2828265    4.2828265    4.2828265   -24330.561   -28043.507   -56243.433    11295.257    14052.214   -18919.014    17246.994    78.558184 
   61400    1471.3485   -106.47067    1.3313071   -105.13936   -3248.4525    4.2946644    4.2946644    4.2946644   -3248.4525     38502.95   -61958.142    13709.835     49746.87    11797.286    -5466.491      79.2114 
   61500    1676.7585   -106.63868    1.5171663   -105.12151    11970.979    4.2953462    4.2953462    4.2953462    11970.979    57458.896   -20205.877   -1340.0808    7820.2764    20531.205   -11890.332    79.249135 
   61600    1140.8767   -106.14378    1.0322892   -105.11149    13984.684    4.2807176    4.2807176    4.2807176    13984.684   -8902.1441   -22715.473    73571.669    66984.103   -7320.4513     2716.279    78.442194 
   61700    1852.7482   -106.77594    1.6764055   -105.09953    14450.212    4.2765331    4.2765331    4.2765331    14450.212    3153.4666    34667.529    5529.6418   -14620.538    27692.925   -13226.313     78.21238 
   61800    1751.1168   -106.69831    1.5844473   -105.11386   -14387.109    4.2897883    4.2897883    4.2897883   -14387.109   -41364.276   -12744.342    10947.291    48977.621   -8475.5127    6266.9988    78.941903 
   61900    1713.6744   -106.65935    1.5505686   -105.10878   -2894.0894    4.3029365    4.3029365    4.3029365   -2894.0894    6745.2869    885.25455    -16312.81   -11023.444   -8919.8589     17447.33    79.670001 
   62000    1344.3888   -106.30693    1.2164313    -105.0905   -13544.623    4.3026775    4.3026775    4.3026775   -13544.623     12783.44   -42877.008   -10540.299    45899.969    8554.4438   -1294.5784    79.655612 
   62100    1717.8078   -106.63422    1.5543086   -105.07991    3834.4711    4.2785635    4.2785635    4.2785635    3834.4711    17754.964    21000.999   -27252.549    40731.538    113.57354    4280.3138    78.323835 
   62200     1274.647   -106.26006    1.1533274   -105.10674    3723.8872    4.2647647    4.2647647    4.2647647    3723.8872    9038.2141    71424.337    -69290.89    1112.8419    36353.369   -13437.977    77.568467 
   62300    1818.0527   -106.76903    1.6450123   -105.12402    20778.487    4.2710611    4.2710611    4.2710611    20778.487    -886.5411    18627.137    44594.865    45665.542   -7915.8472    5177.7006    77.912537 
   62400     834.3536   -105.90944   0.75494067    -105.1545    19878.479    4.2851658    4.2851658    4.2851658    19878.479   -19640.078    93024.132   -13748.616   -4316.2844    23142.051    10588.688    78.686985 
   62500    2080.9255   -106.99993    1.8828651   -105.11706   -15956.654    4.3018042    4.3018042    4.3018042   -15956.654   -46475.677    14959.313   -16353.597    15828.111    9592.0609   -3440.6834    79.607123 
   62600    1256.7218   -106.25974    1.1371083   -105.12263   -10026.532    4.2879009    4.2879009    4.2879009   -10026.532    3863.8592    24406.492   -58349.948     21196.74    12858.888    8732.9645    78.837747 
   62700    1956.4895   -106.86627    1.7702728     -105.096    27301.594    4.2563796    4.2563796    4.2563796    27301.594    18101.289    74328.806   -10525.312    -7262.932    26984.295   -5685.5479    77.111837 
   62800    1432.9011   -106.42315     1.296519   -105.12663    29213.049      4.25156      4.25156      4.25156    29213.049    19030.476    35348.199    33260.473   -7041.0047   -668.67094   -9764.4428    76.850189 
   62900    1389.2832   -106.41451    1.2570526   -105.15746    4294.4023    4.2759339    4.2759339    4.2759339    4294.4023    32899.718    29955.747   -49972.258    13045.707    32846.125   -1465.0679    78.179512 
   63000    1794.5705   -106.76027    1.6237651    -105.1365    5178.6383     4.286388     4.286388     4.286388    5178.6383   -21869.226    31828.709    5576.4323   -33291.581   -5774.9228   -12883.888     78.75433 
   63100    1315.2217   -106.32961    1.1900403   -105.13957    10216.992    4.2798313    4.2798313    4.2798313    10216.992   -10005.618    39167.711     1488.882    2483.4452    21959.845    7815.3538    78.393482 
   63200    2272.3173    -107.1776    2.0560405   -105.12156    12956.215    4.2706704    4.2706704    4.2706704    12956.215    16167.651    5257.9188    17443.074   -4350.8564    7906.0725   -8728.0505    77.891159 
   63300    1223.2744   -106.24743    1.1068443   -105.14058   -14410.228     4.265325     4.265325     4.265325   -14410.228   -39988.793   -18115.055    14873.163   -61509.642    8824.2919    827.01534    77.599046 
   63400    2193.4272   -107.11526     1.984659    -105.1306    4001.9208    4.2702098    4.2702098    4.2702098    4001.9208   -20895.572    31860.824    1040.5101    34702.219    29556.431    11353.303    77.865959 
   63500    1120.7743   -106.15916    1.0141002   -105.14506   -29523.403    4.2829774    4.2829774    4.2829774   -29523.403   -63962.807   -54926.338    30318.937   -98659.291   -16678.522   -10060.323    78.566489 
   63600    1876.7913   -106.83471    1.6981602   -105.13655   -14449.047    4.2760467    4.2760467    4.2760467   -14449.047   -21042.424    22256.926   -44561.644    7321.0811    6234.9221    11782.095    78.185699 
   63700    1451.0949   -106.45496    1.3129812   -105.14198   -16457.774    4.2690911    4.2690911    4.2690911   -16457.774    -66358.66   -19672.402    36657.741   -61203.552    6105.0797    4223.2052    77.804777 
   63800    1466.3984   -106.47155    1.3268281   -105.14472   -12447.559    4.2658616    4.2658616    4.2658616   -12447.559   -16825.765   -47414.241    26897.328   -66070.611    318.37832    7704.8067    77.628336 
   63900    1590.0155   -106.58494    1.4386794   -105.14626    16930.643    4.2767502    4.2767502    4.2767502    16930.643    47428.832    8196.6284    -4833.532   -9271.5067   -12217.991   -7362.9192    78.224296 
   64000    1280.2335   -106.30496    1.1583822   -105.14657   -39783.077    4.2995329    4.2995329    4.2995329   -39783.077   -49621.357   -87890.879    18163.006   -88424.832   -9798.3666   -1041.8693    79.481095 
   64100    2198.8806   -107.09315    1.9895934   -105.10356    13910.429    4.2916361    4.2916361    4.2916361    13910.429     68520.83   -16295.525   -10494.017    24187.397   -4969.3517   -1214.0457    79.043958 
   64200    935.22394   -105.97091   0.84621027    -105.1247    10606.624     4.276909     4.276909     4.276909    10606.624   -50019.409    17154.235    64685.047   -100907.13   -13892.067   -3639.0519    78.233007 
   64300    2460.7076   -107.33394    2.2264999   -105.10744    10940.421    4.2801177    4.2801177    4.2801177    10940.421   -12682.839    31503.023    14001.079        31497    10227.714    12298.942    78.409222 
   64400    770.30559   -105.83175   0.69698869   -105.13477    11172.664    4.2710739    4.2710739    4.2710739    11172.664   -67121.822    47883.748    52756.066    -88681.51    2886.0195   -12051.971    77.913236 
   64500    2292.6301   -107.21227    2.0744199   -105.13785    1445.3248    4.2784357    4.2784357    4.2784357    1445.3248    5258.2275    21566.003   -22488.256    -14130.18    13192.594    11479.158    78.316816 
   64600     1380.961   -106.40158    1.2495225   -105.15205   -684.28819    4.2831716    4.2831716    4.2831716   -684.28819   -47199.461   -5314.8179    50461.414   -61563.222    7268.5216    8525.9134    78.577179 
   64700    1326.3256   -106.34437    1.2000872   -105.14428     18749.19    4.2889299    4.2889299    4.2889299     18749.19    29371.474   -4253.8566    31129.952   -51360.538    4254.2447   -5238.5001     78.89452 
   64800     1823.197   -106.77246    1.6496669    -105.1228    4438.0776    4.2884245    4.2884245    4.2884245    4438.0776    41617.338   -19736.634   -8566.4713   -12785.999    3438.1797    14608.719    78.866634 
   64900     579.9607   -105.66289   0.52476063   -105.13813    22612.113    4.2695148    4.2695148    4.2695148    22612.113    44581.059   -49713.212    72968.493    -94962.31   -15467.542    1008.3804    77.827945 
   65000    2550.0908   -107.42978    2.3073757   -105.12241    17647.934    4.2781902    4.2781902    4.2781902    17647.934    31157.102    20463.624    1323.0764    21309.344   -5334.3283    861.92087    78.303338 
   65100     549.9197   -105.65367    0.4975789   -105.15609   -35392.723    4.2911973    4.2911973    4.2911973   -35392.723   -72851.754   -48895.073    15568.657   -107902.25    1847.5309    19243.554    79.019713 
   65200    2643.1095   -107.50974     2.391541   -105.11819   -15784.812    4.2765714    4.2765714    4.2765714   -15784.812   -2317.2105   -14308.338   -30728.889    30331.016   -10190.883   -4922.9362    78.214485 
   65300    1154.5314   -106.18693    1.0446443   -105.14228   -9237.9927    4.2687799    4.2687799    4.2687799   -9237.9927    -74417.58   -24697.637    71401.239   -85738.604   -2103.3727   -9915.0816    77.787766 
   65400    1627.2219   -106.60761    1.4723445   -105.13526   -5840.5852    4.2764432    4.2764432    4.2764432   -5840.5852   -36387.642   -22514.879    41380.765   -25154.303    8865.9012    20157.686     78.20745 
   65500    1582.4336   -106.56626    1.4318191   -105.13444   -685.02565    4.2803956    4.2803956    4.2803956   -685.02565   -57502.962    5612.6048    49835.281   -38971.406   -2683.1348   -10919.026    78.424493 
   65600     1558.493   -106.54132    1.4101572   -105.13116   -30201.829    4.2878725    4.2878725    4.2878725   -30201.829   -58670.819   -26243.521   -5691.1486   -54570.244    18038.373     14563.39    78.836182 
   65700    1920.0047   -106.85492    1.7372606   -105.11766    12079.615    4.2717759    4.2717759    4.2717759    12079.615    16222.224   -7244.4332    27261.053   -4162.6974   -5473.9645    9429.9925    77.951662 
   65800    1071.6389   -106.11053   0.96964143   -105.14089    15336.687      4.26181      4.26181      4.26181    15336.687   -38259.071   -6958.2763    91227.407   -80522.273     13565.81    2508.3661    77.407359 
   65900    2204.4022   -107.11488    1.9945895   -105.12029    14376.802    4.2768101    4.2768101    4.2768101    14376.802     3736.572    2318.9582    37074.875    12936.797    1434.7262    3860.5042    78.227579 
   66000    822.28174   -105.88732    0.7440178    -105.1433   -22886.252    4.2785586    4.2785586    4.2785586   -22886.252   -70870.835   -61627.459    63839.538   -101216.99    4441.9793    6322.3305    78.323568 
   66100    2263.4015   -107.16709    2.0479732   -105.11911    13977.008    4.2794046    4.2794046    4.2794046    13977.008    12826.433   -29287.979    58392.572    44996.413   -4861.6468    -3548.324    78.370034 
   66200    1212.0813    -106.2367    1.0967167   -105.13999   -43984.055    4.2833137    4.2833137    4.2833137   -43984.055   -91380.226   -90939.404    50367.464   -112080.05   -6816.7498    8708.7538    78.584996 
   66300    2184.8649   -107.09821    1.9769117   -105.12129    1241.5881    4.2596676    4.2596676    4.2596676    1241.5881   -105.40603   -14116.503    17946.674    13345.314    1468.1861    11532.913    77.290678 
   66400    1213.9999   -106.24308    1.0984526   -105.14463   -3041.9533    4.2568169    4.2568169    4.2568169   -3041.9533   -60850.393   -51661.947    103386.48   -35982.529   -7766.8889   -4835.4507    77.135609 
   66500    1880.7388   -106.84721     1.701732   -105.14548   -19495.493    4.2824695    4.2824695    4.2824695   -19495.493   -51214.356   -52323.826    45051.703    -44303.07    4020.6536   -1176.7227    78.538543 
   66600    1500.0455   -106.49959    1.3572727   -105.14232   -39419.971    4.2836359    4.2836359    4.2836359   -39419.971   -24114.012   -62041.751   -32104.151    26128.719   -7388.8315    18071.307    78.602735 
   66700    1408.4854   -106.41788    1.2744272   -105.14346    7798.7758    4.2630864    4.2630864    4.2630864    7798.7758   -42450.219   -34887.866    100734.41   -49281.003   -7248.5515   -19828.744    77.476928 
   66800    2036.0359   -106.98369    1.8422481   -105.14144    18394.351    4.2592843    4.2592843    4.2592843    18394.351    18641.119    -9231.148    45773.084    13834.636   -1923.9411    14420.686    77.269818 
   66900    1078.1353   -106.15189   0.97551952   -105.17637   -15437.507    4.2760701    4.2760701    4.2760701   -15437.507   -29780.189   -50879.701    34347.369   -23472.828   -1627.4532   -2956.2211    78.186984 
   67000    2402.2478   -107.30612    2.1736043   -105.13251   -36596.394    4.3058037    4.3058037    4.3058037   -36596.394   -59855.226   -41791.613   -8142.3433     10330.36   -10787.476    14147.395    79.829366 
   67100    572.42684   -105.67026   0.51794383   -105.15231   -61264.287    4.2876883    4.2876883    4.2876883   -61264.287   -9623.4329   -118218.74   -55950.693    15031.309    4375.8035    51977.039    78.826021 
   67200    2421.4209   -107.26402    2.1909525   -105.07307    58031.939    4.2356165    4.2356165    4.2356165    58031.939    33395.837    59982.756    80717.223   -16318.179    2651.5271   -26601.728    75.988853 
   67300    1331.1404   -106.34061    1.2044438   -105.13617   -24525.768    4.2612364    4.2612364    4.2612364   -24525.768    4821.9058   -59079.577   -19319.633    7604.3135    10811.621    58086.739    77.376108 
   67400    1817.5467   -106.77481    1.6445544   -105.13025   -40775.363    4.2872849    4.2872849    4.2872849   -40775.363   -43356.651   -66295.143   -12674.294     8742.845    8752.4692   -2975.8645    78.803775 
   67500    2126.6251   -107.04685    1.9242151   -105.12264    21985.552    4.2749113    4.2749113    4.2749113    21985.552    29358.443    13799.497    22798.714   -12870.346   -4149.9691      23769.2    78.123434 
   67600    883.55628   -105.95395   0.79946029   -105.15449   -20487.759     4.280903     4.280903     4.280903   -20487.759   -996.77329    -66163.49    5696.9858    18126.136   -2290.8307    30084.312    78.452385 
   67700    2232.9066   -107.14319    2.0203808    -105.1228   -1872.3936    4.2759527    4.2759527    4.2759527   -1872.3936   -2975.5196   -19861.615    17219.954    10586.766    11333.227   -16262.496    78.180541 
   67800    836.99039   -105.90321    0.7573265   -105.14588    76.424895    4.2651865    4.2651865    4.2651865    76.424895    29036.769   -11429.247   -17378.248   -3020.4071    4146.1257    75327.612    77.591489 
   67900    2385.0266   -107.27718    2.1580222   -105.11915    6845.5659    4.2855654    4.2855654    4.2855654    6845.5659    27129.308    -4962.429   -1630.1808     16769.29   -8873.9504   -27823.954    78.708999 
   68000    1094.8068   -106.11676   0.99060419   -105.12615   -17499.443    4.2930519    4.2930519    4.2930519   -17499.443    43279.798   -54505.121   -41273.005   -9479.7308    13667.276    83215.415    79.122211 
   68100     1755.378   -106.70041    1.5883029   -105.11211     22863.89    4.2738187    4.2738187    4.2738187     22863.89    16983.332    19186.277    32422.061    12197.628   -4648.3458    3298.8439    78.063549 
   68200    1929.1762   -106.86599    1.7455591   -105.12043    24847.695    4.2550373    4.2550373    4.2550373    24847.695    64301.631    15326.018   -5084.5622    7199.8799    14500.719    29631.423    77.038907 
   68300    918.34211   -105.98982   0.83093524   -105.15889    13134.132    4.2596113    4.2596113    4.2596113    13134.132    76634.016   -28024.769   -9206.8509   -6958.8503    7497.5487     54144.67    77.287615 
   68400    2186.5391   -107.11717    1.9784266   -105.13874    3657.1862    4.2853155    4.2853155    4.2853155    3657.1862    3913.7847     6172.173    885.60083   -12441.652   -5767.2881   -4591.0771    78.695227 
   68500    970.53188   -106.01849   0.87815764   -105.14033   -18513.284    4.2945071    4.2945071    4.2945071   -18513.284    16846.615   -16311.263   -56075.204    3095.2725    8067.5768    72943.407    79.202699 
   68600     2242.947   -107.12881    2.0294656   -105.09934    3786.4527    4.2824624    4.2824624    4.2824624    3786.4527   -8826.8834    1430.1246    18756.117     2670.712    13674.866   -34861.484    78.538154 
   68700    1075.7996   -106.09013   0.97340613   -105.11672   -29442.389    4.2681708    4.2681708    4.2681708   -29442.389    55399.276   -76314.659   -67411.782   -15869.648   -11074.451    109147.19    77.754472 
   68800     2179.393   -107.08679    1.9719606   -105.11483    16350.013    4.2587422    4.2587422    4.2587422    16350.013   -10535.001    55441.766    4143.2742     7044.558   -21571.267   -13534.819    77.240317 
   68900    1183.4086   -106.21937     1.070773    -105.1486   -10152.241    4.2691664    4.2691664    4.2691664   -10152.241    56573.207   -31102.632   -55927.298   -13210.791    7965.9484    68770.965    77.808896 
   69000    1435.4726   -106.45032    1.2988458   -105.15148   -17386.016    4.2778367    4.2778367    4.2778367   -17386.016     6305.043   -13569.735   -44893.355    2717.8552   -14457.221    40070.875    78.283925 
   69100    1931.4589   -106.88743    1.7476246   -105.13981    -23722.01    4.2780497    4.2780497    4.2780497    -23722.01   -36382.258    18712.053   -53495.826     2827.718   -18916.017    12294.279    78.295624 
   69200    961.41734   -106.02465   0.86991061   -105.15474   -6446.7237    4.2686632    4.2686632    4.2686632   -6446.7237    45943.989    -11825.24    -53458.92   -14029.608    18464.789    87994.196    77.781387 
   69300     2221.332   -107.14908    2.0099079   -105.13917    23759.308      4.25227      4.25227      4.25227    23759.308     4832.449    40364.604     26080.87    16380.001   -26498.912   -34228.179    76.888699 
   69400    1021.8564   -106.09639   0.92459713   -105.17179    122.16865    4.2688825    4.2688825    4.2688825    122.16865    23061.259   -10643.907   -12050.846   -764.11709   -4475.1868    71143.204    77.793374 
   69500    1712.4737   -106.69531    1.5494822   -105.14583   -1056.0079     4.286175     4.286175     4.286175   -1056.0079   -24452.025    11759.441    9524.5602   -7823.3467    4283.1583    8872.0519    78.742589 
   69600    1162.4305   -106.20005    1.0517916   -105.14826    5622.3282    4.2790564    4.2790564    4.2790564    5622.3282   -18072.558    33204.229    1735.3139    -5014.668   -29859.331   -20540.395    78.350906 
   69700    1837.0042   -106.79723      1.66216   -105.13507        20005    4.2694066    4.2694066    4.2694066        20005    43025.233    37250.481   -20260.714   -7932.8274   -1482.9648    47481.609    77.822029 
   69800    1449.6852    -106.4583    1.3117056   -105.14659    5619.6017    4.2706182    4.2706182    4.2706182    5619.6017   -23941.658    43652.771   -2852.3084   -3098.8901    12682.352   -25307.774    77.888301 
   69900    1502.4002   -106.51934    1.3594032   -105.15994     1452.724    4.2742542    4.2742542    4.2742542     1452.724    15966.134    6278.3082    -17886.27    602.42131   -31339.826   -5681.9914    78.087416 
   70000    1805.0337   -106.78276    1.6332325   -105.14953   -9305.2236    4.2815575    4.2815575    4.2815575   -9305.2236    -27751.61     23710.74   -23874.801   -17016.715    47256.701    18042.364    78.488377 
   70100    1143.9275   -106.18873    1.0350496   -105.15368   -24955.325    4.2811969    4.2811969    4.2811969   -24955.325   -51312.906   -27273.993    3720.9233   -1502.9002   -2377.0238    -28515.62    78.468545 
   70200    1575.2842   -106.57114    1.4253502   -105.14579    949.35099    4.2577408    4.2577408    4.2577408    949.35099   -29443.901     37701.53    -5409.576   -7578.9816    14209.259   -14047.117    77.185842 
   70300    1502.0457   -106.51806    1.3590825   -105.15898    21785.265    4.2536656    4.2536656    4.2536656    21785.265    -49442.92    121008.56   -6209.8406    598.28164    72918.585   -6366.1048    76.964426 
   70400    1807.9087   -106.80602    1.6358338   -105.17018    2780.3061    4.2770979    4.2770979    4.2770979    2780.3061   -28938.751     24933.36     12346.31   -16330.294   -24333.439   -13984.691    78.243376 
   70500    672.63189   -105.77257   0.60861147   -105.16396   -19767.811    4.2968602    4.2968602    4.2968602   -19767.811   -88423.808    93707.564   -64587.188   -3892.0047    75275.484   -15328.765    79.332962 
   70600    2679.1306   -107.52293    2.4241336    -105.0988    -24870.91    4.2978879    4.2978879    4.2978879    -24870.91   -49349.198   -5306.0799   -19957.453    -9678.522   -20711.402    5443.4418    79.389898 
   70700      693.326   -105.76388   0.62733594   -105.13655   -22807.565    4.2730623    4.2730623    4.2730623   -22807.565   -40920.201   -5617.0301   -21885.464    10340.493    78485.759   -26480.458    78.022106 
   70800    1822.2361   -106.78099    1.6487975   -105.13219    43634.852     4.240393     4.240393     4.240393    43634.852    8750.6812    65755.925     56397.95   -25845.985    10920.033    4693.8245    76.246222 
   70900    2005.5884   -106.97329    1.8146985   -105.15859    3494.5263    4.2601961    4.2601961    4.2601961    3494.5263   -22181.096    32358.136    306.53895   -10082.045    23817.788    9755.9362    77.319452 
   71000    1052.7572   -106.12727   0.95255681   -105.17471   -22507.406    4.2759453    4.2759453    4.2759453   -22507.406   -51786.455     48030.78   -63766.544    10902.946    63475.539   -26159.343    78.180138 
   71100    1614.8277   -106.62302      1.46113   -105.16189    21412.295     4.272853     4.272853     4.272853    21412.295   -11992.456    65721.906    10507.436   -27577.669   -20750.737     5481.026    78.010645 
   71200    1501.7865   -106.52899     1.358848   -105.17014    -7858.799    4.2744335    4.2744335    4.2744335    -7858.799   -29598.133     55809.17   -49787.435    4554.2173    56821.323    9426.9608    78.097244 
   71300    2119.2252   -107.07573    1.9175195   -105.15821    29085.063    4.2507288    4.2507288    4.2507288    29085.063    6670.6136    95803.814   -15219.237     10483.48    1497.7262   -9658.3286    76.805126 
   71400    1160.7207   -106.24142    1.0502444   -105.19118   -3982.3217    4.2483205    4.2483205    4.2483205   -3982.3217     -23574.3   -7116.2703    18743.606   -22927.301    11840.224   -4203.1046    76.674652 
   71500    1699.9691   -106.72686    1.5381678   -105.18869   -29200.493    4.2745713    4.2745713    4.2745713   -29200.493   -37032.269   -1191.6357   -49377.575    9432.4272    43908.191    24524.834    78.104795 
   71600    1847.0448   -106.83784     1.671245    -105.1666   -34079.643    4.2800249    4.2800249    4.2800249   -34079.643   -61732.627   -7026.5137   -33479.787   -12789.837   -41811.683    11313.455     78.40412 
   71700    1625.0316   -106.63265    1.4703628   -105.16228   -22814.322    4.2723716    4.2723716    4.2723716   -22814.322   -47167.613   -42887.868    21612.514   -25866.012     26530.51   -13261.158    77.984281 
   71800     1596.899   -106.60895    1.4449078   -105.16404   -22752.863    4.2579151    4.2579151    4.2579151   -22752.863   -14424.345   -3666.1956   -50168.049    7289.0079   -27576.392    39942.305    77.195325 
   71900    1554.9296   -106.58791    1.4069329   -105.18098    5020.2176    4.2535701    4.2535701    4.2535701    5020.2176   -11464.498    36027.591     -9502.44    376.48756   -38131.101    13933.275    76.959245 
   72000    2036.5613   -107.02434    1.8427234   -105.18161   -12360.781    4.2655499    4.2655499    4.2655499   -12360.781   -4550.3902   -15106.614   -17425.338   -25727.647    24432.005   -41183.084    77.611324 
   72100    1149.1009   -106.22719    1.0397306   -105.18746   -7132.8005    4.2710003    4.2710003    4.2710003   -7132.8005   -8934.3368    18938.664   -31402.729     4925.398   -49440.531    52835.861    77.909208 
   72200    1930.0298   -106.91384    1.7463315   -105.16751    1316.1826     4.279291     4.279291     4.279291    1316.1826   -7079.9028     38100.43    -27071.98    4271.2381   -1379.0367   -6961.4383    78.363795 
   72300    2133.6131   -107.08793     1.930538   -105.15739   -10369.974    4.2703558    4.2703558    4.2703558   -10369.974    15770.172   -1355.5149    -45524.58   -12190.378   -15766.023   -11298.954    77.873949 
   72400    708.03148   -105.81504   0.64064176    -105.1744    21472.388    4.2523269    4.2523269    4.2523269    21472.388   -2712.6359    102022.27   -34892.474   -10440.014   -43704.953    51967.961    76.891784 
   72500    2460.8062   -107.39758    2.2265892   -105.17099    14601.325     4.265263     4.265263     4.265263    14601.325    7814.0568    33916.965    2072.9523    12387.498    12197.764   -7262.2551    77.595663 
   72600    1636.5833   -106.66621    1.4808149    -105.1854     9906.378    4.2699582    4.2699582    4.2699582     9906.378   -60.849765    64888.161   -35108.177   -3970.7042   -27616.171    21805.631    77.852198 
   72700    1137.7461   -106.22455    1.0294566   -105.19509   -6462.3945    4.2664913    4.2664913    4.2664913   -6462.3945   -30746.596    -12563.23    23922.643    3098.1156   -15426.005    47060.686    77.662718 
   72800    1864.1209   -106.86976    1.6866958   -105.18306    10954.436    4.2616556    4.2616556    4.2616556    10954.436    27489.004    -10442.19    15816.494    -186.4549    21860.927    -37433.75    77.398947 
   72900    1681.2182   -106.70512    1.5212015   -105.18392     17654.91    4.2554119    4.2554119    4.2554119     17654.91      31343.4    16461.776    5159.5536    -353.7759   -22517.369   -2467.6356    77.059257 
   73000    1602.8536   -106.63855    1.4502956   -105.18825   -14886.001    4.2712614    4.2712614    4.2712614   -14886.001   -31301.812   -18184.388    4828.1966   -9542.2349   -12417.934    28758.873    77.923502 
   73100    772.84358   -105.89389   0.69928512    -105.1946   -17148.189    4.2711577    4.2711577    4.2711577   -17148.189    28171.312   -66471.509   -13144.372   -16495.201    16801.162   -49420.285    77.917826 
   73200    1964.4577   -106.95796    1.7774826   -105.18048    15231.475    4.2547838    4.2547838    4.2547838    15231.475    17945.408    42044.054   -14295.036    8083.5905   -8001.3293   -5115.2964     77.02514 
   73300     1850.152   -106.86452    1.6740564   -105.19046    621.60559    4.2665582    4.2665582    4.2665582    621.60559   -5212.4351   -1685.0466    8762.2984   -12432.881   -6229.4772    8595.9666    77.666375 
   73400    956.48736   -106.04857   0.86544986   -105.18312   -32944.508     4.287215     4.287215     4.287215   -32944.508    -5473.107   -68487.665   -24872.752   -13742.213    19579.624   -54623.251    78.799921 
   73500    1999.8945   -106.96381    1.8095466   -105.15427   -667.61168    4.2763969    4.2763969    4.2763969   -667.61168    16741.763    16302.569   -35047.167   -210.02463    14571.057    46985.008    78.204908 
   73600    1723.7635   -106.70546    1.5596974   -105.14577    25936.405    4.2643006    4.2643006    4.2643006    25936.405    24992.723    44411.869    8404.6235   -23543.258   -8896.5776   -22370.493    77.543149 
   73700    1151.0603   -106.20122    1.0415035   -105.15972   -7945.2275    4.2787305    4.2787305    4.2787305   -7945.2275    12425.248   -24566.172   -11694.759   -17201.604    30908.558   -8655.7712    78.333009 
   73800     1509.156    -106.5178    1.3655161   -105.15229   -26789.312    4.2828581    4.2828581    4.2828581   -26789.312    24103.025   -46623.782   -57847.179   -1720.3765   -6373.0835    54523.419    78.559926 
   73900     2010.834   -106.97361    1.8194449   -105.15416    22964.416    4.2517515    4.2517515    4.2517515    22964.416    27175.246    61930.927   -20212.926   -1346.0023   -21723.266   -29264.424    76.860572 
   74000    1179.2414   -106.24431    1.0670024   -105.17731    23575.908    4.2463929    4.2463929    4.2463929    23575.908    19817.285     43925.66    6984.7784   -30054.218    41705.755    13458.714    76.570328 
   74100    1536.6612   -106.57495    1.3904033   -105.18454    -17458.29    4.2741067    4.2741067    4.2741067    -17458.29   -5118.1817   -15744.887   -31511.802    21497.237   -27584.432    21761.979     78.07933 
   74200    2012.3607   -106.98902    1.8208262   -105.16819   -18104.699    4.2789249    4.2789249    4.2789249   -18104.699   -58308.841    36061.293   -32066.549     6536.439    6702.4146   -10690.115    78.343685 
   74300    1429.9869   -106.47063    1.2938822   -105.17675    3989.3342    4.2608831    4.2608831    4.2608831    3989.3342   -16658.148    21955.732    6670.4185   -15848.744    45223.555     19526.03    77.356862 
   74400    1474.5573   -106.51107    1.3342104   -105.17686    8917.6954    4.2530986    4.2530986    4.2530986    8917.6954    20905.919   -19230.547    25077.714    29291.431   -25631.664    11289.712    76.933651 
   74500    1889.3029   -106.88549     1.709481   -105.17601   -4901.0053    4.2683596    4.2683596    4.2683596   -4901.0053   -37604.263    26957.414   -4056.1666    3692.1858    36871.404   -8889.9159    77.764789 
   74600    1316.6531   -106.36616    1.1913354   -105.17483    318.63219    4.2824609    4.2824609    4.2824609    318.63219    26283.936   -33564.947    8236.9072   -638.97434    26618.398    41147.311     78.53807 
   74700    2025.8976   -106.98212    1.8330747   -105.14904   -15023.587    4.2837489    4.2837489    4.2837489   -15023.587   -24779.436   -27389.932    7098.6072    28240.234   -14234.942   -2065.2154    78.608954 
   74800     1498.196   -106.51154    1.3555992   -105.15594   -6093.3189    4.2621316    4.2621316    4.2621316   -6093.3189   -14778.827     10662.07   -14163.199   -18124.478    38892.557    19489.827    77.424884 
   74900    1549.3074    -106.5643    1.4018459   -105.16245   -1017.3042    4.2413085    4.2413085    4.2413085   -1017.3042    33041.041   -35646.571   -446.38314    13572.924    11726.157    49917.672    76.295618 
   75000    1919.2249   -106.91767     1.736555   -105.18111   -5512.3711    4.2590736    4.2590736    4.2590736   -5512.3711   -23996.862   -28742.367    36202.116    30018.878   -1456.8335   -38576.504    77.258349 
   75100    1679.7102    -106.6906    1.5198371   -105.17077   -36043.374    4.2868074    4.2868074    4.2868074   -36043.374    2206.5116   -46805.073   -63531.561    -14728.36     23163.61    38109.643    78.777449 
   75200    1404.5485   -106.42572     1.270865   -105.15485   -13403.993    4.2835886    4.2835886    4.2835886   -13403.993     5343.946   -40017.445   -5538.4793     29634.68   -12530.565   -781.66639    78.600131 
   75300    1615.1729   -106.60858    1.4614424   -105.14713   -8886.9901    4.2653745    4.2653745    4.2653745   -8886.9901   -20239.215   -40559.142    34137.386    16600.763    5031.1307   -23899.128    77.601749 
   75400    2125.7141   -107.06653    1.9233908   -105.14313    34125.057    4.2488823    4.2488823    4.2488823    34125.057    61349.161    30160.253    10865.758   -22840.553     13691.51    24511.632    76.705075 
   75500    1396.8942   -106.42947    1.2639392   -105.16553    32450.372    4.2549131    4.2549131    4.2549131    32450.372    44362.526   -5588.2805    58576.871    58360.666   -16017.092   -35786.239    77.032161 
   75600    1499.3496   -106.52143     1.356643   -105.16478    334.96387    4.2782804    4.2782804    4.2782804    334.96387    -3369.853   -23375.103    27749.848   -31661.402    12500.663    1318.0473    78.308287 
   75700    1887.3896   -106.85621    1.7077498   -105.14846    4928.6919    4.2735378    4.2735378    4.2735378    4928.6919    25785.348    6185.3915   -17184.663    2604.2813   -3289.9426   -7135.9535    78.048155 
   75800    1090.9702   -106.14546   0.98713279   -105.15833    14395.829    4.2529403    4.2529403    4.2529403    14395.829    61485.134   -12867.253   -5430.3945    31406.678   -986.81784   -42421.076    76.925061 
   75900    2337.2764   -107.27562    2.1148168   -105.16081    14663.722    4.2575573    4.2575573    4.2575573    14663.722    3061.7552     3813.362    37116.049   -56422.833    12807.252   -2049.3586    77.175864 
   76000    1435.3013   -106.47204    1.2986908   -105.17335    1684.4377    4.2688301    4.2688301    4.2688301    1684.4377     67969.66   -24415.511   -38500.836    28006.265    5323.7153   -15088.436    77.790506 
   76100    1243.7621     -106.306    1.1253821   -105.18062   -22047.495     4.273576     4.273576     4.273576   -22047.495    20066.534   -33950.776   -52258.242    20150.094    -17671.47   -39855.105     78.05025 
   76200    2661.9029   -107.55794    2.4085457   -105.14939    7077.7749    4.2673883    4.2673883    4.2673883    7077.7749    16302.848    25435.352   -20504.876   -13594.264    6562.0017    8543.4276    77.711713 
   76300     680.2361   -105.79798   0.61549192   -105.18248     6199.807    4.2585836    4.2585836    4.2585836     6199.807    69909.466   -24577.757   -26732.288    39571.665    11223.973   -25308.113    77.231687 
   76400    2103.4782   -107.06886    1.9032713   -105.16559    5451.2366    4.2618926    4.2618926    4.2618926    5451.2366    25959.298    7572.5883   -17178.177      6670.21   -4362.3303    -16919.83    77.411861 
   76500    1679.6241   -106.68376    1.5197592     -105.164    2149.2472    4.2712121    4.2712121    4.2712121    2149.2472    3123.9047    10979.935   -7656.0982   -17678.751    8529.5491   -4380.3432    77.920803 
   76600    1576.1967   -106.58146    1.4261759   -105.15529   -624.71331    4.2793566    4.2793566    4.2793566   -624.71331    55015.816   -18946.667   -37943.289    42265.755    1150.4826   -29341.344    78.367399 
   76700    1547.7351   -106.53475    1.4004232   -105.13433    12756.636    4.2806915    4.2806915    4.2806915    12756.636   -4393.2923   -8018.3208    50681.521   -49696.713    17260.484    6019.3497    78.440757 
   76800     1321.882   -106.31986    1.1960666   -105.12379    8625.6566    4.2758807    4.2758807    4.2758807    8625.6566   -22462.272   -28220.236    76559.478    3918.0409    18909.659    3450.4287    78.176591 
   76900    1765.5659   -106.71914    1.5975212   -105.12162    3286.5614    4.2672656    4.2672656    4.2672656    3286.5614   -4080.1405   -33051.475      46991.3    14838.256    717.94531   -21131.253    77.705013 
   77000    1400.4696   -106.41144    1.2671743   -105.14426    3342.2497     4.261965     4.261965     4.261965    3342.2497   -28945.018   -8935.4266    47907.194   -64318.346    24092.106    5322.8072    77.415805 
   77100    1852.5083   -106.81638    1.6761884   -105.14019    15006.871    4.2673845    4.2673845    4.2673845    15006.871    4675.4361   -10555.175    50900.352    34810.296    20546.429    -3450.417    77.711507 
   77200    1207.1043   -106.24732    1.0922133    -105.1551   -3835.3833    4.2765877    4.2765877    4.2765877   -3835.3833    8640.6775   -74865.603    54718.775   -52570.818    437.14389    -20928.68    78.215377 
   77300     2011.792   -106.96246    1.8203117   -105.14215   -10758.779    4.2799222    4.2799222    4.2799222   -10758.779   -37184.697    24737.205   -19828.845   -10628.583    20286.961    1070.1474    78.398478 
   77400    1318.6712   -106.34448    1.1931614   -105.15132   -9538.3319    4.2707779    4.2707779    4.2707779   -9538.3319   -28506.832   -29268.026    29159.863   -7546.3383    -5008.882    -6427.528    77.897041 
   77500    1680.4491   -106.66853    1.5205056   -105.14802   -687.89576    4.2624805    4.2624805    4.2624805   -687.89576   -53161.274   -10368.031    61465.618   -52592.604   -1231.7092   -21867.754    77.443901 
   77600    2205.5541   -107.13443    1.9956317    -105.1388   -6905.9367    4.2791274    4.2791274    4.2791274   -6905.9367   -17182.415    8287.6148    -11823.01    18801.862    10767.272    12735.409     78.35481 
   77700    752.65572    -105.8447   0.68101871   -105.16369   -36209.988    4.2789502    4.2789502    4.2789502   -36209.988   -72895.348   -70809.354    35074.737    -63456.36   -4409.3615   -8595.5918    78.345075 
   77800    2237.1689    -107.1745    2.0242375   -105.15027    13030.284    4.2547103    4.2547103    4.2547103    13030.284    -18782.37    37910.522    19962.699    7279.2896   -14958.297    6699.9905    77.021146 
   77900    1501.7874   -106.52818    1.3588488   -105.16933    13493.706     4.244768     4.244768     4.244768    13493.706    -16410.53   -33619.943    90511.591   -42293.384   -6981.9809    17239.148    76.482467 
   78000    1262.1342   -106.33091    1.1420056    -105.1889    3182.4267    4.2568801    4.2568801    4.2568801    3182.4267   -13448.987   -42372.855    65369.122   -50474.503      537.206   -13390.884    77.139042 
   78100    2276.9867   -107.23096    2.0602654   -105.17069   -5083.4524     4.278404     4.278404     4.278404   -5083.4524    -22462.52   -9879.7202    17091.883    14543.941   -26157.537    4701.3924    78.315078 
   78200    795.12651   -105.89226   0.71944718   -105.17281    -53095.12    4.2924247    4.2924247    4.2924247    -53095.12   -86027.704   -104501.39    31243.731   -80091.383   -47.165007    2508.6697     79.08754 
   78300    2472.4964   -107.36751    2.2371667   -105.13034    19164.057    4.2652555    4.2652555    4.2652555    19164.057     26993.01    17146.812    13352.347    10686.787     8822.516   -3436.9294    77.595255 
   78400     1171.575   -106.20288    1.0600657   -105.14281    12956.061    4.2501184    4.2501184    4.2501184    12956.061   -25109.327   -6289.7206    70267.231   -50567.734   -12283.608    16882.775    76.772043 
   78500      1564.66    -106.5682    1.4157373   -105.15246   -22701.967    4.2741093    4.2741093    4.2741093   -22701.967   -40127.111   -21644.168   -6334.6209   -13092.861    10184.484    12681.685    78.079474 
   78600    2007.2944   -106.94833    1.8162422   -105.13209   -15055.426    4.2785571    4.2785571    4.2785571   -15055.426    -47190.73    16604.727   -14580.275   -19384.492    14510.565    856.53554    78.323485 
   78700    1212.2552   -106.24281     1.096874   -105.14593   -19080.119    4.2669057    4.2669057    4.2669057   -19080.119   -57054.852   -33980.786    33795.279   -50930.265    446.48467    20112.559    77.685352 
   78800    2103.6429    -107.0505    1.9034203   -105.14708    5067.8003    4.2623406    4.2623406    4.2623406    5067.8003   -5403.9663    13845.685    6761.6821    30510.216    9150.2689    2123.4263    77.436274 
   78900    1474.1125   -106.50626     1.333808   -105.17246   -11753.236    4.2581346    4.2581346    4.2581346   -11753.236   -43915.931   -1022.4182    9678.6408   -61915.835    6680.7246    2457.8946    77.207263 
   79000    1383.1489   -106.43347    1.2515022   -105.18197   -3558.0945    4.2574977    4.2574977    4.2574977   -3558.0945   -1073.8679   -19645.529    10045.114    16177.597   -9473.6806    27093.781    77.172625 
   79100    2187.3012   -107.14384    1.9791161   -105.16473   -18037.068    4.2709767    4.2709767    4.2709767   -18037.068   -22795.964    -34986.26    3671.0202    5425.5161   -10206.616   -5913.6695    77.907919 
   79200    1182.5399   -106.23229    1.0699869    -105.1623   -16509.116    4.2852255    4.2852255    4.2852255   -16509.116   -14354.555   -25736.781   -9436.0129   -57548.954    5631.2227   -1132.7001    78.690272 
   79300    2098.2402   -107.03315    1.8985318   -105.13462   -23102.152    4.2841545    4.2841545    4.2841545   -23102.152   -13468.563   -39492.588   -16345.305    36581.278   -9887.6082    25519.938    78.631286 
   79400    1257.3816   -106.29342    1.1377053   -105.15571   -2056.2869    4.2488815    4.2488815    4.2488815   -2056.2869   -38242.797   -51625.536    83699.473   -76851.498   -8553.6306   -13919.094     76.70503 
   79500    1648.2507    -106.6392    1.4913719   -105.14782    23919.471    4.2298082    4.2298082    4.2298082    23919.471    25202.562    1789.6973    44766.154   -12331.467    20650.217    21152.486    75.676671 
   79600    1634.5413   -106.65548    1.4789673   -105.17651    177.66127    4.2603573    4.2603573    4.2603573    177.66127   -357.95837   -24778.586    25669.528   -18107.858   -7578.6595    26059.418    77.328229 
   79700    1404.0003   -106.42799     1.270369   -105.15762   -15956.363    4.2904261    4.2904261    4.2904261   -15956.363   -43914.785   -66513.891    62559.586   -54376.881   -13245.827   -4334.6543    78.977119 
   79800    2033.3695   -106.95998    1.8398354   -105.12015   -4702.6688    4.2848772    4.2848772    4.2848772   -4702.6688     13385.58   -14352.562   -13141.025     18008.75    30793.695    29836.206    78.671085 
   79900    966.36531   -106.01087   0.87438764   -105.13648    760.02766     4.258397     4.258397     4.258397    760.02766    -24532.13   -3765.2875    30577.501    -92579.45   -18358.281    7025.6467    77.221539 
   80000    2589.7364   -107.46621    2.3432479   -105.12297    37556.148    4.2378944    4.2378944    4.2378944    37556.148     24456.11    59896.094     28316.24    19787.526    -5604.607    3938.6788    76.111519 
   80100    844.78213   -105.95109   0.76437663   -105.18672    9329.1806    4.2518811    4.2518811    4.2518811    9329.1806    2084.3937   -53094.727    78997.875   -69382.852    28301.062    18654.784    76.867602 
   80200    2072.3747   -107.03447    1.8751282   -105.15934   -32064.184    4.2868703    4.2868703    4.2868703   -32064.184    -34852.47   -38417.181   -22922.901   -25069.124    184.74591    11681.588    78.780916 
   80300     1780.877   -106.75644    1.6113749   -105.14506   -3074.6661    4.2792196    4.2792196    4.2792196   -3074.6661     30236.67   -42926.113    3465.4448   -16026.942    3135.9926   -6884.1097    78.359874 
   80400    1061.1417   -106.10045   0.96014327   -105.14031   -478.35627    4.2568907    4.2568907    4.2568907   -478.35627   -31612.147   -25943.958    56121.036   -56734.093    19041.938    28118.553    77.139621 
   80500    2420.1961   -107.31762    2.1898442   -105.12777    24283.407    4.2538585    4.2538585    4.2538585    24283.407    32501.497    13310.072    27038.652    10462.364    895.50668    7947.0948    76.974897 
   80600    1208.6575   -106.25773    1.0936187   -105.16411   -1202.7815    4.2666114    4.2666114    4.2666114   -1202.7815    -5697.361   -45766.527    47855.544   -75070.989   -1567.9458   -16182.444    77.669279 
   80700    1766.1706   -106.74572    1.5980683   -105.14765    2974.9776    4.2821945    4.2821945    4.2821945    2974.9776   -16490.898    11805.038    13610.792    27881.088    19229.517    24292.917    78.523414 
   80800    1192.2647   -106.23489    1.0787862    -105.1561   -22984.507    4.2748537    4.2748537    4.2748537   -22984.507   -48657.206   -59652.128    39355.815   -71097.086   -20892.868    2456.6741    78.120274 
   80900    1946.1957   -106.89228    1.7609588   -105.13133    29977.584     4.250802     4.250802     4.250802    29977.584    28732.626     -12703.8    73903.926     10285.26    3384.0017   -6399.7745    76.809091 
   81000    1460.6629   -106.47811    1.3216384   -105.15648    8284.7628      4.25707      4.25707      4.25707    8284.7628   -13621.766    19921.322    18554.732   -16456.916   -5926.9952    12644.843    77.149368 
   81100    1211.9723   -106.25989     1.096618   -105.16327   -33072.174    4.2777832    4.2777832    4.2777832   -33072.174   -61343.092   -51286.228    13412.797   -48541.288   -16340.009    10723.315    78.280989 
   81200    1649.3585   -106.64595    1.4923743   -105.15358   -7220.5353    4.2698643    4.2698643    4.2698643   -7220.5353    5598.5715   -39253.243    11993.066    70205.305    3333.4827   -10431.616     77.84706 
   81300    1679.6411   -106.67302    1.5197746   -105.15324    10646.635    4.2589582    4.2589582    4.2589582    10646.635    36251.451   -39146.128    34834.581   -57824.388   -8178.7572   -10169.112    77.252069 
   81400    1367.8582   -106.40186    1.2376668   -105.16419    12267.861    4.2556944    4.2556944    4.2556944    12267.861    6462.1734     -23489.4    53830.811    34857.753   -12952.002    24542.567    77.074606 
   81500    1650.3939   -106.65945    1.4933111   -105.16613    1098.8196    4.2753148    4.2753148    4.2753148    1098.8196    33399.299   -26878.664   -3224.1766    27738.973   -3050.3153   -26236.964    78.145559 
   81600    1817.7082   -106.77015    1.6447006   -105.12545   -49347.376    4.3006275    4.3006275    4.3006275   -49347.376   -14937.102   -87113.381   -45991.644   -3654.8077    4081.9953   -4616.1402    79.541813 
   81700    1025.4592   -106.05159   0.92785702   -105.12373   -21807.015    4.2786483    4.2786483    4.2786483   -21807.015   -19519.604    -69658.43     23756.99    63217.806    4514.0064    6672.7442    78.328494 
   81800    2147.1265    -107.0539    1.9427652   -105.11113     25810.26    4.2421612    4.2421612    4.2421612     25810.26    71451.635   -6.0924091    5985.2371   -29267.493    12324.952   -41656.292    76.341641 
   81900    1688.7239   -106.67869    1.5279929    -105.1507    21634.314    4.2356301    4.2356301    4.2356301    21634.314    42829.709   -19321.506    41394.739    44229.133    2983.8008    27829.352    75.989588 
   82000    1337.0493   -106.40753    1.2097903   -105.19774   -14387.472     4.257947     4.257947     4.257947   -14387.472   -1649.6363   -22963.207   -18549.571     38520.38   -6789.0172    12590.485    77.197057 
   82100    2105.9046   -107.08218    1.9054667   -105.17671   -23628.076    4.2814964    4.2814964    4.2814964   -23628.076   -31454.572   -31166.359    -8263.297   -34088.775    12042.334   -32846.542    78.485017 
   82200    712.20554    -105.8216   0.64441854   -105.17718   -20274.076    4.2770438    4.2770438    4.2770438   -20274.076   -29768.742   -51361.114    20307.628    29587.169   -3788.2842    39068.057    78.240407 
   82300    1769.2807   -106.75772    1.6008823   -105.15684    20146.322    4.2571561    4.2571561    4.2571561    20146.322    25020.049    41720.114   -6301.1978    1100.1665   -2042.9009    36084.088     77.15405 
   82400    2048.2062   -107.00411      1.85326   -105.15085     25213.83    4.2492561    4.2492561    4.2492561     25213.83   -21733.123    43759.197    53615.416    23066.437    6998.2702   -16090.779    76.725323 
   82500    1001.4884    -106.0877   0.90616776   -105.18153    -24517.54    4.2638963    4.2638963    4.2638963    -24517.54   -60685.507   -38397.717    25530.605    30169.552   -17482.274    46899.512    77.521094 
   82600    1575.7173   -106.59986    1.4257421   -105.17411   -19746.784    4.2672119    4.2672119    4.2672119   -19746.784    1350.1589   -10259.766   -50330.744   -8398.9092   -13243.514   -35207.165    77.702077 
   82700    1995.5703   -106.97885     1.805634   -105.17321    7873.7654    4.2541267    4.2541267    4.2541267    7873.7654    9184.0124    1389.3065    13047.977    7796.0435    5055.0874   -41605.379    76.989458 
   82800    1749.1622   -106.76626    1.5826787   -105.18359    21649.646    4.2523306    4.2523306    4.2523306    21649.646    8474.1263    30847.464    25627.348    12794.157   -13190.171    48025.241    76.891981 
   82900    879.43007   -105.99518   0.79572681   -105.19945    3608.7424    4.2597638    4.2597638    4.2597638    3608.7424    47931.345   -10259.354   -26845.764   -4948.3996   -24537.358   -66441.152    77.295915 
   83000    2289.0442   -107.24293    2.0711753   -105.17176    7986.5954    4.2701402    4.2701402    4.2701402    7986.5954   -17276.912    44330.008   -3093.3102    2039.9756    17724.172    11986.592    77.862149 
   83100    1438.8484    -106.4783    1.3019003    -105.1764   -12388.241    4.2689263    4.2689263    4.2689263   -12388.241   -226.59541    28714.445   -65652.572    4295.0359   -689.55745    -24102.88     77.79577 
   83200     889.9767   -105.98616   0.80526962    -105.1809   -177.67188    4.2533366    4.2533366    4.2533366   -177.67188    23191.471    1240.6517   -24965.139   -20189.513   -6640.1878   -45104.447    76.946569 
   83300    1987.7181   -106.96902    1.7985292   -105.17049   -1071.3882    4.2528724    4.2528724    4.2528724   -1071.3882   -54273.757    48102.414    2957.1786   -3520.4227    37562.093    28325.796    76.921377 
   83400      1519.17   -106.55401     1.374577   -105.17943   -23732.871    4.2602649    4.2602649    4.2602649   -23732.871    5951.2834   -19611.066   -57538.831    3896.6772   -10233.288   -68511.704    77.323197 
   83500    1653.5074   -106.67871    1.4961282   -105.18258    -8704.263    4.2561482    4.2561482    4.2561482    -8704.263    12396.097   -18500.076    -20008.81   -8370.5582   -17838.723   -18410.836    77.099263 
   83600    1810.2081   -106.81787    1.6379144   -105.17996   -4079.8221    4.2607624    4.2607624    4.2607624   -4079.8221   -20798.499   -12588.658    21147.691    1038.9689    43369.401    16570.012     77.35029 
   83700    1031.4712   -106.12221   0.93329685   -105.18891   -29326.128    4.2628828    4.2628828    4.2628828   -29326.128   -2178.7503    -21514.84   -64284.795   -592.11401   -35585.297   -55846.116    77.465829 
   83800     2061.062   -107.04632    1.8648922   -105.18142     2470.986      4.25662      4.25662      4.25662     2470.986   -11438.374    8792.2269    10059.105   -4271.5066   -24155.623    2022.2478    77.124904 
   83900    2051.7716   -107.03082     1.856486   -105.17434   -7168.8209    4.2661388    4.2661388    4.2661388   -7168.8209    -15635.96   -17720.627    11850.124   -8057.4946   -1998.1601   -8543.6958     77.64347 
   84000     711.8048   -105.83327   0.64405595   -105.18921   -10996.845    4.2660412    4.2660412    4.2660412   -10996.845    8364.1345    26640.494   -67995.163    4151.9907   -55580.118   -45825.723    77.638142 
   84100    2196.9354   -107.15427    1.9878334   -105.16644    10165.717    4.2536714    4.2536714    4.2536714    10165.717    11018.254    7793.8171     11685.08   -23816.498    11906.379    22980.747    76.964739 
   84200    1507.2126   -106.55334    1.3637576   -105.18958   -10460.142    4.2557293    4.2557293    4.2557293   -10460.142    6644.4721    -15342.89   -22682.007   -10717.696   -18170.103    1727.9847    77.076503 
   84300     1017.814    -106.1288   0.92093951   -105.20786   -14365.041    4.2529403    4.2529403    4.2529403   -14365.041    16759.752    3227.7096   -63082.586   -848.53199   -59174.015   -48896.689    76.925064 
   84400    2359.0193   -107.32593    2.1344902   -105.19144    31548.331    4.2498949    4.2498949    4.2498949    31548.331    62015.945    16646.388     15982.66    12902.784    16730.297    17608.978    76.759927 
   84500    1557.5499   -106.61839    1.4093039   -105.20909   -20592.248     4.263878     4.263878     4.263878   -20592.248   -29211.359    17057.098   -49622.483   -15628.153   -35388.234   -9308.1509    77.520097 
   84600    1004.4721   -106.11777   0.90886748    -105.2089   -1767.4501    4.2589047    4.2589047    4.2589047   -1767.4501    27731.019    26239.735   -59273.104    804.43105   -26443.097   -32638.193    77.249162 
   84700     1927.041   -106.93248    1.7436272   -105.18885    20030.133    4.2516585    4.2516585    4.2516585    20030.133    19736.941    11816.241    28537.218      26540.7    27222.686    19200.817    76.855529 
   84800    1804.4367   -106.82326    1.6326923   -105.19057    1106.9436    4.2590701    4.2590701    4.2590701    1106.9436    14296.868   -10909.957   -66.079626   -36174.351   -20871.384   -15831.272    77.258162 
   84900    1285.6357   -106.35899    1.1632702   -105.19572    10333.135    4.2584613    4.2584613    4.2584613    10333.135    49109.217   -22257.669    4147.8557    29523.974   -3747.8645    -33621.33    77.225036 
   85000    1689.0028   -106.71537    1.5282452   -105.18713    1722.5049    4.2654529    4.2654529    4.2654529    1722.5049    2336.2935    -1614.843    4446.0643    14631.278    15204.958    29309.573    77.606029 
   85100    1583.1042   -106.60689     1.432426   -105.17446   -29087.711    4.2739576    4.2739576    4.2739576   -29087.711    3221.8156    -64546.47   -25938.478   -34604.738   -2705.8795    -33225.57    78.071159 
   85200    1732.4677   -106.72872    1.5675732   -105.16115    -3421.513    4.2597702    4.2597702    4.2597702    -3421.513    17215.851    -43336.61    15856.221    31044.984    3309.5404   -42146.564    77.296267 
   85300    1932.7254   -106.91278    1.7487706   -105.16401    1149.0556    4.2548756    4.2548756    4.2548756    1149.0556    14923.175   -37762.794    26286.786   -9644.0678    4176.5135    42861.666    77.030123 
   85400    931.30144   -106.03362   0.84266111   -105.19096   -36889.682    4.2535172    4.2535172    4.2535172   -36889.682    42098.067   -107163.37   -45603.746   -19126.641   -859.66746   -74806.617     76.95637 
   85500    2247.2345   -107.21148     2.033345   -105.17813     28767.85    4.2515374    4.2515374    4.2515374     28767.85    7715.6883   -619.33934    79207.202    7523.7204   -13523.547     6815.277    76.848965 
   85600     1425.545     -106.484    1.2898631   -105.19413   -5809.2988    4.2626644    4.2626644    4.2626644   -5809.2988    21159.837   -51673.666    13085.933   -20143.998   -5571.0309   -32681.756    77.453922 
   85700    1132.8917   -106.21399    1.0250643   -105.18892   -5307.3148    4.2628758    4.2628758    4.2628758   -5307.3148    56060.136     -75186.5    3204.4196   -15740.883    7783.8602   -41163.345    77.465449 
   85800    2008.3365   -106.98766    1.8171851   -105.17047    14345.477    4.2603261    4.2603261    4.2603261    14345.477   -9327.2167    20559.133    31804.514    19535.123   -17797.653    26870.258    77.326533 
   85900    1214.3201    -106.2903    1.0987424   -105.19156   -12891.744    4.2536936    4.2536936    4.2536936   -12891.744    33566.726   -48879.595   -23362.361       1702.6   -10683.338   -78508.314    76.965945 
   86000    1989.3202   -106.98471    1.7999787   -105.18474    22721.365    4.2474535    4.2474535    4.2474535    22721.365    40191.369   -16699.831    44672.559   -20255.489    12299.559   -8768.4225    76.627719 
   86100    1707.3449    -106.7383    1.5448415   -105.19346   -25.306344    4.2623585    4.2623585    4.2623585   -25.306344    -34.76231    3210.4215   -3251.5782    27280.361    -17773.24   -5456.1457    77.437248 
   86200    1204.4242   -106.28638    1.0897883   -105.19659   -24221.297    4.2676279    4.2676279    4.2676279   -24221.297    11157.676   -24386.042   -59435.526    3392.2088   -27221.575   -68970.087    77.724802 
   86300    2457.5325   -107.38777    2.2236271   -105.16415    3789.8519    4.2662883    4.2662883    4.2662883    3789.8519   -7207.7838   -4415.1302     22992.47   -26406.179    8261.8995    17602.491    77.651636 
   86400    1036.1687    -106.1188   0.93754724   -105.18125   -32401.964    4.2727783    4.2727783    4.2727783   -32401.964   -6737.6659    -55040.34   -35427.887    25059.857   -2804.3271   -53318.782    78.006549 
   86500    1210.2886   -106.27923    1.0950945   -105.18413    -14173.62    4.2539583    4.2539583    4.2539583    -14173.62    10522.319   -8408.2638   -44634.915    6507.1501   -34621.393   -48237.512    76.980314 
   86600    2540.4204   -107.46291    2.2986258   -105.16429    14480.662    4.2405516    4.2405516    4.2405516    14480.662    26478.182   -6484.0994    23447.902   -17938.038   -3853.4559     21113.48    76.254776 
   86700    776.62324    -105.9094   0.70270503    -105.2067   -24486.749    4.2569816    4.2569816    4.2569816   -24486.749    43063.702   -71754.293   -44769.655    27389.216    923.42998   -60403.132    77.144562 
   86800    1521.1233   -106.57984    1.3763444    -105.2035   -15621.636    4.2641877    4.2641877    4.2641877   -15621.636    -8590.907   -6818.9061   -31455.095    4572.0311   -52816.615   -8998.4479    77.536989 
   86900    2171.6493   -107.15123    1.9649539   -105.18628    9640.9295    4.2628426    4.2628426    4.2628426    9640.9295    37492.186   -13169.822    4600.4248   -13983.886    625.53428   -12043.172    77.463639 
   87000    1376.4067   -106.43784    1.2454017   -105.19244   -8118.9526    4.2569485    4.2569485    4.2569485   -8118.9526    59049.121   -62065.537   -21340.442    25763.388   -7144.4436   -54032.846    77.142765 
   87100    1369.2215   -106.41939    1.2389004   -105.18049    23789.226     4.256391     4.256391     4.256391    23789.226    8302.0725    13837.243    49228.363    3132.6614   -40882.406    17776.437    77.112456 
   87200    1811.9092   -106.80686    1.6394535    -105.1674   -10225.074    4.2765492    4.2765492    4.2765492   -10225.074    28191.336   -66761.351    7894.7932   -8025.6095    20788.002   -41307.686    78.213268 
   87300     1401.832    -106.4282     1.268407    -105.1598   -21049.032    4.2769906    4.2769906    4.2769906   -21049.032   -7214.2129   -26715.246   -29217.637    7537.8561   -17877.302   -21497.546    78.237487 
   87400    1469.2518   -106.49358    1.3294099   -105.16417     15619.48     4.250578     4.250578     4.250578     15619.48    411.77852    1802.5633    44644.097   -5678.3691   -24061.537    16134.173    76.796951 
   87500    2722.4223   -107.62195    2.4633049   -105.15865    33650.097    4.2441688    4.2441688    4.2441688    33650.097    22772.265    17621.941    60556.086   -13009.253    14541.397   -12133.634    76.450081 
   87600    1172.7196   -106.27036    1.0611013   -105.20926    3960.2128     4.253633     4.253633     4.253633    3960.2128   -47975.689    47507.166    12349.162    13568.091   -34799.596    1083.1642    76.962655 
   87700    1010.5596   -106.12894   0.91437557   -105.21456   -6629.6605    4.2642574    4.2642574    4.2642574   -6629.6605   -2933.9179    -14480.29   -2474.7737   -13981.664    1870.3358    24380.172    77.540792 
   87800    2170.7386   -107.13954    1.9641299   -105.17541   -16439.611     4.276026     4.276026     4.276026   -16439.611   -15767.577   -39163.654     5612.398   -2242.7914    1385.9711   -38363.854    78.184562 
   87900    1303.4089   -106.35298    1.1793518   -105.17363   -25344.612    4.2687378    4.2687378    4.2687378   -25344.612   -62524.863   -3578.9669   -9930.0074    15770.119   -34959.064    3086.6099    77.785462 
   88000    1548.8761   -106.55958    1.4014556   -105.15813    17741.787    4.2501145    4.2501145    4.2501145    17741.787    19745.496   -9472.8265    42952.692   -11286.188    18924.855    8371.2714     76.77183 
   88100    1449.4471   -106.48558    1.3114902   -105.17409   -12953.862    4.2530312    4.2530312    4.2530312   -12953.862    24708.943   -65310.399    1739.8706    16079.345   -3343.1112   -55908.871    76.929995 
   88200    1951.0218    -106.9358    1.7653256   -105.17047   -2814.4816    4.2606581    4.2606581    4.2606581   -2814.4816   -42892.182   -5262.9076    39711.645    831.33332   -30765.352      15513.5     77.34461 
   88300    1174.2602   -106.25089    1.0624953   -105.18839   -31201.083    4.2679398    4.2679398    4.2679398   -31201.083    13043.614   -73924.744   -32722.119   -13733.717     14272.44   -47686.223    77.741849 
   88400    1452.8975   -106.49584    1.3146122   -105.18123   -27893.127    4.2655957    4.2655957    4.2655957   -27893.127    4634.2145   -74840.458   -13473.138    29326.862   -5225.7295   -15956.048    77.613824 
   88500    2217.6302   -107.17541    2.0065584   -105.16885    8957.3712    4.2478996    4.2478996    4.2478996    8957.3712    -30956.51   -19121.895    76950.518   -25514.262     1455.729    9766.2611    76.651868 
   88600    1312.8087   -106.38012    1.1878569   -105.19226   -17650.296    4.2502652    4.2502652    4.2502652   -17650.296    24137.035   -65040.232   -12047.692   -12952.257    7775.8585   -64056.211    76.779997 
   88700    1511.9761   -106.55748    1.3680677   -105.18941   -9749.0956    4.2622392    4.2622392    4.2622392   -9749.0956    25618.973   -56650.231    1783.9717    13865.985   -4676.2486    32459.206    77.430749 
   88800    1501.4597   -106.53633    1.3585523   -105.17778   -5125.5594    4.2701782    4.2701782    4.2701782   -5125.5594   -17501.667   -39516.685    41641.674   -44841.954   -4280.7833    2402.4781    77.864233 
   88900    1867.1953   -106.85551    1.6894776   -105.16603   -22962.813    4.2693798    4.2693798    4.2693798   -22962.813    20326.463    -42634.68   -46580.222    9870.2593    28845.204    -29746.26    77.820566 
   89000    1375.0512   -106.42911    1.2441752   -105.18493   -22152.406    4.2503481    4.2503481    4.2503481   -22152.406    7982.3901   -64575.391    -9864.216   -32671.988    3862.8472    30714.976    76.784488 
   89100    1544.3186   -106.58607     1.397332   -105.18874     13277.42    4.2368142    4.2368142    4.2368142     13277.42   -1415.6079    -15745.11    56992.978   -41829.743   -24501.005    4726.3682    76.053334 
   89200    1701.0164   -106.73842    1.5391154   -105.19931    4247.9196    4.2513849    4.2513849    4.2513849    4247.9196    5597.7955    31620.703    -24474.74    19800.872    39381.425   -5016.7853    76.840692 
   89300    1586.7851   -106.63349    1.4357565   -105.19774   -15135.385     4.267901     4.267901     4.267901   -15135.385    1927.7099   -31948.447   -15385.419   -27093.078    26053.668    19680.035    77.739728 
   89400    1738.2483   -106.74869    1.5728036   -105.17588   -20756.829     4.275651     4.275651     4.275651   -20756.829   -19852.933   -7598.1883   -34819.364   -11154.132   -42565.854   -5356.1006    78.163992 
   89500    796.23259   -105.90199   0.72044798   -105.18154   -27707.776    4.2686974    4.2686974    4.2686974   -27707.776   -45257.507     38111.43   -75977.252     23334.88    44738.547   -7538.1931    77.783253 
   89600    2382.6656   -107.31896    2.1558859   -105.16308    23446.094    4.2437455    4.2437455    4.2437455    23446.094    64059.633   -2316.6027    8595.2511    6210.9918    11220.833    10029.208    76.427206 
   89700    1688.8543   -106.71696    1.5281109   -105.18885    5603.5462    4.2448555    4.2448555    4.2448555    5603.5462    32223.229    41624.079    -57036.67   -9280.4165   -329.73349   -15726.875    76.487197 
   89800    836.28174   -105.96389   0.75668529   -105.20721   -30925.731    4.2640038    4.2640038    4.2640038   -30925.731   -47764.323    39996.241   -85009.111    22014.711    39007.012   -8677.8143     77.52696 
   89900     2173.109   -107.15038    1.9662747   -105.18411    8947.5484    4.2594176    4.2594176    4.2594176    8947.5484      58519.3   -34506.432     2829.777   -14958.349   -19307.573    8081.0029    77.277075 
   90000    1309.3841   -106.38057    1.1847583   -105.19581   -22273.173    4.2584833    4.2584833    4.2584833   -22273.173   -24295.666   -5462.5982   -37061.255   -19130.737    45626.386   -2202.2342    77.226231 
   90100    1649.6555   -106.68554    1.4926429   -105.19289   -3413.8808    4.2479653    4.2479653    4.2479653   -3413.8808    12358.047    29810.972   -52410.662    11994.379    6950.4308   -7695.8735    76.655421 
   90200    1949.0979   -106.95689    1.7635847   -105.19331    24283.387    4.2432912    4.2432912    4.2432912    24283.387    65340.999     -9008.75    16517.912   -33697.931   -23375.236    11131.335    76.402665 
   90300    1093.5233   -106.20487   0.98944287   -105.21543   -29132.805    4.2566576    4.2566576    4.2566576   -29132.805   -24784.461    -17172.48   -45441.474   -8388.1822    45860.832    9025.3386    77.126947 
   90400    1441.4492   -106.51382    1.3042535   -105.20956    -10424.83    4.2538863    4.2538863    4.2538863    -10424.83   -1215.7968    10208.542   -40267.234    13561.217    -18260.01   -13598.086    76.976407 
   90500    1957.3822    -106.9672    1.7710805   -105.19612    815.67408    4.2583248    4.2583248    4.2583248    815.67408    64163.648   -52212.475   -9504.1509    16951.974   -17987.615    32210.589    77.217611 
   90600    1634.3767   -106.67914    1.4788184   -105.20032     22.11457     4.252956     4.252956     4.252956     22.11457    40341.954   -11977.472   -28298.138     -2355.42     28022.41    13427.628    76.925917 
   90700     1680.348    -106.7161    1.5204142   -105.19569    22127.596    4.2450844    4.2450844    4.2450844    22127.596    33827.788    11208.503    21346.496    9787.4772    16843.823   -20078.639    76.499567 
   90800    1463.8221   -106.52496     1.324497   -105.20047   -29970.295    4.2661109    4.2661109    4.2661109   -29970.295    24359.999   -80671.326    -33599.56    13287.189   -20544.731    75241.711     77.64195 
   90900    1484.8693   -106.53632    1.3435409   -105.19278   -16487.027    4.2604518    4.2604518    4.2604518   -16487.027    1574.3024   -10720.361   -40315.021   -8493.9582    27676.779   -16434.861    77.333373 
   91000    1530.0029   -106.56872    1.3843788   -105.18434    15235.518    4.2465473    4.2465473    4.2465473    15235.518    27543.752     31595.01   -13432.208    11096.108    30576.324   -16443.524    76.578686 
   91100    1867.8113   -106.87534    1.6900349   -105.18531    -18506.29     4.263346     4.263346     4.263346    -18506.29    20321.653   -37195.864    -38644.66    13502.206   -13849.044    71528.886    77.491082 
   91200    1529.7461   -106.56793    1.3841464   -105.18378    10270.402    4.2580683    4.2580683    4.2580683    10270.402   -3117.1844    61229.194   -27300.804     7914.048    26117.832   -25384.303    77.203655 
   91300    1512.3894   -106.55521    1.3684417   -105.18677    11683.695    4.2535835    4.2535835    4.2535835    11683.695   -9721.9455    38175.203    6597.8278    5357.5356    27797.673   -15086.647    76.959968 
   91400     2044.159    -107.0333     1.849598    -105.1837   -13517.317    4.2596548    4.2596548    4.2596548   -13517.317   -18269.569   -35586.449    13304.068    23377.569   -25297.267    31935.079    77.289982 
   91500    1010.6285   -106.11992   0.91443787   -105.20548    9997.4277    4.2431647    4.2431647    4.2431647    9997.4277   -36578.606    44258.392    22312.497     1080.716      23988.6     -14215.5     76.39583 
   91600    1279.7622   -106.38373    1.1579557   -105.22577    9194.0442    4.2500895    4.2500895    4.2500895    9194.0442   -14054.021    25677.208    15958.946   -454.72757    23834.035   -29097.692    76.770475 
   91700    2508.3112   -107.46289    2.2695727   -105.19332    11142.854    4.2643605    4.2643605    4.2643605    11142.854    6941.2974   -25910.628    52397.893    4653.0045   -7570.6578    26838.633    77.546417 
   91800    1299.6879   -106.38735     1.175985   -105.21136    -8623.867    4.2592576    4.2592576    4.2592576    -8623.867   -36344.774    20137.058   -9663.8848   -7080.3062    38960.384   -18696.772    77.268363 
   91900     1394.516   -106.45859    1.2617874    -105.1968    -29171.17    4.2595605    4.2595605    4.2595605    -29171.17   -8904.0402    -24207.74    -54401.73   -226.31661   -5946.5818   -12443.834    77.284851 
   92000    1683.7845   -106.71817    1.5235236   -105.19464   -13585.154     4.251034     4.251034     4.251034   -13585.154    44220.657   -54030.299   -30945.818    3863.0754   -9336.9513    85990.188    76.821667 
   92100    2517.5403   -107.45759    2.2779234   -105.17966    26205.283    4.2445379    4.2445379    4.2445379    26205.283    12081.744    4849.1879    61684.917   -8455.6764    17075.017   -24761.457    76.470026 
   92200    1062.2417   -106.17704   0.96113863    -105.2159   -8242.8838    4.2571755    4.2571755    4.2571755   -8242.8838    26548.116   -33877.104   -17399.663   -3151.2969   -5614.3994    50134.879    77.155104 
   92300    1071.4552   -106.17793   0.96947519   -105.20846   -7496.6751    4.2674979    4.2674979    4.2674979   -7496.6751   -7477.5072   -14546.042    -466.4764    6054.7175    -24759.19    15251.248      77.7177 
   92400    1921.6184   -106.92685    1.7387207   -105.18813    5954.9264    4.2561336    4.2561336    4.2561336    5954.9264   -25922.953    11666.139    32121.594    12204.761    2171.2751   -6871.6084     77.09847 
   92500    1525.7358   -106.57179    1.3805179   -105.19128    35414.297    4.2379782    4.2379782    4.2379782    35414.297    26467.032    643.11446    79132.744   -8965.3927    4738.7543    64138.914    76.116037 
   92600    1896.7641    -106.9149     1.716232   -105.19867   -11287.566    4.2513754    4.2513754    4.2513754   -11287.566   -45934.914    22529.629   -10457.412   -4836.1405   -30661.341   -15414.558    76.840179 
   92700    1482.1778   -106.54223    1.3411056   -105.20113   -11859.763    4.2617301    4.2617301    4.2617301   -11859.763   -44863.264    32004.285   -22720.311    12979.301    28747.209   -898.12493    77.403007 
   92800    1616.5359   -106.65793    1.4626756   -105.19525    18403.008    4.2547148    4.2547148    4.2547148    18403.008    709.30296   -10112.535    64612.255   -23599.038    4027.8426    15752.515     77.02139 
   92900    1841.2632   -106.85185    1.6660136   -105.18583   -7643.4229    4.2606539    4.2606539    4.2606539   -7643.4229   -66305.827    52465.089   -9089.5302   -11270.304   -790.07165   -3522.7017    77.344379 
   93000    1407.2843   -106.46101    1.2733404   -105.18767   -6427.7974    4.2614941    4.2614941    4.2614941   -6427.7974   -50773.852    75277.959   -43787.499    1666.6201    45170.579    9354.9882    77.390146 
   93100    1965.3628    -106.9532    1.7783016    -105.1749    20954.068      4.25061      4.25061      4.25061    20954.068   -25550.523   -6095.1026     94507.83   -27832.912   -18264.932    10679.693    76.798683 
   93200    1356.9082   -106.41775    1.2277591   -105.18999   -12848.765    4.2506943    4.2506943    4.2506943   -12848.765   -82687.556    39257.896    4883.3655    7051.0644     54277.36   -474.81699    76.803251 
   93300    1257.1304   -106.34456     1.137478   -105.20709   -15470.228    4.2542014    4.2542014    4.2542014   -15470.228    -73779.25    69061.188   -41692.623    7930.5897   -14566.211    2450.9466    76.993512 
   93400    2473.6622   -107.42306    2.2382215   -105.18484    18327.204    4.2536677    4.2536677    4.2536677    18327.204   -3831.4684   -2056.2796    60869.359   -5587.9583   -21613.167   -5887.9168     76.96454 
   93500    1291.0437   -106.37451    1.1681634   -105.20634   -31307.334    4.2618376    4.2618376    4.2618376   -31307.334   -73035.425    7999.6651   -28886.241    15265.134    44602.407   -2912.8811    77.408861 
   93600    782.47098   -105.92475   0.70799619   -105.21675   -30172.155    4.2534448    4.2534448    4.2534448   -30172.155   -97551.419    49698.644   -42663.689    7381.2848   -51701.453    6004.9604    76.952442 
   93700    2242.5785   -107.22181    2.0291321   -105.19268    41983.041    4.2401657    4.2401657    4.2401657    41983.041    19949.252    27274.135    78725.736   -22075.385   -236.49261   -467.36507    76.233959 
   93800    1600.2779     -106.656    1.4479651   -105.20803     437.7833    4.2551994    4.2551994    4.2551994     437.7833   -35604.894    56786.593   -19868.349     305.9956    -20585.71    2145.0929    77.047711 
   93900    1476.1947   -106.53794     1.335692   -105.20225   -7334.5535    4.2618098    4.2618098    4.2618098   -7334.5535   -72703.544    54469.958   -3770.0748   -344.39404   -24172.798   -9167.3535    77.407347 
   94000     2019.172   -107.01555    1.8269892   -105.18856    31075.042    4.2495885    4.2495885    4.2495885    31075.042    5010.5288    37358.023    50856.574   -20307.929     19448.63    15921.857    76.743326 
   94100    1005.0514   -106.11543   0.90939164   -105.20604    -1962.721    4.2507625    4.2507625    4.2507625    -1962.721   -45870.654    59172.965   -19190.474    3777.1338   -52234.359    6652.7593    76.806953 
   94200    1608.4152   -106.65818    1.4553279   -105.20285   -10905.221    4.2552328    4.2552328    4.2552328   -10905.221    -74550.69    43889.721   -2054.6942    14297.305    18712.631   -10905.776    77.049524 
   94300    2212.7528   -107.19687    2.0021452   -105.19473    21429.666    4.2483466    4.2483466    4.2483466    21429.666   -10462.317    66993.163    7758.1538   -1247.7503    4357.3345    23390.255    76.676067 
   94400    1312.7777   -106.40161    1.1878289   -105.21378   -13829.601     4.251917     4.251917     4.251917   -13829.601   -32121.485    31509.694   -40877.012    3730.8848   -45777.559    4546.0689    76.869549 
   94500    1666.5367   -106.70717    1.5079175   -105.19925   -11878.554    4.2582789    4.2582789    4.2582789   -11878.554    -47553.21     5682.642    6234.9048    18750.853    17516.046   -6373.3275    77.215112 
   94600    1483.1437   -106.53508    1.3419796    -105.1931    5041.9962    4.2540302    4.2540302    4.2540302    5041.9962   -8062.0059    24671.676   -1483.6816   -14955.882   -7260.9221     19088.46    76.984218 
   94700    1394.6916   -106.46047    1.2619463   -105.19852   -10048.385      4.25232      4.25232      4.25232   -10048.385    3961.3858    27873.501   -61980.043    8246.3468   -27851.493   -16056.849     76.89141 
   94800    2175.1566   -107.15713    1.9681274     -105.189    26072.978    4.2462392    4.2462392    4.2462392    26072.978    6160.2398    61506.138    10552.557   -5377.5562    4506.7975   -15408.273    76.562019 
   94900    1604.8928   -106.66006    1.4521407   -105.20792   -5088.4046    4.2538337    4.2538337    4.2538337   -5088.4046   -6597.9081    15458.918   -24126.224   -15721.928   -9271.7851    13659.644    76.973549 
   95000    682.92298    -105.8348   0.61792307   -105.21688   -34788.793    4.2653943    4.2653943    4.2653943   -34788.793    17334.232   -44112.215   -77588.397    3606.0119    -20507.41   -37096.682    77.602829 
   95100    2234.7003   -107.20033    2.0220038   -105.17832    4963.4747    4.2546425    4.2546425    4.2546425    4963.4747   -34250.391    24203.597    24937.218    34496.205    14022.892    6775.3788    77.017467 
   95200     1475.011   -106.51484    1.3346209   -105.18022    -1087.656    4.2500357    4.2500357    4.2500357    -1087.656    8791.7004    10034.899   -22089.568   -11453.734   -3010.5703   -26288.078    76.767561 
   95300    1574.9094   -106.60523    1.4250111   -105.18022   -20234.487    4.2559578    4.2559578    4.2559578   -20234.487    900.92862       -28648   -32956.389    17208.102   -16602.441   -33458.937    77.088918 
   95400    1697.8901   -106.71491    1.5362867   -105.17862   -210.12954     4.253502     4.253502     4.253502   -210.12954   -62327.424     69092.19    -7395.155    37072.666    48786.346    16647.418    76.955545 
   95500    1305.1858   -106.36883    1.1809595   -105.18787   -27703.895    4.2601071    4.2601071    4.2601071   -27703.895   -14271.728   -8240.2592   -60599.698   -2739.1106    -4858.083   -45489.119    77.314608 
   95600    1871.7064   -106.86821    1.6935593   -105.17465   -20859.358    4.2632244    4.2632244    4.2632244   -20859.358   -22202.371   -9814.1982   -30561.505   -4192.0659   -16365.258   -20943.863    77.484453 
   95700    1347.6471    -106.3977    1.2193795   -105.17832   -17404.806    4.2561289    4.2561289    4.2561289   -17404.806   -57488.479    51831.869   -46557.809    22540.866    92258.639    3878.1706    77.098214 
   95800    1835.7169   -106.83158    1.6609953   -105.17059   -36.440496    4.2549222    4.2549222    4.2549222   -36.440496     33787.05     -26070.1   -7826.2714    2157.7797   -27686.384   -27026.292    77.032654 
   95900    1260.4739   -106.31558    1.1405033   -105.17507    -14966.04     4.265629     4.265629     4.265629    -14966.04   -37344.205    11384.886   -18938.801   -18741.647    48098.844   -4608.3038    77.615642 
   96000    1675.0617   -106.67602     1.515631   -105.16039   -12695.925    4.2703325    4.2703325    4.2703325   -12695.925   -36938.831    -11481.62    10332.676    24752.737    27952.696    -1902.386    77.872674 
   96100    1814.3826   -106.78924    1.6416915   -105.14755    2526.3667    4.2705783    4.2705783    4.2705783    2526.3667   -8880.6345   -20740.229    37199.964    9836.1266    3557.9389   -21704.454    77.886117 
   96200    1509.0079   -106.51193    1.3653821   -105.14655   -12489.597    4.2682173    4.2682173    4.2682173   -12489.597   -58627.809    65714.619   -44555.601   -4783.8824     75963.24    3235.3201    77.757013 
   96300    1825.7143    -106.7845    1.6519447   -105.13256    32909.431    4.2584665    4.2584665    4.2584665    32909.431    13500.024    5925.1601    79303.109    25689.266    -24608.17   -10547.072     77.22532 
   96400    1115.0221   -106.16261    1.0088954   -105.15372    5929.5683    4.2733814    4.2733814    4.2733814    5929.5683   -24324.033    53802.917   -11690.179   -597.90398    61020.796   -25797.127    78.039589 
   96500    2065.6931   -106.99209    1.8690826     -105.123   -11448.727    4.2838149    4.2838149    4.2838149   -11448.727   -29260.101    4941.0887   -10027.168    9147.8539    4251.8473    14819.667     78.61259 
   96600    1468.3544   -106.45353    1.3285979   -105.12494   -3236.5959    4.2654745    4.2654745    4.2654745   -3236.5959    4023.3593   -35786.679    22053.532    31541.455    21868.178   -24915.995    77.607209 
   96700    1731.8316   -106.70337    1.5669976   -105.13637    3242.5788    4.2570062    4.2570062    4.2570062    3242.5788   -1194.0735     29648.37    -18726.56    -23034.09    57144.532   -18670.344    77.145902 
   96800    2053.9585   -107.00498    1.8584648   -105.14651    -3164.151    4.2582268    4.2582268    4.2582268    -3164.151    14488.635   -39497.025    15515.937     39326.24   -18143.672    18917.591    77.212279 
   96900    1239.1963   -106.29596    1.1212508   -105.17471    5886.6033    4.2494939    4.2494939    4.2494939    5886.6033    40262.389   -21280.624   -1321.9558    4649.6873    50377.858   -37349.898    76.738201 
   97000     1649.545   -106.67727     1.492543   -105.18472    -4970.091    4.2628535    4.2628535    4.2628535    -4970.091     18665.13     7287.784   -40863.187   -6676.5082    12429.788    873.26383    77.464231 
   97100    1960.8437   -106.94013    1.7742126   -105.16591   -518.58829     4.269615     4.269615     4.269615   -518.58829    43644.456   -36807.977   -8392.2445    29008.627   -15049.405    4934.3152    77.833428 
   97200    1088.4729   -106.16003   0.98487313   -105.17516   -10290.771    4.2560213    4.2560213    4.2560213   -10290.771    22455.913    5823.2287   -59151.456   -2426.4815    67299.486   -50188.831    77.092369 
   97300    2058.7188   -107.03028     1.862772   -105.16751    877.09954     4.256137     4.256137     4.256137    877.09954    5973.3287     8885.709   -12227.739   -16262.578   -21600.285      15147.9    77.098656 
   97400     1501.564   -106.53919    1.3586467   -105.18054    -5043.789    4.2538706    4.2538706    4.2538706    -5043.789    46588.499   -20113.933   -41605.933   -5302.4416    10764.963   -29809.398    76.975556 
   97500    1032.2219   -106.13068   0.93397606    -105.1967   -26904.059    4.2506638    4.2506638    4.2506638   -26904.059   -1006.7022   -11466.559   -68238.915    15279.862    70944.971   -39190.225      76.8016 
   97600    2314.8272   -107.27966    2.0945043   -105.18516   -9857.9856    4.2602388    4.2602388    4.2602388   -9857.9856   -22054.661   -28678.451    21159.155    -35190.61   -31038.051    24621.422    77.321776 
   97700    974.57102   -106.07236   0.88181234   -105.19055   -18168.591    4.2644107    4.2644107    4.2644107   -18168.591    -6590.718    -12929.18   -34985.875   -29790.236    39988.902   -40693.363    77.549156 
   97800    1590.9492   -106.61254    1.4395242   -105.17302   -6323.9007    4.2560974    4.2560974    4.2560974   -6323.9007    3103.4586    16672.731   -38747.892    11917.415    32577.801   -16275.193      77.0965 
   97900    2044.9812   -107.01593     1.850342   -105.16559   -13140.204    4.2615338    4.2615338    4.2615338   -13140.204   -10715.251   -28158.194   -547.16662   -24844.589   -16893.368    17585.021     77.39231 
   98000    764.77195   -105.87307   0.69198174   -105.18109   -20190.359    4.2627613    4.2627613    4.2627613   -20190.359    11476.552   -7867.4395    -64180.19   -19223.538    60884.573   -43431.719    77.459207 
   98100    2264.2695   -107.20945    2.0487586   -105.16069    19603.069    4.2549483    4.2549483    4.2549483    19603.069    43611.053    26813.131   -11614.976   -1381.6842   -12686.296    561.88565    77.034073 
   98200     1741.454   -106.74889    1.5757042   -105.17319   -20842.193    4.2687661    4.2687661    4.2687661   -20842.193   -21076.219   -22842.969    -18607.39   -13035.674    28441.783   -1913.4733    77.787011 
   98300    603.90409   -105.73258   0.54642511   -105.18615   -38895.551    4.2701644    4.2701644    4.2701644   -38895.551   -7721.2229   -38206.605   -70758.825   -21434.173    42497.444   -50826.401    77.863478 
   98400    2549.5725   -107.46707    2.3069068   -105.16017    34273.262     4.248977     4.248977     4.248977    34273.262    66666.291    13314.218    22839.278    11656.135   -30335.613     7778.736    76.710205 
   98500    1456.0119   -106.51187    1.3174301   -105.19444   -9812.4364     4.248424     4.248424     4.248424   -9812.4364    1289.4587    19385.679   -50112.446   -195.85623    54260.218   -16067.259    76.680256 
   98600    1131.4457   -106.23321    1.0237558   -105.20945   -33159.018    4.2486378    4.2486378    4.2486378   -33159.018   -13106.795   -38882.161   -47488.097   -19257.155    20846.467   -57529.272    76.691833 
   98700     2398.871   -107.35994    2.1705489   -105.18939    10729.803    4.2558364    4.2558364    4.2558364    10729.803     -4490.26   -2340.5842    39020.253    9084.1702   -17010.444    22933.782    77.082317 
   98800    829.07374   -105.94892   0.75016334   -105.19875   -43783.448    4.2748386    4.2748386    4.2748386   -43783.448   -24179.165    -6047.196   -101123.98    4488.6937    53476.309   -41775.212    78.119448 
   98900    1562.4587   -106.58901    1.4137454   -105.17527   -14612.948    4.2614578    4.2614578    4.2614578   -14612.948    5070.0517   -17068.464   -31840.432   -15239.249    14831.902    -28897.21    77.388167 
   99000    2190.7283   -107.13892     1.982217    -105.1567    22070.706    4.2479532    4.2479532    4.2479532    22070.706    5318.0258    41841.207    19052.884    14297.571   -14154.339   -7106.1465    76.654767 
   99100     664.5929   -105.78486   0.60133763   -105.18352   -27390.601    4.2609218    4.2609218    4.2609218   -27390.601   -7717.9634   -9416.0501   -65037.788    12320.609    56343.096   -74452.005    77.358974 
   99200     2595.037     -107.501    2.3480441   -105.15295    1967.9427    4.2617981    4.2617981    4.2617981    1967.9427    21019.911   -7141.6946   -7974.3882   -13125.561   -8028.8169    10847.358    77.406709 
   99300    1034.2492   -106.11609   0.93581037   -105.18028   -19565.786    4.2650964    4.2650964    4.2650964   -19565.786   -16175.139    -29699.93   -12822.289    20254.646    22008.017   -41981.239     77.58657 
   99400    1263.8302   -106.32754    1.1435402     -105.184   -32317.614    4.2664791    4.2664791    4.2664791   -32317.614    837.67606   -22366.025   -75424.492   -5649.3624    43262.262   -46985.665    77.662051 
   99500    2487.0643   -107.40909    2.2503481   -105.15875    34185.477     4.242898     4.242898     4.242898    34185.477     42244.74    11738.048    48573.644   -19192.678   -17235.554    16581.704    76.381428 
   99600    1030.5468   -106.12283   0.93246037   -105.19037    -1871.731    4.2385035    4.2385035    4.2385035    -1871.731    12003.934    29130.753    -46749.88    26522.118    38919.534    -52799.99    76.144343 
   99700    1670.3787   -106.69215    1.5113938   -105.18075    -8284.087    4.2615432    4.2615432    4.2615432    -8284.087     1720.077    -12668.49   -13903.848   -15589.236    30432.375   -1260.1093    77.392821 
   99800    1960.8238   -106.93727    1.7741946   -105.16308    -2333.306    4.2709108    4.2709108    4.2709108    -2333.306    10727.682   -23721.624    5994.0237   -18513.619   -10134.787   -4731.1913    77.904313 
   99900    1003.9574   -106.07334   0.90840178   -105.16494    -12955.45    4.2706335    4.2706335    4.2706335    -12955.45   -6518.4081    28266.809    -60614.75    21671.931    58343.497   -38472.508    77.889139 
  100000    2360.5777   -107.28098    2.1359003   -105.14508    7215.5453    4.2526249    4.2526249    4.2526249    7215.5453   -16245.201    11794.295    26097.542   -26943.588   -2495.4005      19682.4    76.907947 
Loop time of 22.8976 on 1 procs for 100000 steps with 8 atoms

Pair  time (%) = 7.39312 (32.2877)
Kspce time (%) = 5.35595 (23.3909)
Neigh time (%) = 0.220563 (0.963257)
Comm  time (%) = 1.1684 (5.10273)
Outpt time (%) = 0.0264807 (0.115648)
Other time (%) = 8.7331 (38.1398)

Nlocal:    8 ave 8 max 8 min
Histogram: 1 0 0 0 0 0 0 0 0 0
Nghost:    2189 ave 2189 max 2189 min
Histogram: 1 0 0 0 0 0 0 0 0 0
Neighs:    2349 ave 2349 max 2349 min
Histogram: 1 0 0 0 0 0 0 0 0 0

Total # of neighbors = 2349
Ave neighs/atom = 293.625
Neighbor list builds = 2521
Dangerous builds = 0
unfix 20
unfix 21
print "seeds:2042416"
seeds:2042416
