LAMMPS (10 Feb 2015)
# ---- initialize simulations
clear
units metal
dimension 3
boundary p p p
atom_style charge
atom_modify map array
# ---- create atoms
read_data /Users/eugeneragasa/pyflamestk_git/pypospack/tests/tests_integration/workflow/WorkflowLammpsThermalExpansion/param_5262/MgO_NaCl_unit.npt.T1700/lammps.structure
  triclinic box = (0 0 0) to (4.2565 4.2565 4.2565) with tilt (0 0 0)
  1 by 1 by 1 MPI processor grid
  reading atoms ...
  8 atoms
# ---- define interatomic potential
include potential.mod
mass 1 24.305
mass 2 15.999

group Mg type 1
4 atoms in group Mg
group O type 2
4 atoms in group O

set group Mg charge 1.695400086
  4 settings made for charge
set group O charge -1.695400086
  4 settings made for charge

variable R_cut equal 10.0

pair_style buck/coul/long ${R_cut}
pair_style buck/coul/long 10
pair_coeff 1 1 0.0 0.5 0.0 ${R_cut}
pair_coeff 1 1 0.0 0.5 0.0 10
pair_coeff 1 2 1303.37543516 0.290482854228 0.0 ${R_cut}
pair_coeff 1 2 1303.37543516 0.290482854228 0.0 10
pair_coeff 2 2 9936.88636401 0.22003654812 26.9596347598 ${R_cut}
pair_coeff 2 2 9936.88636401 0.22003654812 26.9596347598 10

kspace_style pppm 1.0e-5

neighbor 1.0 bin
neigh_modify every 1 delay 0 check yes
# ---- define settings
compute eng all pe/atom
compute eatoms all reduce sum c_eng
# ---- run minimization
reset_timestep 0
fix 1 all box/relax iso 0.0 vmax 0.001
thermo 10
thermo_style custom step pe lx ly lz xy xz yz press pxx pyy pzz pxy pxz pyz c_eatoms
min_style cg
minimize 1e-25 1e-25 5000 10000
PPPM initialization ...
  G vector (1/distance) = 0.353118
  grid = 8 8 8
  stencil order = 5
  estimated absolute RMS force accuracy = 4.08652e-05
  estimated relative force accuracy = 2.83793e-06
  using double precision FFTs
  3d grid and FFT values/proc = 3375 512
Neighbor list info ...
  1 neighbor list requests
  update every 1 steps, delay 0 steps, check yes
  master list distance cutoff = 11
Memory usage per processor = 4.06549 Mbytes
Step PotEng Lx Ly Lz Xy Xz Yz Press Pxx Pyy Pzz Pxy Pxz Pyz eatoms 
       0   -115.99413       4.2565       4.2565       4.2565            0            0            0    97842.713    97842.713    97842.713    97842.713 -3.9648682e-11 -1.4130262e-10 -2.4072873e-11   -115.99413 
      10   -116.09248     4.299065     4.299065     4.299065            0            0            0    39915.456    39915.456    39915.456    39915.456 -6.718901e-11 1.6759609e-10 -1.4910019e-10   -116.09248 
      20   -116.11494    4.3319944    4.3319944    4.3319944            0            0            0    7.4200549    7.4200549    7.4200549    7.4200549 -9.9303313e-12 -1.50322e-10 -3.7717238e-11   -116.11494 
      22   -116.11494    4.3320008    4.3320008    4.3320008            0            0            0  0.022500426  0.022500427  0.022500425  0.022500427 -1.5011423e-10 -9.5142159e-11 1.463096e-10   -116.11494 
Loop time of 0.014123 on 1 procs for 22 steps with 8 atoms

Minimization stats:
  Stopping criterion = linesearch alpha is zero
  Energy initial, next-to-last, final = 
        -115.994127563     -116.114943198     -116.114943198
  Force two-norm initial, final = 14.1285 3.9258e-05
  Force max component initial, final = 14.1285 8.20487e-06
  Final line search alpha, max atom move = 0.5 4.10243e-06
  Iterations, force evaluations = 22 41

Pair  time (%) = 0.00370288 (26.2189)
Kspce time (%) = 0.00228667 (16.1912)
Neigh time (%) = 0 (0)
Comm  time (%) = 0.000420094 (2.97454)
Outpt time (%) = 2.7895e-05 (0.197515)
Other time (%) = 0.00768542 (54.4179)

Nlocal:    8 ave 8 max 8 min
Histogram: 1 0 0 0 0 0 0 0 0 0
Nghost:    2189 ave 2189 max 2189 min
Histogram: 1 0 0 0 0 0 0 0 0 0
Neighs:    2344 ave 2344 max 2344 min
Histogram: 1 0 0 0 0 0 0 0 0 0

Total # of neighbors = 2344
Ave neighs/atom = 293
Neighbor list builds = 0
Dangerous builds = 0
unfix 1
# ---- define output variables ----
variable natoms equal "count(all)"
variable tot_energy equal "c_eatoms"
variable length_x equal "lx"
variable length_y equal "ly"
variable length_z equal "lz"
variable tilt_xy equal "xy"
variable tilt_xz equal "xz"
variable tilt_yz equal "yz"
variable tot_press equal "press"
variable press_xx equal "pxx"
variable press_yy equal "pyy"
variable press_zz equal "pzz"
variable press_xy equal "pxy"
variable press_xz equal "pxz"
variable press_yz equal "pyz"

# ---- output ----
print "pypospack:output_section:begin"
pypospack:output_section:begin
print "tot_energy = ${tot_energy}"
tot_energy = -116.114943197766
print "num_atoms = ${natoms}"
num_atoms = 8
print "xx = ${length_x}"
xx = 4.33200077919323
print "yy = ${length_y}"
yy = 4.33200077919323
print "zz = ${length_z}"
zz = 4.33200077919323
print "xy = ${tilt_xy}"
xy = 0
print "xz = ${tilt_xz}"
xz = 0
print "yz = ${tilt_yz}"
yz = 0
print "tot_press = ${tot_press}"
tot_press = 0.0225004262556315
print "pxx = ${press_xx}"
pxx = 0.0225004265502418
print "pyy = ${press_yy}"
pyy = 0.0225004253807009
print "pzz = ${press_zz}"
pzz = 0.0225004268359518
print "pxy = ${press_xy}"
pxy = -1.50114228566484e-10
print "pxz = ${press_xz}"
pxz = -9.5142158828828e-11
print "pyz = ${press_yz}"
pyz = 1.46309599907844e-10
print "pypospack:output_section:done"
pypospack:output_section:done
print "pypospack:lammps_sim:done"
pypospack:lammps_sim:done
#------------------------------------------------------------------------------
# RUN THERMOSTAT
# running using an NPT Nose-Hoover style thermostat
#------------------------------------------------------------------------------
variable tempdamp equal 0.1
variable pressdamp equal 1.0
# set initial velocities
velocity all create 1700 2741988 mom yes dist gaussian loop all
# fix for Nose-Hoover style thermostat
fix 20 all npt temp 1700 1700 0.1 aniso 0.0 0.0 1.0 drag 1.0 couple xyz
variable boxx equal lx
variable boxy equal ly
variable boxz equal lz
variable boxp equal press
variable boxt equal temp
# calculate averages every 10000 steps
reset_timestep 0
fix 21 all ave/time 10 10 100 v_boxx v_boxy v_boxz v_boxp v_boxt file lattice.out
thermo_style custom step temp pe ke etotal press lx ly lz press pxx pyy pzz pxy pxz pyz vol
thermo_modify flush yes
thermo 100
run 100000
PPPM initialization ...
  G vector (1/distance) = 0.352343
  grid = 8 8 8
  stencil order = 5
  estimated absolute RMS force accuracy = 4.23631e-05
  estimated relative force accuracy = 2.94196e-06
  using double precision FFTs
  3d grid and FFT values/proc = 3375 512
Memory usage per processor = 3.06549 Mbytes
Step Temp PotEng KinEng TotEng Press Lx Ly Lz Press Pxx Pyy Pzz Pxy Pxz Pyz Volume 
       0         1700   -116.11495    1.5381957   -114.57676    20207.943    4.3320008    4.3320008    4.3320008    20207.943    11135.074    24989.443    24499.311    8559.0327    2737.5212    12064.734    81.295326 
     100    797.53261   -115.11337   0.72162426   -114.39174    35870.099     4.365762     4.365762     4.365762    35870.099    13991.458    76878.639      16740.2   -828.74055    2165.5909   -22729.879    83.210891 
     200    1391.3524   -115.23313    1.2589249   -113.97421   -39022.391    4.4184452    4.4184452    4.4184452   -39022.391   -50831.036   -15832.456   -50403.681   -7723.2734   -7670.5428    8542.1116    86.259796 
     300    1494.9451   -114.94746    1.3526577    -113.5948   -21978.901    4.4186302    4.4186302    4.4186302   -21978.901   -49469.775    8583.9697   -25050.897   -10337.121   -5981.8425    15734.627    86.270632 
     400    1060.1912   -114.24607   0.95928329   -113.28679    27325.467    4.3871804    4.3871804    4.3871804    27325.467    11140.225     40560.73    30275.446   -408.49922    9759.8976    12868.805    84.441606 
     500    1071.2673   -114.08939   0.96930512   -113.12008    25465.925    4.3923579    4.3923579    4.3923579    25465.925    21950.729    65668.272   -11221.224    12892.384    8852.2711   -2001.5602    84.740917 
     600    1572.3289   -114.47674    1.4226762   -113.05407   -21417.369    4.4279999    4.4279999    4.4279999   -21417.369   -43909.021   -20668.211    325.12396    1572.2884   -7372.0964   -22415.041    86.820605 
     700    1906.5803   -114.72793    1.7251139   -113.00281    -47891.06    4.4436789    4.4436789    4.4436789    -47891.06   -47764.442   -36524.642   -59384.097    1765.2201    3062.8386    11832.943     87.74614 
     800    1869.3098   -114.67562    1.6913908   -112.98423     25819.15    4.4212993    4.4212993    4.4212993     25819.15   -24114.873    58830.093     42742.23   -4175.9616   -14428.123     10332.68    86.427058 
     900    1376.6343   -114.25588    1.2456076   -113.01027    32048.067    4.4000246    4.4000246    4.4000246    32048.067   -41255.296    55175.002    82224.495    2888.3943    7121.4408    30252.449     85.18543 
    1000    1727.2026   -114.61405    1.5628092   -113.05124    11967.691    4.4012335    4.4012335    4.4012335    11967.691   -47224.073    64821.518    18305.628    11184.975     3472.082     4228.759    85.255661 
    1100     2476.867     -115.316    2.2411213   -113.07488   -24478.715    4.4258206    4.4258206    4.4258206   -24478.715   -41700.333   -17127.831   -14607.983     19.32586    3803.3038    -23523.88    86.692476 
    1200    1134.2987   -114.07196    1.0263373   -113.04562   -8762.7845    4.4355134    4.4355134    4.4355134   -8762.7845   -58397.145   -2357.3704    34466.161    14187.361    12877.434    5962.0649    87.263312 
    1300    1965.9754   -114.79464    1.7788559   -113.01578   -17956.475    4.4071872    4.4071872    4.4071872   -17956.475   -36158.138    19094.276   -36805.563   -1038.5464    10125.859   -11327.786    85.602113 
    1400     2240.823    -115.0368    2.0275437   -113.00926    3169.1229    4.3894605    4.3894605    4.3894605    3169.1229   -21508.743    29746.406    1269.7051    3158.9315   -10110.301    17380.947    84.573333 
    1500      1343.56   -114.26736    1.2156813   -113.05168    15158.634    4.4118875    4.4118875    4.4118875    15158.634   -51191.694    27602.959    69064.639    15173.179    17359.266    4093.9062    85.876294 
    1600    1627.0177   -114.49255    1.4721598   -113.02039   -26497.596     4.432991     4.432991     4.432991   -26497.596   -43967.474   -3747.9249   -31777.389    3614.8529   -13023.444    8688.8403    87.114518 
    1700    1466.1276   -114.32503     1.326583   -112.99845    5817.7125    4.4192525    4.4192525    4.4192525    5817.7125   -54922.264    54593.146    17782.255    11065.942    12968.942   -14971.971    86.307083 
    1800    1782.6132   -114.61965    1.6129459    -113.0067   -24758.369    4.4102443    4.4102443    4.4102443   -24758.369   -62930.578   -7585.8498   -3758.6794   -1931.6204    672.78898   -9680.5762    85.780373 
    1900    2060.7728   -114.88518    1.8646306   -113.02055   -21024.617    4.4091969    4.4091969    4.4091969   -21024.617   -32729.955    1422.7667   -31766.661   -12601.082    -1417.383    6712.6775    85.719274 
    2000     1222.962   -114.13816    1.1065618    -113.0316    37438.077    4.4151566    4.4151566    4.4151566    37438.077   -36876.296    125150.65    24039.874    15405.593    18655.841    4927.1597    86.067331 
    2100    1281.6548   -114.19913    1.1596682   -113.03946    20124.226    4.4294344    4.4294344    4.4294344    20124.226   -36686.681    71366.907    25692.452     402.0638    194.78493   -1045.0254    86.905013 
    2200    1808.0385   -114.66064    1.6359513   -113.02469    12182.581    4.4166091    4.4166091    4.4166091    12182.581   -76222.279     53491.91    59278.111   -216.08704    8530.4395   -23252.526      86.1523 
    2300    2092.7758   -114.94021    1.8935875   -113.04662    39.360118    4.3983134    4.3983134    4.3983134    39.360118   -47233.253    54223.932   -6872.5982    14937.736    18793.832    25466.142    85.086079 
    2400    2393.9761   -115.22415    2.1661199   -113.05803    5763.9878    4.4055753    4.4055753    4.4055753    5763.9878   -47643.874    2754.1464    62181.691   -8103.0964   -11588.934   -11467.494    85.508223 
    2500     1111.642   -114.06095    1.0058371   -113.05511   -15417.908    4.4284069    4.4284069    4.4284069   -15417.908   -83138.894    16753.355    20131.814    10895.295    10493.982   -2223.3346    86.844548 
    2600    1813.3728   -114.64586    1.6407778   -113.00508   -23056.857    4.4146657    4.4146657    4.4146657   -23056.857    -64342.59   -16778.097    11950.116    7144.3747   -5700.7354    26669.137    86.038626 
    2700    1824.6614   -114.63636     1.650992   -112.98537     9495.741    4.4030398    4.4030398    4.4030398     9495.741   -18847.448   -1570.3279    48904.999   -7150.1796     1226.681   -18756.681    85.360674 
    2800    891.69197   -113.81565   0.80682163   -113.00883    14976.579     4.413184     4.413184     4.413184    14976.579   -45024.236    17851.679    72102.295    -8.332451    6002.3289   -10259.678    85.952024 
    2900    2109.2146   -114.90533    1.9084617   -112.99687   -32462.121    4.4218765    4.4218765    4.4218765   -32462.121   -57004.427   -35791.709   -4590.2257    6822.7301   -1059.9314   -7862.0766    86.460914 
    3000    1805.1469   -114.62589    1.6333349   -112.99256   -12483.448    4.4243435    4.4243435    4.4243435   -12483.448   -53346.011    19915.207   -4019.5392   -634.80253   -10755.785   -18545.107    86.605706 
    3100    1736.5405    -114.5511    1.5712584   -112.97984    22350.211    4.4172053    4.4172053    4.4172053    22350.211   -42006.747   -3041.8011    112099.18     1086.319   -872.01962    9430.0851    86.187198 
    3200    2302.7402   -115.06994    2.0835677   -112.98637   -18894.398    4.4182748    4.4182748    4.4182748   -18894.398    -71996.46   -28634.674    43947.941   -6589.1634   -17659.779    18582.416    86.249815 
    3300    1438.6929   -114.31449    1.3017595   -113.01273    11176.031    4.4173991    4.4173991    4.4173991    11176.031   -66871.999   -5785.9539    106186.05   -651.39899   -7287.0319    7728.3032     86.19854 
    3400    1973.6068   -114.80534    1.7857609   -113.01958    -24384.35    4.4179316    4.4179316    4.4179316    -24384.35   -74900.487   -57227.682    58975.119    9680.5225    11399.767   -2075.1693    86.229719 
    3500    1918.7302   -114.76052    1.7361074   -113.02441   -13874.434    4.4172152    4.4172152    4.4172152   -13874.434   -60048.858   -27314.031    45739.585   -6602.1609   -7892.5797   -3251.7355    86.187777 
    3600    1997.3414   -114.83219    1.8072364   -113.02495   -5793.8516    4.4114483    4.4114483    4.4114483   -5793.8516   -34487.414   -42891.977    59997.836    2157.2264   -3161.6934    537.20804    85.850647 
    3700    1888.0375   -114.74322     1.708336   -113.03489    16260.093     4.408605     4.408605     4.408605    16260.093   -40654.642    29723.776    59711.145     8583.311    3258.1143    15294.596    85.684756 
    3800    2164.8581   -115.00051    1.9588091    -113.0417     -2044.49    4.4120061    4.4120061    4.4120061     -2044.49   -60840.516    2300.2349    52406.811   -10897.827   -12742.884   -9417.6668    85.883219 
    3900    1188.8118   -114.11409    1.0756619   -113.03842    14638.351    4.4268089    4.4268089    4.4268089    14638.351   -68288.785    43962.391    68241.447   -359.28903   -19580.694   -5537.8524    86.750568 
    4000    1904.1599   -114.73009    1.7229239   -113.00717   -39072.839     4.431152     4.431152     4.431152   -39072.839   -72684.346   -50062.565    5528.3933   -4469.7474    5726.4855    6049.5772    87.006149 
    4100    1367.1364   -114.22678    1.2370137   -112.98977   -10768.648    4.4188574    4.4188574    4.4188574   -10768.648   -70420.357    32666.547    5447.8649   -3334.1979   -12462.609    1456.5797    86.283941 
    4200    1649.0282   -114.47342    1.4920753   -112.98135    43787.268    4.3972282    4.3972282    4.3972282    43787.268   -7288.8673   -9702.4614    148353.13    1054.4561   -11909.961   -29047.108    85.023115 
    4300    1461.3769   -114.37187    1.3222845   -113.04958    16502.692    4.4177344    4.4177344    4.4177344    16502.692   -26751.769    28130.223    48129.623   -662.75519   -7176.0196    12643.824     86.21817 
    4400    2123.9716   -114.94892    1.9218142    -113.0271    -29207.76    4.4434707    4.4434707    4.4434707    -29207.76   -66545.465   -48234.877    27157.062    1438.9131   -663.92679    9044.1998    87.733806 
    4500    2036.1493   -114.84088    1.8423507   -112.99853   -20560.949    4.4324287    4.4324287    4.4324287   -20560.949   -47254.585    12031.492   -26459.755   -2936.5356   -3614.2285     10643.17    87.081375 
    4600    1949.0946   -114.73549    1.7635818   -112.97191    36338.002    4.3994426    4.3994426    4.3994426    36338.002   -30000.287   -2738.8305    141753.12    1180.6045   -4620.3872   -1395.7604    85.151628 
    4700    1334.7906   -114.22128    1.2077466   -113.01354    12062.697    4.4037816    4.4037816    4.4037816    12062.697    -14858.51    22027.951    29018.651    18562.417   -23529.102    7810.0483    85.403826 
    4800    1448.6892   -114.35953    1.3108045   -113.04872    5280.6973    4.4332596    4.4332596    4.4332596    5280.6973    -25375.34    36518.829    4698.6034   -8078.5703   -14964.263    22977.223    87.130355 
    4900    1566.4121   -114.41211    1.4173226   -112.99479   -29526.185    4.4546568    4.4546568    4.4546568   -29526.185   -67844.177   -60877.956    40143.577   -2730.9145   -6097.3473     8.164677    88.398065 
    5000    1462.5652   -114.29294    1.3233597   -112.96958   -30671.109    4.4185967    4.4185967    4.4185967   -30671.109   -34443.848   -30508.273   -27061.205    1933.6762   -8173.1792    17683.235    86.268666 
    5100    1921.3895   -114.69057    1.7385136   -112.95205    44422.309    4.3815747    4.3815747    4.3815747    44422.309    7058.3885    4592.6437    121615.89   -7250.0658    13694.934    10739.127    84.118332 
    5200    2230.1419   -115.05342    2.0178792   -113.03554   -11933.755    4.4223625    4.4223625    4.4223625   -11933.755   -26316.216   -7564.9264   -1920.1222    3860.0841   -7372.6148    -19640.46    86.489425 
    5300    1264.5579   -114.15564    1.1441985   -113.01144     12171.69    4.4379151    4.4379151    4.4379151     12171.69   -8801.8013   -33428.751    78745.622   -5105.3213   -3351.1051    13066.192     87.40514 
    5400    2352.6286   -115.09758    2.1287078   -112.96888   -31005.534    4.4165959    4.4165959    4.4165959   -31005.534   -18798.548   -53794.092   -20423.963   0.51379096    -3315.874    7687.9862    86.151528 
    5500     1450.552   -114.28198      1.31249   -112.96949    13430.161     4.412064     4.412064     4.412064    13430.161    28078.152    28330.674   -16118.344    1209.6825   -4510.4249   -11968.595      85.8866 
    5600    1191.2954   -114.06218    1.0779091   -112.98427     6150.343    4.4240697    4.4240697    4.4240697     6150.343   -16425.907   -5447.5434    40324.479   -1280.1736    2060.9762    49838.228    86.589632 
    5700     1377.703   -114.23062    1.2465746   -112.98404   -19000.836    4.4267213    4.4267213    4.4267213   -19000.836   -27861.232   -12473.601   -16667.675    4068.2415   -1159.5665    6009.0245    86.745417 
    5800    2162.0846   -114.95154    1.9562996   -112.99524   -22447.612    4.4262572    4.4262572    4.4262572   -22447.612   -36525.381   -32351.131    1533.6756   -12234.551   -8.1036854    7145.5822    86.718137 
    5900    1647.5193   -114.51004    1.4907101   -113.01933    6853.6568     4.431594     4.431594     4.431594    6853.6568    -61515.65    72257.944    9818.6766   -2948.6391    324.99451    3358.4517    87.032189 
    6000    1491.8995   -114.37781     1.349902    -113.0279   -7185.5945    4.4361448    4.4361448    4.4361448   -7185.5945   -43986.384   -19346.192    41775.792   -4104.9148    3977.1216    29029.237    87.300584 
    6100    1892.3171   -114.70874    1.7122083   -112.99653    3380.9125    4.4347944    4.4347944    4.4347944    3380.9125   -40269.942    57556.948   -7144.2692   -11617.005   -13248.608   -4182.7082    87.220881 
    6200     2302.695   -115.07781    2.0835269   -112.99428   -44652.027    4.4321119    4.4321119    4.4321119   -44652.027   -45365.049   -41374.061   -47216.969   -11181.649    6602.8926    189.72619    87.062705 
    6300    1374.7376   -114.26037    1.2438915   -113.01648    12585.903    4.4296826    4.4296826    4.4296826    12585.903   -18424.507    1008.3222    55173.895    -2055.453   -15883.229    3056.8195     86.91962 
    6400    1412.2953   -114.28837    1.2778744    -113.0105    914.09193    4.4434703    4.4434703    4.4434703    914.09193   -29461.508    50798.682   -18594.899   -8293.1203    4397.7449   -11882.054    87.733782 
    6500    1715.3752   -114.52382    1.5521076   -112.97172   -7057.3723    4.4420567    4.4420567    4.4420567   -7057.3723    3751.8196    30580.856   -55504.793   -536.87983    1623.2838    14730.599    87.650074 
    6600     1358.495   -114.19817    1.2291948   -112.96897    29104.703    4.4337439    4.4337439    4.4337439    29104.703    19354.165    24189.132    43770.812   -12700.834   -1579.0498   -19847.873    87.158915 
    6700     1967.155    -114.7561    1.7799232   -112.97618    5484.7901    4.4411674    4.4411674    4.4411674    5484.7901    33913.181    -27533.28    10074.469   -15253.872   -8055.6282    17308.037    87.597442 
    6800    1877.4404   -114.66447    1.6987476   -112.96573   -44340.174    4.4490926    4.4490926    4.4490926   -44340.174   -53785.177   -84919.275      5683.93    4808.5315   -6171.1356    12241.795     88.06723 
    6900    1167.4294   -113.99162    1.0563146    -112.9353    11380.986     4.431357     4.431357     4.431357    11380.986    45172.361   -69075.729    58046.328    18458.389   -2368.0242   -16679.912    87.018224 
    7000    1882.0793   -114.65467    1.7029449   -112.95173   -19236.627    4.4306457    4.4306457    4.4306457   -19236.627   -19066.675   -42712.934    4069.7278   -10936.769    7670.8792    19632.318    86.976329 
    7100    1155.0325   -114.02459    1.0450977   -112.97949   -12374.525    4.4446581    4.4446581    4.4446581   -12374.525   -2036.4277     25770.13   -60857.278      -4456.6     21248.71    26305.816    87.804158 
    7200     1701.148   -114.50037    1.5392344   -112.96114    10957.543    4.4398949    4.4398949    4.4398949    10957.543   -6080.5799    6966.1444    31987.065   -5340.8091    25541.572   -16089.098    87.522169 
    7300    1343.0675   -114.19088    1.2152357   -112.97564     2913.226    4.4384137    4.4384137    4.4384137     2913.226   -39431.509   -53514.459    101685.65    10919.841   -7344.1596    19246.663    87.434605 
    7400    1578.5838   -114.42048    1.4283358   -112.99215    10392.605    4.4251523    4.4251523    4.4251523    10392.605    22889.632   -40955.434    49243.618    9389.5434   -26346.846    121.97319    86.653214 
    7500    2207.9392   -114.99139    1.9977898    -112.9936   -22106.177    4.4291216    4.4291216    4.4291216   -22106.177   -49568.057   -45265.694    28515.219   -1705.4721    9048.2098    10372.146    86.886602 
    7600    1674.6891   -114.49077    1.5152939   -112.97548   -19776.516    4.4493275    4.4493275    4.4493275   -19776.516    -19546.66    -84572.44    44789.553    2592.9487    11451.132    8418.4886    88.081181 
    7700    2007.7869   -114.75249    1.8166878    -112.9358   -28368.871    4.4477727    4.4477727    4.4477727   -28368.871   -15982.828   -65536.104   -3587.6803   -2534.3456   -26892.507    15710.685    87.988874 
    7800    1246.2595    -114.0638    1.1276418   -112.93616    37570.481    4.4262038    4.4262038    4.4262038    37570.481    102711.99   -17148.831    27148.286   -13305.496   -10861.862   -7085.3575    86.714997 
    7900    2254.9731   -115.00865    2.0403471    -112.9683   -21138.583    4.4245395    4.4245395    4.4245395   -21138.583   -14529.465   -10111.615   -38774.669   -12009.961    17958.568   -11231.099    86.617221 
    8000    1245.6486   -114.14171     1.127089   -113.01462   -1292.4898    4.4437649    4.4437649    4.4437649   -1292.4898    68739.285   -95264.173    22647.418    2406.4034   -106.32545   -447.08776    87.751233 
    8100    1590.3229   -114.41406    1.4389576    -112.9751   -7373.7026    4.4458312    4.4458312    4.4458312   -7373.7026   -11345.709   -72158.096    61382.697    1372.9106    16961.431    489.28075    87.873702 
    8200     1781.394   -114.55315    1.6118428    -112.9413     6893.099    4.4370247    4.4370247    4.4370247     6893.099    70597.305   -24130.332   -25787.676   -7175.1466     9993.301   -19633.956    87.352538 
    8300    1718.2637   -114.49465    1.5547211   -112.93993    23323.521    4.4319293    4.4319293    4.4319293    23323.521   -4078.5366   -32191.081    106240.18    7275.3778   -23284.349   -530.23638    87.051943 
    8400    1552.1803    -114.3874    1.4044453   -112.98295    863.99705    4.4287214    4.4287214    4.4287214    863.99705    69369.857   -45450.068   -21327.798     -10272.4   -7357.4271    15387.791    86.863051 
    8500     1221.952   -114.10914    1.1056478   -113.00349    5757.5941    4.4251645    4.4251645    4.4251645    5757.5941   -32019.751    26685.908    22606.625   -11251.895   -11512.309   -14437.666    86.653928 
    8600    2333.4908   -115.08849    2.1113915    -112.9771    -14849.14    4.4132738    4.4132738    4.4132738    -14849.14   -14741.782    -13064.34   -16741.299   -8611.8344   -3281.0238   -5966.7268    85.957272 
    8700    1212.3999   -114.10184    1.0970049   -113.00484    25261.367    4.4237907    4.4237907    4.4237907    25261.367    30607.851    42190.981    2985.2697    1506.6354    15137.075   -10080.726     86.57325 
    8800    1399.4464   -114.26274    1.2662486   -112.99649   -28997.431    4.4477197    4.4477197    4.4477197   -28997.431    4896.2602   -43356.453   -48532.099    19827.863   -2026.4588    3712.2185    87.985726 
    8900    2270.2625   -114.99327    2.0541812   -112.93909   -26925.688    4.4345718    4.4345718    4.4345718   -26925.688   -10775.774   -29066.506   -40934.783   -4570.7179    9048.2422   -488.98014    87.207746 
    9000     2441.466   -115.13733    2.2090898   -112.92824   -20806.419    4.4249244    4.4249244    4.4249244   -20806.419   -12299.949     10870.41   -60989.718    3925.6979    10442.098   -22648.644    86.639824 
    9100    2052.1437   -114.81092    1.8568227   -112.95409   -16038.036     4.439829     4.439829     4.439829   -16038.036   -29404.723    9270.9985   -27980.383    5214.4648     17479.31    -9100.905    87.518269 
    9200    1911.3664    -114.6855    1.7294445   -112.95606   -18177.103    4.4451298    4.4451298    4.4451298   -18177.103   -25814.765   -51434.894    22718.351   -19269.872   -439.67688    2099.8374    87.832113 
    9300    1940.4736   -114.69171    1.7557813   -112.93593   -23889.921    4.4320682    4.4320682    4.4320682   -23889.921   -47535.719   -18990.028   -5144.0163   -5190.1538   -17230.605     8463.437     87.06013 
    9400    1590.9885   -114.38053    1.4395598   -112.94097    25355.306    4.4173613    4.4173613    4.4173613    25355.306    14085.486    22994.971    38985.461    16967.598   -7343.7446    4698.9963    86.196327 
    9500    1288.7568   -114.14079    1.1660943    -112.9747   -2321.1638    4.4307676    4.4307676    4.4307676   -2321.1638    -37947.18   -2888.7694    33872.458   -2488.9083    4165.9144    16798.506    86.983505 
    9600    1900.5432   -114.68981    1.7196514   -112.97016   -41308.102     4.436761     4.436761     4.436761   -41308.102   -41144.057   -15402.995   -67377.253     9264.945    9123.4619    6965.3451    87.336969 
    9700    1729.9316   -114.52571    1.5652785   -112.96044    18566.694     4.431732     4.431732     4.431732    18566.694   -47750.398    69264.347    34186.132    21240.169   -11052.479    4914.8456    87.040318 
    9800     1084.986   -113.93657   0.98171818   -112.95485    11143.942    4.4327259    4.4327259    4.4327259    11143.942   -5302.7961    6255.8419    32478.781   -38720.439   -20108.578   -13707.137    87.098893 
    9900    1905.9997   -114.65445    1.7245886   -112.92986    3919.4586    4.4160178    4.4160178    4.4160178    3919.4586   -11015.957    40492.619   -17718.286   -6243.9714    17757.923   -11124.849    86.117706 
   10000    2002.6842   -114.76879    1.8120707   -112.95671    23667.641    4.4106844    4.4106844    4.4106844    23667.641    55359.781    58504.682    -42861.54    34839.007   -3419.0711   -19832.318    85.806055 
   10100    1460.4445   -114.31296    1.3214409   -112.99152    24428.484    4.4236782    4.4236782    4.4236782    24428.484    34253.476    37762.559    1269.4159    10516.422    2011.1137   -16693.111    86.566643 
   10200    1346.4773   -114.21789    1.2183209   -112.99957    4542.5299    4.4466788    4.4466788    4.4466788    4542.5299    27272.388   -10712.701   -2932.0965   -8906.8423    16484.715   -9874.9114     87.92397 
   10300    1607.5816   -114.41227    1.4545736   -112.95769   -29930.878    4.4384155    4.4384155    4.4384155   -29930.878     -57781.5    22751.068   -54762.203    15783.025   -2240.6092    1737.1014    87.434711 
   10400     1347.108    -114.1533    1.2188917   -112.93441    32990.435    4.3817372    4.3817372    4.3817372    32990.435    79760.055   -7200.8621    26412.111   -950.43148   -9030.3205    954.91397    84.127693 
   10500    1924.0642   -114.72028    1.7409337   -112.97934    22673.209    4.3758467    4.3758467    4.3758467    22673.209    29703.844   -25004.276    63320.058   -30687.231    3706.6184   -5574.0847    83.788863 
   10600    1574.4912   -114.45485    1.4246327   -113.03022    3428.4094    4.4251144    4.4251144    4.4251144    3428.4094    70832.339   -13638.015   -46909.096    27703.223    5911.5802    3571.7965    86.650985 
   10700    2069.9097   -114.85044    1.8728978   -112.97755   -32970.844    4.4396202    4.4396202    4.4396202   -32970.844   -2291.8483   -50152.903    -46467.78   -16357.321    3674.2431    10821.373    87.505927 
   10800    1999.2316    -114.7516    1.8089468   -112.94266   -21505.479    4.4214382    4.4214382    4.4214382   -21505.479    14061.201   -52761.184   -25816.453   -9631.8169    6874.0547     17667.56    86.435207 
   10900    1368.1936    -114.1778    1.2379703   -112.93983    53618.361    4.4009896    4.4009896    4.4009896    53618.361    85080.696    58695.052    17079.335   -5323.6188    5738.1941     4898.111     85.24149 
   11000    1500.0864   -114.33296    1.3573097   -112.97565    13671.483     4.410006     4.410006     4.410006    13671.483   -13074.067    26376.852    27711.666   -25965.552    5251.7951     23203.78    85.766474 
   11100    963.10891   -113.85764   0.87144118    -112.9862   -11151.505    4.4387152    4.4387152    4.4387152   -11151.505   -72013.162    9432.8025    29125.845   -16172.533   -1810.1753    13910.259    87.452419 
   11200    1506.2532   -114.30782    1.3628895   -112.94493    3878.8064    4.4327477    4.4327477    4.4327477    3878.8064    24960.636   -580.45073   -12743.766   -15813.073    1681.3331    6484.3879    87.100176 
   11300    1281.3945   -114.08489    1.1594327   -112.92545    59250.405    4.4170191    4.4170191    4.4170191    59250.405    77374.906    108036.25   -7659.9411   -46044.348   -6252.2856     4822.708    86.176296 
   11400    2324.8786   -115.03996     2.103599   -112.93636   -17034.635    4.4293524    4.4293524    4.4293524   -17034.635   -4405.5993   -12942.441   -33755.863     22977.44    8550.0034    1440.7993    86.900186 
   11500    1908.3234   -114.64862    1.7266911   -112.92193   -3793.1705    4.4250705    4.4250705    4.4250705   -3793.1705    8204.7291    17699.693   -37283.934   -8873.6547   -426.46399   -11479.489    86.648409 
   11600    1486.1418   -114.27484    1.3446923   -112.93015    36428.145    4.4137004    4.4137004    4.4137004    36428.145    49715.358    14370.919    45198.158   -44972.065     -16651.6    -19237.97    85.982202 
   11700    1456.3844   -114.31416    1.3177672   -112.99639    38028.455    4.4320979    4.4320979    4.4320979    38028.455    72711.223    27249.262    14124.881   -1389.3335   -30748.649   -22131.954     87.06188 
   11800    1895.5766   -114.69505    1.7151575    -112.9799   -31354.715    4.4459377    4.4459377    4.4459377   -31354.715   -41132.629   -7388.9455   -45542.572    3161.2931   -2930.2022    -11137.89    87.880017 
   11900    1714.5451   -114.51463    1.5513565   -112.96327   -20281.814     4.434903     4.434903     4.434903   -20281.814   -54552.139    21836.935   -28130.238   -6836.0324     860.3416    8472.6752     87.22729 
   12000    1484.5022   -114.30241    1.3432088    -112.9592    18580.157    4.4141039    4.4141039    4.4141039    18580.157    98590.887    -24308.66   -18541.757   -8150.8067    23729.198    -5252.768    86.005781 
   12100    1693.5341    -114.5122    1.5323452   -112.97986    7332.9893    4.4066325    4.4066325    4.4066325    7332.9893    78526.303   -33527.831   -22999.503     2277.343   -595.50083   -1254.4673    85.569795 
   12200    2055.7338   -114.86412    1.8600711   -113.00405    9834.8231    4.4180837    4.4180837    4.4180837    9834.8231    18991.675    28939.709   -18426.915    190.82443    3826.8878   -10658.293    86.238622 
   12300    1324.3892   -114.19594    1.1983352    -112.9976    7054.4957       4.4475       4.4475       4.4475    7054.4957    58858.255   -35546.608     -2148.16    19641.914   -2485.3035   -18730.874     87.97269 
   12400    1508.4304   -114.29705    1.3648595   -112.93219   -16006.663    4.4446626    4.4446626    4.4446626   -16006.663   -52096.684   -27160.881    31237.575    1785.9371   -379.59829   -5079.0201    87.804421 
   12500    1812.4667   -114.55708    1.6399579   -112.91712    15179.656    4.3967471    4.3967471    4.3967471    15179.656    65531.984   -24553.903    4560.8866    18359.598    6270.9422   -27671.332     84.99521 
   12600    971.00599   -113.85996   0.87858662   -112.98137     43982.46    4.3922366    4.3922366    4.3922366     43982.46    38542.955    54931.758    38472.668   -11763.595    15496.087   -22093.489    84.733898 
   12700    1065.9199    -113.9933   0.96446673   -113.02883    23914.588    4.4279755    4.4279755    4.4279755    23914.588    69931.661   -45207.693    47019.797    12876.292    20471.617   -2053.2682    86.819168 
   12800      1837.57   -114.67391    1.6626719   -113.01124   -28428.493    4.4457507    4.4457507    4.4457507   -28428.493   -63270.197    20476.736   -42492.019   -11884.152     9204.072   -21962.409    87.868925 
   12900    1831.1653   -114.64299    1.6568768   -112.98611   -48242.836    4.4361113    4.4361113    4.4361113   -48242.836   -53427.404   -46126.506   -45174.597   -12133.836    -29906.85    17426.497    87.298605 
   13000    1319.4552   -114.17424    1.1938708   -112.98037    19804.154    4.3959491    4.3959491    4.3959491    19804.154    72156.819   -5051.0732   -7693.2851   -39637.707    1837.6979    7557.4626    84.948942 
   13100    2283.4932   -115.06801    2.0661527   -113.00185    30030.104    4.3897754    4.3897754    4.3897754    30030.104    66080.828   -4852.7657     28862.25    12231.477   -1719.9647   -19042.044    84.591533 
   13200    1570.1111   -114.46279    1.4206695   -113.04212   -20724.654    4.4318876    4.4318876    4.4318876   -20724.654   -71118.766    31520.042   -22575.237   -8572.7223    5823.2723    10381.647    87.049488 
   13300    1464.8707    -114.3305    1.3254458   -113.00505   -16259.498    4.4335115    4.4335115    4.4335115   -16259.498   -49992.016   -26599.708    27813.229    17087.537   -10161.188    7685.6433    87.145207 
   13400    1579.8522   -114.40088    1.4294835   -112.97139    2332.1263    4.4194224    4.4194224    4.4194224    2332.1263   -78433.539    57058.109    28371.809       -15590    15777.383   -11723.519    86.317042 
   13500    1697.9253   -114.50866    1.5363185   -112.97234    16016.302    4.4051564    4.4051564    4.4051564    16016.302    24237.133   -10746.354    34558.126    19615.818    7824.1964    9861.9905    85.483833 
   13600    1460.5724   -114.31979    1.3215566   -112.99824    39852.731    4.4066525    4.4066525    4.4066525    39852.731   -3089.0674    114726.68    7920.5828   -27613.553     11590.28    16910.549    85.570962 
   13700    2132.3851   -114.94191    1.9294268   -113.01248   -30972.792    4.4345578    4.4345578    4.4345578   -30972.792   -44099.866     7328.477   -56146.986    -167.7877    18078.796    -8212.596    87.206919 
   13800    1753.3603   -114.55437    1.5864772   -112.96789     8289.692    4.4315284    4.4315284    4.4315284     8289.692   -10991.644    13476.066    22384.654     9333.008    4640.4523    13256.533     87.02832 
   13900    1614.6278   -114.40303    1.4609492   -112.94208    22304.787    4.4281299    4.4281299    4.4281299    22304.787   -48233.195    73264.123    41883.433   -20018.257    5954.4609     11184.51    86.828253 
   14000     1685.706   -114.47267    1.5252622   -112.94741   -15698.964    4.4391433    4.4391433    4.4391433   -15698.964   -19313.866    8171.6137   -35954.638    2614.4653     24329.32    25563.034     87.47773 
   14100    1216.6537   -114.03023    1.1008538   -112.92938    773.90518    4.4299633    4.4299633    4.4299633    773.90518   -16134.579    45323.849   -26867.555    1634.6029     20938.12    30420.245    86.936148 
   14200    2167.6192   -114.88103    1.9613074   -112.91972   -11701.942    4.4245954    4.4245954    4.4245954   -11701.942   -62622.503    19775.428    7741.2494   -10549.968   -7712.0554    10662.295    86.620501 
   14300    1957.3359   -114.72083    1.7710387   -112.94979     -30920.5    4.4439246    4.4439246    4.4439246     -30920.5   -10272.253   -7721.4535   -74767.793   -852.76031   -13057.095    6383.2756    87.760695 
   14400    1741.0422   -114.50554    1.5753316   -112.93021   -23898.135     4.446628     4.446628     4.446628   -23898.135   -21051.654    36816.254   -87459.004   -2768.1258    6058.0678    33542.839    87.920956 
   14500    1302.7882   -114.09715    1.1787901   -112.91836    41404.129    4.4213696    4.4213696    4.4213696    41404.129    18405.483    77632.497    28174.408   -10620.902    3556.9526    1325.6361    86.431181 
   14600    2193.2815   -114.92826    1.9845272   -112.94373   -10279.487    4.4153028    4.4153028    4.4153028   -10279.487    27161.418   -42322.812   -15677.068    6559.3469   -8740.2864    23329.825    86.075883 
   14700    1308.8261   -114.15108    1.1842534   -112.96682   -2519.2875    4.4273964    4.4273964    4.4273964   -2519.2875   -23737.097    44982.182   -28802.947    5532.4425     4606.684    8920.6825     86.78511 
   14800    1785.3342    -114.5742    1.6154079    -112.9588   -12781.786    4.4285994    4.4285994    4.4285994   -12781.786   -12076.131   -36977.106     10707.88   -2434.7503    9255.8196   -2195.3684    86.855875 
   14900    1012.7336   -113.87338   0.91634269   -112.95703    44622.254    4.4304899    4.4304899    4.4304899    44622.254    40602.369    66160.694      27103.7    1965.0623    19618.062   -207.12905    86.967156 
   15000    1821.9127   -114.59429    1.6485049   -112.94579   -22602.265    4.4357957    4.4357957    4.4357957   -22602.265    32314.515   -43337.455   -56783.856   -3374.0609    2145.0946    15159.848    87.279974 
   15100    1621.1857   -114.41135    1.4668828   -112.94447    8572.3006    4.4283617    4.4283617    4.4283617    8572.3006    37609.983   -14380.859    2487.7774   -11132.255    12724.193     3903.373    86.841891 
   15200    2193.5054   -114.93857    1.9847298   -112.95384   -26940.658    4.4256848    4.4256848    4.4256848   -26940.658   -7190.5077   -21926.673   -51704.794   -7613.5275    8362.4799    220.47982      86.6845 
   15300    1351.1881   -114.19957    1.2225834   -112.97699   -5668.4473    4.4316891    4.4316891    4.4316891   -5668.4473    17047.818    -8716.963   -25336.197    826.10961    1483.4891    11001.458    87.037788 
   15400    2391.3811   -115.11696    2.1637719   -112.95319   -32678.802    4.4359359    4.4359359    4.4359359   -32678.802   -68784.385   -37814.958    8562.9359    1920.1485    25759.542    5584.5696    87.288252 
   15500    1622.3303      -114.41    1.4679185   -112.94208   -20800.204    4.4325813    4.4325813    4.4325813   -20800.204    10054.102   -34268.389   -38186.325    156.67196   -3112.5652   -12582.013    87.090367 
   15600    1883.4506   -114.62389    1.7041856   -112.91971   -10345.072    4.4155617    4.4155617    4.4155617   -10345.072    10777.446   -16879.474   -24933.188    10297.777    4242.4606    4427.6657    86.091024 
   15700     1461.933   -114.27539    1.3227877    -112.9526    7539.5952    4.4216187    4.4216187    4.4216187    7539.5952    52317.212   -40706.665    11008.239   -5585.9707   -16.825631   -7521.5447    86.445792 
   15800    1908.2732   -114.68581    1.7266457   -112.95917   -62979.299    4.4376996    4.4376996    4.4376996   -62979.299   -23215.448   -94006.032   -71716.416    -513.2776    13856.068   -16159.242     87.39241 
   15900    1669.4817   -114.46239    1.5105822   -112.95181    37045.437      4.40955      4.40955      4.40955    37045.437    72618.773    42205.118   -3687.5787    8878.0312   -8004.4581    8541.7542    85.739869 
   16000    1625.3891   -114.45848    1.4706862   -112.98779     18111.39    4.4035124    4.4035124    4.4035124     18111.39    29013.025    2036.5676    23284.578    -10598.48    4735.4185   -2143.3883    85.388165 
   16100     1532.313   -114.39973     1.386469   -113.01327   -28296.681    4.4356117    4.4356117    4.4356117   -28296.681   -22452.012   -19139.278   -43298.751    -27785.32    446.16514   -26006.966    87.269116 
   16200    1890.7039   -114.67046    1.7107487   -112.95971    1493.6692    4.4394484    4.4394484    4.4394484    1493.6692    25392.454   -24102.007    3190.5605    8055.0249   -15283.727    2155.0004    87.495766 
   16300    2329.2904   -115.04061    2.1075909   -112.93302   -36957.408    4.4270015    4.4270015    4.4270015   -36957.408   -36232.002   -59276.682    -15363.54    2618.3624      15516.5   -3033.0053    86.761891 
   16400    1722.3288   -114.50582    1.5583993   -112.94742   -12368.137    4.4219942    4.4219942    4.4219942   -12368.137   -24734.008   -34257.053    21886.649   -3768.0394   -26657.709   -15618.891     86.46782 
   16500    1688.9841   -114.50115    1.5282283   -112.97292    33584.224    4.4090891    4.4090891    4.4090891    33584.224    25028.591   -5327.3354    81051.418    8325.0897    24240.543    20431.983    85.712984 
   16600    1469.0913   -114.34076    1.3292647    -113.0115   -5047.7333     4.413767     4.413767     4.413767   -5047.7333    23071.106    -76662.71    38448.404   -26164.285    5316.2369   -14150.081    85.986091 
   16700    1775.1069    -114.6243     1.606154   -113.01815   -23297.816    4.4290672    4.4290672    4.4290672   -23297.816   -10379.481    -85943.08    26429.112   -7734.4187   -6354.6083    14356.678    86.883402 
   16800     1856.531    -114.6706    1.6798282   -112.99077    2374.1465    4.4190014    4.4190014    4.4190014    2374.1465   -5069.2202   -34948.954    47140.614    8827.9005   -9223.1467     7990.605    86.292375 
   16900    1907.9888   -114.72112    1.7263883   -112.99473   -28087.428    4.4106754    4.4106754    4.4106754   -28087.428   -23229.358   -47522.198   -13510.729   -19364.418    6550.0348   -5172.8379     85.80553 
   17000    1601.2931   -114.44694    1.4488836   -112.99805    36169.148    4.4158373    4.4158373    4.4158373    36169.148    19441.583   -10619.925    99685.787   -9811.3045   -11606.801    3517.5169    86.107145 
   17100    1789.3899   -114.61497    1.6190776   -112.99589   -11912.355    4.4275496    4.4275496    4.4275496   -11912.355       -22103   -27960.237    14326.173   -9711.7634    3788.9299   -3461.4875    86.794121 
   17200    1460.8815   -114.31541    1.3218363   -112.99357    2711.0044    4.4317668    4.4317668    4.4317668    2711.0044    42838.237   -48682.304    13977.079   -3558.5183   -782.15368    -4945.776    87.042369 
   17300    2038.4468   -114.82515    1.8444295   -112.98072   -18934.006     4.439788     4.439788     4.439788   -18934.006   -52571.596   -43297.013     39066.59    3568.4124    9.8239307   -19185.492    87.515845 
   17400     1453.087    -114.2785    1.3147837   -112.96372   -15015.386     4.434888     4.434888     4.434888   -15015.386    19923.298   -28518.762   -36450.695   -4965.8223    6198.9515   -5586.1018    87.226402 
   17500    1530.3928   -114.33377    1.3847315   -112.94904    48883.981    4.4161308    4.4161308    4.4161308    48883.981    -17598.23    56692.844    107557.33    15826.299    19766.185   -18833.228    86.124316 
   17600    2048.3929   -114.83873    1.8534289    -112.9853   -6133.6746     4.423844     4.423844     4.423844   -6133.6746    -38409.59   -18408.898    38417.465     1444.851   -19531.609    13870.169     86.57638 
   17700    2178.5144   -114.95751    1.9711656   -112.98635    -10580.05    4.4196908    4.4196908    4.4196908    -10580.05   -51495.118    19498.649    256.31851     70.62957   -2308.1252   -10400.213    86.332768 
   17800    994.00018   -113.90342   0.89939225   -113.00403    16112.807    4.4220458    4.4220458    4.4220458    16112.807    14431.003   -1621.6237    35529.042    11860.004   -499.86004   -16890.172    86.470844 
   17900    1923.6933   -114.73152    1.7405982   -112.99093   -32235.478    4.4318236    4.4318236    4.4318236   -32235.478   -30678.325   -38252.807   -27775.302    -12646.09    3086.3658    10495.073    87.045714 
   18000    1537.7307   -114.36448     1.391371   -112.97311    8272.1229    4.4340783    4.4340783    4.4340783    8272.1229   -33236.767   -24233.154     82286.29    7263.7051    11202.824   -18056.098    87.178639 
   18100    1834.2709   -114.62239    1.6596869   -112.96271   -16570.713     4.432426     4.432426     4.432426   -16570.713    -40902.61    9060.8019   -17870.331   -3802.5882    734.90739    13997.701    87.081213 
   18200      1272.73   -114.09941    1.1515929   -112.94782    29161.025    4.4174051    4.4174051    4.4174051    29161.025    51028.709   -21704.083    58158.448   -11730.471   -16158.239   -13094.031    86.198892 
   18300     2046.292   -114.81154     1.851528   -112.96001    -11473.47    4.4179057    4.4179057    4.4179057    -11473.47   -5110.2712   -13384.179    -15925.96   -18466.898    9624.4527   -33441.641    86.228201 
   18400    1892.7893   -114.69021    1.7126355   -112.97758   -1004.1438    4.4379551    4.4379551    4.4379551   -1004.1438   -44427.195    17939.014     23475.75   -11920.225   -10166.149   -17352.012    87.407502 
   18500    1337.7621   -114.16827    1.2104352   -112.95783    23075.867    4.4407062    4.4407062    4.4407062    23075.867    60838.795   -25349.991    33738.797   -14634.533    24188.982   -7850.1181    87.570155 
   18600    1355.5792   -114.15602    1.2265566   -112.92946    24873.221    4.4418689    4.4418689    4.4418689    24873.221    23566.327    16284.649    34768.686    21649.286    14946.143    7639.6155    87.638961 
   18700    1587.0631   -114.36864    1.4360081   -112.93263   -15341.681    4.4411456    4.4411456    4.4411456   -15341.681    -44049.27    7665.5141   -9641.2858   -6442.8292   -4026.4996    -305.7666    87.596152 
   18800    2125.4215    -114.8543     1.923126   -112.93117   -16141.629    4.4194896    4.4194896    4.4194896   -16141.629    -35188.75    3305.5751   -16541.711   -17719.284   -9283.1207     1871.295    86.320975 
   18900    1752.7577   -114.55162     1.585932   -112.96569    26151.365    4.4251009    4.4251009    4.4251009    26151.365   -15971.443    58429.586    35995.952    20792.535    1800.1679    -7962.236    86.650194 
   19000    1801.7427   -114.60289    1.6302546   -112.97264   -8790.6683    4.4498412    4.4498412    4.4498412   -8790.6683   -11728.194    20627.559    -35271.37    13541.559   -17127.824    1922.2982    88.111689 
   19100    2058.3089   -114.79822    1.8624011   -112.93582   -24638.617    4.4522105    4.4522105    4.4522105   -24638.617   -42808.578    9724.7363   -40832.008    14629.255   -18864.199    5525.1135    88.252512 
   19200    2309.0816   -114.99896    2.0893056   -112.90965   -33880.525    4.4504589    4.4504589    4.4504589   -33880.525   -41720.892   -57688.538   -2232.1445    17819.597   -391.85153   -954.40528    88.148387 
   19300     2446.601   -115.12263     2.213736    -112.9089   -60446.001    4.4531416    4.4531416    4.4531416   -60446.001   -61678.604   -76195.662   -43463.738      15278.1    3946.2475    360.31332    88.307892 
   19400    2253.5239   -114.94738    2.0390358   -112.90835   -26094.642    4.4365782    4.4365782    4.4365782   -26094.642   -30001.044   -12404.928   -35877.953    2636.7048    5605.8899    4749.3159    87.326171 
   19500    1106.6104   -113.94195    1.0012843   -112.94066    47769.923    4.4340367    4.4340367    4.4340367    47769.923    46756.363    109767.23   -13213.823    6675.0373   -19957.728   -11841.651    87.176184 
   19600     1179.243   -114.03581    1.0670039   -112.96881    18791.483    4.4560913    4.4560913    4.4560913    18791.483   -27244.756    99725.251   -16106.047    10030.315   -20128.415    2755.1328    88.483487 
   19700    1302.2766   -114.12601    1.1783273   -112.94769    2087.3299    4.4512506    4.4512506    4.4512506    2087.3299   -49133.506    94928.321   -39532.825   -301.87059   -23676.392   -2758.6594    88.195442 
   19800    1792.1847   -114.54531    1.6216064   -112.92371    2135.2034    4.4261071    4.4261071    4.4261071    2135.2034     11401.59    19617.803   -24613.783    5377.3083   -35742.558    3003.7426    86.709312 
   19900    2269.9449   -115.02049    2.0538939   -112.96659   -40027.683    4.4328999    4.4328999    4.4328999   -40027.683   -38613.153   -17551.549   -63918.347    30967.534    13628.571   -5381.9908    87.109149 
   20000      1742.26   -114.56979    1.5764334   -112.99336   -27101.435    4.4612834    4.4612834    4.4612834   -27101.435    33972.138   -14405.614   -100870.83    7025.6432   -6684.7704    1656.0645    88.793143 
   20100    1998.3732   -114.77372    1.8081701   -112.96555   -34029.457    4.4493574    4.4493574    4.4493574   -34029.457   -33652.074   -27787.169   -40649.127   -1505.1268    -17159.38    4563.5841    88.082954 
   20200    1622.7021   -114.39895    1.4682549    -112.9307    28327.111    4.4042713    4.4042713    4.4042713    28327.111    -20773.48    83756.204    21998.609   -9479.9537    720.67468   -12439.698    85.432317 
   20300    880.27808   -113.80911    0.7964941   -113.01261    58252.597    4.4139664    4.4139664    4.4139664    58252.597    56852.067    143719.79   -25814.065    33491.878    -7364.662   -7916.2537    85.997744 
   20400    1841.4321   -114.70485    1.6661665   -113.03869   -23630.642    4.4546587    4.4546587    4.4546587   -23630.642   -670.08738    4633.3993   -74855.239    4239.1907   -3751.2669    7640.0723    88.398174 
   20500    2029.7654   -114.79602    1.8365744   -112.95945   -50114.513    4.4642247    4.4642247    4.4642247   -50114.513    -57475.21   -41000.968    -51867.36    4720.4007    14399.985   -14424.172    88.968885 
   20600    2582.7937   -115.22835     2.336966   -112.89138   -46658.011    4.4427859    4.4427859    4.4427859   -46658.011   -74202.005   -36056.649   -29715.378   -1101.8705   -5496.7002    -3451.781    87.693249 
   20700    1592.8112   -114.36028     1.441209   -112.91907    10650.384    4.4304558    4.4304558    4.4304558    10650.384    53129.336    1681.3222   -22859.505    11693.078    -12495.48   -18906.632    86.965142 
   20800    1837.5968    -114.6157    1.6626962     -112.953    2670.9906    4.4276968    4.4276968    4.4276968    2670.9906   -17327.211    63932.379   -38592.197    13681.717   -14159.351   -4996.2519    86.802776 
   20900    1710.2007    -114.5496    1.5474255   -113.00218    5654.7182    4.4491962    4.4491962    4.4491962    5654.7182   -33384.961    109675.82   -59326.708    1458.6557   -3831.1295    2865.1025    88.073383 
   21000     1646.167   -114.45717    1.4894865   -112.96768   -36287.668    4.4660859    4.4660859    4.4660859   -36287.668   -13600.167   -16668.122   -78594.715    -5513.493     2410.174   -3141.0172    89.080206 
   21100    1456.2229   -114.23495    1.3176211   -112.91733    1794.8079    4.4264088    4.4264088    4.4264088    1794.8079    16718.124    12261.238   -23594.938   -7808.9385    8336.3554   -5522.6167    86.727049 
   21200    2318.6535   -115.00325    2.0979664   -112.90529    6716.4584    4.3966068    4.3966068    4.3966068    6716.4584    2374.1383    14384.559    3390.6778     14998.96   -6007.7066   -15074.114    84.987075 
   21300    1609.7497   -114.45546    1.4565354   -112.99893    2659.2991    4.4234187    4.4234187    4.4234187    2659.2991    15595.721    15296.592   -22914.416    -10185.09   -5014.8253    11088.863    86.551413 
   21400    1612.7351   -114.44485    1.4592366   -112.98561   -44744.161    4.4574401    4.4574401    4.4574401   -44744.161   -20104.015   -36337.038   -77791.429   -6112.3378    4700.5101   -355.33009    88.563862 
   21500    2249.7185   -114.97139    2.0355926    -112.9358   -38807.706    4.4478341    4.4478341    4.4478341   -38807.706    -27753.75   -27984.284   -60685.084    3637.1711   -6213.0983    609.38119    87.992517 
   21600    1704.3033   -114.46954    1.5420894   -112.92745    37920.258    4.3981927    4.3981927    4.3981927    37920.258    137349.28   -14628.044   -8960.4641    -140.4262    1709.6474   -8528.6034    85.079073 
   21700    1303.7007   -114.16887    1.1796158   -112.98925    24873.985    4.3881178    4.3881178    4.3881178    24873.985    58113.071    15458.527    1050.3575   -30767.803    24372.919   -14291.052    84.495744 
   21800     2388.898   -115.21585    2.1615251   -113.05432   -17242.198    4.4256303    4.4256303    4.4256303   -17242.198   -17229.147    -17180.76   -17316.687    27041.072    13280.053    8792.7433    86.681297 
   21900    1279.1112   -114.16518    1.1573667   -113.00781     -20803.4    4.4565046    4.4565046    4.4565046     -20803.4   -977.30354   -718.51243   -60714.385    -14758.34    2095.8551   -3382.2511     88.50811 
   22000    1017.1223   -113.86877   0.92031362   -112.94846    1857.2722    4.4257374    4.4257374    4.4257374    1857.2722    52781.118    15963.794   -63173.096   -26569.147    28739.009   -1674.2018    86.687589 
   22100    2654.3553   -115.29558    2.4017165   -112.89386    5842.8859    4.3921534    4.3921534    4.3921534    5842.8859    7532.3253   -2690.1233    12686.456    13468.085   -19967.153    4852.7083    84.729084 
   22200    1411.5142   -114.24985    1.2771677   -112.97269    2286.5909    4.4124999    4.4124999    4.4124999    2286.5909   -1880.5654   -12584.003    21324.341   -12956.627    37146.092   -17999.808    85.912061 
   22300    995.78007   -113.87591   0.90100274   -112.97491   -139.24949    4.4402532    4.4402532    4.4402532   -139.24949   -50554.433    63096.386   -12959.702    1219.1359    60581.803   -3885.4271    87.543361 
   22400    1956.0843   -114.69603    1.7699062   -112.92613   -12669.604    4.4320688    4.4320688    4.4320688   -12669.604    44838.153   -27364.824   -55482.142   -12005.472   -3404.6067    11090.205    87.060161 
   22500    2247.7266    -114.9523    2.0337903   -112.91851   -27698.059    4.4111193    4.4111193    4.4111193   -27698.059   -13383.444   -58299.011   -11411.722   -29649.378   -9654.3201    4586.3958    85.831443 
   22600    1503.8312   -114.33283    1.3606981   -112.97213     35820.31    4.4101216    4.4101216    4.4101216     35820.31    54044.449    37862.086    15554.397    15817.046   -1362.6361   -16419.548    85.773216 
   22700    2094.7309   -114.91482    1.8953565   -113.01946    -22050.52    4.4350169    4.4350169    4.4350169    -22050.52   -15175.854   -17876.891   -33098.814   -8662.5564   -15249.448    12164.795     87.23401 
   22800    1463.4267   -114.32889    1.3241392   -113.00475   -25816.639    4.4368659    4.4368659    4.4368659   -25816.639   -5003.1881    -41506.38   -30940.349   -1701.9417    25659.155   -6925.2078    87.343163 
   22900    1587.3492   -114.40508    1.4362669   -112.96881    52542.616    4.4037016    4.4037016    4.4037016    52542.616    11457.369    98515.401    47655.077     -16628.9   -10792.156   -1028.7554    85.399167 
   23000    1768.9532   -114.60132     1.600586   -113.00074    411.17778    4.4216704    4.4216704    4.4216704    411.17778     20410.97   -13071.097   -6106.3405     17759.75    -9665.175    9193.9611    86.448826 
   23100    1325.6633   -114.17715     1.199488   -112.97766    26504.277    4.4338558    4.4338558    4.4338558    26504.277    -17611.51    97142.555   -18.213234     10919.52    4541.8743   -23012.091    87.165514 
   23200    2150.2813   -114.91238    1.9456197   -112.96676   -25949.759    4.4271276    4.4271276    4.4271276   -25949.759   -46738.306    32821.701   -63932.673     9103.012   -23690.977    8206.5647    86.769303 
   23300    1716.4372   -114.54134    1.5530684   -112.98827   -4696.6295    4.4227797    4.4227797    4.4227797   -4696.6295    -27877.88    73270.051    -59482.06   -5175.3026    8155.4085    19133.568    86.513905 
   23400    1980.0317   -114.78785    1.7915743   -112.99627   -22108.142    4.4153692    4.4153692    4.4153692   -22108.142   -50693.108    17905.404   -33536.722    3341.5697   -15735.095   -12338.216    86.079763 
   23500    1517.8524   -114.38175    1.3733847   -113.00836   -21636.038    4.4224803    4.4224803    4.4224803   -21636.038   -11661.132   -19475.015   -33771.966    1468.8129   -3573.0917    43704.772    86.496339 
   23600    1723.8177   -114.54426    1.5597464   -112.98451   -15004.934    4.4259565    4.4259565    4.4259565   -15004.934    21041.782   -24349.814   -41706.769    8205.3394   -1418.8917     33065.04    86.700464 
   23700    1176.8152    -114.0449    1.0648071   -112.98009    29294.311     4.423482     4.423482     4.423482    29294.311   -55425.298    85858.555    57449.677   -7221.0659    11415.246   -15806.656    86.555128 
   23800    1405.2765   -114.25418    1.2715237   -112.98266    5203.1288    4.4325458    4.4325458    4.4325458    5203.1288   -49048.666    74052.767   -9394.7147   -5384.7711    8749.0178    6007.0263    87.088278 
   23900    1504.6412   -114.32758     1.361431   -112.96615    21697.675    4.4384495    4.4384495    4.4384495    21697.675   -21471.092    83405.528     3158.589   -6241.9672    -349.6116    25304.248    87.436715 
   24000     1697.982   -114.49628    1.5363698   -112.95991   -9236.8624    4.4492441    4.4492441    4.4492441   -9236.8624    -46482.38    17400.013    1371.7795    297.77098   -15581.344   -1830.3154    88.076227 
   24100    1912.2194   -114.67567    1.7302163   -112.94545   -13856.825    4.4413448    4.4413448    4.4413448   -13856.825   -21744.821     29648.08   -49473.735    -11585.32    18098.445    19039.007    87.607938 
   24200    1832.5101   -114.58908    1.6580936   -112.93099     23027.51    4.4224832    4.4224832    4.4224832     23027.51    4734.9527    51329.553    13018.025    -12017.34   -1880.0596   -8349.7503    86.496507 
   24300      2173.18   -114.92149     1.966339   -112.95515   -8294.4708    4.4358444    4.4358444    4.4358444   -8294.4708   -57161.782   -30994.471    63272.841   -4029.2578   -8632.6662   -12452.245     87.28285 
   24400    2025.2858   -114.79587    1.8325211   -112.96335   -43815.745    4.4541898    4.4541898    4.4541898   -43815.745   -76707.283   -6959.7946   -47780.157   -8799.8866   -4437.4774   -24359.953    88.370262 
   24500    1683.8031    -114.4769    1.5235405   -112.95336    -13790.15    4.4358148    4.4358148    4.4358148    -13790.15   -99442.553   -4915.8912    62987.994    11338.947   -15710.196    1550.1795    87.281102 
   24600     1674.022   -114.47774    1.5146903   -112.96305    31515.358    4.4005984    4.4005984    4.4005984    31515.358   -26064.607    13182.155    107428.53   -225.01441    -11386.27    11389.687     85.21876 
   24700    1877.0964   -114.71357    1.6984362   -113.01514     1176.084    4.3961392    4.3961392    4.3961392     1176.084    16495.421   -9838.2461   -3128.9231    4335.7157   -3485.6633   -1611.5597    84.959963 
   24800    1362.4308    -114.2852     1.232756   -113.05244     1658.857    4.4350331    4.4350331    4.4350331     1658.857   -53781.492    31210.515    27547.548    9312.4323   -15812.314    10540.317    87.234964 
   24900     1971.264   -114.75871    1.7836411   -112.97507   -20144.272    4.4557392    4.4557392    4.4557392   -20144.272   -77520.483   -14434.946    31522.614   -14762.396    7682.1156    596.47564    88.462517 
   25000    2077.0672     -114.808     1.879374   -112.92863   -19683.827    4.4279552    4.4279552    4.4279552   -19683.827    -24475.07   -23080.591    -11495.82   -1969.6745    -3548.837    19813.715    86.817974 
   25100    1986.4439   -114.73046    1.7973762   -112.93308    27966.484    4.4124582    4.4124582    4.4124582    27966.484    7928.7992    18593.537    57377.116    4031.7885   -9662.4298    3157.0318    85.909621 
   25200    1720.5383   -114.52455    1.5567792   -112.96777    5056.2957    4.4377977    4.4377977    4.4377977    5056.2957    -47760.61    15344.879    47584.618    13313.823    10251.005   -22423.085    87.398202 
   25300    2048.7767   -114.81827    1.8537762   -112.96449   -47555.828    4.4392487    4.4392487    4.4392487   -47555.828   -85945.803   -1632.6907    -55088.99   -15261.676   -19397.783    4376.2326    87.483958 
   25400    2322.6209   -115.03941    2.1015562   -112.93785   -3353.3864    4.4002233    4.4002233    4.4002233   -3353.3864    173.74931   -12285.371    2051.4619    22512.173    6895.5236   -14825.803    85.196973 
   25500    1181.2208   -114.04436    1.0687934   -112.97556    43085.541    4.4053326    4.4053326    4.4053326    43085.541    13189.715    65157.405    50909.502    6455.1952    6344.7883    8659.1736    85.494091 
   25600    1792.5298   -114.60692    1.6219186     -112.985   -39941.337    4.4339762    4.4339762    4.4339762   -39941.337   -68695.814   -14011.251   -37116.947   -1962.5585    3305.2844    5854.9929    87.172616 
   25700    1729.5716   -114.53362    1.5649528   -112.96867    13386.783    4.4184398    4.4184398    4.4184398    13386.783   -19710.689     8158.911    51712.128     26592.13    11948.489    5748.7452    86.259478 
   25800     1391.538   -114.24938    1.2590929   -112.99029    26605.807    4.4194032    4.4194032    4.4194032    26605.807    34374.171    51450.422   -6007.1742   -28848.505    11913.025    10784.369    86.315913 
   25900    1744.6053   -114.57082    1.5785555   -112.99226   -14049.493    4.4270763    4.4270763    4.4270763   -14049.493    2483.4949   -32757.619   -11874.356    16805.765    14934.721    11234.057    86.766288 
   26000     2210.532   -114.98468    2.0001358   -112.98454   -14911.827    4.4099828    4.4099828    4.4099828   -14911.827   -3416.3613   -30083.835   -11235.285    33907.611   -11566.708    598.00367    85.765117 
   26100    1705.0396   -114.55972    1.5427557   -113.01697    43653.788    4.4069552    4.4069552    4.4069552    43653.788    56882.397    29456.635    44622.332   -12546.908   -316.96409   -11768.304    85.588599 
   26200    1110.5727    -114.0394    1.0048695   -113.03453   -9329.4297      4.43488      4.43488      4.43488   -9329.4297   -14708.373     9592.501   -22872.418    20537.043    1687.9563    11853.304    87.225932 
   26300    2091.2558   -114.87577    1.8922122   -112.98356   -32719.178    4.4379945    4.4379945    4.4379945   -32719.178   -5134.7128   -53441.861   -39580.961    10226.691   -3684.8433    2539.8186    87.409831 
   26400     1648.459   -114.44467    1.4915603   -112.95311    5135.2913    4.4319999    4.4319999    4.4319999    5135.2913   -16556.173    18871.056     13090.99    1894.0351    7533.2913     7938.336    87.056106 
   26500    1383.0395   -114.18659    1.2514032   -112.93518    11761.028    4.4172664    4.4172664    4.4172664    11761.028    8030.6747     11033.31    16219.098    20578.677   -2225.8851     21496.85    86.190775 
   26600     2330.995   -115.04565    2.1091332   -112.93652    1380.6844    4.4054416    4.4054416    4.4054416    1380.6844   -21100.857   -6006.1463    31249.056    338.62569    12444.041   -6393.0122    85.500441 
   26700    1634.0083   -114.45362    1.4784851   -112.97513   -16103.831    4.4220708    4.4220708    4.4220708   -16103.831   -11446.502   -38721.994    1857.0034    11846.766   -3514.6999     8831.721    86.472315 
   26800    1611.1407   -114.42271     1.457794   -112.96492   -8763.5335    4.4289216    4.4289216    4.4289216   -8763.5335   -5491.8631   -5384.2592   -15414.478    16849.443    10658.464   -2642.8094    86.874833 
   26900    2066.2873    -114.8312    1.8696201   -112.96158   -2828.5117    4.4268608    4.4268608    4.4268608   -2828.5117   -744.51404    5611.4681   -13352.489   -12963.065   -5608.5462   -17477.526    86.753618 
   27000    1643.5242   -114.46669    1.4870952   -112.97959   -10636.915    4.4351418    4.4351418    4.4351418   -10636.915    8535.9828    25231.194   -65677.922    4284.7128    6843.7154   -2737.8372    87.241378 
   27100    1627.5159   -114.43686    1.4726106   -112.96425    4964.6781    4.4339092    4.4339092    4.4339092    4964.6781   -29707.621   -18993.276    63594.932    17295.347    4072.3163   -17031.244    87.168665 
   27200    2163.1115   -114.89188    1.9572288   -112.93465   -28828.645    4.4262476    4.4262476    4.4262476   -28828.645   -21929.509   -32173.231   -32383.193   -13051.919    5322.9685   -2615.8839    86.717572 
   27300    1458.6256   -114.27575    1.3197951   -112.95595    27308.989    4.4292204    4.4292204    4.4292204    27308.989    28004.961    46246.069    7675.9366   -15771.144    7295.7395    1163.5522    86.892415 
   27400    1677.2943   -114.47623    1.5176511   -112.95858   -17125.498    4.4468134    4.4468134    4.4468134   -17125.498   -26293.547    -81831.04    56748.094    6875.7954   -9357.5384    362.58063    87.931953 
   27500    1603.0106   -114.40331    1.4504377   -112.95287    -6206.681    4.4253812    4.4253812    4.4253812    -6206.681    62654.945   -54184.974   -27090.014   -5998.9251    6813.4209   -14330.206    86.666661 
   27600    1448.0184   -114.26698    1.3101975   -112.95678    62606.305    4.4116344    4.4116344    4.4116344    62606.305    54801.976    40832.982    92183.956   -15766.498   -23877.736    16909.272    85.861516 
   27700     1768.711   -114.59004    1.6003669   -112.98967   -20590.186    4.4406118    4.4406118    4.4406118   -20590.186    20908.678    -23648.31   -59030.928   -8755.2485    7773.0871   -14475.065    87.564571 
   27800    2016.4913   -114.76845    1.8245637   -112.94389   -23302.476    4.4457277    4.4457277    4.4457277   -23302.476    25372.191    -42527.92   -52751.699   -6113.9748    14377.866    8801.1213    87.867563 
   27900    1725.7591   -114.47912    1.5615031   -112.91761     18827.05    4.4357594    4.4357594    4.4357594     18827.05    8145.6935    18310.735    30024.723   -11966.164   -2235.4545      -5748.4    87.277833 
   28000     1407.632   -114.18602     1.273655   -112.91237     13769.96    4.4406357    4.4406357    4.4406357     13769.96    88151.763     -48238.4    1396.5188    690.52107   -36198.043    -14754.41    87.565987 
   28100    2047.4791   -114.76463    1.8526021   -112.91203    -22230.96    4.4320237    4.4320237    4.4320237    -22230.96    1915.6353   -52587.987    -16020.53   -2658.6246   -986.01484    15195.222    87.057508 
   28200    1553.4513     -114.351    1.4055954    -112.9454    22393.373    4.4263051    4.4263051    4.4263051    22393.373   -21127.118    78436.164    9871.0731    2208.4686    1414.3391    3755.2972    86.720949 
   28300    2205.9696   -114.95287    1.9960076   -112.95686   -32610.585    4.4443923    4.4443923    4.4443923   -32610.585   -44402.972   -16646.045   -36782.739   -10463.868   -3306.7214   -6725.1445    87.788406 
   28400    1717.0412    -114.5149    1.5536149   -112.96128   -7432.0752    4.4270819    4.4270819    4.4270819   -7432.0752   -33893.773    23442.897   -11845.349   -9085.1846    6583.0018    29684.204    86.766617 
   28500    1449.7505   -114.28622    1.3117647   -112.97446    8319.6664    4.4056557    4.4056557    4.4056557    8319.6664    31449.659    35227.788   -41718.448    3614.4753   -26822.013   -17972.913    85.512906 
   28600    1663.5387   -114.50843    1.5052048   -113.00322    18435.823    4.4049341    4.4049341    4.4049341    18435.823   -9115.3692    77631.125   -13208.288   -932.17976    -704.7867   -3769.1293    85.470897 
   28700      2218.94   -115.02795    2.0077436   -113.02021   -20814.601    4.4286206    4.4286206    4.4286206   -20814.601   -36696.251    14525.297    -40272.85   -2039.2164    4906.5629    376.62431    86.857118 
   28800    1123.5293   -114.00394     1.016593   -112.98735   -52956.749    4.4531534    4.4531534    4.4531534   -52956.749   -50293.284   -1384.2742   -107192.69    26449.899   -6632.3686   -6173.1055    88.308591 
   28900    1704.5453   -114.50079    1.5423084   -112.95848   -4448.5046    4.4034166    4.4034166    4.4034166   -4448.5046    21112.248   -15416.488   -19041.274     -9435.61    -9542.819    10959.565    85.382593 
   29000    2134.2989   -114.87125    1.9311585   -112.94009    34832.872    4.3651336    4.3651336    4.3651336    34832.872    3748.1338    84493.529    16256.952     8099.537    9068.7855    28622.213    83.174966 
   29100    1541.5761   -114.43642    1.3948505   -113.04157   -9122.7461    4.4060788    4.4060788    4.4060788   -9122.7461   -67791.161    71642.091   -31219.168   -7333.7927   -4351.7301    6287.0701    85.537543 
   29200    1635.3135   -114.49359     1.479666   -113.01392   -20303.464    4.4453624    4.4453624    4.4453624   -20303.464   -62327.112    33410.564   -31993.844    6595.5712   -1050.4377   -2266.8247    87.845906 
   29300    1871.6713   -114.66032    1.6935275   -112.96679   -39197.037    4.4330411    4.4330411    4.4330411   -39197.037   -62002.157   -24696.453   -30892.501    7857.2136    24274.443   -878.15202    87.117472 
   29400    1337.4895   -114.15089    1.2101887    -112.9407    31347.398    4.3950947    4.3950947    4.3950947    31347.398    -33008.78    121244.63    5806.3414   -777.64075    7507.6108    12494.287    84.899418 
   29500    2202.3656   -114.97526    1.9927467   -112.98252    4641.0574    4.4014837    4.4014837    4.4014837    4641.0574   -41254.709    18201.695    36976.186   -2220.4431     1459.709   -53413.088    85.270204 
   29600    1628.1966   -114.49177    1.4732265   -113.01855   -42385.585    4.4398441    4.4398441    4.4398441   -42385.585   -111129.53   -17307.385    1280.1632    3867.4391    12039.403    2881.2462    87.519164 
   29700    1397.9511    -114.2487    1.2648956   -112.98381   -19615.448    4.4274082    4.4274082    4.4274082   -19615.448   -45459.491   -9163.0286    -4223.825    -14213.96     -25079.1   -14386.384    86.785806 
   29800     1724.565   -114.51503    1.5604227   -112.95461    27558.089    4.4017291    4.4017291    4.4017291    27558.089    14788.198   -6410.1256    74296.194   -5837.0455   -4040.1926   -531.85014    85.284464 
   29900    2176.6527   -114.95411    1.9694811   -112.98463   -8466.2759    4.4132943    4.4132943    4.4132943   -8466.2759   -37517.571    26602.315   -14483.572   -68.911657   -24851.411   -17586.123    85.958468 
   30000    1529.9319    -114.3853    1.3843145   -113.00099   -18293.091    4.4232537    4.4232537    4.4232537   -18293.091   -42153.826   -45829.453    33104.006   -10340.649   -21469.561   -8320.6952    86.541723 
   30100    1672.6078   -114.48399    1.5134107   -112.97058    6084.0657    4.4236687    4.4236687    4.4236687    6084.0657    -15686.58   -31958.687    65897.464    11093.518    13383.317   -13522.326    86.566089 
   30200    2247.9383   -114.98733    2.0339818   -112.95335   -11540.989    4.4139489    4.4139489    4.4139489   -11540.989   -46694.911   -37538.537    49610.482   -19215.457   -6434.5138    2572.9702    85.996722 
   30300    1550.3322   -114.38018    1.4027732    -112.9774    9721.1166    4.4096894    4.4096894    4.4096894    9721.1166    36293.042   -6364.0202   -765.67226    -8926.591   -6725.1737    3267.6903    85.747998 
   30400    1238.9125    -114.1046     1.120994    -112.9836   -18020.748    4.4165701    4.4165701    4.4165701   -18020.748    11183.892   -64723.225    -522.9127   -7525.4332    3385.1267   -29428.695    86.150023 
   30500    1820.0062   -114.62427    1.6467799   -112.97749    8045.8288    4.3909884    4.3909884    4.3909884    8045.8288    26239.139   -8098.6079     5996.955   -33075.177   -1614.3996    7570.6231    84.661679 
   30600    2039.6296   -114.84584    1.8454997   -113.00034    16388.725    4.3913183    4.3913183    4.3913183    16388.725    34800.114    25959.232   -11593.171    2585.5196   -1880.5091    -19021.48    84.680761 
   30700    1158.1075   -114.06745      1.04788   -113.01957    13916.261    4.4172004    4.4172004    4.4172004    13916.261     44910.83   -55435.096     52273.05   -7673.9798   -23988.145    -34286.67    86.186912 
   30800    1753.7986   -114.57524    1.5868739   -112.98837    16860.005    4.4144852    4.4144852    4.4144852    16860.005    30619.375   -24552.877    44513.518   -3846.3409    15043.571     6527.486    86.028072 
   30900    1480.8193   -114.32344    1.3398764   -112.98356      27782.4    4.4048816    4.4048816    4.4048816      27782.4    3734.3006    54229.327    25383.573   -2918.9378    9229.2123   -13051.592    85.467836 
   31000    1721.3213   -114.54539    1.5574877    -112.9879   -22875.055    4.4155721    4.4155721    4.4155721   -22875.055   -31759.564   -9331.8945   -27533.708   -7058.4326    -6496.609   -12736.803    86.091631 
   31100    1472.1073   -114.30879    1.3319936    -112.9768     22927.21    4.4047283    4.4047283    4.4047283     22927.21   -10380.247   -20113.523      99275.4    18016.611   -1860.3167    12592.406    85.458915 
   31200     1874.226   -114.68756    1.6958391   -112.99172   -9835.7905    4.4046257    4.4046257    4.4046257   -9835.7905   -3447.4123    26435.679   -52495.638   -8298.7372    21809.272    8025.7808    85.452943 
   31300    1735.5138   -114.56312    1.5703294   -112.99279    24893.926    4.4065712    4.4065712    4.4065712    24893.926   -31880.749    11573.958    94988.569   -583.71563   -9618.0132   -21910.418    85.566227 
   31400    1417.0694   -114.28524    1.2821942   -113.00305   -48598.415    4.4246115    4.4246115    4.4246115   -48598.415   -34867.283   -54427.172    -56500.79    4545.2743   -12101.837    42550.681    86.621449 
   31500    1960.7217   -114.75609    1.7741022   -112.98199   -32765.965    4.4046803    4.4046803    4.4046803   -32765.965   -22261.551   -52603.312    -23433.03   -13876.952    23916.485    27772.882    85.456122 
   31600    2432.1116   -115.16563    2.2006257   -112.96501    19922.475    4.3800511    4.3800511    4.3800511    19922.475   -6858.3032    15365.781    51259.949    5892.7104   -13367.179   -4458.4457    84.030614 
   31700    716.89164   -113.67918   0.64865862   -113.03052    14231.388    4.4092595    4.4092595    4.4092595    14231.388    23287.024   -16084.861    35492.001   -5911.5477    1357.0619    24230.139    85.722922 
   31800    1828.7528   -114.65393     1.654694   -112.99924   -69995.049    4.4388637    4.4388637    4.4388637   -69995.049   -43840.204   -98360.093   -67784.849   -441.45333    6989.4793    28642.042    87.461198 
   31900     2249.012   -114.98017    2.0349534   -112.94521   -33523.243    4.4219934    4.4219934    4.4219934   -33523.243   -43966.625   -53835.819   -2767.2846    4459.7513   -13920.475   -28228.472    86.467771 
   32000      1554.77   -114.36996    1.4067886   -112.96317   -10146.242    4.4139265    4.4139265    4.4139265   -10146.242   -20740.215   -38132.534    28434.022    8646.2823    11010.584    27016.506    85.995413 
   32100    2092.1526   -114.87002    1.8930236   -112.97699   -40817.896    4.4168332    4.4168332    4.4168332   -40817.896   -40875.793   -67107.481   -14470.413   -11741.383     17628.59   -1501.0127    86.165419 
   32200    1368.9854   -114.23433    1.2386868   -112.99564    9272.4739     4.420847     4.420847     4.420847    9272.4739   -2501.9791   -67388.881    97708.282   -9053.5252    2213.1588    -8965.083    86.400541 
   32300    2287.4707   -115.04111    2.0697515   -112.97136   -11979.821    4.4268054    4.4268054    4.4268054   -11979.821    -9045.625    6976.5057   -33870.344   -1654.6423    9419.8812    6260.8592    86.750359 
   32400    1093.5918   -113.94061   0.98950488   -112.95111    43488.759    4.4356454    4.4356454    4.4356454    43488.759    54320.511   -703.94783    76849.712   -18555.732   -24259.495   -6854.9701    87.271104 
   32500    1742.1213   -114.50296     1.576308   -112.92665   -35903.745    4.4524457    4.4524457    4.4524457   -35903.745    12810.022   -55132.683   -65388.573   -5016.1604    25232.721   -8613.1252      88.2665 
   32600    2365.8722   -115.05409    2.1406908    -112.9134    -47205.13    4.4309985    4.4309985    4.4309985    -47205.13   -59228.838   -38785.963   -43600.589    -17396.48    17497.018    18777.628    86.997109 
   32700    1367.9384   -114.14944    1.2377394    -112.9117    55564.978    4.3878105    4.3878105    4.3878105    55564.978    96289.636   -8572.0471    78977.345   -17513.428   -25788.806   -4803.4699    84.477996 
   32800    1622.2349   -114.44911    1.4678323   -112.98128     10984.42    4.3987211    4.3987211    4.3987211     10984.42   -14379.532    46139.387    1193.4061    14928.156    19260.671   -13166.184    85.109742 
   32900     2095.053   -114.88529     1.895648   -112.98964   -22926.556    4.4303795    4.4303795    4.4303795   -22926.556    1451.8021   -39938.955   -30292.515   -8852.4396   -5585.6169     7497.659    86.960654 
   33000    1253.2678   -114.10356    1.1339831   -112.96958    27032.435    4.4266639    4.4266639    4.4266639    27032.435    35084.985   -4944.2585    50956.579    11902.823   -36498.773   -5112.7653    86.742041 
   33100    1464.8625    -114.2787    1.3254383   -112.95327   -6946.8741    4.4121646    4.4121646    4.4121646   -6946.8741   -49408.722    67753.676   -39185.577   -6882.5151    27944.511   -246.54242    85.892478 
   33200    2280.3997   -115.01552    2.0633536   -112.95216    603.21515    4.3904678    4.3904678    4.3904678    603.21515   -6915.8624   -748.75733    9474.2652    -32474.75    7666.3733    804.87268    84.631568 
   33300    1538.4966   -114.38396    1.3920641   -112.99189    42764.315     4.392293     4.392293     4.392293    42764.315    41182.964    60108.352     27001.63   -4771.9703   -13708.225   -8242.6978    84.737159 
   33400    1761.0258   -114.60085    1.5934132   -113.00744   -45832.662    4.4346702    4.4346702    4.4346702   -45832.662   -24906.934    -22699.72   -89891.331    17506.422    23752.943    4103.2149    87.213555 
   33500    1937.2389   -114.70835    1.7528544   -112.95549    6745.8832    4.4251318    4.4251318    4.4251318    6745.8832    16992.997   -5650.0319    8894.6844    -11168.14    -14422.15   -6268.6868    86.652007 
   33600    1629.3533   -114.41185    1.4742731   -112.93758    25764.599    4.3970518    4.3970518    4.3970518    25764.599    34519.339    63646.621   -20872.163    -1351.115   -267.59866   -4390.4993     85.01288 
   33700    2058.8111   -114.82495    1.8628556    -112.9621    10850.429    4.3891921    4.3891921    4.3891921    10850.429    68992.491   -11043.734   -25397.471    1800.0349    14191.413    1838.8036    84.557817 
   33800    1602.0647   -114.45817    1.4495818   -113.00859    27163.285    4.3994098    4.3994098    4.3994098    27163.285     21179.65    31660.982    28649.224    -2103.618   -12925.413   -11880.058    85.149728 
   33900    1708.3152    -114.5639    1.5457195   -113.01818   -35751.513    4.4345387    4.4345387    4.4345387   -35751.513   -15103.955   -35006.864    -57143.72    4303.3472   -12814.819     1950.512    87.205793 
   34000    2350.6543   -115.07823    2.1269214   -112.95131   -19306.316      4.43262      4.43262      4.43262   -19306.316    26325.675    -39684.96   -44559.664   -4579.7817   -2586.4129   -1692.1248     87.09265 
   34100    1533.4722   -114.31685    1.3875179   -112.92933    15682.843    4.4082488    4.4082488    4.4082488    15682.843    27137.093    21208.677   -1297.2421   -5781.5108   -23897.609   -15081.386    85.663986 
   34200    2205.0377   -114.94713    1.9951645   -112.95197    3145.2837    4.4104042    4.4104042    4.4104042    3145.2837    12971.568   -31356.624    27820.907    -17397.93     -8874.54   -5964.5534    85.789706 
   34300    1672.1986   -114.48712    1.5130405   -112.97408    -8413.613    4.4255036    4.4255036    4.4255036    -8413.613    55424.912   -35127.417   -45538.334    2134.3105    3391.7526    8919.8516    86.673851 
   34400    1681.7409   -114.48905    1.5216745   -112.96738   -10969.096    4.4113103    4.4113103    4.4113103   -10969.096   -20070.073    5301.1044   -18138.318    20671.396   -5981.5016   -13948.843    85.842591 
   34500    1920.9083   -114.68978    1.7380782    -112.9517     47120.99    4.4069518    4.4069518    4.4069518     47120.99    98883.576    13721.834    28757.559    2638.4865    5171.0388   -2413.8767      85.5884 
   34600    741.13842   -113.65119   0.67059762    -112.9806    1330.6745    4.4339782    4.4339782    4.4339782    1330.6745    56642.332   -38738.266   -13912.043    7461.4073    2073.2688   -25608.804    87.172734 
   34700    1770.7794   -114.53972    1.6022384   -112.93748    -34830.25    4.4252493    4.4252493    4.4252493    -34830.25   -29512.855   -34204.639   -40773.258    14121.823   -4314.3524    -31788.06    86.658909 
   34800    2175.9499   -114.89579    1.9688452   -112.92694    20225.927     4.397762     4.397762     4.397762    20225.927     25019.91   -33634.655    69292.527   -10714.458   -7715.3933    4608.1073    85.054083 
   34900    1482.0598   -114.31013    1.3409989   -112.96913    16997.786    4.3971349    4.3971349    4.3971349    16997.786    66127.377   -28501.543    13367.523    5100.4889    3735.5026   -9460.6911    85.017705 
   35000    1891.1897   -114.70958    1.7111882   -112.99839   -21207.059    4.4132005    4.4132005    4.4132005   -21207.059   -22068.866   -47106.974    5554.6634   -10592.016    1561.5129   -23582.254    85.952988 
   35100    1550.3487   -114.40489    1.4027881    -113.0021    10364.185    4.4306465    4.4306465    4.4306465    10364.185     56137.43   -41446.193    16401.317   -7976.7508   -20094.111    23471.075    86.976374 
   35200    1355.7459   -114.20238    1.2267074   -112.97567   -13610.369     4.432248     4.432248     4.432248   -13610.369    -2805.966   -58184.229    20159.089    5110.2107    1087.7881   -42446.144    87.070722 
   35300    1701.2843   -114.48763    1.5393578   -112.94827    14379.128    4.3955434    4.3955434    4.3955434    14379.128   -7132.0812   -23697.092    73966.558    8891.4817      13121.1   -7650.4476     84.92542 
   35400    1699.0588   -114.51908    1.5373441   -112.98173    46341.277    4.3931032    4.3931032    4.3931032    46341.277    110752.13    5626.3909    22645.311    517.44692    14843.829    8093.7212    84.784062 
   35500     1739.821   -114.57409    1.5742266   -112.99986   -23307.084    4.4428111    4.4428111    4.4428111   -23307.084   -16461.326   -90367.068    36907.142    24846.465    12358.653   -21413.907     87.69474 
   35600    1159.3418   -113.97616    1.0489968   -112.92716    2523.4031    4.4557599    4.4557599    4.4557599    2523.4031    67961.508   -36081.231   -24310.068    4506.8113    14310.596   -6023.1982    88.463751 
   35700    1895.9124   -114.58582    1.7154614   -112.87035     17349.72    4.4300312    4.4300312    4.4300312     17349.72    26138.653    16566.609    9343.8989   -12352.512    11396.078    6524.3824    86.940143 
   35800     1458.599   -114.20763     1.319771   -112.88786   -9721.9274    4.4233347    4.4233347    4.4233347   -9721.9274    21685.413   -50656.231   -194.96412    11107.762    17282.538   -1968.1193     86.54648 
   35900    1791.7279   -114.53416     1.621193   -112.91297    13363.825    4.4134766    4.4134766    4.4134766    13363.825    14533.223      53928.2   -28369.948   -12396.287   -7333.8342    9721.5927     85.96912 
   36000    2080.9023   -114.82481    1.8828442   -112.94196     10095.92    4.4049198    4.4049198    4.4049198     10095.92     2541.132    27907.051   -160.42329    5271.3853    8536.7214   -3241.5014    85.470062 
   36100    1477.7947   -114.31539    1.3371397   -112.97825    13361.299    4.4084866    4.4084866    4.4084866    13361.299   -28693.436    73347.704   -4570.3704    5936.3918    6748.5796   -18965.845     85.67785 
   36200    1734.6382   -114.54477    1.5695371   -112.97523    25194.796    4.4196249    4.4196249    4.4196249    25194.796    4122.1378    44925.186    26537.064    243.13166   -3872.8895    20628.226    86.328903 
   36300    1363.0963   -114.18932    1.2333582   -112.95596    1955.9881    4.4314116    4.4314116    4.4314116    1955.9881   -56656.364    98627.162   -36102.835    15318.191    6061.8287   -8971.6113    87.021438 
   36400    1578.4008   -114.37191    1.4281702   -112.94374   -23746.103    4.4193546    4.4193546    4.4193546   -23746.103   -14431.702    3725.8374   -60532.445   -17393.222    6097.6702    1246.6403    86.313065 
   36500    2478.8939   -115.16666    2.2429553    -112.9237    6255.7043    4.3949181    4.3949181    4.3949181    6255.7043   -3939.6275    34535.173   -11828.433     12530.82   -2753.5649    19305.657    84.889185 
   36600    1103.1392   -113.97026   0.99814351   -112.97212   -16375.686    4.4125195    4.4125195    4.4125195   -16375.686   -52956.931    51827.915   -47998.042   -13923.021    17304.505    2099.0363    85.913203 
   36700    1390.8722    -114.2437    1.2584904   -112.98521    13920.515    4.4171189    4.4171189    4.4171189    13920.515   -2724.7708    95676.381   -51190.064    5726.7039    2380.6747    7968.3848    86.182141 
   36800    2201.5527    -114.9758    1.9920111   -112.98379   -18283.586    4.4098685    4.4098685    4.4098685   -18283.586   -23871.068    361.08185   -31340.771    766.37665   -4958.9995    19257.924    85.758451 
   36900    1160.5169   -114.03773    1.0500601   -112.98767   -16786.769    4.4079212    4.4079212    4.4079212   -16786.769   -39778.388    37638.069   -48219.988   -3342.3401    1632.1317   -37114.008    85.644889 
   37000    2038.3398    -114.8064    1.8443327   -112.96207    12066.658    4.4064848    4.4064848    4.4064848    12066.658    36499.729    8483.8621   -8783.6165   -11112.378    795.25774    6972.2959    85.561193 
   37100    1393.0481    -114.2232    1.2604592   -112.96274    854.03175    4.4107307    4.4107307    4.4107307    854.03175     17729.14   -14022.436   -1144.6089    16393.269   -19963.108    4619.5697    85.808758 
   37200    1749.9208   -114.54098    1.5833651   -112.95762   -29994.225    4.4114783    4.4114783    4.4114783   -29994.225    47352.734    -64356.45   -72978.958   -1515.5647   -5606.1931   -34685.124    85.852399 
   37300    2141.1322   -114.88435    1.9373414   -112.94701    11986.418     4.410158     4.410158     4.410158    11986.418    24513.773    40477.276   -29031.795    1369.6162   -10561.393    21552.389    85.775339 
   37400    1314.0889   -114.15873    1.1890152   -112.96971   -5284.2102    4.3990483    4.3990483    4.3990483   -5284.2102   -37997.661    34111.547   -11966.517   -8167.8337   -20752.431   -19871.861    85.128737 
   37500     2201.918   -114.96832    1.9923417   -112.97598    10340.696     4.385693     4.385693     4.385693    10340.696    34448.718    28151.427   -31578.057    33506.014     8230.745   -3960.9573    84.355748 
   37600    1605.0604    -114.4636    1.4522924   -113.01131   -3649.8519    4.4036091    4.4036091    4.4036091   -3649.8519   -23774.395    53764.927   -40940.088   -5697.3033   -21330.115    11426.015    85.393786 
   37700    1269.3298   -114.15321    1.1485163   -113.00469   -49465.654    4.4212679    4.4212679    4.4212679   -49465.654   -86828.865   -7541.9756    -54026.12    19061.933   -24693.332   -11585.674    86.425223 
   37800    2071.2878    -114.8315    1.8741448   -112.95735     3181.524    4.4004239    4.4004239    4.4004239     3181.524    25398.726   -7271.0013   -8583.1532   -8404.2499    8308.1554    12593.474    85.208621 
   37900    1568.1159   -114.37554    1.4188642   -112.95668    4813.2355    4.3813948    4.3813948    4.3813948    4813.2355    28258.168    15386.922   -29205.384   -10005.028   -22172.866    21115.458    84.107971 
   38000    1227.9968   -114.09502    1.1111173    -112.9839     10402.27    4.3998468    4.3998468    4.3998468     10402.27   -29126.312    87724.207   -27391.084     13972.11   -27656.358   -14672.338    85.175103 
   38100    1956.5962   -114.73205    1.7703694   -112.96168   -38742.105    4.4140559    4.4140559    4.4140559   -38742.105    33830.627   -68246.479   -81810.463   -21467.671     13785.75    37114.675    86.002979 
   38200    1527.1886   -114.34426    1.3818323   -112.96243   -3404.9244    4.4084196    4.4084196    4.4084196   -3404.9244     69574.55   -479.23382   -79310.089   -980.71971   -22362.007    21638.735    85.673945 
   38300    1729.0103   -114.52196    1.5644448   -112.95752    3145.4735    4.4047399    4.4047399    4.4047399    3145.4735    70078.599    1162.3383   -61804.516   -24895.093   -8439.3512   -2768.5248     85.45959 
   38400    1136.7252   -114.00481    1.0285329   -112.97628     15209.93     4.415102     4.415102     4.415102     15209.93    87709.826    14833.605   -56913.641    -9915.523   -5381.2638    38406.912    86.064141 
   38500    1922.6156   -114.68823     1.739623   -112.94861    9235.9607    4.4239751    4.4239751    4.4239751    9235.9607   -10147.954    73697.121   -35841.285   -25030.685    7280.5677   -25367.544    86.584075 
   38600    686.79348    -113.5693   0.62142518   -112.94787    55523.623    4.4150311    4.4150311    4.4150311    55523.623       104737     64652.62   -2818.7453    -30978.48    58.340618    49214.065    86.059991 
   38700    2242.1357    -114.9628    2.0287315   -112.93407   -79.298083    4.4180983    4.4180983    4.4180983   -79.298083    10477.183    15379.574   -26094.651   -23021.058    15343.308   -3485.2295    86.239477 
   38800    1158.4082   -113.99061    1.0481521   -112.94246    18388.749    4.4089021    4.4089021    4.4089021    18388.749    84146.145    20288.793   -49268.691   -14521.388    -8222.249   -7264.8393    85.702083 
   38900    1100.3174    -113.9531   0.99559028   -112.95751    8934.6899    4.3982648    4.3982648    4.3982648    8934.6899    38609.363    161.08879   -11966.382   -10651.809   -7663.9492    38669.061    85.083262 
   39000    2070.0499    -114.8378    1.8730247   -112.96477    6321.8012    4.4088233    4.4088233    4.4088233    6321.8012     12266.18    -7204.576      13903.8   -21618.197   -12242.208   -24531.348    85.697484 
   39100    1210.0263   -114.06481    1.0948572   -112.96995     16941.89    4.4210106    4.4210106    4.4210106     16941.89    24486.718    18134.702    8204.2499    19173.777   -13311.423   -2964.8379    86.410134 
   39200    1574.2871   -114.37199    1.4244481   -112.94754   -3260.6697    4.4332962    4.4332962    4.4332962   -3260.6697   -18413.817   -34558.979    43190.787    15595.164   -993.98637    18836.072    87.132513 
   39300    2075.5849   -114.78267    1.8780329   -112.90464    -20902.52    4.4435514    4.4435514    4.4435514    -20902.52   -22685.249   -20805.288   -19217.022   -13450.798    2363.7913   -29177.148    87.738586 
   39400    1310.9262   -114.08287    1.1861535   -112.89671    -22740.12     4.436436     4.436436     4.436436    -22740.12   -28325.024   -49485.356    9590.0202   -5689.6045   -2462.1335    12349.467    87.317775 
   39500    2501.1036   -115.16889    2.2630511   -112.90584   -4095.7974     4.408449     4.408449     4.408449   -4095.7974   -38492.441    42020.185   -15815.136   -17294.931    13800.957   -18860.936    85.675662 
   39600    1605.4167   -114.40497    1.4526147   -112.95235    54002.198    4.3867043    4.3867043    4.3867043    54002.198     10918.68    123992.45    27095.462   -7722.6367   -25875.991   -2580.2795    84.414119 
   39700    1209.2417   -114.12651    1.0941473   -113.03236    18048.514    4.4079036    4.4079036    4.4079036    18048.514    18495.787    37450.872   -1801.1159    8148.1094    4283.6073    23451.986    85.643868 
   39800    1899.0671   -114.72096    1.7183158   -113.00264   -23268.302    4.4434226    4.4434226    4.4434226   -23268.302   -16724.984   -7888.1192   -45191.804    5301.5496      7511.55    10550.729    87.730956 
   39900    1809.4175   -114.61856     1.637199   -112.98136   -16125.192    4.4166224    4.4166224    4.4166224   -16125.192   -31923.161    15916.367    -32368.78    6101.4881   -4910.4914    12068.228    86.153079 
   40000    1686.7007   -114.46201    1.5261622   -112.93585    43162.156    4.3587321    4.3587321    4.3587321    43162.156    60770.998    30814.594    37900.878    31245.016   -1861.9184    18923.715    82.809573 
   40100    1353.8122   -114.25154    1.2249577   -113.02658   -16308.859    4.3847445    4.3847445    4.3847445   -16308.859   -28803.092    31923.473   -52046.958   -4147.8443    43327.471   -19970.779    84.301026 
   40200    1983.6037   -114.79061    1.7948063    -112.9958    -14784.61    4.4129954    4.4129954    4.4129954    -14784.61   -30168.753   -34301.824    20116.746    -17397.63    3269.8736   -2713.4013    85.941006 
   40300    1888.1903   -114.69256    1.7084742   -112.98408   -27308.403    4.4197356    4.4197356    4.4197356   -27308.403   -33802.725     7980.224   -56102.707    11114.708    11908.568    13005.966    86.335395 
   40400     953.7718   -113.82933   0.86299277   -112.96634   -31506.676    4.4150837    4.4150837    4.4150837   -31506.676   -45653.459    53136.702   -102003.27   -2794.6354    56532.864   -16843.738    86.063066 
   40500    1872.2551   -114.62459    1.6940558   -112.93053    43176.285    4.3654688    4.3654688    4.3654688    43176.285    53355.703    64306.414    11866.737   -12045.804   -11843.963    8158.7882    83.194128 
   40600    1852.7962   -114.67209     1.676449   -112.99565   -8333.5759    4.3803003    4.3803003    4.3803003   -8333.5759   -45144.728    38427.144   -18283.144    5300.8666    36035.401   -11553.558    84.044957 
   40700    1309.8048   -114.17743    1.1851389   -112.99229    -48951.41    4.4193126    4.4193126    4.4193126    -48951.41    -39461.62   -26905.779   -80486.831    2593.7529    24900.213   -32801.873    86.310607 
   40800    1797.4725   -114.58335    1.6263909   -112.95696     19219.78    4.3975409    4.3975409    4.3975409     19219.78    20707.767    46152.161   -9200.5886   -14079.848   -10874.735    6137.6072    85.041255 
   40900    1953.7406   -114.73348    1.7677856   -112.96569   -18168.316    4.4035252    4.4035252    4.4035252   -18168.316    -55134.26   -16818.627     17447.94   -495.94635    20332.057   -4645.6312    85.388909 
   41000    1704.6513   -114.50874    1.5424043   -112.96633   -15531.979    4.4107647    4.4107647    4.4107647   -15531.979   -43224.131     30861.26   -34233.066    -566.0537    3551.6806   -31767.314    85.810747 
   41100    1259.7403   -114.11362    1.1398395   -112.97378    45365.676    4.4034079    4.4034079    4.4034079    45365.676    5806.3791    37281.985    93008.663   -21552.648    5861.3754    8494.8548    85.382086 
   41200    1785.6216   -114.57831     1.615668   -112.96264    14464.568     4.406418     4.406418     4.406418    14464.568    21932.137   -10528.744    31990.311    3600.9817    6546.3719    19316.896    85.557303 
   41300    1064.9997   -113.92786   0.96363414   -112.96423    6581.5588    4.4027711    4.4027711    4.4027711    6581.5588    17298.743      36711.8   -34265.867   -18776.957   -8950.8603   -35865.468    85.345046 
   41400    1713.4704   -114.53055    1.5503841   -112.98017   -18426.512    4.3937656    4.3937656    4.3937656   -18426.512    6535.7157   -30571.144   -31244.108   -7872.2649   -10445.147    11603.664    84.822418 
   41500    1765.7015   -114.58413    1.5976438   -112.98649    39384.746     4.387237     4.387237     4.387237    39384.746    47833.574    23810.912    46509.752   -9450.8556    12911.781   -6365.7006    84.444871 
   41600     2155.097    -114.9602    1.9499771   -113.01022   -30907.869    4.4135706    4.4135706    4.4135706   -30907.869   -5543.9021   -48235.306     -38944.4    1782.0922    8446.3875   -22421.162    85.974615 
   41700    1198.7531   -114.05954     1.084657   -112.97488   -25938.641     4.428668     4.428668     4.428668   -25938.641       -32991   -37381.427   -7443.4951   -18212.836   -3415.2315    27400.046    86.859908 
   41800    2224.2345   -114.93972    2.0125341   -112.92718   -6184.5057    4.4049545    4.4049545    4.4049545   -6184.5057   -24546.807    20806.821   -14813.531   -9791.5663    10830.687   -16928.457    85.472083 
   41900    1836.0946   -114.59677    1.6613369   -112.93543   -4219.3996     4.396103     4.396103     4.396103   -4219.3996    10054.334    31.092395   -22743.625    15137.479    8595.4907    15602.158    84.957864 
   42000    1676.3959   -114.47611    1.5168382   -112.95927   -39689.063    4.4007932    4.4007932    4.4007932   -39689.063   -19107.445   -57425.921   -42533.824   -22550.939    1051.8784    48986.181    85.230075 
   42100    2084.9747   -114.86379    1.8865289   -112.97726    12516.713    4.4091659    4.4091659    4.4091659    12516.713    790.12449    12437.723    24322.293    8422.4346    9036.0148    58.565522    85.717467 
   42200    2246.6664   -115.01594     2.032831    -112.9831   -25851.265    4.4047425    4.4047425    4.4047425   -25851.265   -16533.883   -19349.255   -41670.658    -413.9398   -2784.3921    13023.618    85.459744 
   42300    1018.2081   -113.90845   0.92129607   -112.98715    24469.584    4.3812647    4.3812647    4.3812647    24469.584    47319.217   -16520.424     42609.96   -16535.174   -5194.8072    14727.047     84.10048 
   42400    2041.8846   -114.84174    1.8475401    -112.9942    792.63519     4.395146     4.395146     4.395146    792.63519   -26305.472    733.83489    27949.543   -23128.737    5515.3405   -8284.9532    84.902392 
   42500    2328.4006   -115.08622    2.1067858   -112.97944   -16662.348    4.4025868    4.4025868    4.4025868   -16662.348    25041.565   -25150.666   -49877.944    1743.9705   -4079.4992    7277.5541    85.334329 
   42600    1594.6783   -114.43319    1.4428984    -112.9903   -5300.8101    4.3977131    4.3977131    4.3977131   -5300.8101    6175.9456   -10526.254   -11552.122    -26986.48   -10460.807    24028.335    85.051248 
   42700    1719.0379   -114.53505    1.5554216   -112.97963    20536.118    4.3966913    4.3966913    4.3966913    20536.118    8267.3839    61479.734   -8138.7637   -17138.949   -10080.167   -17565.604    84.991976 
   42800    1950.4992   -114.74951    1.7648527   -112.98466   -22209.218    4.3902669    4.3902669    4.3902669   -22209.218    2181.9155   -13666.259   -55143.309     6760.105   -18342.978    16324.213    84.619948 
   42900    1619.6537   -114.46027    1.4654967   -112.99477   -5299.3724    4.3875239    4.3875239    4.3875239   -5299.3724    13654.056   -5871.7536    -23680.42   -16646.472   -11355.389    30299.129    84.461442 
   43000    1601.4501   -114.44948    1.4490257   -113.00045   -11048.161    4.3996297    4.3996297    4.3996297   -11048.161   -9157.3137    13006.033   -36993.203    -18503.48     7062.073   -35599.498    85.162495 
   43100    1612.1058   -114.44972    1.4586672   -112.99105   -830.41663    4.4063567    4.4063567    4.4063567   -830.41663    44222.769    7701.3642   -54415.383    5709.1822   -12609.049    5552.3497     85.55373 
   43200    1892.7615   -114.69815    1.7126104   -112.98554   -22716.403    4.4133789    4.4133789    4.4133789   -22716.403   -5833.5593   -10351.974   -51963.677   -27570.332   -11031.747    8500.9327    85.963409 
   43300    1574.8748   -114.41703    1.4249798   -112.99205   -1866.0936    4.3915176    4.3915176    4.3915176   -1866.0936    41266.952   -5613.9881   -41251.244   -3532.6542     6396.865    -38258.35    84.692289 
   43400    2201.6853   -114.97911    1.9921312   -112.98698    10661.306      4.36827      4.36827      4.36827    10661.306    51697.427    14037.392   -33750.902   -8861.1596   -33888.168    7319.7432    83.354381 
   43500     1832.598   -114.67356    1.6581732   -113.01538    896.56302    4.3891644    4.3891644    4.3891644    896.56302    42748.615    10164.063   -50222.989    4147.0832    12808.008    25139.629    84.556217 
   43600      1373.63   -114.25288    1.2428892      -113.01   -27237.558    4.4130322    4.4130322    4.4130322   -27237.558    12630.162   -55934.043   -38408.793    13331.826    1540.7776   -22264.949    85.943157 
   43700    1985.0129   -114.77753    1.7960814   -112.98145    -44460.42    4.4122621    4.4122621    4.4122621    -44460.42   -10779.762   -62400.448   -60201.051     2576.795   -23882.158    1311.1172     85.89817 
   43800    2034.2942   -114.82011    1.8406721   -112.97944   -7283.1941    4.3836971    4.3836971    4.3836971   -7283.1941    2667.6728    18716.632   -43233.887    10218.229    24781.343    11932.925    84.240634 
   43900    1396.5764   -114.25785    1.2636517    -112.9942    11531.782    4.3754418    4.3754418    4.3754418    11531.782    32628.775    20315.704   -18349.134   -2262.5253    13869.637   -14009.178    83.765607 
   44000    1618.8293   -114.47026    1.4647508   -113.00551   -25230.029    4.4031431    4.4031431    4.4031431   -25230.029    19488.537   -71170.326   -24008.299    19079.276   -6888.0414    362.33034     85.36668 
   44100    1861.9789   -114.67717    1.6847576   -112.99241   -10455.003     4.397956     4.397956     4.397956   -10455.003    32258.997   -31187.775    -32436.23    3949.3467    31235.468    4052.3553    85.065342 
   44200    1891.5478   -114.70585    1.7115122   -112.99434    8335.9694    4.3902633    4.3902633    4.3902633    8335.9694    55940.534    1470.1088   -32402.735   -18606.412    18296.091   -1659.3223    84.619741 
   44300    2122.3997   -114.91825    1.9203919   -112.99786   -43999.638    4.4004608    4.4004608    4.4004608   -43999.638    -28064.17   -80261.185   -23673.558    1459.6902   -13207.564   -4565.9965    85.210764 
   44400    1470.5057   -114.33502    1.3305445   -113.00447   -8605.2545    4.3890388    4.3890388    4.3890388   -8605.2545    16398.182   -8316.1196   -33897.826    857.99067    40549.253    12122.669    84.548957 
   44500    1850.5912   -114.67146    1.6744538   -112.99701    2283.3863    4.3839158    4.3839158    4.3839158    2283.3863    47188.756    14438.049   -54776.647   -5002.1313   -3977.2741   -3353.2057    84.253243 
   44600    2014.8879   -114.82352     1.823113   -113.00041   -37244.257    4.3982773    4.3982773    4.3982773   -37244.257   -273.71374   -55673.011   -55786.046    15025.644   -33717.365    3138.0678    85.083983 
   44700     1342.368   -114.22181    1.2146027   -113.00721   -19196.414    4.4026592    4.4026592    4.4026592   -19196.414    13617.813   -12977.002   -58230.054   -4718.4941     40835.58    1435.8492     85.33854 
   44800    1051.3697   -113.96302    0.9513014   -113.01171    13322.656    4.3875598    4.3875598    4.3875598    13322.656    80473.269    19446.568   -59951.869    10594.446   -32710.943    4805.9209    84.463513 
   44900    2215.5316   -115.02206    2.0046596    -113.0174   -32362.035    4.3793812    4.3793812    4.3793812   -32362.035   -9166.5377   -24318.109    -63601.46   -10105.456   -25295.523   -7218.0218    83.992063 
   45000    2027.4628   -114.83957    1.8344909   -113.00508    31426.272    4.3700784    4.3700784    4.3700784    31426.272    103519.14   -2980.0625   -6260.2644    8734.9697    5219.6179    -291.3349    83.457947 
   45100    958.82697   -113.90451   0.86756679   -113.03694   -7636.8478    4.3946324    4.3946324    4.3946324   -7636.8478    15926.707    16342.896   -55180.147    -7751.463   -27147.499    6436.9451    84.872632 
   45200    1622.4272   -114.47475    1.4680062   -113.00674   -22649.865    4.4076943    4.4076943    4.4076943   -22649.865     14869.93   -19681.856   -63137.671   -11321.832   -2332.0897    -16659.21    85.631666 
   45300     1692.482   -114.50641    1.5313933   -112.97502    17813.133    4.4033545    4.4033545    4.4033545    17813.133    83523.755    22947.096   -53031.451    4571.2821   -3696.9515   -8923.0598     85.37898 
   45400    1809.7396   -114.59036    1.6374904   -112.95287    10019.362    4.3962229    4.3962229    4.3962229    10019.362    43582.919    31395.121   -44919.954   -19530.891   -42953.006   -1541.1264    84.964816 
   45500    1459.3901   -114.27592    1.3204868   -112.95543    18473.578    4.4004804    4.4004804    4.4004804    18473.578    63512.664    35832.992   -43924.922   -12762.176    20772.072   -21547.385    85.211907 
   45600    1424.8221   -114.24462     1.289209   -112.95541   -15383.666    4.4105263    4.4105263    4.4105263   -15383.666   -31743.618    42535.423   -56942.803    13253.576   -36568.522   -5825.4164    85.796833 
   45700    2020.1785   -114.76319       1.8279   -112.93529    9641.1141    4.3937022    4.3937022    4.3937022    9641.1141   -2561.1211    55489.055   -24004.592   -8713.9089   -29101.274    14054.561    84.818748 
   45800    1314.8503   -114.15401    1.1897042   -112.96431    19148.653    4.3959404    4.3959404    4.3959404    19148.653   -27169.903    61670.824    22945.038    3940.1709    30757.536   -28984.043    84.948435 
   45900    1432.1581   -114.26841    1.2958468   -112.97256   -18120.225    4.4195608    4.4195608    4.4195608   -18120.225   -40860.801    3842.6822   -17342.556   -9707.5428   -38672.761   -12791.564    86.325149 
   46000    2061.8468   -114.80041    1.8656023   -112.93481   -30450.618    4.4201486    4.4201486    4.4201486   -30450.618    -42953.61   -10772.887   -37625.358   -4581.4516    6424.2131    12858.021    86.359596 
   46100    1452.5438   -114.23771    1.3142922   -112.92342    -27176.87    4.3999961    4.3999961    4.3999961    -27176.87    27969.794   -40759.568   -68740.837   -13068.573    16320.789   -12345.622    85.183773 
   46200    2223.2412   -114.94234    2.0116353    -112.9307    8740.8521    4.4024814    4.4024814    4.4024814    8740.8521    27656.409     11407.65   -12841.503    14927.454   -14389.787    862.54593    85.328201 
   46300    1272.7537   -114.09637    1.1516143   -112.94476   -17261.324    4.4291997    4.4291997    4.4291997   -17261.324    114.98319    4744.2885   -56643.243   -1583.6322    5406.2414   -25046.821    86.891198 
   46400    1429.8519   -114.20736      1.29376    -112.9136   -11200.745    4.4175912    4.4175912    4.4175912   -11200.745   -20094.355    22787.044   -36294.923   -5858.4685     4828.408   -28309.009     86.20979 
   46500      2301.62   -114.98495    2.0825541    -112.9024     15683.07    4.3863554    4.3863554    4.3863554     15683.07    16087.424    30890.936     70.84887   -1469.5313    7665.1459    14278.851    84.393974 
   46600    1329.5038   -114.16373     1.202963   -112.96077   -13577.224    4.3719626    4.3719626    4.3719626   -13577.224    -25529.35    15619.521   -30821.842     26146.14    23560.421     -33223.1    83.565944 
   46700     1560.405   -114.42751    1.4118872   -113.01562   -2381.1726     4.377668     4.377668     4.377668   -2381.1726    42404.147    1534.8976   -51082.562   -2769.5472    10802.272   -31652.891    83.893532 
   46800    2095.0598   -114.92222    1.8956542   -113.02657   -29879.276    4.4169974    4.4169974    4.4169974   -29879.276   -50959.998    1069.8602   -39747.689    -4517.062   -10917.932    8598.4931    86.175026 
   46900    1182.9962   -114.03504    1.0703998   -112.96464   -59350.027    4.4332481    4.4332481    4.4332481   -59350.027   -65182.467   -36632.465   -76235.149    18184.553    40095.095   -20458.567    87.129679 
   47000    2416.6671   -115.09824    2.1866512   -112.91159    17465.346    4.3802022    4.3802022    4.3802022    17465.346    13635.246    18284.364    20476.427   -11963.945   -374.84444   -13712.566    84.039311 
   47100    1838.5564   -114.59031    1.6635645   -112.92674    1256.4114     4.368386     4.368386     4.368386    1256.4114   -41077.507    20095.024    24751.717    26207.159   -6261.4981   -3282.8256     83.36102 
   47200    950.19251   -113.84275   0.85975415     -112.983   -10284.222    4.3909278    4.3909278    4.3909278   -10284.222    -22164.77    32944.214   -41632.111    15690.428    46518.128   -25887.234    84.658173 
   47300    2153.0958   -114.92185    1.9481663   -112.97368    335.30883      4.40782      4.40782      4.40782    335.30883   -14565.935    -28038.98    43610.841   -6210.4904   -6433.2422   -563.22128    85.638995 
   47400    1805.5047   -114.59148    1.6336586   -112.95783   -29600.506    4.4188117    4.4188117    4.4188117   -29600.506   -39080.315   -36232.386   -13488.817    23178.825    816.74622    7384.4648    86.281261 
   47500    1110.8432   -113.97036    1.0051143   -112.96524   -32105.427    4.3955731    4.3955731    4.3955731   -32105.427   -26804.077   -14640.332   -54871.872    22846.517    26053.441   -39730.604    84.927144 
   47600    1998.3734   -114.77345    1.8081703   -112.96528    14460.113    4.3705519    4.3705519    4.3705519    14460.113   -3044.6667     10603.04    35821.967   -21525.582    -20919.49   -19207.073    83.485079 
   47700    2046.1302   -114.85152    1.8513816   -113.00014    27822.795    4.3901101    4.3901101    4.3901101    27822.795    -5330.551    75791.777    13007.159    15590.583    7614.9713    9873.1524    84.610886 
   47800    1558.5237   -114.40961     1.410185   -112.99942   -28414.192    4.4189963    4.4189963    4.4189963   -28414.192   -39426.653   -46046.862    230.93956    11441.201    866.33731   -33376.731    86.292076 
   47900    1455.7851   -114.29126    1.3172249   -112.97403   -25469.008    4.4084956    4.4084956    4.4084956   -25469.008   -57640.109   -55381.713    36614.798   -52374.907   -17414.565   -14332.918    85.678375 
   48000    2136.5705   -114.87031    1.9332139   -112.93709    31753.467    4.3699944    4.3699944    4.3699944    31753.467   -29912.458    74778.297    50394.562    11608.913    17039.116    25943.423    83.453134 
   48100    1841.9542   -114.63924    1.6666388    -112.9726   -17534.504    4.3707055    4.3707055    4.3707055   -17534.504   -28342.599   -36006.759    11745.845    15272.196    11734.598   -35519.248    83.493879 
   48200    928.88657   -113.85629   0.84047609   -113.01581   -14756.183    4.3935043    4.3935043    4.3935043   -14756.183   -67755.034    -20330.73    43817.215   -57845.397   -15548.923   -16059.385    84.807288 
   48300    2279.5924   -115.05488    2.0626231   -112.99226   -7565.3177    4.4040571    4.4040571    4.4040571   -7565.3177   -46489.065    20996.513    2796.5988   -7367.6902   -6457.2319   -1103.8171    85.419855 
   48400     1737.192   -114.56217    1.5718478   -112.99032   -21173.077    4.3992946    4.3992946    4.3992946   -21173.077   -17434.511   -29821.577   -16263.144   -3641.7723    4668.8128   -12134.324    85.143035 
   48500    926.59119   -113.83178   0.83839918   -112.99338   -18968.601    4.3833454    4.3833454    4.3833454   -18968.601    -55608.75   -20545.929    19248.878   -38432.711    -33971.07   -30376.365    84.220357 
   48600    2156.5582   -114.94782    1.9512992   -112.99653    5487.5553    4.3740316    4.3740316    4.3740316    5487.5553       -22211    2937.6539    35736.012    3772.0447    -8150.842    13510.335     83.68464 
   48700    2026.9893   -114.84653    1.8340625   -113.01246    7934.5579    4.3958916    4.3958916    4.3958916    7934.5579   -3572.2421   -31884.039    59259.954   -6226.4584    7991.1507   -25208.807    84.945606 
   48800    1268.7844    -114.1423    1.1480227   -112.99428   -43192.745    4.4304597    4.4304597    4.4304597   -43192.745   -86232.681   -42561.215   -784.33988    -21253.53   -22058.268   -8301.2664    86.965372 
   48900    1362.4366   -114.17097    1.2327612   -112.93821   -36974.001    4.4196495    4.4196495    4.4196495   -36974.001   -30431.623   -30205.855   -50284.526    11073.486   -10311.703   -4937.9689     86.33035 
   49000    1726.1515   -114.47731    1.5618581   -112.91546    17169.964    4.3638344    4.3638344    4.3638344    17169.964     71846.91   -1218.3339   -19118.683      6350.41    9958.4412   -59914.043    83.100719 
   49100     2186.426   -114.92633    1.9783242   -112.94801    35341.595     4.349391     4.349391     4.349391    35341.595    21127.803    25149.962    59747.022    -37251.53   -26830.492    15676.742    82.278307 
   49200    1482.1212   -114.37076    1.3410544    -113.0297   -24146.815    4.3904745    4.3904745    4.3904745   -24146.815   -31992.539    5121.7164   -45569.623    -17485.06    -3617.828   -13691.295    84.631955 
   49300    1248.2872   -114.13681    1.1294765   -113.00733   -25503.181    4.4112681    4.4112681    4.4112681   -25503.181   -40340.187    39709.474   -75878.831    13987.918     26200.21   -24701.817    85.840129 
   49400    1816.9425   -114.63019    1.6440077   -112.98618    19346.191    4.3899782    4.3899782    4.3899782    19346.191   -18573.311    20716.648    55895.237   -8342.8764   -6645.1381   -2538.2918    84.603261 
   49500    1555.5299   -114.39463    1.4074761   -112.98716    26529.165    4.3758653    4.3758653    4.3758653    26529.165    38391.969    13034.512    28161.014   -36400.921    468.87596   -19381.368    83.789934 
   49600     1696.989   -114.52838    1.5354713   -112.99291     -4148.03    4.3860689    4.3860689    4.3860689     -4148.03    52797.996   -33395.789   -31846.297    17800.023    4874.3148   -18957.135    84.377441 
   49700    1064.0684    -113.9595   0.96279149   -112.99671     32694.06    4.3997459    4.3997459    4.3997459     32694.06    25597.755   -34186.729    106671.15   -11426.906   -21336.857    7848.9455    85.169245 
   49800    1750.0366   -114.55692    1.5834699   -112.97345    3367.2745    4.4104983    4.4104983    4.4104983    3367.2745   -1292.5318    781.24141    10613.114   -27234.126    -12712.38   -6846.5082      85.7952 
   49900    2003.6834   -114.76999    1.8129749   -112.95702    17587.261    4.3931994    4.3931994    4.3931994    17587.261    31645.517   -15125.023    36241.288    11006.422   -1348.6051   -221.63506    84.789633 
   50000    1200.5182   -114.07549    1.0862541   -112.98924    -28068.15    4.3868346    4.3868346    4.3868346    -28068.15    -37394.67   -67915.918    21106.138   -23018.684   -161.39429    27741.156    84.421641 
   50100    1667.9594    -114.5028    1.5092047    -112.9936   -578.31026    4.3814604    4.3814604    4.3814604   -578.31026    23048.881   -35799.017    11015.205   -765.16625   -5826.9918    21106.298    84.111751 
   50200    2085.5426   -114.88621    1.8870428   -112.99917   -2232.2594    4.3826862    4.3826862    4.3826862   -2232.2594    8520.3147    27313.313   -42530.406    7380.8863    3212.0842   -19705.237    84.182366 
   50300    1601.1365   -114.44443     1.448742   -112.99569    -45837.89    4.4072091    4.4072091    4.4072091    -45837.89   -70278.314   -72103.888    4868.5324   -37050.461    29826.694    9163.2407    85.603393 
   50400    1942.5749   -114.73802    1.7576826   -112.98034    1959.6427    4.3844204    4.3844204    4.3844204    1959.6427   -4707.4747    8270.8912    2315.5117    1954.3381   -11112.778   -8810.6528    84.282335 
   50500    1297.4182   -114.15517    1.1739312   -112.98124    40555.755    4.3615184    4.3615184    4.3615184    40555.755    54461.456    11608.635    55597.174    5573.3325   -18496.741   -40989.725    82.968481 
   50600    1698.4661   -114.53989    1.5368078   -113.00308   -17785.446    4.3906267    4.3906267    4.3906267   -17785.446   -42392.043    6919.8224   -17884.118   -2443.1564    14636.693    4854.2814     84.64076 
   50700     2032.352   -114.80301    1.8389148    -112.9641    4517.5435    4.4026972    4.4026972    4.4026972    4517.5435   -35778.797    38135.863    11195.565    6.5449752   -9898.1447    4175.4853     85.34075 
   50800    1329.4277   -114.16412    1.2028941   -112.96122   -9261.1228    4.4090795    4.4090795    4.4090795   -9261.1228   -40895.333    50435.995    -37324.03    7152.7086   -4001.6613    -29056.08    85.712425 
   50900    1758.1263   -114.53792    1.5907896   -112.94713   -12020.202    4.4007295    4.4007295    4.4007295   -12020.202   -24452.379   -128.50492   -11479.721    2055.5679   -5605.0432    30082.917    85.226376 
   51000    1848.5219   -114.61367    1.6725814   -112.94109     46940.32    4.3629244    4.3629244    4.3629244     46940.32    75423.422    41396.035    24001.502    11963.515   -16402.011    3013.1848    83.048745 
   51100    1763.0362   -114.58123    1.5952322     -112.986    30011.567    4.3737988    4.3737988    4.3737988    30011.567    20775.745    18321.177    50937.779    14390.522   -4507.7805    -20374.49     83.67128 
   51200    1179.5472   -114.07604    1.0672791   -113.00876   -12398.498    4.4070081    4.4070081    4.4070081   -12398.498   -4648.5819   -17705.962   -14840.951    3156.6957   -143.16283    34970.653    85.591678 
   51300    1674.2144   -114.48298    1.5148643   -112.96812    9660.4318    4.4204141    4.4204141    4.4204141    9660.4318    13122.553    -1302.587    17161.329    8713.2616   -6846.1776    12687.337    86.375158 
   51400    2273.7207    -114.9975    2.0573103   -112.94019   -15704.071    4.4059439    4.4059439    4.4059439   -15704.071   -22745.054   -49056.504    24689.346   -7904.7441   -7683.8389    1815.2102    85.529689 
   51500    918.53494   -113.78179   0.83110972   -112.95068    14555.302    4.3717591    4.3717591    4.3717591    14555.302    14750.122   -15117.975     44033.76   -2608.7195   -15571.905    60600.247    83.554273 
   51600    1998.3008   -114.78414    1.8081045   -112.97604   -5385.3865    4.3706944    4.3706944    4.3706944   -5385.3865    646.05621   -11901.328   -4900.8872    -11731.51   -6544.9222     525.9904    83.493241 
   51700    1712.5862   -114.55197     1.549584   -113.00239   -1455.2205    4.3924228    4.3924228    4.3924228   -1455.2205    10009.392   -60884.072    46509.018   -5718.5772   -5800.2989    -31108.26    84.744673 
   51800    2000.4752   -114.80057     1.810072    -112.9905    2067.6542    4.4050853    4.4050853    4.4050853    2067.6542   -23263.625   -19389.623     48856.21   -3534.9498   -13186.405    23415.271    85.479693 
   51900    1332.9579   -114.18593    1.2060883   -112.97985   -17875.156    4.4034463    4.4034463    4.4034463   -17875.156   -36303.285   -54914.658    37592.476     547.4014    6866.2861   -25232.246    85.384315 
   52000    1220.2214   -114.08843     1.104082   -112.98435   -8575.2321    4.3705793    4.3705793    4.3705793   -8575.2321    41710.289   -81850.228    14414.242     10712.66    -6943.512   -63086.202    83.486648 
   52100     2598.397   -115.31297    2.3510842   -112.96188    43806.829    4.3507262    4.3507262    4.3507262    43806.829    69444.781    25901.301    36074.405   -715.74929   -7907.0104    24206.352    82.354104 
   52200    1322.9948   -114.22177    1.1970735   -113.02469   -12300.741    4.3874957    4.3874957    4.3874957   -12300.741     68582.82   -51870.495   -53614.547   -9008.4042   -3849.8998   -62537.573    84.459812 
   52300    1467.4073   -114.31151     1.327741   -112.98376   -13834.145    4.4081511    4.4081511    4.4081511   -13834.145    56459.417   -72254.318   -25707.533    175.77057   -679.68697   -18769.572    85.658292 
   52400    2011.6806   -114.76979    1.8202109   -112.94958   -22932.755    4.4002497    4.4002497    4.4002497   -22932.755   -288.13804   -39368.292   -29141.835    573.09403    14085.536    11417.592    85.198501 
   52500    1755.7888   -114.53857    1.5886746   -112.94989   -27508.105     4.383276     4.383276     4.383276   -27508.105    26870.156   -42682.547   -66711.924    5952.0753   -9824.0903   -64520.439    84.216355 
   52600    1916.3405   -114.68454    1.7339452   -112.95059    30602.674    4.3626601    4.3626601    4.3626601    30602.674     50767.98    26511.286    14528.754   -3932.8073   -9906.8683    8043.9179    83.033651 
   52700    1379.7871    -114.2498    1.2484603   -113.00134   -9052.0977    4.3787437    4.3787437    4.3787437   -9052.0977   -21848.931   -13498.396    8191.0347    1625.7094   -1213.6483    26907.282     83.95539 
   52800    1956.3472   -114.75265    1.7701441   -112.98251   -15681.606    4.4039325    4.4039325    4.4039325   -15681.606    19743.164    5818.6327   -72606.616    2669.3366   -14476.738    -37635.87    85.412603 
   52900    1403.8573   -114.23809    1.2702396   -112.96785   -33291.877    4.4012968    4.4012968    4.4012968   -33291.877   -31825.945   -26132.693   -41916.992    -14327.58    6245.2236    11213.713    85.259338 
   53000    956.02349   -113.84065   0.86503015   -112.97562    -6738.033    4.3740566    4.3740566    4.3740566    -6738.033    -15029.22    -14274.41    9089.5314    16309.032     12207.96      29417.3    83.686072 
   53100    2397.2794   -115.13624    2.1691088   -112.96713    51660.991    4.3630509    4.3630509    4.3630509    51660.991    52945.021    84957.634    17080.319   -6712.5352   -5602.1133   -14081.022    83.055966 
   53200    1512.9215   -114.37948    1.3689232   -113.01055   -14669.258     4.389601     4.389601     4.389601   -14669.258    12385.037   -30684.486   -25708.326    -30289.82    4448.0713    13630.089    84.581455 
   53300    923.60193   -113.83224   0.83569444   -112.99654    -19009.25    4.4012253    4.4012253    4.4012253    -19009.25    50879.158    -71403.12   -36503.789    4950.8063    2638.0346    41463.045    85.255187 
   53400    2033.3066   -114.80594    1.8397786   -112.96616   -19392.773    4.3863586    4.3863586    4.3863586   -19392.773    5792.2551   -26252.321   -37718.254    11897.174   -5368.6571    -28252.44    84.394164 
   53500    1350.9376   -114.19908    1.2223567   -112.97672   -2398.2072    4.3634465    4.3634465    4.3634465   -2398.2072     12073.01   -37301.096    18033.465   -23505.418   -1040.0208   -24939.515    83.078561 
   53600    1876.1581   -114.68847    1.6975872   -112.99089    30815.401    4.3614985    4.3614985    4.3614985    30815.401    48743.951    22178.737    21523.516   -9664.3333    -1458.713    23181.428    82.967344 
   53700    1537.0873   -114.41608    1.3907889   -113.02529   -9168.7714    4.4017432    4.4017432    4.4017432   -9168.7714    13548.399    -29763.32   -11291.394    28410.113   -12342.453   -39812.437    85.285285 
   53800    1924.8742   -114.70681    1.7416666   -112.96514   -22844.924    4.4142864    4.4142864    4.4142864   -22844.924   -4438.0023   -31782.787   -32313.982    -9962.823   -5234.9517   -3678.7917     86.01645 
   53900    1703.6869   -114.49521    1.5415317   -112.95368    40884.805    4.3772984    4.3772984    4.3772984    40884.805    45333.103    38921.874    38399.438   -7660.5783   -498.51161    12964.482    83.872283 
   54000    1550.2105   -114.36848     1.402663   -112.96581    13187.154    4.3519886    4.3519886    4.3519886    13187.154      58072.2   -35703.076    17192.339    13354.924   -5616.7507   -64487.417    82.425817 
   54100     1566.313    -114.4231    1.4172329   -113.00587    33664.691    4.3658014    4.3658014    4.3658014    33664.691    2141.3033    63761.849    35090.921   -6546.4455   -13587.063    466.83182    83.213144 
   54200    1645.5693   -114.50344    1.4889457    -113.0145   -23401.156    4.4027972    4.4027972    4.4027972   -23401.156   -21991.797   -7151.0416    -41060.63   -16107.905    18309.361   -6983.9241    85.346565 
   54300     1638.849   -114.46305     1.482865   -112.98019   -30324.374    4.4041314    4.4041314    4.4041314   -30324.374    7958.7483   -56845.726   -42086.144   -85.320897   -4923.2508    -68476.63    85.424175 
   54400    1908.9505   -114.68518    1.7272585   -112.95792   -4993.0704    4.3735563    4.3735563    4.3735563   -4993.0704   -48890.758    57912.757   -24001.211    608.11003    140.19309    6934.9379    83.657359 
   54500    1318.3068    -114.1689    1.1928317   -112.97607    9244.7967    4.3568971    4.3568971    4.3568971    9244.7967   -42659.426    68168.857    2224.9587   -8172.9564    20302.506   -13273.349    82.705027 
   54600     1918.509   -114.73559    1.7359073   -112.99968    11218.215    4.3748839    4.3748839    4.3748839    11218.215   -21575.749    44539.034    10691.358   -535.56669   -8539.6407    -28864.54    83.733567 
   54700    934.53993   -113.85477   0.84559137   -113.00918   -33081.382    4.4056067    4.4056067    4.4056067   -33081.382   -111969.97    91133.203   -78407.377    18042.185    15439.834    4609.1869     85.51005 
   54800    1665.3551   -114.47973    1.5068483   -112.97288   -7066.4489     4.391629     4.391629     4.391629   -7066.4489   -45246.904    60468.818   -36421.261    2891.7488   -5611.6803    23357.439    84.698736 
   54900    1880.0489   -114.66025    1.7011078   -112.95915     47907.05    4.3691842    4.3691842    4.3691842     47907.05    7778.5744    100334.89    35607.687    14880.506    10868.796    14527.077    83.406721 
   55000    1446.2364    -114.2942    1.3085851   -112.98561    1899.5442    4.3741773    4.3741773    4.3741773    1899.5442   -64898.706    106663.07    -36065.73    25229.489    19848.812   -2900.1813    83.693004 
   55100    1671.4846   -114.50015    1.5123943   -112.98776    783.01396    4.3878753    4.3878753    4.3878753    783.01396   -7542.5099    8670.2154    1221.3364    5308.7199    -27318.68    32583.057    84.481737 
   55200    1874.3185   -114.66027    1.6959228   -112.96434   -15392.162    4.4074704    4.4074704    4.4074704   -15392.162   -29536.191   -14330.316   -2309.9797   -952.24838    15329.384    10786.655     85.61862 
   55300    1300.5486   -114.12883    1.1767637   -112.95207   -22464.866    4.3975889    4.3975889    4.3975889   -22464.866   -75024.627    11796.241   -4166.2121    25298.264   -1074.9174   -2620.5722    85.044041 
   55400    2129.2774    -114.8547    1.9266149   -112.92809    6207.3497    4.3761077    4.3761077    4.3761077    6207.3497    13081.752   -1664.7008    7204.9976   -3777.7222   -7556.8025    17117.657    83.803857 
   55500    1320.2623    -114.1512    1.1946011    -112.9566   -6703.6652     4.388001     4.388001     4.388001   -6703.6652    1918.5369    -28058.84    6029.3073   -19456.934    3684.6761   -7661.4486    84.488999 
   55600    1467.0977   -114.29797    1.3274608   -112.97051   -38072.914    4.3974811    4.3974811    4.3974811   -38072.914   -34179.013   -38278.788   -41760.941    16225.501    1974.8075   -10571.377    85.037788 
   55700    2788.0802   -115.47932    2.5227135   -112.95661    5067.4586    4.3743793    4.3743793    4.3743793    5067.4586    15250.511   -12219.414     12171.28   -3827.5079    3621.6508   -1072.7918    83.704599 
   55800    1377.2586   -114.23007    1.2461725    -112.9839    19810.002    4.3688918    4.3688918    4.3688918    19810.002    25348.136     5859.502    28222.367   -40781.699   -23.308419   -15208.867    83.389981 
   55900    1853.9924   -114.67149    1.6775313   -112.99396   -18431.996      4.38979      4.38979      4.38979   -18431.996   -2872.8476   -40252.524   -12170.618    30226.623   -752.97651   -12900.786    84.592378 
   56000    2001.6796   -114.78417    1.8111617   -112.97301    13688.951    4.3886776    4.3886776    4.3886776    13688.951    17184.206     3854.256    20028.391   -23386.267    5711.9815    23235.926    84.528086 
   56100    1323.7456   -114.17248    1.1977528   -112.97473    15747.157    4.3811313    4.3811313    4.3811313    15747.157    28751.803   -7687.2575    26176.926   -31105.104   -18088.228   -15064.548    84.092797 
   56200    2326.4217    -115.0671    2.1049952    -112.9621    352.21105    4.3780511    4.3780511    4.3780511    352.21105   -9714.0118   -4660.3593    15431.004    18367.164    10691.458   -12478.876    83.915555 
   56300    936.84932   -113.83649   0.84768095    -112.9888    41378.852    4.3669656    4.3669656    4.3669656    41378.852    61607.417    8395.4119    54133.726   -45815.644   -4026.3646    27093.712    83.279731 
   56400     1688.369   -114.51881    1.5276717   -112.99114    3856.0104    4.3887766    4.3887766    4.3887766    3856.0104    16357.503   -8447.2252    3657.7538   -13440.734   -22.633041     6908.556    84.533806 
   56500    2357.0519    -115.1006    2.1327101   -112.96789    10459.371    4.3859852    4.3859852    4.3859852    10459.371    -10306.19    8728.2196    32956.084    9265.2588    10669.034   -1808.8315    84.372611 
   56600    928.78246   -113.82092   0.84038189   -112.98053    10325.148    4.3679468    4.3679468    4.3679468    10325.148    18916.572    -9533.346    21592.219   -61173.614    3260.6361    43474.368    83.335879 
   56700    2401.4037   -115.15212    2.1728406   -112.97928   -150.82287    4.3817786    4.3817786    4.3817786   -150.82287    28861.312   -14285.716   -15028.065    18497.673   -10385.538    17183.262     84.13008 
   56800     1539.591   -114.36628    1.3930543   -112.97323    10704.647    4.3854925    4.3854925    4.3854925    10704.647   -40575.961    17243.803    55446.098    -29344.19    1761.2887    534.32785    84.344181 
   56900    1036.2964   -113.90609   0.93766276   -112.96843    5309.2171    4.3824292    4.3824292    4.3824292    5309.2171     1675.409   -10459.957    24712.199   -58055.332    13403.746    32946.305    84.167559 
   57000    2979.7501   -115.63857    2.6961405   -112.94243   -5206.9341    4.3837151    4.3837151    4.3837151   -5206.9341    18637.849   -11244.079   -23014.572    17386.334   -11552.452   -23522.361    84.241672 
   57100    1159.1546   -114.02522    1.0488274   -112.97639     5360.698    4.3737386    4.3737386    4.3737386     5360.698   -29926.198   -2122.3725    48130.665     -62911.1    21682.942    14710.006    83.667826 
   57200    1361.6118   -114.22372    1.2320149    -112.9917    11824.618    4.3701893    4.3701893    4.3701893    11824.618   -8910.4555   -2707.1359    47091.446   -23720.208   -1815.7628    27690.585    83.464298 
   57300    2518.7006   -115.25145    2.2789732   -112.97247   -2852.6606    4.3919331    4.3919331    4.3919331   -2852.6606    9214.8993   -1055.1147   -16717.766   -3329.5671   -7179.1148   -10228.452    84.716335 
   57400    936.25245   -113.82338   0.84714089   -112.97624   -10938.334    4.4018516    4.4018516    4.4018516   -10938.334   -45865.704    10778.172    2272.5305   -69351.999    3286.9399     18112.29    85.291588 
   57500    2157.5071   -114.88448    1.9521578   -112.93232    16020.502    4.3866774    4.3866774    4.3866774    16020.502    16242.422     23743.54    8075.5443    20216.483    2279.9121     39564.29    84.412561 
   57600    2209.0936   -114.93376    1.9988343   -112.93492     12811.09    4.3677035    4.3677035    4.3677035     12811.09   -22848.953    33825.453    27456.768   -35994.451    108.21332   -3256.4476    83.321955 
   57700    1136.4319    -114.0046    1.0282674   -112.97633   -5030.0104    4.3746152    4.3746152    4.3746152   -5030.0104   -30294.113   -31026.153    46230.236   -43800.604   -445.84046    23061.577    83.718141 
   57800    1911.1482   -114.69856    1.7292471   -112.96932    17747.275    4.3838958    4.3838958    4.3838958    17747.275    26667.579    35088.321   -8514.0756    16563.076    9843.4109    30582.659    84.252088 
   57900     1506.579   -114.33861    1.3631843   -112.97543   -17668.247    4.3980682    4.3980682    4.3980682   -17668.247   -40908.556   -35553.256     23457.07    -70714.13   -6737.3918   -21781.805     85.07185 
   58000     1781.678   -114.57117    1.6120997   -112.95907   -10967.378    4.3889923    4.3889923    4.3889923   -10967.378    -20766.44   -40923.908    28788.213    2654.5288     3775.168    29941.439    84.546269 
   58100    1686.9565    -114.4774    1.5263937     -112.951    29684.046    4.3599872    4.3599872    4.3599872    29684.046    31177.682    37985.838    19888.619   -21740.811   -804.01955    11823.871    82.881125 
   58200     1367.567   -114.22622    1.2374034   -112.98881   -8208.4906     4.370926     4.370926     4.370926   -8208.4906   -31246.142   -44553.402    51174.072   -73563.484    4431.9783   -18856.229    83.506518 
   58300    2190.3176   -114.94872    1.9818454   -112.96688    9091.9349    4.3881283    4.3881283    4.3881283    9091.9349   -12977.101    21592.548    18660.358    22629.924   -15063.104    4656.8821     84.49635 
   58400    1375.3016     -114.228    1.2444018    -112.9836   -8202.5948    4.3923549    4.3923549    4.3923549   -8202.5948   -13632.438   -7148.1308   -3827.2152   -58129.552   -7299.9542    9046.5525    84.740746 
   58500    1677.7347   -114.49696    1.5180497   -112.97891    4356.8109    4.3899735    4.3899735    4.3899735    4356.8109   -20124.487    6476.3092    26718.611   -24221.901    14527.862    2331.6378     84.60299 
   58600    2101.6794   -114.86629    1.9016437   -112.96465    11462.318    4.3750894    4.3750894    4.3750894    11462.318   -12781.111    39210.954    7957.1106    10407.722   -9581.2608   -9857.3689    83.745369 
   58700    815.80958   -113.72901   0.73816165   -112.99085   -9423.3314     4.376931     4.376931     4.376931   -9423.3314   -5624.5374   -61084.898    38439.441   -74974.746   -5846.4846    16311.506    83.851164 
   58800    2452.8416   -115.18978    2.2193826    -112.9704   -19212.569    4.3934782    4.3934782    4.3934782   -19212.569   -4247.7185   -21819.697   -31570.291     13014.24   -7481.1145    6251.2669    84.805775 
   58900     1446.355    -114.2843    1.3086924    -112.9756   -18238.735    4.3899476    4.3899476    4.3899476   -18238.735   -36987.811   -69105.498    51377.103   -68156.987    16484.467    4540.9091    84.601487 
   59000    1538.1485   -114.36707    1.3917491   -112.97532   -28810.658    4.3714114    4.3714114    4.3714114   -28810.658   -16644.645   -79582.735    9795.4055   -32627.026    -11615.15     12201.14    83.534342 
   59100     1813.991   -114.61577    1.6413372   -112.97444    -13406.29    4.3657316    4.3657316    4.3657316    -13406.29    5986.9673   -29983.684   -16222.153    23740.863    19814.333    25067.226    83.209155 
   59200    1702.5225   -114.53324    1.5404781   -112.99276   -18721.882    4.3708111    4.3708111    4.3708111   -18721.882   -49200.164   -45231.477    38265.996    -74472.32    2901.4008   -18065.258    83.499929 
   59300    1594.2189   -114.43477    1.4424828   -112.99229   -29675.059    4.3899528    4.3899528    4.3899528   -29675.059   -39450.784   -50463.143    888.74923    11958.784   -13392.684    29772.025    84.601791 
   59400    1178.0913   -114.04826    1.0659617    -112.9823   -47914.566    4.3952368    4.3952368    4.3952368   -47914.566   -14444.786   -73946.475   -55352.438    23583.984    21313.687    17730.552    84.907655 
   59500    2383.7669   -115.11264    2.1568824   -112.95576    2093.2208     4.370674     4.370674     4.370674    2093.2208    14681.441   -19232.229     10830.45   -33490.195   -1696.7633   -9624.8796    83.492071 
   59600    1242.1149   -114.10453    1.1238917   -112.98064     6628.953    4.3615406    4.3615406    4.3615406     6628.953     4463.795   -32439.333    47862.397    40092.089   -5318.2474    19140.438    82.969746 
   59700    946.32034    -113.8717   0.85625053   -113.01545   -16530.232    4.3823117    4.3823117    4.3823117   -16530.232    58165.119   -76184.908   -31570.906    25789.264   -11193.274    3511.9729    84.160788 
   59800    2792.2053    -115.5186     2.526446   -112.99216    -4793.787    4.3823319    4.3823319    4.3823319    -4793.787    2614.0072   -30753.111    13757.743   -32319.487    16952.256   -15472.903    84.161953 
   59900    1116.2273   -114.01107    1.0099859   -113.00108    41939.513     4.366574     4.366574     4.366574    41939.513     83780.19    1591.3606    40446.989    16044.495    -11588.48    25140.805     83.25733 
   60000    1666.0628   -114.50313    1.5074886   -112.99564   -30347.279    4.3900825    4.3900825    4.3900825   -30347.279    9337.9629   -54168.709   -46211.092    22319.418   -14788.737    730.55004     84.60929 
   60100    1915.9597   -114.70236    1.7336006   -112.96876   -14518.058    4.3864066    4.3864066    4.3864066   -14518.058   -38001.725   -36929.248    31376.797   -52936.723    13466.039   -15566.112    84.396934 
   60200    1615.4447   -114.42295    1.4616883   -112.96127    22680.588    4.3648572    4.3648572    4.3648572    22680.588     22116.13    21326.103     24599.53    13828.236   -10810.919    15063.151    83.159165 
   60300     1899.638   -114.68721    1.7188323   -112.96838   -16595.071    4.3769457    4.3769457    4.3769457   -16595.071   -4064.7537   -29702.388   -16018.072     2408.728   -8374.7923     14027.49    83.852011 
   60400    1543.4269   -114.37062    1.3965251    -112.9741    2396.0085    4.3797549    4.3797549    4.3797549    2396.0085    19687.962   -36977.352    24477.415   -71444.247    5240.1102   -3685.3156    84.013568 
   60500    2188.3307    -114.9513    1.9800476   -112.97125   -1681.7079     4.389235     4.389235     4.389235   -1681.7079    15502.778   -15964.059    -4583.843      36541.9   -4483.5095    8449.0463      84.5603 
   60600    1265.8784   -114.13181    1.1453933   -112.98642    -16174.93    4.3815381    4.3815381    4.3815381    -16174.93   -14373.035   -60405.507    26253.753   -41739.886   -15765.061    27124.862    84.116226 
   60700     1565.412   -114.39112    1.4164176    -112.9747    22208.207     4.366506     4.366506     4.366506    22208.207    49782.806   -35114.565     51956.38   -54384.789   -5621.3582   -9129.3008    83.253437 
   60800     2451.329   -115.18227     2.218014   -112.96426   -8761.4273    4.3832457    4.3832457    4.3832457   -8761.4273    32167.188   -32045.033   -26406.437    21851.915    6798.8137   -13590.672    84.214608 
   60900    1086.0171    -113.9659   0.98265105   -112.98325   -9241.2253    4.3792514    4.3792514    4.3792514   -9241.2253    23315.106   -61042.207    10003.425   -70343.527   -18660.733    9233.7954    83.984592 
   61000    1588.9759   -114.42423    1.4377388   -112.98649     22196.49    4.3751858    4.3751858    4.3751858     22196.49     25257.17    47045.367    -5713.068   -17762.509   -2071.1789    3577.3709    83.750905 
   61100    2095.3737   -114.87866    1.8959381   -112.98272    -15082.35     4.383811     4.383811     4.383811    -15082.35   -29870.137   -21673.047    6296.1335   -9927.0981   -1339.2404   -23933.088    84.247198 
   61200    1226.6647   -114.08666     1.109912   -112.97675    15483.094    4.3806086    4.3806086    4.3806086    15483.094   -42033.266     31957.79    56524.757   -59314.838   -18327.026    -1468.834    84.062705 
   61300    1954.7135   -114.73026    1.7686658    -112.9616    5351.0163    4.3975268    4.3975268    4.3975268    5351.0163    45403.648   -1875.2378   -27475.362     15179.97   -13954.276    12785.327    85.040437 
   61400    1311.5373   -114.15019    1.1867065   -112.96348   -4741.5638    4.3871033    4.3871033    4.3871033   -4741.5638   -22389.716   -56709.088    64874.113   -72240.835   -5006.4777   -15297.996    84.437152 
   61500    1780.5261   -114.54706    1.6110575     -112.936    60923.106    4.3673451    4.3673451    4.3673451    60923.106    110807.42   -11774.956     83736.85   -15388.084   -21101.344   -451.18443    83.301443 
   61600    1631.5413   -114.42983    1.4762529   -112.95358   -8880.2716    4.3976693    4.3976693    4.3976693   -8880.2716   -9162.0639   -47192.894    29714.143   -23535.744   -19981.104    1670.3808    85.048704 
   61700    1483.2233   -114.28676    1.3420516   -112.94471   -12677.539    4.4089811    4.4089811    4.4089811   -12677.539    1155.4653   -63910.428    24722.345   -59946.901   -6782.8828    4056.0973    85.706686 
   61800    2359.1202    -115.0488    2.1345815   -112.91422   -10207.115    4.3998218    4.3998218    4.3998218   -10207.115   -44756.906    41465.538   -27329.977    7849.5174   -1221.2517    12519.696    85.173653 
   61900    892.08937   -113.73841   0.80718121   -112.93123    12478.352    4.3775463    4.3775463    4.3775463    12478.352   -64135.856    33725.883     67845.03   -60398.268   -10469.902    27663.564     83.88653 
   62000    1857.2237   -114.62276    1.6804551    -112.9423    23831.724     4.378584     4.378584     4.378584    23831.724   -36064.909    81050.043    26510.037   -14534.431    25529.523    8666.2933    83.946202 
   62100    1922.8874   -114.70534    1.7398689   -112.96547   -2564.0841    4.3902845    4.3902845    4.3902845   -2564.0841   -56676.705    14846.489    34137.963   -9193.6638    24396.842    9333.1395     84.62097 
   62200    1343.7498   -114.19222     1.215853   -112.97636    -21580.97    4.3985972    4.3985972    4.3985972    -21580.97   -59331.961   -63303.489    57892.542   -60964.302   -9286.1567    21139.674    85.102553 
   62300    2018.5072   -114.78341    1.8263877   -112.95702   -11258.862    4.3891046    4.3891046    4.3891046   -11258.862   -28057.934    25359.967    -31078.62    10616.745     40679.33    3790.9492    84.552762 
   62400    1647.1656   -114.43804    1.4903901   -112.94765    7377.0234    4.3735347    4.3735347    4.3735347    7377.0234   -21570.787   -5606.2898    49308.147   -39648.185    10339.528   -4252.3245    83.656122 
   62500    1703.0257    -114.5042    1.5409335   -112.96327   -24547.462    4.3868622    4.3868622    4.3868622   -24547.462   -37116.831   -63029.541    26503.986   -43058.028     -11156.3    24876.909    84.423235 
   62600    1628.4843   -114.42953    1.4734868   -112.95604   -33447.401    4.3953188    4.3953188    4.3953188   -33447.401   -68940.521    41886.103   -73287.786    20831.067    38387.578   -20325.186    84.912405 
   62700    1707.5587   -114.49401     1.545035   -112.94897   -9068.9205    4.3808035    4.3808035    4.3808035   -9068.9205   -13306.316   -30876.239    16975.793   -41613.314    12592.466    3262.9646    84.073925 
   62800    1993.7061   -114.76357    1.8039472   -112.95962   -15825.156    4.3786288    4.3786288    4.3786288   -15825.156   -2114.7824    -42026.61   -3334.0763   -2229.8752   -1641.0386    29423.523    83.948782 
   62900    1232.3701    -114.0926    1.1150744   -112.97752   -18629.347    4.3723306    4.3723306    4.3723306   -18629.347   -23027.326    13531.815    -46392.53    4300.6431    68821.347   -4989.8763    83.587047 
   63000    2178.8392   -114.95022    1.9714595   -112.97876     16855.05    4.3758816    4.3758816    4.3758816     16855.05    17437.425   -1881.8134    35009.539   -23767.645   -16011.953   -134.43039     83.79087 
   63100    1468.5084   -114.31009    1.3287372   -112.98135   -33384.695    4.3963527    4.3963527    4.3963527   -33384.695   -36247.097   -439.19363   -63467.794    6135.8617    37192.944    6142.2285    84.972341 
   63200    1264.7099   -114.11952    1.1443361   -112.97518   -5782.7844    4.3789132    4.3789132    4.3789132   -5782.7844   -13545.048    22242.516   -26045.822     6097.164    47481.491    16639.098    83.965141 
   63300    2564.2545   -115.26746    2.3201914   -112.94727    16868.574    4.3726602    4.3726602    4.3726602    16868.574    13052.878    37463.511    89.331797    15697.804   -18119.014   -10320.148    83.605953 
   63400    1055.4423   -113.93809   0.95498637    -112.9831   -5155.2843    4.3758136    4.3758136    4.3758136   -5155.2843   -9159.3929    45644.343   -51950.803   -16563.787    85090.575    12871.898    83.786959 
   63500      1752.48   -114.56161    1.5856807   -112.97593    26386.083    4.3745315    4.3745315    4.3745315    26386.083   -1317.8161    51850.173    28625.892     30373.44   -2866.7769    8991.1672    83.713333 
   63600    1828.4245   -114.62923    1.6543969   -112.97483   -2129.4623     4.386361     4.386361     4.386361   -2129.4623   -23393.777    43359.362   -26353.972    12683.479    30176.872   -1409.2036    84.394301 
   63700    1619.6962   -114.43845    1.4655352   -112.97292   -11256.427    4.3796192    4.3796192    4.3796192   -11256.427   -64991.571    40248.361   -9026.0711   -13728.692    66972.635   -280.79189    84.005757 
   63800    2237.2708   -114.97739    2.0243296   -112.95306    51339.745    4.3669147    4.3669147    4.3669147    51339.745    57485.336    75360.464    21173.434     21321.16   -29890.302   -494.02883    83.276816 
   63900    1132.0402   -114.02058    1.0242937   -112.99629   -25227.182    4.3851807    4.3851807    4.3851807   -25227.182   -84553.298    73391.245   -64519.494    3603.0377    97777.615    13141.992    84.326193 
   64000    2038.9609   -114.81926    1.8448947   -112.97436   -578.95308    4.3826451    4.3826451    4.3826451   -578.95308    405.01012    25332.895   -27474.764    5502.4657    8782.6851   -8408.5762    84.179996 
   64100    1848.6035   -114.64682    1.6726553   -112.97416   -11145.942    4.3757363    4.3757363    4.3757363   -11145.942   -34668.424    50384.588    -49153.99   -8537.7279    14412.899    11465.954    83.782524 
   64200    613.82008   -113.54337   0.55539731   -112.98797   -35416.976    4.3845411    4.3845411    4.3845411   -35416.976   -66362.359    63191.787   -103080.36    19089.339    95779.875    3813.5461    84.289299 
   64300    2724.1329   -115.42049    2.4648527   -112.95564    10971.344    4.3724219    4.3724219    4.3724219    10971.344    23522.654   -6283.2278    15674.606   -1183.7719   -25973.148    323.10349    83.592282 
   64400    1355.9372   -114.21855    1.2268805   -112.99167    -21589.24    4.3806035    4.3806035    4.3806035    -21589.24   -68733.851    48516.115   -44549.984    -9620.749    70210.071    2416.0313    84.062409 
   64500    1463.6059   -114.31862    1.3243014   -112.99432   -6929.7963    4.3715638    4.3715638    4.3715638   -6929.7963   -7782.8243    33686.137   -46692.701    15478.985    42584.117    18372.166    83.543077 
   64600    2030.5932   -114.82324    1.8373234   -112.98592    28210.094    4.3690836    4.3690836    4.3690836    28210.094    22327.516    29920.772    32381.995    10889.296   -23206.244    3853.6482    83.400964 
   64700     1816.209   -114.63319     1.643344   -112.98985   -24312.861    4.3887712    4.3887712    4.3887712   -24312.861   -40832.272    16468.181   -48574.492   -10063.001    74836.767   -13548.219    84.533497 
   64800      1814.56   -114.61815     1.641852    -112.9763    24997.245     4.370746     4.370746     4.370746    24997.245    64221.918    -2253.199    13023.015     3068.879   -2353.6558     20644.41    83.496199 
   64900    1606.0997   -114.44352    1.4532328   -112.99029    17448.616    4.3717952    4.3717952    4.3717952    17448.616   -3473.8281    9018.2411    46801.434    11010.449   -14188.067    5113.0381    83.556343 
   65000    2166.5742    -114.9322    1.9603619   -112.97184   -10642.198    4.3905793    4.3905793    4.3905793   -10642.198    -1226.167   -91.781241   -30608.645    -9323.977     24002.61   -5750.3078    84.638014 
   65100    1343.8105   -114.19419     1.215908   -112.97828     10597.62    4.3734552    4.3734552    4.3734552     10597.62    31745.114   -29741.553    29789.299   -13684.624     14814.32    26400.903    83.651563 
   65200    1934.8024   -114.73364    1.7506499   -112.98299    -7451.211    4.3735911    4.3735911    4.3735911    -7451.211   -16781.834   -4029.5981   -1542.2007    16714.101   -30548.077    7356.5163    83.659361 
   65300    2027.4771   -114.81268    1.8345039   -112.97818   -28041.485     4.391711     4.391711     4.391711   -28041.485     11579.81   -29974.595   -65729.671   -5139.1513    -20991.84   -14748.792    84.703483 
   65400    1428.9669   -114.26791    1.2929593   -112.97495    4891.0031    4.3878531    4.3878531    4.3878531    4891.0031    53968.056   -43088.176    3793.1284   -21222.763    20111.571    4098.2307    84.480454 
   65500    2007.0944   -114.77647    1.8160612    -112.9604    10683.292    4.3783134    4.3783134    4.3783134    10683.292    46127.583    1550.8564   -15628.564   -16562.285   -31340.003    4800.3194    83.930642 
   65600    1250.6655   -114.10916    1.1316284   -112.97753   -10395.436    4.3868052    4.3868052    4.3868052   -10395.436    41289.583   -7184.3538   -65291.537    -10346.97   -26244.028   -44472.899    84.419942 
   65700    2151.7814   -114.89459    1.9469771   -112.94762    -5142.966    4.3856124    4.3856124    4.3856124    -5142.966     8454.599   -37940.551    14057.054   -22721.463    10731.688   -4272.5544    84.351098 
   65800     1385.608   -114.20952    1.2537272    -112.9558    28099.087    4.3695333    4.3695333    4.3695333    28099.087    34024.644    56527.954   -6255.3362   -38.289059   -41109.202   -9404.3734    83.426721 
   65900    1723.8266   -114.52955    1.5597545    -112.9698   -17202.176     4.383221     4.383221     4.383221   -17202.176    4986.6406   -22261.962   -34331.207   -11493.271    266.01624       -47634    84.213187 
   66000    1736.2619   -114.53505    1.5710062   -112.96404   -25377.709    4.3901108    4.3901108    4.3901108   -25377.709    -47289.86   -34098.219    5254.9539   -24512.817    9934.2697    16462.056    84.610926 
   66100    1542.2181   -114.35201    1.3954313   -112.95658   -4676.3609     4.377194     4.377194     4.377194   -4676.3609   -18668.981    6196.3701   -1556.4713    12201.403   -32492.246   -15604.223    83.866279 
   66200    1996.4803   -114.76286    1.8064573    -112.9564   -15202.642    4.3761217    4.3761217    4.3761217   -15202.642   -1419.7251   -33224.278   -10963.922   -21952.183    4622.7071     -19261.2    83.804661 
   66300    925.26365      -113.82   0.83719799   -112.98281   -30131.653    4.3724016    4.3724016    4.3724016   -30131.653   -78209.524   -35136.917    22951.483   -42979.976    11781.039    4566.6058    83.591119 
   66400    2285.9648   -115.04358     2.068389   -112.97519    9833.3851     4.363321     4.363321     4.363321    9833.3851    24712.259    101.36753    4686.5292    27616.578   -9297.7209      9701.75    83.071392 
   66500    1632.7737   -114.46189     1.477368   -112.98452   -10962.009    4.3856616    4.3856616    4.3856616   -10962.009   -31949.834   -46665.946    45729.753   -48808.636     17152.26   -899.75162    84.353937 
   66600    1437.5352   -114.27464    1.3007121   -112.97393   -10934.572    4.3839985    4.3839985    4.3839985   -10934.572   -36946.764   -4845.3221    8988.3701   -11830.003    18444.552   -114.38295     84.25801 
   66700    2118.0397   -114.85853    1.9164468   -112.94209    6897.5243    4.3795652    4.3795652    4.3795652    6897.5243    4375.5784   -30229.775    46546.769   -4369.8538   -1932.8867    4605.2216    84.002649 
   66800    1215.0534   -114.05367    1.0994059   -112.95426   -26488.635    4.3826357    4.3826357    4.3826357   -26488.635    -83901.68   -72889.383    77325.159   -94586.667    357.39281   -6783.0221    84.179457 
   66900    2376.8753   -115.08411    2.1506467   -112.93347   -4893.1342    4.3731887    4.3731887    4.3731887   -4893.1342   -32243.013    21479.524   -3915.9139    37642.203    23232.862   -11141.136    83.636269 
   67000    886.45621   -113.76856   0.80208421   -112.96648   -10502.929    4.3884112    4.3884112    4.3884112   -10502.929   -38802.403    -79482.22    86775.837   -70333.292    4262.6606    6519.6267    84.512694 
   67100    1770.4501   -114.54466    1.6019404   -112.94272   -12692.417    4.3932305    4.3932305    4.3932305   -12692.417   -32278.535   -39957.881    34159.164    -34485.72   -4404.2636    8957.2701    84.791431 
   67200    1795.7487   -114.56346    1.6248312   -112.93863   -8765.3759    4.3697522    4.3697522    4.3697522   -8765.3759   -24584.165    30842.935   -32554.898   -1517.8957    36260.387    -14210.59    83.439258 
   67300    1250.9247   -114.10193    1.1318629   -112.97007   -9715.5598    4.3719157    4.3719157    4.3719157   -9715.5598   -32912.468   -56412.684    60178.472    -72261.12    12306.195    1208.7648    83.563253 
   67400    2529.7258   -115.24847     2.288949   -112.95952    21255.559    4.3809838    4.3809838    4.3809838    21255.559    43860.748    15471.033     4434.895    15062.743   -19680.639   -3940.9921    84.084306 
   67500     1040.946   -113.93309   0.94186984   -112.99122   -8841.0514    4.3821969    4.3821969    4.3821969   -8841.0514   -40742.373    49508.512   -35289.293   -30325.098    21117.246   -20018.888    84.154177 
   67600    1704.4639   -114.52724    1.5422348     -112.985   -15915.897    4.3818315    4.3818315    4.3818315   -15915.897    15411.237   -45049.744   -18109.183   -31970.746     11630.73    -11888.89    84.133124 
   67700    2575.4895   -115.29508     2.330357   -112.96472    20165.236    4.3710966    4.3710966    4.3710966    20165.236    16299.295    58268.689   -14072.277    32336.914   -13951.151    5782.1161    83.516292 
   67800    1162.0766   -114.04556    1.0514714   -112.99409     1300.498    4.3741892    4.3741892    4.3741892     1300.498    10215.292    13789.621   -20103.419   -55152.709    25860.724   -10049.438    83.693687 
   67900    2053.1307   -114.84099    1.8577158   -112.98327    5317.8327    4.3825438    4.3825438    4.3825438    5317.8327    16774.524    28163.797   -28984.823   -6564.5368    9730.5486   -20574.784     84.17416 
   68000    2035.9201   -114.80549    1.8421433   -112.96335    14002.361    4.3837652    4.3837652    4.3837652    14002.361    5813.1202     31263.32    4930.6424    9446.2824   -17397.616   -5058.7076    84.244558 
   68100    1009.6731    -113.8901   0.91357348   -112.97653    -7853.917    4.3879869    4.3879869    4.3879869    -7853.917   -56037.988    23050.714    9425.5226   -61287.779    23404.411   -1807.8967     84.48818 
   68200    2248.7948   -114.98296    2.0347568    -112.9482      8940.25    4.3828019    4.3828019    4.3828019      8940.25    1633.1637    59378.017   -34190.431    12958.906    1893.9405    4800.7669    84.189034 
   68300    1281.8602   -114.12966     1.159854    -112.9698   -15479.879    4.3767316    4.3767316    4.3767316   -15479.879   -71127.089   -16576.788    41264.242   -51317.131   -17569.529    -21652.36    83.839704 
   68400    1579.6347   -114.40059    1.4292866    -112.9713   -1326.9818    4.3720003    4.3720003    4.3720003   -1326.9818   -42822.748   -21478.944    60320.747   -38945.592    31308.928   -3198.9975    83.568106 
   68500    2249.4748   -114.99721    2.0353721   -112.96184   -14598.655    4.3822206    4.3822206    4.3822206   -14598.655   -36246.751   -1206.2497   -6342.9632    12401.813    -16409.11   -148.75544    84.155539 
   68600    1191.7372   -114.04975    1.0783089   -112.97144   -36326.871    4.3952825    4.3952825    4.3952825   -36326.871   -86240.214   -68301.627    45561.227   -71260.703   -8153.3321    618.58815    84.910304 
   68700    2304.5216    -115.0281    2.0851796   -112.94292   -8381.1033     4.389637     4.389637     4.389637   -8381.1033   -7634.7583   -23418.702    5910.1508    25076.806    14202.511   -48.199287    84.583535 
   68800    1704.8162   -114.49685    1.5425535   -112.95429   -14169.965    4.3770145    4.3770145    4.3770145   -14169.965   -53013.487    6947.1564    3556.4372   -34943.626   -23351.025    3650.0868    83.855965 
   68900     1290.167   -114.14047    1.1673702    -112.9731    367.78217    4.3793629    4.3793629    4.3793629    367.78217   -14074.147    8891.6383    6285.8555   -40660.452   -14396.283    5477.6513    83.991008 
   69000    2618.5236   -115.32131    2.3692952   -112.95201   -10686.668     4.396103     4.396103     4.396103   -10686.668    3909.2933    -17720.15   -18249.148    29953.067    11969.246   -3621.7247    84.957861 
   69100     774.5298   -113.65328   0.70081084   -112.95247   -13587.231    4.4062292    4.4062292    4.4062292   -13587.231   -23039.437   -15218.211   -2504.0465   -66688.694    -43179.79   -2768.8911    85.546307 
   69200    2076.3037   -114.79313    1.8786832   -112.91445   -8335.7666    4.4020421    4.4020421    4.4020421   -8335.7666   -22324.669    38061.711   -40744.342    -2323.407    3457.5084   -4631.5037    85.302659 
   69300    1761.9655    -114.5215    1.5942634   -112.92723   -27437.855    4.3843415    4.3843415    4.3843415   -27437.855   -31680.226   -24181.651   -26451.688   -24503.179    2106.8004   -21339.479    84.277787 
   69400    732.69605    -113.6277   0.66295878   -112.96474    9918.2107    4.3593433    4.3593433    4.3593433    9918.2107   -55944.579    70575.951    15123.261   -64239.668   -53955.406   -5532.0993    82.844414 
   69500    2543.1722   -115.27971    2.3011157    -112.9786     12553.25    4.3646376    4.3646376    4.3646376     12553.25    1560.8894    32796.619    3302.2417    32682.438    25085.849    3094.9415    83.146615 
   69600    1280.3051   -114.16031    1.1584469   -113.00186   -8687.7954    4.3877653    4.3877653    4.3877653   -8687.7954   -68862.443    36436.494    6362.5623   -29638.261    6088.1539   -1621.7501    84.475384 
   69700    1401.0176   -114.25435    1.2676701   -112.98668   -31565.554    4.3926325    4.3926325    4.3926325   -31565.554   -58526.825   -8633.2438   -27536.593   -36224.388   -39520.358   -15427.554    84.756812 
   69800    2231.5371    -114.9729    2.0191417   -112.95376   -3352.5309     4.392589     4.392589     4.392589   -3352.5309    7063.5576    3274.9027   -20396.053    36865.786    23939.523   -15080.534    84.754294 
   69900    1250.9529   -114.09617    1.1318885   -112.96428   -25182.293    4.3902038    4.3902038    4.3902038   -25182.293   -11324.477   -33765.131   -30457.272   -50355.141   -27248.787    2252.9608    84.616301 
   70000    1542.3265   -114.35766    1.3955294   -112.96213   -3295.0042     4.381706     4.381706     4.381706   -3295.0042    42002.719   -11828.563   -40059.168   -16799.175   -19115.105   -6246.9938    84.125895 
   70100    2491.0657   -115.21458    2.2539686   -112.96061   -15282.456     4.394461     4.394461     4.394461   -15282.456   -16141.033   -155.97902   -29550.356    6294.6534    15055.291    2928.1421    84.862697 
   70200    1240.5941   -114.09271    1.1225156    -112.9702   -58426.143    4.4007299    4.4007299    4.4007299   -58426.143   -102192.33   -43219.919   -29866.178   -61812.957   -52258.567    2688.3804      85.2264 
   70300    2111.2708   -114.85778    1.9103222   -112.94745    9507.7632     4.377149     4.377149     4.377149    9507.7632    6048.4226    39741.324   -17266.457    -10898.03    9874.7126   -4267.0227    83.863693 
   70400    1914.2704   -114.68615    1.7320721   -112.95408    2668.4741    4.3786301    4.3786301    4.3786301    2668.4741   -13549.236    14703.073     6851.585   -22798.121     1073.889    1357.3355    83.948853 
   70500    780.88855   -113.69065   0.70656437   -112.98409   -20068.154    4.3682079    4.3682079    4.3682079   -20068.154   -63066.646   -46332.776     49194.96   -72103.527   -42625.173    7452.8654    83.350826 
   70600    2350.3481     -115.109    2.1266444   -112.98236    16669.217    4.3695652    4.3695652    4.3695652    16669.217    35749.439    14306.877   -48.664207    15195.909    4355.9907    3944.4427    83.428546 
   70700    1808.1393    -114.6178    1.6360425   -112.98176   -33476.166    4.4020721    4.4020721    4.4020721   -33476.166   -58258.915   -42301.182    131.59719   -34635.737   -15484.719   -945.24765    85.304405 
   70800    799.95754   -113.70561   0.72381839    -112.9818   -18118.139    4.3828955    4.3828955    4.3828955   -18118.139   -40830.154   -63913.718    50389.457   -68925.501   -39503.268   -6200.6759    84.194429 
   70900    2914.8182   -115.57546    2.6373888   -112.93807    24648.793    4.3580076    4.3580076    4.3580076    24648.793    62945.198     5235.051    5766.1287      29540.1    6260.5188    19752.459    82.768286 
   71000    1656.9993   -114.47888    1.4992878   -112.97959   -23140.664    4.3753363    4.3753363    4.3753363   -23140.664   -46407.801   -53369.668    30355.478   -63698.466   -10462.328     900.8226    83.759547 
   71100    1008.2837   -113.90714   0.91231625   -112.99482    6367.8817    4.3883645    4.3883645    4.3883645    6367.8817    37742.007   -34018.684    15380.322   -39979.295   -44770.582     344.7185    84.509993 
   71200    2420.2828   -115.14949    2.1899227   -112.95956    1756.7923    4.3935609    4.3935609    4.3935609    1756.7923   -6856.3223      10496.5    1630.1993    16317.256    7367.4157    10125.873    84.810562 
   71300    1040.1721   -113.90446   0.94116954   -112.96329   -1800.6876    4.3831542    4.3831542    4.3831542   -1800.6876   -15753.098   -4709.8216    15060.857   -53930.196   -5223.3667   -14925.531    84.209335 
   71400    1920.4479   -114.68762    1.7376616   -112.94996    14261.485    4.3668241    4.3668241    4.3668241    14261.485    16520.915    22328.986    3934.5538    1858.2584   -28705.943    3848.9469    83.271633 
   71500    1683.6797   -114.48851    1.5234288   -112.96508    54309.658    4.3558293    4.3558293    4.3558293    54309.658    26261.582    51616.254    85051.138   -16268.811    10973.977   -2556.1616    82.644231 
   71600    1141.1194   -114.04292    1.0325088   -113.01041   -19115.188    4.3818677    4.3818677    4.3818677   -19115.188   -95357.781    21130.878     16881.34   -42272.613    10158.579    5715.1343    84.135213 
   71700    2660.5951   -115.37811    2.4073623   -112.97074   -11463.089    4.3883406    4.3883406    4.3883406   -11463.089   -30818.519    12775.475   -16346.224    3334.5586   -11876.904   -9443.1612    84.508615 
   71800    1564.5134   -114.39027    1.4156046   -112.97466    16083.526    4.3723317    4.3723317    4.3723317    16083.526   -48970.776    58435.765    38785.588   -47599.264   -1230.9499   -8791.8518     83.58711 
   71900    1218.4811    -114.0887    1.1025073   -112.98619   -16046.245    4.3857764    4.3857764    4.3857764   -16046.245   -78575.027   -25946.279    56382.573   -8122.6509    11198.276   -1042.1168    84.360563 
   72000    2493.7377   -115.21646    2.2563863   -112.96007    8053.7973    4.3735522    4.3735522    4.3735522    8053.7973   -6042.9462    47198.731   -16994.393    16523.016   -3618.1904   -23202.028    83.657127 
   72100    1153.8371    -114.0299    1.0440161   -112.98588    10453.579    4.3632133    4.3632133    4.3632133    10453.579   -9218.2381   -2669.8707    43248.847   -64689.005   -2795.1812    5498.3133    83.065239 
   72200     1829.597   -114.63886    1.6554578    -112.9834   -29635.664    4.3847377    4.3847377    4.3847377   -29635.664   -66541.368   -44647.937    22282.313    25345.539    15103.074   -3617.5811    84.300636 
   72300    1739.4807    -114.5425    1.5739187   -112.96858    11996.567    4.3761222    4.3761222    4.3761222    11996.567    23788.794    3462.3691    8738.5371   -9869.1432   -8653.8936    8680.9576    83.804689 
   72400     848.7274   -113.75921   0.76794638   -112.99126    1038.5071    4.3833897    4.3833897    4.3833897    1038.5071   -20597.983   -32528.927    56242.432   -47434.302    -10568.49    2212.6027    84.222912 
   72500    2665.9515   -115.36282     2.412209   -112.95061   -704.71563    4.3920605    4.3920605    4.3920605   -704.71563    4674.3591    387.90086   -7176.4069    33500.222     21475.64   -912.90361    84.723704 
   72600    1593.7158   -114.41024    1.4420275   -112.96822    630.05537    4.3692685    4.3692685    4.3692685    630.05537    7047.7649   -18453.955    13296.357   -67858.113   -6074.0427   -3766.5815     83.41155 
   72700    1252.4425   -114.12792    1.1332363   -112.99468   -9301.8352    4.3723517    4.3723517    4.3723517   -9301.8352   -35427.454    7944.8001   -422.85179   -42389.537   -19316.073    3402.8756    83.588258 
   72800    2465.5339   -115.19337    2.2308669    -112.9625    7434.1246    4.3847766    4.3847766    4.3847766    7434.1246   -676.85565    23820.842   -841.61202    25876.921    17965.389    63.924352    84.302878 
   72900    962.46802   -113.84754   0.87086129   -112.97668   -3653.8083    4.3980868    4.3980868    4.3980868   -3653.8083    -64601.94    20050.926    33589.589   -53730.216   -8496.7806   -6657.4684    85.072927 
   73000    2099.9449   -114.84373    1.9000743   -112.94365   -14193.306    4.4029065    4.4029065    4.4029065   -14193.306   -755.28066    9473.5012    -51298.14    8963.1267   -33747.199   -7084.3496    85.352921 
   73100     2098.135   -114.85399    1.8984367   -112.95555    4144.9511    4.3702781    4.3702781    4.3702781    4144.9511   -18209.815   -6829.7456    37474.413   -15325.618   -2756.1798   -7682.3203    83.469386 
   73200    1069.5089   -113.94861   0.96771414    -112.9809    31263.632    4.3611118    4.3611118    4.3611118    31263.632    18592.991    13401.683    61796.223   -55666.295   -15624.325   -8304.8306    82.945277 
   73300    2473.7091   -115.21379     2.238264   -112.97553   -5401.9663    4.3957422    4.3957422    4.3957422   -5401.9663   -20941.063    54932.233   -50197.068    4258.3041   -8048.1587    3881.7719    84.936944 
   73400    1160.0828   -114.02289    1.0496673   -112.97322   -2605.9076      4.40684      4.40684      4.40684   -2605.9076   -63401.662    43763.056    11820.883   -42742.034    13760.419    4710.8692    85.581883 
   73500    1815.5118    -114.5868    1.6427132   -112.94408   -2246.6458    4.3989161    4.3989161    4.3989161   -2246.6458   -51765.035   -15957.453    60982.551   -17998.035   -16972.695   -17882.907    85.121061 
   73600    2121.2925    -114.8615      1.91939   -112.94211    11788.094    4.3692697    4.3692697    4.3692697    11788.094    29635.637    26283.848   -20555.204    18851.837    11421.001    44185.332     83.41162 
   73700    893.18518   -113.77739   0.80817272   -112.96922    25852.267    4.3475569    4.3475569    4.3475569    25852.267    21027.832   -3977.4909    60506.461   -48793.004    13507.786     9225.643    82.174266 
   73800    1800.1448    -114.6384    1.6288088    -113.0096   -6916.0697    4.3781891    4.3781891    4.3781891   -6916.0697   -22985.022   -24575.776     26812.59   -19810.972   -6701.0744   -40901.548     83.92349 
   73900    2187.2464   -114.96443    1.9790665   -112.98536   -3028.7776    4.3934404    4.3934404    4.3934404   -3028.7776    3891.4531   -13122.414    144.62811    13037.184    5555.7872    22381.228    84.803584 
   74000    1169.0251   -114.05216    1.0577585    -112.9944   -19585.938    4.3908035    4.3908035    4.3908035   -19585.938   -15170.916   -58134.595    14547.698   -50636.868    7596.0062    15988.977    84.650982 
   74100    1645.4622   -114.48338    1.4888488   -112.99453   -24933.036    4.3768797    4.3768797    4.3768797   -24933.036   -47461.507   -1916.4543   -25421.147   -18980.762   -8319.0197   -34620.592    83.848218 
   74200    2146.6692     -114.929    1.9423514   -112.98665     52361.39    4.3507565    4.3507565    4.3507565     52361.39    38789.687    70800.311    47494.172    8435.8608    -5804.896   -17867.837    82.355825 
   74300    1700.9685   -114.55884     1.539072   -113.01976    35241.925    4.3761956    4.3761956    4.3761956    35241.925   -6221.1024    52707.343    59239.533   -51879.471   -5629.6296   -3255.0297    83.808905 
   74400    1335.3658   -114.20144     1.208267   -112.99318   -9684.7672    4.4107234    4.4107234    4.4107234   -9684.7672   -69607.648    66842.357    -26289.01    3934.8498   -7908.3223   -26757.153    85.808332 
   74500    1273.3649   -114.10822    1.1521673   -112.95606   -179.43157    4.4002853    4.4002853    4.4002853   -179.43157   -52110.084    29241.143    22330.646   -23859.373    8879.0966   -8463.4228    85.200569 
   74600    1517.0249   -114.32301     1.372636   -112.95037   -1622.8379    4.3755545    4.3755545    4.3755545   -1622.8379   -34936.217   -10529.892    40597.594   -67434.165   -1361.9663     13656.99    83.772077 
   74700    2503.7043   -115.21749    2.2654042   -112.95209    40009.958    4.3566144    4.3566144    4.3566144    40009.958    41242.136    65853.151    12934.587    27660.085    2340.7072   -16582.303    82.688931 
   74800    946.50866   -113.87591   0.85642092   -113.01949   -20306.963     4.373326     4.373326     4.373326   -20306.963   -49856.507   -72373.255    61308.874   -85162.741     11642.74   -7162.5795    83.644147 
   74900    1458.9027   -114.32666    1.3200458   -113.00661   -31941.527     4.392863     4.392863     4.392863   -31941.527    -42557.23   -64376.123    11108.771   -51095.464    2816.9507    17326.291    84.770157 
   75000    2522.4907   -115.24711    2.2824026   -112.96471    2530.4523    4.3861371    4.3861371    4.3861371    2530.4523    1185.4518     4984.486    1421.4192    5752.8446    3268.0039   -6172.1697     84.38138 
   75100    726.53902   -113.63381   0.65738777   -112.97643    577.65048    4.3906087    4.3906087    4.3906087    577.65048   -51429.772    5167.4426    47995.281   -93853.457    5243.4938   -14935.859    84.639719 
   75200    2037.1079   -114.78687     1.843218   -112.94365    18839.953    4.3983049    4.3983049    4.3983049    18839.953   -10993.824    87717.541   -20203.859    19391.083    4879.0171    18466.555    85.085587 
   75300    1216.9846   -114.04678    1.1011532   -112.94563    10294.918    4.3901879    4.3901879    4.3901879    10294.918   -35184.616     34180.63    31888.741   -57456.847   -2394.4489   -8098.7992    84.615382 
   75400     1355.017   -114.16959    1.2260479   -112.94354    20551.579    4.3755126    4.3755126    4.3755126    20551.579    8569.5504    18891.947    34193.241   -42009.362    10986.348   -4651.4794    83.769674 
   75500    2111.1152   -114.86027    1.9101814   -112.95009    2449.3667    4.3816094    4.3816094    4.3816094    2449.3667   -3602.4955    33197.036    -22246.44    1354.5383    2462.6438    15314.809    84.120333 
   75600    1354.7706   -114.19473    1.2258249   -112.96891   -40003.474    4.3904344    4.3904344    4.3904344   -40003.474   -48885.761   -87617.279     16492.62   -95648.565    2015.3986     13551.27    84.629638 
   75700    2043.8146   -114.81549    1.8492864    -112.9662    21132.553    4.3827661    4.3827661    4.3827661    21132.553    22937.967    62373.795   -21914.103    21131.371   -1091.2196   -6245.7589     84.18697 
   75800    1502.0283   -114.34942    1.3590667   -112.99035   -7107.1982    4.3795974    4.3795974    4.3795974   -7107.1982   -3223.6753   -5326.0687   -12771.851   -6878.4408    5576.1771   -16102.578    84.004504 
   75900    1002.7992   -113.90773   0.90735375   -113.00037    31814.117    4.3599796    4.3599796    4.3599796    31814.117    16514.935    48213.708    30713.708   -66799.844   -4199.9685    11978.148    82.880692 
   76000    2460.6084    -115.2332    2.2264102   -113.00679   -6571.5427    4.3781315    4.3781315    4.3781315   -6571.5427    33781.476   -6309.1079   -47186.996     14431.52     426.7983     24578.54    83.920183 
   76100    1467.7698   -114.31724     1.328069   -112.98917   -34986.933    4.4002515    4.4002515    4.4002515   -34986.933   -33771.081   -56251.908   -14937.812   -29610.016    13508.215   -21086.542    85.198608 
   76200      1634.24   -114.45087    1.4786947   -112.97218   -1719.5478    4.3892326    4.3892326    4.3892326   -1719.5478    46.580746    7782.8989   -12988.123   -42745.798   -9216.4563    1501.4363    84.560158 
   76300    2083.1484   -114.84308    1.8848765   -112.95821   -3554.1107    4.3808658    4.3808658    4.3808658   -3554.1107    10373.698     39098.53    -60134.56    5816.1401    11681.877    27442.298    84.077509 
   76400    924.29628   -113.82166   0.83632269   -112.98534      11114.8    4.3700674    4.3700674    4.3700674      11114.8   -22902.039    43799.192    12447.248   -78325.048    19337.424   -10479.502    83.457312 
   76500    1576.6493   -114.42635    1.4265854   -112.99977    5191.1128    4.3754722    4.3754722    4.3754722    5191.1128    21481.055    2875.3777   -8783.0946   -40355.357   -15934.821   -12986.126    83.767352 
   76600    2157.3352   -114.93759    1.9520023   -112.98558    27857.372    4.3739995    4.3739995    4.3739995    27857.372     62613.48    44216.022   -23257.386   -2611.2296   -7231.7441    10206.941    83.682799 
   76700    847.31739   -113.77934   0.76667058   -113.01267   -7333.8097    4.3834854    4.3834854    4.3834854   -7333.8097   -3757.4796    -48545.97     30302.02   -68745.178    18082.187    1752.0091    84.228426 
   76800    1757.7797   -114.56837     1.590476    -112.9779    -19636.18    4.3863995    4.3863995    4.3863995    -19636.18   -20155.605   -3641.2357   -35111.699    3936.6951   -13567.126   -10445.629    84.396523 
   76900    1944.1873   -114.72084    1.7591416    -112.9617    28348.876    4.3626137    4.3626137    4.3626137    28348.876    17375.314     70860.11   -3188.7972   -29003.558   -10112.041    15139.879    83.031002 
   77000    1369.0148   -114.23012    1.2387134    -112.9914   -11466.662    4.3753949    4.3753949    4.3753949   -11466.662   -48881.215    11683.191    2798.0382   -60320.206     21029.98    713.60847    83.762913 
   77100    1961.0188   -114.74768     1.774371   -112.97331    12134.805    4.3764561    4.3764561    4.3764561    12134.805   -8513.8163    73420.713   -28502.483    31086.323    6906.6162   -14715.576    83.823875 
   77200    1580.3997   -114.41613    1.4299788   -112.98615   -7754.7627    4.3730674    4.3730674    4.3730674   -7754.7627    32129.189   -48066.116   -7327.3612   -58939.408    -12420.48    17608.834    83.629311 
   77300    1737.2806   -114.55666     1.571928   -112.98474   -27422.203    4.3797515    4.3797515    4.3797515   -27422.203   -39304.635   -39152.594   -3809.3818   -41614.173    11317.497    6310.5583     84.01337 
   77400    1908.2491   -114.70039    1.7266239   -112.97377    19702.988    4.3684919    4.3684919    4.3684919    19702.988    53845.431    -2514.063    7777.5961    55806.654    2240.3149   -4171.6442    83.367082 
   77500    1225.1199   -114.09782    1.1085142    -112.9893   -11308.137    4.3794028    4.3794028    4.3794028   -11308.137   -41561.563   -45783.275    53420.427   -75228.481   -10100.253    21707.069    83.993303 
   77600    2017.9709   -114.79057    1.8259025   -112.96467    3685.3282     4.383963     4.383963     4.383963    3685.3282    5562.9904    13396.443   -7903.4488    -3802.554   -4019.5993     7680.327     84.25596 
   77700    1626.2741    -114.4331     1.471487   -112.96161   -1674.7066    4.3838647    4.3838647    4.3838647   -1674.7066    13026.635   -19856.943    1806.1878    20515.538   -14410.065   -22187.779    84.250292 
   77800    1213.8177   -114.06723    1.0982877   -112.96895   -5825.8985    4.3841001    4.3841001    4.3841001   -5825.8985    11224.782   -39311.114    10608.636   -74257.673     4620.725    11430.649    84.263868 
   77900    2443.9322   -115.15499    2.2113212   -112.94367    22902.089    4.3750628    4.3750628    4.3750628    22902.089    79963.261    26479.332   -37736.327    16508.269    6656.0747   -12544.923    83.743838 
   78000    1036.8883    -113.9073   0.93819828   -112.96911    25717.433    4.3690046    4.3690046    4.3690046    25717.433    77083.198   -8704.5627    8773.6638   -33840.998    7466.9816   -18041.587    83.396438 
   78100    1645.8077   -114.47008    1.4891614   -112.98092   -6451.8355    4.3775568    4.3775568    4.3775568   -6451.8355    4989.5578   -51687.729    27342.664     -48145.7    2670.5571    12591.555    83.887134 
   78200    2261.8596   -115.01595    2.0465781   -112.96938   -2746.7227    4.3779507    4.3779507    4.3779507   -2746.7227    43602.234    14967.172   -66809.574    9512.6838    1290.1079   -26249.565    83.909786 
   78300    1088.4678   -113.97797    0.9848685    -112.9931    -25107.57     4.375339     4.375339     4.375339    -25107.57   -24103.014   -32051.548   -19168.148   -50379.264   -3698.5385   -22809.719    83.759699 
   78400    2032.1067   -114.82275    1.8386928   -112.98405    638.05703    4.3706907    4.3706907    4.3706907    638.05703   -6316.0576    1742.8856     6487.343   -8129.8721    1336.3422    15758.909    83.493029 
   78500    1678.3768   -114.50959    1.5186306   -112.99096    11218.154    4.3800523    4.3800523    4.3800523    11218.154    62598.332   -19708.961   -9234.9086    17458.907    178.52078    -43015.19    84.030682 
   78600    1142.2582   -114.01385    1.0335392   -112.98031   -23098.047    4.3930183    4.3930183    4.3930183   -23098.047   -37006.513   -69099.653    36812.024   -69019.559    -13414.57   -12196.001    84.779144 
   78700    2502.1771   -115.20219    2.2640224   -112.93816   -7275.5346     4.392795     4.392795     4.392795   -7275.5346   -28697.819   -9912.8362    16784.051     9396.566    1109.4015    16140.386    84.766216 
   78800    1351.0121    -114.1667    1.2224241   -112.94428   -30415.839     4.390267     4.390267     4.390267   -30415.839   -16070.231   -41087.821   -34089.466   -36792.768    -1610.659   -51874.397    84.619959 
   78900    1546.6688   -114.35184    1.3994585   -112.95238   -1375.1926    4.3687572    4.3687572    4.3687572   -1375.1926    1559.7001   -22312.794    16627.516   -56935.919   -3836.8314   -10811.911    83.382274 
   79000    2800.2859   -115.48914    2.5337575   -112.95538    20758.293    4.3633577    4.3633577    4.3633577    20758.293    18250.711    22855.664    21168.505    19700.926    12722.167    28173.432    83.073491 
   79100    823.94546    -113.7509   0.74552317   -113.00538   -30276.772    4.3826145    4.3826145    4.3826145   -30276.772   -38679.235    -57874.87    5723.7895   -70072.868    904.03895   -30687.882    84.178237 
   79200    1323.2476   -114.20452    1.1973022   -113.00721   -926.94696     4.387393     4.387393     4.387393   -926.94696    12425.758   -53534.176    38327.577   -15621.984   -3397.6577   -24944.776    84.453881 
   79300     2677.701    -115.3949    2.4228401   -112.97206   -14723.562    4.3856724    4.3856724    4.3856724   -14723.562   -28176.569   -3420.0323   -12574.084     7250.585     17052.99    26122.247    84.354557 
   79400    797.67145   -113.69904   0.72174989   -112.97729   -2734.0367    4.3744037    4.3744037    4.3744037   -2734.0367   -184.63364   -46978.354    38960.877   -70395.066   -9077.2878   -40509.102    83.706001 
   79500    2190.7982    -114.9439    1.9822802   -112.96162    30095.758    4.3666994    4.3666994    4.3666994    30095.758    27133.084    6638.0071    56516.185    16581.776    8341.1891   -12595.504    83.264501 
   79600    2231.0263   -114.99095    2.0186795   -112.97227   -1740.8719    4.3800121    4.3800121    4.3800121   -1740.8719     14335.04   -18381.144   -1176.5113   -20396.045   -954.01879    10883.263    84.028366 
   79700    646.70057   -113.59619   0.58514827   -113.01105   -15021.279     4.373152     4.373152     4.373152   -15021.279    37941.167   -39994.277   -43010.727   -38548.441   -1632.1928   -65562.546    83.634163 
   79800    2620.6092   -115.35309    2.3711822    -112.9819    9533.1088    4.3665845    4.3665845    4.3665845    9533.1088    20127.182    23063.863   -14591.718    16179.818    7166.2194    -4389.929    83.257931 
   79900    1424.2976   -114.27896    1.2887344   -112.99022   -5310.4576    4.3876352    4.3876352    4.3876352   -5310.4576    24367.454   -37899.369    -2399.457   -19169.566    9628.6868   -18381.271    84.467866 
   80000     1160.721   -114.01434    1.0502448    -112.9641   -30055.499     4.395449     4.395449     4.395449   -30055.499    50310.448   -76311.996    -64164.95   -25678.891   -11591.438   -73727.474    84.919954 
   80100    2813.3431   -115.48208     2.545572   -112.93651    13508.782    4.3691224    4.3691224    4.3691224    13508.782    30521.604    9248.9495    755.79215    15740.687    3564.5152    20248.915    83.403182 
   80200     1081.556   -113.94788   0.97861456   -112.96927    1498.5778    4.3489339    4.3489339    4.3489339    1498.5778    19668.897    -36072.83    20899.666   -42992.661   -4679.7527   -51728.666    82.252368 
   80300    1267.2271    -114.1463    1.1466137   -112.99969    6744.1575    4.3651039    4.3651039    4.3651039    6744.1575    71612.303   -29053.405   -22326.426   -25955.017    6178.4828   -39501.186    83.173264 
   80400    2352.6943   -115.10051    2.1287672   -112.97175   -17464.523    4.3879714    4.3879714    4.3879714   -17464.523    -5242.053   -9767.5785   -37383.937    13190.862    13962.613    45042.298    84.487285 
   80500    879.54322   -113.77872   0.79582919   -112.98289   -17185.445    4.3815124    4.3815124    4.3815124   -17185.445   -21577.214   -51794.782    21815.661   -55934.581     -11666.7   -43934.072    84.114744 
   80600    2295.9249    -115.0367    2.0774011    -112.9593    6069.7408    4.3693136    4.3693136    4.3693136    6069.7408     6508.863    6275.2707    5425.0888   -3287.5433   -5150.3251    -11501.19    83.414138 
   80700      1710.34   -114.50612    1.5475516   -112.95857   -5047.7296    4.3731608    4.3731608    4.3731608   -5047.7296   -3366.3816    16703.194   -28480.001      5276.44    2879.8516    22623.497     83.63467 
   80800    1375.9944   -114.21622    1.2450286   -112.97119    -5762.353    4.3721214    4.3721214    4.3721214    -5762.353   -17367.792   -37343.173    37423.906   -59173.056    9843.7607   -21517.615    83.575046 
   80900    2083.5808   -114.84976    1.8852677   -112.96449   -1881.1027    4.3760597    4.3760597    4.3760597   -1881.1027   -14004.731    5884.3911    2477.0317    45076.648   -8058.0528   -29.426492    83.801102 
   81000    1772.6517   -114.57596    1.6039325   -112.97203    -15427.11    4.3740935    4.3740935    4.3740935    -15427.11   -17770.879   -16001.024   -12509.426    18677.178    14500.875    3908.2122    83.688195 
   81100    1790.0693   -114.58882    1.6196923   -112.96912    3212.8157    4.3703034    4.3703034    4.3703034    3212.8157   -13762.446   -4708.0784    28108.971    -50774.27    5028.4394   -17198.491    83.470835 
   81200    1410.1158   -114.25093    1.2759024   -112.97503   -8424.2503    4.3740034    4.3740034    4.3740034   -8424.2503   -23149.128   -23025.573     20901.95    80458.434     -15763.5     -1724.69    83.683019 
   81300    1747.1115   -114.55446    1.5808232   -112.97364    9772.2572    4.3726792    4.3726792    4.3726792    9772.2572   -13055.449    48427.113    -6054.893    5898.1081    10165.207    10535.757    83.607038 
   81400    1489.7156   -114.32514    1.3479259   -112.97722    4572.4471    4.3744424    4.3744424    4.3744424    4572.4471   -9341.1308   -23039.694    46098.167   -1990.1394    23271.113   -25029.644    83.708221 
   81500    1306.0679   -114.16243    1.1817577   -112.98068   -8206.3613    4.3851343    4.3851343    4.3851343   -8206.3613   -58350.673   -14706.585    48438.174    66432.502   -13340.911   -138.83133    84.323515 
   81600    2412.7164   -115.12971    2.1830765   -112.94663   -17386.622    4.3870779    4.3870779    4.3870779   -17386.622   -24682.522    15705.534   -43182.879   -19319.323    27836.584    9643.5932    84.435686 
   81700    995.78608   -113.87217   0.90100817   -112.97116    17762.585    4.3610297    4.3610297    4.3610297    17762.585   -48050.312    48036.971    53301.095    62031.159    19638.543    -9780.391    82.940595 
   81800    1774.2756   -114.58992    1.6054019   -112.98451     6228.689    4.3582856    4.3582856    4.3582856     6228.689   -20333.043   -5387.8392    44406.949    30755.822   -10851.024    4715.7603    82.784125 
   81900    2271.9945   -115.03549    2.0557483   -112.97974    4105.1867    4.3682118    4.3682118    4.3682118    4105.1867    24772.762    29141.525   -41598.727   -16706.183     -1462.85    16063.615    83.351046 
   82000     928.6545   -113.84739   0.84026611   -113.00713    2013.8855    4.3726501    4.3726501    4.3726501    2013.8855   -15200.067    3949.0502    17292.673    84240.615    10675.567    12.526213    83.605373 
   82100    2562.0875   -115.29293    2.3182307    -112.9747    -13843.59    4.3892066    4.3892066    4.3892066    -13843.59   -4206.2047   -18596.088   -18728.478    6035.0345    4619.7802   -2647.3441    84.558657 
   82200    1763.2524   -114.57038    1.5954278   -112.97495   -10722.853    4.3834512    4.3834512    4.3834512   -10722.853   -8718.0892     -10302.9    -13147.57    27960.168   -16834.681    24024.156    84.226458 
   82300    934.92459   -113.81952   0.84593942   -112.97358    37438.083     4.360082     4.360082     4.360082    37438.083    37041.608    28614.223    46658.419    65362.885    20258.421    11970.008    82.886535 
   82400    2606.7508   -115.30836    2.3586429   -112.94972    8504.5519    4.3740012    4.3740012    4.3740012    8504.5519    23760.653   -8216.7985    9969.8015   -31742.583    1377.5722   -5734.7207    83.682895 
   82500    1183.8813   -114.04778    1.0712007   -112.97658   -14875.082    4.3811275    4.3811275    4.3811275   -14875.082   -39093.938   -38334.739     32803.43     69710.81   -11623.549      3890.98     84.09258 
   82600    1979.5888   -114.75571    1.7911736   -112.96454    17800.546    4.3725118    4.3725118    4.3725118    17800.546    33513.728    17687.316    2200.5933    26849.513    12000.676    13581.508    83.597437 
   82700    2191.8383   -114.95386    1.9832214   -112.97063    4811.2713    4.3718492    4.3718492    4.3718492    4811.2713   -30924.264    31887.456    13470.622    7825.4103     1940.341   -5429.0868    83.559438 
   82800    854.80859   -113.77263   0.77344878   -112.99918    9758.8401    4.3569546    4.3569546    4.3569546    9758.8401   -53352.831   -14386.445    97015.796    82316.644   -10042.896    463.86756    82.708305 
   82900    2499.2492   -115.24897    2.2613732    -112.9876    8424.3721    4.3694239    4.3694239    4.3694239    8424.3721    408.62473    36204.491   -11339.999   -32478.148   -11542.231    2987.0256    83.420453 
   83000    1596.8544   -114.42938    1.4448674   -112.98451    -14221.85    4.3856453    4.3856453    4.3856453    -14221.85   -27869.859   -11292.947   -3502.7431    59659.303   -1760.0958   -15717.513    84.352995 
   83100    1351.6004   -114.20625    1.2229564   -112.98329     7711.217     4.370296     4.370296     4.370296     7711.217   -34422.722    -18075.82    75632.194    40116.432   -559.18702   -5856.5344    83.470409 
   83200    2134.0844   -114.89767    1.9309644    -112.9667    22869.924    4.3642101    4.3642101    4.3642101    22869.924   -9457.2504    30557.309    47509.715   -50628.348   -7453.7503    13501.842    83.122185 
   83300    1740.7952   -114.55318    1.5751081   -112.97807   -21938.827    4.3726612    4.3726612    4.3726612   -21938.827   -46262.607   -18376.289   -1177.5844    69882.927    9110.3292   -4073.9821    83.606008 
   83400    1457.9612     -114.304    1.3191939    -112.9848    9699.1397    4.3642353    4.3642353    4.3642353    9699.1397   -20522.174   -26669.962    76289.555   -11641.821   -7393.3767   -11040.919    83.123622 
   83500    1731.4337    -114.5534    1.5666376   -112.98676    1940.0216    4.3656366    4.3656366    4.3656366    1940.0216   -23961.643   -27199.973    56981.681   -43567.271   -73.420195    5241.1954    83.203722 
   83600    1717.1234   -114.53323    1.5536893   -112.97954   -10112.648    4.3786685    4.3786685    4.3786685   -10112.648   -36720.334    16776.409   -10394.018    64848.493    3986.6569    -4351.753    83.951062 
   83700    1087.6712    -113.9683   0.98414775   -112.98415   -1682.4468    4.3711809    4.3711809    4.3711809   -1682.4468   -43215.142   -26907.259     65075.06   -55350.469   -5273.8347    -8900.732    83.521126 
   83800    2225.3541   -114.98627    2.0135472   -112.97272    783.44795    4.3648523    4.3648523    4.3648523    783.44795   -26787.163   -4419.0074    33556.514   -24087.227    1724.7253   -10475.313    83.158885 
   83900    1840.1241   -114.64609    1.6649829    -112.9811   -11184.418    4.3718452    4.3718452    4.3718452   -11184.418    -28364.59   -11745.301    6556.6361    28779.057    5335.8699     4199.591    83.559208 
   84000    782.57275   -113.70983   0.70808827   -113.00174    2235.8722    4.3704968    4.3704968    4.3704968    2235.8722   -74202.823     24617.85    56292.589   -78492.515    13398.298   -8876.4229     83.48192 
   84100    2908.1006    -115.6026    2.6313105   -112.97129    6553.6203    4.3788892    4.3788892    4.3788892    6553.6203   -21749.981    36899.922    4510.9201    15601.096   -1378.8775    10274.377    83.963759 
   84200    1294.7194   -114.15699    1.1714893    -112.9855    1705.7894     4.376856     4.376856     4.376856    1705.7894   -43601.861    34550.133    14169.096   -53782.956   -6081.3672   -2422.6397    83.846855 
   84300    1547.9623    -114.3863    1.4006288   -112.98567   -4991.7309    4.3663051    4.3663051    4.3663051   -4991.7309   -58009.097    934.90486        42099   -38477.353    7031.8401    -1515.936    83.241949 
   84400    2136.5968   -114.90786    1.9332377   -112.97462    7979.7582    4.3727651    4.3727651    4.3727651    7979.7582   -26412.431    38995.187    11356.519    19321.451   -14215.381   -2655.7151    83.611969 
   84500    960.79659   -113.86269   0.86934895   -112.99334   -22388.556    4.3819013    4.3819013    4.3819013   -22388.556   -45259.767    -36820.98     14915.08   -68209.396    1707.0029    2404.9327    84.137144 
   84600    1986.6157     -114.784    1.7975317   -112.98647    3265.4229    4.3726343    4.3726343    4.3726343    3265.4229   -14587.369   -15328.558    39712.195     10916.09      10002.8    4449.0573    83.604465 
   84700    2284.5933   -115.04706     2.067148   -112.97991    5404.2128    4.3647757    4.3647757    4.3647757    5404.2128    -20447.71   -9362.9719     46023.32   -15530.698   -11346.949   -4489.9239    83.154505 
   84800    610.56284   -113.56856   0.55245009   -113.01611   -28421.289     4.369937     4.369937     4.369937   -28421.289    -37700.21   -78654.656        31091   -77466.773     2328.901    16761.234    83.449843 
   84900    2099.9755   -114.89759     1.900102   -112.99749   -8738.0774     4.374497     4.374497     4.374497   -8738.0774   -27845.552    18639.978   -17008.658    16880.984     12265.59    10218.685    83.711357 
   85000    1908.3396   -114.72264    1.7267057   -112.99593   -25332.061    4.3816343    4.3816343    4.3816343   -25332.061    -76686.27   -11576.376    12266.463   -41832.948    11521.172   -9372.6465    84.121769 
   85100    1515.4189    -114.3693    1.3711829   -112.99812   -13097.384    4.3662612    4.3662612    4.3662612   -13097.384   -39156.212   -35676.425    35540.486   -44721.845   -2321.6385    11794.892    83.239441 
   85200    2120.9544   -114.90579    1.9190841    -112.9867    10762.343    4.3578725    4.3578725    4.3578725    10762.343   -11844.633    42435.161       1696.5    25404.327    4376.1949    22811.907    82.760588 
   85300    1236.4456   -114.12822    1.1187619   -113.00946   -9016.8094    4.3746766    4.3746766    4.3746766   -9016.8094   -78958.987   -17304.503    69213.061   -70656.184    13450.432    6404.5493    83.721665 
   85400    1612.5075   -114.45434    1.4590307   -112.99531    9988.0801    4.3812627    4.3812627    4.3812627    9988.0801    -49083.24    9770.2953    69277.185   -2967.6436   -4626.5489    8963.3253    84.100365 
   85500    1774.4193   -114.58352    1.6055318   -112.97799    8329.0105    4.3829597    4.3829597    4.3829597    8329.0105    -23574.01   -2529.3856    51090.427    23843.287    5391.7073    20060.164    84.198128 
   85600    1329.8239   -114.18402    1.2032526   -112.98076   -103.42304    4.3742086    4.3742086    4.3742086   -103.42304   -51827.828   -45180.372    96697.931   -77268.418    8077.8776   -920.78859    83.694799 
   85700    1947.9651   -114.73722    1.7625597   -112.97466    -6229.377    4.3641872    4.3641872    4.3641872    -6229.377   -28887.859   -16317.395    26517.123    26884.088    11969.733   -11028.418    83.120875 
   85800    1635.1639   -114.47742    1.4795306   -112.99789   -7740.7623    4.3640235    4.3640235    4.3640235   -7740.7623   -27761.534    -28044.32    32583.567    24188.811   -19695.931    11642.414    83.111521 
   85900    1779.2608   -114.61773    1.6099126   -113.00782   -4941.9339    4.3662753    4.3662753    4.3662753   -4941.9339   -14195.958   -28205.635    27575.792    -50632.91   -4431.4894    5453.0554    83.240244 
   86000    1491.5677   -114.36529    1.3496018   -113.01568   -18594.848    4.3712672    4.3712672    4.3712672   -18594.848   -15996.911   -664.11835   -39123.515    14876.643    38609.823   -25885.197    83.526074 
   86100    1878.4054   -114.70403    1.6996207   -113.00441   -14595.869    4.3785792    4.3785792    4.3785792   -14595.869   -50736.862    21787.466   -14838.212    18843.263   -30779.504    9913.6901    83.945928 
   86200    2066.0287   -114.85634    1.8693862   -112.98695   -19363.335    4.3773708    4.3773708    4.3773708   -19363.335    8.5180767   -33673.286   -24425.237   -24589.625   -6050.2592   -24492.188    83.876445 
   86300    1239.3817   -114.11428    1.1214186   -112.99286   -23456.561    4.3682826    4.3682826    4.3682826   -23456.561    11934.631   -26621.792    -55682.52   -1203.6912    34607.848    -51885.03      83.3551 
   86400    1802.3365   -114.62448     1.630792   -112.99368   -8778.5356    4.3601776    4.3601776    4.3601776   -8778.5356   -56999.976    42851.481   -12187.112     595.6378   -55155.585     21060.11    82.891985 
   86500    1805.7954   -114.63339    1.6339216   -112.99947    4092.8222    4.3708027    4.3708027    4.3708027    4092.8222    19945.457    7166.9248   -14833.915    14031.455   -6885.8088   -35375.021    83.499449 
   86600    1675.4681   -114.51495    1.5159988   -112.99895    -19955.72    4.3804092    4.3804092    4.3804092    -19955.72    981.72433   -10834.299   -50014.586    608.13357    17413.975   -47546.578    84.051226 
   86700    1740.7206   -114.56316    1.5750406   -112.98812   -11825.492    4.3730479    4.3730479    4.3730479   -11825.492   -71994.977    54763.014   -18244.514    6929.9151   -41038.107    19600.716     83.62819 
   86800    1480.9632   -114.33154    1.3400066   -112.99153   -14324.286    4.3677923    4.3677923    4.3677923   -14324.286   -35955.128   -10850.132    3832.4031    23456.325   -7629.0859   -33811.599    83.327039 
   86900    1204.9936   -114.10145    1.0903035   -113.01115   -6783.6187    4.3628689    4.3628689    4.3628689   -6783.6187    34753.427   -44669.734   -10434.549   -12238.818    1349.0802   -35365.205    83.045575 
   87000    1850.9395   -114.68616    1.6747689   -113.01139     13090.43    4.3636852    4.3636852    4.3636852     13090.43   -12275.775    54053.007   -2505.9425   -116.69809   -13937.833    39963.465    83.092199 
   87100    1590.1983   -114.45529    1.4388449   -113.01645   -19830.363    4.3763255    4.3763255    4.3763255   -19830.363   -2827.6889   -27668.495   -28994.905    8471.5702   -9116.5134   -54769.417    83.816371 
   87200    1418.2677   -114.29193    1.2832784   -113.00865    13032.223    4.3694994    4.3694994    4.3694994    13032.223    36431.671   -230.26157    2895.2605    4625.8906    18351.772   -57328.044    83.424775 
   87300    2120.0561   -114.90885    1.9182713   -112.99058    1056.3111    4.3699601    4.3699601    4.3699601    1056.3111   -18675.971    13225.657    8619.2476   -342.06602   -5610.6018    49618.277    83.451169 
   87400    1308.8068   -114.18793    1.1842359   -113.00369   -17370.114    4.3717567    4.3717567    4.3717567   -17370.114    42647.524   -53450.878   -41306.987   -18166.989   -31281.509   -38268.778    83.554137 
   87500    1587.5509   -114.43684    1.4364494   -113.00039    36587.405    4.3610902    4.3610902    4.3610902    36587.405    55669.319    25498.055    28594.841    25437.097    18482.627   -37707.004    82.944047 
   87600    2370.8022   -115.13663    2.1451517   -112.99148    6311.8327    4.3772643    4.3772643    4.3772643    6311.8327   -20988.577    13860.759    26063.317     3034.694    6081.4194    16274.334    83.870319 
   87700    1664.4348   -114.49072    1.5060156    -112.9847   -17077.157     4.387157     4.387157     4.387157   -17077.157    12886.612   -70082.625     5964.542   -26928.511   -8647.4433   -53630.762    84.440251 
   87800     1384.856   -114.23284    1.2530468    -112.9798    20977.165    4.3655127    4.3655127    4.3655127    20977.165    34107.164    7546.0781    21278.254    32040.109    10381.412   -7904.9191    83.196637 
   87900    1779.2101   -114.58972    1.6098667   -112.97986    21635.773    4.3559892    4.3559892    4.3559892    21635.773    28516.475    28030.576    8360.2696    31641.879    12671.409     8591.031    82.653334 
   88000    1951.0841   -114.76153    1.7653819   -112.99615    16.321677    4.3662032    4.3662032    4.3662032    16.321677    27410.609   -40074.939    12713.295   -26103.772   -31.829087   -54315.147    83.236118 
   88100    1385.5436   -114.26307     1.253669    -113.0094   -23845.472    4.3744698    4.3744698    4.3744698   -23845.472   -17917.808   -39804.431   -13814.178    3751.7381    10253.784   -10235.852    83.709794 
   88200    1489.9957   -114.35805    1.3481794   -113.00987   -21323.481    4.3714405    4.3714405    4.3714405   -21323.481   -3996.4211   -19885.776   -40088.246    34258.399    25020.831    33866.896    83.536005 
   88300    2133.1017   -114.92041    1.9300753   -112.99033    2383.3454    4.3660455    4.3660455    4.3660455    2383.3454    47951.278   -37117.406   -3683.8358   -23895.909   -4382.0605    2995.6209    83.227104 
   88400    1632.3534   -114.47021    1.4769876   -112.99322   -11670.898    4.3716861    4.3716861    4.3716861   -11670.898    405.81507   -42942.847    7524.3369   -14076.172   -1260.7779   -18342.344    83.550087 
   88500    1432.7647   -114.29342    1.2963956   -112.99702   -8346.2772    4.3795041    4.3795041    4.3795041   -8346.2772    56061.197   -43237.778    -37862.25    27278.904    13730.228     41860.74    83.999132 
   88600     2427.987   -115.18027    2.1968937   -112.98338   -9681.8905    4.3777643    4.3777643    4.3777643   -9681.8905    16437.808   -49255.154     3771.675    -9446.346   -5181.5232    23906.488    83.899068 
   88700    2231.9001   -115.01236    2.0194701   -112.99289    29707.578    4.3538842    4.3538842    4.3538842    29707.578    14331.784    13567.444    61223.507   -20671.904    2336.6263   -12447.318    82.533565 
   88800    825.76321   -113.77012   0.74716791   -113.02295    14646.605    4.3525809    4.3525809    4.3525809    14646.605    46139.735    -37338.86    35138.941     32275.51    4345.0646    62597.858    82.459471 
   88900    1557.9858   -114.43752    1.4096983   -113.02782   -28056.071    4.3757837    4.3757837    4.3757837   -28056.071     16766.99   -62043.738   -38891.466    12965.112    4898.4324   -22235.597    83.785245 
   89000     2094.002   -114.89926    1.8946971   -113.00456    28367.736    4.3721691    4.3721691    4.3721691    28367.736    22769.916    24061.021    38272.271   -9991.7757    1173.4006   -28861.775    83.577782 
   89100    1823.9152   -114.65704    1.6503168   -113.00672      5924.41    4.3661793    4.3661793    4.3661793      5924.41    17411.495   -20432.268    20794.003    17271.097    3100.5261    56459.073    83.234751 
   89200    1119.9858    -114.0267    1.0133867   -113.01331    -7586.621    4.3661119    4.3661119    4.3661119    -7586.621    37122.439   -58486.115   -1396.1863    20192.329    13888.546   -34849.494    83.230899 
   89300    2072.4796   -114.87137    1.8752231   -112.99614    18570.037    4.3648994    4.3648994    4.3648994    18570.037    8188.4653    13354.998    34166.649   -29058.415    -23816.78   -19711.327    83.161579 
   89400    1887.4038   -114.70208    1.7077626   -112.99432   -21900.832    4.3806487    4.3806487    4.3806487   -21900.832   -37618.652   -27232.364   -851.47982    2289.4304    4054.3478    14227.643    84.065015 
   89500    1660.9259   -114.49554    1.5028407    -112.9927   -13450.856    4.3707723    4.3707723    4.3707723   -13450.856    35497.723   -61342.712    -14507.58     31873.93      9710.25   -17749.428    83.497707 
   89600    1358.4456   -114.22296    1.2291501   -112.99381    5148.8898    4.3593545    4.3593545    4.3593545    5148.8898   -7072.9945   -20946.516    43466.179   -53658.316   -9771.8922   -22761.422    82.845047 
   89700    1781.9875   -114.61107    1.6123797   -112.99869   -5695.5404     4.372519     4.372519     4.372519   -5695.5404   -3688.1745    -14532.09    1133.6429   -34563.504   -14285.015    6611.5155    83.597849 
   89800    2436.1862   -115.19128    2.2043124   -112.98696   -6991.0882     4.371713     4.371713     4.371713   -6991.0882    46793.331   -31332.539   -36434.056    18296.219   -3123.0674   -33867.847    83.551628 
   89900     840.8957   -113.77834    0.7608601   -113.01748     2863.697    4.3641048    4.3641048    4.3641048     2863.697    24294.782   -43803.694    28100.003   -57634.068   -4729.0021   -13754.201     83.11617 
   90000    1960.3571   -114.77626    1.7737723   -113.00249   -9494.0753    4.3665796    4.3665796    4.3665796   -9494.0753   -20465.591   -27979.325     19962.69   -30005.974    -32499.35    15309.274    83.257649 
   90100    2127.3273   -114.91565    1.9248504    -112.9908    1642.9149    4.3777023    4.3777023    4.3777023    1642.9149    41390.973   -13956.867   -22505.361    13448.429    14969.325   -22725.765    83.895502 
   90200    1227.1443    -114.1029     1.110346   -112.99255   -44109.115    4.3858909    4.3858909    4.3858909   -44109.115   -79950.992   -58761.836    6385.4831   -83400.605   -7353.6202   -25470.622     84.36717 
   90300    1952.1337   -114.75007    1.7663316   -112.98374    20855.185     4.360328     4.360328     4.360328    20855.185    1414.0776     17863.24    43288.238   -8557.3083   -19883.208     16404.43    82.900561 
   90400    1912.4942     -114.715     1.730465   -112.98454    19057.018    4.3505017    4.3505017    4.3505017    19057.018    25061.654    9139.7167    22969.685   -7274.2696    6240.7042     5581.102    82.341357 
   90500    1075.4169   -113.98399   0.97305985   -113.01093   -25043.443    4.3701019    4.3701019    4.3701019   -25043.443   -59845.414   -39864.424     24579.51   -71875.737    5325.7946   -26287.262    83.459289 
   90600    1909.1612   -114.72497    1.7274491   -112.99752   -3459.0602    4.3744121    4.3744121    4.3744121   -3459.0602    -40748.18    9274.4902     21096.51    19489.856   -2269.9674    10509.283    83.706479 
   90700    1587.1636   -114.43386     1.436099   -112.99776   -13717.894     4.378759     4.378759     4.378759   -13717.894    -12924.16   -31344.693    3115.1717   -9716.4717   -14875.965    988.85982    83.956267 
   90800    2339.8335   -115.10508    2.1171305   -112.98795   -5578.3302    4.3679546    4.3679546    4.3679546   -5578.3302   -15601.987   -30860.613     29727.61   -40986.336    21735.414   -13907.125    83.336327 
   90900    964.25475   -113.87426   0.87247796   -113.00178    34436.332    4.3529183    4.3529183    4.3529183    34436.332   -27433.387    70110.552    60631.829    26309.652   -4602.6199    8695.2376     82.47865 
   91000    1221.6172   -114.12814    1.1053449   -113.02279   -21791.205     4.374493     4.374493     4.374493   -21791.205   -60930.469    4957.8757   -9401.0217     28723.31   -5698.3298    1348.5703    83.711127 
   91100    2806.8333   -115.52498    2.5396818    -112.9853   -6590.4392    4.3809803    4.3809803    4.3809803   -6590.4392   -4419.7199   -38790.322    23438.724   -11199.103    652.74006    5813.0158    84.084105 
   91200    1415.6749   -114.29411    1.2809324   -113.01318    6452.8028    4.3596359    4.3596359    4.3596359    6452.8028   -18960.621    18075.044    20243.985    21153.738    387.13025   -4886.8625    82.861094 
   91300    1285.6519   -114.17559    1.1632848   -113.01231    8736.4672    4.3523077    4.3523077    4.3523077    8736.4672   -33763.735    49615.238    10357.899    41977.812   -16680.262   -570.58215    82.443948 
   91400    1610.5182   -114.47269    1.4572307   -113.01546    5457.3323    4.3659392    4.3659392    4.3659392    5457.3323   -1846.3791   -31025.887    49244.263   -60264.836    340.87349     1802.094    83.221024 
   91500    1732.4799   -114.57996    1.5675842   -113.01238   -13440.517    4.3816505    4.3816505    4.3816505   -13440.517   -31185.235   -29254.456    20118.139   -17386.387   -9732.6744   -18657.557    84.122702 
   91600    1913.0286   -114.72538    1.7309485   -112.99443     14130.01    4.3725925    4.3725925    4.3725925     14130.01   -22891.936     57988.78    7293.1866    11486.823   -18345.241    9885.4345    83.602066 
   91700    1034.0281   -113.93962   0.93561035   -113.00401   -783.18801    4.3587571    4.3587571    4.3587571   -783.18801   -28768.631   -26736.315    53155.382   -88677.175   -2955.0384   -6286.1805    82.810997 
   91800    2226.9996   -115.00963     2.015036   -112.99459    12372.857    4.3639599    4.3639599    4.3639599    12372.857   -5241.8277    26090.785    16269.613    10452.309    5488.3799   -9088.4394    83.107888 
   91900    1928.8573    -114.7324    1.7452706   -112.98713   -2090.5943    4.3805253    4.3805253    4.3805253   -2090.5943    -11143.11    12701.402   -7830.0745   -38708.778   -15215.319    20287.213    84.057907 
   92000     1302.448   -114.15389    1.1784823    -112.9754   -12579.306    4.3883969    4.3883969    4.3883969   -12579.306   -40058.893   -4545.6074    6866.5808    -53515.43   -4978.2289   -1471.3837    84.511867 
   92100    1727.4079   -114.52556     1.562995   -112.96256    4471.2369    4.3784159    4.3784159    4.3784159    4471.2369   -23206.204    39833.877   -3213.9624    40943.488     20126.28   -8744.7237    83.936535 
   92200    1816.0803   -114.61172    1.6432276   -112.96849    12243.038    4.3638661    4.3638661    4.3638661    12243.038     -32714.4    6158.3805    63285.134    -37307.14    9505.6307    -1572.013    83.102532 
   92300    2069.9527   -114.85894    1.8729367   -112.98601    18269.838     4.356826     4.356826     4.356826    18269.838   -26480.914    32137.611    49152.816   -32343.063   -30678.477    5853.1177     82.70098 
   92400    877.39458   -113.81805   0.79388506   -113.02416   -9275.1252    4.3641405    4.3641405    4.3641405   -9275.1252   -70496.268     3802.474    38868.418    48938.781   -2281.7884   -6350.0982    83.118209 
   92500    1767.3252   -114.62271     1.599113   -113.02359   -8078.3183    4.3718308    4.3718308    4.3718308   -8078.3183   -45978.306   -10872.003    32615.354    27262.181    24669.041   -15073.104    83.558386 
   92600    2356.2305   -115.13253    2.1319668   -113.00057     7876.878    4.3728799    4.3728799    4.3728799     7876.878   -33611.628    25858.085    31384.178   -12864.731   -15386.601     18367.04    83.618553 
   92700    863.14514   -113.77561   0.78099186   -112.99462   -35751.333    4.3886169    4.3886169    4.3886169   -35751.333   -90803.797    -20833.52    4383.3167    47039.876    8642.3626   -19898.841    84.524581 
   92800    1931.7566    -114.6986     1.747894   -112.95071     1087.739    4.3801963    4.3801963    4.3801963     1087.739   -12346.005    -36470.86    52080.082   -23746.168    15480.264    4648.4124    84.038973 
   92900    1662.2979    -114.4633     1.504082   -112.95922   -3119.7359    4.3562508    4.3562508    4.3562508   -3119.7359    11437.998   -38366.234    17569.028   -30224.556   -8280.3496    29046.135    82.668229 
   93000    1939.2354   -114.72973    1.7546609   -112.97507   -2048.3883    4.3513091    4.3513091    4.3513091   -2048.3883   -22417.215    15692.075     579.9753    51254.789    4414.1365   -4607.7627    82.387211 
   93100    1405.5896   -114.27864     1.271807   -113.00683   -4864.4445    4.3673997    4.3673997    4.3673997   -4864.4445   -33824.844   -34341.548    53573.059   -50952.565    13360.586   -4458.1991    83.304566 
   93200    1830.7997   -114.65507     1.656546   -112.99853   -25358.643    4.3870706    4.3870706    4.3870706   -25358.643   -32926.471   -51948.513    8799.0559   -31730.166   -6171.6296    27109.166    84.435266 
   93300    2585.0882   -115.32146    2.3390421   -112.98242   -12660.608     4.372857     4.372857     4.372857   -12660.608   -26797.232    20675.678   -31860.271    16319.414    19707.674    9376.3205    83.617238 
   93400    1322.0484   -114.19252    1.1962172   -112.99631     4318.444     4.348824     4.348824     4.348824     4318.444   -44643.639    19388.288    38210.683    -74249.25    10859.621    1596.2295    82.246137 
   93500    1497.4837   -114.36225    1.3549547   -113.00729    3641.2186    4.3556514    4.3556514    4.3556514    3641.2186   -5563.4416   -10914.123     27401.22    -3907.658   -3726.9961      24878.9    82.634109 
   93600    1958.4278   -114.76632    1.7720266    -112.9943   -26637.163    4.3799658    4.3799658    4.3799658   -26637.163   -14965.854   -44058.353   -20887.281    33274.643    -2551.011   -1584.5538    84.025704 
   93700    1241.7879   -114.10771    1.1235958   -112.98411   -20449.669    4.3882233    4.3882233    4.3882233   -20449.669   -31749.302   -22625.434   -6974.2699   -49624.053    25053.939    94.571717     84.50184 
   93800    1955.9135   -114.72897    1.7697516   -112.95922   -9596.1766    4.3780319    4.3780319    4.3780319   -9596.1766    14217.973   -14583.028   -28423.475    2995.9981    4705.6991    35013.312     83.91445 
   93900    1862.0211   -114.65072    1.6847958   -112.96593    3807.5661    4.3576302    4.3576302    4.3576302    3807.5661    7425.3784   -4162.0225    8159.3422    23076.293   -5520.2334    12988.541    82.746784 
   94000    1662.9117   -114.49162    1.5046374   -112.98699    4690.8311    4.3477644    4.3477644    4.3477644    4690.8311    -12170.38    17923.619    8319.2533   -23328.322    35253.364   -15304.373    82.186033 
   94100    1460.5329   -114.33845    1.3215209   -113.01693   -19873.558    4.3660958    4.3660958    4.3660958   -19873.558    35557.201   -30993.584    -64184.29    1066.0879   -6373.2178    75914.973    83.229976 
   94200    2234.5465    -115.0184    2.0218647   -112.99653   -30522.375     4.380343     4.380343     4.380343   -30522.375   -15690.715   -27196.561   -48679.849   -2512.6441   -23855.045   -2646.1371    84.047413 
   94300     1644.714   -114.47336    1.4881718   -112.98518   -24656.049    4.3784921    4.3784921    4.3784921   -24656.049    -13112.68   -37825.397    -23030.07   -11993.988    24043.156    3900.8435    83.940916 
   94400     1072.176   -113.95997   0.97012742   -112.98984     -29172.5    4.3686549    4.3686549    4.3686549     -29172.5    26156.828   -81940.338   -31733.989   -8900.4681   -7218.2276    101770.87    83.376414 
   94500     2590.023   -115.31084    2.3435073   -112.96734    34452.453    4.3493172    4.3493172    4.3493172    34452.453    22348.402    30999.655    50009.302    12261.806   -11357.402   -22087.221    82.274118 
   94600    1216.3407   -114.11058    1.1005706      -113.01   -4045.8543    4.3576567    4.3576567    4.3576567   -4045.8543    27258.658   -64364.152    24967.931     -6869.06    20521.693    47019.045    82.748292 
   94700    865.87344   -113.80905   0.78346049   -113.02559   -40826.004    4.3734621    4.3734621    4.3734621   -40826.004     12484.01    -96099.27   -38862.753   -17761.611    8893.6573    64000.148    83.651958 
   94800    2283.2679   -115.06557    2.0659488   -112.99962    14172.113    4.3599561    4.3599561    4.3599561    14172.113    21255.562   -25902.172    47162.949    11339.615   -5947.4621   -37260.514    82.879355 
   94900    1447.8744   -114.31525    1.3100672   -113.00518    -4004.803    4.3620537    4.3620537    4.3620537    -4004.803    49882.351   -42511.953   -19384.807    5069.0514    2868.0588    74803.332    82.999034 
   95000    1789.3197   -114.61676    1.6190141   -112.99774   -23371.118    4.3665458    4.3665458    4.3665458   -23371.118    20044.483   -28042.134   -62115.701   -11564.709    30183.092    12845.707    83.255714 
   95100      1779.18   -114.60313    1.6098394   -112.99329    7897.6119     4.359686     4.359686     4.359686    7897.6119    27411.528   -28106.401    24387.709    13617.128   -241.95316   -41601.824    82.863949 
   95200    2020.6997   -114.81487    1.8283715    -112.9865   -2407.4459    4.3729058    4.3729058    4.3729058   -2407.4459    24904.534   -36270.713     4143.841    16136.615   -1573.0452    38364.884    83.620037 
   95300    1757.0082   -114.57961     1.589778   -112.98983   -22394.559    4.3713874    4.3713874    4.3713874   -22394.559    -27829.23   -4080.2641   -35274.183   -19150.723    56629.075   -393.89669    83.532961 
   95400    1220.1146   -114.10098    1.1039853   -112.99699    11855.685    4.3545451    4.3545451    4.3545451    11855.685    26132.355   -38250.475    47685.175    6273.5781   -4386.3128   -24016.497    82.571157 
   95500    2009.0025   -114.81285    1.8177876   -112.99506   -10553.263    4.3629894    4.3629894    4.3629894   -10553.263   -2862.6451   -28673.806   -123.33882    16913.667   -231.03533   -13690.006    83.052455 
   95600    1502.0843   -114.35988    1.3591175   -113.00076   -9062.2897    4.3641239    4.3641239    4.3641239   -9062.2897   -20617.891    11402.407   -17971.385   -4750.7362    75005.545     6073.964    83.117261 
   95700    2079.1393   -114.87366    1.8812489   -112.99241   -16779.364    4.3701253    4.3701253    4.3701253   -16779.364    4269.0951   -70249.095    15641.907    4332.1122   -10749.567   -21524.784    83.460632 
   95800    1086.4443   -113.99372   0.98303766   -113.01068   -35026.612    4.3708502    4.3708502    4.3708502   -35026.612   -13812.037   -40540.477   -50727.323    12878.781     29514.45   -9575.2669    83.502173 
   95900    1041.2066   -113.95516   0.94210558   -113.01305    15381.799    4.3496024    4.3496024    4.3496024    15381.799    17851.746    33130.079   -4836.4276   -6549.7561    73201.717     18214.99    82.290307 
   96000    2747.9354   -115.47929    2.4863897    -112.9929    21232.003    4.3615387    4.3615387    4.3615387    21232.003    64226.256   -21321.777     20791.53   -1193.4353   -29829.244    -13767.37    82.969638 
   96100    1313.2638    -114.2004    1.1882687   -113.01213   -16076.003    4.3762646    4.3762646    4.3762646   -16076.003   -26047.092   -6725.6453   -15455.272        12866    69051.432   -7170.5276     83.81287 
   96200    1157.9158   -114.05422    1.0477065   -113.00651   -7188.5944    4.3669273    4.3669273    4.3669273   -7188.5944    18513.344   -31867.765   -8211.3622    1132.6858     38282.02     24893.16    83.277542 
   96300    2176.9345   -114.96142    1.9697361   -112.99168    8828.0169    4.3555165    4.3555165    4.3555165    8828.0169    31203.639   -38115.318     33395.73   -353.18799   -24765.444    5135.6007    82.626428 
   96400    1619.8512   -114.47152    1.4656754   -113.00584    2776.7842    4.3542352    4.3542352    4.3542352    2776.7842   -4387.6978    35481.033   -22762.983   -7141.3523    76482.098   -5510.2626    82.553532 
   96500    2123.6739   -114.92529    1.9215448   -113.00375   -6412.7429     4.363594     4.363594     4.363594   -6412.7429    4975.1246   -21401.371   -2811.9826    6057.3156      21197.5    15678.065    83.086987 
   96600    1623.4226   -114.48279    1.4689069   -113.01389   -12657.391    4.3659863    4.3659863    4.3659863   -12657.391   -21895.691   -50963.668    34887.184    -2108.162   -7602.0014    10451.675    83.223718 
   96700    1030.1044   -113.95151   0.93206012   -113.01945   -4739.4435    4.3635332    4.3635332    4.3635332   -4739.4435   -19086.732    4398.6399    469.76145   -10814.406    84503.166   -14438.307    83.083512 
   96800    2535.2201    -115.2965    2.2939204   -113.00258    16130.654    4.3615978    4.3615978    4.3615978    16130.654    35940.005   -18133.123    30585.079    578.79961   -16283.929   -15456.747    82.973008 
   96900    1936.5206   -114.76116    1.7522045   -113.00895    18337.677    4.3591251    4.3591251    4.3591251    18337.677    2502.8587   -6948.2965     59458.47    5662.3958    20133.315    9684.1699    82.831973 
   97000    931.30348   -113.86194   0.84266296   -113.01928    -14190.67    4.3684179    4.3684179    4.3684179    -14190.67    2913.1029   -11093.422   -34391.691   -8466.5926      78708.9   -6681.6526    83.362845 
   97100    2147.9191   -114.94402    1.9434824   -113.00054    5496.0294    4.3661234    4.3661234    4.3661234    5496.0294     33056.18    -54068.41    37500.318   -11378.584     -33296.7   -26338.935    83.231555 
   97200    1826.5211   -114.65272    1.6526746   -113.00005    4546.9244    4.3567582    4.3567582    4.3567582    4546.9244    4360.6905    8702.7517    577.33107    9482.4671    50007.046    10288.007    82.697119 
   97300    1327.3549   -114.21544    1.2010186   -113.01443   -20297.228     4.359298     4.359298     4.359298   -20297.228   -48996.847    11096.256   -22991.092   -9545.2475    70674.365   -3003.5485    82.841826 
   97400    2244.8719   -115.02379    2.0312072   -112.99258    4872.6835    4.3594331    4.3594331    4.3594331    4872.6835    27140.066   -51954.105    39432.089   -17731.585   -23246.177   -18380.245    82.849531 
   97500    1009.7856   -113.92706   0.91367525   -113.01339   -24902.465    4.3690072    4.3690072    4.3690072   -24902.465   -48254.953    2344.4479   -28796.891   -718.34723     74295.77    13924.379     83.39659 
   97600    1382.8661   -114.26609    1.2512463   -113.01484   -20957.768    4.3703857    4.3703857    4.3703857   -20957.768   -32303.597    -6747.631   -23822.077    3602.9016    5150.2758    5328.6339    83.475551 
   97700    2406.1214   -115.16998    2.1771092   -112.99287    7111.5305    4.3542316    4.3542316    4.3542316    7111.5305    -1184.545   -9375.2238     31894.36   -13973.302    -18132.47   -15006.628    82.553326 
   97800    1153.1223   -114.06143    1.0433693   -113.01806   -5221.6416    4.3578563    4.3578563    4.3578563   -5221.6416   -7427.1275    24556.331   -32794.128   -5098.9574     97396.35     9278.484    82.759661 
   97900    1988.9436   -114.80723     1.799638   -113.00759    -5393.451    4.3628083    4.3628083    4.3628083    -5393.451    17840.399   -4951.9634   -29068.789    2409.7182   -1272.8501    26626.836    83.042116 
   98000    1850.3402   -114.68371    1.6742267   -113.00948    4589.2974    4.3668792    4.3668792    4.3668792    4589.2974    30812.818   -6425.0768   -10619.849    290.31038   -8196.4779   -17660.111    83.274786 
   98100    721.62257   -113.67307   0.65293927   -113.02013   -22724.434    4.3725616    4.3725616    4.3725616   -22724.434   -33497.412    18394.765   -53070.656   -7830.0884    77865.884   -3987.3555    83.600297 
   98200    1924.4607   -114.74004    1.7412925   -112.99875    9226.8015    4.3604585    4.3604585    4.3604585    9226.8015    28283.987    17093.202   -17696.785    13680.556   -10562.825     39164.59    82.908007 
   98300    1891.4276   -114.71021    1.7114034   -112.99881    9752.0127    4.3601376    4.3601376    4.3601376    9752.0127    5485.3487    34368.012   -10597.322   -8643.3029    14762.777   -391.75014    82.889702 
   98400    1175.8542   -114.07727    1.0639376   -113.01333   -19213.651    4.3677235    4.3677235    4.3677235   -19213.651   -36685.985    28917.139   -49872.108   -8912.0915    70877.776   -18386.884    83.323097 
   98500    1952.6625   -114.76164    1.7668101   -112.99483    20906.324    4.3630764    4.3630764    4.3630764    20906.324   -4446.8226    44354.119    22811.675    -3925.694   -14173.531    17198.121    83.057426 
   98600    1693.7067   -114.53402    1.5325014   -113.00152    1085.4948    4.3660871    4.3660871    4.3660871    1085.4948   -35660.509    60813.551   -21896.558    -3122.073   -19788.526    6943.9687    83.229482 
   98700    1199.9021   -114.09535    1.0856966   -113.00965   -19491.936    4.3648133    4.3648133    4.3648133   -19491.936   -30266.959     11280.09   -39488.937   -8410.8565    40067.716   -25988.259    83.156658 
   98800    2069.2504   -114.87029    1.8723013   -112.99799    13235.417     4.358861     4.358861     4.358861    13235.417   -4125.8139   -885.24922    44717.315   -12511.395   -4908.0709   -26105.326     82.81692 
   98900    1926.2072   -114.74224    1.7428728   -112.99937   -737.89658    4.3722943    4.3722943    4.3722943   -737.89658   -42667.921    35454.097    5000.1341    678.69147   -21843.814    16482.366    83.584964 
   99000    1106.7933   -114.00436    1.0014498   -113.00291   -15053.106    4.3755152    4.3755152    4.3755152   -15053.106   -46388.096    23268.958    -22040.18   -2551.2801    48359.635   -30654.495     83.76982 
   99100    1723.1326   -114.55193    1.5591266    -112.9928   -781.31858    4.3674433    4.3674433    4.3674433   -781.31858   -861.80356   -19586.184    18104.031    1279.9091    472.05895   -14847.301    83.307064 
   99200    1976.3607   -114.77769    1.7882527   -112.98944    9272.2282     4.361345     4.361345     4.361345    9272.2282   -8799.5301    26783.857    9832.3578    9667.9306    1556.7696    38580.096    82.958584 
   99300    1735.2245   -114.57219    1.5700676   -113.00212    5852.0749    4.3631115    4.3631115    4.3631115    5852.0749    -34819.64    55994.383   -3618.5183   -1551.6968    53677.536   -27006.634    83.059428 
   99400    1503.9298   -114.36262    1.3607873   -113.00183   -11226.519    4.3764514    4.3764514    4.3764514   -11226.519   -3987.8737   -23372.687   -6318.9947   -8130.0625   -8871.8445   -9893.3134    83.823607 
   99500    1897.5109   -114.69993    1.7169077   -112.98302   -2418.1575     4.374214     4.374214     4.374214   -2418.1575    17707.644   -29289.431    4327.3148    249.12566    10931.699    48782.547     83.69511 
   99600    2042.1293   -114.82365    1.8477615   -112.97589   -3790.0943    4.3670844    4.3670844    4.3670844   -3790.0943   -3933.5125    -22341.99    14905.219   -3626.2338    30554.093   -27784.617    83.286527 
   99700    1002.7226   -113.90668   0.90728449    -112.9994   -10751.083    4.3545635    4.3545635    4.3545635   -10751.083    12919.601   -67883.284    22710.434   -8237.5113   -10729.267   -20027.798    82.572206 
   99800    1398.1446   -114.28073    1.2650706   -113.01566    10723.488    4.3542852    4.3542852    4.3542852    10723.488    25868.794    3920.5738    2381.0972    6549.3046   -16003.867     46173.88    82.556376 
   99900    2064.0688   -114.87207    1.8676128   -113.00446    3154.3846     4.368115     4.368115     4.368115    3154.3846   -12823.158   -23580.209    45866.521    1583.4762    2748.9595   -7671.9306    83.345509 
  100000    1064.1504   -113.97371   0.96286569   -113.01085   -19831.675    4.3816111    4.3816111    4.3816111   -19831.675   -10860.351   -48713.224    78.551268   -11342.263    1522.5125   -28124.747    84.120427 
Loop time of 21.3202 on 1 procs for 100000 steps with 8 atoms

Pair  time (%) = 6.35488 (29.8068)
Kspce time (%) = 5.25838 (24.6638)
Neigh time (%) = 0.196957 (0.923806)
Comm  time (%) = 0.910404 (4.27015)
Outpt time (%) = 0.024076 (0.112926)
Other time (%) = 8.57551 (40.2224)

Nlocal:    8 ave 8 max 8 min
Histogram: 1 0 0 0 0 0 0 0 0 0
Nghost:    1828 ave 1828 max 1828 min
Histogram: 1 0 0 0 0 0 0 0 0 0
Neighs:    2090 ave 2090 max 2090 min
Histogram: 1 0 0 0 0 0 0 0 0 0

Total # of neighbors = 2090
Ave neighs/atom = 261.25
Neighbor list builds = 2569
Dangerous builds = 0
unfix 20
unfix 21
print "seeds:2741988"
seeds:2741988
