LAMMPS (10 Feb 2015)
# ---- initialize simulations
clear
units metal
dimension 3
boundary p p p
atom_style charge
atom_modify map array
# ---- create atoms
read_data /Users/eugeneragasa/pyflamestk_git/pypospack/tests/tests_integration/workflow/WorkflowLammpsThermalExpansion/param_3867/MgO_NaCl_unit.npt.T1900/lammps.structure
  triclinic box = (0 0 0) to (4.2565 4.2565 4.2565) with tilt (0 0 0)
  1 by 1 by 1 MPI processor grid
  reading atoms ...
  8 atoms
# ---- define interatomic potential
include potential.mod
mass 1 24.305
mass 2 15.999

group Mg type 1
4 atoms in group Mg
group O type 2
4 atoms in group O

set group Mg charge 1.73479148785
  4 settings made for charge
set group O charge -1.73479148785
  4 settings made for charge

variable R_cut equal 10.0

pair_style buck/coul/long ${R_cut}
pair_style buck/coul/long 10
pair_coeff 1 1 0.0 0.5 0.0 ${R_cut}
pair_coeff 1 1 0.0 0.5 0.0 10
pair_coeff 1 2 1225.32983502 0.291530354982 0.0 ${R_cut}
pair_coeff 1 2 1225.32983502 0.291530354982 0.0 10
pair_coeff 2 2 16858.6500597 0.120403294253 7.45918898041 ${R_cut}
pair_coeff 2 2 16858.6500597 0.120403294253 7.45918898041 10

kspace_style pppm 1.0e-5

neighbor 1.0 bin
neigh_modify every 1 delay 0 check yes
# ---- define settings
compute eng all pe/atom
compute eatoms all reduce sum c_eng
# ---- run minimization
reset_timestep 0
fix 1 all box/relax iso 0.0 vmax 0.001
thermo 10
thermo_style custom step pe lx ly lz xy xz yz press pxx pyy pzz pxy pxz pyz c_eatoms
min_style cg
minimize 1e-25 1e-25 5000 10000
PPPM initialization ...
  G vector (1/distance) = 0.3534
  grid = 8 8 8
  stencil order = 5
  estimated absolute RMS force accuracy = 4.23269e-05
  estimated relative force accuracy = 2.93944e-06
  using double precision FFTs
  3d grid and FFT values/proc = 3375 512
Neighbor list info ...
  1 neighbor list requests
  update every 1 steps, delay 0 steps, check yes
  master list distance cutoff = 11
Memory usage per processor = 4.06549 Mbytes
Step PotEng Lx Ly Lz Xy Xz Yz Press Pxx Pyy Pzz Pxy Pxz Pyz eatoms 
       0   -122.62677       4.2565       4.2565       4.2565            0            0            0    18600.794    18600.794    18600.794    18600.794 4.9707872e-11 4.7042733e-11 1.8950886e-10   -122.62677 
       5   -122.63132    4.2712858    4.2712858    4.2712858            0            0            0   -6.7076035   -6.7076035   -6.7076035   -6.7076035 9.5134085e-11 4.9732958e-12 8.6603347e-11   -122.63132 
Loop time of 0.00739098 on 1 procs for 5 steps with 8 atoms

Minimization stats:
  Stopping criterion = linesearch alpha is zero
  Energy initial, next-to-last, final = 
        -122.626768711     -122.631316441     -122.631316441
  Force two-norm initial, final = 2.68597 0.0019334
  Force max component initial, final = 2.68596 0.000975322
  Final line search alpha, max atom move = 0.00390625 3.80985e-06
  Iterations, force evaluations = 5 22

Pair  time (%) = 0.00198007 (26.7903)
Kspce time (%) = 0.00118876 (16.0839)
Neigh time (%) = 0 (0)
Comm  time (%) = 0.000221729 (3)
Outpt time (%) = 0 (0)
Other time (%) = 0.00400043 (54.1258)

Nlocal:    8 ave 8 max 8 min
Histogram: 1 0 0 0 0 0 0 0 0 0
Nghost:    2189 ave 2189 max 2189 min
Histogram: 1 0 0 0 0 0 0 0 0 0
Neighs:    2344 ave 2344 max 2344 min
Histogram: 1 0 0 0 0 0 0 0 0 0

Total # of neighbors = 2344
Ave neighs/atom = 293
Neighbor list builds = 0
Dangerous builds = 0
unfix 1
# ---- define output variables ----
variable natoms equal "count(all)"
variable tot_energy equal "c_eatoms"
variable length_x equal "lx"
variable length_y equal "ly"
variable length_z equal "lz"
variable tilt_xy equal "xy"
variable tilt_xz equal "xz"
variable tilt_yz equal "yz"
variable tot_press equal "press"
variable press_xx equal "pxx"
variable press_yy equal "pyy"
variable press_zz equal "pzz"
variable press_xy equal "pxy"
variable press_xz equal "pxz"
variable press_yz equal "pyz"

# ---- output ----
print "pypospack:output_section:begin"
pypospack:output_section:begin
print "tot_energy = ${tot_energy}"
tot_energy = -122.631316441343
print "num_atoms = ${natoms}"
num_atoms = 8
print "xx = ${length_x}"
xx = 4.27128583299446
print "yy = ${length_y}"
yy = 4.27128583299446
print "zz = ${length_z}"
zz = 4.27128583299446
print "xy = ${tilt_xy}"
xy = 0
print "xz = ${tilt_xz}"
xz = 0
print "yz = ${tilt_yz}"
yz = 0
print "tot_press = ${tot_press}"
tot_press = -6.70760353710228
print "pxx = ${press_xx}"
pxx = -6.70760353705429
print "pyy = ${press_yy}"
pyy = -6.70760353725253
print "pzz = ${press_zz}"
pzz = -6.70760353700002
print "pxy = ${press_xy}"
pxy = 9.51340852761742e-11
print "pxz = ${press_xz}"
pxz = 4.97329584958765e-12
print "pyz = ${press_yz}"
pyz = 8.66033470907354e-11
print "pypospack:output_section:done"
pypospack:output_section:done
print "pypospack:lammps_sim:done"
pypospack:lammps_sim:done
#------------------------------------------------------------------------------
# RUN THERMOSTAT
# running using an NPT Nose-Hoover style thermostat
#------------------------------------------------------------------------------
variable tempdamp equal 0.1
variable pressdamp equal 1.0
# set initial velocities
velocity all create 1900 9745635 mom yes dist gaussian loop all
# fix for Nose-Hoover style thermostat
fix 20 all npt temp 1900 1900 0.1 aniso 0.0 0.0 1.0 drag 1.0 couple xyz
variable boxx equal lx
variable boxy equal ly
variable boxz equal lz
variable boxp equal press
variable boxt equal temp
# calculate averages every 10000 steps
reset_timestep 0
fix 21 all ave/time 10 10 100 v_boxx v_boxy v_boxz v_boxp v_boxt file lattice.out
thermo_style custom step temp pe ke etotal press lx ly lz press pxx pyy pzz pxy pxz pyz vol
thermo_modify flush yes
thermo 100
run 100000
PPPM initialization ...
  G vector (1/distance) = 0.353246
  grid = 8 8 8
  stencil order = 5
  estimated absolute RMS force accuracy = 4.26311e-05
  estimated relative force accuracy = 2.96057e-06
  using double precision FFTs
  3d grid and FFT values/proc = 3375 512
Memory usage per processor = 3.06549 Mbytes
Step Temp PotEng KinEng TotEng Press Lx Ly Lz Press Pxx Pyy Pzz Pxy Pxz Pyz Volume 
       0         1900   -122.63132    1.7191599   -120.91216    23557.267    4.2712858    4.2712858    4.2712858    23557.267    27679.432    25124.237    17868.131    260.25278    -16074.62   -986.39511    77.924838 
     100    749.02331   -121.37739   0.67773203   -120.69966    41996.187    4.3007602    4.3007602    4.3007602    41996.187     59231.57    30821.198    35935.794    5937.2734    20334.349    15220.042    79.549175 
     200    1270.4378   -121.38067    1.1495188   -120.23115   -53546.855    4.3476965    4.3476965    4.3476965   -53546.855   -30131.846   -63922.232   -66586.488   -4219.9435    3072.4666    27578.177    82.182183 
     300    1856.7453   -121.47042    1.6800222    -119.7904   -21320.511    4.3558014    4.3558014    4.3558014   -21320.511    4890.2507    -20668.44   -48183.344    -3226.392    8600.0767   -2321.0113    82.642647 
     400    1768.7818   -121.06931    1.6004309   -119.46887    38678.669    4.3403876    4.3403876    4.3403876    38678.669    59768.159    34095.825    22172.022    -6250.821    6958.0497   -21932.522     81.76841 
     500    1783.9048   -120.86923    1.6141146   -119.25512    19289.682    4.3315892    4.3315892    4.3315892    19289.682    46664.396    4033.8939    7170.7551   -6579.7319   -13484.902    26963.629    81.272157 
     600     1260.245   -120.32816    1.1402962   -119.18786    22145.128    4.3578373    4.3578373    4.3578373    22145.128   -6524.7688    84647.682   -11687.528   -22041.671   -10.979661   -979.44756    82.758581 
     700    1912.5461   -120.84365    1.7305119   -119.11313   -19906.286    4.3958779    4.3958779    4.3958779   -19906.286   -61307.712   -23446.221    25035.077    357.80942   -1698.0408    -14153.87    84.944811 
     800    2528.2517   -121.32635    2.2876153   -119.03874   -53968.337     4.393137     4.393137     4.393137   -53968.337   -60073.612   -27723.593   -74107.806    9666.6905     5238.917    5039.9274    84.786016 
     900    1565.8954   -120.45314     1.416855   -119.03628    3628.1834     4.350887     4.350887     4.350887    3628.1834   -28273.338    20324.828    18833.061   -21868.653   -22673.008    50149.867    82.363239 
    1000    1480.6436   -120.42071    1.3397174     -119.081    41589.131    4.3178541    4.3178541    4.3178541    41589.131    8579.8385   -15111.622    131299.17   -16797.914   -3073.8924   -15736.048    80.501484 
    1100    2746.8233   -121.64533    2.4853834   -119.15995    8953.3798     4.326548     4.326548     4.326548    8953.3798   -15808.666    14952.242    27716.564    10343.998   -5330.1678    -38086.16    80.988729 
    1200    2018.7375   -121.04807    1.8265961   -119.22147   -14856.121    4.3563507    4.3563507    4.3563507   -14856.121    7512.1412   -34227.481   -17853.024   -210.20277    -5067.591    19763.175    82.673913 
    1300    1499.6184   -120.55283    1.3568862   -119.19594   -8800.9591    4.3702693    4.3702693    4.3702693   -8800.9591   -4145.4845    -3026.616   -19230.777   -17311.263   -3524.7177   -4467.5682    83.468884 
    1400    1460.5346   -120.46615    1.3215224   -119.14463    22141.236    4.3774344    4.3774344    4.3774344    22141.236   -23135.692   -1010.1814    90569.582    5373.1196    16530.878    11141.475    83.880102 
    1500    2143.6265   -121.05497    1.9395983   -119.11538   -25621.544    4.3843421    4.3843421    4.3843421   -25621.544   -76010.969   -9678.1059    8824.4441    3021.4098     9275.194   -15246.672    84.277823 
    1600    2012.0653   -120.93816     1.820559    -119.1176   -14209.667    4.3473353    4.3473353    4.3473353   -14209.667   -39770.649    8061.2496   -10919.601   -10404.809   -17356.445    18922.399      82.1617 
    1700    1397.1779   -120.36334     1.264196   -119.09914    50879.077    4.3096082    4.3096082    4.3096082    50879.077    27064.051    15608.231    109964.95    19862.991   -14216.215      15928.7    80.041159 
    1800    1811.5046   -120.85584    1.6390874   -119.21675    6459.9693    4.3431089    4.3431089    4.3431089    6459.9693   -34525.528    5715.5385    48189.898    22051.788   -7966.4043     6690.294    81.922307 
    1900    2014.5973   -120.98574    1.8228499   -119.16289   -30127.326    4.3871119    4.3871119    4.3871119   -30127.326    -100005.5   -33534.929    43158.452   -11185.375    6237.9389   -25464.609    84.437651 
    2000    2213.2107   -121.10299    2.0025595   -119.10043   -4302.6167    4.3725138    4.3725138    4.3725138   -4302.6167   -26895.445    9979.9587     4007.636   -1610.6648   -8505.3028    25167.355    83.597552 
    2100    1498.4467   -120.46436    1.3558261   -119.10853   -1945.6821    4.3473683    4.3473683    4.3473683   -1945.6821   -62252.672    19169.954    37245.671    12433.616   -17654.966    3771.4169     82.16357 
    2200    2038.5678   -120.98311     1.844539   -119.13857    7871.9514    4.3260867    4.3260867    4.3260867    7871.9514   -29207.148    46743.064     6079.939   -8476.4597   -5969.4333   -4594.2048    80.962828 
    2300    2216.3197   -121.20057    2.0053727   -119.19519    5837.3161    4.3397003    4.3397003    4.3397003    5837.3161   -60247.915    51885.613    25874.251   -22623.733    18615.624   -12952.748    81.729568 
    2400    1806.1565    -120.8147    1.6342484   -119.18045   -33384.242    4.3718644    4.3718644    4.3718644   -33384.242   -40632.409    -42714.41   -16805.909   -23974.214    9372.8586    7183.7161     83.56031 
    2500    1884.5145   -120.81997    1.7051483   -119.11482   -7045.2295    4.3630759    4.3630759    4.3630759   -7045.2295   -13122.193    18685.399   -26698.895    7160.3422    861.39086    5108.4135    83.057395 
    2600    1960.3116    -120.8579    1.7737311   -119.08417    5069.0094    4.3485215    4.3485215    4.3485215    5069.0094   -19513.606    31794.184    2926.4499    3758.5861   -7986.6557    -14272.49    82.228975 
    2700    2359.4177   -121.24302    2.1348507   -119.10816   -36807.739    4.3567253    4.3567253    4.3567253   -36807.739   -59984.587   -46649.963   -3788.6674   -19125.082    6931.7741    6296.9021    82.695243 
    2800    2022.9321   -120.95775    1.8303915   -119.12736    4209.4797    4.3708689    4.3708689    4.3708689    4209.4797   -35078.158   -32865.885    80572.482   -2471.6372   -1843.7089    21214.617    83.503244 
    2900      2293.99   -121.17935    2.0756504    -119.1037    -590.3791    4.3611393    4.3611393    4.3611393    -590.3791   -57657.001   -8004.5164    63890.381    8762.9197    7513.7722   -10055.827    82.946846 
    3000    1721.9323   -120.67347    1.5580405   -119.11543   -6369.3948     4.360283     4.360283     4.360283   -6369.3948   -52824.757    -13954.37    47670.942   -7736.2895    487.26399    -6263.697    82.897994 
    3100    2602.9954   -121.46615    2.3552449    -119.1109   -15008.738    4.3587747    4.3587747    4.3587747   -15008.738   -5582.5868   -37250.119   -2193.5085   -15216.916   -7965.1505    15332.679    82.812001 
    3200    2490.7802   -121.36934    2.2537102   -119.11563    42253.429    4.3334361    4.3334361    4.3334361    42253.429    10274.945      13803.7    102681.64    8118.5497   -4632.7057   -6547.5059    81.376158 
    3300    2026.6437   -120.97637    1.8337498   -119.14262    983.83836    4.3210785    4.3210785    4.3210785    983.83836   -11343.298     24710.54   -10415.727    3665.7697    18465.899   -8734.7211    80.681964 
    3400    1704.1138   -120.71166     1.541918   -119.16974    16701.537    4.3339747    4.3339747    4.3339747    16701.537    -34231.72    52575.765    31760.568   -17582.902    7827.7325    20210.837    81.406508 
    3500    2073.9834   -121.04937    1.8765838   -119.17279    5819.4421    4.3649923    4.3649923    4.3649923    5819.4421   -55545.148     -41359.5    114362.97    30071.186   -7744.1304   -20777.966    83.166888 
    3600    2221.4736   -121.14151     2.010036   -119.13148    -30204.98    4.3739789    4.3739789    4.3739789    -30204.98    -10900.07   -57197.432   -22517.437    28000.266    213.93424   -307.45016    83.681613 
    3700    2196.0137   -121.08294    1.9869993   -119.09594    25684.199    4.3334291    4.3334291    4.3334291    25684.199   -37055.914     52778.76     61329.75   -8451.8497    22765.319   -25355.086    81.375767 
    3800    1439.7787   -120.41838     1.302742   -119.11564    53368.909     4.320439     4.320439     4.320439    53368.909    16251.411     7969.609    135885.71    8487.9826    2737.5893    17118.611    80.646149 
    3900    2231.3523   -121.18469    2.0189744   -119.16572   -21751.953    4.3470644    4.3470644    4.3470644   -21751.953   -58646.995   -72013.242    65404.376    24313.434    6595.6129    -7190.141     82.14634 
    4000    2506.6648   -121.42243     2.268083   -119.15434   -25914.637    4.3716053    4.3716053    4.3716053   -25914.637   -2729.6881   -50286.037   -24728.186   -16057.105    6677.9078    11138.659    83.545456 
    4100    1947.3872   -120.88346    1.7620368   -119.12142   -18505.235    4.3693415    4.3693415    4.3693415   -18505.235   -26607.898     199.4896   -29107.298     10932.82    17310.769   -15655.387    83.415734 
    4200    1537.4334   -120.48231    1.3911021    -119.0912    8956.3093    4.3411665    4.3411665    4.3411665    8956.3093   -29177.683    46681.466    9365.1446    28099.548   -22149.938   -6055.6828    81.812437 
    4300    2353.5773   -121.21741    2.1295662   -119.08785    2084.7118    4.3262902    4.3262902    4.3262902    2084.7118    -4908.118   -17493.334    28655.587   -12804.056   -10289.028    14777.566     80.97425 
    4400    2302.7443   -121.21491    2.0835715   -119.13134     19138.06    4.3433417    4.3433417    4.3433417     19138.06    43165.359   -30701.902    44950.723   -1645.0657    7519.3284   -24589.622    81.935479 
    4500    2224.6727   -121.15267    2.0129306   -119.13974   -32136.895    4.3709122    4.3709122    4.3709122   -32136.895   -68191.196    23629.907   -51849.395    18325.737   -33847.903   -7088.6157    83.505723 
    4600    1833.7584   -120.76657    1.6592232   -119.10735   -52350.107    4.3628076    4.3628076    4.3628076   -52350.107   -55530.671    -49501.45   -52018.199   -15102.091   -52676.289      12040.3    83.042074 
    4700    2571.9479   -121.40864    2.3271525   -119.08149    11802.969    4.3286427    4.3286427    4.3286427    11802.969   -11134.811     10139.43    36404.289   -19101.405   -2336.4646    13887.563    81.106419 
    4800    2070.3713   -120.99804    1.8733154   -119.12472     31046.67    4.3385895    4.3385895    4.3385895     31046.67    20126.102    16706.285    56307.625   -5215.4528   -23312.923   -13220.971    81.666828 
    4900    2323.9676   -121.24036    2.1027748   -119.13759   -63414.948    4.3736379    4.3736379    4.3736379   -63414.948   -90017.714   -62428.637   -37798.493    30073.972   -26442.701    22139.763    83.662044 
    5000    2302.7736   -121.17912    2.0835979   -119.09552    -40995.62    4.3822562    4.3822562    4.3822562    -40995.62   -77986.585   -75084.101    30083.827   -7552.1386   -4535.9917    17986.329    84.157592 
    5100    2688.8069   -121.49729     2.432889   -119.06441   -29093.145    4.3708755    4.3708755    4.3708755   -29093.145   -45326.093   -9331.1093   -32622.234    5495.2307    9640.0282   -6895.6091     83.50362 
    5200    2548.9958   -121.37646    2.3063849   -119.07007     8703.666     4.343492     4.343492     4.343492     8703.666   -22013.162   -14233.913    62358.074     7495.489   -6682.6854    19779.538    81.943982 
    5300    2463.4392   -121.33344    2.2289716   -119.10447    9842.0704    4.3288408    4.3288408    4.3288408    9842.0704    25326.878    4228.4187   -29.085019   -17628.544   -20268.608    5328.1051    81.117554 
    5400     1681.714   -120.70049    1.5216502   -119.17884   -17873.019    4.3617485    4.3617485    4.3617485   -17873.019   -51479.251   -21426.082    19286.276   -19472.606    11101.556   -945.65541    82.981608 
    5500      1833.52    -120.7979    1.6590074    -119.1389    -23910.73    4.3822078    4.3822078    4.3822078    -23910.73   -48920.987    22129.198   -44940.402   -5512.1588    29969.679    18287.058    84.154802 
    5600    3073.6129   -121.88652    2.7810695   -119.10545    -15822.26    4.3489274    4.3489274    4.3489274    -15822.26    -32703.34   -5252.9379   -9510.5023    12295.241   -10928.224    -12431.14    82.252004 
    5700     1823.444   -120.75126    1.6498904   -119.10137    73474.578    4.3167153    4.3167153    4.3167153    73474.578    83689.439    91332.327    45401.968    15705.884   -32157.782   -3382.2939    80.437807 
    5800    1678.3376   -120.68047    1.5185951   -119.16187   -3067.5761    4.3308168    4.3308168    4.3308168   -3067.5761   -15636.029    29341.808   -22908.507   -22337.178    6561.6546    13310.205    81.228685 
    5900    2221.6661   -121.16781    2.0102102    -119.1576   -31295.962    4.3583359    4.3583359    4.3583359   -31295.962    2340.7777   -50218.672   -46009.993   -22329.075    4424.6913    14792.216    82.786992 
    6000    2496.0794   -121.38963    2.2585051   -119.13112   -10450.861    4.3682504    4.3682504    4.3682504   -10450.861    9110.5142   -1147.4411   -39315.655   -6096.2745   -13982.873     3866.227    83.353255 
    6100    2086.6306   -121.00768    1.8880272   -119.11965   -43071.406    4.3726121    4.3726121    4.3726121   -43071.406   -47663.386    703.88288   -82254.716   -1327.1548   -16892.124     -19536.7    83.603192 
    6200    1987.5424   -120.89725    1.7983701   -119.09888   -45321.227    4.3555446    4.3555446    4.3555446   -45321.227   -51698.345   -67985.169   -16280.168     -58800.5    14866.524    5605.6599    82.628029 
    6300    2467.3122   -121.31298    2.2324759    -119.0805   -5078.4119    4.3265668    4.3265668    4.3265668   -5078.4119     -9702.38   -31327.535     25794.68    14673.712     8121.389    15235.833    80.989786 
    6400    2119.1341   -121.04273    1.9174371    -119.1253    139.09468    4.3270557    4.3270557    4.3270557    139.09468    6172.5981   -31241.287    25485.973    37726.764   -17882.464   -14083.702    81.017244 
    6500    1927.1604   -120.90329    1.7437353   -119.15955    14780.406    4.3446549    4.3446549    4.3446549    14780.406    12096.074    61335.852   -29090.707    2529.9444   -7425.6377    8051.4283    82.009821 
    6600     2463.151   -121.37576    2.2287108   -119.14705   -38983.454    4.3754669    4.3754669    4.3754669   -38983.454    11527.046   -84164.779    -44312.63   -4878.7272   -18699.251   -7999.7333    83.767046 
    6700    2128.7057   -121.02225    1.9260977   -119.09616   -55852.295     4.375412     4.375412     4.375412   -55852.295    -50267.86   -60347.148   -56941.876    22653.017    -3218.856   -5372.2968    83.763897 
    6800    2276.9555   -121.13654    2.0602372   -119.07631   -20240.263    4.3375291    4.3375291    4.3375291   -20240.263    2759.9735    3357.6929   -66838.457    8577.1452   -17962.347   -14129.346    81.606961 
    6900    2666.4257   -121.51201     2.412638   -119.09937    5073.5003    4.3250201    4.3250201    4.3250201    5073.5003    10257.387    25961.603    -20998.49   -8226.1548   -33494.017   -13513.654    80.902954 
    7000    2130.4929   -121.07418    1.9277148   -119.14646   -5351.1375    4.3519381    4.3519381    4.3519381   -5351.1375    6796.5519   -43569.109    20719.145    21865.739        20145    5923.3856    82.422947 
    7100    1916.9425   -120.86083    1.7344898   -119.12634   -35565.746    4.3618363    4.3618363    4.3618363   -35565.746   -63806.318     3222.651   -46113.571     34305.66   -4812.1313    1347.6852     82.98662 
    7200    1561.8982   -120.52003    1.4132383   -119.10679    15566.948    4.3598072    4.3598072    4.3598072    15566.948    51156.989    49890.645   -54346.789    21540.989   -39809.197     10524.28    82.870863 
    7300    2179.7163   -121.05766    1.9722531    -119.0854   -14231.848    4.3685904    4.3685904    4.3685904   -14231.848    13439.355   -35920.005   -20214.895    8801.4479    10708.828   -14012.571    83.372724 
    7400    1981.7377   -120.86012    1.7931179   -119.06701   -55841.142    4.3584375    4.3584375    4.3584375   -55841.142   -47682.668   -95426.068   -24414.691    30491.878    11314.196   -12154.846    82.792778 
    7500    1872.5284   -120.75413    1.6943031   -119.05983    44468.715    4.3212732    4.3212732    4.3212732    44468.715    34754.541    25836.102    72815.503    4796.7357   -8928.9992   -1050.9138    80.692873 
    7600    2499.5815   -121.37523    2.2616739   -119.11356    9079.0823    4.3327263    4.3327263    4.3327263    9079.0823    56037.372   -2699.2033   -26100.921   -3718.7998    2090.9573   -9650.4009     81.33618 
    7700    2139.6175   -121.06682    1.9359709   -119.13085   -18114.355    4.3594123    4.3594123    4.3594123   -18114.355    32152.478   -68756.053   -17739.491    3555.0915   -11888.175   -14248.624    82.848342 
    7800    1939.4677   -120.86994    1.7548711   -119.11507   -1766.1931    4.3710992    4.3710992    4.3710992   -1766.1931    52743.938   -23438.833   -34603.684    25250.591    -7364.989    6180.2211    83.516443 
    7900    2097.4618     -120.983    1.8978275   -119.08517   -5195.2435    4.3647013    4.3647013    4.3647013   -5195.2435   -4409.1328   -13760.498    2583.9005    3467.5508    8081.8005    36965.934    83.150255 
    8000    1874.9053   -120.76298    1.6964537   -119.06653    52735.538    4.3260442    4.3260442    4.3260442    52735.538    117712.97   -17737.836    58231.479   -13553.972    13708.413    15228.818    80.960441 
    8100    1771.5382   -120.72326     1.602925   -119.12034    19210.007    4.3275124    4.3275124    4.3275124    19210.007   -2802.5907    13501.354    46931.258    18201.652   -4603.1247   -7079.6607    81.042898 
    8200    1680.8227   -120.66136    1.5208437   -119.14052   -14173.688    4.3555436    4.3555436    4.3555436   -14173.688   -53183.182    41192.548   -30530.431    2610.3399   -40761.384    19764.989    82.627972 
    8300    2111.4162   -121.01307    1.9104538   -119.10262    21061.608     4.355807     4.355807     4.355807    21061.608    61292.435     47833.65   -45941.261   -26254.662   -6013.2048    5578.4748    82.642965 
    8400    2423.0323   -121.27269    2.1924106   -119.08028   -23044.047     4.354806     4.354806     4.354806   -23044.047   -29213.659   -9085.4975   -30832.986    49.393967    9808.9771   -19576.663    82.585999 
    8500     1436.134   -120.37978    1.2994442   -119.08034   -33946.379    4.3577603    4.3577603    4.3577603   -33946.379   -64629.751    28401.316   -65610.703    21832.005   -36820.681   -22122.248    82.754196 
    8600    2291.2798   -121.13369    2.0731982    -119.0605   -18793.615    4.3537281    4.3537281    4.3537281   -18793.615   -17399.024   -20378.642   -18603.179    569.81972   -30770.175   -8328.1835     82.52469 
    8700     1746.551   -120.66073    1.5803161   -119.08042    46642.211    4.3544131    4.3544131    4.3544131    46642.211    170814.27   -20430.511   -10457.124    32790.861   -4185.9747   -2350.6853    82.563652 
    8800    1300.0681   -120.28415    1.1763289   -119.10782    24201.868    4.3675039    4.3675039    4.3675039    24201.868    48354.193    63749.068   -39497.657    48940.501    -19059.83   -267.67183    83.310533 
    8900     1445.838   -120.40549    1.3082246   -119.09727    6650.3288    4.3893395    4.3893395    4.3893395    6650.3288   -480.11995    78183.377   -57752.271    32561.259   -10665.276    5640.1985    84.566335 
    9000    2149.4911    -120.9919    1.9449047   -119.04699   -29019.565    4.3835159    4.3835159    4.3835159   -29019.565   -24214.087   -50638.056   -12206.552    7840.9281    9319.7103   -15859.929    84.230187 
    9100     1669.759   -120.55573    1.5108331    -119.0449    3187.2409    4.3324824    4.3324824    4.3324824    3187.2409   -19807.326    28025.605    1343.4435    33850.571   -18889.972   -13725.672    81.322442 
    9200    1571.2337   -120.50097    1.4216853   -119.07928    34450.421    4.3112609    4.3112609    4.3112609    34450.421    50688.986      76170.4   -23508.123    26189.244   -22941.112   -31158.743     80.13328 
    9300    2122.2119   -121.06724    1.9202219   -119.14702   -12273.815    4.3542422    4.3542422    4.3542422   -12273.815   -24001.438    -9007.781   -3812.2251    5028.8588   -11676.663   -20158.517    82.553932 
    9400    2130.0588     -121.036    1.9273219   -119.10868   -29691.724    4.3801159    4.3801159    4.3801159   -29691.724   -3860.2926   -32075.988   -53138.892    25206.882    7769.7325    9767.9097    84.034345 
    9500    1262.1406    -120.2265    1.1420113   -119.08449    -18292.01    4.3673575    4.3673575    4.3673575    -18292.01   -34894.951    14825.427   -34806.506    5743.9977   -28905.985   -21644.387    83.302157 
    9600    1944.0848   -120.81995    1.7590488    -119.0609   -6250.9927    4.3441777    4.3441777    4.3441777   -6250.9927   -72646.069    33602.788    20290.303    5583.7888   -23645.014   -6999.5478    81.982802 
    9700    1851.3991   -120.75245    1.6751848   -119.07727    12928.497    4.3343954    4.3343954    4.3343954    12928.497    20989.013    4658.6416    13137.838   -4642.5931    17862.548    3181.2522    81.430215 
    9800    1636.6397   -120.58969     1.480866   -119.10883   -5101.4325    4.3301551    4.3301551    4.3301551   -5101.4325   -30861.805    34298.575   -18741.068     26665.52    6655.5659   -27891.967    81.191463 
    9900    1529.7116   -120.53926    1.3841152   -119.15514     36307.07    4.3535699    4.3535699    4.3535699     36307.07    30677.066    5453.3414    72790.803   -5040.1084    622.94333   -24283.145    82.515697 
   10000    1736.7582   -120.68146    1.5714554      -119.11   -7395.2905    4.3848322    4.3848322    4.3848322   -7395.2905    7052.4063   -38848.421    9610.1436   -1113.8423    9307.8707    6342.8181    84.306087 
   10100    1466.0843   -120.38829    1.3265439   -119.06175   -20895.836    4.3620558    4.3620558    4.3620558   -20895.836     1042.409   -30836.311   -32893.607    1903.2383    17341.648     -31116.8    82.999153 
   10200    1901.9828   -120.75979     1.720954   -119.03884     36113.72    4.3291008    4.3291008    4.3291008     36113.72    28767.745    38436.384    41137.032   -17167.085   -12887.543   -28747.159    81.132169 
   10300    2806.8189   -121.61231    2.5396687   -119.07264   -7165.6713     4.339922     4.339922     4.339922   -7165.6713   -17743.317   -8539.3638    4785.6667    473.60463      680.423    38857.021    81.742094 
   10400    1697.0073    -120.6328    1.5354878   -119.09731     2386.447    4.3460641    4.3460641    4.3460641     2386.447   -50125.805    48690.519     8594.627   -1341.9537    17415.507    643.81065    82.089649 
   10500    1712.4264   -120.65388    1.5494394   -119.10445    19722.487    4.3484453    4.3484453    4.3484453    19722.487   -21122.648    29432.788    50857.321   -9161.2378   -2098.2604   -33694.146    82.224648 
   10600    2004.8378   -120.91555    1.8140194   -119.10153    25314.012    4.3681188    4.3681188    4.3681188    25314.012   -50021.642    132556.52   -6592.8399   -7757.4649    -108.2988   -11765.059    83.345721 
   10700    1775.8859   -120.71096    1.6068589    -119.1041   -62803.343    4.3792059    4.3792059    4.3792059   -62803.343   -52559.671   -58399.426   -77450.932    7358.2567   -2938.6569   -3874.9908    83.981979 
   10800    1462.5529   -120.44417    1.3233486   -119.12082   -42628.045    4.3357996    4.3357996    4.3357996   -42628.045   -11201.433   -57854.773   -58827.928   -4838.0951   -11408.164   -32170.643    81.509381 
   10900     2447.184   -121.26682    2.2142635   -119.05256     73359.39    4.2849927    4.2849927    4.2849927     73359.39    83550.068    101707.69    34820.413    12034.154   -2811.1718     -7534.38     78.67745 
   11000    1847.8038   -120.85276    1.6719317   -119.18083   -15725.339    4.3321885    4.3321885    4.3321885   -15725.339   -22449.927   -8392.6812    -16333.41    23029.965   -4919.9346    11700.061    81.305894 
   11100    1184.6546   -120.17484    1.0719004   -119.10294   -73832.456    4.3875624    4.3875624    4.3875624   -73832.456   -28616.612   -101635.94   -91244.821    28227.768    10559.536     4052.271    84.463664 
   11200    2377.2718   -121.20288    2.1510055   -119.05187    -12440.25     4.350254     4.350254     4.350254    -12440.25   -12659.876    2574.5522   -27235.427   -22569.341   -9224.3902   -933.33687    82.327297 
   11300    1906.7331   -120.76156    1.7252522   -119.03631    20157.305    4.3148974    4.3148974    4.3148974    20157.305    6310.0584    28789.714    25372.142   -102.83183   -9849.6442   -738.01676    80.336227 
   11400    1439.1526   -120.41519    1.3021755   -119.11302   -30383.753    4.3360769    4.3360769    4.3360769   -30383.753    20153.903    -84313.32   -26991.841    29737.103    10274.523     10076.64    81.525024 
   11500    2361.4475   -121.24406    2.1366873   -119.10738    2803.1932    4.3296705    4.3296705    4.3296705    2803.1932    24033.558    20024.972    -35648.95    3311.9197    8394.5027     6386.992    81.164207 
   11600    1966.9312   -120.90834    1.7797207   -119.12862    17676.681    4.3238249    4.3238249    4.3238249    17676.681   -16410.964    31283.753    38157.254    9092.1871   -35684.729   -14078.978    80.835904 
   11700    1464.1613   -120.46821     1.324804   -119.14341    5727.7686    4.3442556    4.3442556    4.3442556    5727.7686   -5826.4758    12372.231    10637.551   -3172.5272   -11924.983    486.74046    81.987208 
   11800    2551.8655   -121.39789    2.3089815   -119.08891    17521.373    4.3447846    4.3447846    4.3447846    17521.373    65538.499    24870.981   -37845.361   -3824.3453   -3260.9258    10194.376    82.017165 
   11900    1774.4463    -120.7113    1.6055563   -119.10574   -24150.299    4.3415344    4.3415344    4.3415344   -24150.299   -47686.348    75506.613   -100271.16    16723.992   -21279.302   -11295.541    81.833241 
   12000    1558.4182   -120.51592    1.4100895   -119.10583   -8636.1446    4.3261701    4.3261701    4.3261701   -8636.1446    12556.341    9454.5859   -47919.361    3581.7124   -12025.226    -19571.63    80.967509 
   12100    2177.4504   -121.08119    1.9702029   -119.11098    23230.368    4.3162282    4.3162282    4.3162282    23230.368    113621.69   -44204.972     274.3824   -20665.177    5497.0864    14783.447     80.41058 
   12200    1650.0123    -120.6411    1.4929658   -119.14813   -16071.274    4.3347613    4.3347613    4.3347613   -16071.274    65878.994   -22276.853   -91815.965   -6062.8014    803.74556    9928.1674    81.450839 
   12300    1787.4283    -120.7548    1.6173027    -119.1375   -22546.998    4.3383826    4.3383826    4.3383826   -22546.998    9487.8669   -10751.451    -66377.41   -4517.2618   -2413.2897   -14521.126    81.655146 
   12400     2454.841   -121.34109    2.2211917    -119.1199   -915.32716    4.3388886    4.3388886    4.3388886   -915.32716      44969.8   -23712.232   -24003.549    5860.5297    8450.1946    11337.607    81.683718 
   12500    1707.8266   -120.67028    1.5452774   -119.12501    -11128.65    4.3524008    4.3524008    4.3524008    -11128.65   -1315.8088     29321.47    -61391.61   -27360.563   -3284.0173    14441.985    82.449236 
   12600     1253.414   -120.24135    1.1341154   -119.10724   -11824.564     4.344343     4.344343     4.344343   -11824.564    -21990.21    73249.028    -86732.51    514.68427   -52927.837    17571.763    81.992157 
   12700    2188.4121   -121.06402    1.9801213    -119.0839    15378.038    4.3285669    4.3285669    4.3285669    15378.038    50000.127    10978.721   -14844.735     5171.192   -7669.3596   -6807.4599    81.102158 
   12800     2323.192   -121.20501     2.102073   -119.10294   -10095.852    4.3257715    4.3257715    4.3257715   -10095.852    30536.535   -29350.447   -31473.644     9635.868    3879.6956    21785.361    80.945132 
   12900     1773.321   -120.72532    1.6045381   -119.12078    4590.1117    4.3199118    4.3199118    4.3199118    4590.1117    82324.303    11366.351   -79920.319    16157.501   -44373.652     43071.56    80.616629 
   13000    2111.7205     -121.053    1.9107291   -119.14227   -11588.909    4.3261676    4.3261676    4.3261676   -11588.909    244.54423    28335.552   -63346.824    -12771.86   -18368.061   -2245.4573     80.96737 
   13100    2158.6804   -121.09649    1.9532194   -119.14327   -18258.361    4.3417649    4.3417649    4.3417649   -18258.361    29220.992   -52962.528   -31033.546    31057.878    31231.741    -5902.386    81.846271 
   13200    1881.4994   -120.83421    1.7024202   -119.13179   -10818.456    4.3391037    4.3391037    4.3391037   -10818.456    44015.034   -24905.678   -51564.724    16200.653   -19254.722    15819.868    81.695865 
   13300    2027.3311    -120.9527    1.8343718   -119.11833    8.2662254    4.3355047    4.3355047    4.3355047    8.2662254    7203.5895    14428.639    -21607.43   -525.80706   -49402.268     16484.62    81.492752 
   13400    2520.7365   -121.39349    2.2808154   -119.11268   -11962.657    4.3422286    4.3422286    4.3422286   -11962.657    -27552.35   -8914.5273    578.90639       5639.2    18684.743   -11184.674    81.872498 
   13500    2339.8762   -121.22859    2.1171691   -119.11142   -20465.031    4.3346572    4.3346572    4.3346572   -20465.031   -19763.694   -6369.1071   -35262.292    31613.942   -8259.1925   -11995.344    81.444972 
   13600    1786.5969   -120.73415    1.6165504    -119.1176     1302.849    4.3211839    4.3211839    4.3211839     1302.849   -8441.6847   -11550.077    23900.309    21260.821   -55320.784    11306.327     80.68787 
   13700    2211.0943   -121.14133    2.0006446   -119.14068   -3334.1411    4.3395869    4.3395869    4.3395869   -3334.1411   -12395.866   -16591.424    18984.867     2751.127   -19542.024      6736.31    81.723162 
   13800    2876.1923   -121.70729    2.6024392   -119.10485   -7758.0284    4.3523284    4.3523284    4.3523284   -7758.0284    8357.7504    -41466.69    9834.8543    8320.6586    2100.7975    1829.2193    82.445122 
   13900    1838.4607   -120.76557    1.6634779   -119.10209    40858.102    4.3466831    4.3466831    4.3466831    40858.102    9807.8073    31084.421    81682.079    10209.182   -38602.683    39.012454    82.124727 
   14000    2501.1439   -121.34567    2.2630876   -119.08258   -21124.958    4.3540259    4.3540259    4.3540259   -21124.958   -17160.759    -20090.56   -26123.554   -14019.759    -31648.17    18590.011    82.541629 
   14100    2760.5315   -121.56052    2.4977869   -119.06273    144.94156    4.3442232    4.3442232    4.3442232    144.94156    34922.251   -81486.822    46999.395    -15903.45    7611.6027    5638.2566    81.985375 
   14200    1914.7786   -120.81872    1.7325319   -119.08619   -3971.5917    4.3421133    4.3421133    4.3421133   -3971.5917   -19278.035    10625.682   -3262.4226   -2628.0893   -39690.955   -7560.9906    81.865977 
   14300      1871.02    -120.7865    1.6929382   -119.09356   -20160.928    4.3533154    4.3533154    4.3533154   -20160.928   -60661.963    26910.717   -26731.537    13496.986   -58895.143    3142.8938    82.501224 
   14400    2609.2979   -121.43641    2.3609475   -119.07547   -9578.5742    4.3453612    4.3453612    4.3453612   -9578.5742    23194.385   -17006.863   -34923.245   -6766.0227    28127.853    -22473.44    82.049825 
   14500    1914.7323   -120.82449      1.73249     -119.092    9001.7842    4.3357672    4.3357672    4.3357672    9001.7842    29052.935   -20950.029    18902.446    2613.7459   -21457.249   -6048.8546    81.507556 
   14600    2400.2534    -121.2646    2.1717997    -119.0928   -34356.538    4.3423861    4.3423861    4.3423861   -34356.538   -50459.658    -29354.03   -23255.925     27534.26   -58324.724    2354.9975     81.88141 
   14700    2262.0384   -121.13936    2.0467399   -119.09262   -13211.285    4.3435537    4.3435537    4.3435537   -13211.285   -10330.312   -60340.263    31036.719    17814.401    223.24872   -10649.414    81.947475 
   14800    2062.1713   -120.96597    1.8658959   -119.10007    3375.1368    4.3416016    4.3416016    4.3416016    3375.1368    22124.508   -10090.494   -1908.6035    2813.3791   -5840.1305   -22367.124    81.837041 
   14900    2230.4342   -121.11903    2.0181438   -119.10089   -19758.346     4.353683     4.353683     4.353683   -19758.346   -54312.867    41665.739   -46627.911    2182.0492   -26068.616   -24839.114    82.522126 
   15000    2543.6484   -121.38022    2.3015465   -119.07868   -30591.212    4.3636304    4.3636304    4.3636304   -30591.212   -46758.069   -10907.835   -34107.732   -2805.7869   -16034.847     4138.892    83.089067 
   15100     1147.113   -120.11028    1.0379319   -119.07235    6825.0217    4.3606065    4.3606065    4.3606065    6825.0217   -21320.467    49435.161   -7639.6292   -18977.703    12729.412    23562.215    82.916449 
   15200    1422.6251   -120.36628    1.2872211   -119.07906    23867.353    4.3465498    4.3465498    4.3465498    23867.353   -34578.408    87181.937    18998.529    -24482.02   -11251.659   -8783.6776     82.11717 
   15300    2025.5008   -120.93036    1.8327157   -119.09764    2318.3776    4.3432483    4.3432483    4.3432483    2318.3776   -44422.062    34860.249    16516.946    1259.0181   -21029.801   -1297.8592    81.930191 
   15400    1837.7174   -120.77769    1.6628053   -119.11488   -11877.084    4.3575087    4.3575087    4.3575087   -11877.084   -27952.587   -13527.783    5849.1188   -2525.5693    30185.976    6981.0428    82.739863 
   15500    1435.7092   -120.40721    1.2990598   -119.10815    -39191.06    4.3605087    4.3605087    4.3605087    -39191.06   -11224.111   -46769.201   -59579.869   -4885.4854    6455.4249   -20081.616    82.910872 
   15600    1986.6657   -120.88809    1.7975768   -119.09051    3251.3429    4.3194705    4.3194705    4.3194705    3251.3429   -4285.7621   -4499.5699    18539.361   -15046.275   -21959.198   -15428.273    80.591925 
   15700    2202.1572   -121.08092    1.9925581   -119.08837    28996.746    4.2942274    4.2942274    4.2942274    28996.746    8311.1619    93023.953   -14344.877    3736.2817    31045.015    8373.7602    79.187221 
   15800    1355.2008   -120.39659    1.2262142   -119.17038   -9399.7502    4.3351267    4.3351267    4.3351267   -9399.7502   -38649.245    17573.015   -7123.0212    6068.6168     27689.29    7403.8902    81.471441 
   15900     2108.998     -121.043    1.9082657   -119.13473   -40352.431    4.3528149    4.3528149    4.3528149   -40352.431   -18324.788   -45935.814   -56796.692   -11863.797   -11566.552   -26905.531    82.472773 
   16000    1286.4891   -120.28296    1.1640424   -119.11891    48554.942     4.338008     4.338008     4.338008    48554.942    1238.2759    53047.414    91379.135   -9650.8756    20602.593   -14803.773    81.633995 
   16100     1908.897   -120.84159    1.7272101   -119.11438   -2876.5515    4.3407156    4.3407156    4.3407156   -2876.5515   -1625.8014    25441.524   -32445.377   -13680.274    23696.811    21548.795    81.786944 
   16200    1692.8329   -120.63999    1.5317108   -119.10828    37838.073    4.3300943    4.3300943    4.3300943    37838.073    54568.333   -2841.5023    61787.389   -9997.5465   -20689.763   -1812.2966    81.188042 
   16300    1578.1587   -120.55076    1.4279512   -119.12281    24240.583    4.3284428    4.3284428    4.3284428    24240.583    97414.405   -9945.6166   -14747.039   -19259.998   -13716.326    -30873.44    81.095183 
   16400    1832.0101   -120.78085    1.6576412   -119.12321   -11044.172    4.3461762    4.3461762    4.3461762   -11044.172    9813.4999    7735.5341    -50681.55   -10816.102     20097.58   -6444.7729    82.096001 
   16500    2070.8446   -120.97731    1.8737437   -119.10356    2843.2356    4.3421626    4.3421626    4.3421626    2843.2356   -2142.8106   -14488.184    25160.701     9870.432    22486.556    6588.8155    81.868769 
   16600    1936.6703   -120.86292      1.75234   -119.11058   -713.80212    4.3191548    4.3191548    4.3191548   -713.80212    26330.949   -36821.856    8349.5003    18635.553   -22665.521   -2070.7991    80.574256 
   16700    2155.7087   -121.07794    1.9505305    -119.1274    9471.8988    4.3083237    4.3083237    4.3083237    9471.8988    50557.056   -9975.9092   -12165.451   -7321.3124     3851.953    -23268.48    79.969612 
   16800    1864.6292   -120.84171    1.6871557   -119.15455     43751.31    4.3245074    4.3245074    4.3245074     43751.31    5396.1422    6722.5313    119135.26    8219.6526    13996.549   -6102.3805    80.874187 
   16900    2040.0106   -120.98673    1.8458444   -119.14089    -24243.86    4.3474058    4.3474058    4.3474058    -24243.86   -16412.393    -81709.95    25390.763     47676.21    1138.2921    2438.8799    82.165698 
   17000    1788.0317   -120.73801    1.6178487   -119.12016   -3602.0703    4.3373618    4.3373618    4.3373618   -3602.0703    26440.379   -57908.599    20662.009   -2644.6796   -15732.788   -22680.101    81.597516 
   17100    2018.6646   -120.93646    1.8265302   -119.10993    5137.0862    4.3179152    4.3179152    4.3179152    5137.0862    26584.874   -44977.425    33803.809   -11456.042   -23475.312   -189.52429    80.504902 
   17200     2250.697   -121.15758    2.0364779   -119.12111   -4251.4416    4.3127092    4.3127092    4.3127092   -4251.4416    -21822.53   -46180.562    55248.767    44243.473    14273.188    2918.0103    80.214066 
   17300    1898.3767   -120.85898    1.7176912   -119.14129    8607.2354    4.3205035    4.3205035    4.3205035    8607.2354   -32484.523    -9424.763    67730.992    3092.6166    11140.642   -33428.141     80.64976 
   17400    1504.3653   -120.51891    1.3611813   -119.15773   -32860.388    4.3322944    4.3322944    4.3322944   -32860.388    13793.182    -99711.52   -12662.827   -26029.008   -5150.8114     1460.719    81.311859 
   17500    1760.5723   -120.74322    1.5930028   -119.15022   -4509.5314    4.3265024    4.3265024    4.3265024   -4509.5314    51298.172   -76964.869    12138.103    10348.324   -8051.8934    41901.018    80.986166 
   17600    2762.0754   -121.63985    2.4991839   -119.14066    5085.3974    4.3283749    4.3283749    4.3283749    5085.3974   -16126.586   -51281.372    82664.151    7788.4407    6249.6215    12242.967    81.091364 
   17700     2408.045   -121.31847    2.1788498   -119.13962   -13220.351    4.3252746    4.3252746    4.3252746   -13220.351   -16131.555    -48575.24    25045.742   -16726.948    6767.6075   -6081.7032    80.917238 
   17800    1462.2433   -120.45785    1.3230685   -119.13478    20915.997    4.3149867    4.3149867    4.3149867    20915.997    57264.096   -59757.044    65240.939    1022.4662    6880.0142    33393.073    80.341216 
   17900    2033.2358   -120.99403    1.8397144   -119.15431   -3435.1303    4.3352408    4.3352408    4.3352408   -3435.1303    51470.722   -82772.278    20996.165    1766.6331   -15260.763    14049.931    81.477874 
   18000    2725.0307   -121.58954    2.4656651   -119.12387   -5712.1903    4.3333943    4.3333943    4.3333943   -5712.1903   -31458.126   -43730.207    58051.762    3785.4051    6735.3537    5620.8301    81.373802 
   18100    2365.0704   -121.25457    2.1399654   -119.11461    19150.437    4.3044626    4.3044626    4.3044626    19150.437    24383.049   -21626.462    54694.723   -4500.7378    9363.5609    18291.078    79.754799 
   18200     1463.035   -120.47399    1.3237848   -119.15021   -9926.7804    4.3129732    4.3129732    4.3129732   -9926.7804    77123.853   -91579.179   -15325.015   -3701.2223   -12630.312    20745.859    80.228796 
   18300    2218.9232   -121.14604    2.0077283   -119.13831   -27205.914     4.326155     4.326155     4.326155   -27205.914    20754.822   -83999.757   -18372.806    18073.167    4749.7882   -3908.8105    80.966659 
   18400    2159.7882   -121.08816    1.9542218   -119.13394    23461.482    4.3274549    4.3274549    4.3274549    23461.482   -18695.198   -9410.8944     98490.54    10552.748   -23165.882    -13204.13    81.039667 
   18500    2182.0587   -121.11033    1.9743725   -119.13596   -24887.364    4.3289523    4.3289523    4.3289523   -24887.364   -17471.884   -26240.022   -30950.186   -12374.497   -33612.453   -7684.5818    81.123822 
   18600    1679.9466   -120.66017     1.520051   -119.14012   -11462.395    4.3127799    4.3127799    4.3127799   -11462.395    52016.369   -63041.365   -23362.188    8114.1791     10229.34   -3774.9731    80.218008 
   18700    2494.0578   -121.39181    2.2566759   -119.13513    22403.584    4.3041483    4.3041483    4.3041483    22403.584    41371.332   -32639.632    58479.051    16109.492    13773.232   -2138.5594    79.737328 
   18800    2298.6233   -121.23191    2.0798427   -119.15207   -1319.5317    4.3303859    4.3303859    4.3303859   -1319.5317   -24278.247    -19767.79    40087.442   -18498.411    10872.157   -3491.6082    81.204444 
   18900    1869.2121   -120.83023    1.6913024   -119.13893   -33335.827     4.340607     4.340607     4.340607   -33335.827    -51669.82   -55704.796    7367.1356   -24783.356    2478.3692    9398.7107    81.780808 
   19000    1854.9605   -120.80748    1.6784072   -119.12907    184.41617    4.3193808    4.3193808    4.3193808    184.41617    29940.643   -62403.493    33016.098    701.43876   -12509.104   -6871.9025    80.586907 
   19100    2442.7624   -121.33834    2.2102627   -119.12807    -16380.93    4.3080655    4.3080655    4.3080655    -16380.93   -12324.988   -53852.771    17034.969    22827.754    13711.705   -23636.785    79.955233 
   19200    2403.8287    -121.3288    2.1750347   -119.15377   -8457.4585    4.3167251    4.3167251    4.3167251   -8457.4585   -27291.429   -13400.256    15319.309   -168.82431    16050.223   -1315.3197    80.438352 
   19300    2362.1221   -121.28581    2.1372977   -119.14851       -17428    4.3318855    4.3318855    4.3318855       -17428   -7053.1846   -45719.961    489.14578   -18341.014   -7386.5888    14895.756    81.288835 
   19400    2087.3812   -121.01919    1.8887064   -119.13049   -3065.4543    4.3311991    4.3311991    4.3311991   -3065.4543    -4157.272   -47281.275    42242.184    7045.3324    1960.8202   -6811.4341    81.250199 
   19500    1451.0131   -120.45173    1.3129072   -119.13882    6145.4035    4.3277226    4.3277226    4.3277226    6145.4035    27846.386    -13065.87     3655.695    20586.416    32650.889   -30295.986    81.054709 
   19600    2168.4929   -121.08764     1.962098   -119.12554   -17730.535     4.328129     4.328129     4.328129   -17730.535   -29529.592   -13924.009   -9738.0049   -946.22589    32624.201    -2195.986    81.077546 
   19700    2431.5176   -121.30595    2.2000882   -119.10587    21708.819    4.3222921    4.3222921    4.3222921    21708.819    9985.3084   -22965.066    78106.213   -21636.542   -32936.089    10084.204    80.749962 
   19800    1877.5323   -120.81691    1.6988307   -119.11808   -17587.127     4.339439     4.339439     4.339439   -17587.127    -15362.61   -28551.196   -8847.5758    6465.4359    5804.0711   -7748.7735    81.714811 
   19900    2048.7217   -120.95014    1.8537264   -119.09641   -42101.695    4.3500296    4.3500296    4.3500296   -42101.695   -89932.069   -20377.109   -15995.908   -5354.1257    25582.989     1144.861    82.314557 
   20000    2469.0141   -121.31837    2.2340158   -119.08436    11730.154    4.3252655    4.3252655    4.3252655    11730.154   -16612.112   -1929.1719    53731.747   -19689.963   -1235.6507   -8169.2481    80.916727 
   20100    2690.7868   -121.52789    2.4346804   -119.09321    27202.897    4.3157172    4.3157172    4.3157172    27202.897    45739.505   -14664.095    50533.281    17297.469   -8738.6861   -16062.502    80.382023 
   20200    1449.4935   -120.45421    1.3115322   -119.14268    2453.6921    4.3322112    4.3322112    4.3322112    2453.6921     57098.57   -23279.571   -26457.923    34888.721    11414.271    -6115.103    81.307176 
   20300    1717.5515    -120.7046    1.5540767   -119.15052   -34896.248     4.337197     4.337197     4.337197   -34896.248   -58151.298   -46478.625   -58.820693    -20744.19    5428.8744    12696.353     81.58822 
   20400    2391.0471   -121.29946    2.1634696   -119.13599    15691.527    4.3178562    4.3178562    4.3178562    15691.527    28700.054   -41027.691    59402.217   -21618.002   -27037.573    10228.873      80.5016 
   20500    2634.9105   -121.51666    2.3841224   -119.13254    29574.601    4.3078849    4.3078849    4.3078849    29574.601    3924.0211    12629.747    72170.036    30678.269    14528.204   -695.31425    79.945179 
   20600    2476.9286   -121.39864     2.241177   -119.15747   -14590.597    4.3208239    4.3208239    4.3208239   -14590.597   -30116.176   -39054.345     25398.73    10869.607    23159.145    13598.086    80.667707 
   20700     1692.099   -120.69443    1.5310467   -119.16338   -14770.938    4.3245664    4.3245664    4.3245664   -14770.938   -4059.3647   -70864.969     30611.52   -44498.815   -560.32059    8920.1494    80.877501 
   20800    1952.7203   -120.92674    1.7668624   -119.15988   -10003.265    4.3289556    4.3289556    4.3289556   -10003.265    78454.875   -83439.203   -25025.468   -13484.697    10036.939    4804.4618    81.124006 
   20900    2733.9465   -121.59982    2.4737323   -119.12609    3864.9068    4.3382709    4.3382709    4.3382709    3864.9068    31546.749   -20319.451    367.42267    19518.975   -5035.4719   -17385.204    81.648837 
   21000    2061.8783   -120.97982    1.8656309   -119.11419   -15630.522    4.3482363    4.3482363    4.3482363   -15630.522   -13712.562   -47231.038    14052.033   -27133.166     17061.24    2170.0213    82.212795 
   21100    1526.8891   -120.48416    1.3815613    -119.1026   -27789.968    4.3422561    4.3422561    4.3422561   -27789.968   -16072.249   -49006.015   -18291.639    -27596.42    17020.993     11611.76    81.874054 
   21200    1855.2433   -120.79191    1.6786632   -119.11325      3652.71    4.3093203    4.3093203    4.3093203      3652.71    62286.999   -33308.232   -18020.637    25945.803   -14392.038   -14266.223    80.025121 
   21300    2373.6674   -121.26586    2.1477441   -119.11812    20936.387    4.2835464    4.2835464    4.2835464    20936.387    10710.852   -17230.593    69328.902   -6198.3757    5979.8378   -4924.5992    78.597807 
   21400    2135.1966   -121.10137    1.9319708    -119.1694    25913.905    4.3103067    4.3103067    4.3103067    25913.905    15954.476   -5883.0021    67670.241   -30282.189   -6030.3723   -4630.8481    80.080084 
   21500    1841.4982     -120.826    1.6662263   -119.15977   -38362.059    4.3446149    4.3446149    4.3446149   -38362.059   -8689.1466   -101629.95   -4767.0824   -2992.7288    -12897.78    14182.345    82.007557 
   21600    1147.7908    -120.1768    1.0385452   -119.13825    -26775.38    4.3364361    4.3364361    4.3364361    -26775.38    7905.5685   -114822.48    26590.774    36312.936    6625.4953    9626.1082    81.545286 
   21700     2177.854   -121.08395     1.970568   -119.11338    6297.3453     4.306803     4.306803     4.306803    6297.3453   -3632.8921   -31364.084    53889.012    36731.371   -17977.212   -5927.0389    79.884959 
   21800    2607.3819   -121.48035     2.359214   -119.12114    40827.134    4.2995979    4.2995979    4.2995979    40827.134    75931.155    8547.0157    38003.232   -10388.864   -7073.3476    5696.5222    79.484695 
   21900    1592.8194   -120.60581    1.4412164   -119.16459   -8233.2533    4.3218557    4.3218557    4.3218557   -8233.2533     53355.02   -76523.681   -1531.0988   -4608.0346    9038.0045    17524.129    80.725508 
   22000    1848.3201   -120.81829    1.6723989   -119.14589   -18165.118    4.3440081    4.3440081    4.3440081   -18165.118    7391.5507    -64048.24    2161.3345    31317.486   -16405.082    4815.2572      81.9732 
   22100    2292.7082   -121.18308    2.0744905   -119.10859   -41360.786    4.3493315    4.3493315    4.3493315   -41360.786   -68291.316   -64253.199    8462.1569   -32493.271   -12581.678   -9268.5618    82.274931 
   22200    1387.9369   -120.35458    1.2558344   -119.09874   -36522.657    4.3251847    4.3251847    4.3251847   -36522.657    -43648.72   -106625.62     40706.37    -64667.95    14590.359    1905.4592    80.912194 
   22300    2182.1358   -121.06512    1.9744423   -119.09068    16510.105    4.2935911    4.2935911    4.2935911    16510.105    58722.432   -14268.251    5076.1351    29531.596    18601.567    21804.253    79.152028 
   22400     2308.269   -121.20961    2.0885703   -119.12104    8662.6281    4.2980839    4.2980839    4.2980839    8662.6281   -932.42027   -29461.807    56382.112   -37014.403   -15631.477     2867.837    79.400764 
   22500    1397.8267   -120.41329     1.264783   -119.14851   -20043.431    4.3240854    4.3240854    4.3240854   -20043.431   -34079.619   -95959.802    69909.127   -86167.543   -8592.9299   -1324.9083    80.850512 
   22600      2258.68   -121.16954    2.0437012   -119.12584    -4430.973    4.3364887    4.3364887    4.3364887    -4430.973   -15442.938   -12281.487    14431.505    -547.1951    2790.7548   -8900.0334    81.548251 
   22700    1959.2741   -120.88592    1.7727924   -119.11313   -11303.533    4.3413867    4.3413867    4.3413867   -11303.533   -13923.244   -26917.728    6930.3731   -14892.436   -8423.3642   -11299.336    81.824886 
   22800    1829.8852   -120.75563    1.6557186   -119.09991   -10059.467    4.3256567    4.3256567    4.3256567   -10059.467   -60611.748   -17910.645     48343.99   -76566.922    8387.1659    12342.113    80.938684 
   22900    2306.8317   -121.17971    2.0872698   -119.09244     17412.15    4.3194836    4.3194836    4.3194836     17412.15     324.0174    36414.424    15498.007    -9148.739   -13278.319    16077.187    80.592658 
   23000    2059.1312   -120.97234    1.8631451   -119.10919   -18472.654    4.3411658    4.3411658    4.3411658   -18472.654    8360.9814   -53598.016   -10180.928   -7380.1308   -3254.1939   -2147.5667    81.812398 
   23100    1667.7264   -120.61814    1.5089939   -119.10915   -32860.189    4.3321855    4.3321855    4.3321855   -32860.189    -59538.79   -69573.755    30531.978   -82925.718   -7301.8325   -493.35583    81.305729 
   23200    2247.2089    -121.1158    2.0333218   -119.08247     28975.99    4.3047627    4.3047627    4.3047627     28975.99    63129.742    -5114.241    28912.468   -35366.548   -15458.529   -13233.358     79.77148 
   23300    1682.7544   -120.65221    1.5225915   -119.12962   -696.13716    4.3232721    4.3232721    4.3232721   -696.13716     48627.52   -25784.547   -24931.384    19018.003     3378.496   -3398.4707    80.804905 
   23400    1368.1604   -120.36163    1.2379403   -119.12369   -30181.336    4.3362079    4.3362079    4.3362079   -30181.336   -21039.589   -61705.886   -7798.5329    -12548.74    2398.9934    1049.8084     81.53241 
   23500    2708.0128   -121.53878    2.4502669   -119.08851    9766.6214    4.3197441    4.3197441    4.3197441    9766.6214   -3412.2275     4470.545    28241.547   -17783.397     3147.468   -2095.6327     80.60724 
   23600    1319.9009   -120.30889    1.1942741   -119.11461    3137.8603    4.3310534    4.3310534    4.3310534    3137.8603    40096.476    -48029.81    17346.915    13309.536    24356.807    4591.4927    81.242002 
   23700     1258.754    -120.2434     1.138947   -119.10445   -30723.438    4.3386046    4.3386046    4.3386046   -30723.438    59831.871   -99141.529   -52860.656    26679.227    5802.3356    21322.047    81.667679 
   23800     2641.694   -121.46508    2.3902602   -119.07482    21651.561    4.3150034    4.3150034    4.3150034    21651.561    36792.805    -4006.703    32168.579    1537.3296    10025.236    4326.2919    80.342144 
   23900    2000.6554   -120.92168    1.8102351   -119.11145    28753.749    4.3139456    4.3139456    4.3139456    28753.749     35040.48   -26996.758    78217.524   -9882.6558    26831.291   -17875.598    80.283071 
   24000    896.44898    -119.9597   0.81112588   -119.14857    844.71348    4.3386002    4.3386002    4.3386002    844.71348    109606.99   -112340.14    5267.2902    20567.962    22680.448    4843.4521     81.66743 
   24100    1707.0193   -120.64912     1.544547   -119.10458    9779.5694    4.3509408    4.3509408    4.3509408    9779.5694    31136.737   -73703.722    71905.693    3215.2501    14698.661    1675.7644    82.366292 
   24200    2249.2887   -121.10983    2.0352037   -119.07462   -22518.266    4.3510362    4.3510362    4.3510362   -22518.266   -50957.593   -47771.506    31174.301   -29441.059    1681.7769   -3607.7137    82.371713 
   24300    1662.4255   -120.58399    1.5041975    -119.0798   -12051.053    4.3340096    4.3340096    4.3340096   -12051.053     25578.69   -65381.532    3649.6813    2077.1598    4763.1979    18692.669    81.408472 
   24400    2013.8576   -120.90862    1.8221806   -119.08644    23379.303    4.3099703    4.3099703    4.3099703    23379.303    102650.61   -21687.821   -10824.874    1283.2545    24310.576    9258.4161    80.061336 
   24500    2490.5031   -121.36783    2.2534595   -119.11437     9473.928    4.3122797    4.3122797    4.3122797     9473.928     3035.835    122.98081    25262.968   -41396.506   -10205.426   -6672.7897    80.190103 
   24600    1166.9334   -120.20772    1.0558659   -119.15185    9405.2482    4.3332951    4.3332951    4.3332951    9405.2482    98676.585   -30459.254   -40001.587   -19263.576   -2180.4125    21260.929    81.368218 
   24700    1962.0662    -120.9144    1.7753188   -119.13908   -23464.447    4.3348027    4.3348027    4.3348027   -23464.447   -5640.7625   -24955.402   -39797.175    12581.126   -21738.263    17699.926     81.45317 
   24800    1852.9263   -120.79859    1.6765667   -119.12203    38608.715    4.3215269    4.3215269    4.3215269    38608.715    37056.867    6535.7976    72233.481    746.71039    7576.3597   -18781.724    80.707082 
   24900    1838.1123   -120.79191    1.6631626   -119.12874   -19446.074    4.3241969    4.3241969    4.3241969   -19446.074    6346.9881   -39778.774   -24906.436   -18679.463     31575.03     31952.94    80.856769 
   25000    1536.9627   -120.53178    1.3906762    -119.1411   -28583.967    4.3230475    4.3230475    4.3230475   -28583.967    21410.628   -45235.098   -61927.432   -7964.7971    22039.017    52408.357    80.792309 
   25100    2373.4726   -121.28548    2.1475679   -119.13791     3221.873    4.3362511    4.3362511    4.3362511     3221.873     23712.27   -22519.061    8472.4105    4428.9608    -15066.31   -23953.351     81.53485 
   25200    1143.2885   -120.16069    1.0344715   -119.12622   -70400.171    4.3689049    4.3689049    4.3689049   -70400.171   -13806.095   -117543.13   -79851.285    15308.427   -2044.0601    36068.887     83.39073 
   25300    1158.0173   -120.16523    1.0477984   -119.11743    -41032.42    4.3353982    4.3353982    4.3353982    -41032.42    29060.072   -85196.884   -66960.447   -7475.4487    22696.733    48098.043    81.486749 
   25400    2079.4904   -120.94807    1.8815666   -119.06651     45217.28    4.2997876    4.2997876    4.2997876     45217.28    78890.094    50072.048    6689.6969    -15294.12     9894.448    -13063.91    79.495217 
   25500    1723.8584   -120.67736    1.5597833   -119.11757    10220.499    4.3239651    4.3239651    4.3239651    10220.499    69284.468    12942.966   -51565.937   -5629.0331   -30073.917    22071.489    80.843769 
   25600    1835.4308   -120.78853    1.6607364   -119.12779   -12717.659    4.3397598    4.3397598    4.3397598   -12717.659    8510.7128   -24906.214   -21757.477    13236.793    10150.391    24242.882    81.732933 
   25700     1462.293   -120.45625    1.3231134   -119.13314   -5028.8922    4.3473981    4.3473981    4.3473981   -5028.8922   -64907.671    78224.738   -28403.743   -5426.0675    47514.401   -6088.0494    82.165259 
   25800    1853.9294   -120.78022    1.6774743   -119.10275   -17372.132    4.3442101    4.3442101    4.3442101   -17372.132   -9017.4345    4655.1776   -47754.139   -27774.462    17914.587    979.36215    81.984635 
   25900    2449.6814   -121.30645    2.2165232   -119.08993   -14429.672    4.3112261    4.3112261    4.3112261   -14429.672    7956.2088    -22167.87   -29077.353    13092.177   -6762.2393     15441.37    80.131339 
   26000     1337.578    -120.3319    1.2102687   -119.12163    47571.044    4.2965344    4.2965344    4.2965344    47571.044    65589.097    77420.077   -296.04352    39776.961    30567.437    3104.1354    79.314918 
   26100    1864.3235    -120.8555     1.686879   -119.16862    1491.1533     4.329414     4.329414     4.329414    1491.1533     30256.37     18253.87    -44036.78    9445.8296    35934.122    1930.2747    81.149782 
   26200    2374.4125   -121.27175    2.1484183   -119.12333   -22890.161    4.3556897    4.3556897    4.3556897   -22890.161    40705.356   -32791.678    -76584.16   -19707.498   -142.56654    16993.354     82.63629 
   26300    2040.6771   -120.95913    1.8464475   -119.11268   -14999.652     4.330225     4.330225     4.330225   -14999.652   -3541.2734   -25215.304   -16242.377    49702.265   -8284.3873    13144.946    81.195393 
   26400    1426.2773   -120.40078    1.2905257   -119.11026    21000.567    4.3061714    4.3061714    4.3061714    21000.567     24314.42    32632.625    6054.6568    77307.869    29957.248   -7442.5018    79.849817 
   26500    2158.4236   -121.09497     1.952987   -119.14198    11212.892    4.3178129    4.3178129    4.3178129    11212.892    61259.115    24752.949   -52373.387   -15992.009    9493.5048    11268.328    80.499179 
   26600    2231.5481     -121.161    2.0191516   -119.14185    2188.9073    4.3338968    4.3338968    4.3338968    2188.9073    61659.801   -25205.855   -29887.224    8303.9414   -18305.626    3615.4596    81.402116 
   26700    1775.4737   -120.74619    1.6064859   -119.13971   -21902.278    4.3369292    4.3369292    4.3369292   -21902.278   -42765.064   -44468.414    21526.644    73103.392   -4250.9443   -17777.537    81.573106 
   26800    1812.6074   -120.75917    1.6400853   -119.11908    23888.996    4.3180817    4.3180817    4.3180817    23888.996    695.80615    64183.882    6787.3006    5566.8076     27598.52   -8464.7759    80.514217 
   26900     2518.406   -121.38744    2.2787067   -119.10874    18321.364    4.3113948    4.3113948    4.3113948    18321.364    37850.231    41842.752   -24728.891   -4082.6378    12664.262    4734.2725    80.140748 
   27000     1522.909   -120.52283    1.3779601   -119.14487    -15451.72    4.3270519    4.3270519    4.3270519    -15451.72   -14542.522   -42421.007    10608.368    66256.675   -24101.741    13521.291    81.017029 
   27100    1919.6888    -120.8675    1.7369748   -119.13052   -1499.4651    4.3241788    4.3241788    4.3241788   -1499.4651    18977.951   -41097.532    17621.185    27821.239    8625.7663   -9302.9807    80.855752 
   27200    2025.2245   -120.94707    1.8324657    -119.1146    40147.914    4.3294109    4.3294109    4.3294109    40147.914     62943.45    38011.901     19488.39   -19703.979    16819.807     1800.627    81.149606 
   27300    1617.9918   -120.58601     1.463993   -119.12201   -31985.725     4.341782     4.341782     4.341782   -31985.725   -22914.635   -86462.665    13420.125    39488.509    353.49342    41950.397    81.847239 
   27400    1607.7451   -120.57937    1.4547215   -119.12465   -12261.063    4.3149817    4.3149817    4.3149817   -12261.063     24312.25   -68167.045    7071.6045    36991.695   -14117.163     2270.484    80.340933 
   27500    2363.8521   -121.25266    2.1388631    -119.1138    46177.574    4.2980727    4.2980727    4.2980727    46177.574       121704     -8062.85     24891.57   -7306.4548    6580.6968   -28585.292    79.400138 
   27600    1883.2921   -120.86344    1.7040423    -119.1594   -11752.288    4.3361232    4.3361232    4.3361232   -11752.288    37425.443   -52720.397    -19961.91    11140.146    11140.501    27142.007    81.527631 
   27700    1490.6894   -120.46621    1.3488071    -119.1174    -45550.43    4.3556019    4.3556019    4.3556019    -45550.43   -19821.224   -105177.14   -11652.927    54053.685    5615.3191    25546.437     82.63129 
   27800    2722.5922   -121.53636    2.4634587    -119.0729   -985.51555    4.3289711    4.3289711    4.3289711   -985.51555      12949.4   -36865.486    20959.539    1250.3851   -15023.883   -7887.8247    81.124876 
   27900    2185.9943   -121.06003    1.9779336    -119.0821   -19218.057    4.3217567    4.3217567    4.3217567   -19218.057    19709.794   -38988.005    -38375.96   -9501.4117   -14658.142    49219.797    80.719959 
   28000    1568.2933   -120.53073    1.4190248   -119.11171   -20337.668    4.3278949    4.3278949    4.3278949   -20337.668    15999.572   -70340.511    -6672.065    35890.901   -5996.0388    33333.616     81.06439 
   28100    1936.8099   -120.87537    1.7524663    -119.1229    11315.128    4.3398092    4.3398092    4.3398092    11315.128    19866.904   -29053.875    43132.356     27386.62   -16620.714   -27392.141    81.735725 
   28200    2617.9898   -121.46769    2.3688122   -119.09888   -23689.752    4.3481602    4.3481602    4.3481602   -23689.752    -25349.02   -35127.704   -10592.532   -38265.665   -4488.7706    6454.3302    82.208479 
   28300    1972.9288   -120.89618    1.7851475   -119.11103   -4763.2618    4.3156445    4.3156445    4.3156445   -4763.2618    47046.157   -60954.541   -381.40123    10954.474    1896.1234    27245.716    80.377963 
   28400    1561.0685   -120.52244    1.4124876   -119.10996    29088.472    4.2902124    4.2902124    4.2902124    29088.472    17318.178    -7811.499    77758.736    72601.781    13685.056   -10017.745    78.965316 
   28500    2568.0082   -121.45863    2.3235877   -119.13504    8127.8257    4.3191311    4.3191311    4.3191311    8127.8257   -30562.006   -4864.1103    59809.593   -13324.145    19169.338   -1926.6823    80.572931 
   28600    1968.5877    -120.8974    1.7812195   -119.11618    6076.7169    4.3505401    4.3505401    4.3505401    6076.7169    13018.958    6940.3252   -1729.1321    3626.0435    -3721.435    21746.099    82.343539 
   28700     1384.688   -120.34088    1.2528948   -119.08798   -8644.0044    4.3488852    4.3488852    4.3488852   -8644.0044   -865.97321    -45909.64      20843.6    44449.901   -11337.966    23306.005    82.249606 
   28800    2598.6643   -121.41937    2.3513261   -119.06805    7016.3298    4.3151568    4.3151568    4.3151568    7016.3298   -43915.981    43601.528    21363.442   -8631.0588    30223.072   -1049.9586    80.350714 
   28900    2514.1507   -121.35569    2.2748564   -119.08083     21237.38    4.2937168    4.2937168    4.2937168     21237.38    11074.639     18156.72    34480.783     6315.838    27824.176   -2848.1469     79.15898 
   29000    1417.2013   -120.41996    1.2823135   -119.13765    6393.3171    4.3058859    4.3058859    4.3058859    6393.3171    37565.601   -49307.806    30922.156    52044.456    -12240.68    75764.043    79.833936 
   29100    1920.2765   -120.88216    1.7375066   -119.14465    9162.4848    4.3283784    4.3283784    4.3283784    9162.4848    -8138.666   -1447.3876    37073.508    13718.147    6186.5925    24081.112    81.091562 
   29200    2742.3335   -121.59891     2.481321   -119.11759   -24739.101    4.3410577    4.3410577    4.3410577   -24739.101   -53715.753   -10788.349   -9713.2007   -775.73829    19543.055   -11997.288    81.806285 
   29300    1389.8373   -120.38652     1.257554   -119.12897   -24306.805     4.325321     4.325321     4.325321   -24306.805   -52977.346    -33775.36     13832.29    64131.945    11407.614    19198.719    80.919845 
   29400    1625.0289   -120.58813    1.4703603   -119.11777    10470.857    4.2980016    4.2980016    4.2980016    10470.857    27669.022   -19028.451        22772    40654.839   -257.70299    42494.265      79.3962 
   29500    2453.6798   -121.34305    2.2201411   -119.12291    20386.678    4.3063299    4.3063299    4.3063299    20386.678    20564.306   -7007.8309    47603.558   -21360.385    7791.9214    12738.189    79.858637 
   29600    1415.5115    -120.4223    1.2807846   -119.14151    200.31418    4.3334164    4.3334164    4.3334164    200.31418   -77314.169    2361.9301    75553.181    45553.918     15120.46   -7616.0361    81.375047 
   29700    1016.6482   -120.03135   0.91988463   -119.11146    18655.752    4.3464693    4.3464693    4.3464693    18655.752   -48012.142     564.8862    103414.51    30095.949   -5359.3009    41179.075     82.11261 
   29800    1835.7595   -120.73579    1.6610338   -119.07476    12648.634     4.348389     4.348389     4.348389    12648.634    5869.3673    17059.172    15017.362   -15429.864   -9662.7645    35403.688    82.221457 
   29900     1674.316    -120.5822    1.5149563   -119.06724    9261.5269    4.3302235    4.3302235    4.3302235    9261.5269    -19415.08    19268.772     27930.89    33308.623    6422.2295   -22757.003    81.195307 
   30000     1721.332   -120.63579    1.5574974    -119.0783   -14274.014    4.3098726    4.3098726    4.3098726   -14274.014   -1305.2848    -29807.97   -11708.786    43623.082    23881.221    2744.5408    80.055891 
   30100    1752.1833   -120.70122    1.5854123   -119.11581    2070.8369    4.3037767    4.3037767    4.3037767    2070.8369     36155.75    15945.445   -45888.684   -16086.753    23087.802     44207.63    79.716679 
   30200    1925.4038   -120.88519    1.7421458   -119.14305     7904.025     4.313071     4.313071     4.313071     7904.025    24394.749   -371.23422   -311.44036   -26322.413   -4524.7866    20299.045    80.234252 
   30300    2121.0376   -121.06222    1.9191594   -119.14306    -755.1173    4.3286984    4.3286984    4.3286984    -755.1173    13860.267   -22096.388    5970.7691     29891.05   -501.65061    2772.9149    81.109548 
   30400    1503.4524   -120.49451    1.3603553   -119.13416   -2666.9949    4.3407107    4.3407107    4.3407107   -2666.9949    30885.407    2104.1475   -40990.539    38989.929      8299.01    33969.227    81.786671 
   30500     1957.671   -120.88452    1.7713419   -119.11318    -21647.08    4.3315711    4.3315711    4.3315711    -21647.08    7908.4144   -35658.944    -37190.71   -27434.792    5310.4209    18475.414    81.271136 
   30600    2197.6513   -121.09857     1.988481   -119.11008    2133.5682    4.3034533    4.3034533    4.3034533    2133.5682   -14351.917   -2863.7278    23616.349   -42090.002   -3859.2677   -19132.321     79.69871 
   30700    1520.6052   -120.51703    1.3758755   -119.14115    7663.5378    4.3007799    4.3007799    4.3007799    7663.5378    9219.7349    -32907.42    46678.299    29723.738   -5282.2518    36792.641    79.550272 
   30800    1933.0206   -120.90565    1.7490376   -119.15661   -15716.578    4.3219928    4.3219928    4.3219928   -15716.578    35554.413    -81108.92   -1595.2272    40313.976   -3342.1979    51226.661    80.733191 
   30900    3142.0814   -121.97773    2.8430213   -119.13471   -9205.6125    4.3224276    4.3224276    4.3224276   -9205.6125    11490.012   -28547.373   -10559.476   -20184.729   -2185.6045   -1484.0621    80.757557 
   31000    2438.3143   -121.34983     2.206238   -119.14359    21952.982    4.3110609    4.3110609    4.3110609    21952.982    16012.573   -13585.164    63431.538    1346.4902   -20320.065   -5546.3128    80.122127 
   31100         1783   -120.77575    1.6132958   -119.16245   -23720.341    4.3040284    4.3040284    4.3040284   -23720.341   -30646.623   -69828.734    29314.336    49487.123   -24600.178    42033.335    79.730664 
   31200    1678.3953   -120.68241    1.5186474   -119.16377     15131.16    4.2981799    4.2981799    4.2981799     15131.16    1913.2835   -33208.098    76688.296    23205.759    5856.6121    13523.823    79.406084 
   31300    2152.1893   -121.11307    1.9473461   -119.16572    4179.6653    4.3180322    4.3180322    4.3180322    4179.6653   -7840.6402    -6505.584     26885.22   -26001.099    21001.415   -50732.956    80.511447 
   31400    1485.7671    -120.4927    1.3443533   -119.14835   -30723.131    4.3429857    4.3429857    4.3429857   -30723.131   -52362.774   -16715.508   -23091.111    22944.864    -29894.97   -10374.855    81.915334 
   31500    1414.7274   -120.39878    1.2800751    -119.1187   -11280.677    4.3322371    4.3322371    4.3322371   -11280.677   -84024.846    13088.971    37093.843    64663.074   -21173.279    28309.939    81.308631 
   31600     2519.281   -121.36942    2.2794984   -119.08992    36437.645    4.3000804    4.3000804    4.3000804    36437.645    5378.8734    43514.897    60419.164   -5397.3343     11739.76   -5540.0402    79.511461 
   31700    2388.5038   -121.28232    2.1611685   -119.12115    17667.678    4.2914302    4.2914302    4.2914302    17667.678    12546.372    59267.265   -18810.604   -4806.3188   -21313.134   -26552.436    79.032578 
   31800    1253.0386   -120.30885    1.1337757   -119.17508   -22248.264    4.3090739    4.3090739    4.3090739   -22248.264   -70668.165    19958.264    -16034.89    80706.153   -37712.933   -3367.3893    80.011392 
   31900    1351.5624   -120.40163    1.2229221    -119.1787   -34038.831     4.320681     4.320681     4.320681   -34038.831   -61312.864   -60629.337    19825.708    38163.885   -24753.112   -3119.0372    80.659702 
   32000    2313.5692   -121.24122     2.093366   -119.14785    6068.2162    4.3170738    4.3170738    4.3170738    6068.2162    11605.602   -21220.828    27819.875    -63218.03    7163.5382    7360.3797    80.457846 
   32100    2196.7078   -121.12862    1.9876274   -119.14099   -2576.6431    4.3173558    4.3173558    4.3173558   -2576.6431   -13764.819   -36589.175    42624.064    21758.676    20106.239    12802.321    80.473614 
   32200    1480.2445   -120.48768    1.3393563   -119.14832   -6902.1847    4.3191642    4.3191642    4.3191642   -6902.1847   -12775.798   -27365.235     19434.48    55094.032   -24769.493   -4710.7898    80.574784 
   32300    2146.5624   -121.08125    1.9422548     -119.139    8740.9747    4.3062541    4.3062541    4.3062541    8740.9747    25895.727    4100.7267   -3773.5298   -5385.6133   -59807.642   -18901.424    79.854421 
   32400     2704.729   -121.58081    2.4472957   -119.13352     16745.17    4.3092608    4.3092608    4.3092608     16745.17    16934.337   -31998.749    65299.923     6167.963   -1164.1243    1746.8477    80.021804 
   32500    1896.8863   -120.86525    1.7163426    -119.1489   -31835.165    4.3303381    4.3303381    4.3303381   -31835.165    -59074.99   -72548.549    36118.045    53240.572    5484.8426    2315.1732    81.201755 
   32600    1225.5462   -120.25639       1.1089   -119.14749   -26340.989    4.3164443    4.3164443    4.3164443   -26340.989   -70988.393    13303.799   -21338.372    15499.762   -67678.909   -864.81312    80.422656 
   32700    1619.4011    -120.6006    1.4652681   -119.13534    40153.121    4.3019445    4.3019445    4.3019445    40153.121    30439.485    30575.379    59444.499   -14886.565   -32855.848    -932.6703    79.614913 
   32800    2608.4461   -121.48505    2.3601768   -119.12487    -14724.11    4.3226164    4.3226164    4.3226164    -14724.11    7632.7017   -63255.024    11449.994   -10039.852    26733.546   -3832.3827     80.76814 
   32900    1452.8915   -120.44142    1.3146068   -119.12681    6355.7787    4.3197723    4.3197723    4.3197723    6355.7787   -9919.5198   -5806.8695    34793.725    15691.355   -78664.049     2896.576    80.608818 
   33000    1590.3378   -120.57286    1.4389711   -119.13389    7546.8199    4.3181223    4.3181223    4.3181223    7546.8199    849.47889    546.01225    21244.969    14258.997    -66161.32    4686.6686    80.516486 
   33100    2416.0035   -121.30745    2.1860507    -119.1214   -33459.288     4.332059     4.332059     4.332059   -33459.288   -31035.169   -88728.878    19386.184   -24989.856    22335.117    3856.5795    81.298601 
   33200    1965.5049   -120.90873    1.7784301    -119.1303   -729.66578    4.3119748    4.3119748    4.3119748   -729.66578    -23732.23    9119.3617    12423.871   -26985.499   -19367.359     91.18257    80.173092 
   33300    1403.4974   -120.40346     1.269914   -119.13354    32023.633    4.3046422    4.3046422    4.3046422    32023.633    -606.9624    43723.492    52954.369    15642.787   -59114.625     3079.449    79.764779 
   33400    2321.3321   -121.23177      2.10039   -119.13138   -15398.717    4.3319024    4.3319024    4.3319024   -15398.717   -18373.371   -44697.727    16874.945    27422.139    -7235.397    -4451.861    81.289788 
   33500    2435.6887   -121.30739    2.2038623   -119.10353   -4869.7254    4.3368496    4.3368496    4.3368496   -4869.7254    -12544.27   -12133.288    10068.382    6995.5912    1570.7106    -19132.03    81.568612 
   33600    1351.5001   -120.31848    1.2228657   -119.09561    41173.478    4.3259931    4.3259931    4.3259931    41173.478    12564.322    112043.08   -1086.9675    2347.6459   -51578.193   -299.54551    80.957572 
   33700    2232.5998   -121.09975    2.0201032   -119.07965     23383.97    4.3286272    4.3286272    4.3286272     23383.97    39675.321    32927.396   -2450.8069     41808.05    1333.9775    4669.4935    81.105544 
   33800    2260.2068   -121.13223    2.0450826   -119.08715   -661.93827    4.3322467    4.3322467    4.3322467   -661.93827   -21919.349   -5911.6174    25845.151     46016.71   -793.43124   -7847.6563    81.309172 
   33900    1870.8271   -120.79442    1.6927637   -119.10165   -16878.529     4.322665     4.322665     4.322665   -16878.529    -63754.19    25910.747   -12792.143   -3229.1869   -83244.953    8918.8925    80.770866 
   34000    2575.3371   -121.42704    2.3302191   -119.09682     330.2896    4.3008933    4.3008933    4.3008933     330.2896   -28648.279    34602.862   -4963.7141   -10030.805   -11484.092    599.00745    79.556563 
   34100    1895.5472   -120.84156     1.715131   -119.12643   -14833.363    4.3060801    4.3060801    4.3060801   -14833.363   -60125.638   -2567.8682    18193.417    52413.814    33338.977   -9855.2054    79.844738 
   34200    1528.6321   -120.51836    1.3831384   -119.13522   -17337.037    4.3212516    4.3212516    4.3212516   -17337.037   -64823.797    12725.653    87.031452    43375.633   -48152.066   -12885.353    80.691664 
   34300    2879.8657    -121.7224     2.605763   -119.11664   -18047.193    4.3314037    4.3314037    4.3314037   -18047.193   -13373.005    2137.9761    -42906.55   -17112.854    -23938.78   -11469.647    81.261715 
   34400    1518.9102   -120.49891    1.3743418   -119.12457   -49282.309    4.3329472    4.3329472    4.3329472   -49282.309    -107315.4   -49854.635    9323.1129    17261.855    30858.154    97.409853    81.348619 
   34500    1354.4544   -120.34204    1.2255388    -119.1165    947.77022    4.3066995    4.3066995    4.3066995    947.77022   -76577.523    29403.809    50017.025    59937.875    17850.217    6791.6735      79.8792 
   34600    3299.2114   -122.07753    2.9851958   -119.09233    18900.897    4.3031616    4.3031616    4.3031616    18900.897   -6791.2927    53901.771    9592.2122   -11561.902    6566.2918   -6893.3802    79.682505 
   34700    1787.6762    -120.7373     1.617527   -119.11977   -3125.5663    4.3219703    4.3219703    4.3219703   -3125.5663   -64340.621    49354.068    5609.8535    13024.435    14109.103   -16590.061    80.731928 
   34800    1491.8989   -120.47613    1.3499015   -119.12623   -25890.064     4.327341     4.327341     4.327341   -25890.064   -110175.92   -646.22206     33151.95    50104.508    22982.196   -3741.4412    81.033267 
   34900    2953.7494   -121.77468    2.6726146   -119.10206    226.07743    4.3220952    4.3220952    4.3220952    226.07743   -39574.688    7599.8864    32653.034   -2243.0875   -1451.3266   -10570.357    80.738929 
   35000    2134.3127   -121.04199     1.931171   -119.11082   -4661.7213    4.3225397    4.3225397    4.3225397   -4661.7213   -29048.876    36103.055   -21039.343    13902.004   -32288.623   -13857.374     80.76384 
   35100    1633.4202   -120.59717    1.4779529   -119.11921   -14868.351    4.3190606    4.3190606    4.3190606   -14868.351   -27047.572   -31834.316    14276.837    61621.802     5630.904   -21933.755    80.568984 
   35200    2593.9636   -121.45199    2.3470728   -119.10492    21398.823      4.32624      4.32624      4.32624    21398.823    25727.381   -7868.1682    46337.257     -13248.5    4859.3616   -3577.6539    80.971434 
   35300    1740.6496   -120.67449    1.5749763   -119.09951   -13764.494    4.3485104    4.3485104    4.3485104   -13764.494   -77.483422    22142.262    -63358.26    21251.109   -42786.439   -2532.2514    82.228344 
   35400    1613.5061   -120.53937    1.4599342   -119.07944   -15702.998    4.3397855    4.3397855    4.3397855   -15702.998    6475.7434   -8346.2467    -45238.49    46224.121   -9203.4047   -16058.423    81.734385 
   35500    2421.6887   -121.24137    2.1911948   -119.05018    23215.567    4.3040816    4.3040816    4.3040816    23215.567    55715.968    39762.933     -25832.2   -7088.7839    4449.0365    6226.4171    79.733621 
   35600    1629.7054   -120.56277    1.4745917   -119.08818    5946.8351    4.3014413    4.3014413    4.3014413    5946.8351     4947.077    49296.501   -36403.073    3788.1301   -61818.192     20081.19    79.586977 
   35700    1418.2663   -120.40873    1.2832772   -119.12545   -24401.194    4.3107234    4.3107234    4.3107234   -24401.194    -63060.21    19872.713   -30016.084    37572.586    -12501.19   -892.06076    80.103312 
   35800    1452.8011   -120.44883     1.314525   -119.13431    17039.562    4.3061465    4.3061465    4.3061465    17039.562   -3915.0143    52234.566    2799.1346    37149.363    43076.004   -9462.2131    79.848436 
   35900     1892.222   -120.84669    1.7121222   -119.13457    25188.722    4.3216792    4.3216792    4.3216792    25188.722    87508.734    19300.511   -31243.078   -17321.502    392.50548    1850.0002    80.715616 
   36000    1772.8217   -120.72949    1.6040863    -119.1254   -20052.329    4.3305306    4.3305306    4.3305306   -20052.329   -8243.4741   -21888.261   -30025.252    21879.333    -21223.54    19554.713    81.212582 
   36100    1227.5655   -120.23256     1.110727   -119.12183    20940.709    4.3051244    4.3051244    4.3051244    20940.709    58840.733   -16895.643    20877.038    83835.987    14768.363   -3165.2245    79.791592 
   36200    2084.7588   -121.01072    1.8863336   -119.12439   -2126.8516      4.30238      4.30238      4.30238   -2126.8516   -15293.128    19039.984    -10127.41   -11254.186    36361.382   -10698.931     79.63909 
   36300    1959.6738   -120.91031     1.773154   -119.13715    1440.0498    4.3086486    4.3086486    4.3086486    1440.0498   -11415.558    2699.1474     13036.56   -61743.172    7744.2287    10698.402    79.987705 
   36400    1662.1337   -120.65972    1.5039335   -119.15578   -10273.967    4.3140704    4.3140704    4.3140704   -10273.967   -55851.045   -16506.794    41535.938     46290.28   -11755.997    12049.676     80.29004 
   36500    2141.4577   -121.08859     1.937636   -119.15095   -17475.186    4.3181503    4.3181503    4.3181503   -17475.186   -58973.592    17713.644   -11165.608    56527.478    3354.6324   -12353.472    80.518053 
   36600    2087.0964   -121.03068    1.8884487   -119.14223     21720.68    4.3064826    4.3064826    4.3064826     21720.68    21558.741    63016.845   -19413.546   -27702.573    16789.574   -17366.826    79.867133 
   36700    1923.2776   -120.89496     1.740222   -119.15474   -4888.7602    4.3103571    4.3103571    4.3103571   -4888.7602    7232.6559   -26336.826    4437.8899   -38236.527    2507.9015   -9168.1127    80.082893 
   36800    2354.4264   -121.27666    2.1303345   -119.14633   -9885.1801    4.3108613    4.3108613    4.3108613   -9885.1801   -48004.706   -9174.9111    27524.077    2251.5132   -2602.9931   -4863.9686    80.110997 
   36900    2400.9577   -121.31968     2.172437   -119.14724    35137.432    4.3073877    4.3073877    4.3073877    35137.432    43340.434    65726.377   -3654.5156    44380.186    26358.115    404.71259    79.917499 
   37000     1837.762   -120.82189    1.6628457   -119.15904   -15477.695    4.3204221    4.3204221    4.3204221   -15477.695   -29818.742    22699.469   -39313.812    -28325.89     27278.92   -21780.171    80.645203 
   37100    1491.3358   -120.49751     1.349392   -119.14812    2482.1763    4.3190692    4.3190692    4.3190692    2482.1763   -45870.884    48347.124    4970.2897   -72517.831    10.423408   -11166.305    80.569468 
   37200    2634.5502   -121.50641    2.3837964   -119.12261    20589.765    4.3134625    4.3134625    4.3134625    20589.765    24273.438    28990.457    8505.3993     14081.96   -13319.983    1640.7424    80.256108 
   37300    1844.5169   -120.80126    1.6689576    -119.1323     6558.881     4.323969     4.323969     4.323969     6558.881   -5156.6792    5465.5835    19367.739    5004.4064     8504.062   -2042.9432    80.843985 
   37400    998.90724   -120.03055   0.90383226   -119.12672   -29201.698    4.3305202    4.3305202    4.3305202   -29201.698   -66084.148   -62849.427    41328.481   -88567.913    18498.484    -3911.661       81.212 
   37500    2992.1253   -121.79214    2.7073378    -119.0848    4387.6501    4.3275996    4.3275996    4.3275996    4387.6501    15528.804   -1969.4976   -396.35608   -5333.7579   -11715.705   -19097.764    81.047795 
   37600    2337.4017   -121.20004    2.1149302   -119.08511   -9665.5525    4.3407808    4.3407808    4.3407808   -9665.5525    10226.092   -36283.529   -2939.2209   -33196.079    18879.908    6365.2241    81.790632 
   37700    1225.8064   -120.18586    1.1091354   -119.07672    5973.2496    4.3495399    4.3495399    4.3495399    5973.2496    37015.124   -34941.944    15846.569   -70335.471    25583.523    8332.1939    82.286761 
   37800    3294.8675   -122.00665    2.9812654   -119.02538   -25763.058    4.3440194    4.3440194    4.3440194   -25763.058   -27547.914   -12516.933   -37224.326     28173.38   -16126.872    -3180.267    81.973838 
   37900     1677.381   -120.59085    1.5177296   -119.07312   -3061.1763     4.313456     4.313456     4.313456   -3061.1763   -37003.916    9470.9833    18349.404   -23189.385    20320.978    19187.038    80.255742 
   38000    1257.7523   -120.23057    1.1380407   -119.09253     28379.49    4.2893367    4.2893367    4.2893367     28379.49   -12834.505    13477.539    84495.438   -59048.737    24751.074    31368.921     78.91697 
   38100    2816.4966   -121.66115    2.5484253   -119.11273    23210.228    4.3151793    4.3151793    4.3151793    23210.228    3909.8454     61179.04    4541.7986    29324.673   -12190.917    -8302.436    80.351972 
   38200    1870.3069   -120.80083     1.692293   -119.10853   -37311.514    4.3461444    4.3461444    4.3461444   -37311.514    2479.0311   -55450.458   -58963.114   -28483.794    8102.3332   -33258.565    82.094196 
   38300    1311.1094   -120.29817    1.1863194   -119.11185   -2447.6874     4.327138     4.327138     4.327138   -2447.6874    10750.085    572.78477   -18665.932   -69791.465    28726.199    18686.837    81.021865 
   38400    2937.4197   -121.74981    2.6578391   -119.09197    18237.209    4.2925006    4.2925006    4.2925006    18237.209    45489.197    15182.828   -5960.3987    11387.235   -5255.9808    7114.7785    79.091736 
   38500    2621.9351   -121.48556     2.372382   -119.11318    5335.7253    4.2970817    4.2970817    4.2970817    5335.7253    51086.007   -19876.513   -15202.318   -11200.152   -12119.522   -28316.309     79.34523 
   38600    1022.7213   -120.08517   0.92537969   -119.15979   -10525.703    4.3209061    4.3209061    4.3209061   -10525.703    -24593.41    2915.0444   -9898.7438   -68065.341    22409.429     -28462.2    80.672307 
   38700    2061.6066   -121.00337     1.865385   -119.13798   -14485.055    4.3320253    4.3320253    4.3320253   -14485.055   -14165.066    3320.6957   -32610.794   -12481.948    30266.549    618.51767    81.296707 
   38800    2920.0899   -121.75572    2.6421587   -119.11356    15076.443    4.3159152    4.3159152    4.3159152    15076.443   -5342.7465    22243.007    28329.069    22084.533   -3048.7363    6407.0727    80.393087 
   38900    1951.8931   -120.89391    1.7661139    -119.1278   -5676.5469    4.2972333    4.2972333    4.2972333   -5676.5469     -46778.9   -17901.021     47650.28   -55180.074   -879.64912   -8162.0094    79.353629 
   39000    1057.3802   -120.10942   0.95673983   -119.15268   -22684.466    4.2949993    4.2949993    4.2949993   -22684.466   -53940.019     1931.446   -16044.825   -55065.089    66206.557   -15284.201    79.229931 
   39100    1937.7654   -120.91686    1.7533308   -119.16353    12578.878    4.3071579    4.3071579    4.3071579    12578.878   -3859.6909    33760.991    7835.3334    22966.796    37215.431   -22207.791    79.904712 
   39200    2465.0491   -121.36838    2.2304282   -119.13795   -18459.388    4.3321294    4.3321294    4.3321294   -18459.388   -55186.781   -37916.468    37725.083   -23131.947   -16820.915    14113.248    81.302566 
   39300    1394.1893   -120.39403    1.2614918   -119.13254   -40291.414     4.329058     4.329058     4.329058   -40291.414   -95417.946   -23767.751   -1688.5449   -68125.079    25261.842    3356.0617    81.129765 
   39400    1074.2544   -120.08933   0.97200792   -119.11732   -2609.7351    4.3014753    4.3014753    4.3014753   -2609.7351    -36615.67    22923.593     5862.872   -4902.7968     65368.07   -19500.771    79.588865 
   39500    2410.7013   -121.28708    2.1812532   -119.10583    10880.363     4.301114     4.301114     4.301114    10880.363    26170.779   -14465.613    20935.923    9172.9922   -4896.2578   -8068.2556    79.568812 
   39600    2033.7172   -120.96644    1.8401501   -119.12629    1771.4146    4.3141815    4.3141815    4.3141815    1771.4146    -26913.21   -19049.976     51277.43    -35139.19   -11176.379   -5166.2647    80.296243 
   39700     1198.687   -120.22113    1.0845972   -119.13653   -19698.121    4.3228503    4.3228503    4.3228503   -19698.121   -41324.356    5200.9447   -22970.951   -33333.392    79515.966    12955.368    80.781253 
   39800    2126.9249   -121.04856    1.9244863   -119.12408   -20994.228    4.3304399    4.3304399    4.3304399   -20994.228   -10939.641   -21494.268   -30548.775    20595.584    23286.982   -38567.953     81.20748 
   39900    2527.5519   -121.39633    2.2869821   -119.10935     -6451.84    4.3147742    4.3147742    4.3147742     -6451.84     29635.48   -32471.725   -16519.274   -2448.5574   -24834.536   -34635.524    80.329342 
   40000    1597.3905   -120.56582    1.4453525   -119.12047    876.85194    4.2927069    4.2927069    4.2927069    876.85194   -40312.062    24169.768     18772.85   -50278.838    68112.692    21687.772    79.103136 
   40100     1657.167   -120.65424    1.4994396    -119.1548    3285.7594    4.3079927    4.3079927    4.3079927    3285.7594   -45488.169    38586.743    16758.704    772.86809    64278.458   -7970.5147    79.951182 
   40200    3103.0833   -121.93008     2.807735   -119.12234   -26383.245    4.3305247    4.3305247    4.3305247   -26383.245   -13388.476   -29817.696   -35943.563    4590.3043   -14771.589   -11707.407    81.212255 
   40300    1411.1305   -120.40366    1.2768205   -119.12684   -11868.978    4.3310992    4.3310992    4.3310992   -11868.978     -58823.5   -3159.3935     26375.96   -31599.685    37512.997   -4111.0064    81.244577 
   40400    1027.1531   -120.05102   0.92938974   -119.12163   -22867.132    4.3292355    4.3292355    4.3292355   -22867.132   -81662.907    229.92596    12831.584   -44011.474    55538.411    19262.232    81.139741 
   40500    2616.8806    -121.4732    2.3678086   -119.10539    4622.3963    4.3060862    4.3060862    4.3060862    4622.3963    8065.7294   -23957.112    29758.571    2702.7738   -25638.772    26779.495     79.84508 
   40600    2059.9877   -120.98069    1.8639201   -119.11677    4706.3042    4.2927622    4.2927622    4.2927622    4706.3042   -18601.411    12741.916    19978.408    15613.643    30330.288   -5854.0302    79.106197 
   40700    880.19712   -119.95865   0.79642085   -119.16223   -29545.002    4.3171818    4.3171818    4.3171818   -29545.002   -99140.858    10203.327    302.52487   -33574.143    75841.522   -4479.9214    80.463887 
   40800    1986.0279   -120.93064    1.7969998   -119.13364   -18661.074    4.3232083    4.3232083    4.3232083   -18661.074    -14094.76    -67703.54     25815.08   -32082.831   -16013.618    2099.1537    80.801323 
   40900     2188.435   -121.09453     1.980142   -119.11438    204.05591    4.3164228    4.3164228    4.3164228    204.05591    26956.677   -48459.644    22115.134    3040.9087     16016.07    22247.893    80.421459 
   41000    1389.6627   -120.38925     1.257396   -119.13185   -14084.489    4.3194024    4.3194024    4.3194024   -14084.489   -57705.621    49547.926   -34095.773   -1291.1451    83502.683    4194.1793    80.588113 
   41100    2474.0638   -121.36384    2.2385849   -119.12526    2704.9004    4.3080034    4.3080034    4.3080034    2704.9004   -21064.219   -73.599952     29252.52   -14848.573   -316.36512   -1990.3263    79.951778 
   41200     2669.809   -121.54146    2.4156993   -119.12576    32887.191    4.2964679    4.2964679    4.2964679    32887.191    35466.994    18525.062    44669.517   -14265.125   -8648.5002    8480.3846    79.311235 
   41300    1323.5297   -120.35893    1.1975575   -119.16137     1579.962    4.3118538    4.3118538    4.3118538     1579.962   -41024.954    100500.32   -54735.484    4627.4394    90100.969    20958.175    80.166342 
   41400    2302.5756   -121.21918    2.0834188   -119.13576   -5130.9738    4.3275461    4.3275461    4.3275461   -5130.9738    3830.3453   -3789.4285   -15433.838    16260.688    13611.618    6646.7341    81.044793 
   41500    2861.4972   -121.69656    2.5891428   -119.10742    1641.1259    4.3246356    4.3246356    4.3246356    1641.1259   -14920.748    35218.577   -15374.451   -2104.7385    -3160.673   -9289.5653    80.881383 
   41600    1188.4016   -120.19872    1.0752907   -119.12343    10435.753    4.3163291    4.3163291    4.3163291    10435.753   -62786.434    114003.87   -19910.176    -9523.742     89823.74    11176.349    80.416216 
   41700    2155.9954   -121.04876    1.9507899   -119.09797    17476.012    4.3125185    4.3125185    4.3125185    17476.012    38855.658    17068.705   -3496.3289   -1692.3798    2768.4452    34893.745    80.203424 
   41800    2443.2249   -121.30774    2.2106812   -119.09706    4860.3652    4.3153822    4.3153822    4.3153822    4860.3652   -9433.1476   -3668.4674    27682.711    357.58655    7306.6923    23348.668    80.363305 
   41900    1734.2773   -120.68769    1.5692106   -119.11848   -18124.444    4.3271718    4.3271718    4.3271718   -18124.444   -61685.051     27686.58    -20374.86    1654.6216    82083.546    1630.1554    81.023765 
   42000     2238.944   -121.13522    2.0258436   -119.10938   -16513.476    4.3240108    4.3240108    4.3240108   -16513.476   -39307.627   -124.80788   -10107.992    4735.9166    22453.462   -152.47414    80.846327 
   42100    1754.2544   -120.70109    1.5872862    -119.1138    16225.089    4.3120649    4.3120649    4.3120649    16225.089    14426.249   -2852.6731    37101.691   -2835.6494   -30448.001    28517.076    80.178117 
   42200     1844.555   -120.80266    1.6689921   -119.13367   -10273.751    4.3175658    4.3175658    4.3175658   -10273.751   -56693.357    46951.298   -21079.193    4783.1762    23100.566    6179.8685    80.485362 
   42300    2408.5365   -121.29638    2.1792944   -119.11709    3071.3507    4.3241917    4.3241917    4.3241917    3071.3507   -25327.948    14882.223    19659.777    13204.742    27276.331   -4544.5561    80.856478 
   42400    1435.6614   -120.42772    1.2990166    -119.1287   -32400.298    4.3288103    4.3288103    4.3288103   -32400.298    28884.639   -42559.288   -83526.244    -2452.204   -14455.658    52828.725     81.11584 
   42500    1522.6238   -120.50978     1.377702   -119.13208   -47832.499    4.3174514    4.3174514    4.3174514   -47832.499   -23939.722   -12085.431   -107472.35   -103.70854   -48172.703    6965.2205    80.478961 
   42600    3097.7708   -121.90219    2.8029281   -119.09926    18050.063    4.3039599    4.3039599    4.3039599    18050.063    6546.3368    39044.132    8559.7191    125.43057    1910.9115   -18784.307     79.72686 
   42700    2027.2871   -120.95451     1.834332   -119.12018   -25301.444    4.3224762    4.3224762    4.3224762   -25301.444    40346.103   -34935.886   -81314.548   -2786.6322    18864.113     62999.21    80.760282 
   42800    1543.5574   -120.50208    1.3966432   -119.10544   -20310.954    4.3301585    4.3301585    4.3301585   -20310.954    54242.684   -36374.221   -78801.326   -3221.6162   -19172.113   -4204.0935    81.191654 
   42900    2587.1089   -121.42372    2.3408705   -119.08285   -12478.759    4.3311877    4.3311877    4.3311877   -12478.759   -20712.998    14437.534   -31160.812   -19126.916   -1911.2381   -33673.245     81.24956 
   43000    1776.5107   -120.71588    1.6074242   -119.10845   -29958.347    4.3244316    4.3244316    4.3244316   -29958.347   -29520.979    12135.751   -72489.811   -7336.0307    46866.393    43290.321    80.869933 
   43100    1747.9043   -120.70406    1.5815406   -119.12252    1723.4351    4.2852176    4.2852176    4.2852176    1723.4351    9032.0217    5011.0905   -8872.8069    12554.886    3139.3393    37601.797    78.689835 
   43200    2204.1248   -121.13108    1.9943384   -119.13674     50260.07     4.280678     4.280678     4.280678     50260.07    52793.723    66796.485    31190.003    8171.7276    -35196.56   -14523.058    78.440016 
   43300    1929.2234    -120.8986    1.7456019   -119.15299   -11886.867    4.3173773    4.3173773    4.3173773   -11886.867   -49803.565    31561.271   -17418.306   -28316.836    38898.687   -11701.655    80.474819 
   43400    1114.2005   -120.14934     1.008152   -119.14119    -11603.86    4.3293814    4.3293814    4.3293814    -11603.86   -64748.447    364.98413    29571.882   -8739.4612    43251.287    29930.936    81.147946 
   43500    1942.9505   -120.86696    1.7580224   -119.10894    11080.211    4.3337168    4.3337168    4.3337168    11080.211    51523.643    9908.9077   -28191.917    21814.566   -22414.763     12838.91    81.391972 
   43600     1918.496   -120.83928    1.7358955   -119.10338   -33975.244    4.3302863    4.3302863    4.3302863   -33975.244   -42144.561   -5043.6453   -54737.527   -16764.951    41317.605    -8861.098    81.198839 
   43700     1481.775   -120.45733    1.3407412   -119.11659    16152.635    4.2946258    4.2946258    4.2946258    16152.635     11925.34    50658.907   -14126.341    -23924.02    58156.796   -3175.8215    79.209266 
   43800     2041.015   -120.96791    1.8467533   -119.12116    43271.712    4.2870685    4.2870685    4.2870685    43271.712    78361.398    36182.698    15271.042   -264.68325   -16123.862    37195.899    78.791846 
   43900    2102.2986   -121.04321    1.9022039     -119.141   -3766.3688    4.3131248    4.3131248    4.3131248   -3766.3688    55528.672   -37947.746   -28880.032    23169.163    4751.7624    23430.413    80.237258 
   44000     1960.732   -120.91218    1.7741115   -119.13806     1107.368    4.3241871    4.3241871    4.3241871     1107.368   -7321.9054     555.0449    10088.965    6905.6012    72132.782   -32543.021    80.856219 
   44100    1994.9628   -120.93608    1.8050842     -119.131     9303.119    4.3356686    4.3356686    4.3356686     9303.119   -29229.434    11578.475    45560.316    -17099.11    5975.6281    11869.595    81.501995 
   44200    2604.6075   -121.46536    2.3567036   -119.10866   -12213.221    4.3285028    4.3285028    4.3285028   -12213.221   -17745.188   -17023.739   -1870.7352   -6917.7163   -28656.762     38105.14    81.098553 
   44300    1547.4715   -120.51698    1.4001847    -119.1168    34071.492    4.2891403    4.2891403    4.2891403    34071.492    24965.916    35381.772    41866.787    2017.1424    75189.152   -28235.105    78.906135 
   44400    1941.0257   -120.88271    1.7562808   -119.12643    16728.764    4.2798712    4.2798712    4.2798712    16728.764    26354.361     19366.01    4465.9218    251.80043    52630.581   -24677.053    78.395673 
   44500    2362.1905   -121.28669    2.1373596   -119.14933    502.37848    4.3051325    4.3051325    4.3051325    502.37848    5505.4265    7131.9989    -11130.29    16959.062   -66262.115     4044.738     79.79204 
   44600    1957.0299    -120.9201    1.7707618   -119.14934   -19851.969    4.3317158    4.3317158    4.3317158   -19851.969   -13628.558   -8738.6617   -37188.688    -26071.48   -6433.5266   -3481.8085    81.279282 
   44700    1391.9131   -120.38722    1.2594323   -119.12779   -4491.1045    4.3342326    4.3342326    4.3342326   -4491.1045     19895.96   -15268.981   -18100.293   -4910.1405    48714.027   -8606.4429    81.421038 
   44800    2136.2618   -121.04266    1.9329345   -119.10973   -8933.0925    4.3119579    4.3119579    4.3119579   -8933.0925    12886.731   -60305.112    20619.103    84394.382   -1161.0056   -2688.4291    80.172148 
   44900    2739.2046   -121.57969    2.4784899    -119.1012    31834.641    4.2887601    4.2887601    4.2887601    31834.641    66968.655    -702.1648    29237.434    19332.623    3840.8657    5081.6637    78.885149 
   45000    2321.0604   -121.23562    2.1001442   -119.13548    5758.0031     4.302602     4.302602     4.302602    5758.0031    18531.328    10860.263   -12117.582   -15075.708    53836.431   -6966.7845    79.651421 
   45100    1231.7585   -120.26619     1.114521   -119.15166   -41574.714    4.3250348    4.3250348    4.3250348   -41574.714   -63498.432   -76774.851    15549.143    79448.881     16656.12   -10167.734     80.90378 
   45200    2103.6655    -121.0345    1.9034407   -119.13105   -11306.019    4.3164312    4.3164312    4.3164312   -11306.019    5293.8172   -59924.117    20712.242    23621.805    -20625.12   -429.47006    80.421925 
   45300    2765.7698   -121.61775    2.5025267   -119.11522   -5226.0591    4.3138803    4.3138803    4.3138803   -5226.0591   -14337.065   -15307.881    13966.769   -44733.483   -3101.4871   -2757.4537    80.279427 
   45400    1122.2951   -120.14965    1.0154762   -119.13417    -8328.158    4.3106649    4.3106649    4.3106649    -8328.158   -69173.464   -34768.853    78957.843     83777.09    22823.101     2265.869    80.100048 
   45500    1634.2645   -120.61437    1.4787169   -119.13565    13190.044    4.3042185    4.3042185    4.3042185    13190.044   -34920.531    11511.308    62979.355     48997.29    40184.426    3742.7785    79.741229 
   45600    2696.8391   -121.56724    2.4401567   -119.12709    14010.021    4.3173783    4.3173783    4.3173783    14010.021   -11316.351    15241.383     38105.03   -21125.112    12971.808    2764.4186    80.474875 
   45700    1727.4874   -120.69548    1.5630669   -119.13241   -1580.3499    4.3194936    4.3194936    4.3194936   -1580.3499   -51609.923   -60986.907    107855.78    79961.045    -11816.24    960.70978    80.593217 
   45800    1749.0593   -120.70173    1.5825856   -119.11914    312.12739    4.3068757    4.3068757    4.3068757    312.12739   -16464.589   -4241.4844    21642.456    28695.805    33628.587    9997.4352    79.889005 
   45900    1578.1018   -120.55497    1.4278997   -119.12707   -12400.031    4.3075324    4.3075324    4.3075324   -12400.031   -27992.648    43589.136   -52796.582   -21613.124    19627.625    12496.043    79.925552 
   46000    1585.5446   -120.56587     1.434634   -119.13124   -19173.506    4.3118351    4.3118351    4.3118351   -19173.506   -46527.915   -27878.194    16885.591    50216.777   -20965.787   -10607.011    80.165302 
   46100    2303.9337   -121.20547    2.0846477   -119.12082   -3003.9011    4.3201073    4.3201073    4.3201073   -3003.9011    6479.1257   -34873.518    19382.689    16537.201   -4618.8478    1256.5226    80.627578 
   46200    1606.6426   -120.58111     1.453724   -119.12739   -29653.393    4.3331113    4.3331113    4.3331113   -29653.393   -63165.382    86.494701   -25881.291   -30655.592    38081.422    9782.1508    81.357863 
   46300    1522.3489   -120.50085    1.3774533    -119.1234   -5938.3309    4.3197165    4.3197165    4.3197165   -5938.3309   -73589.792    27881.211    27893.589   -11519.385   -10874.209    3813.9337    80.605698 
   46400    2859.1698   -121.68136    2.5870369   -119.09433      37005.5    4.3008636    4.3008636    4.3008636      37005.5    25881.174    25622.553    59512.774    11073.908   -37583.348   -686.24804    79.554914 
   46500    1755.6975   -120.71758     1.588592   -119.12898    -1824.749     4.307428     4.307428     4.307428    -1824.749    -23150.31    6249.2209    11426.842   -11910.996    54654.757   -4788.6719    79.919746 
   46600    1264.0897   -120.28652     1.143775   -119.14275   -21121.305    4.3293595    4.3293595    4.3293595   -21121.305   -51411.643   -5636.3833   -6315.8891   -31735.277    57906.858     12597.99    81.146714 
   46700    3196.2416   -121.98322    2.8920266    -119.0912   -7029.8085    4.3375748    4.3375748    4.3375748   -7029.8085   -1994.5694   -10244.916   -8849.9401    5564.7339   -17745.911    1526.3387     81.60954 
   46800    1825.8939   -120.75151    1.6521072    -119.0994   -3286.4877    4.3204109    4.3204109    4.3204109   -3286.4877   -210.41079    8588.2899   -18237.342   -219.13137    27898.006    1384.7063    80.644578 
   46900    1199.9814   -120.19219    1.0857684   -119.10642    5572.9831    4.3085361    4.3085361    4.3085361    5572.9831   -12010.163    8115.5756    20613.537   -9606.3471    67163.934   -1292.0549    79.981437 
   47000    2578.4227   -121.43498    2.3330111   -119.10197   -6724.6197    4.3197039    4.3197039    4.3197039   -6724.6197   -18322.658    96.439452   -1947.6411   -10025.322   -21936.842   -3086.5419    80.604992 
   47100    1485.8559   -120.46114    1.3444336   -119.11671    24749.545     4.321068     4.321068     4.321068    24749.545    41817.064    21482.131    10949.439   -10923.641   -60092.397   -441.39874    80.681375 
   47200    1715.2102   -120.67086    1.5519582    -119.1189    21883.822    4.3360654    4.3360654    4.3360654    21883.822    73262.668    3900.7564   -11511.958   -10764.327    37704.257    4517.1402    81.524374 
   47300    2132.1176   -121.01021    1.9291848   -119.08103   -42716.714    4.3490867    4.3490867    4.3490867   -42716.714   -48222.034   -6245.6157   -73682.492     1274.994   -29177.636   -6071.2781     82.26104 
   47400    693.12543   -119.73184   0.62715446   -119.10468   -4156.4821    4.3150805    4.3150805    4.3150805   -4156.4821   -8273.9933    75733.248   -79928.701   -6167.6495    -97727.17    1390.4688    80.346454 
   47500    2328.4219    -121.1701    2.1068051    -119.0633     35992.24    4.2875002    4.2875002    4.2875002     35992.24     69888.02    33370.938    4717.7612    8412.3061    28785.358    37676.129    78.815652 
   47600    2022.6133   -120.92213    1.8301031   -119.09203   -7772.5778    4.3077393    4.3077393    4.3077393   -7772.5778   -19163.368    50529.076   -54683.442   -4407.5801   -53787.271      9781.35     79.93707 
   47700    1690.7903   -120.63511    1.5298626   -119.10525   -9170.4665    4.3260747    4.3260747    4.3260747   -9170.4665   -60849.735    83220.509   -49882.174   -7789.2183   -79662.297    2956.0553    80.962151 
   47800    2601.6644   -121.44371    2.3540407   -119.08966   -8466.7534     4.330639     4.330639     4.330639   -8466.7534    21063.243   -16368.704   -30094.799    4603.8564    29712.148    12751.384    81.218685 
   47900    1250.0013   -120.23362    1.1310275   -119.10259   -23180.609    4.3240065    4.3240065    4.3240065   -23180.609   -33727.849      40380.6   -76194.577    504.50806   -77977.489    10695.386    80.846089 
   48000    1902.7048    -120.8192    1.7216073   -119.09759    2245.3418    4.3094769    4.3094769    4.3094769    2245.3418   -51822.207    68012.005   -9453.7722    12835.512    -60623.93    6631.8279    80.033845 
   48100    2794.2738   -121.61402    2.5283177    -119.0857    13948.538    4.3059249    4.3059249    4.3059249    13948.538   -4571.8843    14166.247    32251.253    19412.515    48392.871   -8238.3803    79.836108 
   48200    1422.3716   -120.40286    1.2869917   -119.11587   -16513.964    4.3199827    4.3199827    4.3199827   -16513.964   -48711.364    28518.834   -29349.362   -3117.4646   -44298.868   -1598.6923      80.6206 
   48300    2143.0321   -121.04037    1.9390605   -119.10131   -12820.882    4.3332232    4.3332232    4.3332232   -12820.882    -55197.27    26830.084    -10095.46    -449.8491   -54097.445     15271.98    81.364164 
   48400    2858.4291   -121.66958    2.5863667   -119.08321   -11691.705     4.325469     4.325469     4.325469   -11691.705    -28149.29   -638.57922   -6287.2474   -18193.613    37611.528   -11556.032     80.92815 
   48500    1154.1357   -120.15236    1.0442863   -119.10807   -8866.1651    4.3094702    4.3094702    4.3094702   -8866.1651   -44719.355    52774.939   -34654.079   -3811.3089   -32982.775   -6824.2991    80.033472 
   48600    2003.6199   -120.91783    1.8129174   -119.10491    2810.8798    4.3057832    4.3057832    4.3057832    2810.8798   -45642.612    43170.909    10904.343   -1858.9658   -46329.201   -23485.399    79.828225 
   48700    3010.2002   -121.82348    2.7236924   -119.09978    12021.433    4.3079548    4.3079548    4.3079548    12021.433    -15315.68   -1263.9548    52643.934   -20133.147    16823.717    13120.936    79.949069 
   48800    1575.0636   -120.55651    1.4251507   -119.13136    5618.1348    4.3076181    4.3076181    4.3076181    5618.1348   -40186.662    18040.798    39000.268    -21879.36   -37775.915   -561.39425    79.930325 
   48900    1869.5762   -120.82542    1.6916318   -119.13378   -2596.9523    4.3179549    4.3179549    4.3179549   -2596.9523   -59624.256    35545.561    16287.838    11268.938   -37011.356   -8547.5615     80.50712 
   49000    3080.9507   -121.88435    2.7877089   -119.09664   -16115.014    4.3263986    4.3263986    4.3263986   -16115.014   -24466.628   -29697.385    5818.9709    7830.9524    26529.613    5751.9569     80.98034 
   49100       1436.3   -120.40838    1.2995944   -119.10879    7167.0711     4.309617     4.309617     4.309617    7167.0711   -12048.373    20001.031    13548.556   -5211.9901   -42487.083    31598.253    80.041651 
   49200    1878.5029   -120.80702    1.6997089   -119.10732    24367.012    4.3060303    4.3060303    4.3060303    24367.012    16584.073    52525.803     3991.159   -2844.1574   -44366.166    11314.734    79.841969 
   49300    2656.4063   -121.49313    2.4035722   -119.08956    954.34342    4.3235018    4.3235018    4.3235018    954.34342   -26542.764    13852.316    15553.478    30879.242    15714.856    -19834.73    80.817781 
   49400    1556.3303   -120.51241    1.4082003   -119.10421    12101.385    4.3137688    4.3137688    4.3137688    12101.385    8159.7023    36211.349   -8066.8957    31256.764   -33749.424    3971.9659    80.273204 
   49500    1838.4521    -120.7641    1.6634701   -119.10063    19573.785    4.3097563    4.3097563    4.3097563    19573.785    43941.342    48705.289   -33925.277   -23045.093   -53628.545    20923.033    80.049411 
   49600    2291.8454   -121.17111    2.0737099    -119.0974   -3654.0635    4.3124117    4.3124117    4.3124117   -3654.0635   -4208.1603   -12131.911    5377.8807     31560.58     15600.32   -3768.1227    80.197468 
   49700    1765.7879   -120.70321     1.597722   -119.10548    38536.912     4.299506     4.299506     4.299506    38536.912    28721.884    40983.507    45905.344    54926.608    10127.821   -1709.4329    79.479601 
   49800    2058.1593   -120.98549    1.8622658   -119.12322    11243.784    4.3085432    4.3085432    4.3085432    11243.784    1859.6768    65520.915   -33649.239   -10431.991   -66532.622    11344.708    79.981831 
   49900    2176.7354   -121.08807    1.9695559   -119.11852   -27083.314    4.3206931    4.3206931    4.3206931   -27083.314   -31853.811    -25545.29   -23850.842    20858.412   -24594.743    16443.611    80.660381 
   50000     1939.063   -120.87093     1.754505   -119.11643    10045.969    4.3018656    4.3018656    4.3018656    10045.969    9051.3238   -22163.775    43250.357    60663.849    25750.132    8170.7218    79.610532 
   50100    2214.7668   -121.11843    2.0039675   -119.11446    28560.955    4.3027872    4.3027872    4.3027872    28560.955    12320.117     60970.78    12391.967   -12656.264   -21472.923   -1998.3419    79.661706 
   50200    2206.4227   -121.10681    1.9964176   -119.11039   -13584.134    4.3241667    4.3241667    4.3241667   -13584.134   -28696.252   -18807.263     6751.115    11974.817   -33834.343    2337.8644    80.855073 
   50300    1776.1613   -120.71166     1.607108   -119.10455   -8709.8123    4.3207242    4.3207242    4.3207242   -8709.8123   -21627.293   -72588.398    68086.253    69177.101    6166.3155    5039.1215    80.662121 
   50400    2653.5241   -121.47714    2.4009644   -119.07618   -5971.1698    4.3240255    4.3240255    4.3240255   -5971.1698    -35564.34    38195.409   -20544.578   -19183.792     37013.95   -13685.809    80.847157 
   50500    1658.7245   -120.58519    1.5008488   -119.08434   -43545.669    4.3279234    4.3279234    4.3279234   -43545.669   -104452.68   -18856.554   -7327.7754    61010.737    1172.4657   -7599.1899    81.065988 
   50600     1379.206   -120.34372    1.2479345   -119.09579    9146.4811    4.3020297    4.3020297    4.3020297    9146.4811   -72581.606    4156.0355    95865.014    96858.173   -17712.156    -1243.949    79.619641 
   50700    2833.6717    -121.6546    2.5639657   -119.09063    22846.532     4.299027     4.299027     4.299027    22846.532   -2737.1734    35770.887    35505.883   -59959.579    2500.9238    1322.7214    79.453042 
   50800    2118.9314   -121.03712    1.9172537   -119.11987   -33877.403     4.309657     4.309657     4.309657   -33877.403   -75450.047   -42769.641    16587.479    4290.2268   -5113.5676    5255.0301    80.043876 
   50900    1724.6366   -120.69458    1.5604874   -119.13409   -1494.5961    4.2939778    4.2939778    4.2939778   -1494.5961     -41460.3      139.319    36837.193    108816.66   -6732.3576    7753.8802    79.173414 
   51000    2296.4844   -121.20945    2.0779074   -119.13154   -762.87107    4.3038279    4.3038279    4.3038279   -762.87107     5052.329   -29628.523    22287.581   -29574.076   -7008.2669    13307.368    79.719522 
   51100    1874.1702   -120.81514    1.6957886   -119.11935   -38222.845    4.3257132    4.3257132    4.3257132   -38222.845   -39228.026   -78284.586    2844.0759   -57497.304    11970.948    7690.4977    80.941857 
   51200     1264.122   -120.26239    1.1438042   -119.11859   -17004.044     4.313587     4.313587     4.313587   -17004.044   -3829.9514   -83901.874    36719.692     80238.59     2224.045   -8941.7545    80.263057 
   51300    2385.2093   -121.26863    2.1581875   -119.11044    9022.9661    4.3001504    4.3001504    4.3001504    9022.9661    53772.399   -24301.103   -2402.3975    40168.483   -16097.618     4338.009    79.515343 
   51400     2528.276   -121.40158    2.2876373   -119.11394    18785.405    4.2976519    4.2976519    4.2976519    18785.405    76035.134   -19323.219   -355.70012   -27469.031    11986.519    21503.874    79.376823 
   51500    896.50456    -119.9555   0.81117616   -119.14433   -6073.9901    4.3066254    4.3066254    4.3066254   -6073.9901   -5644.1724   -73881.292    61303.494    76084.783    770.57443     3356.543     79.87508 
   51600    1792.6972   -120.75942    1.6220701   -119.13735   -2199.3333    4.3212785    4.3212785    4.3212785   -2199.3333     2364.567    -31188.08    22225.513    17143.933   -14841.508   -7775.7425    80.693169 
   51700    2739.4378   -121.58568    2.4787009   -119.10698    3960.2104    4.3225987    4.3225987    4.3225987    3960.2104    31849.631   -4402.7634   -15566.237   -20878.144   -5991.3061   -4497.1219    80.767149 
   51800    1360.3991   -120.35219    1.2309177   -119.12128    21934.575    4.3096683    4.3096683    4.3096683    21934.575   -5755.9186   -3510.9761    75070.618    91406.114   -6442.5378    8921.7447    80.044505 
   51900    1882.6355   -120.80969    1.7034481   -119.10624    30811.411    4.3088022    4.3088022    4.3088022    30811.411    50147.756   -27920.704    70207.181    12598.948    8792.3716    4134.9784    79.996256 
   52000    2422.6417   -121.28535    2.1920572   -119.09329   -7596.3126    4.3234238    4.3234238    4.3234238   -7596.3126   -6502.0677    6268.2765   -22555.146   -27456.378   -5750.3858   -6313.2209    80.813406 
   52100    671.17826   -119.72986    0.6072962   -119.12256   -6047.7518    4.3181633    4.3181633    4.3181633   -6047.7518   -15155.064   -32067.452     29079.26    78865.206   -21735.929   -17287.741    80.518782 
   52200    1454.6548   -120.43599    1.3162022   -119.11979    27095.389    4.3080049    4.3080049    4.3080049    27095.389    42943.751      436.756    37905.659    12686.569   -12620.911    9162.2353    79.951862 
   52300    2622.9676   -121.47252    2.3733162   -119.09921    -1813.699    4.3151689    4.3151689    4.3151689    -1813.699   -354.14602   -4360.1195   -726.83157   -15534.524    8264.8564    26883.252    80.351391 
   52400    1473.9904   -120.46198    1.3336975   -119.12828   -7565.0844    4.3055798    4.3055798    4.3055798   -7565.0844   -29163.411   -31030.738    37498.896    69765.431    6524.9498   -6194.2882    79.816914 
   52500    1475.0911   -120.47195    1.3346934   -119.13726     18562.12    4.2951485    4.2951485    4.2951485     18562.12    41624.353    3291.4018    10770.606    38499.887   -28100.587    -28283.15    79.238191 
   52600    2450.8164   -121.34368    2.2175502   -119.12613   -1773.6315    4.3102444    4.3102444    4.3102444   -1773.6315    38277.309   -6092.4315   -37505.772   -20697.001   -13233.155   -19370.815     80.07661 
   52700    1499.8635   -120.48962     1.357108   -119.13252   -1098.7291     4.313615     4.313615     4.313615   -1098.7291   -8588.6568   -24373.446    29665.916    34637.008    18834.314    11302.962    80.264617 
   52800     1028.281   -120.06169   0.93041026   -119.13128    28212.517    4.3141629    4.3141629    4.3141629    28212.517    27277.774    18479.762    38880.015    41612.251    557.17411   -5846.2184    80.295208 
   52900    2265.9765   -121.14708    2.0503031   -119.09677    12668.956    4.3304048    4.3304048    4.3304048    12668.956    59319.844    12874.631   -34187.607   -6010.4777   -11212.795   -28937.102    81.205506 
   53000    1412.8431     -120.371    1.2783702   -119.09262   -407.50548    4.3269477    4.3269477    4.3269477   -407.50548   -15884.193    15390.893   -729.21635    54692.119    1972.9069   -2310.9467    81.011179 
   53100    1613.3567   -120.53849     1.459799   -119.07869    10915.516    4.3133042    4.3133042    4.3133042    10915.516   -17356.833    9522.3891    40580.992    43350.387    14851.291    6301.8514    80.247268 
   53200    2314.2305   -121.17479    2.0939644   -119.08083   -9487.1332    4.3126984    4.3126984    4.3126984   -9487.1332    8796.6307   -5008.4871   -32249.543   -18826.381   -7063.4271   -21454.666     80.21346 
   53300    1502.9061   -120.48281     1.359861   -119.12295   -17482.599    4.3026575    4.3026575    4.3026575   -17482.599   -36828.165   -3319.6198   -12300.011    11874.842   -53488.071   -30851.518    79.654501 
   53400    941.64603   -120.00305   0.85202112   -119.15103    13372.166    4.2903738    4.2903738    4.2903738    13372.166    -25096.69    8712.0683     56501.12     71380.48   -7885.0003   -16763.517    78.974229 
   53500      2073.17   -121.03796    1.8758477   -119.16211   -4565.9171    4.3037562    4.3037562    4.3037562   -4565.9171    3647.7733     6552.912   -23898.437    10151.477    48088.769    11747.357    79.715539 
   53600    2158.4251   -121.10272    1.9529884   -119.14973   -7984.6535    4.3122949    4.3122949    4.3122949   -7984.6535   -91.186846   -7915.7592   -15947.014   -13280.795    378.90411     37020.72    80.190949 
   53700    1364.1567   -120.38778    1.2343177   -119.15347    -10415.49    4.3082181    4.3082181    4.3082181    -10415.49   -12456.767   -55688.173    36898.472    63319.898   -18782.931    -17194.78    79.963727 
   53800    1716.3665   -120.70907    1.5530044   -119.15607   -16768.932    4.3007748    4.3007748    4.3007748   -16768.932   -2061.9229   -37979.736   -10265.136    43806.919   -25091.585   -29714.443    79.549983 
   53900    2247.6288   -121.18458    2.0337018   -119.15087    11982.965    4.2904911    4.2904911    4.2904911    11982.965    59670.445    66.860655   -23788.411   -30070.012   -8417.5707    9871.3102    78.980705 
   54000    1622.5408    -120.6388     1.468109   -119.17069   -5152.2621    4.2956141    4.2956141    4.2956141   -5152.2621    8348.6263   -62719.531    38914.119    57788.679    24498.294    33644.671    79.263961 
   54100     1412.073   -120.45473    1.2776733   -119.17705   -16242.788    4.3122984    4.3122984    4.3122984   -16242.788   -66025.987     -25052.3    42349.924    76178.474    19701.622    14309.761    80.191145 
   54200    2517.6824    -121.4298    2.2780519   -119.15175    -10240.34    4.3095394    4.3095394    4.3095394    -10240.34   -24827.001    979.51299   -6873.5326    -11860.88     4616.236   -24574.131    80.037326 
   54300    2313.0735   -121.24001    2.0929175   -119.14709    26339.515    4.2970908    4.2970908    4.2970908    26339.515    51564.878   -4272.7611    31726.428   -13945.103   -24952.081    13920.507    79.345736 
   54400    1754.8812   -120.74373    1.5878534   -119.15588   -7145.3006    4.3066573    4.3066573    4.3066573   -7145.3006   -22577.339   -18171.511    19312.948    49829.332   -2491.1922      23465.2    79.876855 
   54500    1723.4208   -120.70382    1.5593874   -119.14444   -21230.924    4.3137225    4.3137225    4.3137225   -21230.924   -31332.779   -2792.5599   -29567.434    28762.691    81640.308   -11210.149    80.270619 
   54600    2377.1349   -121.28961    2.1508816   -119.13872   -3472.6686    4.3100016    4.3100016    4.3100016   -3472.6686   -5782.4036     6896.798     -11532.4   -11607.078    35374.162   -18570.592    80.063081 
   54700    2832.6147   -121.69059    2.5630093   -119.12758    8372.8701    4.3095076    4.3095076    4.3095076    8372.8701    15218.995   -27494.728    37394.343   -8627.5702   -36966.987   -3888.5593    80.035555 
   54800    1215.0113   -120.24763    1.0993677   -119.14826   -4822.4215    4.3024779    4.3024779    4.3024779   -4822.4215   -35036.791    17514.144    3055.3831    12876.907     83126.63    19937.969    79.644529 
   54900    1344.2918   -120.37094    1.2163435    -119.1546    18705.675    4.2999974    4.2999974    4.2999974    18705.675    -48188.89    27227.676    77078.238    28516.784    57765.653   -2281.0946    79.506854 
   55000    2660.5773   -121.55391    2.4073462   -119.14656   -1095.0385    4.3110222    4.3110222    4.3110222   -1095.0385   -26940.149   -5214.3283    28869.362    5898.9548   -46692.337   -3409.5078     80.11997 
   55100    2108.2659   -121.05713    1.9076033   -119.14953   -2805.1168     4.306097     4.306097     4.306097   -2805.1168    -25972.01    15409.267    2147.3923   -22642.599    20833.079     13901.94    79.845679 
   55200    1598.2016   -120.59612    1.4460864   -119.15004    1873.0806    4.3005588    4.3005588    4.3005588    1873.0806   -10364.161   -5558.9367     21542.34    34230.112    55137.708    6636.8516    79.538003 
   55300    1626.9945   -120.62397    1.4721388   -119.15183   -30805.245    4.3117494    4.3117494    4.3117494   -30805.245   -48477.934   -60076.527    16138.727    82743.872   -992.43497    129.64406    80.160521 
   55400    2651.2623   -121.53829    2.3989178   -119.13937   -4152.4776    4.3007258    4.3007258    4.3007258   -4152.4776    3728.1565    -7400.509   -8785.0804   -14825.011   -17994.742   -6151.6823    79.547266 
   55500    2077.8216   -121.03166    1.8800567    -119.1516    6505.8255    4.2936541    4.2936541    4.2936541    6505.8255    12259.887   -16739.408    23996.997   -11512.238   -11363.524    10750.835    79.155512 
   55600    557.78731   -119.68445   0.50469768   -119.17975   -36566.243    4.3080983    4.3080983    4.3080983   -36566.243   -87078.223   -87562.753    64942.247    95961.276    14935.312    14257.624    79.957059 
   55700    2109.3116   -121.05652    1.9085495   -119.14797   -7162.7833    4.3140055    4.3140055    4.3140055   -7162.7833    3554.9316   -24521.156   -522.12601   -1535.5945    26222.014      1924.86    80.286416 
   55800    2743.3511   -121.60315    2.4822417   -119.12091   -7722.4978    4.3230128    4.3230128    4.3230128   -7722.4978    152.64174   -26627.364    3307.2294    6811.2616   -19812.092   -6490.7594    80.790362 
   55900     2047.483   -120.96767    1.8526057   -119.11507   -1512.6538    4.3179579    4.3179579    4.3179579   -1512.6538    31886.159   -68818.235    32394.114    73297.215   -17224.405    1936.1122    80.507292 
   56000    1445.0428   -120.42383    1.3075051   -119.11633    14513.391    4.3020633    4.3020633    4.3020633    14513.391    27477.639   -10460.889    26523.422   -2363.7389    45741.613    17697.675    79.621507 
   56100      1451.76    -120.4472    1.3135829   -119.13361    4082.0098     4.303729     4.303729     4.303729    4082.0098   -16835.699    16700.955    12380.774   -25494.938    34389.666    9087.5345    79.714027 
   56200    2819.6198   -121.67721    2.5512512   -119.12596    2029.4317    4.3133254    4.3133254    4.3133254    2029.4317    31441.634   -26701.041    1347.7021   -3573.9454   -44074.931    -2777.317    80.248455 
   56300    2102.1335   -121.04037    1.9020545   -119.13831   -8378.8117    4.3218536    4.3218536    4.3218536   -8378.8117    8271.4659   -5139.2446   -28268.656   -1744.5503    15914.002    16900.117    80.725393 
   56400    1020.9955   -120.06115   0.92381817   -119.13733   -6286.1003    4.3156655    4.3156655    4.3156655   -6286.1003    24423.309    4654.6873   -47936.297   -28550.344    54849.352    20934.311    80.379135 
   56500    2231.5836   -121.12465    2.0191837   -119.10546    -2556.863    4.3117631    4.3117631    4.3117631    -2556.863    4300.5709   -22318.861    10347.701   -5957.1326   -5953.0676   -45964.592    80.161288 
   56600     2327.532   -121.20412    2.1059999   -119.09812   -23419.569    4.3210694    4.3210694    4.3210694   -23419.569   -27021.694    -39139.17   -4097.8445    43689.935   -11415.844   -4012.6343    80.681456 
   56700    1055.1115   -120.06134   0.95468705   -119.10666   -12027.883    4.3210278    4.3210278    4.3210278   -12027.883   -44364.035    5467.8453    2812.5413    1296.9249    44184.935    45138.193    80.679127 
   56800    1979.9102   -120.90202    1.7914644   -119.11056    521.54521    4.3160935    4.3160935    4.3160935    521.54521   -14448.018    24519.796   -8507.1427   -26945.541    13411.307   -12188.824    80.403052 
   56900    2864.3565   -121.69865    2.5917299   -119.10692    1550.0084    4.3092194    4.3092194    4.3092194    1550.0084   -1448.6423    30501.328   -24402.661    3236.9532   -39746.543    -19898.91    80.019499 
   57000     1564.314    -120.5563    1.4154242   -119.14088    -7777.039    4.2998073    4.2998073    4.2998073    -7777.039    16452.809    27550.265   -67334.191    15636.796      17523.2    40811.567    79.496309 
   57100    1120.3531   -120.17906     1.013719   -119.16534    6.3944799    4.2951361    4.2951361    4.2951361    6.3944799    45084.828    1122.9164   -46188.561   -8688.9762     70642.71    39444.922    79.237506 
   57200    2028.5369   -121.00083    1.8354628   -119.16536   -4689.3587    4.3010953    4.3010953    4.3010953   -4689.3587    13165.868   -1576.2166   -25657.727   -1926.5016   -3695.9308   -13556.962    79.567771 
   57300    2314.9287   -121.25137    2.0945961   -119.15678   -6258.1834    4.3113155    4.3113155    4.3113155   -6258.1834    2182.8699    35990.907   -56948.327   -291.60717   -29912.373   -25436.848    80.136325 
   57400    1922.1645   -120.88523    1.7392148   -119.14602    -14178.01    4.3232662    4.3232662    4.3232662    -14178.01    598.66487    31773.054   -74905.748    -8700.825    38802.483    28779.059    80.804574 
   57500    1791.5905   -120.74974    1.6210687   -119.12867   -5427.9865    4.3192938    4.3192938    4.3192938   -5427.9865    19189.068    5089.6708   -40562.699   -5309.8922    35731.056   -2358.3186    80.582034 
   57600     1508.608   -120.48572    1.3650202    -119.1207    14895.467    4.2979719    4.2979719    4.2979719    14895.467    40662.231    7729.9865   -3705.8169   -7421.0266   -19437.525   -58997.236    79.394552 
   57700    1536.0818   -120.52326    1.3898791   -119.13338    17943.343    4.2881957    4.2881957    4.2881957    17943.343    37851.652    29165.471   -13187.093    2956.4456    23000.134    -22521.73    78.854013 
   57800    2024.5973   -120.97983    1.8318982   -119.14793    1820.8896    4.3012369    4.3012369    4.3012369    1820.8896   -10662.498    49334.254   -33209.087    13915.688    59429.299    30764.294     79.57563 
   57900    1946.1815   -120.90826    1.7609459   -119.14732   -22192.783    4.3177199    4.3177199    4.3177199   -22192.783    5649.1649   -46023.835    -26203.68   -16441.525    3329.4109    4305.6046    80.493978 
   58000    1489.1807   -120.48513     1.347442   -119.13769   -33516.921    4.3210524    4.3210524    4.3210524   -33516.921   -25888.578   -76627.351    1965.1646   -31747.365   -10729.461   -40263.021    80.680504 
   58100    1771.1638   -120.72148    1.6025862    -119.1189   -13608.862    4.3037162    4.3037162    4.3037162   -13608.862   -10589.982    115.11444   -30351.719    4078.5599    24657.143   -3321.7196    79.713315 
   58200    1358.8486   -120.35881    1.2295148    -119.1293   -13731.457    4.2955443    4.2955443    4.2955443   -13731.457    49587.882   -32174.416   -58607.839    2683.9248    14765.576    82781.024    79.260096 
   58300    1535.4168   -120.53162    1.3892773   -119.14234   -17932.873    4.2988422    4.2988422    4.2988422   -17932.873   -4983.7848   -37622.716   -11192.117   -46915.068    5430.3465    33464.274    79.442795 
   58400    2603.3553   -121.49222    2.3555706   -119.13665    7130.7915    4.3012776    4.3012776    4.3012776    7130.7915   -17875.076    16564.518    22702.932   -24822.742   -8492.9026   -27046.215     79.57789 
   58500    1899.9198   -120.87011    1.7190873   -119.15102   -28699.505    4.3136338    4.3136338    4.3136338   -28699.505    32374.032   -25087.101   -93385.445    24451.354    9106.7943    64852.299    80.265665 
   58600    1299.2445   -120.31861    1.1755837   -119.14303   -28501.155    4.3119171    4.3119171    4.3119171   -28501.155     15212.73   -55932.439   -44783.755     -19017.1    24515.376    82158.543    80.169875 
   58700    2233.0874   -121.14115    2.0205444    -119.1206   -4909.0463    4.2990079    4.2990079    4.2990079   -4909.0463   -26826.162   -43926.684    56025.707   -46506.817   -10005.884    -21620.61    79.451979 
   58800    2219.9594   -121.13074    2.0086659   -119.12208   -6645.9675    4.3043785    4.3043785    4.3043785   -6645.9675    23715.862   -20262.918   -23390.847   -2662.7911    5790.2999   -26683.298    79.750122 
   58900    1765.9855   -120.72464    1.5979008   -119.12673   -11745.488    4.3132041    4.3132041    4.3132041   -11745.488    39349.291   -37007.794   -37577.961    2563.3161    13250.773    37990.455    80.241682 
   59000     2214.509   -121.11235    2.0037343   -119.10862    3616.4427    4.3147445    4.3147445    4.3147445    3616.4427   -1701.6192   -47030.027    59580.974   -42855.068   -187.05997     25343.77    80.327684 
   59100    2249.2613   -121.13706    2.0351789   -119.10188   -11432.118     4.315263     4.315263     4.315263   -11432.118   -28495.767   -37267.703    31467.115   -23239.045   -15656.768   -22364.104    80.356649 
   59200    2029.1969   -120.94083      1.83606   -119.10477    2178.4042    4.3082731    4.3082731    4.3082731    2178.4042    61638.814   -17603.575   -37500.026    19002.283    4541.0555    -7516.532    79.966793 
   59300     2030.946   -120.94878    1.8376426   -119.11113    15021.892    4.2987052    4.2987052    4.2987052    15021.892    24652.616    -34806.07    55219.129   -50249.555    25345.871    20451.728    79.435196 
   59400    2072.5739   -121.00204    1.8753084   -119.12673    3890.9492    4.3027363    4.3027363    4.3027363    3890.9492   -37607.593    -5883.153    55163.593   -51711.126    -27456.88   -3574.6487    79.658879 
   59500    2085.4374   -121.02071    1.8869476   -119.13376   -321.58159    4.3036565    4.3036565    4.3036565   -321.58159    15991.616    10463.958   -27420.318    17982.321   -44797.917   -23496.363        79.71 
   59600    1927.7394   -120.88674    1.7442591   -119.14248    19852.467    4.3003914    4.3003914    4.3003914    19852.467    46344.634   -9789.4606    23002.229    -1416.962    24808.037   -4703.8815    79.528715 
   59700    2722.3059   -121.59716    2.4631996   -119.13396   -4996.0138    4.3041789    4.3041789    4.3041789   -4996.0138   -3788.8661   -14529.747    3330.5716   -27413.755     17324.87    19370.407    79.739031 
   59800    1746.0443   -120.72072    1.5798576   -119.14087    6749.6389     4.301857     4.301857     4.301857    6749.6389    24950.959    37136.132   -41838.175    2068.5192   -81176.077    4437.6162    79.610053 
   59900     1440.734    -120.4479    1.3036064    -119.1443   -17652.106    4.3039347    4.3039347    4.3039347   -17652.106   -14376.417     7712.085   -46291.985    16719.294   -46003.814   -19409.245     79.72546 
   60000    2432.1671   -121.32762    2.2006759   -119.12694   -9518.1833    4.3080188    4.3080188    4.3080188   -9518.1833    5797.2826   -27566.862   -6784.9707     17657.57    67155.291   -13732.596    79.952631 
   60100    1946.2348   -120.88844    1.7609941   -119.12744    -9276.478    4.3044675    4.3044675    4.3044675    -9276.478    -15953.98    26329.255   -38204.709   -7763.2115   -67087.907    742.89178    79.755068 
   60200    1740.2583   -120.70546    1.5746223   -119.13084   -18595.494    4.3003299    4.3003299    4.3003299   -18595.494   -30182.657    7327.9158   -32931.742   -9157.6504   -94111.399   -6438.0917    79.525301 
   60300    2165.5953   -121.07887    1.9594761    -119.1194    10300.391    4.2975719    4.2975719    4.2975719    10300.391    60591.249   -44429.468    14739.392    24752.096    47926.441   -26166.042    79.372388 
   60400    1198.1468   -120.22598    1.0841084   -119.14187   -21528.978     4.309874     4.309874     4.309874   -21528.978   -63591.315    10517.888   -11513.507    16674.644   -38165.171   -5337.0845    80.055972 
   60500    1831.1054   -120.78266    1.6568226   -119.12584   -24384.851    4.3143858    4.3143858    4.3143858   -24384.851    -73685.12    21208.722   -20678.155    4286.7766     -87376.4    14450.725    80.307651 
   60600    2295.2272   -121.19067    2.0767698    -119.1139    5187.7472    4.3021556    4.3021556    4.3021556    5187.7472    50207.243    -29371.95   -5272.0506   -4980.1464    7734.4119    7011.0438     79.62663 
   60700    1665.1604   -120.64008    1.5066721   -119.13341   -686.73768    4.2950604    4.2950604    4.2950604   -686.73768   -4147.6818    3364.8962   -1277.4275    17795.487    16129.617   -8340.3979    79.233316 
   60800    1942.1687   -120.89179    1.7573151   -119.13448    5864.3679    4.3038386    4.3038386    4.3038386    5864.3679   -22878.127    37928.403    2542.8281    8761.0612   -9430.4154     -11845.2    79.720117 
   60900    1805.2046   -120.76645    1.6333871   -119.13307   -22015.405    4.3157675    4.3157675    4.3157675   -22015.405    22756.094   -40637.447   -48164.862   -16893.756   -12487.011    57841.389    80.384837 
   61000    1398.4594   -120.39568    1.2653555   -119.13032    57.453846    4.3080539    4.3080539    4.3080539    57.453846    51103.376   -31672.903   -19258.111   -13428.879    1699.6562    34456.939    79.954586 
   61100    2264.8192   -121.16105     2.049256   -119.11179    12993.316    4.3026581    4.3026581    4.3026581    12993.316    10913.056    17006.261     11060.63   -8360.8295    31535.076   -25336.089    79.654535 
   61200    1563.7776   -120.54448    1.4149388   -119.12954   -10146.776    4.3068997    4.3068997    4.3068997   -10146.776    48704.726   -25704.582   -53440.472    19656.588     8279.138    68991.069    79.890341 
   61300    1718.7555    -120.6842    1.5551661   -119.12903    3409.9549    4.3027117    4.3027117    4.3027117    3409.9549    58998.942   -15783.693   -32985.384   -29040.268   -251.47768    53868.167    79.657515 
   61400    2527.1984   -121.40513    2.2866622   -119.11847    8112.4324    4.3022008    4.3022008    4.3022008    8112.4324    2276.9378     3114.207    18946.152   -30779.392   -14430.746   -22095.826    79.629144 
   61500    1072.5096   -120.10997   0.97042918   -119.13954   -28616.181    4.3144156    4.3144156    4.3144156   -28616.181    24274.349   -23273.336   -86849.556   -2787.0421      32830.9    73587.401    80.309319 
   61600    1594.1053   -120.57025      1.44238   -119.12787   -22656.343    4.3131513    4.3131513    4.3131513   -22656.343    26519.053   -12267.368   -82220.713    20796.177     19183.81    54704.044    80.238737 
   61700     2649.071   -121.49527    2.3969351   -119.09833   -9398.3509    4.3153256    4.3153256    4.3153256   -9398.3509   -37465.738    823.51783    8447.1677   -18382.355   -12517.265   -26784.022    80.360146 
   61800    1311.7512   -120.30053       1.1869   -119.11363   -47055.873    4.3237478    4.3237478    4.3237478   -47055.873   -3059.2688   -79472.869    -58635.48   -43207.911    9581.3521    68164.448     80.83158 
   61900    1573.9436   -120.52936    1.4241372   -119.10522   -6337.2589     4.313095     4.313095     4.313095   -6337.2589    52250.993   -17243.922   -54018.847    9876.0831    8624.5661    62596.457    80.235593 
   62000    2321.6803   -121.19483    2.1007051   -119.09412     11339.82    4.3112384    4.3112384    4.3112384     11339.82   -10423.779    16855.346    27587.895    -2148.642    13065.998   -31269.959    80.132023 
   62100    1445.1355   -120.42807     1.307589   -119.12048   -25501.739    4.3107259    4.3107259    4.3107259   -25501.739   -27722.207   -66705.757    17922.748   -42922.236   -4590.3814    26833.652     80.10345 
   62200    1945.1196   -120.87728    1.7599851   -119.11729    11634.407    4.2926246    4.2926246    4.2926246    11634.407    44237.039    6590.9223   -15924.741   -13744.109    -1302.649    60637.838    79.098588 
   62300    1554.8213   -120.54639     1.406835   -119.13956     1517.213    4.3022897    4.3022897    4.3022897     1517.213    2192.1503    18097.705   -15738.216    19112.994    14874.225    -23211.09    79.634077 
   62400     1093.344   -120.13123   0.98928064   -119.14195   -37117.283    4.3236201    4.3236201    4.3236201   -37117.283   -60244.645   -31276.386    -19830.82    3492.2985   -2462.4809    -27722.72    80.824417 
   62500     3229.989   -122.01538     2.922562   -119.09282    1763.7844    4.3186947    4.3186947    4.3186947    1763.7844    15377.773    8468.8152   -18555.235   -16202.863   -5130.6645    11566.986    80.548511 
   62600    1610.5405   -120.57816    1.4572509   -119.12091   -525.58394    4.3201162    4.3201162    4.3201162   -525.58394   -32338.278    51443.827   -20682.301    9020.9713    12008.142    1466.0274    80.628074 
   62700    1526.3624   -120.50171    1.3810848   -119.12063   -23446.949    4.3181915    4.3181915    4.3181915   -23446.949   -23595.184    5393.5263   -52139.189    29602.553    6813.7301   -39419.351     80.52036 
   62800    2123.1029   -121.04018    1.9210281   -119.11915    36426.076    4.3042798    4.3042798    4.3042798    36426.076    121200.27    12153.037   -24075.083    1490.4107   -15101.943    20144.966    79.744634 
   62900    2170.3703   -121.10407    1.9637967   -119.14027    14313.433    4.3092514    4.3092514    4.3092514    14313.433    96079.063   -20655.066   -32483.697   -12760.949   -4168.1209    56305.352     80.02128 
   63000    2274.7149   -121.19526    2.0582099   -119.13705    8776.1478    4.3216075    4.3216075    4.3216075    8776.1478    26112.569    31364.238   -31148.363    24369.795    19188.936   -19581.964      80.7116 
   63100    1561.9391   -120.55781    1.4132753   -119.14453    15382.053    4.3221027    4.3221027    4.3221027    15382.053    4303.6429    65410.267   -23567.751    39817.596     21282.83    12838.307     80.73935 
   63200    1799.1095   -120.76144    1.6278721   -119.13357    7873.2867    4.3208003    4.3208003    4.3208003    7873.2867    37817.473    36699.902   -50897.515     9657.377    4168.2565    44640.675    80.666381 
   63300    2074.5267   -120.97972    1.8770753   -119.10265    12436.728    4.3202252    4.3202252    4.3202252    12436.728    47141.221    27724.883    -37555.92   -8140.4795    -1485.326   -30344.834    80.634178 
   63400    1513.9672   -120.47433    1.3698693   -119.10446     -12322.3    4.3334215    4.3334215    4.3334215     -12322.3   -28348.703    16410.453    -25028.65    32826.607    10751.984   -7786.1574    81.375338 
   63500     2459.522   -121.29527    2.2254272   -119.06984   -19591.718    4.3418686    4.3418686    4.3418686   -19591.718   -15426.026    -27538.93   -15810.198   -16633.728   -5578.2387    14674.207     81.85214 
   63600     1737.523   -120.63233    1.5721473   -119.06019   -12312.163    4.3335099    4.3335099    4.3335099   -12312.163    26618.249    5415.5345   -68970.272   -10059.593   -5274.8201   -71047.072     81.38032 
   63700    1538.6843    -120.4655    1.3922339   -119.07327   -10918.362    4.3204966    4.3204966    4.3204966   -10918.362   -18671.426    10265.282   -24348.943    18041.677    1177.3539    471.22416    80.649375 
   63800     1917.977   -120.83582    1.7354259   -119.10039   -4608.1622    4.3070604    4.3070604    4.3070604   -4608.1622   -15190.999   -20638.885    22005.397   -7752.1024   -10048.317    15820.268    79.899283 
   63900    2780.0633   -121.63297    2.5154597   -119.11751    11798.969    4.2935677    4.2935677    4.2935677    11798.969    43927.086   -4161.4549   -4368.7241   -7663.3956   -3855.1323   -9380.7736    79.150736 
   64000    2180.8025   -121.12556    1.9732359   -119.15232      1448.73    4.3011445    4.3011445    4.3011445      1448.73    4056.2214     14909.48   -14619.511    2041.9526    8495.9868   -26351.587    79.570504 
   64100    993.74038   -120.06862   0.89915718   -119.16946   -7727.1041    4.3191004    4.3191004    4.3191004   -7727.1041   -17233.017    617.42106   -6565.7162    6257.1901   -2677.5184    8777.3433    80.571211 
   64200    1900.7234   -120.85653    1.7198145   -119.13672   -17664.711    4.3368228    4.3368228    4.3368228   -17664.711    7046.7747    16195.137   -76236.045    5929.0236   -8350.2283    53155.476    81.567101 
   64300    2720.9274   -121.55137    2.4619522   -119.08942   -31718.477    4.3376194    4.3376194    4.3376194   -31718.477   -7250.0768   -30198.185    -57707.17   -11214.914    4546.3918   -13063.367     81.61206 
   64400    1136.0577   -120.10686    1.0279289   -119.07894   -20851.723    4.3257011    4.3257011    4.3257011   -20851.723   -36460.128    22335.849    -48430.89    21763.667   -11850.414    7237.8894    80.941175 
   64500    2578.1285   -121.38973    2.3327448   -119.05698    8949.2205    4.3213896    4.3213896    4.3213896    8949.2205    29326.117     33281.14   -35759.595    1669.4626    8747.0736    11798.416    80.699393 
   64600    1854.0725   -120.75876    1.6776037   -119.08115   -20821.348    4.3213916    4.3213916    4.3213916   -20821.348    15598.636    -38531.37   -39531.311   -10407.861    5408.5479    -42726.82    80.699507 
   64700    793.71893   -119.82573   0.71817356   -119.10756   -8371.3599    4.3109555    4.3109555    4.3109555   -8371.3599   -6763.7613   -232.71556   -18117.603    33479.852   -3066.0812   -20741.968    80.116253 
   64800    1991.9732   -120.91925    1.8023792   -119.11688    12172.356    4.3142429    4.3142429    4.3142429    12172.356    58886.182     11553.69   -33922.803    9423.0292   -7954.6697    27297.061    80.299673 
   64900    2322.7092   -121.22337    2.1016361   -119.12173   -12588.472     4.315447     4.315447     4.315447   -12588.472    40972.204   -26265.212   -52472.407   -11210.938    2863.3071    47159.086    80.366927 
   65000     1757.102   -120.71138    1.5898628   -119.12152    46641.494    4.3035549    4.3035549    4.3035549    46641.494    73081.858    41383.307    25459.318    16078.905   -1137.2987    -27161.63    79.704351 
   65100     1087.367   -120.12656   0.98387251   -119.14269    6076.7146    4.3217658    4.3217658    4.3217658    6076.7146    12199.655    23944.472   -17913.983    8422.7684    10992.146    44577.968    80.720472 
   65200    2001.2058   -120.91322    1.8107331   -119.10248   -27020.113    4.3372093    4.3372093    4.3372093   -27020.113    20680.557   -23443.606   -78297.289   -1626.0225    52.624699    67430.039    81.588909 
   65300     2565.183   -121.41281    2.3210315   -119.09177    13660.962    4.3090879    4.3090879    4.3090879    13660.962     15022.64    44013.256   -18053.009    11110.352    7781.7668   -36202.224    80.012174 
   65400    1617.6472   -120.57301    1.4636812   -119.10933    37993.955    4.2956939    4.2956939    4.2956939    37993.955   -4064.6682    86388.643    31657.889    11591.201   -100.35424    13675.173     79.26838 
   65500     2335.582   -121.22745    2.1132837   -119.11417    380.19849    4.3122216    4.3122216    4.3122216    380.19849    653.71756   -3313.3769    3800.2548    5691.7372   -14567.037    44327.906    80.186861 
   65600    1898.4723   -120.83889    1.7177776   -119.12111    22888.917    4.3145744    4.3145744    4.3145744    22888.917    61160.607    56721.837   -49215.692    5544.2631    5625.0964   -55554.001    80.318187 
   65700    1499.0079   -120.48993    1.3563339    -119.1336   -13406.884    4.3261277    4.3261277    4.3261277   -13406.884    19069.819   -16240.994   -43049.478     8481.114   -10372.074   -24159.367    80.965129 
   65800     2201.105   -121.09173     1.991606   -119.10013   -34181.424    4.3321533    4.3321533    4.3321533   -34181.424   -27650.405   -17165.275   -57728.592    30488.772   -12534.669    19546.994    81.303914 
   65900    2600.0089   -121.44203    2.3525427   -119.08949     3458.658    4.3077533    4.3077533    4.3077533     3458.658    39624.681   -11512.152   -17736.555    10314.854    5803.4332   -55980.265    79.937854 
   66000    2065.0578   -120.97351    1.8685077     -119.105     13208.33    4.2954426    4.2954426    4.2954426     13208.33    30961.123    7845.3085    818.55987    -5118.204    9051.0393   -31013.315    79.254469 
   66100     1309.344   -120.33136     1.184722   -119.14664   -7972.1882    4.3054263    4.3054263    4.3054263   -7972.1882   -26080.132    63288.019   -61124.451    4559.1675   -10360.044     26470.94    79.808378 
   66200    2134.5854    -121.0774    1.9314178   -119.14599    6428.5731     4.318879     4.318879     4.318879    6428.5731    6864.3273    49160.263   -36738.871    849.77455   -10183.627    51611.538    80.558821 
   66300     2983.567   -121.82039    2.6995941    -119.1208   -5100.6458    4.3203743    4.3203743    4.3203743   -5100.6458     18978.15   -25203.022   -9077.0652    6081.8873    127.83629    6790.7204    80.642527 
   66400    1983.4794   -120.93166    1.7946939   -119.13696    1870.0234    4.3065648    4.3065648    4.3065648    1870.0234   -52626.716    101201.43   -42964.645    124.02849    2895.3104   -26586.414    79.871703 
   66500    1932.2548   -120.88881    1.7483447   -119.14046    5630.6999    4.2979181    4.2979181    4.2979181    5630.6999   -28301.477    96430.105   -51236.528   -10123.449    8221.9685    39787.587    79.391571 
   66600    3096.4141   -121.92608    2.8017005   -119.12438    22190.463    4.3006032    4.3006032    4.3006032    22190.463    33796.047    56822.657   -24047.315    7252.2389    3374.0709    10405.597    79.540466 
   66700    1401.6075   -120.42849    1.2682039   -119.16029   -3506.2679    4.3136512    4.3136512    4.3136512   -3506.2679   -13144.062    55140.884   -52515.626    7632.7486   -210.94788   -43492.581    80.266638 
   66800    1156.6877   -120.19875    1.0465954   -119.15215   -29650.158    4.3263454    4.3263454    4.3263454   -29650.158    -28027.16    8544.1999   -69467.515   -3835.2705    6040.9805   -15063.017     80.97735 
   66900    2488.4548   -121.36078    2.2516062   -119.10918    10546.208    4.3220825    4.3220825    4.3220825    10546.208    95312.067   -16734.195    -46939.25   -3108.3131   -5.0743912    50223.104    80.738215 
   67000    2039.5742   -120.95166    1.8454496   -119.10621   -16864.606    4.3174126    4.3174126    4.3174126   -16864.606   -6301.5184   -23520.228    -20772.07    2799.7192   -5257.9498    10635.147    80.476796 
   67100    1906.9048   -120.82996    1.7254075   -119.10455    5818.4846    4.3017932    4.3017932    4.3017932    5818.4846    23428.911    -1155.336   -4818.1216    7935.1049   -4382.9578   -25358.505     79.60651 
   67200    884.28517   -119.93616   0.80011981   -119.13604    19495.069    4.2973342    4.2973342    4.2973342    19495.069    106383.88    19606.637   -67505.308    273.15303   -8935.7808    90087.886    79.359218 
   67300    1849.3801   -120.81879     1.673358   -119.14543   -22114.178    4.3144952    4.3144952    4.3144952   -22114.178    41797.122   -18947.863   -89191.792   -5147.4763    5589.9185    42396.015    80.313761 
   67400    2613.0154   -121.48346    2.3643112   -119.11915    10042.096    4.3091638    4.3091638    4.3091638    10042.096    32698.151    18337.348    -20909.21   -6340.5856    5901.0333   -63958.987    80.016399 
   67500    1465.6812   -120.45626    1.3261792   -119.13008    19557.814    4.3144813    4.3144813    4.3144813    19557.814    86420.961    1018.8375   -28766.357   -4077.8914    -6024.708     66423.44    80.312986 
   67600     1627.132   -120.57975    1.4722632   -119.10748   -28996.229    4.3281409    4.3281409    4.3281409   -28996.229    62824.111   -74542.757   -75270.041    -5944.592   -5342.5468     39168.03    81.078213 
   67700      1870.57   -120.78706    1.6925311   -119.09452   -16884.725    4.3081911    4.3081911    4.3081911   -16884.725     50290.92   -51583.137   -49361.957    8300.4354    735.48996   -112420.64    79.962228 
   67800    2334.9134    -121.2018    2.1126787   -119.08912    17200.727    4.3024068    4.3024068    4.3024068    17200.727    61019.764    24668.473   -34086.057    9974.9117   -2076.0015     17157.99    79.640579 
   67900    1619.2061   -120.56848    1.4650917   -119.10339    -2111.534    4.3192546    4.3192546    4.3192546    -2111.534    65591.979   -12083.718   -59842.862    7572.1925   -10240.678    25757.184    80.579841 
   68000    714.09836   -119.76005    0.6461312   -119.11392   -5067.4834    4.3220438    4.3220438    4.3220438   -5067.4834    66642.345   -1189.5898   -80655.205   -4133.1884   -1134.7041   -99271.693     80.73605 
   68100    2816.6111    -121.6329    2.5485289   -119.08437   -5524.1475    4.3265964    4.3265964    4.3265964   -5524.1475    -28145.67    64724.708    -53151.48   -2697.5654    13799.451    20423.318    80.991444 
   68200    1807.6476   -120.72727    1.6355975   -119.09167   -20700.096    4.3182901    4.3182901    4.3182901   -20700.096     42382.79   -33609.135   -70873.942    3850.0844    9692.7875   -70284.043    80.525873 
   68300    1377.5572    -120.3332    1.2464427   -119.08676    25224.876    4.2931634    4.2931634    4.2931634    25224.876    107264.29   -1414.0627   -30175.602    505.79174    -1581.683    -79889.42    79.128377 
   68400    2581.6838   -121.42688    2.3359618   -119.09091    8824.9338    4.3068862    4.3068862    4.3068862    8824.9338    14786.987    25137.151   -13449.337   -5359.9054   -9730.6382    62388.369    79.889592 
   68500    1250.3893   -120.23508    1.1313786    -119.1037    -21242.08    4.3298769    4.3298769    4.3298769    -21242.08    13881.503   -57867.562   -19740.182    20090.409    17634.764   -56190.043    81.175814 
   68600     1599.436   -120.54812    1.4472033   -119.10092   -57.292258    4.3150007    4.3150007    4.3150007   -57.292258     16595.68     11363.81   -28131.367    12600.291    8830.7415    -70268.49    80.341997 
   68700     2375.603   -121.23926    2.1494955   -119.08977    22881.196     4.307394     4.307394     4.307394    22881.196    27286.218     43426.17   -2068.8007   -14487.481    -17699.81    46057.765    79.917853 
   68800    1614.6984   -120.57021    1.4610131   -119.10919   -6114.0223    4.3180357    4.3180357    4.3180357   -6114.0223    29009.918   -21779.724   -25572.261   -7987.2528   -3724.0897   -32136.551    80.511644 
   68900    1816.8595   -120.74863    1.6439327    -119.1047    9587.4901    4.3121797    4.3121797    4.3121797    9587.4901    24652.987    42129.505   -38020.022    9223.6924     24973.65   -57950.396    80.184523 
   69000    2224.9157    -121.1113    2.0131505   -119.09815   -1920.0583    4.3202587    4.3202587    4.3202587   -1920.0583   -15515.057    28967.673   -19212.791   -4415.5577    -23221.17    27862.159     80.63605 
   69100      1179.42   -120.16809     1.067164   -119.10093   -39179.275    4.3299404    4.3299404    4.3299404   -39179.275   -8717.2004   -53746.252   -55074.373   -10646.672   -36088.461   -11536.886    81.179383 
   69200    1862.0656   -120.77777    1.6848361   -119.09293    16805.715    4.3135836    4.3135836    4.3135836    16805.715     32208.78    38624.895   -20416.529    3406.0576     23270.96   -57474.557    80.262864 
   69300    2495.1097   -121.34402    2.2576277   -119.08639   -836.54661    4.3131634    4.3131634    4.3131634   -836.54661   -17012.756    34470.826    -19967.71   -2939.0996   -15333.059    15712.174     80.23941 
   69400    938.15901   -119.96078   0.84886599   -119.11191   -11789.192    4.3157229    4.3157229    4.3157229   -11789.192   -4848.9944    26641.124   -57159.705    2877.2515   -32198.807    7124.6677    80.382341 
   69500    2157.9557   -121.06097    1.9525637    -119.1084    14540.532    4.3084434    4.3084434    4.3084434    14540.532    56547.577   -34988.133    22062.153    -20417.48    8282.2414   -44961.743    79.976275 
   69600    2293.3928   -121.18902      2.07511   -119.11391   -9673.0191    4.3155994    4.3155994    4.3155994   -9673.0191    2261.5946     20447.18   -51727.832    692.49323    10857.066    2432.7939    80.375442 
   69700    671.88611   -119.75012   0.60793667   -119.14218   -10226.025    4.3086932    4.3086932    4.3086932   -10226.025    18132.978    51004.339   -99815.392    15876.912   -10122.502    45037.401    79.990186 
   69800    1834.7431   -120.79409    1.6601141   -119.13397    22500.689    4.3052886    4.3052886    4.3052886    22500.689     97682.04    12390.896   -42570.869   -2845.0419   -28629.313    2397.7901    79.800719 
   69900    2678.4316   -121.54435    2.4235012   -119.12085   -6875.5984    4.3180283    4.3180283    4.3180283   -6875.5984    16056.396   -16005.156   -20678.035   -33944.299    18466.162   -7942.0245    80.511229 
   70000    996.40538   -120.03622   0.90156853   -119.13465   -1175.0948     4.318661     4.318661     4.318661   -1175.0948    20833.381    42878.746   -67237.411   -16949.438   -7454.8671    29887.952    80.546624 
   70100    1813.7898   -120.75137    1.6411551   -119.11021    6551.0048    4.3229152    4.3229152    4.3229152    6551.0048   -3365.5903    78609.822   -55591.217     3376.149    1547.9928    27886.024    80.784894 
   70200    1807.5457   -120.73176    1.6355054   -119.09626   -16997.756    4.3299357    4.3299357    4.3299357   -16997.756    13062.376    5988.0776   -70043.721   -14798.583   -1733.7219   -45135.219    81.179123 
   70300    1010.4905   -120.02447   0.91431301   -119.11016   -14950.063    4.3155914    4.3155914    4.3155914   -14950.063   -477.90342   -8719.4106   -35652.876   -37777.048   -16043.071   -41670.904    80.374997 
   70400    2657.0018   -121.50269     2.404111   -119.09858    7662.0468    4.3080198    4.3080198    4.3080198    7662.0468   -28102.684    44244.037    6844.7874   -16517.165   -21613.197    17908.693    79.952687 
   70500    1888.6272   -120.82123    1.7088696   -119.11236   -15529.422    4.3241403    4.3241403    4.3241403   -15529.422    35006.864   -27462.524   -54132.607    4297.4843   -11355.537   -36662.914    80.853594 
   70600     1271.696   -120.25345    1.1506573   -119.10279   -19206.598    4.3290539    4.3290539    4.3290539   -19206.598    18833.122    -56908.32   -19544.596    8163.1721    16882.674   -54802.223    81.129535 
   70700     2790.551   -121.59946    2.5249492   -119.07451    10071.169     4.325146     4.325146     4.325146    10071.169   -6090.2314    16184.374    20119.363      93.1112   -7568.9095    22831.955    80.910022 
   70800    1605.5529   -120.55204     1.452738    -119.0993   -27169.293    4.3207983    4.3207983    4.3207983   -27169.293    14472.174   -97301.041    1320.9868   -2031.2748    -5658.315   -25871.563    80.666271 
   70900    866.22582   -119.91006   0.78377932   -119.12628   -18031.585    4.2943436    4.2943436    4.2943436   -18031.585    58119.237   -108660.04   -3553.9497    22263.944     16936.26   -55845.212    79.193652 
   71000    3023.4422   -121.84362    2.7356741   -119.10794    36294.918     4.287633     4.287633     4.287633    36294.918    15226.378    33029.234    60629.143    3893.0204   -15523.644    12739.646    78.822974 
   71100    2064.8701   -121.00319    1.8683379   -119.13485   -12229.678     4.320727     4.320727     4.320727   -12229.678    -11488.49   -71545.565     46345.02   -21240.457   -3138.5932   -19237.624     80.66228 
   71200    1129.6212   -120.14686     1.022105   -119.12476   -32433.892    4.3268562    4.3268562    4.3268562   -32433.892    7474.1026   -103737.39   -1038.3873   -9413.6024   -2367.9231   -42485.496    81.006039 
   71300    2405.5587    -121.2772    2.1766001    -119.1006     14885.13    4.3198565    4.3198565    4.3198565     14885.13   -6977.6719    3793.5343    47839.529    8318.2622   -6692.5938    12632.158    80.613535 
   71400    2105.8235   -121.00929    1.9053933   -119.10389     10449.66    4.3190577    4.3190577    4.3190577     10449.66   -33945.234   -24435.261    89729.475   -10891.454    20509.166   -2566.3065    80.568822 
   71500    563.77454   -119.62703   0.51011505   -119.11691    32915.497    4.3215711    4.3215711    4.3215711    32915.497   -5109.5508    37851.741    66004.301   -19206.064    12271.389   -67224.597    80.709562 
   71600    2573.2276   -121.41479    2.3283104   -119.08648    4905.8482    4.3400219    4.3400219    4.3400219    4905.8482   -38347.032    12823.006    40241.571    6506.0978    9326.0412    -3711.528    81.747739 
   71700    2802.9831   -121.61107     2.536198   -119.07487    1971.4735    4.3275458    4.3275458    4.3275458    1971.4735   -26365.521    19655.482     12624.46   -10400.234   -6118.7101    9303.5924    81.044775 
   71800    1117.9398   -120.11333    1.0115354   -119.10179    12195.285    4.3046517    4.3046517    4.3046517    12195.285    20119.082   -27030.342    43497.115   -20885.357    913.21081   -82494.295    79.765309 
   71900     2160.753   -121.07485    1.9550947   -119.11975    5718.8015    4.3112263    4.3112263    4.3112263    5718.8015   -29462.638   -21257.626    67876.669   -12574.213   -5779.3972   -24543.467     80.13135 
   72000    2704.0195   -121.55794    2.4466537   -119.11129    23717.768    4.3122669    4.3122669    4.3122669    23717.768    -16728.49    9597.7937    78284.001    1296.8497   -15058.521     32722.69    80.189387 
   72100    777.21566   -119.85721   0.70324106   -119.15397    2806.4242    4.3179769    4.3179769    4.3179769    2806.4242    57374.273   -21776.253   -27178.747    5216.5882    4909.5064   -40224.166    80.508355 
   72200     2008.553   -120.95084     1.817381   -119.13346   -18385.674    4.3279587    4.3279587    4.3279587   -18385.674    11146.572   -47720.425    -18583.17    -13824.92   -2731.0314     -48666.3    81.067973 
   72300    2726.6131   -121.56659    2.4670968   -119.09949     18198.67    4.3257472    4.3257472    4.3257472     18198.67   -24916.951    25439.085    54073.875    7573.3442    12863.249   -281.25432    80.943767 
   72400    1260.3243   -120.25555    1.1403679   -119.11518   -3037.7663    4.3232454    4.3232454    4.3232454   -3037.7663    7877.5477   -51608.425    34617.579    11424.298    15351.012   -47888.403    80.803408 
   72500    2054.0546   -120.95067    1.8585518   -119.09212   -24817.078    4.3230712    4.3230712    4.3230712   -24817.078    24571.343   -68632.814   -30389.763   -3342.7978   -6902.6517   -267.62625    80.793636 
   72600    2271.3808   -121.13622    2.0551931   -119.08103    21902.718    4.3153834    4.3153834    4.3153834    21902.718     279.2573    37514.382    27914.515    412.68175    6230.4043    28944.272    80.363376 
   72700    998.08289   -120.01463   0.90308638   -119.11155    8134.8113    4.3231832    4.3231832    4.3231832    8134.8113    10431.885   -39782.269    53754.818    20601.284   -328.02181   -66810.084     80.79992 
   72800    2006.1358   -120.91312    1.8151939   -119.09792    -17490.37    4.3395172    4.3395172    4.3395172    -17490.37   -16830.322   -29933.137   -5707.6497     13540.82   -7534.9929   -32785.647    81.719225 
   72900    2962.0768   -121.76911    2.6801493   -119.08896    1071.1361    4.3222761    4.3222761    4.3222761    1071.1361   -6764.6494    24891.858   -14913.801   -756.81895   -14964.255    25201.313    80.749066 
   73000    1540.9889   -120.50697    1.3943191   -119.11266    20796.733    4.2914198    4.2914198    4.2914198    20796.733     32748.63    6064.1898    23577.378   -2590.7101    -4241.704   -80044.549    79.032004 
   73100    1539.1818   -120.53199     1.392684   -119.13931    10138.147    4.2957029    4.2957029    4.2957029    10138.147    1699.8342   -3624.3485    32338.955    31181.385    12650.458   -52265.609     79.26888 
   73200      1907.42   -120.85696    1.7258737   -119.13109    4234.3358    4.3166832    4.3166832    4.3166832    4234.3358   -5239.9952   -39787.997    57730.999    30416.194    1743.1606    35748.092    80.436013 
   73300    1538.5892   -120.51347    1.3921479   -119.12133    17975.067     4.322165     4.322165     4.322165    17975.067    53414.165   -9890.3198    10401.357   -8476.5209   -9268.4694    6886.6922    80.742843 
   73400    1693.0468   -120.64329    1.5319044   -119.11139   -8150.8666    4.3280344    4.3280344    4.3280344   -8150.8666    34396.988   -51270.623   -7578.9649    23112.559    -5894.463   -44941.294    81.072227 
   73500    1747.9141   -120.68915    1.5815494    -119.1076   -27513.287    4.3198158    4.3198158    4.3198158   -27513.287    2053.3688   -84618.174    24.943877     53263.65     20781.21     -12620.6    80.611258 
   73600    2413.7547   -121.28847     2.184016   -119.10445     25694.22    4.2877149    4.2877149    4.2877149     25694.22    71557.276   -10419.645    15945.027    -11628.38   -8360.3609    41923.953    78.827492 
   73700    1844.6644   -120.80413    1.6690911   -119.13504    7552.7051    4.2899155    4.2899155    4.2899155    7552.7051    24191.531   -9676.2498     8142.834    17294.082   -21849.647   -10482.758    78.948921 
   73800    867.00301   -119.94266   0.78448254   -119.15817   -43076.342    4.3176666    4.3176666    4.3176666   -43076.342    2418.7247   -111055.58   -20592.171    80527.053   -5558.0222   -44332.616    80.490996 
   73900    2149.5827   -121.07496    1.9449876   -119.12997   -20368.865    4.3240036    4.3240036    4.3240036   -20368.865    13134.126   -79870.878    5630.1556   -21548.306    10470.599    -15717.37    80.845926 
   74000    2577.0018   -121.44233    2.3317254   -119.11061   -19451.012    4.3281324    4.3281324    4.3281324   -19451.012   -32749.548   -42476.758    16873.272    832.92951    -2617.177    13687.895    81.077738 
   74100       1049.8   -120.08035   0.94988113   -119.13047   -35083.732    4.3173033    4.3173033    4.3173033   -35083.732   -26048.409     -81023.9    1821.1113    64390.267   -34934.692     -27648.1    80.470681 
   74200    1245.0912   -120.25415    1.1265846   -119.12756    24341.658    4.2901148    4.2901148    4.2901148    24341.658    45611.064   -1635.9523    29049.863    10470.757   -16449.627   -73781.471    78.959929 
   74300     2844.095   -121.70299    2.5733969   -119.12959    35788.029    4.3030608    4.3030608    4.3030608    35788.029    63734.472    6209.0077    37420.608   -20801.052   -11559.482   -1376.9323    79.676901 
   74400    1895.6568   -120.85058    1.7152301   -119.13535    16723.206    4.3276399    4.3276399    4.3276399    16723.206   -2031.0018   -2147.0508    54347.672    28226.179   -716.65287    12655.717    81.050064 
   74500    1288.8193   -120.28524    1.1661508   -119.11909   -2221.6061    4.3376243    4.3376243    4.3376243   -2221.6061    13312.965   -20877.438    899.65478    27783.449   -27624.695   -45062.736    81.612335 
   74600    2566.9483    -121.3989    2.3226288   -119.07627   -5713.8654    4.3329618    4.3329618    4.3329618   -5713.8654    47631.413   -23703.439   -41069.569   -6965.2311   -12684.091   -14763.745    81.349445 
   74700     1726.208   -120.64617    1.5619092   -119.08427    16022.105    4.3068768    4.3068768    4.3068768    16022.105    40351.079    4348.0607    3367.1753     16808.41     23071.04    23942.007    79.889069 
   74800    1159.4202   -120.16405    1.0490677   -119.11498    1903.7174    4.2972406    4.2972406    4.2972406    1903.7174    14477.327   -35190.329    26424.154    49705.394    615.79135   -18157.974    79.354036 
   74900    2787.1703     -121.636    2.5218903   -119.11411    3305.2256    4.3037763    4.3037763    4.3037763    3305.2256    34667.991   -16259.282   -8493.0319    14658.928    -29061.77   -19593.867    79.716655 
   75000    2293.6741   -121.21288    2.0753645   -119.13752   -11862.813    4.3158803    4.3158803    4.3158803   -11862.813    1177.7232    -8520.717   -28245.444   -13978.711    -20326.52    15752.098    80.391137 
   75100    1686.3991   -120.66623    1.5258894   -119.14034   -21091.024     4.320118     4.320118     4.320118   -21091.024   -23513.957   -58811.105    19051.989    46402.024    34651.911    15514.328    80.628174 
   75200    2061.3449   -120.99017    1.8651481   -119.12503    4295.4335     4.307825     4.307825     4.307825    4295.4335    13111.649   -5133.4537    4908.1053    27848.072   -6836.8134    6245.8906    79.941845 
   75300    1969.4871   -120.91175    1.7820333   -119.12972    -4124.934    4.3048377    4.3048377    4.3048377    -4124.934   -7404.3281    53881.987   -58852.461   -17363.531   -98449.159    3319.3969    79.775651 
   75400    2381.5496   -121.27654    2.1548761   -119.12166    3155.9027     4.303892     4.303892     4.303892    3155.9027    25357.659    5417.7105   -21307.661    5705.2267   -15569.157    15075.598    79.723087 
   75500    2038.2115   -120.96687    1.8442166   -119.12265   -13389.875    4.3149729    4.3149729    4.3149729   -13389.875    15506.744   -14387.655   -41288.715    20838.206   -1365.5035    16531.608    80.340443 
   75600    936.74214   -119.97941   0.84758397   -119.13183   -47165.687    4.3271676    4.3271676    4.3271676   -47165.687    -76153.33    58538.237   -123881.97    3284.6517   -100033.26    -4892.815    81.023526 
   75700    2271.5746   -121.17223    2.0553684   -119.11686   -14287.652     4.308889     4.308889     4.308889   -14287.652    1579.7953    3333.6263   -47776.377   -7767.7806    -3031.672    399.10047    80.001095 
   75800    2166.0157   -121.06759    1.9598566   -119.10774    16582.829    4.2938638    4.2938638    4.2938638    16582.829    64937.538   -8494.9214   -6694.1314   -11051.103     13369.52    8965.1781    79.167108 
   75900    761.62376   -119.83486   0.68913318   -119.14573   -27013.703    4.3045415    4.3045415    4.3045415   -27013.703     -53224.1    34780.997   -62598.007    9111.1475   -127248.92    9831.1309    79.759184 
   76000    1887.9733   -120.84146    1.7082779   -119.13318    1619.1469    4.3135623    4.3135623    4.3135623    1619.1469   -21873.602    20001.892    6729.1505    20212.731    -38666.46     2099.687    80.261676 
   76100    2807.6588   -121.65463    2.5404287    -119.1142    1930.8653    4.3139155    4.3139155    4.3139155    1930.8653   -18446.141    3398.4075    20840.329   -2111.6281    12181.073   -6984.9487    80.281394 
   76200    933.08026   -119.98094   0.84427063   -119.13667   -32500.472    4.3192558    4.3192558    4.3192558   -32500.472   -95085.004     50448.98   -52865.394   -10595.764   -111881.05     15759.56     80.57991 
   76300    1955.9996   -120.87632    1.7698296   -119.10649   -7783.7113    4.3135729    4.3135729    4.3135729   -7783.7113   -29180.693    26989.134   -21159.575   -17177.786   -10899.872    8601.3416    80.262268 
   76400    2021.6249   -120.92276    1.8292087   -119.09355    20260.813    4.3084936    4.3084936    4.3084936    20260.813    4423.3411    54167.405    2191.6911    12820.012   -1104.4299    1849.9836    79.979071 
   76500    1140.5864    -120.1506    1.0320265   -119.11858   -9225.7893     4.311869     4.311869     4.311869   -9225.7893   -17522.112    45127.672   -55282.928    8884.6104   -99371.662   -15134.494    80.167192 
   76600    2458.6994   -121.32889    2.2246828   -119.10421    15830.025    4.3090932    4.3090932    4.3090932    15830.025    46854.043    25317.606   -24681.576   -710.68366    12048.045   -13759.261    80.012469 
   76700    1905.0479   -120.84038    1.7237274   -119.11665    6857.4137    4.3093372    4.3093372    4.3093372    6857.4137    6929.5575    30671.088   -17028.404   -15718.254    -44601.49   -660.03802    80.026063 
   76800    1372.0092   -120.36985    1.2414228   -119.12843   -22424.784    4.3215396    4.3215396    4.3215396   -22424.784   -65788.919    44248.391   -45733.825   -16487.229   -108419.52    -545.3492    80.707797 
   76900    3009.6412   -121.81739    2.7231866    -119.0942    8957.1227    4.3293136    4.3293136    4.3293136    8957.1227    57569.579   -806.48999   -29891.721    13007.393    28486.543   -13849.952    81.144135 
   77000    1749.5931   -120.69346    1.5830686   -119.11039   -21644.577    4.3298488    4.3298488    4.3298488   -21644.577   -82341.659    66401.799   -48993.873   -12689.563   -55206.984   -9088.5846    81.174231 
   77100    1612.7584   -120.55807    1.4592577   -119.09881   -6991.7082    4.3113902    4.3113902    4.3113902   -6991.7082   -61898.831    70644.679   -29720.973   -16655.813    -75407.89    2527.9597    80.140487 
   77200    2665.7811   -121.48728    2.4120548   -119.07523    16872.019    4.3095646    4.3095646    4.3095646    16872.019    77351.658   -28074.101    1338.4993    18201.345     33262.75   -12000.754    80.038728 
   77300    1288.4323   -120.26952    1.1658006   -119.10372   -1166.0008    4.3242167    4.3242167    4.3242167   -1166.0008    22251.094    45690.386   -71439.481     7177.349   -59599.964   -18455.429    80.857881 
   77400    1838.5825   -120.75684    1.6635881   -119.09325    4117.2255    4.3384588    4.3384588    4.3384588    4117.2255   -605.65126    19893.758   -6936.4304   -13877.422   -55574.935    178.22616    81.659444 
   77500    2511.0526   -121.34232    2.2720532   -119.07027   -19326.366    4.3417168    4.3417168    4.3417168   -19326.366     38566.26   -65325.804   -31219.554    23.252616    29655.931   -6602.6629    81.843555 
   77600    1140.4942   -120.12233    1.0319431   -119.09039   -409.18893    4.3100629    4.3100629    4.3100629   -409.18893    12845.779     22554.29   -36627.635    -3285.176   -54045.264   -32267.353    80.066496 
   77700     2029.131   -120.91234    1.8360003   -119.07634    38970.052    4.2893563    4.2893563    4.2893563    38970.052    13800.363    63108.168    40001.625    8939.9823   -51141.569   -18494.392    78.918056 
   77800    2120.9919   -121.02373    1.9191181   -119.10461    8417.3663    4.3083521    4.3083521    4.3083521    8417.3663    79454.932   -32524.931   -21677.902    14254.653    24067.292    55908.996    79.971193 
   77900    1637.4024   -120.59494    1.4815561   -119.11338    9873.7902    4.3213457    4.3213457    4.3213457    9873.7902    67346.443   -11624.537   -26100.535    10441.576   -11566.086    10982.563    80.696935 
   78000    2276.4036   -121.15226    2.0597378   -119.09253     6877.534    4.3391489    4.3391489    4.3391489     6877.534    25065.642    9828.9102    -14261.95    13313.115   -24041.146   -29367.151    81.698418 
   78100    1578.0959   -120.50409    1.4278943   -119.07619   -54648.205    4.3526851    4.3526851    4.3526851   -54648.205   -5654.4509   -94535.665     -63754.5    11755.005    14821.433    87205.907    82.465398 
   78200    2334.9786   -121.16082    2.1127377   -119.04808   -29967.488    4.3232584    4.3232584    4.3232584   -29967.488   -12656.799   -44614.971   -32630.695   -9494.5693    20923.576    6592.4419    80.804132 
   78300    1998.3204   -120.84396    1.8081223   -119.03584    10892.726     4.301589     4.301589     4.301589    10892.726    55968.147    -15157.88   -8132.0879   -2397.0185   -17012.209   -68.791343    79.595173 
   78400    849.14693   -119.85772   0.76832598    -119.0894   -19863.492    4.3208022    4.3208022    4.3208022   -19863.492     104320.2   -113792.17   -50118.502    8528.7718   -9696.2238    100184.68    80.666487 
   78500    2485.1785   -121.32129    2.2486417   -119.07265   -2390.9539    4.3359643    4.3359643    4.3359643   -2390.9539    14169.868   -30664.446    9321.7169    3528.3627     2287.989   -26468.859    81.518674 
   78600    1783.4637   -120.69958    1.6137154   -119.08586   -7630.8354     4.328874     4.328874     4.328874   -7630.8354    1117.3187   -5469.3403   -18540.484   -7167.1272   -4492.4901    37143.579    81.119419 
   78700    1104.7899   -120.11085   0.99963715   -119.11121   -24040.611    4.3103535    4.3103535    4.3103535   -24040.611    10985.347   -51001.499   -32105.681   -1351.3985   -33896.965    87807.919    80.082693 
   78800    2297.3854   -121.18757    2.0787226   -119.10885    6959.6739    4.2954376    4.2954376    4.2954376    6959.6739   -2954.9137    38676.969   -14843.034    26737.359   -28447.402   -16013.474    79.254191 
   78900    2478.1817   -121.37588    2.2423108   -119.13357     19478.56    4.2960565    4.2960565    4.2960565     19478.56        32532    33498.645   -7594.9651    10920.412    21802.071    -1017.424    79.288456 
   79000    1898.0213   -120.87292    1.7173696   -119.15555    12520.373    4.3066165    4.3066165    4.3066165    12520.373    77708.063    3406.6689   -43553.612   -10399.606    2480.7129    58014.556    79.874584 
   79100    1487.2945   -120.50722    1.3457354   -119.16149   -11798.669    4.3221554    4.3221554    4.3221554   -11798.669    14038.461    39122.751    -88557.22   -1020.7617   -65122.155    15617.419    80.742301 
   79200    2393.7435   -121.29468    2.1659095   -119.12877   -361.19918      4.31919      4.31919      4.31919   -361.19918   -2804.5156    35368.299   -33647.381    15532.603   -19836.734   -21146.489    80.576226 
   79300    2642.8727   -121.50036    2.3913267   -119.10903    31845.163    4.2974731    4.2974731    4.2974731    31845.163    58234.112    10533.466    26767.911   -3127.5649    22525.067    1446.1094    79.366915 
   79400    1092.5957   -120.13022   0.98860353   -119.14162    1372.2926    4.2961748    4.2961748    4.2961748    1372.2926    18073.255    4519.2371   -18475.614   -21634.381   -80712.053    33145.224    79.295005 
   79500    1735.9479   -120.72418    1.5707221   -119.15346   -22525.242    4.3106371    4.3106371    4.3106371   -22525.242   -39665.843   -11826.884   -16082.998   -7525.1031   -54903.096    30334.395    80.098503 
   79600    2948.7986   -121.80274    2.6681349   -119.13461   -3933.2884    4.3193011    4.3193011    4.3193011   -3933.2884   -9371.0819   -29381.906    26953.123    3261.4864    34561.764   -12903.097    80.582447 
   79700    1654.1778    -120.6436    1.4967349   -119.14686   -4136.1978    4.3158205    4.3158205    4.3158205   -4136.1978   -23659.045    1888.5608     9361.891   -6329.6312   -57046.423   -21792.381    80.387796 
   79800    1156.8223   -120.18994    1.0467171   -119.14322   -9748.4468    4.3051758    4.3051758    4.3051758   -9748.4468     850.3787   -9499.3561   -20596.363   -19430.209   -58944.571    22037.782    79.794448 
   79900    2025.4453   -120.96715    1.8326655   -119.13449   -2635.9964    4.3008481    4.3008481    4.3008481   -2635.9964    13838.374   -30097.484    8351.1213   -17626.661    37823.008    25959.439    79.554053 
   80000    2227.3464    -121.1499    2.0153498   -119.13455    1184.3437    4.3026629    4.3026629    4.3026629    1184.3437    -11183.92    22493.008   -7756.0568    2210.3848    8866.3289   -8544.2491    79.654805 
   80100    2024.7995   -120.96638    1.8320811   -119.13429    769.61664    4.3155887    4.3155887    4.3155887    769.61664   -13261.474    28429.786   -12859.461   -5209.0235   -56837.835   -8072.6739    80.374843 
   80200    1534.8957   -120.51192    1.3888059   -119.12312   -11329.372    4.3334255    4.3334255    4.3334255   -11329.372    5277.6841    -19775.04    -19490.76   -22197.145   -13933.798     37523.51    81.375565 
   80300     2058.746   -120.95809    1.8627967    -119.0953   -5764.4748     4.335003     4.335003     4.335003   -5764.4748   -27882.573    36527.208   -25938.059   -16005.042    34668.436    7769.1354    81.464462 
   80400    2541.7045   -121.37919    2.2997877    -119.0794    -17405.84    4.3169319    4.3169319    4.3169319    -17405.84    -46107.38    44231.338   -50341.478    9169.3997    4388.3319   -6910.8091    80.449916 
   80500    1504.7101   -120.45968    1.3614933   -119.09818    3394.7902    4.2913851    4.2913851    4.2913851    3394.7902    51335.847    7364.6937   -48516.171     2874.638   -37208.225    81860.601    79.030086 
   80600     1933.561   -120.87397    1.7495267   -119.12445    13495.695    4.2921645    4.2921645    4.2921645    13495.695     8716.173     31785.14   -14.227202   -1766.1793     1009.645    32282.056    79.073154 
   80700     2443.105   -121.34433    2.2105728   -119.13375    -2401.001     4.315616     4.315616     4.315616    -2401.001   -23648.035    42837.485   -26392.453   -12398.541    49536.229    -32679.13    80.376369 
   80800    1967.4369   -120.90902    1.7801783   -119.12884    2200.4674    4.3197481    4.3197481    4.3197481    2200.4674    44762.148    5690.4021   -43851.148    1481.0585    2854.3743    51173.277    80.607466 
   80900    2298.5613   -121.19495    2.0797866   -119.11517    19900.744    4.3119606    4.3119606    4.3119606    19900.744    69520.794    5700.4481   -15519.012    1607.2238   -16197.085    43014.532    80.172303 
   81000    1988.5244   -120.91414    1.7992587   -119.11488    20421.375    4.3115929    4.3115929    4.3115929    20421.375    60668.924     9713.226   -9118.0248   -8980.2721    3809.6492   -47580.209    80.151796 
   81100    1335.0289   -120.33398    1.2079622   -119.12602    5720.3376    4.3166114    4.3166114    4.3166114    5720.3376     39850.13     3236.334   -25925.452   -8252.2103    17630.548    20028.347    80.431998 
   81200    2597.8497   -121.44945     2.350589   -119.09886    3141.0844    4.3247559    4.3247559    4.3247559    3141.0844     38941.56    2914.0431    -32432.35     8964.532    1605.1419    32794.121    80.888129 
   81300    2038.3802   -120.93909    1.8443693   -119.09472    852.15893    4.3333075    4.3333075    4.3333075    852.15893    24373.231   -23301.286    1484.5314    5730.3591   -5607.2283   -33950.012    81.368913 
   81400    1483.3377    -120.4188    1.3421551   -119.07665   -23639.851    4.3455165    4.3455165    4.3455165   -23639.851   -33101.605   -38453.807    635.85868   -14055.644    23958.808     4971.664     82.05862 
   81500    2684.1706   -121.46669    2.4286939     -119.038   -15364.472    4.3347977    4.3347977    4.3347977   -15364.472   -33259.484    4393.4377   -17227.369    3199.9287    7049.2937    5547.8745    81.452893 
   81600    1760.5161   -120.63639    1.5929519   -119.04344    15261.855    4.3095245    4.3095245    4.3095245    15261.855    45453.031    14157.019   -13824.484   -1924.3106   -35009.434   -88569.131    80.036497 
   81700    2467.2906    -121.2929    2.2324564   -119.06044        38657    4.2974078    4.2974078    4.2974078        38657    36002.413    20623.546    59345.041   -506.13281    2211.1122   -2157.8149    79.363296 
   81800     1894.818   -120.82087    1.7144711    -119.1064    35721.527    4.3057063    4.3057063    4.3057063    35721.527    31473.566    38715.482    36975.533   -1114.6812    5851.6329    1162.4003    79.823948 
   81900    1126.9132   -120.14938    1.0196548   -119.12973     -2685.13    4.3340654    4.3340654    4.3340654     -2685.13    45865.518   -11459.448    -42461.46    6435.1886    -22286.81   -78476.938     81.41162 
   82000    2930.1226   -121.71875    2.6512365   -119.06751   -27804.833    4.3533256    4.3533256    4.3533256   -27804.833   -30017.939   -22342.075   -31054.486    10307.459    8937.1925    26961.843    82.501807 
   82100    1739.1905   -120.63767    1.5736561   -119.06401    -25897.99    4.3376411    4.3376411    4.3376411    -25897.99     5784.377   -21479.739   -61998.609   -25481.551   -6558.0265   -19920.223    81.613284 
   82200    1132.3727    -120.0875    1.0245946   -119.06291    42994.926    4.2942833    4.2942833    4.2942833    42994.926    44032.973    71659.623    13292.181    2835.1781   -8948.2266   -61215.304    79.190314 
   82300    2207.7448   -121.07776    1.9976139   -119.08014    32742.636    4.2891466    4.2891466    4.2891466    32742.636    -23711.35     24813.42     97125.84    56699.695   -8558.6174    6676.0798    78.906478 
   82400    2421.0789   -121.29938    2.1906431   -119.10874    25978.502    4.3032465    4.3032465    4.3032465    25978.502   -17763.895    26899.763    68799.638    23796.289    -6890.653    3759.6771    79.687217 
   82500    2143.0233   -121.06817    1.9390525   -119.12912    24117.772     4.319056     4.319056     4.319056    24117.772    13129.141    52588.533     6635.643   -16061.425    -4589.252   -50046.214    80.568728 
   82600    1546.6211   -120.53188    1.3994153   -119.13246   -30106.954    4.3341734    4.3341734    4.3341734   -30106.954   -50356.576   -56111.115     16146.83    58604.011   -3010.2505   -9358.1852    81.417705 
   82700    1967.9002   -120.91805    1.7805974   -119.13745   -13055.112     4.304399     4.304399     4.304399   -13055.112   -74553.857   -23650.762    59039.284    32625.921    3266.7071    28510.518    79.751264 
   82800    2191.4885   -121.09559    1.9829049   -119.11268    60416.377    4.2659211    4.2659211    4.2659211    60416.377    15756.988    74089.409    91402.735   -78315.853    1262.4661   -14995.276    77.631585 
   82900    2037.2204   -120.98813    1.8433199   -119.14481      27315.4    4.2803795    4.2803795    4.2803795      27315.4    8434.2566    26937.596    46574.348      7888.05    692.10095   -21038.151    78.423611 
   83000     1790.881   -120.77342    1.6204267   -119.15299   -8723.6913    4.3108958    4.3108958    4.3108958   -8723.6913   -54849.154    29895.467   -1217.3876     82077.33    -2098.956   -13981.775    80.112925 
   83100    1119.6356   -120.16859    1.0130698   -119.15552   -27642.639    4.3221305    4.3221305    4.3221305   -27642.639   -86308.394   -21916.951    25297.428   -45229.187   -4511.9208   -4194.6653     80.74091 
   83200     1993.372    -120.9535    1.8036449   -119.14986    -4800.536    4.3040205    4.3040205    4.3040205    -4800.536   -38102.611   -369.88641    24070.889   -73645.217    7020.3429    17816.635    79.730228 
   83300    2787.2967    -121.6556    2.5220047    -119.1336    38471.903    4.2780077    4.2780077    4.2780077    38471.903    11795.123    68885.965    34734.622     24772.41    11256.228    12036.674    78.293315 
   83400    1851.7989   -120.83548    1.6755465   -119.15993    12867.801    4.2846679    4.2846679    4.2846679    12867.801    -28567.86   -13920.128     81091.39   -19207.929   -41.923392   -5287.6447    78.659556 
   83500    1775.2961   -120.76583    1.6063252   -119.15951   -11695.808     4.310107     4.310107     4.310107   -11695.808   -76923.996   -35696.569    77533.139   -45088.765   -3134.7073   -6906.1526    80.068953 
   83600    2269.4538   -121.18957    2.0534495   -119.13612    2674.2362    4.3211643    4.3211643    4.3211643    2674.2362   -29933.072    23204.827    14750.954    23020.045   -2182.3562    21426.654    80.686774 
   83700    2097.7986   -121.02045    1.8981322   -119.12232    3003.4984    4.3131993    4.3131993    4.3131993    3003.4984    2355.7019   -8463.4097    15118.203   -15743.547        14754    45680.987    80.241412 
   83800    2367.3689   -121.26141    2.1420451   -119.11937    20129.712    4.2916605    4.2916605    4.2916605    20129.712   -24389.865    34504.288    50274.714   -55289.784    4838.5411   -12920.124    79.045305 
   83900     1763.729    -120.7319    1.5958591   -119.13604    21342.215    4.2849378    4.2849378    4.2849378    21342.215   -19633.748    18838.471     64821.92    18662.425   -2787.6108    8980.9724    78.674422 
   84000    1324.2182   -120.35672    1.1981805   -119.15854   -1857.5318    4.2975669    4.2975669    4.2975669   -1857.5318    5320.5283   -5777.8438   -5115.2798    40442.307   -4039.8762    80343.661    79.372111 
   84100    2162.0413   -121.10129    1.9562604   -119.14503   -2135.9638    4.3176142    4.3176142    4.3176142   -2135.9638   -12227.816    42722.087   -36902.162    -14911.05   -1872.1962   -23011.676    80.488065 
   84200    2074.3419   -121.00225    1.8769082   -119.12534   -24976.969    4.3244812    4.3244812    4.3244812   -24976.969   -35542.801   -15308.783   -24079.322    1530.7261    15355.037   -46999.989     80.87272 
   84300    1319.9063   -120.30778     1.194279    -119.1135    7848.0626    4.3074352    4.3074352    4.3074352    7848.0626    4953.0928    -22290.07    40881.165    44533.183   -5407.3172    68091.142    79.920145 
   84400    1786.4113   -120.73049    1.6163825   -119.11411   -3238.4822    4.2959117    4.2959117    4.2959117   -3238.4822    23205.005   -22972.025   -9948.4267    14081.598   -8027.9695    4633.2923    79.280439 
   84500    2493.1612   -121.37582    2.2558646   -119.11996    18132.629    4.2911197    4.2911197    4.2911197    18132.629    36541.407    1459.5386    16396.943   -20959.444   -4658.7464   -64467.492    79.015425 
   84600    1991.3267   -120.94842    1.8017943   -119.14662    14527.562    4.2966066    4.2966066    4.2966066    14527.562    27057.683   -9135.5311    25660.535    32164.095    3500.3692    5892.1713    79.318915 
   84700    572.21529   -119.69342   0.51775242   -119.17567   -15371.186    4.3169122    4.3169122    4.3169122   -15371.186   -333.85859   -42361.394   -3418.3045    45498.173    6825.8495     71795.75    80.448815 
   84800    2442.0766   -121.35552    2.2096422   -119.14588   -23039.686    4.3169154    4.3169154    4.3169154   -23039.686   -5489.9126   -17564.673   -46064.472   -11828.408   -1983.9762    27578.332    80.448996 
   84900    2592.1479   -121.46877    2.3454299   -119.12334    16979.642     4.300737     4.300737     4.300737    16979.642    25325.127      4330.12    21283.679    5299.0619   -2918.6951   -37147.651    79.547889 
   85000    1058.6776   -120.09021   0.95791376   -119.13229   -10136.305    4.3053223    4.3053223    4.3053223   -10136.305    15507.745   -55007.386    9090.7252    55121.558   -21393.586    51630.799    79.802591 
   85100    2081.0734   -120.99335     1.882999   -119.11035    215.47003     4.312393     4.312393     4.312393    215.47003    24430.604   -15035.137    -8749.057    12771.365    6296.3069    36314.683    80.196425 
   85200     2484.605   -121.34718    2.2481228   -119.09906    -2718.938    4.3180908    4.3180908    4.3180908    -2718.938    31634.031   -3319.1172   -36471.728   -18077.841   -1975.2777   -53829.423    80.514725 
   85300    1270.9055   -120.27192     1.149942   -119.12197   -13902.218    4.3135673    4.3135673    4.3135673   -13902.218    21575.827   -15225.404   -48057.079    44216.017   -8112.2838   -646.40545    80.261953 
   85400    1747.0544   -120.70515    1.5807715   -119.12438    16917.446    4.2974311    4.2974311    4.2974311    16917.446    1978.6007    44447.697     4326.041    37459.095   -5940.7027    37090.025    79.364586 
   85500    2577.9058   -121.45839    2.3325434   -119.12584    22428.218    4.2923263    4.2923263    4.2923263    22428.218    34130.118    9150.9084    24003.628   -53057.859    1924.2211   -1397.9129      79.0821 
   85600    2166.5055   -121.10648    1.9602997   -119.14618    25418.569    4.2946933    4.2946933    4.2946933    25418.569    31239.918    9177.0042    35838.786   -4027.2829    7439.3801   -15975.944    79.213001 
   85700     1624.238   -120.63136    1.4696447   -119.16171   -19558.298    4.3097182    4.3097182    4.3097182   -19558.298    11168.233   -79595.371    9752.2449    89964.192    262.71566    6809.8627    80.047286 
   85800    2520.2604   -121.41779    2.2803846   -119.13741   -5549.4994    4.3076765    4.3076765    4.3076765   -5549.4994    43648.929   -34927.918   -25369.509    4445.9458   -5081.5949    20058.749    79.933577 
   85900    2126.1258    -121.0548    1.9237633   -119.13104    15691.117    4.2967334    4.2967334    4.2967334    15691.117     14206.57   -33530.118    66396.898   -11381.835    6890.7482    8884.4164    79.325939 
   86000    645.22619   -119.73218   0.58381421   -119.14837   -16470.413    4.3087102    4.3087102    4.3087102   -16470.413    -64960.06   -103711.73    119260.55    79813.661    2762.2775    -2718.539    79.991133 
   86100    2492.6258    -121.3572    2.2553802   -119.10182   -5839.6572    4.3170268    4.3170268    4.3170268   -5839.6572    19602.509   -51591.045    14469.564   -33251.367    938.04532   -9014.5536    80.455219 
   86200    2093.4014   -120.98527    1.8941536   -119.09111    -21915.14    4.3193514    4.3193514    4.3193514    -21915.14    -8446.188   -43180.986   -14118.246    59753.454   -277.10769    7487.1691     80.58526 
   86300    1559.8568   -120.50929    1.4113912    -119.0979   -24816.729    4.3125019    4.3125019    4.3125019   -24816.729    -24181.57   -73186.154    22917.537    79504.259    8331.2448    3064.0757    80.202498 
   86400    1596.7534   -120.54614    1.4447761   -119.10137    16910.314     4.299545     4.299545     4.299545    16910.314    30373.314   -299.90846    20657.535   -63468.421    11682.059   -16344.676    79.481762 
   86500    1734.6045   -120.68888    1.5695066   -119.11938    8665.5508    4.3021456    4.3021456    4.3021456    8665.5508    10088.723    11360.038    4547.8913   -16577.421   -7563.2592   -11264.722    79.626078 
   86600    2576.2437   -121.44702    2.3310394   -119.11598   -5669.8781    4.3114319    4.3114319    4.3114319   -5669.8781    5872.0932   -17799.012   -5082.7152    41909.358   -19923.149    4913.1993    80.142813 
   86700      1752.49   -120.72182    1.5856897   -119.13613   -9177.2691    4.3098812    4.3098812    4.3098812   -9177.2691    13447.202   -58949.409      17970.4   -53244.751    9792.4742    19052.209    80.056371 
   86800    905.37929    -119.9762   0.81920621     -119.157   -17574.686    4.3033516    4.3033516    4.3033516   -17574.686   -3589.7819   -54253.057     5118.781   -58750.663    5960.8374   -2301.1037    79.693056 
   86900    1847.0024   -120.82076    1.6712066   -119.14955   -3833.0672    4.2947696    4.2947696    4.2947696   -3833.0672   -15235.744    28669.143     -24932.6    13989.086   -27680.686   -20276.657    79.217225 
   87000    2149.1704   -121.09053    1.9446145   -119.14592    863.21089    4.2956037    4.2956037    4.2956037    863.21089   -37617.868    7649.8299    32557.671    28106.609   -16143.625   -2017.1026    79.263384 
   87100    1430.1109   -120.44344    1.2939944   -119.14945   -27073.918    4.3136461    4.3136461    4.3136461   -27073.918   -49760.902   -69568.781    38107.929   -33425.324    9765.9613    19918.636    80.266354 
   87200    1848.1873   -120.79767    1.6722787   -119.12539   -19718.037    4.3188385    4.3188385    4.3188385   -19718.037   -22300.223   -22984.009   -13869.879   -30448.407    10849.166    31155.921    80.556555 
   87300    1713.2365   -120.67423    1.5501724   -119.12406   -9563.8364    4.3103495    4.3103495    4.3103495   -9563.8364   -42216.272   -3988.0106    17512.773    54680.882    203.64685   -15543.564    80.082468 
   87400      1663.09   -120.63922    1.5047988   -119.13442    -22172.63    4.2956813    4.2956813    4.2956813    -22172.63   -37996.578     -55039.7    26518.387    53728.343   -23363.611    3215.6932    79.267681 
   87500    2752.4127   -121.61556    2.4904408   -119.12512    22919.515    4.2882342    4.2882342    4.2882342    22919.515    42005.385    16159.801    10593.358   -25470.586    5718.5915    22385.687    78.856133 
   87600    1917.3538   -120.89226     1.734862    -119.1574    5723.7575    4.3024716    4.3024716    4.3024716    5723.7575   -32746.278    23018.331    26899.219    30587.733    44393.853    11338.402    79.644176 
   87700    1231.3067    -120.2736    1.1141122   -119.15949   -5402.3044    4.3191589    4.3191589    4.3191589   -5402.3044   -64420.853    22690.246    25523.694     63134.82    23581.609   -4122.0715    80.574488 
   87800    2856.3177   -121.69456    2.5844563   -119.11011   -6710.4277    4.3283028    4.3283028    4.3283028   -6710.4277   -4435.2135   -7331.3033   -8364.7662   -24654.327   -14196.972   -12649.067    81.087315 
   87900     2003.423   -120.93071    1.8127392   -119.11797   -16847.565     4.314172     4.314172     4.314172   -16847.565   -57668.691   -7809.5582    14935.555    24246.007   -1347.7015    9966.1523    80.295716 
   88000    689.26967   -119.75523   0.62366568   -119.13156   -10322.402    4.2868378    4.2868378    4.2868378   -10322.402   -77825.712    7348.1437    39510.364    84393.858    56860.226   -7174.9369    78.779123 
   88100    2382.6334   -121.29025    2.1558568   -119.13439    20549.909    4.2820802    4.2820802    4.2820802    20549.909   -10844.509    66750.614    5743.6215   -19288.851    25552.582    15041.713    78.517123 
   88200    2486.8709   -121.38808     2.250173   -119.13791    6614.0238    4.3075038    4.3075038    4.3075038    6614.0238    14606.367    15762.868   -10527.164      16779.5     -33016.4   -16346.377    79.923964 
   88300    1380.8996   -120.38891     1.249467   -119.13944   -7175.8595    4.3232933    4.3232933    4.3232933   -7175.8595    -32393.75    7742.1446    3124.0264    64783.702    9055.3957   -16753.897    80.806091 
   88400    2458.0872   -121.32908     2.224129   -119.10495   -2017.1845    4.3179053    4.3179053    4.3179053   -2017.1845   -25671.533    15173.698    4446.2807     10167.76    51954.406    13749.119    80.504349 
   88500    2847.7017   -121.67124    2.5766603   -119.09458    5694.1755    4.3040139    4.3040139    4.3040139    5694.1755     22602.52    10699.203   -16219.196   -10010.926   -3211.1109   -19988.706    79.729857 
   88600    1165.9872   -120.18419    1.0550097   -119.12918   -22738.287    4.3006977    4.3006977    4.3006977   -22738.287   -31368.967   -54684.215    17838.322    61328.553   -27579.976   -37702.404     79.54571 
   88700    1705.1633   -120.67772    1.5428676   -119.13485   -7842.5215    4.3027191    4.3027191    4.3027191   -7842.5215   -41979.012    730.05838    17721.389    36892.477   -2349.5695   -5845.9999    79.657923 
   88800    2473.9487   -121.36636    2.2384807   -119.12788   -12770.405    4.3097744    4.3097744    4.3097744   -12770.405   -27242.895    -10443.38   -624.93842   -40885.814     2729.154    42147.996    80.050417 
   88900    1321.2083   -120.33764    1.1954571   -119.14219    -29263.39    4.3100065    4.3100065    4.3100065    -29263.39   -59238.877   -52191.442    23640.149    7220.6321    2731.6954   -4828.2964    80.063353 
   89000    1854.7871   -120.80783    1.6782503   -119.12958    2524.8449    4.2946933    4.2946933    4.2946933    2524.8449   -46806.462    27251.753    27129.243    54223.479   -24354.828   -28576.153    79.212999 
   89100    1636.3014   -120.61764    1.4805599   -119.13708    20188.685    4.2934145    4.2934145    4.2934145    20188.685   -10283.109    37736.058    33113.107   -13427.133   -37170.905    20264.451    79.142259 
   89200    1413.7718   -120.42545    1.2792104   -119.14624    1202.6011    4.3042633    4.3042633    4.3042633    1202.6011   -3586.0956   -10588.248    17782.147   -40150.055    4936.7453    37277.014    79.743719 
   89300    1945.0114   -120.89289    1.7598872   -119.13301    4907.5337    4.3117037    4.3117037    4.3117037    4907.5337   -43469.902    15430.049    42762.454    9699.5588    11060.611    5373.5386    80.157975 
   89400    2221.0218   -121.13677    2.0096272   -119.12714   -300.18204     4.309192     4.309192     4.309192   -300.18204   -31029.623    22878.335    7250.7414     25751.57   -35304.859   -13277.857    80.017974 
   89500    1014.7058   -120.06799   0.91812716   -119.14987   -3629.3493     4.297032     4.297032     4.297032   -3629.3493   -4810.0449    12576.426    -18654.43   -29612.724   -32624.946    27470.786    79.342479 
   89600    1029.2968   -120.09361   0.93132934   -119.16228   -7278.4282    4.2886202    4.2886202    4.2886202   -7278.4282    1860.3863   -62853.927    39158.256   -72260.773    8639.7573    47827.402    78.877432 
   89700    2302.9925      -121.24     2.083796    -119.1562    16065.636    4.2912059    4.2912059    4.2912059    16065.636    10017.243   -8849.8687    47029.533   -11725.826    8829.1148    2400.7447    79.020186 
   89800    2306.4868   -121.24264    2.0869577   -119.15568   -1054.2473    4.3089446    4.3089446    4.3089446   -1054.2473   -17759.329    10832.859    3763.7276    22858.269   -35697.595   -11163.832    80.004191 
   89900     765.1241   -119.85141   0.69230036   -119.15911   -37587.686    4.3208616    4.3208616    4.3208616   -37587.686   -49402.148   -84163.806    20802.895   -51658.973   -29277.311    30616.594    80.669814 
   90000    1296.8366   -120.31691     1.173405    -119.1435   -6684.2192    4.3047515    4.3047515    4.3047515   -6684.2192   -4993.5585   -55012.902    39953.803   -54806.548    6717.6938    46532.705    79.770859 
   90100    2602.0071   -121.47606    2.3543507   -119.12171    29345.572    4.2900116    4.2900116    4.2900116    29345.572    13814.503    53451.903    20770.311    20491.511    1017.5469    -10174.17    78.954229 
   90200    2007.3326   -120.96076    1.8162767   -119.14448    2109.8261    4.2915946    4.2915946    4.2915946    2109.8261    -18736.94    30725.448   -5659.0291     474.6157   -25517.299   -2139.5419    79.041662 
   90300    494.86793   -119.61957    0.4477669   -119.17181   -14224.387    4.3025606    4.3025606    4.3025606   -14224.387   -28650.238   -11880.871   -2142.0521   -62440.091    -25771.29    59610.652    79.649122 
   90400      1599.36   -120.60473    1.4471345    -119.1576   -14673.466    4.3154864    4.3154864    4.3154864   -14673.466   -506.25397   -31086.122   -12428.022   -24287.968   -95.770209    37928.998    80.369129 
   90500    2916.8074   -121.76275    2.6391887   -119.12356    16693.038    4.3103818    4.3103818    4.3103818    16693.038    8744.0522    35675.599    5659.4621    28890.865    9085.5565   -19830.085    80.084272 
   90600    1610.1052   -120.60602     1.456857   -119.14917   -19483.964    4.3001289    4.3001289    4.3001289   -19483.964   -4059.9944   -43971.727   -10420.172   -39399.174   -9905.9004    20159.576    79.514152 
   90700     311.6709   -119.45042   0.28200638   -119.16842   -31198.845    4.2928462    4.2928462    4.2928462   -31198.845     34413.72    -93775.53   -34234.726   -59498.043   -15145.388    73442.849     79.11084 
   90800    2179.9264   -121.13112    1.9724432   -119.15868    7080.7654    4.2952961    4.2952961    4.2952961    7080.7654    14149.602    15603.455   -8510.7611    -9175.491   -16484.131    5783.1106    79.246359 
   90900    2599.1872   -121.49088    2.3517992   -119.13908    1117.3131    4.3140185    4.3140185    4.3140185    1117.3131    11176.062   -11149.146    3325.0228    14730.659    13187.016   -13296.469    80.287145 
   91000    863.06813   -119.92135   0.78092218   -119.14043   -14377.661    4.3188038    4.3188038    4.3188038   -14377.661    33111.962   -50968.261   -25276.686   -48876.412    10592.056    62548.242    80.554616 
   91100    1508.2597    -120.4779     1.364705   -119.11319   -3858.2434     4.316097     4.316097     4.316097   -3858.2434     22436.08   -19089.501   -14921.309   -32244.354   -26153.473    13738.904    80.403247 
   91200    2313.2383   -121.17468    2.0930667   -119.08161   -15136.202    4.3203316    4.3203316    4.3203316   -15136.202   -9275.5692   -3434.0207   -32699.015    27738.487   -589.11874    -20569.36    80.640135 
   91300    710.23157   -119.74213   0.64263245    -119.0995     10460.08    4.3128022    4.3128022    4.3128022     10460.08    9314.0409   -5132.3384    27198.538   -33533.104    19858.963     43606.31    80.219255 
   91400    1692.2033   -120.63131    1.5311411   -119.10017    4339.1674    4.3104412    4.3104412    4.3104412    4339.1674    40561.508   -18982.006   -8561.9999   -26543.246    7958.4449    40310.688    80.087578 
   91500    3004.9717    -121.8134    2.7189616   -119.09444   -5694.3139    4.3106415    4.3106415    4.3106415   -5694.3139    29004.695   -9561.3977   -36526.239    24433.443   -14597.626   -20886.637    80.098745 
   91600    1538.3963   -120.52367    1.3919733   -119.13169   -8960.3605     4.304361     4.304361     4.304361   -8960.3605    30263.278   -21796.269   -35348.091   -34899.566    20702.845    14845.132    79.749149 
   91700    1082.7864    -120.1245    0.9797279   -119.14478   -4468.1618    4.2989799    4.2989799    4.2989799   -4468.1618    17793.009   -10111.663   -21085.831   -47603.599    19576.659    30987.592    79.450427 
   91800    1683.3227   -120.67591    1.5231057   -119.15281   -12807.911    4.3007289    4.3007289    4.3007289   -12807.911   -20964.464    50441.316   -67900.585    10122.408   -74854.409   -7778.8216     79.54744 
   91900    2530.6721   -121.42983    2.2898053   -119.14003   -16310.486    4.3062548    4.3062548    4.3062548   -16310.486   -22605.274    28303.803   -54629.987    3359.8961   -38875.471   -9267.0448    79.854458 
   92000     2446.763   -121.34521    2.2138826   -119.13133   -8169.7528    4.3107487    4.3107487    4.3107487   -8169.7528    14152.772   -33076.949   -5585.0815   -30126.556    20027.959    20116.686     80.10472 
   92100    961.43773   -120.00981   0.86992906   -119.13988   -20524.178    4.3145585    4.3145585    4.3145585   -20524.178   -52326.067     42895.12   -52141.585   -20840.716   -85549.988    17071.216      80.3173 
   92200    1810.7381   -120.76763    1.6383939   -119.12924   -5318.0694    4.3086575    4.3086575    4.3086575   -5318.0694    -14490.89     47855.29   -49318.609    -1231.534   -36091.757    2447.7573    79.988198 
   92300    2938.7693   -121.76984    2.6590602   -119.11078    13561.921    4.2983603    4.2983603    4.2983603    13561.921    15051.429    2442.1458    23192.188    9728.0489    39928.948    -8794.658    79.416082 
   92400    1204.9068    -120.2351     1.090225   -119.14487   -5370.1268    4.2972828    4.2972828    4.2972828   -5370.1268    -21988.05    27008.189    -21130.52   -19175.136   -83967.294   -10437.356    79.356369 
   92500    1380.5569   -120.39818    1.2491569   -119.14902   -12246.587    4.3053439    4.3053439    4.3053439   -12246.587   -34945.539   -14778.067    12983.846   -33404.827   -48248.971    21461.672    79.803796 
   92600     2423.693   -121.30975    2.1930083   -119.11674   -11815.459    4.3184309    4.3184309    4.3184309   -11815.459    498.87583   -40998.766    5053.5139    -8498.122    18190.883     32802.75    80.533748 
   92700    1411.4708   -120.38288    1.2771284   -119.10575   -15823.328    4.3194116    4.3194116    4.3194116   -15823.328   -31566.937    27538.228   -43441.275    2199.9393   -93093.976   -3926.8812    80.588627 
   92800    2140.7016   -121.01551    1.9369518   -119.07855    7662.4566    4.3144662    4.3144662    4.3144662    7662.4566    4991.2355   -8924.0144    26920.149   -15566.051   -23208.674   -10051.319    80.312141 
   92900    2044.6011   -120.93427     1.849998   -119.08427   -10976.218    4.3163986    4.3163986    4.3163986   -10976.218    28339.211   -31193.435    -30074.43   -17029.825   -1259.4228    29905.094    80.420104 
   93000    839.76615   -119.87392   0.75983806   -119.11409   -12310.867    4.3052795    4.3052795    4.3052795   -12310.867   -12020.471    44215.794   -69127.925   -10233.363   -103336.94    24103.615    79.800215 
   93100    2877.8298   -121.69586    2.6039209   -119.09194     28437.32     4.298548     4.298548     4.298548     28437.32    25302.342    35645.787    24363.831    1415.0778    6428.3115   -5816.9386    79.426485 
   93200    2449.9615   -121.32059    2.2167767   -119.10381   -4428.6117    4.3158609    4.3158609    4.3158609   -4428.6117   -10873.334    8996.1121   -11408.613   -9346.3298   -21977.813   -9507.2428    80.390055 
   93300    863.61743   -119.90687    0.7814192   -119.12545   -31369.118     4.318966     4.318966     4.318966   -31369.118   -86708.909    43048.314   -50446.761   -4061.6394    -112150.2    33735.373    80.563691 
   93400    2448.0782   -121.32219    2.2150726   -119.10712    -2808.492    4.3052886    4.3052886    4.3052886    -2808.492   -19879.746   -5707.7274    17161.998   -5246.4045    6595.9613    34221.666    79.800718 
   93500    2486.3568   -121.35204    2.2497079   -119.10233     384.0122    4.3018139    4.3018139    4.3018139     384.0122    -36180.37    24487.439    12844.968    16787.721   -12749.817    4730.4444    79.607661 
   93600    1390.4143   -120.37611    1.2580761   -119.11803   -19883.472    4.3061442    4.3061442    4.3061442   -19883.472   -102156.76    58057.862   -15551.519    13540.635   -98334.427   -12574.577    79.848306 
   93700    2513.5429   -121.38264    2.2743064   -119.10834    9601.8395    4.2996931    4.2996931    4.2996931    9601.8395     960.5656   -3796.0162    31640.969    -6678.065    2895.4182    27688.369    79.489979 
   93800    2376.2552   -121.26547    2.1500856   -119.11539    22026.508    4.3016612    4.3016612    4.3016612    22026.508   -52.769827    29619.017    36513.275   -3661.4646   -28469.024    25872.495    79.599183 
   93900    1035.0173   -120.06921   0.93650545    -119.1327   -14069.199    4.3168668    4.3168668    4.3168668   -14069.199   -98298.302    77288.849   -21198.145    7104.5803   -79947.165   -87.843585    80.446274 
   94000    2255.9474   -121.13375    2.0412286   -119.09252   -8597.4196    4.3203013    4.3203013    4.3203013   -8597.4196   -10902.385   -18548.703    3658.8293    8984.5856    57474.374   -7844.6325     80.63844 
   94100    1860.3923   -120.77021    1.6833221   -119.08688   -5235.1251    4.3086709    4.3086709    4.3086709   -5235.1251   -16225.381     15601.35   -15081.345   -4911.4291   -35634.798   -12607.567    79.988945 
   94200    1970.8394   -120.87908    1.7832569   -119.09583    6329.8443    4.2968081    4.2968081    4.2968081    6329.8443   -36494.152      67112.3   -11628.615   -1714.6123   -99848.719   -20.524037    79.330078 
   94300    2362.6366   -121.23578    2.1377633   -119.09801    12304.879    4.2956401    4.2956401    4.2956401    12304.879    32362.922   -9946.1036    14497.819   -3806.8016    28117.549    11887.477    79.265402 
   94400    1358.6703   -120.35635    1.2293535   -119.12699    -17529.57    4.3041345    4.3041345    4.3041345    -17529.57   -25952.262    17822.423   -44458.872    9338.7052     24289.05    464.71741    79.736562 
   94500    2249.3122   -121.14741    2.0352249   -119.11219      1641.81     4.311907     4.311907     4.311907      1641.81   -21052.646    60475.442   -34497.366    2800.6499   -26107.265   -7647.6409    80.169315 
   94600     1735.682   -120.67242    1.5704815   -119.10193     888.7467    4.3204456    4.3204456    4.3204456     888.7467    -3154.725    -9123.074    14944.039   -39435.863   -415.92681    32196.672     80.64652 
   94700    1220.8327    -120.1973    1.1046351   -119.09267   -19450.775     4.327487     4.327487     4.327487   -19450.775   -22843.496   -11716.013   -23792.818   -12637.153    18268.387    12976.895    81.041474 
   94800    3023.9431   -121.77391    2.7361273   -119.03778   -22107.425    4.3405319    4.3405319    4.3405319   -22107.425   -27611.707   -28049.396   -10661.171    17163.233   -24283.954   -16091.455    81.776563 
   94900    589.23108   -119.56726   0.53314866   -119.03412   -12173.264    4.3508003    4.3508003    4.3508003   -12173.264    70876.961   -90949.538   -16447.214   -49486.939    25949.237    52767.425    82.358317 
   95000    2326.1062   -121.08829    2.1047098   -118.98358    11952.119    4.3328477    4.3328477    4.3328477    11952.119    30871.688    -15757.43      20742.1    13170.667    10668.206   -24861.004    81.343015 
   95100    2003.8684   -120.81289    1.8131422   -118.99974   -17663.144    4.3092487    4.3092487    4.3092487   -17663.144    4521.1932   -19362.563   -38148.062   -17539.876   -16263.996    25162.323    80.021131 
   95200     443.4523    -119.4736   0.40124496   -119.07236   -12420.171    4.2941289    4.2941289    4.2941289   -12420.171    5904.4111   -39339.763    -3825.162   -67678.948    3560.0805     66742.22    79.181775 
   95300    2259.9974   -121.15866    2.0448932   -119.11376    2088.0608    4.2985088    4.2985088    4.2985088    2088.0608   -4540.0281    7971.2236     2832.987   -9695.6231     3989.567   -5721.5141    79.424311 
   95400    2723.5945   -121.59215    2.4643655   -119.12779    20217.081    4.3027713    4.3027713    4.3027713    20217.081    35886.791    32144.658   -7380.2074    18951.092   -8787.5775   -12117.677    79.660825 
   95500    699.81221   -119.79625    0.6332048   -119.16304   -3570.2883    4.3104706    4.3104706    4.3104706   -3570.2883    34449.273   -43635.917   -1524.2207   -55398.741   -2147.3976    59897.412     80.08922 
   95600    1511.8361    -120.5136    1.3679411   -119.14566   -24126.907    4.3177075    4.3177075    4.3177075   -24126.907   -7399.6565   -53431.785    -11549.28   -39082.054   -7008.2201    43846.809    80.493286 
   95700    3045.4015   -121.86229    2.7555433   -119.10675    11536.134    4.3017962    4.3017962    4.3017962    11536.134   -14524.213    11736.535     37396.08    34594.131    2761.6635   -27483.814    79.606674 
   95800    1516.5924   -120.49825    1.3722447     -119.126    10141.067    4.2920151    4.2920151    4.2920151    10141.067    10872.122   -21742.862     41293.94   -22032.099   -5737.1872    21554.914    79.064897 
   95900    1150.1484   -120.17403    1.0406784   -119.13335   -11880.219    4.3030549    4.3030549    4.3030549   -11880.219    8715.9664   -43005.285   -1351.3401   -61253.735   -5336.7045    60794.315    79.676576 
   96000    2428.1082   -121.31197    2.1970034   -119.11496   -5806.5195    4.3108166    4.3108166    4.3108166   -5806.5195    -40397.85    1258.9616    21719.329    10131.615    2784.0337   -14568.935    80.108507 
   96100    1810.7683   -120.75756    1.6384212   -119.11914   -16844.267    4.3125657    4.3125657    4.3125657   -16844.267   -55700.054   -40505.648    45672.899    38805.335   -4688.9652   -3155.7679    80.206056 
   96200    1092.4597   -120.11336   0.98848047   -119.12488   -13577.242      4.30364      4.30364      4.30364   -13577.242    -32542.48   -41032.151    32842.904   -47330.455    3001.3107    62782.118    79.709084 
   96300    2168.1419   -121.06913    1.9617804   -119.10735    15222.197    4.2947876    4.2947876    4.2947876    15222.197   -5076.5998    14637.689    36105.502   -24936.354    2187.3837   -3016.7007    79.218219 
   96400    1910.7755   -120.84739    1.7289098   -119.11848   -11699.072    4.3023898    4.3023898    4.3023898   -11699.072    -15186.78   -40469.885    20559.449    42010.412   -849.33296   -43132.264    79.639637 
   96500    1135.1978   -120.15815    1.0271509     -119.131   -26116.693    4.3107743    4.3107743    4.3107743   -26116.693    13635.608   -79357.085   -12628.602    7090.4461    312.34202    59690.373    80.106148 
   96600      2684.63   -121.53838    2.4291097   -119.10927    -2721.171    4.3105728    4.3105728    4.3105728    -2721.171     680.7534   -23025.483    14181.217    -15381.05   -3983.6809    36120.984    80.094914 
   96700    2579.5894   -121.44832    2.3340667   -119.11426   -8259.9133    4.3035669    4.3035669    4.3035669   -8259.9133   -24008.984   -33194.286     32423.53     18637.81    8021.9604   -26694.936    79.705022 
   96800    1090.3697   -120.12851   0.98658945   -119.14192   -5038.3075    4.2849656    4.2849656    4.2849656   -5038.3075    57158.054   -75806.021    3533.0447    35538.238    6070.4911    42094.978    78.675956 
   96900    1939.8253   -120.89721    1.7551947   -119.14202    4143.5124    4.2855657    4.2855657    4.2855657    4143.5124    63300.137   -30813.566   -20056.034    14048.369   -11234.978    41956.574    78.709014 
   97000    2013.3375   -120.95904    1.8217101   -119.13733   -24117.452    4.3092623    4.3092623    4.3092623   -24117.452   -72442.965   -13830.366    13920.974   -61713.147    3786.2003   -20942.224    80.021888 
   97100    1271.1118   -120.27739    1.1501287   -119.12726   -30779.213    4.3152295    4.3152295    4.3152295   -30779.213   -46404.813   -30117.872   -15814.954   -38597.738    12427.884    25131.029    80.354773 
   97200    2246.3733    -121.1356    2.0325658   -119.10303   -3692.0468    4.3045855    4.3045855    4.3045855   -3692.0468    41315.818   -3329.8004   -49062.158    32048.396    5719.5864     49022.55    79.761629 
   97300    1717.1836   -120.66265    1.5537438    -119.1089   -22023.446    4.3032882    4.3032882    4.3032882   -22023.446   -43635.394     -22630.1    195.15704   -69968.308   -7161.3805   -6953.1995    79.689538 
   97400    999.81472   -120.02945   0.90465337   -119.12479   -10017.183    4.2946563    4.2946563    4.2946563   -10017.183   -46867.247   -2564.8118    19380.511   -74873.705   -9578.1514   -1790.5983    79.210953 
   97500    2554.4167   -121.42289      2.31129    -119.1116    7721.6065    4.2988684    4.2988684    4.2988684    7721.6065    4154.5979    48505.527   -29495.305    32011.289    6986.3349    33637.817    79.444249 
   97600    1636.6629   -120.59755     1.480887   -119.11666   -30528.838    4.3199302    4.3199302    4.3199302   -30528.838   -76151.534   -52712.915    37277.934    -64034.25   -4373.0049    10525.637     80.61766 
   97700    904.89848   -119.93108   0.81877116   -119.11231     6954.056    4.3128065    4.3128065    4.3128065     6954.056   -45577.676    15110.962    51328.882   -56834.122   -11963.667   -12988.845    80.219495 
   97800    2838.2696   -121.63237     2.568126   -119.06425    10521.926    4.3101572    4.3101572    4.3101572    10521.926    891.99391    23953.721    6720.0642    28464.152    1746.3052   -11814.738    80.071751 
   97900    1357.9895    -120.3072    1.2287374   -119.07846   -18179.305    4.3162017    4.3162017    4.3162017   -18179.305   -84694.913   -31084.908    61241.906   -115694.18    6832.7335    506.73147    80.409099 
   98000    2138.2805   -121.00363    1.9347611   -119.06887     2897.602    4.3148705    4.3148705    4.3148705     2897.602   -26898.448   -6982.0465    42573.301   -13495.683    6032.1517    4677.5967    80.334724 
   98100    2038.6685    -120.9153    1.8446301   -119.07067    3511.2582    4.3147686    4.3147686    4.3147686    3511.2582   -6195.2896   -38453.371    55182.435    9871.7129    3631.8233   -3787.3576    80.329031 
   98200    558.84777   -119.61028   0.50565721   -119.10463   -4521.6703    4.3102455    4.3102455    4.3102455   -4521.6703   -36307.208   -94109.662    116851.86   -119931.52    14145.496   -2079.6585    80.076671 
   98300    2916.1097   -121.69841    2.6385573   -119.05985    1507.0604    4.3120489    4.3120489    4.3120489    1507.0604    13724.742    -116.5987   -9086.9623     33570.16   -3511.4821   -14236.673    80.177227 
   98400    1247.4981   -120.20397    1.1287625   -119.07521   -32361.217    4.3190484    4.3190484    4.3190484   -32361.217   -37450.923   -71585.043    11952.314   -106453.64    10711.867    3513.1129      80.5683 
   98500    1267.7709   -120.22295    1.1471058   -119.07584   -12585.462     4.319604     4.319604     4.319604   -12585.462   -28307.804   -45484.572     36035.99   -52426.446   -13633.403   -3592.6542    80.599402 
   98600    2419.8759   -121.24559    2.1895546   -119.05604   -5523.7313    4.3157678    4.3157678    4.3157678   -5523.7313   -26594.898   -17490.436     27514.14    42308.436    12103.048    1798.0562    80.384848 
   98700    792.60083   -119.80304   0.71716189   -119.08588   -14200.578    4.3096249    4.3096249    4.3096249   -14200.578    -85202.38   -56161.308    98761.954   -131126.64    16981.409   -5091.4422     80.04209 
   98800    2613.7342   -121.42358    2.3649617   -119.05862    6106.3843    4.3190913    4.3190913    4.3190913    6106.3843   -33533.945    13506.617    38346.481    12635.791    3842.7015    11740.573    80.570705 
   98900    1708.5854    -120.6163    1.5459639   -119.07034   -15779.882    4.3294659    4.3294659    4.3294659   -15779.882   -59227.034   -31241.756    43129.145   -36796.603   -2428.3644    -24.03701      81.1527 
   99000     1163.402   -120.12914    1.0526706   -119.07647   -8750.9369     4.320173     4.320173     4.320173   -8750.9369   -84962.882   -1040.7232    59750.795   -81318.948    6281.2308   -10817.184    80.631252 
   99100    3359.4681   -122.09176    3.0397173   -119.05204    21915.425    4.3038475    4.3038475    4.3038475    21915.425    5851.6316    46770.777    13123.866    53493.433    3539.6873     2819.082    79.720612 
   99200    1519.1106   -120.46641    1.3745232   -119.09189    16500.625    4.2983072    4.2983072    4.2983072    16500.625   -23955.487   -13726.477    87183.841   -97953.778   -12914.126   -1057.7565    79.413135 
   99300    1611.6819   -120.56688    1.4582836    -119.1086    3738.1702    4.3121791    4.3121791    4.3121791    3738.1702   -53243.797    14439.605    50018.702   -56678.182   -4528.5641    11271.993    80.184489 
   99400    2689.2106   -121.50716    2.4332542    -119.0739    3959.0325    4.3270064    4.3270064    4.3270064    3959.0325    30003.043   -13162.117   -4963.8279    31167.437   -388.88632    8173.8027    81.014475 
   99500    1094.7961   -120.08273   0.99059447   -119.09214   -10554.747    4.3218077    4.3218077    4.3218077   -10554.747   -42612.588   -29569.938    40518.285   -120874.98    2692.8423    2386.7147    80.722819 
   99600    2245.6967    -121.0943    2.0319536   -119.06235    12733.152    4.3066749    4.3066749    4.3066749    12733.152   -9398.4696    48044.084   -446.15973    5544.4936    -12012.89    4771.2581    79.877834 
   99700    1679.9145   -120.59169    1.5200219   -119.07166    4695.0815    4.3012529    4.3012529    4.3012529    4695.0815   -7371.0548    16983.162    4473.1375    -33964.97   -24793.583   -5348.1537    79.576518 
   99800    917.99166   -119.92917   0.83061815   -119.09856   -10955.474    4.3107718    4.3107718    4.3107718   -10955.474   -58226.384    -24515.57    49875.532   -107973.87     19954.22    5701.4655    80.106009 
   99900    2810.1483   -121.60735    2.5426812   -119.06467   -15317.932    4.3213844    4.3213844    4.3213844   -15317.932   -13502.962    5437.7727   -37888.607    44099.967   -9372.3165   -18912.578    80.699099 
  100000    1041.2398   -120.03358   0.94213561   -119.09145   -13890.434     4.319738     4.319738     4.319738   -13890.434    -54442.59     -7249.43    20020.717   -58042.171   -17227.141     1348.722    80.606902 
Loop time of 22.3739 on 1 procs for 100000 steps with 8 atoms

Pair  time (%) = 6.92415 (30.9474)
Kspce time (%) = 5.33769 (23.8567)
Neigh time (%) = 0.250119 (1.1179)
Comm  time (%) = 1.11475 (4.98236)
Outpt time (%) = 0.0257854 (0.115248)
Other time (%) = 8.72145 (38.9804)

Nlocal:    8 ave 8 max 8 min
Histogram: 1 0 0 0 0 0 0 0 0 0
Nghost:    2105 ave 2105 max 2105 min
Histogram: 1 0 0 0 0 0 0 0 0 0
Neighs:    2190 ave 2190 max 2190 min
Histogram: 1 0 0 0 0 0 0 0 0 0

Total # of neighbors = 2190
Ave neighs/atom = 273.75
Neighbor list builds = 2911
Dangerous builds = 0
unfix 20
unfix 21
print "seeds:9745635"
seeds:9745635
