LAMMPS (10 Feb 2015)
# ---- initialize simulations
clear
units metal
dimension 3
boundary p p p
atom_style charge
atom_modify map array
# ---- create atoms
read_data /Users/eugeneragasa/pyflamestk_git/pypospack/tests/tests_integration/workflow/WorkflowLammpsThermalExpansion/param_9215/MgO_NaCl_unit.npt.T700/lammps.structure
  triclinic box = (0 0 0) to (4.2565 4.2565 4.2565) with tilt (0 0 0)
  1 by 1 by 1 MPI processor grid
  reading atoms ...
  8 atoms
# ---- define interatomic potential
include potential.mod
mass 1 24.305
mass 2 15.999

group Mg type 1
4 atoms in group Mg
group O type 2
4 atoms in group O

set group Mg charge 1.57990545172
  4 settings made for charge
set group O charge -1.57990545172
  4 settings made for charge

variable R_cut equal 10.0

pair_style buck/coul/long ${R_cut}
pair_style buck/coul/long 10
pair_coeff 1 1 0.0 0.5 0.0 ${R_cut}
pair_coeff 1 1 0.0 0.5 0.0 10
pair_coeff 1 2 1322.20855758 0.285006791586 0.0 ${R_cut}
pair_coeff 1 2 1322.20855758 0.285006791586 0.0 10
pair_coeff 2 2 14469.0891926 0.219096223147 48.5612274161 ${R_cut}
pair_coeff 2 2 14469.0891926 0.219096223147 48.5612274161 10

kspace_style pppm 1.0e-5

neighbor 1.0 bin
neigh_modify every 1 delay 0 check yes
# ---- define settings
compute eng all pe/atom
compute eatoms all reduce sum c_eng
# ---- run minimization
reset_timestep 0
fix 1 all box/relax iso 0.0 vmax 0.001
thermo 10
thermo_style custom step pe lx ly lz xy xz yz press pxx pyy pzz pxy pxz pyz c_eatoms
min_style cg
minimize 1e-25 1e-25 5000 10000
PPPM initialization ...
  G vector (1/distance) = 0.352172
  grid = 8 8 8
  stencil order = 5
  estimated absolute RMS force accuracy = 3.68665e-05
  estimated relative force accuracy = 2.56024e-06
  using double precision FFTs
  3d grid and FFT values/proc = 3375 512
Neighbor list info ...
  1 neighbor list requests
  update every 1 steps, delay 0 steps, check yes
  master list distance cutoff = 11
Memory usage per processor = 4.06549 Mbytes
Step PotEng Lx Ly Lz Xy Xz Yz Press Pxx Pyy Pzz Pxy Pxz Pyz eatoms 
       0   -101.30442       4.2565       4.2565       4.2565            0            0            0    88329.967    88329.967    88329.967    88329.967 -1.1961844e-11 -2.4099438e-10 5.9240466e-12   -101.30442 
      10    -101.3918     4.299065     4.299065     4.299065            0            0            0    35693.934    35693.934    35693.934    35693.934 1.4632835e-11 -2.3788485e-11 -3.8066587e-11    -101.3918 
      20   -101.41159    4.3315082    4.3315082    4.3315082            0            0            0   -5.9294003   -5.9294003   -5.9294003   -5.9294003 1.7198652e-10 1.1926792e-10 -5.3176444e-11   -101.41159 
Loop time of 0.0121531 on 1 procs for 20 steps with 8 atoms

Minimization stats:
  Stopping criterion = linesearch alpha is zero
  Energy initial, next-to-last, final = 
        -101.304424021     -101.411593199     -101.411593199
  Force two-norm initial, final = 12.7549 0.00088671
  Force max component initial, final = 12.7549 0.000886651
  Final line search alpha, max atom move = 0.015625 1.38539e-05
  Iterations, force evaluations = 20 34

Pair  time (%) = 0.00326061 (26.8294)
Kspce time (%) = 0.0022099 (18.1838)
Neigh time (%) = 0 (0)
Comm  time (%) = 0.000374794 (3.08393)
Outpt time (%) = 3.38554e-05 (0.278573)
Other time (%) = 0.00627398 (51.6244)

Nlocal:    8 ave 8 max 8 min
Histogram: 1 0 0 0 0 0 0 0 0 0
Nghost:    2189 ave 2189 max 2189 min
Histogram: 1 0 0 0 0 0 0 0 0 0
Neighs:    2344 ave 2344 max 2344 min
Histogram: 1 0 0 0 0 0 0 0 0 0

Total # of neighbors = 2344
Ave neighs/atom = 293
Neighbor list builds = 0
Dangerous builds = 0
unfix 1
# ---- define output variables ----
variable natoms equal "count(all)"
variable tot_energy equal "c_eatoms"
variable length_x equal "lx"
variable length_y equal "ly"
variable length_z equal "lz"
variable tilt_xy equal "xy"
variable tilt_xz equal "xz"
variable tilt_yz equal "yz"
variable tot_press equal "press"
variable press_xx equal "pxx"
variable press_yy equal "pyy"
variable press_zz equal "pzz"
variable press_xy equal "pxy"
variable press_xz equal "pxz"
variable press_yz equal "pyz"

# ---- output ----
print "pypospack:output_section:begin"
pypospack:output_section:begin
print "tot_energy = ${tot_energy}"
tot_energy = -101.411593198701
print "num_atoms = ${natoms}"
num_atoms = 8
print "xx = ${length_x}"
xx = 4.33150823558717
print "yy = ${length_y}"
yy = 4.33150823558717
print "zz = ${length_z}"
zz = 4.33150823558717
print "xy = ${tilt_xy}"
xy = 0
print "xz = ${tilt_xz}"
xz = 0
print "yz = ${tilt_yz}"
yz = 0
print "tot_press = ${tot_press}"
tot_press = -5.92940031006952
print "pxx = ${press_xx}"
pxx = -5.92940030994687
print "pyy = ${press_yy}"
pyy = -5.92940031012476
print "pzz = ${press_zz}"
pzz = -5.92940031013695
print "pxy = ${press_xy}"
pxy = 1.71986520125442e-10
print "pxz = ${press_xz}"
pxz = 1.19267916823708e-10
print "pyz = ${press_yz}"
pyz = -5.31764436793611e-11
print "pypospack:output_section:done"
pypospack:output_section:done
print "pypospack:lammps_sim:done"
pypospack:lammps_sim:done
#------------------------------------------------------------------------------
# RUN THERMOSTAT
# running using an NPT Nose-Hoover style thermostat
#------------------------------------------------------------------------------
variable tempdamp equal 0.1
variable pressdamp equal 1.0
# set initial velocities
velocity all create 700 7396453 mom yes dist gaussian loop all
# fix for Nose-Hoover style thermostat
fix 20 all npt temp 700 700 0.1 aniso 0.0 0.0 1.0 drag 1.0 couple xyz
variable boxx equal lx
variable boxy equal ly
variable boxz equal lz
variable boxp equal press
variable boxt equal temp
# calculate averages every 10000 steps
reset_timestep 0
fix 21 all ave/time 10 10 100 v_boxx v_boxy v_boxz v_boxp v_boxt file lattice.out
thermo_style custom step temp pe ke etotal press lx ly lz press pxx pyy pzz pxy pxz pyz vol
thermo_modify flush yes
thermo 100
run 100000
PPPM initialization ...
  G vector (1/distance) = 0.351443
  grid = 8 8 8
  stencil order = 5
  estimated absolute RMS force accuracy = 3.81088e-05
  estimated relative force accuracy = 2.64651e-06
  using double precision FFTs
  3d grid and FFT values/proc = 3375 512
Memory usage per processor = 3.06549 Mbytes
Step Temp PotEng KinEng TotEng Press Lx Ly Lz Press Pxx Pyy Pzz Pxy Pxz Pyz Volume 
       0          700    -101.4116   0.63337471   -100.77823    8316.8849    4.3315082    4.3315082    4.3315082    8316.8849    13739.524    2465.0013    8746.1293   -2560.3827   -5264.2791    1970.1673      81.2676 
     100    159.56954   -100.83388   0.14438187    -100.6895    427.10722    4.3528682    4.3528682    4.3528682    427.10722    11509.872   -2610.9108   -7617.6395    665.12842    7398.2306   -1213.8055    82.475805 
     200    461.82892   -100.93492   0.41787252   -100.51705   -13360.526    4.3567372    4.3567372    4.3567372   -13360.526   -21333.356   -6848.2394   -11899.983   -1801.4521   -1529.9036    925.82578    82.695923 
     300    776.88183   -101.07101   0.70293901   -100.36807    7924.5437    4.3468773    4.3468773    4.3468773    7924.5437    25353.891    10.529923   -1590.7898   -2701.8476    366.25859   -170.76697    82.135734 
     400    517.46627   -100.72042   0.46821436    -100.2522   -10232.732    4.3634932    4.3634932    4.3634932   -10232.732   -22496.575   -850.91693   -7350.7036   -1393.2648    10941.676   -1524.6607    83.081228 
     500    479.04887   -100.60569   0.43345348   -100.17223   -7499.0943    4.3615025    4.3615025    4.3615025   -7499.0943   -3695.6192    -5257.423   -13544.241    200.29676   -10494.281   -137.48794    82.967572 
     600    928.67223   -100.97768   0.84028215    -100.1374    1884.7214     4.355588     4.355588     4.355588    1884.7214    15834.784   -630.85678   -9549.7628    -3074.768    13837.307    776.56734      82.6305 
     700    678.46605   -100.74231   0.61389034   -100.12842   -1284.4884    4.3661409    4.3661409    4.3661409   -1284.4884    1311.5291   -6845.9565    1680.9621    689.50213   -6375.8549   -89.373007     83.23256 
     800     358.1281   -100.45258   0.32404183   -100.12854    2219.0635    4.3606383    4.3606383    4.3606383    2219.0635    22378.888   -2110.9244   -13610.774    1842.3308   -2800.7124   -1234.5327    82.918262 
     900    1041.2015   -101.07313   0.94210101   -100.13103   -675.21578    4.3587651    4.3587651    4.3587651   -675.21578    14477.044   -11665.795   -4836.8957    -5009.472    6542.6013    4023.2573    82.811448 
    1000     736.4332   -100.80524   0.66634024    -100.1389    1244.7863    4.3609371    4.3609371    4.3609371    1244.7863    13710.202   -10223.635    247.79153    3424.6791    -14977.95   -3363.3625    82.935307 
    1100    418.54104   -100.52184   0.37870473   -100.14314   -17786.338     4.365697     4.365697     4.365697   -17786.338   -22355.736   -17763.976   -13239.303   -6469.2322    8229.4924     506.8061    83.207174 
    1200    998.47326   -101.04421   0.90343959   -100.14077    5903.1487    4.3518292    4.3518292    4.3518292    5903.1487    18275.819    -760.9961    194.62375   -3981.2316   -8173.1454    1714.6995    82.416757 
    1300    711.47975    -100.7877   0.64376183   -100.14394   -7562.7681    4.3681306    4.3681306    4.3681306   -7562.7681    6371.8171   -21574.699    -7485.422    3143.0016   -1537.1396   -5404.3247    83.346401 
    1400    471.17818   -100.56217   0.42633192   -100.13584   -6740.2314    4.3608227    4.3608227    4.3608227   -6740.2314   -3108.2208    -8439.539   -8672.9343   -841.23843    5921.7812     1044.682     82.92878 
    1500     832.1171   -100.88956   0.75291704   -100.13664    9572.9393    4.3512749    4.3512749    4.3512749    9572.9393    27278.545    5706.4401   -4266.1672    3428.1509    -9217.526   -4790.7147    82.385271 
    1600    888.74753   -100.94226   0.80415744    -100.1381   -9980.1908    4.3727801    4.3727801    4.3727801   -9980.1908    6413.3204   -31516.278   -4837.6149    2600.7825    12260.301   -2330.9865     83.61283 
    1700     468.2736   -100.56034    0.4237038   -100.13664    6353.6617    4.3525696    4.3525696    4.3525696    6353.6617    18188.474    11722.232   -10849.721    548.04899   -1897.2657   -2214.5109    82.458833 
    1800    631.25577   -100.71343   0.57117348   -100.14226    601.05694    4.3604462    4.3604462    4.3604462    601.05694    4584.5628   -3346.8296    565.43759    1522.2789    4110.8595   -2595.9635    82.907302 
    1900    1042.1635   -101.07964   0.94297146   -100.13667   -4267.1564    4.3636839    4.3636839    4.3636839   -4267.1564    8252.3593   -18278.917   -2774.9116    3938.2606    11391.262    -1401.916    83.092122 
    2000    324.07988   -100.42923   0.29323429   -100.13599    2988.3191    4.3560264    4.3560264    4.3560264    2988.3191    567.27486    10305.767   -1908.0841    2356.2249   -3674.0313   -4418.6605    82.655451 
    2100     792.4062   -100.85306   0.71698579   -100.13607   -10454.261    4.3612523    4.3612523    4.3612523   -10454.261   -15499.444   -9930.7823   -5932.5574    4327.7348    6419.4013    910.61517    82.953292 
    2200    872.57376   -100.92819   0.78952307   -100.13867    5097.2404    4.3604486    4.3604486    4.3604486    5097.2404    38069.926   -16327.742   -6450.4623    5232.7005    3629.9164   -4182.2833    82.907444 
    2300    543.60336   -100.63044   0.49186375   -100.13858    333.97305    4.3584028    4.3584028    4.3584028    333.97305   -1059.7851    6834.2198   -4772.5156   -292.14542   -2631.1086    -4624.483    82.790801 
    2400    543.73463    -100.6317   0.49198252   -100.13971    9689.0025    4.3604372    4.3604372    4.3604372    9689.0025    47579.981   -9642.4544   -8870.5195   -330.28873    1378.7626    1363.5343    82.906792 
    2500    1114.1124   -101.14579    1.0080724   -100.13772   -10697.857    4.3642766    4.3642766    4.3642766   -10697.857   -5578.1493   -14372.259   -12143.163    1320.1083    2069.6785    -4370.566    83.125986 
    2600    412.01395   -100.51012   0.37279888   -100.13732    17739.192    4.3540698    4.3540698    4.3540698    17739.192    45465.792    6895.2868    856.49811   -2877.1691   -326.30438   -2396.7528    82.544124 
    2700     645.1311   -100.72557   0.58372818   -100.14184    -17855.24     4.368019     4.368019     4.368019    -17855.24   -23167.402   -7033.5578   -23364.759    3288.6877    -357.3836    1937.1559     83.34001 
    2800    1048.5571   -101.08622   0.94875647   -100.13746    10037.134    4.3547655    4.3547655    4.3547655    10037.134    34286.093   -4492.3807    317.69055    6076.0432    7664.2408   -2909.8641    82.583696 
    2900    402.95428   -100.50783    0.3646015   -100.14323   -17420.686     4.363207     4.363207     4.363207   -17420.686   -38235.515    4316.8598   -18343.403     842.8933   -373.85994   -1907.7124    83.064879 
    3000    716.80148   -100.78709   0.64857704   -100.13851   -2148.9278    4.3568576    4.3568576    4.3568576   -2148.9278    7297.2779    1967.8819   -15711.943    4703.4129    6402.2668    1287.3853    82.702776 
    3100    926.70125   -100.97596   0.83849877   -100.13746    4783.5095    4.3597502    4.3597502    4.3597502    4783.5095    20432.673   -1799.1441   -4283.0008    911.29749    4534.3299   -7062.5199    82.867612 
    3200    463.73957   -100.55639   0.41960131   -100.13679   -6179.2936    4.3632685    4.3632685    4.3632685   -6179.2936    6150.9122    2001.7166   -26690.509   -2559.4668   -4516.7461   -3527.8194    83.068395 
    3300    691.90195   -100.76071   0.62604742   -100.13467    9207.2206    4.3527743    4.3527743    4.3527743    9207.2206    19014.976    5615.9048    2990.7813    2864.2521    4711.3162    298.73033    82.470465 
    3400    794.28717   -100.86111   0.71868773   -100.14243   -5153.4296    4.3674606    4.3674606    4.3674606   -5153.4296    10112.282   -9505.4052   -16067.166    2979.5085   -5460.0691   -8275.9201    83.308056 
    3500    756.35664   -100.82082   0.68436738   -100.13645   -3349.7677     4.355287     4.355287     4.355287   -3349.7677   -1537.4822    1083.9541   -9595.7749   -5469.3973   -740.32474   -2202.1519     82.61337 
    3600    332.81507   -100.44346   0.30113807   -100.14232   -749.03777    4.3620801    4.3620801    4.3620801   -749.03777   -6476.8733    4155.7896    73.970396   -855.48119   -802.71266   -585.55342    83.000536 
    3700    1085.8309   -101.11951   0.98248262   -100.13702   -7425.2804     4.362597     4.362597     4.362597   -7425.2804    7318.8414   -15919.095   -13675.588    2332.0266    -3220.905   -6886.4949     83.03005 
    3800    713.74086   -100.78878   0.64580773   -100.14297    -1126.239    4.3574111    4.3574111    4.3574111    -1126.239    10273.494    2384.9372   -16037.148   -7615.6118   -436.64345   -1366.2981    82.734303 
    3900    385.13552   -100.49466   0.34847871   -100.14618     17022.96    4.3597338    4.3597338    4.3597338     17022.96    46351.582    11734.711   -7017.4139    6320.8019    637.24981   -647.84014    82.866678 
    4000    1099.8554   -101.13661   0.99517224   -100.14144   -15317.633    4.3691325    4.3691325    4.3691325   -15317.633    8260.4535    -30353.08   -23860.273    -4247.442    -1639.413   -3980.7052    83.403761 
    4100    653.04616     -100.727   0.59088989   -100.13611    22609.171    4.3491278    4.3491278    4.3491278    22609.171    47816.798    25939.694   -5928.9782   -225.85171    4425.6582   -140.54547    82.263373 
    4200    479.81169   -100.57036    0.4341437   -100.13622   -16456.743    4.3706409    4.3706409    4.3706409   -16456.743   -7767.5615   -17448.288   -24154.379    5740.4767   -1970.3354    375.74573    83.490176 
    4300    1012.5095   -101.04766   0.91613987   -100.13152   -4728.9816    4.3560232    4.3560232    4.3560232   -4728.9816     14959.67   -16992.108   -12154.507   -3005.7097    8082.4363   -3992.0547    82.655271 
    4400    623.78612   -100.70134   0.56441479   -100.13693    5590.3752    4.3577149    4.3577149    4.3577149    5590.3752     24520.25    9896.9794   -17646.104    3535.7782     390.8265   -1400.8538    82.751606 
    4500    550.95963   -100.63773   0.49851985   -100.13921   -15696.576    4.3663726    4.3663726    4.3663726   -15696.576   -12394.619   -15573.436   -19121.674    981.52173   -511.76954   -488.03925    83.245807 
    4600    791.27064   -100.85629    0.7159583   -100.14033    16093.207    4.3526605    4.3526605    4.3526605    16093.207    60069.423   -5828.3552   -5961.4455   -3507.0727    6741.4549   -4898.0598    82.463997 
    4700    764.96334   -100.83678   0.69215491   -100.14463   -6791.0342    4.3690306    4.3690306    4.3690306   -6791.0342    11327.372   -6243.3943    -25457.08    -5081.904      -4360.8   -1395.8138     83.39793 
    4800    499.58912   -100.59309   0.45203873   -100.14105    8020.7188    4.3561155    4.3561155    4.3561155    8020.7188    34564.457   -5565.3407   -4936.9596   -1923.4962   -994.21101   -314.46791    82.660527 
    4900    731.29017   -100.80447   0.66168671   -100.14279   -7863.4259    4.3668192    4.3668192    4.3668192   -7863.4259    8083.6469   -20128.292   -11545.633   -5200.5082   -907.13237   -2073.8475    83.271356 
    5000    821.31329   -100.88004   0.74314152   -100.13689   -963.49372    4.3607981    4.3607981    4.3607981   -963.49372    15860.669   -2554.1649   -16196.985   -2160.6584   -2911.3209    -2680.339    82.927382 
    5100    450.99438   -100.54544   0.40806919   -100.13737   -5534.1397    4.3612422    4.3612422    4.3612422   -5534.1397   -13795.693   -1273.3604   -1533.3663    4328.5826   -550.16009    3664.1878    82.952718 
    5200    755.99629   -100.82086   0.68404133   -100.13682   -9499.0491    4.3630438    4.3630438    4.3630438   -9499.0491     1799.117   -15516.963   -14779.302   -4468.3769    235.62159    1856.4317    83.055564 
    5300    756.22995   -100.82151   0.68425275   -100.13725    2036.9136    4.3600152    4.3600152    4.3600152    2036.9136     10917.07    4298.7245   -9105.0535    10749.832     163.2132   -66.197081    82.882725 
    5400    600.25049   -100.68051   0.54311926   -100.13739   -9072.2703    4.3652977    4.3652977    4.3652977   -9072.2703   -8955.9648   -2904.9367   -15355.909   -3801.9043    3504.3732    4213.1755    83.184343 
    5500    511.48138   -100.59971    0.4627991   -100.13691    7470.8899    4.3600081    4.3600081    4.3600081    7470.8899    45205.147   -20082.348   -2710.1288    2247.2819    3997.2506    2111.0301     82.88232 
    5600    998.47351   -101.04065   0.90343982   -100.13721   -5525.5492    4.3625107    4.3625107    4.3625107   -5525.5492    6243.7807    1835.4026   -24655.831    10690.414    499.85483   -3905.8044    83.025118 
    5700    429.39079   -100.52857   0.38852181   -100.14005    5849.2408    4.3620982    4.3620982    4.3620982    5849.2408    35542.852   -8647.4944   -9347.6348   -8425.7207    2452.6586    2218.6071    83.001571 
    5800    787.94939   -100.85028   0.71295317   -100.13733   -13539.081    4.3633646    4.3633646    4.3633646   -13539.081    -11813.41   -18824.434   -9979.3987    13900.979   -3292.2255   -3330.6653    83.073883 
    5900    735.52792   -100.80522   0.66552112    -100.1397    3247.0564    4.3614639    4.3614639    4.3614639    3247.0564    24893.805    12328.318   -27480.954   -8476.3441    884.35912   -4636.0747    82.965368 
    6000    812.68842   -100.87315   0.73533756   -100.13781    -11386.66    4.3597659    4.3597659    4.3597659    -11386.66   -14970.619    -15463.17    -3726.191   -2309.3413   -4761.2856    1568.8404    82.868509 
    6100    430.85841   -100.53055   0.38984975    -100.1407   -8377.5233    4.3678266    4.3678266    4.3678266   -8377.5233    4588.6107   -5380.4427   -24340.738     1415.102   -1667.3574   -1689.6812    83.328999 
    6200    918.09261    -100.9695   0.83070948   -100.13879    334.41641    4.3566922    4.3566922    4.3566922    334.41641    20958.994    -123.8205   -19831.925   -12043.009    174.57502   -3759.8862    82.693362 
    6300    786.70704    -100.8534   0.71182907   -100.14157   -3825.5913    4.3669182    4.3669182    4.3669182   -3825.5913    7228.2183     3731.295   -22436.287    1186.1875   -4105.3551    574.21583    83.277021 
    6400    355.22874   -100.46161   0.32141843   -100.14019    3611.1823    4.3623659    4.3623659    4.3623659    3611.1823    39646.784   -13882.649   -14930.588    738.56161    2276.3381   -1465.9618    83.016855 
    6500    1128.6054   -101.15845    1.0211859   -100.13727   -6695.7596    4.3559102    4.3559102    4.3559102   -6695.7596   -1681.8232    591.04512   -18996.501   -4643.2473    1180.2874   -3100.9303    82.648841 
    6600    639.32416   -100.72071   0.57847394   -100.14224    2276.1007    4.3654905    4.3654905    4.3654905    2276.1007    37112.591   -11195.564   -19088.725   -1711.5541    1053.6733   -552.74299    83.195368 
    6700    486.62751   -100.58052    0.4403108   -100.14021   -17604.405    4.3608117    4.3608117    4.3608117   -17604.405    -17346.13   -25744.114   -9722.9709   -521.14087   -1180.1112   -2027.9139    82.928156 
    6800    952.44708    -101.0026   0.86179413   -100.14081   -3549.5662    4.3579236    4.3579236    4.3579236   -3549.5662    9947.7979   -127.52287   -20468.974   -1271.1076   -792.47276   -3133.7487    82.763498 
    6900    650.45728   -100.72928   0.58854742   -100.14073   -14290.453    4.3678834    4.3678834    4.3678834   -14290.453   -1212.4308   -23176.944   -18481.983   -1254.1297   -1568.9059   -2354.5238    83.332251 
    7000    646.68874   -100.71914   0.58513756     -100.134   -13517.807    4.3590204    4.3590204    4.3590204   -13517.807    -15860.25   -21243.965   -3449.2067    8918.5591   -1732.1451   -853.30466    82.826003 
    7100    761.18598   -100.82483   0.68873707   -100.13609    4264.6965    4.3619966    4.3619966    4.3619966    4264.6965    25643.109    5134.2161   -17983.236   -6130.6183   -608.47546   -4540.4713    82.995771 
    7200    847.25548   -100.90422   0.76661456   -100.13761   -10488.477    4.3645718    4.3645718    4.3645718   -10488.477   -582.10504   -23285.276    -7598.049    8586.3209    -2835.232   -2495.3587    83.142854 
    7300    356.47717   -100.46102   0.32254803   -100.13847    22778.102    4.3569533    4.3569533    4.3569533    22778.102    38881.602    20624.338    8828.3662   -8314.6228    2914.2741    2995.7203    82.708225 
    7400    916.49029   -100.96749   0.82925968   -100.13823   -14075.541    4.3659777    4.3659777    4.3659777   -14075.541   -21235.821   -2535.6116    -18455.19    3249.1607   -2267.1535   -2210.2224    83.223222 
    7500    630.03667   -100.70876   0.57007042   -100.13869    18647.972    4.3617607    4.3617607    4.3617607    18647.972    29028.146    21028.267    5887.5026   -4342.9888    2661.0914    196.08082    82.982305 
    7600    628.19478   -100.70588   0.56840383   -100.13748   -11018.488    4.3600787    4.3600787    4.3600787   -11018.488   -21858.162   -14624.905    3427.6021    -3649.544    2957.1998    4560.5665    82.886345 
    7700    682.68551   -100.75893   0.61770819   -100.14123   -3918.8679     4.363682     4.363682     4.363682   -3918.8679   -12598.337    13504.447   -12662.714    6303.8538   -4043.8747   -6177.9434    83.092015 
    7800    743.86646   -100.81068     0.673066   -100.13761   -2999.6672    4.3654951    4.3654951    4.3654951   -2999.6672    11427.599   -20097.366   -329.23489   -7654.0102    1346.6078    3221.3315    83.195632 
    7900    627.64634   -100.70381    0.5679076    -100.1359   -13437.173    4.3578928    4.3578928    4.3578928   -13437.173   -21569.225    -17566.04   -1176.2551    8082.2126    4123.8259   -891.93282    82.761743 
    8000    621.33942   -100.70228   0.56220096   -100.14008     4980.671    4.3615021    4.3615021    4.3615021     4980.671    22270.657    4880.7542   -12209.398   -12975.167      1276.81   -1850.7601    82.967549 
    8100    823.45219   -100.88333   0.74507685   -100.13825   -15974.474    4.3681552    4.3681552    4.3681552   -15974.474   -20266.499   -22563.446   -5093.4767    1737.0008    6739.4227    2340.2694    83.347807 
    8200    631.56834   -100.70551    0.5714563   -100.13405    5286.2821    4.3558113    4.3558113    4.3558113    5286.2821    24735.837   -3533.2772   -5343.7137   -2913.4218     1627.391    3163.8626    82.643212 
    8300    637.86229   -100.71417    0.5771512   -100.13702   -10210.623    4.3670676    4.3670676    4.3670676   -10210.623   -24534.434    11110.556   -17207.992   -10597.083    199.52404    -3790.101    83.285569 
    8400    847.30724   -100.90443    0.7666614   -100.13777     1824.299    4.3601188    4.3601188    4.3601188     1824.299    18579.996     868.5351   -13975.634    5290.6937    3748.8729    5589.2998    82.888632 
    8500    654.11219   -100.73148   0.59185446   -100.13963   -7003.2855    4.3587599    4.3587599    4.3587599   -7003.2855   -24014.238    14487.391    -11483.01   -6659.0311   -2702.8885    1005.5279    82.811157 
    8600    608.73198   -100.69486   0.55079349   -100.14407   -8511.7397    4.3633946    4.3633946    4.3633946   -8511.7397   -16890.721    10382.485   -19026.983    4832.0938   -380.12468    -5653.369      83.0756 
    8700    972.44284   -101.01743   0.87988672   -100.13754   -8990.1291    4.3645215    4.3645215    4.3645215   -8990.1291   -6495.2658   -4264.9398   -16210.182    2628.3208   -341.51048    4979.6539    83.139977 
    8800    446.20817   -100.54107   0.40373853   -100.13733   -9962.1705     4.359356     4.359356     4.359356   -9962.1705     -26648.7   -5343.8642    2106.0529   -344.20027   -1912.5567   -4391.0274    82.845134 
    8900    779.21727   -100.84359   0.70505216   -100.13854    1772.0414    4.3583582    4.3583582    4.3583582    1772.0414     5710.127    11497.111   -11891.114    6240.2809    3371.4058    337.50341     82.78826 
    9000    735.02298   -100.80468   0.66506424   -100.13961   -9629.4895    4.3730224    4.3730224    4.3730224   -9629.4895   -9782.5745   -8083.8014   -11022.093   -4501.2837   -933.29178     5825.111     83.62673 
    9100    589.71839   -100.66629   0.53358959    -100.1327    13252.986    4.3519956    4.3519956    4.3519956    13252.986    11988.813    18256.136    9514.0069    7834.0368   -580.83915   -3930.1347    82.426211 
    9200    651.57985   -100.72439   0.58956314   -100.13483   -2956.9293     4.367581     4.367581     4.367581   -2956.9293   -3037.8613    7999.0114   -13831.938    -3071.706   -2571.7308    2065.8555    83.314945 
    9300    761.72572   -100.82459   0.68922544   -100.13537    2945.0419    4.3627838    4.3627838    4.3627838    2945.0419   -1522.3045    5660.1797    4697.2505    2287.2066    2606.1089   -3193.6921    83.040713 
    9400    680.91359   -100.74959   0.61610493   -100.13349    5686.7707    4.3564557    4.3564557    4.3564557    5686.7707    8450.6107    5495.9599    3113.7416   -1115.8073    -5082.852   -4084.7309    82.679895 
    9500     496.0622   -100.58706    0.4488475   -100.13821   -11025.489    4.3698291    4.3698291    4.3698291   -11025.489   -24408.489    2117.3467   -10785.326   -4209.7319    1558.4054    479.15846    83.443664 
    9600    992.35726   -101.03195    0.8979057   -100.13405    5674.1775    4.3561688    4.3561688    4.3561688    5674.1775    14074.235    984.77266    1963.5249    894.91027   -395.29478   -4993.7697    82.663557 
    9700    517.30263   -100.60807   0.46806629      -100.14   -14022.169    4.3672367    4.3672367    4.3672367   -14022.169   -31388.403   -200.58771   -10477.518   -5929.3048   -5981.7197   -444.55869    83.295243 
    9800    657.74775   -100.73562   0.59514399   -100.14048   -761.17594    4.3587473    4.3587473    4.3587473   -761.17594   -7103.8208    8992.5176   -4172.2246    597.02707    2599.2854    1070.1451    82.810439 
    9900    951.22048   -101.00109   0.86068428   -100.14041    595.15244    4.3627555    4.3627555    4.3627555    595.15244   -5175.4111     13777.62   -6816.7516   -592.18989   -7375.0146     666.3299    83.039096 
   10000    543.82788    -100.6299   0.49206689   -100.13783   -2295.5621    4.3632344    4.3632344    4.3632344   -2295.5621   -19609.268    18281.559   -5558.9772    3695.1169    4478.6463    3462.4327    83.066448 
   10100    696.62805   -100.76275    0.6303237   -100.13243    6253.7799    4.3613987    4.3613987    4.3613987    6253.7799    9361.8126    20075.525   -10675.998   -2024.1454   -2055.6672     -4022.59    82.961648 
   10200    931.09076   -100.97468   0.84247049   -100.13221   -2843.4684    4.3647888    4.3647888    4.3647888   -2843.4684    -8592.763    12453.672   -12391.314    3598.3389   -38.419606    1220.2198    83.155258 
   10300    626.50058   -100.70076   0.56687089   -100.13389    7104.8653    4.3602562    4.3602562    4.3602562    7104.8653    4757.8707    17691.802   -1135.0773    5272.2767     3525.128   -1532.7565    82.896469 
   10400    689.34266   -100.76085   0.62373172   -100.13712   -3512.9383    4.3637733    4.3637733    4.3637733   -3512.9383     1268.055    9552.1111   -21358.981    550.91179   -165.40366    1594.7406    83.097231 
   10500    873.14267   -100.93021   0.79003784   -100.14018    4345.3599    4.3629714    4.3629714    4.3629714    4345.3599   -5719.2785    32938.165   -14182.806    11044.282    1593.0562    5227.5076    83.051429 
   10600    646.97677   -100.72372   0.58539818   -100.13832    2945.4358    4.3627786    4.3627786    4.3627786    2945.4358    10915.407    3218.6515   -5297.7512   -2600.6763   -2080.2835    -7633.871     83.04042 
   10700    549.72637   -100.63567   0.49740397   -100.13826    5994.4741     4.358942     4.358942     4.358942    5994.4741   -14197.608    45399.818   -13218.788    3017.6524     4452.331    3669.1225    82.821535 
   10800     871.2666   -100.92838   0.78834033   -100.14004     3508.992     4.365951     4.365951     4.365951     3508.992    15174.231    4547.4228   -9194.6781    1570.5111   -5312.1575   -6215.0409    83.221697 
   10900    687.63514   -100.75887   0.62218673   -100.13668   -4460.9212    4.3613617    4.3613617    4.3613617   -4460.9212   -23676.873      12349.3   -2055.1904   -2127.3068     3832.576    -3999.571    82.959538 
   11000    408.01834   -100.50681   0.36918357   -100.13762    5539.7664    4.3586178    4.3586178    4.3586178    5539.7664   -4227.4106    33299.079   -12452.369    2898.3037   -2806.3884    949.87655    82.803055 
   11100    1086.8583   -101.11645   0.98341227   -100.13303   -12593.007    4.3662891    4.3662891    4.3662891   -12593.007   -13867.901    -14103.61   -9807.5096    -1603.656    3764.3241   -4484.8516    83.241036 
   11200    440.18686   -100.53315   0.39829032   -100.13486    2561.1715    4.3593245    4.3593245    4.3593245    2561.1715   -26264.061    34467.339   -519.76333   -1575.3435    4366.3685    1353.1753    82.843339 
   11300    732.77082   -100.79872   0.66302644    -100.1357   -12188.912    4.3638528    4.3638528    4.3638528   -12188.912   -4797.2495   -11256.672   -20512.816   -296.96238    -2483.375   -1044.4029    83.101769 
   11400    770.03144   -100.83287   0.69674063   -100.13613     4055.345    4.3631635    4.3631635    4.3631635     4055.345   -3941.1213    20923.034   -4815.8773   -3883.4107    6244.3142    329.94013    83.062399 
   11500     793.4782   -100.85405   0.71795575   -100.13609   -9514.7415    4.3607297    4.3607297    4.3607297   -9514.7415   -26566.823    872.73679   -2850.1378    3615.8762   -3598.6258   -370.57857    82.923474 
   11600    536.91869   -100.62163   0.48581531   -100.13581    4490.0321    4.3640159    4.3640159    4.3640159    4490.0321    19221.537    9730.6901   -15482.131   -3353.4882     1693.509   -729.43433     83.11109 
   11700    886.71325   -100.93868   0.80231679   -100.13637   -1174.4294    4.3620343    4.3620343    4.3620343   -1174.4294   -15724.392    1007.6737     11193.43    8067.5043    -1576.768    6132.3973    82.997925 
   11800    696.11943   -100.76584   0.62986349   -100.13597    4681.9841    4.3616362    4.3616362    4.3616362    4681.9841    5931.9622    5277.4867    2836.5033    403.49698   -1489.2049    4365.0523    82.975201 
   11900    474.67753   -100.56642   0.42949821   -100.13692   -6278.7224    4.3650204    4.3650204    4.3650204   -6278.7224   -5728.8879    6431.7795   -19539.059    1877.7211    811.54224    6127.9648    83.168494 
   12000    815.25327   -100.87405   0.73765829    -100.1364    9483.3386    4.3584323    4.3584323    4.3584323    9483.3386    6707.9294   -8358.5841     30100.67    3669.4889   -6531.5594    9269.6632    82.792484 
   12100    812.02243   -100.87037   0.73473496   -100.13564   -9634.5231    4.3663375    4.3663375    4.3663375   -9634.5231   -13817.066    3165.4763    -18251.98   -3509.7081    3100.3759   -2284.5328    83.243804 
   12200    389.57225   -100.48851   0.35249316   -100.13601    980.26125    4.3614638    4.3614638    4.3614638    980.26125   -7588.6087   -2195.0761    12724.469    526.59473    -5947.472    6372.6269    82.965366 
   12300     1055.574   -101.08848   0.95510556   -100.13337   -713.45242    4.3604257    4.3604257    4.3604257   -713.45242    668.56306   -10536.344    7727.4235    3643.6884   -1326.8325   -946.82799    82.906134 
   12400    532.21192   -100.61928   0.48155653   -100.13773   -5047.9287     4.367119     4.367119     4.367119   -5047.9287   -31421.133    2592.8409    13684.506    -3702.249   -3209.4062    911.71947    83.288507 
   12500    635.22697   -100.70952   0.57476671   -100.13475    8726.2228    4.3576076    4.3576076    4.3576076    8726.2228    1122.0883     -4126.51     29183.09     2358.544   -6538.0703    6797.1789    82.745498 
   12600    939.21269   -100.98496   0.84981938   -100.13514   -7322.2673    4.3666638    4.3666638    4.3666638   -7322.2673   -17801.775   -5770.6197    1605.5924     4333.314    1734.2549   -356.23736    83.262466 
   12700    627.68485   -100.70266   0.56794244   -100.13472    2083.3172    4.3633696    4.3633696    4.3633696    2083.3172    -25960.55    7476.5447    24733.957   -5415.7042   -3172.2194    7560.4744     83.07417 
   12800     666.2413   -100.73872   0.60282913   -100.13589   -3983.8951    4.3618493    4.3618493    4.3618493   -3983.8951   -5143.4254   -3498.0585   -3310.2013    5591.7798   -263.97471   -4026.4639    82.987363 
   12900    712.30205   -100.78413   0.64450586   -100.13963    6349.8169    4.3582403    4.3582403    4.3582403    6349.8169   -6966.4113    11044.376    14971.486   -1218.5559    1523.7804    1278.2953    82.781541 
   13000    754.90626   -100.82396   0.68305504    -100.1409   -7822.4418    4.3690258    4.3690258    4.3690258   -7822.4418   -24715.763    1023.3906    225.04703   -1501.4538   -5794.4727   -5356.4679    83.397652 
   13100    541.72683   -100.62897   0.49016582    -100.1388    6193.1139    4.3562608    4.3562608    4.3562608    6193.1139    14256.643     8638.148   -4315.4493   -876.96016    1766.5626    82.245245    82.668795 
   13200     743.3021   -100.81243   0.67255536   -100.13987    885.77837    4.3644452    4.3644452    4.3644452    885.77837   -13738.643    7029.8806    9366.0977   -2762.7879   -3282.3296    5676.9328    83.135619 
   13300     853.6547   -100.90549   0.77240471   -100.13308   -4423.7382    4.3672616    4.3672616    4.3672616   -4423.7382   -4106.0557   -9912.2388    747.07983   -2983.2021   -1166.4849   -7536.4498    83.296666 
   13400    492.94833    -100.5776   0.44603001   -100.13157    15448.614    4.3517494    4.3517494    4.3517494    15448.614    11726.612    8184.7096    26434.519   -1281.9695    3574.7648    6552.7188    82.412225 
   13500    788.32543   -100.84626   0.71329342   -100.13297   -4315.4765    4.3711827    4.3711827    4.3711827   -4315.4765   -2190.0687    -17695.94    6939.5791    1226.4178   -1636.4025   -4857.8012    83.521228 
   13600     820.1037   -100.87584   0.74204706   -100.13379    5331.3148    4.3578786    4.3578786    4.3578786    5331.3148   -10792.468     8805.809    17980.603   -5655.1228    1272.3934   -7389.7988    82.760934 
   13700    574.61673   -100.65924   0.51992529   -100.13931    7166.4647    4.3587118    4.3587118    4.3587118    7166.4647    19520.578    7555.4936   -5576.6771   -2034.7623    418.58583    2135.5405    82.808411 
   13800    749.72649   -100.81411   0.67836828   -100.13574   -5347.0119    4.3679685    4.3679685    4.3679685   -5347.0119   -13652.113   -2433.4898    44.567138    435.71299   -3087.9692   -3125.4337    83.337118 
   13900    799.46441   -100.85724   0.72337219   -100.13386     2261.432    4.3569937    4.3569937    4.3569937     2261.432   -15019.134    20594.755    1208.6752   -9708.0802   -1449.8577    5035.6093    82.710527 
   14000    661.52156   -100.73213   0.59855861   -100.13357   -4015.1242    4.3643209    4.3643209    4.3643209   -4015.1242    6875.2159   -5967.0013   -12953.587   -2168.9253       4102.9    4280.5936    83.128515 
   14100    629.20548    -100.7041   0.56931834   -100.13478    -1907.481    4.3604533    4.3604533    4.3604533    -1907.481   -20998.963   -5507.9226    20784.442   -3336.0536   -3393.5709    967.59874    82.907707 
   14200    812.34055   -100.87068    0.7350228   -100.13566   -5121.3685    4.3673991    4.3673991    4.3673991   -5121.3685    -17353.88    1596.2964    393.47778   -6668.9856    10390.544     1566.062    83.304534 
   14300    637.17165     -100.712    0.5765263   -100.13547    2596.1799    4.3562412    4.3562412    4.3562412    2596.1799    10903.685   -7986.7135    4871.5679    329.35753   -1212.5066    1606.5159    82.667682 
   14400    640.31406   -100.71829   0.57936962   -100.13892   -2196.4905    4.3596467    4.3596467    4.3596467   -2196.4905   -16501.515   -2160.8444    12072.888    -3879.651    901.08571   -2247.9409    82.861707 
   14500    899.44948   -100.94874   0.81384079   -100.13489   -1909.6812    4.3681027    4.3681027    4.3681027   -1909.6812   -471.44729   -1338.3615   -3919.2349    472.20985   -1660.4208   -3655.0135    83.344803 
   14600    564.10705   -100.64497   0.51041591   -100.13456    10306.198    4.3539057    4.3539057    4.3539057    10306.198    3520.8377   -7763.7507    35161.509   -1549.9102   -7328.7952    8467.6169    82.534791 
   14700    670.61526   -100.74405   0.60678678   -100.13726   -2322.5412    4.3664784    4.3664784    4.3664784   -2322.5412   -1780.9082   -10984.591    5797.8759   -4042.6913    3747.5071   -2368.0039    83.251858 
   14800    799.05117   -100.85929   0.72299829    -100.1363    6609.4559    4.3603558    4.3603558    4.3603558    6609.4559     4735.129   -5104.8368    20198.076   -1218.9812   -2487.4694    7855.0668    82.902149 
   14900    595.43594   -100.67627   0.53876295    -100.1375   -3935.3388    4.3563407    4.3563407    4.3563407   -3935.3388    15294.732   -16038.426   -11062.323   -3574.1816    2362.5133   -1883.4742    82.673347 
   15000     642.5969   -100.71833   0.58143518   -100.13689    389.14204    4.3631129    4.3631129    4.3631129    389.14204    9719.9438   -5992.6046   -2559.9131    520.39533    683.50799   -2528.0935    83.059508 
   15100    882.72226   -100.93509   0.79870565   -100.13638   -13957.175     4.363584     4.363584     4.363584   -13957.175    -14214.12   -9894.3783   -17763.027   -778.68195   -3291.6174    4207.8799    83.086416 
   15200     604.1432   -100.68026   0.54664147   -100.13361    6770.8537    4.3565227    4.3565227    4.3565227    6770.8537     19345.18    5506.9827   -4539.6016    4924.5585   -2813.1986   -3193.8534    82.683708 
   15300    631.87959   -100.70799   0.57173793   -100.13625   -10586.705    4.3634799    4.3634799    4.3634799   -10586.705   -20449.703   -8449.7687   -2860.6418   -1169.8255   -1601.3774    8505.7892     83.08047 
   15400    866.92547   -100.91982   0.78441239   -100.13541   -4836.8117    4.3643728    4.3643728    4.3643728   -4836.8117   -20851.746    1675.5503    4665.7608     1358.067   -1638.0333   -642.74704    83.131483 
   15500    599.92581   -100.67737   0.54282548   -100.13455    5035.5708    4.3555857    4.3555857    4.3555857    5035.5708    16483.765   -518.75319   -858.29903    21.602312   -423.47228     300.8805    82.630366 
   15600      619.995   -100.70122    0.5609845   -100.14023   -13774.974    4.3639408    4.3639408    4.3639408   -13774.974   -18306.451    -23281.82    263.35007    808.90404    2023.4612    3362.6236    83.106799 
   15700    869.94015   -100.92362   0.78714013   -100.13648    8377.8024    4.3614318    4.3614318    4.3614318    8377.8024    16749.552    10119.074   -1735.2186    3600.7628   -2506.3826   -3461.8005    82.963538 
   15800    521.18482   -100.60877   0.47157897   -100.13719   -369.30418    4.3582711    4.3582711    4.3582711   -369.30418    12831.567   -17979.312    4039.8325    3142.9737    2293.8667    540.10944    82.783296 
   15900    744.06628   -100.80799   0.67324681   -100.13474   -4172.0409    4.3643266    4.3643266    4.3643266   -4172.0409    2337.2242   -6625.3195   -8228.0276    4992.9709   -1483.7614    328.03983    83.128839 
   16000    786.52694   -100.84677   0.71166611    -100.1351     5986.448    4.3597661    4.3597661    4.3597661     5986.448    4480.6958    13307.228    171.41966   -185.50738    -2650.629     1939.447    82.868519 
   16100    661.10447   -100.73477   0.59818122   -100.13659    -5740.504    4.3587349    4.3587349    4.3587349    -5740.504    6540.2812   -28028.859    4267.0657   -785.45965    2732.3539    1876.4927    82.809728 
   16200    707.53901   -100.77574   0.64019617   -100.13554   -6393.9555    4.3645538    4.3645538    4.3645538   -6393.9555   -1453.4929   -3772.5338    -13955.84   -1458.8051    3701.2828    2200.8124    83.141827 
   16300    723.28433    -100.7909   0.65444286   -100.13646   -1536.4983    4.3607846    4.3607846    4.3607846   -1536.4983   -12734.514   -2049.5124    10174.531   -5204.4301    4406.3489   -1077.5933    82.926609 
   16400    737.60345   -100.80105    0.6673991   -100.13366   -3056.9924    4.3603701    4.3603701    4.3603701   -3056.9924    11632.826   -8099.7704   -12704.033    5396.6614    7370.9435    116.59683    82.902967 
   16500    406.51126    -100.5059   0.36781993   -100.13808    1795.0109    4.3610001    4.3610001    4.3610001    1795.0109   -6713.3529    17007.515   -4909.1293    -577.8392    1015.1564    -3261.101    82.938906 
   16600    957.12949   -101.00053   0.86603088    -100.1345   -2078.6988    4.3604437    4.3604437    4.3604437   -2078.6988   -14461.921    2962.7257    5263.0987   -1717.1574     6578.529   -1919.8457    82.907162 
   16700    505.29484   -100.59066   0.45720139   -100.13346   -1101.6725    4.3635023    4.3635023    4.3635023   -1101.6725    12093.921    3060.9006   -18459.839      5434.13    469.24395    5956.3247    83.081749 
   16800    724.78504   -100.78852   0.65580073   -100.13272   -9218.8185    4.3585811    4.3585811    4.3585811   -9218.8185   -23075.715   -5805.8094    1225.0687   -10978.363    3432.8805   -3912.6368    82.800965 
   16900    912.97295   -100.95807   0.82607711   -100.13199    2945.4903    4.3629909    4.3629909    4.3629909    2945.4903    5803.9025    448.59276    2583.9756    645.19149    1569.4696    4821.2765    83.052543 
   17000    599.30966   -100.67619   0.54226798   -100.13392   -12734.556    4.3623268    4.3623268    4.3623268   -12734.556    323.03507   -18873.532    -19653.17   -3758.5633    96.809678    4764.7811    83.014622 
   17100    636.33513   -100.71105    0.5757694   -100.13528    11287.443     4.356933     4.356933     4.356933    11287.443    13945.987   -8247.8538    28164.197   -2590.2755    3434.2739   -758.04814    82.707072 
   17200     870.7903   -100.92506   0.78790937   -100.13715   -4162.2322    4.3637851    4.3637851    4.3637851   -4162.2322   -1140.1996    372.37433   -11718.871    6610.5222    773.65482    6570.7949    83.097904 
   17300    438.24387   -100.53336   0.39653226   -100.13683    3280.9678    4.3613399    4.3613399    4.3613399    3280.9678    4995.6705   -22032.405    26879.638   -3559.4297    3775.1699   -3705.1056     82.95829 
   17400    705.85461   -100.77078   0.63867209   -100.13211    2242.2927    4.3609593    4.3609593    4.3609593    2242.2927    9204.4395   -854.88003   -1622.6815    3642.2379   -1853.2593    4984.1427    82.936578 
   17500     672.1919   -100.74213   0.60821336   -100.13392    1103.6721    4.3607287    4.3607287    4.3607287    1103.6721   -10473.621    6668.2431    7116.3945    3103.4971    3575.5634   -301.43716    82.923422 
   17600    784.59516   -100.84287   0.70991819   -100.13295   -6409.7085    4.3621919    4.3621919    4.3621919   -6409.7085   -250.09441   -22695.286    3716.2549   -3470.9488   -4718.3815    283.50765    83.006922 
   17700    570.90787   -100.65425   0.51656944   -100.13768   -5194.5235    4.3605716    4.3605716    4.3605716   -5194.5235   -2896.0148    482.91666   -13170.472     922.4342    1157.5174    7929.7805    82.914456 
   17800    1016.1796   -101.05628   0.91946062   -100.13682   -8859.2211    4.3592312    4.3592312    4.3592312   -8859.2211   -20193.406   -8583.4457    2199.1878    424.07792   -4898.7589   -3178.8825    82.838021 
   17900    614.00539   -100.69108   0.55556498   -100.13552   -10495.348    4.3672671    4.3672671    4.3672671   -10495.348   -1038.5544   -23777.884   -6669.6055   -5845.0841   -4585.0954    4951.6783    83.296984 
   18000    713.35169   -100.77779    0.6454556   -100.13234    -3379.211    4.3570446    4.3570446    4.3570446    -3379.211   -8542.2092    7103.4136   -8698.8373    3426.8948   -126.02189   -6716.0041    82.713425 
   18100    787.82741   -100.84731    0.7128428   -100.13446    8566.9941    4.3621897    4.3621897    4.3621897    8566.9941    8467.4033     2143.032    15090.547    2729.5956   -331.34924   -772.31312    83.006797 
   18200    518.47997    -100.6062   0.46913157   -100.13706   -3119.9606     4.363835     4.363835     4.363835   -3119.9606    6371.6163   -8915.5913   -6815.9068    382.18858   -46.808275    2031.3589    83.100753 
   18300    620.70765   -100.69718   0.56162933   -100.13556    19289.639    4.3584901    4.3584901    4.3584901    19289.639    22599.158    13516.376    21753.381    9864.4336   -2532.2626   -5943.8443    82.795778 
   18400     773.1896   -100.83497    0.6995982   -100.13537    1397.0692    4.3633707    4.3633707    4.3633707    1397.0692    459.51754    3000.1609    731.52908   -22.475153   -210.87272    2964.0297    83.074234 
   18500    564.06917   -100.64696   0.51038164   -100.13658    3656.7508    4.3617581    4.3617581    4.3617581    3656.7508    5324.2034   -18129.497    23775.546    973.02691   -526.38487   -1398.2174    82.982159 
   18600    864.83512   -100.91649   0.78252099   -100.13397   -3234.5743    4.3617513    4.3617513    4.3617513   -3234.5743   -3526.8909   -610.04179   -5566.7902    1421.0463   -1703.9906    974.73459    82.981772 
   18700    706.91612   -100.77749   0.63963256   -100.13786   -3879.3443    4.3582377    4.3582377    4.3582377   -3879.3443    -10205.13   -9383.3064    7950.4033   -12289.042    4091.7241    -194.8446    82.781397 
   18800    774.77476   -100.83717   0.70103248   -100.13614   -5152.4737    4.3630642    4.3630642    4.3630642   -5152.4737    5758.1764   -27648.205    6432.6074    4832.7057    1527.0787    2753.1217    83.056727 
   18900    678.52112   -100.75079   0.61394017   -100.13685   -3729.3781    4.3617859    4.3617859    4.3617859   -3729.3781    4247.7024    2956.7814   -18392.618   -5293.3155     3660.715   -5593.3215    82.983748 
   19000    788.33592   -100.84872   0.71330291   -100.13541   -1131.9475    4.3626451    4.3626451    4.3626451   -1131.9475   -7156.9168   -2149.3956      5910.47   -1650.7674    2138.9275    4397.4615    83.032796 
   19100    625.03041   -100.69892   0.56554065   -100.13338   -939.72126    4.3636065    4.3636065    4.3636065   -939.72126    12003.003    -3278.617    -11543.55     5548.915    1790.2776   -40.407801    83.087701 
   19200    600.04596   -100.67743    0.5429342    -100.1345    2225.6617    4.3583502    4.3583502    4.3583502    2225.6617   -1922.7179    23250.097   -14650.394   -6632.7588    2741.2819   -3716.1035    82.787805 
   19300    870.80074   -100.91927   0.78791881   -100.13135    2347.4479    4.3628076    4.3628076    4.3628076    2347.4479   -2679.2353    10024.159   -302.58034   -1427.5568   -206.51972    5369.4433     83.04207 
   19400    478.31267   -100.56765   0.43278736   -100.13486    4449.6518    4.3603388    4.3603388    4.3603388    4449.6518    9632.0111    7986.3563    -4269.412   -3703.3348    -781.1368   -2521.7327    82.901181 
   19500    882.19522   -100.93178   0.79822878   -100.13355   -2119.6118    4.3625964    4.3625964    4.3625964   -2119.6118    4595.1687   -1884.3138   -9069.6904   -5798.3463    2565.5517    3961.4063    83.030012 
   19600    758.31238   -100.82063   0.68613698   -100.13449     1322.871    4.3628179    4.3628179    4.3628179     1322.871   -11723.788    2301.3169    13391.084   -7355.4701   -3920.0123    1726.2706    83.042659 
   19700    658.28994   -100.73028   0.59563457   -100.13465   -2293.6197    4.3605274    4.3605274    4.3605274   -2293.6197     14047.48   -17129.664   -3798.6752    1225.2301    5882.3666   -2063.8131    82.911935 
   19800    706.53897   -100.77285   0.63929131   -100.13356    2714.0984    4.3621156    4.3621156    4.3621156    2714.0984   -15229.676    11769.895    11602.076   -6757.7106   -2772.8001    1759.2025    83.002567 
   19900    700.12962   -100.76847   0.63349199   -100.13498    1161.3865    4.3607278    4.3607278    4.3607278    1161.3865   -1790.6649    15478.781   -10203.957   -537.69281   -1925.9903   -995.78201    82.923368 
   20000    642.52131    -100.7151   0.58136679   -100.13374    7545.9684    4.3609165    4.3609165    4.3609165    7545.9684   -2051.4202    3245.2647    21444.061    1711.1579    2436.8836   -763.50147    82.934135 
   20100    564.94378   -100.64812   0.51117301   -100.13694   -5531.0788    4.3639935    4.3639935    4.3639935   -5531.0788   -14127.259    15351.531   -17817.508   -10740.604   -5691.7055    -1743.157    83.109806 
   20200     895.4971   -100.94529   0.81026459   -100.13502    2839.1077    4.3593194    4.3593194    4.3593194    2839.1077     4378.787     2191.751    1946.7852    2462.1197    2188.3421   -62.809108    82.843047 
   20300    633.68655   -100.70898    0.5733729   -100.13561   -4786.4747    4.3620878    4.3620878    4.3620878   -4786.4747     1943.277   -13861.249   -2441.4515   -4065.8098   -5869.8999   -1141.2057    83.000977 
   20400    660.37962   -100.73293   0.59752536   -100.13541   -9443.2051    4.3616077    4.3616077    4.3616077   -9443.2051    6619.7024   -2933.7117   -32015.606   -2130.2076   -1069.4878    778.68624    82.973574 
   20500    922.04299   -100.96757   0.83428387   -100.13329    3073.2758    4.3609758    4.3609758    4.3609758    3073.2758    11455.011    943.03518   -3178.2182    8112.0458     574.7407    1101.3687    82.937518 
   20600    612.42888   -100.68927   0.55413852   -100.13513   -12553.725     4.363728     4.363728     4.363728   -12553.725   -11369.472   -5490.6961   -20801.007   -2757.7326   -4829.8832   -2042.3983     83.09464 
   20700    537.24202   -100.61932   0.48610787   -100.13322    3046.5504    4.3621953    4.3621953    4.3621953    3046.5504     27949.04    9869.4375   -28678.827    4378.9745    474.98299   -779.02461    83.007113 
   20800      949.195   -100.99174   0.85885158   -100.13289   -5220.6285    4.3610226    4.3610226    4.3610226   -5220.6285   -26792.854    20113.214   -8982.2448    2263.7807    1245.6589   -169.77398    82.940187 
   20900    407.18973    -100.5049   0.36843382   -100.13647    6032.8068    4.3595185    4.3595185    4.3595185    6032.8068    29466.521    2968.1746   -14336.275   -3074.8962   -5933.3738   -1320.2877    82.854398 
   21000    675.72095   -100.74782   0.61140652   -100.13642   -2545.0299    4.3620969    4.3620969    4.3620969   -2545.0299    3780.7593    6340.1353   -17755.984    1360.0967    -234.5232    -1422.306    83.001496 
   21100    840.59346   -100.89728   0.76058663   -100.13669    2361.6635    4.3642318    4.3642318    4.3642318    2361.6635   -2010.4001    2245.8247     6849.566    1154.7072   -192.26655    1988.2846    83.123424 
   21200    677.65724   -100.74651   0.61315851   -100.13335    1981.7922    4.3584475    4.3584475    4.3584475    1981.7922    22888.067   -13623.043   -3319.6468    3532.7281   -3432.9907   -4026.3716    82.793351 
   21300    596.09879   -100.67323   0.53936271   -100.13386   -411.34747    4.3636468    4.3636468    4.3636468   -411.34747   -1802.3393   -9398.6905    9966.9874   -1789.2123     3346.496    3581.0176    83.090004 
   21400    1026.9231   -101.06113   0.92918156   -100.13195   -681.99942    4.3634446    4.3634446    4.3634446   -681.99942    9661.1157   -8838.4851    -2868.629    8575.7435   -3812.1232    3846.0756    83.078453 
   21500    602.27208   -100.67819   0.54494844   -100.13325    10041.875    4.3562968    4.3562968    4.3562968    10041.875    13281.516   -7018.4551    23862.563    -4198.513   -409.12027    794.48954    82.670847 
   21600    618.31147   -100.69663   0.55946121   -100.13717   -7451.9256    4.3645512    4.3645512    4.3645512   -7451.9256    5272.9326   -8367.0895    -19261.62    3675.8822    1694.3594    6180.2313    83.141676 
   21700    881.33509   -100.93483   0.79745051   -100.13738    11747.086    4.3608155    4.3608155    4.3608155    11747.086    9881.2585     8277.796    17082.204   -2306.1134   -10897.751   -465.47794    82.928371 
   21800    608.40928    -100.6865    0.5505015   -100.13599   -2850.5054    4.3592373    4.3592373    4.3592373   -2850.5054    372.36978   -3827.0672   -5096.8187   -9226.7012    3135.8241   -1335.5944    82.838368 
   21900    449.75666   -100.54467   0.40694928   -100.13772   -3449.3832    4.3641241    4.3641241    4.3641241   -3449.3832    11443.234   -2334.9983   -19456.385    6822.2284   -5758.3314    3503.4344     83.11727 
   22000    927.02389   -100.97235    0.8387907   -100.13356    5956.3716    4.3616186    4.3616186    4.3616186    5956.3716    1713.8011    7788.7083    8366.6053   -8205.4223   -8196.9389   -2365.9484    82.974197 
   22100    601.94387   -100.67854   0.54465147   -100.13389   -11268.956    4.3610453    4.3610453    4.3610453   -11268.956   -5558.8929   -14380.788   -13867.186    233.78885    3075.9305   -5412.4797    82.941481 
   22200    520.63852   -100.60645   0.47108467   -100.13536    4737.2193    4.3614512    4.3614512    4.3614512    4737.2193     20485.06    5731.6198   -12005.022    884.34869   -7410.0076    4474.4284    82.964646 
   22300    1005.4456     -101.044   0.90974832   -100.13425   -4813.3918    4.3644855    4.3644855    4.3644855   -4813.3918   -12190.211   -13970.501    11720.536   -4414.6228   -2252.3301   -3615.0392    83.137921 
   22400    663.98969   -100.73343   0.60079183   -100.13264   -45.547208    4.3585277    4.3585277    4.3585277   -45.547208    4593.9761     9328.953   -14059.571     1905.852    1383.9107    6274.9687     82.79792 
   22500    548.73245   -100.62982   0.49650465   -100.13331    2710.1791      4.36352      4.36352      4.36352    2710.1791    3858.5136   -7039.9258     11311.95   -187.86412   -6962.0595    2155.7953    83.082759 
   22600     1004.701   -101.04169   0.90907459   -100.13261   -3060.5311    4.3643176    4.3643176    4.3643176   -3060.5311   -7242.2802    5949.4301   -7888.7433    1302.8933    6785.8757    547.19758    83.128326 
   22700    639.97348   -100.71119   0.57906145   -100.13212    6661.8962    4.3580927    4.3580927    4.3580927    6661.8962    6544.1673    -325.9639    13767.485   -6337.5557   -4718.1659   -1553.3764    82.773133 
   22800    409.83746   -100.50636   0.37082955   -100.13553   -4219.6602    4.3650091    4.3650091    4.3650091   -4219.6602    13694.492    -14189.59   -12163.883    1765.9085    1195.3735   -2924.3242    83.167846 
   22900    1062.7785   -101.09492    0.9616243    -100.1333   -974.52775    4.3597328    4.3597328    4.3597328   -974.52775   -17952.406    -718.1537    15746.977   -7034.6298    3035.8537    -6869.579     82.86662 
   23000    461.20999   -100.55365    0.4173125   -100.13634    3929.0769    4.3607252    4.3607252    4.3607252    3929.0769    20114.724   -13108.447    4780.9541   -2355.4227   -6301.2797   -2083.8554    82.923219 
   23100    549.27585   -100.63058   0.49699633   -100.13359   -15887.985    4.3651511    4.3651511    4.3651511   -15887.985   -8366.9911   -21905.502   -17391.461    4476.5203    2867.7165   -1090.3248    83.175963 
   23200    978.44733   -101.01795   0.88531971   -100.13263    5747.6602    4.3569077    4.3569077    4.3569077    5747.6602   -5719.3366    4923.3368     18038.98    -10195.81    283.82607   -2991.4132    82.705628 
   23300    613.26679   -100.68966   0.55489668   -100.13476   -17090.735    4.3650822    4.3650822    4.3650822   -17090.735    2484.5167   -24442.929   -29313.793    6435.6153   -1019.6009    6204.2953    83.172023 
   23400    600.85167   -100.67653   0.54366322   -100.13287   -4323.2658    4.3595349    4.3595349    4.3595349   -4323.2658   -9457.5398    9250.8918   -12763.149   -4816.7637    5307.0897   -3818.3434    82.855337 
   23500    971.63147   -101.01288   0.87915258   -100.13373    1339.7167    4.3608777    4.3608777    4.3608777    1339.7167    -1492.577    4567.2904    944.43663    -1091.912    742.02724    3309.1414    82.931918 
   23600    661.66387    -100.7333   0.59868737   -100.13461   -3765.9415    4.3644594    4.3644594    4.3644594   -3765.9415    1864.5943    4982.0356   -18144.454   -221.49475    20.039133   -1417.5097    83.136429 
   23700    498.81526   -100.58597   0.45133853   -100.13463    13478.029    4.3565257    4.3565257    4.3565257    13478.029    1690.6838    19137.131    19606.273   -5213.0093   -382.90427   -2869.2181     82.68388 
   23800    860.75725   -100.91598   0.77883124   -100.13715   -1777.5624    4.3666367    4.3666367    4.3666367   -1777.5624   -1981.6862    -5203.409     1852.408   -10.472017   -2605.3702   -1321.8512    83.260915 
   23900    593.54554   -100.67233   0.53705248   -100.13528    18816.786    4.3564514    4.3564514    4.3564514    18816.786    4247.8657    14843.235    37359.257   -695.69601   -1504.9749   -4911.5574    82.679646 
   24000    506.05282   -100.59392   0.45788723   -100.13603   -14480.272    4.3647865    4.3647865    4.3647865   -14480.272   -8269.9828   -25250.357   -9920.4766    2825.3138    822.47045    1624.7407    83.155123 
   24100    846.49024   -100.90177   0.76592216   -100.13584    1591.2421    4.3618618    4.3618618    4.3618618    1591.2421   -3495.9264    360.29748    7909.3551   -3884.0637   -162.10518    4790.3184    82.988079 
   24200    864.19547   -100.91421   0.78194223   -100.13227   -10787.051    4.3593731    4.3593731    4.3593731   -10787.051   -4587.8014   -12864.363   -14908.987    5828.9043    1753.3307   -2032.0264    82.846108 
   24300    484.26763   -100.57355   0.43817553   -100.13538   -23606.894    4.3659138    4.3659138    4.3659138   -23606.894   -15245.045   -25896.694   -29678.944   -4185.4106    1486.2828    5582.2705    83.219572 
   24400    930.67328   -100.97532   0.84209274   -100.13323    7112.2786    4.3570007    4.3570007    4.3570007    7112.2786    1784.9591    7742.9064     11808.97    1251.8697   -949.91883      1694.46    82.710928 
   24500    719.71209   -100.78776   0.65121062   -100.13655   -14017.304    4.3668895    4.3668895    4.3668895   -14017.304   -18832.689   -22167.893   -1051.3292    963.17714    5554.2124    1207.6749    83.275376 
   24600    419.87465   -100.51461   0.37991141    -100.1347    10367.127    4.3574593    4.3574593    4.3574593    10367.127    6070.3767   -687.85085    25718.854   -1863.9338    -6918.488   -1272.6428    82.737046 
   24700    773.16511   -100.83642   0.69957604   -100.13684    7212.0183    4.3618726    4.3618726    4.3618726    7212.0183   -3732.5856    15244.473    10124.167    572.26601    1584.5081   -6025.3426    82.988692 
   24800    793.24733   -100.85448   0.71774686   -100.13674   -49.152962    4.3630878    4.3630878    4.3630878   -49.152962   -10951.168   -2014.3515    12818.061    3023.2877    1631.4686   -1183.4714    83.058076 
   24900    467.98267   -100.55814   0.42344055    -100.1347     11381.83    4.3569709    4.3569709    4.3569709     11381.83     12360.12    24489.137   -2703.7655    395.22584   -1138.2166   -6659.8772     82.70923 
   25000    875.75197    -100.9293   0.79239879    -100.1369   -18454.944     4.368168     4.368168     4.368168   -18454.944     -23709.5    -12512.97   -19142.363    245.80527     4569.299    1072.6529    83.348539 
   25100    918.60274   -100.96383   0.83117107   -100.13266    7413.2789    4.3551091    4.3551091    4.3551091    7413.2789    5358.6285    12875.348    4005.8597    6070.1874    717.76376   -5954.1211    82.603247 
   25200    409.97519   -100.50939   0.37095417   -100.13844   -12959.848    4.3630594    4.3630594    4.3630594   -12959.848   -9549.8599   -21391.116   -7938.5684   -2341.3778   -1606.1931    2671.4757    83.056455 
   25300    716.86276   -100.78581   0.64863249   -100.13718   -3923.0937    4.3639087    4.3639087    4.3639087   -3923.0937    -16707.18   -7748.0068    12685.905    3598.0309     2383.085   -5930.2215    83.104962 
   25400    848.67321   -100.90166   0.76789735   -100.13376    531.26573    4.3579045    4.3579045    4.3579045    531.26573   -602.21191   -12396.776    14592.785    3016.1379   -2865.8548   -5616.9621    82.762407 
   25500    411.01879   -100.50725   0.37189844   -100.13535   -9543.6919    4.3637616    4.3637616    4.3637616   -9543.6919   -5579.7269   -14374.124   -8677.2251   -5172.0292   -938.28403    -3030.144    83.096563 
   25600    851.99116   -100.90235   0.77089951   -100.13145    2015.1105    4.3598432    4.3598432    4.3598432    2015.1105   -5306.9726    699.42031    10652.884    4273.3162    2737.9141   -9329.7356    82.872916 
   25700    830.55344   -100.88503    0.7515022   -100.13353   -2396.6746    4.3605967    4.3605967    4.3605967   -2396.6746   -4652.4705   -1850.8025   -686.75082   -706.11545   -788.13033    6225.2982    82.915891 
   25800    477.33103   -100.56786   0.43189915   -100.13596    4355.1863    4.3606446    4.3606446    4.3606446    4355.1863    1534.3365   -3898.4915    15429.714   -1369.3913    3249.2032   -9848.6827    82.918621 
   25900    708.83205   -100.77798   0.64136614   -100.13662    1352.4737     4.364396     4.364396     4.364396    1352.4737   -16467.843    12942.695     7582.569    3771.1893     5448.121    6808.3562    83.132809 
   26000    912.24576   -100.95984   0.82541913   -100.13442    2918.5709    4.3570499    4.3570499    4.3570499    2918.5709   -4409.6555    -10686.08    23851.448   -1857.2253   -5181.9359   -7696.2522     82.71373 
   26100    399.02943   -100.49617   0.36105021   -100.13512    -7676.702     4.365903     4.365903     4.365903    -7676.702   -16235.063    14897.747    -21692.79   -1253.0732    3878.5178   -2514.7051    83.218953 
   26200    936.47349   -100.98071   0.84734089   -100.13337   -10668.567    4.3609149    4.3609149    4.3609149   -10668.567    -11588.55    -6033.212   -14383.938    2415.7098    2423.3475   -1315.3928    82.934041 
   26300    806.28716   -100.86435   0.72954556   -100.13481    3087.3657    4.3575033    4.3575033    4.3575033    3087.3657   -7457.4267    16874.854   -155.33022   -793.11437    -1185.941   -4786.2597    82.739554 
   26400    533.54939    -100.6201    0.4827667   -100.13734   -14367.731    4.3652817    4.3652817    4.3652817   -14367.731   -20480.167   -15918.158   -6704.8683   -781.21519    2828.3002    4359.1419    83.183433 
   26500    575.13952   -100.65815   0.52039832   -100.13776    18889.565    4.3595412    4.3595412    4.3595412    18889.565   -293.66632    8635.0806    48327.281   -1138.0076    603.24909   -451.34154    82.855694 
   26600    986.63653   -101.02881   0.89272947   -100.13608   -12555.606    4.3630015    4.3630015    4.3630015   -12555.606   -20168.042   -19144.372    1645.5953    404.47888    28.725703    4493.1363    83.053144 
   26700    351.77541   -100.45581   0.31829378   -100.13752     8627.746    4.3582706    4.3582706    4.3582706     8627.746     2171.154   -8249.0481    31961.132   -444.42017   -1782.1947   -4978.0832     82.78327 
   26800    948.82749   -100.99511   0.85851905   -100.13659    -9694.002    4.3663215    4.3663215    4.3663215    -9694.002   -10379.307   -10847.948   -7854.7503   -1784.5088   -1572.1095    1852.2553    83.242887 
   26900    746.02949   -100.81122   0.67502316   -100.13619    3640.1569    4.3568978    4.3568978    4.3568978    3640.1569   -7205.6245    -16543.27    34669.365    4131.6349   -1424.4508   -2318.2235     82.70507 
   27000    469.19626   -100.56213   0.42453864   -100.13759   -6636.4132    4.3618244    4.3618244    4.3618244   -6636.4132    -2707.089   -15615.698   -1586.4527   -3032.1311   -3855.2819    209.15565    82.985941 
   27100    719.51657   -100.78502   0.65103372   -100.13399    2940.4555    4.3655463    4.3655463    4.3655463    2940.4555   -4213.5052    8037.3662    4997.5055   -1193.9021   -2342.3864    4693.7612    83.198559 
   27200    873.25756   -100.92043   0.79014179   -100.13028   -6859.4858    4.3549163    4.3549163    4.3549163   -6859.4858   -1988.1262   -14908.806   -3681.5256     6461.149   -2180.9937   -2336.7188    82.592275 
   27300    468.86091   -100.55678    0.4242352   -100.13254   -5825.4208    4.3666964    4.3666964    4.3666964   -5825.4208   -13360.771    19119.108   -23234.599   -5193.2403   -1425.2577    2770.1967    83.264329 
   27400    897.02535   -100.94561   0.81164739   -100.13396   -4727.7811    4.3632678    4.3632678    4.3632678   -4727.7811   -4672.4499   -6151.3618   -3359.5318    3218.7449   -1780.0955   -6358.6466    83.068355 
   27500    768.26216   -100.82904   0.69513975    -100.1339    7231.3385    4.3555834    4.3555834    4.3555834    7231.3385    -2008.658    14799.488    8903.1855    687.87826   -277.64887   -8789.8416    82.630237 
   27600    372.69441   -100.47374   0.33722174   -100.13652    6236.4743    4.3631984    4.3631984    4.3631984    6236.4743   -14982.898   -4562.6077    38254.929   -4255.7211   -1479.3802   -1797.5293    83.064389 
   27700    869.47637   -100.92171   0.78672049   -100.13499    1543.9848    4.3650665    4.3650665    4.3650665    1543.9848   -4607.1129   -7369.6279    16608.695    4490.8569   -512.99219   -8355.5819    83.171129 
   27800    834.44025   -100.88735   0.75501907   -100.13233    9623.2045    4.3547904    4.3547904    4.3547904    9623.2045   -2842.7934    4083.7976    27628.609    1458.5063   -2204.8486     1353.245    82.585113 
   27900    503.05192   -100.59031   0.45517195   -100.13514   -12703.064    4.3653696    4.3653696    4.3653696   -12703.064   -8408.4271   -21975.497   -7725.2667   -2008.7888     4351.844   -4048.0082    83.188453 
   28000    927.58173   -100.97307   0.83929544   -100.13378    506.59702    4.3630997    4.3630997    4.3630997    506.59702   -4934.2421   -1771.3375    8225.3706    4700.0612   -2504.7439   -4032.6749    83.058752 
   28100    740.64413   -100.80523   0.67015038   -100.13507    1920.0741    4.3558804    4.3558804    4.3558804    1920.0741    392.73718   -17385.793    22753.278    374.58962   -112.98771   -7734.0299    82.647141 
   28200    333.53628   -100.43875   0.30179063   -100.13696   -9596.8703    4.3677932    4.3677932    4.3677932   -9596.8703   -12305.535   -14917.834   -1567.2416   -2575.6475    1279.7154   -5595.3577    83.327089 
   28300    973.83324   -101.01386   0.88114478   -100.13272     2028.952    4.3572771    4.3572771    4.3572771     2028.952   -1312.0507   -1345.4917    8744.3986    3567.9872   -6968.1128   -8183.3565    82.726669 
   28400    676.14611   -100.74636   0.61179121   -100.13457   -5690.6856    4.3622785    4.3622785    4.3622785   -5690.6856    2674.9927   -17773.427   -1973.6223   -2190.8181   -424.58674   -2022.4255    83.011863 
   28500    598.93728   -100.67521   0.54193103   -100.13327   -3857.8126    4.3613576    4.3613576    4.3613576   -3857.8126   -8540.6461   -4780.6836    1747.8918    2764.2177   -33.817063   -259.73701    82.959304 
   28600    783.23908   -100.84356   0.70869118   -100.13487    9647.9968    4.3603036    4.3603036    4.3603036    9647.9968    8210.7383    5776.1261    14957.126   -2212.0542    -4659.122   -871.22013    82.899173 
   28700    819.29242   -100.87629     0.741313   -100.13498   -1982.2774     4.363697     4.363697     4.363697   -1982.2774   -11166.185   -23439.826    28659.178    5558.6773    2385.9792     3587.374    83.092873 
   28800    377.37397   -100.47767    0.3414559   -100.13622    19457.286    4.3548649    4.3548649    4.3548649    19457.286    375.71603    22909.764    35086.377   -382.38096   -1865.7592   -4116.5913    82.589354 
   28900    917.65567    -100.9673   0.83031414   -100.13699   -15197.816    4.3699522    4.3699522    4.3699522   -15197.816   -18807.152   -20048.824   -6737.4734    3729.7049   -3269.0115   -14.341964    83.450717 
   29000    783.82633   -100.84159   0.70922253   -100.13236    10539.302    4.3569138    4.3569138    4.3569138    10539.302   -3504.7846    14598.836    20523.855    2104.4485    -5621.466   -3592.5196    82.705979 
   29100    547.92802    -100.6288   0.49577679   -100.13302   -12970.886    4.3574708    4.3574708    4.3574708   -12970.886   -14285.112   -462.60142   -24164.943   -2281.9576   -952.17888   -411.19646    82.737703 
   29200    731.65883   -100.79931   0.66202029   -100.13729   -6241.3771    4.3681715    4.3681715    4.3681715   -6241.3771   -15746.097   -4370.5105     1392.476    2877.1141   -382.73835    4849.4432    83.348739 
   29300    822.33796   -100.87914   0.74406866   -100.13507    2784.5262    4.3575072    4.3575072    4.3575072    2784.5262   -1104.1031   -9229.8389    18687.521   -5076.9598   -31.640802    -3306.361    82.739777 
   29400    446.84415   -100.53976   0.40431398   -100.13545   -8478.3574    4.3601932    4.3601932    4.3601932   -8478.3574   -17730.517   -16800.969    9096.4147    4144.8513    3657.5489     6840.551    82.892875 
   29500     698.4045   -100.76563   0.63193107    -100.1337    11592.727    4.3607177    4.3607177    4.3607177    11592.727    12967.176        -9471    31282.007   -3249.6969    489.70032   -6815.0164    82.922794 
   29600    984.68231    -101.0267   0.89096125   -100.13574   -12607.619     4.360791     4.360791     4.360791   -12607.619    -8474.994   -29424.884    77.021754    4409.7816    4102.9583   -959.35139    82.926972 
   29700    414.40786   -100.51413   0.37496494   -100.13916    8058.6786    4.3588727    4.3588727    4.3588727    8058.6786     3325.958   -13241.676    34091.754     457.2851     1972.383    -2437.134    82.817583 
   29800    922.18141   -100.96933   0.83440912   -100.13492   -13180.215    4.3624335    4.3624335    4.3624335   -13180.215     1185.854   -18876.439   -21850.061    2577.9253    1294.2926   -6350.6406    83.020711 
   29900    690.05373   -100.76008   0.62437511    -100.1357    3034.8707    4.3600365    4.3600365    4.3600365    3034.8707   -1812.9837   -22389.783    33307.379    3388.9816    5964.9529    2689.1175    82.883937 
   30000    625.19187   -100.69799   0.56568674    -100.1323   -2570.1663    4.3584591    4.3584591    4.3584591   -2570.1663    3368.3117   -9983.2355   -1095.5752   -3648.2063    7104.5795   -3074.9738    82.794009 
   30100    605.98346   -100.68355   0.54830657   -100.13524   -7027.8603     4.362924     4.362924     4.362924   -7027.8603    -1273.925   -3780.2691   -16029.387    6946.0334    3487.6768    1256.5717     83.04872 
   30200    858.88686    -100.9104   0.77713888   -100.13326   -437.71356    4.3600397    4.3600397    4.3600397   -437.71356    13202.266   -21274.689    6759.2828   -9570.7332    9648.3198   -841.49437    82.884121 
   30300    486.49983   -100.57467   0.44019527   -100.13447   -2884.5685    4.3597777    4.3597777    4.3597777   -2884.5685    2397.4074    10028.705   -21079.818    5838.3366   -2076.3388   -332.47202    82.869179 
   30400    793.94996   -100.85311   0.71838261   -100.13473   -9618.4317    4.3630696    4.3630696    4.3630696   -9618.4317   -2142.2757   -14326.745   -12386.275   -2283.8443    3724.2506   -4737.2725    83.057035 
   30500    777.89502    -100.8381   0.70385576   -100.13425    11010.972    4.3586593    4.3586593    4.3586593    11010.972    10004.886     4980.413    18047.617    431.68444   -2266.1686    953.88013    82.805423 
   30600    676.44048   -100.74854   0.61205756   -100.13648   -5451.2155    4.3592562    4.3592562    4.3592562   -5451.2155   -6083.1302   -6997.1888   -3273.3275    7555.9039    302.98166   -3595.4526    82.839446 
   30700    635.43741   -100.71293   0.57495712   -100.13798     11095.74    4.3610101    4.3610101    4.3610101     11095.74    12635.141    2739.9703     17912.11   -4419.2647    1150.1186   -383.70921    82.939475 
   30800    808.60843    -100.8694    0.7316459   -100.13775   -1724.4477    4.3634759    4.3634759    4.3634759   -1724.4477    528.52438    -12028.09     6326.222    5044.4966   -2019.4158   -74.420489     83.08024 
   30900    600.76689   -100.67917    0.5435865   -100.13558    6482.5933    4.3573032    4.3573032    4.3573032    6482.5933    14456.497   -9870.4854    14861.768   -5106.7321    5854.8185   -4.7919185    82.728154 
   31000     612.5897   -100.69009   0.55428404   -100.13581     -3712.77    4.3627666    4.3627666    4.3627666     -3712.77   -3083.5068    7216.1213   -15270.925     185.8703   -1685.9491    2471.4405    83.039729 
   31100    806.76658   -100.86501   0.72997936   -100.13503   -9294.8282    4.3603298    4.3603298    4.3603298   -9294.8282   -10569.232   -28608.016    11292.763   -2531.2695   -1197.2529     2245.159    82.900665 
   31200     745.6603   -100.80718   0.67468911   -100.13249   -4346.7572    4.3569336    4.3569336    4.3569336   -4346.7572    238.70661    720.83547   -13999.814    1560.0776    2715.9019   -2006.7345    82.707107 
   31300    551.94427   -100.63572   0.49941078    -100.1363   -21488.151    4.3685178    4.3685178    4.3685178   -21488.151   -21767.039   -19284.957   -23412.456    2182.3584   -3652.2989    2282.9624    83.368563 
   31400    872.82197   -100.92374   0.78974766   -100.13399    2064.7719    4.3529984    4.3529984    4.3529984    2064.7719    18071.141   -17965.238     6088.413   -697.15588   -1989.3855   -1144.7962    82.483206 
   31500    689.28485   -100.76351   0.62367942   -100.13983   -9672.1708    4.3625926    4.3625926    4.3625926   -9672.1708    2576.6357   -17919.385   -13673.763    5851.8366    7088.3874   -1559.7146    83.029796 
   31600    459.07257   -100.55372   0.41537851   -100.13834    2822.5142     4.363069     4.363069     4.363069    2822.5142    14078.381   -7021.8038     1410.965   -8642.4224   -3320.8834    3404.2288    83.057003 
   31700    959.44111   -101.00107   0.86812248   -100.13295   -249.36111    4.3563402    4.3563402    4.3563402   -249.36111    4902.6716   -25665.616    20014.861    5411.8945    10425.998    527.09336    82.673314 
   31800    566.52256   -100.65007   0.51260151   -100.13747    7564.1548    4.3606351    4.3606351    4.3606351    7564.1548    940.97298    8759.0336    12992.458   -6261.3507   -7780.8297    1322.8691    82.918081 
   31900    679.59647   -100.74911   0.61491317    -100.1342   -9640.1815      4.36291      4.36291      4.36291   -9640.1815   -12437.312   -14777.759   -1705.4739   -1387.8522    2313.4683    4101.2335    83.047919 
   32000     796.7649    -100.8564   0.72092962   -100.13547    4932.6093    4.3579924    4.3579924    4.3579924    4932.6093   -6047.6779   -1569.9173    22415.423    3541.0611   -1291.5473   -2067.8274    82.767418 
   32100    797.91682   -100.85632    0.7219719   -100.13435   -2415.0348     4.360002     4.360002     4.360002   -2415.0348   -3874.2788   -645.70727   -2725.1182   -5927.9633   -9837.0214   -242.61036    82.881971 
   32200    358.92061   -100.45997   0.32475891   -100.13521   -4891.3471    4.3654317    4.3654317    4.3654317   -4891.3471   -5419.0216   -5957.6295   -3297.3901    7265.8475    6230.0792    2850.2425    83.192004 
   32300    913.16347   -100.95877    0.8262495   -100.13252    3676.4454    4.3547031    4.3547031    4.3547031    3676.4454   -1245.7021    313.10655    11961.932   -5278.1225   -6110.2017    -4803.595    82.580145 
   32400    701.20506   -100.76977   0.63446508    -100.1353    839.18742    4.3611962    4.3611962    4.3611962    839.18742      10755.3   -11633.047    3395.3096    3149.2708   -3395.7238    3567.5514    82.950095 
   32500    474.77607   -100.56433   0.42958736   -100.13474   -7178.8265    4.3665402    4.3665402    4.3665402   -7178.8265   -9568.7629   -5471.0884   -6496.6284   -7359.2789    3017.7512    3643.2929    83.255396 
   32600    970.00151   -101.01026   0.87767775   -100.13258    2479.5874    4.3530433    4.3530433    4.3530433    2479.5874    11836.147   -16404.931    12007.545    330.56362    -6527.211   -6291.8748    82.485757 
   32700    747.74676   -100.81333   0.67657698   -100.13675   -1985.2356    4.3645293    4.3645293    4.3645293   -1985.2356   -7064.5598   -8474.3704    9583.2234   -4752.7377   -379.50158    6571.0166    83.140427 
   32800    522.30967   -100.60489   0.47259677   -100.13229   -3345.1151    4.3614936    4.3614936    4.3614936   -3345.1151    10432.188   -14046.899   -6420.6347   -3634.7201    3720.6419   -4111.6389    82.967065 
   32900    823.25781   -100.87696   0.74490097   -100.13206    5025.6859    4.3541505    4.3541505    4.3541505    5025.6859   -1365.4484   -8656.0862    25098.592    3105.7485   -4019.7435    -2663.734    82.548714 
   33000    769.66258   -100.83407   0.69640688   -100.13766    3109.2446    4.3626362    4.3626362    4.3626362    3109.2446     15775.61   -11347.654    4899.7773   -4499.8238    9989.7333    2218.5462    83.032286 
   33100    515.21834   -100.60251   0.46618038   -100.13633   -10691.549     4.363068     4.363068     4.363068   -10691.549    3142.5146   -17331.237   -17885.925    4123.4946   -1812.0362   -9454.2016    83.056944 
   33200    726.49715   -100.79222   0.65734989   -100.13487    2657.3292    4.3555394    4.3555394    4.3555394    2657.3292   -7146.0928   -12534.821    27652.902   -3166.6002     1852.282    9954.0951    82.627736 
   33300     876.4988   -100.92969   0.79307453   -100.13661   -4984.2565     4.359303     4.359303     4.359303   -4984.2565    12097.345   -8794.0436   -18256.071    40.464539    3032.9568   -8302.5742    82.842114 
   33400    469.29217   -100.56055   0.42462542   -100.13592   -18356.928    4.3703546    4.3703546    4.3703546   -18356.928   -23785.022   -27013.703   -4272.0592    -4715.297   -1058.0799    1431.2476    83.473773 
   33500    782.88872   -100.84149   0.70837416   -100.13312    5732.6047    4.3511068    4.3511068    4.3511068    5732.6047   -501.22998   -907.76126    18606.805   -798.79848    5734.5857   -1909.0066     82.37572 
   33600    892.72103    -100.9435   0.80775275   -100.13575   -903.42695    4.3636385    4.3636385    4.3636385   -903.42695    11425.791   -13260.315   -875.75677   -3463.7142    5425.3617   -6613.4316     83.08953 
   33700    623.74763   -100.69905   0.56437997   -100.13467    -11633.04    4.3650021    4.3650021    4.3650021    -11633.04    -6204.596   -22914.013   -5780.5102   -4578.1675   -495.41958   -504.14813    83.167449 
   33800    570.14315   -100.65202   0.51587751   -100.13614    24998.238    4.3461301    4.3461301    4.3461301    24998.238    40780.107     18319.76    15894.848    4127.6259    1509.7736   -8987.2111    82.093385 
   33900    952.16656   -101.00192   0.86154031   -100.14038    -7359.766    4.3713111    4.3713111    4.3713111    -7359.766   -3434.0577    -24699.25    6054.0096   -2436.9437   -3581.7911    464.09646    83.528589 
   34000    433.66548   -100.52953   0.39238964   -100.13714     12611.51    4.3582209    4.3582209    4.3582209     12611.51    35901.502    3934.5655   -2001.5368   -2946.3218   -4850.7659    -3476.242    82.780436 
   34100    655.53038   -100.72454   0.59313767    -100.1314    959.89483     4.356752     4.356752     4.356752    959.89483   -14864.335   -1157.3253    18901.345    1800.7852    326.39007    561.72854    82.696764 
   34200    874.81369   -100.92597   0.79154981   -100.13442   -5829.9058    4.3637333    4.3637333    4.3637333   -5829.9058    12317.042   -14623.316   -15183.443    -4236.667   -6667.4437   -5886.7072    83.094946 
   34300    624.22275   -100.69905   0.56480986   -100.13424   -1894.1829    4.3607818    4.3607818    4.3607818   -1894.1829    15054.706    -10632.29   -10104.965   -5800.4972     1558.333    753.10186    82.926448 
   34400    648.25371    -100.7204   0.58655358   -100.13384   -9828.1325    4.3587601    4.3587601    4.3587601   -9828.1325   -5967.0921   -12985.626    -10531.68    2826.4233   -2446.3461   -7520.6307    82.811168 
   34500     817.3203   -100.87574   0.73952859   -100.13621    4207.4189    4.3580287    4.3580287    4.3580287    4207.4189    32412.255   -11109.989   -8680.0092    -6119.826   -5337.3977   -2965.8891    82.769487 
   34600    790.07331   -100.84994   0.71487494   -100.13506   -17707.517    4.3679884    4.3679884    4.3679884   -17707.517   -5895.6319   -31401.448   -15825.471   -1845.0474   -2735.0681   -4040.5863     83.33826 
   34700    398.34196   -100.49547   0.36042818   -100.13504    14376.315    4.3515827    4.3515827    4.3515827    14376.315    37912.557   -4670.8935    9887.2801    2154.5454   -1814.5216   -8837.1281    82.402756 
   34800    1025.0931   -101.06349    0.9275258   -100.13597    -9886.856    4.3622246    4.3622246    4.3622246    -9886.856   -2951.5979    -23354.74   -3354.2301   -6348.8875   -375.91962    3589.9683    83.008788 
   34900    561.58067   -100.65046   0.50812999   -100.14233    1616.1813    4.3631129    4.3631129    4.3631129    1616.1813    47925.542   -28888.606   -14188.392   -3713.7237    6206.3711   -11200.218    83.059508 
   35000    652.53707   -100.73069   0.59042925   -100.14026   -4039.4845    4.3534528    4.3534528    4.3534528   -4039.4845   -22066.939   -3629.3619    13577.847   -1241.8983    1497.5955    3119.5337    82.509037 
   35100    660.14841   -100.74015   0.59731616   -100.14284   -5619.8561    4.3635546    4.3635546    4.3635546   -5619.8561    14544.053   -22621.924   -8781.6978   -80.490159     744.0012   -7107.8549    83.084734 
   35200    865.80995   -100.91759   0.78340303   -100.13419   -7043.6952    4.3625587    4.3625587    4.3625587   -7043.6952    1525.5096   -19421.083   -3235.5124   -3901.3158    1239.1257   -1721.2143    83.027863 
   35300    581.13889   -100.65859   0.52582668   -100.13276    1227.3886    4.3545885    4.3545885    4.3545885    1227.3886    3760.7401    2414.3258   -2492.9001    4466.8503   -862.67444   -3341.5769     82.57363 
   35400    684.35303   -100.75497     0.619217   -100.13575   -1527.7837    4.3617731    4.3617731    4.3617731   -1527.7837    14598.354   -14772.926   -4408.7794   -2168.5083   -1548.3208    -8023.263    82.983014 
   35500    830.36406   -100.88489   0.75133085   -100.13356   -1104.5561    4.3613395    4.3613395    4.3613395   -1104.5561    17533.823   -4817.9668   -16029.524    1822.1877    6159.2491    1332.1991     82.95827 
   35600    511.56842   -100.59847   0.46287786   -100.13559    7646.2174    4.3584076    4.3584076    4.3584076    7646.2174    23343.377   -1964.5122    1559.7879    2775.2525   -1352.5232   -11017.676    82.791078 
   35700    792.39247   -100.84843   0.71697336   -100.13146    914.21761    4.3595593    4.3595593    4.3595593    914.21761   -999.63891    1723.7366    2018.5551    161.18747    5072.7544    1929.2778    82.856727 
   35800    645.55877   -100.71967   0.58411514   -100.13555    -525.0421    4.3625418    4.3625418    4.3625418    -525.0421    23782.532   -7344.4991   -18013.159    2584.7788    2061.3968   -9246.7819    83.026896 
   35900    841.55164   -100.89582   0.76145361   -100.13437   -4417.3303    4.3561414    4.3561414    4.3561414   -4417.3303    -20688.42    2030.7837    5405.6457    2734.4415   -4773.4303    385.25479    82.662002 
   36000    505.09416   -100.59784   0.45701981   -100.14082    1270.4933    4.3580945    4.3580945    4.3580945    1270.4933     1380.483    8693.8614   -6262.8645    914.79405   -275.86745   -3876.7877    82.773236 
   36100    933.21758   -100.98375   0.84439487   -100.13936   -17641.317    4.3628879    4.3628879    4.3628879   -17641.317    223.31284   -26886.061   -26261.205    8183.0791   -117.18355   -6428.4463    83.046656 
   36200    555.37869   -100.63957   0.50251831   -100.13705    16303.206    4.3519061    4.3519061    4.3519061    16303.206   -12.017977    26289.792    22631.844   -5657.1158   -5034.4836    521.81149    82.421128 
   36300    701.96376   -100.77394   0.63515156   -100.13878   -12240.604    4.3629589    4.3629589    4.3629589   -12240.604    3349.8532   -27942.356   -12129.309    4162.0088    6960.1202   -9187.9456    83.050715 
   36400    714.13728   -100.78151   0.64616642   -100.13534    6630.6362    4.3615271    4.3615271    4.3615271    6630.6362     14164.93   -7100.8559    12827.834    2232.8105   -3413.3461    3661.1438    82.968978 
   36500    766.34033   -100.82915   0.69340084   -100.13575    3574.0968    4.3534814    4.3534814    4.3534814    3574.0968    2860.9191    3016.8692     4844.502   -4583.5387    3154.7722   -10305.988    82.510661 
   36600    583.63529   -100.66366   0.52808548   -100.13558    1463.2628    4.3630721    4.3630721    4.3630721    1463.2628    8982.3693   -17822.644    13230.063    427.66066   -3475.6752    5317.4254    83.057176 
   36700     741.0889   -100.80594   0.67055281   -100.13538    419.45392    4.3583184    4.3583184    4.3583184    419.45392    16771.833   -363.31548   -15150.156   -347.53862   -6440.6105   -4630.1058    82.785994 
   36800    739.31505   -100.80359   0.66894779   -100.13464    8631.5437    4.3575958    4.3575958    4.3575958    8631.5437    19509.532    5655.9487    729.15093   -3417.7883    1513.8128   -2379.1391    82.744824 
   36900    611.57081   -100.68685   0.55336212   -100.13348   -5854.6176    4.3596789    4.3596789    4.3596789   -5854.6176    6222.9955   -10389.329   -13397.519    2708.2187    -4102.563    848.76378    82.863547 
   37000    674.78532   -100.74767   0.61055994   -100.13711   -2068.1073    4.3588903    4.3588903    4.3588903   -2068.1073    8351.3996    10414.519   -24970.241   -7236.1008    2136.5038   -7330.0795    82.818586 
   37100    937.58236   -100.98529   0.84834422   -100.13694   -971.82129     4.358457     4.358457     4.358457   -971.82129    2733.3962     745.3993   -6394.2594   -914.22615       1424.1    3530.3269    82.793894 
   37200    431.00252   -100.53159   0.38998014   -100.14161   -3680.1926    4.3596168    4.3596168    4.3596168   -3680.1926   -11458.541     14092.42   -13674.457   -656.79316    -2913.428   -9616.6195    82.860006 
   37300    819.81647   -100.87978   0.74178717   -100.13799   -5422.6155    4.3636192    4.3636192    4.3636192   -5422.6155    11806.059   -10081.881   -17992.024   -5938.7724    2565.9764    6932.5283    83.088427 
   37400    806.68748   -100.86637   0.72990779   -100.13646    12023.914    4.3523807    4.3523807    4.3523807    12023.914    6223.9774    25850.971    3996.7926    6207.4064   -3968.4262   -9533.8499    82.448096 
   37500    476.32991   -100.56859   0.43099331   -100.13759   -4503.6943    4.3640364    4.3640364    4.3640364   -4503.6943    19067.036   -13089.787   -19488.332    1103.8299    -4643.068     1671.732    83.112262 
   37600    684.42804   -100.75699   0.61928487    -100.1377     4133.094    4.3571796    4.3571796    4.3571796     4133.094    16448.296   -1058.2629   -2990.7514    4492.8096   -236.85243   -4549.8643    82.721116 
   37700    941.16975   -100.99073   0.85159017   -100.13914    2348.5073    4.3565784    4.3565784    4.3565784    2348.5073    14501.323   -2855.4396   -4600.3615    6790.2869    650.85487   -6370.4808    82.686879 
   37800    519.73428   -100.60672    0.4702665   -100.13645   -10222.256    4.3640535    4.3640535    4.3640535   -10222.256    -2362.888     -17285.1    -11018.78   -1532.7563    7409.5107     1579.544    83.113236 
   37900    711.99943   -100.78023   0.64423205   -100.13599   -3184.8474    4.3573945    4.3573945    4.3573945   -3184.8474   -535.07209    -11928.92    2909.4499     4703.808   -2485.8064   -11216.258    82.733359 
   38000    944.47622   -100.99001   0.85458194   -100.13543   -312.56122    4.3618591    4.3618591    4.3618591   -312.56122    7130.4006   -5192.0568   -2876.0274    4284.6529     4877.852    2669.9975    82.987921 
   38100    467.67646   -100.55981   0.42316349   -100.13665    4686.7752    4.3529656    4.3529656    4.3529656    4686.7752    8115.5666   -14652.199    20596.958   -2645.4064   -1610.2953    -7074.983    82.481342 
   38200    645.02539   -100.72149   0.58363252   -100.13785   -4737.7188    4.3672535    4.3672535    4.3672535   -4737.7188    7433.0603   -5957.9598   -15688.257    6981.3727   -944.27319    1323.5785    83.296201 
   38300    932.32159   -100.97924   0.84358416   -100.13566    5097.9435    4.3547227    4.3547227    4.3547227    5097.9435    6960.4867    -2385.353    10718.697   -4176.7838    9551.8385   -5949.3851    82.581263 
   38400    508.25371   -100.59818   0.45987864    -100.1383    3959.9521    4.3553646    4.3553646    4.3553646    3959.9521    23433.131    1271.1262   -12824.401    2282.3674   -482.43961    2282.5924    82.617786 
   38500    577.72885   -100.65734   0.52274121   -100.13459   -8061.3076    4.3698802    4.3698802    4.3698802   -8061.3076    614.07569   -1489.4149   -23308.584   -1210.2426    6996.5298   -4568.8908    83.446587 
   38600    1024.1686   -101.05652   0.92668928   -100.12984    10596.551    4.3478192    4.3478192    4.3478192    10596.551    33223.515   -4693.5051     3259.644   -2648.6672    3244.0431   -2101.9343    82.189138 
   38700    462.89268   -100.55514   0.41883503   -100.13631   -3293.2472    4.3615754    4.3615754    4.3615754   -3293.2472    8900.0492    6151.0744   -24930.865      264.561   -6067.0864   -285.18215    82.971733 
   38800    722.82647   -100.79048   0.65402858   -100.13645   -12995.476    4.3640789    4.3640789    4.3640789   -12995.476   -8645.5957   -18888.784   -11452.049   -2375.7231    4543.6664   -7949.5649    83.114688 
   38900    934.86656   -100.98135   0.84588691   -100.13546    13876.514    4.3515941    4.3515941    4.3515941    13876.514    16044.659    13326.989    12257.893     4663.674   -8580.1967    5084.0627    82.403402 
   39000    536.57823   -100.62372   0.48550726   -100.13822   -13644.267    4.3629882    4.3629882    4.3629882   -13644.267   -3585.8394   -22242.333   -15104.629   -2811.0528    5151.4574   -6465.5029    83.052388 
   39100    565.40606   -100.64801   0.51159129   -100.13642    13099.325    4.3588972    4.3588972    4.3588972    13099.325    24588.309   -9404.4498    24114.115    1718.3917   -1430.5576    2345.1251    82.818982 
   39200    1002.6838    -101.0439   0.90724935   -100.13665   -6044.4895    4.3587537    4.3587537    4.3587537   -6044.4895   -1882.4026   -4219.9153   -12031.151   -741.34681   -2249.8212   -2964.9552    82.810803 
   39300    453.43404   -100.54809   0.41027665   -100.13781    14118.282    4.3546331    4.3546331    4.3546331    14118.282    41264.143   -26153.041    27243.745   -2614.8464   -1645.5357     1606.011    82.576166 
   39400     736.7223   -100.80344   0.66660182   -100.13684   -14183.354    4.3668188    4.3668188    4.3668188   -14183.354   -18826.946   -7252.8156     -16470.3    4500.2274   -2118.2493   -1842.6169    83.271333 
   39500    917.70516   -100.96489   0.83035892   -100.13454    4431.5801    4.3547643    4.3547643    4.3547643    4431.5801    16835.249   -15647.538     12107.03   -2256.7307   -1024.3762   -165.28022    82.583626 
   39600    482.91523    -100.5735   0.43695185   -100.13655    1161.1548    4.3569619    4.3569619    4.3569619    1161.1548    22782.256   -23856.012    4557.2201    5244.3746    4098.4613   -2028.4368    82.708717 
   39700    704.50864   -100.77336   0.63745422    -100.1359   -15083.333    4.3644713    4.3644713    4.3644713   -15083.333   -17122.335   -15051.906   -13075.758   -2188.8915    1923.1038   -1447.0064    83.137111 
   39800    814.15824   -100.86941   0.73666748   -100.13274    9291.2212    4.3539914    4.3539914    4.3539914    9291.2212    25156.197    -14013.54    16731.006    2716.6536    1687.8818    1684.1119    82.539663 
   39900    605.25893   -100.68306     0.547651   -100.13541   -17874.276    4.3607875    4.3607875    4.3607875   -17874.276   -11005.831   -30423.941   -12193.055   -4247.0151    5565.0112   -3476.5775    82.926773 
   40000    747.28617   -100.80932   0.67616023   -100.13316   -2588.5237    4.3609845    4.3609845    4.3609845   -2588.5237    90.002222    5510.6361   -13366.209    624.61213   -3579.8224    4984.1607    82.938012 
   40100    786.55265   -100.84511   0.71168937   -100.13343    708.76735    4.3558738    4.3558738    4.3558738    708.76735    14574.221   -17206.303    4758.3836   -3095.8786      3072.87   -1978.6137    82.646769 
   40200    649.79651   -100.72233   0.58794954   -100.13438   -988.59661     4.359743     4.359743     4.359743   -988.59661    9669.2198    385.41051    -13020.42   -689.55749    1113.1505    984.17994      82.8672 
   40300    576.09553   -100.65727   0.52126335     -100.136    15788.091    4.3575905    4.3575905    4.3575905    15788.091    24575.917    16136.894    6651.4607    2818.8284    322.93833    259.03549    82.744521 
   40400     889.8259   -100.94311   0.80513317   -100.13798   -2332.5364    4.3609297    4.3609297    4.3609297   -2332.5364   -1537.3713   -8000.1194    2539.8815   -4973.0034    8017.8658   -2932.9941    82.934887 
   40500    561.82093   -100.64433   0.50834738   -100.13598    23557.968    4.3553103    4.3553103    4.3553103    23557.968    31461.197    20610.863    18601.845    2790.7972   -4867.4938   -1117.3082    82.614694 
   40600    661.34831    -100.7353   0.59840185    -100.1369   -5602.0362    4.3610068    4.3610068    4.3610068   -5602.0362   -14973.023   -6314.6499    4481.5644   -8164.4703    1984.0974   -594.10376    82.939288 
   40700    859.97931   -100.91169   0.77812735   -100.13357    11261.483    4.3608476    4.3608476    4.3608476    11261.483    20198.973    12167.812    1417.6636    3487.9617    -81.90806   -2204.7105    82.930206 
   40800    604.82541   -100.68233   0.54725874   -100.13507    1404.1585    4.3550188    4.3550188    4.3550188    1404.1585    15201.958   -14786.343    3796.8614    -1850.916   -7113.7177    727.94352    82.598106 
   40900    604.25081   -100.68236   0.54673883   -100.13563   -3339.7745    4.3627688    4.3627688    4.3627688   -3339.7745      386.225    6038.3781   -16443.927   -1696.3289    4242.7134   -915.54444    83.039857 
   41000     964.3062   -101.00533   0.87252452   -100.13281   -1945.6969    4.3579549    4.3579549    4.3579549   -1945.6969    13970.948   -12251.994   -7556.0451    7253.1202   -736.80068   -2667.9125    82.765284 
   41100    525.84683   -100.61098   0.47579726   -100.13519   -5765.0359    4.3562927    4.3562927    4.3562927   -5765.0359    118.87424   -14322.088   -3091.8941   -4514.7761   -1681.5294    153.92301    82.670611 
   41200    706.83692   -100.77512    0.6395609   -100.13556     -7126.62    4.3639318    4.3639318    4.3639318     -7126.62    8721.3674   -7961.7428   -22139.485    5782.4066    4166.3838    -4126.216    83.106287 
   41300     770.3739   -100.83476    0.6970505   -100.13771    277.87236    4.3563634    4.3563634    4.3563634    277.87236    11045.117   -16265.015    6053.5155    -2062.618   -6491.0786   -2975.0532    82.674639 
   41400    622.10287   -100.70009   0.56289175    -100.1372    2407.5076    4.3584703    4.3584703    4.3584703    2407.5076    33238.726   -22657.202   -3359.0011    3467.9756   -3218.5311   -807.67395    82.794649 
   41500    662.65474   -100.73901   0.59958393   -100.13942   -2581.8712    4.3596312    4.3596312    4.3596312   -2581.8712    143.08621   -2854.0883   -5034.6114    814.81272   -2614.1725   -5682.1506    82.860826 
   41600    785.62845    -100.8496   0.71085313   -100.13875    5071.5649    4.3595654    4.3595654    4.3595654    5071.5649    21647.477   -12900.838    6468.0556    2719.0082    4565.8014    1995.1571    82.857074 
   41700    771.35789   -100.83338   0.69794083   -100.13544   -6608.4073    4.3588178    4.3588178    4.3588178   -6608.4073   -226.81045   -15371.692   -4226.7196     2172.478     6399.533   -2452.4387    82.814452 
   41800    573.67262   -100.65476   0.51907104   -100.13569    5327.5679     4.357217     4.357217     4.357217    5327.5679    1530.8481    17241.021    -2789.165    621.47607    -2220.284   -2571.0676    82.723248 
   41900    897.71395   -100.94664   0.81227045   -100.13437   -1109.8647    4.3622503    4.3622503    4.3622503   -1109.8647    12744.235   -22050.669    5976.8392     3462.775    6095.2227    866.30389    83.010257 
   42000    549.75365   -100.63315   0.49742865   -100.13573    8200.2391     4.355128     4.355128     4.355128    8200.2391    4604.4184        13445    6551.2992   -4840.7163    255.36869    -3522.988    82.604323 
   42100    663.63239   -100.73645   0.60046853   -100.13598   -2299.7348    4.3619584    4.3619584    4.3619584   -2299.7348    16929.501   -6470.7484   -17357.957    3381.0487    383.37302   -3215.7028    82.993589 
   42200    810.89017   -100.86995   0.73371046   -100.13624    3224.5069    4.3589867    4.3589867    4.3589867    3224.5069    5780.0431    2640.2492    1253.2284   -8495.4559    7764.1496    737.67589    82.824081 
   42300     690.4121   -100.75942   0.62469938   -100.13472    4188.1603    4.3549817    4.3549817    4.3549817    4188.1603    20650.235     1084.888   -9170.6423     2957.564    3785.2916   -4763.1231    82.595995 
   42400    607.24632   -100.68559   0.54944923   -100.13614   -5805.6923    4.3645202    4.3645202    4.3645202   -5805.6923    18898.138   -6135.1017   -30180.113   -3004.6206    3086.1523   -939.08849    83.139902 
   42500    851.12599   -100.90497   0.77011668   -100.13485    11539.379    4.3525044    4.3525044    4.3525044    11539.379    21168.794    10002.924    3446.4189    -290.3771     4717.656    3287.1426    82.455124 
   42600    616.88765   -100.69685   0.55817291   -100.13868   -7762.6828    4.3620132    4.3620132    4.3620132   -7762.6828    20970.179   -29819.432   -14438.795    1310.6796    -9258.306   -3615.3828     82.99672 
   42700    622.57772   -100.70207   0.56332141   -100.13875    2943.1523    4.3574446    4.3574446    4.3574446    2943.1523    2384.0799    3567.4074    2877.9697   -8904.4402    6275.1713    4792.1325    82.736208 
   42800    877.19656   -100.93007   0.79370589   -100.13637   -2213.2626    4.3594143    4.3594143    4.3594143   -2213.2626    10862.262   -24437.186    6935.1368    3319.1262   -7538.9636   -4313.6449    82.848457 
   42900    587.03573   -100.66584   0.53116226   -100.13467   -13527.942    4.3618861    4.3618861    4.3618861   -13527.942   -8262.3973   -30857.019   -1464.4101   -7220.1189    2578.6988    -1430.798    82.989465 
   43000    687.88729   -100.75623   0.62241487   -100.13382    5597.9298    4.3516715    4.3516715    4.3516715    5597.9298     18040.24    2944.1392   -4190.5894   -1289.8475    1007.6426   -1424.7129    82.407796 
   43100    757.93543   -100.82172   0.68579591   -100.13592    -12144.58    4.3668166    4.3668166    4.3668166    -12144.58    3904.4936   -36249.009   -4089.2253    214.35912   -4515.3714   -6802.8321    83.271209 
   43200    650.31541   -100.72177   0.58841905   -100.13335   -2252.0136    4.3541033    4.3541033    4.3541033   -2252.0136    16505.952   -15651.657   -7610.3354    -1305.199    -660.5619   -449.69767     82.54603 
   43300    599.50376   -100.68025    0.5424436    -100.1378    3703.5529    4.3556252    4.3556252    4.3556252    3703.5529    16849.814    5919.1795   -11658.335    3192.8175   -7416.9134   -4539.9685    82.632615 
   43400    852.52059   -100.90837   0.77137855   -100.13699   -12246.242      4.36535      4.36535      4.36535   -12246.242   -4812.1454   -29735.112   -2191.4678   -4426.8737    272.84902   -2592.9964    83.187337 
   43500    580.65895   -100.66121   0.52539242   -100.13582    4732.6331    4.3556488    4.3556488    4.3556488    4732.6331    23779.577    3187.9867   -12769.665    1230.8588   -473.27508   -1331.7458    82.633957 
   43600    667.82201   -100.74099   0.60425939   -100.13673   -1450.1472     4.357639     4.357639     4.357639   -1450.1472    6067.7503   -2496.9912   -7921.2008   -6865.8111    1536.1227   -3721.8132    82.747285 
   43700    822.92955   -100.88334   0.74460395   -100.13874   -1642.6343    4.3601273    4.3601273    4.3601273   -1642.6343    7634.3729   -10388.803   -2173.4724   -410.54941    3525.2725   -1812.2654    82.889113 
   43800    542.96308   -100.63045   0.49128441   -100.13917   -3190.8246    4.3601494    4.3601494    4.3601494   -3190.8246    6527.4755    2331.4501   -18431.399   -4000.4767   -5181.8693   -5189.1314    82.890377 
   43900    765.07038     -100.827   0.69225175   -100.13474    1910.1768    4.3515915    4.3515915    4.3515915    1910.1768   -6526.3699    1841.1837    10415.717   -1564.1751    3217.8484   -4482.5293    82.403252 
   44000    790.58357   -100.85339   0.71533662   -100.13805   -7950.5414    4.3663086    4.3663086    4.3663086   -7950.5414   -8250.9968   -10230.929   -5369.6987   -1276.3666   -3433.0114   -1995.3555    83.242152 
   44100    571.52185   -100.65418   0.51712498   -100.13705    2091.4932    4.3558589    4.3558589    4.3558589    2091.4932    13666.949   -11615.518    4223.0484   -3164.1246    546.47292   -4698.5869    82.645921 
   44200    667.11852   -100.74214   0.60362286   -100.13852    6055.7211    4.3539438    4.3539438    4.3539438    6055.7211    12328.732    9043.7387   -3205.3071    1179.7706     3703.746   -1610.6312    82.536959 
   44300    684.77741   -100.75554   0.61960099   -100.13594   -5389.1685    4.3692422    4.3692422    4.3692422   -5389.1685    12970.082   -32759.472    3621.8842   -8248.3561   -8.7943946   -926.87808    83.410043 
   44400    676.00594   -100.74455   0.61166438   -100.13289    8950.5854    4.3479102    4.3479102    4.3479102    8950.5854    23407.191    2409.7227    1034.8421    84.499965    2594.7827   -2988.3625    82.194299 
   44500    615.56767    -100.6953   0.55697857   -100.13832   -5933.6224    4.3603306    4.3603306    4.3603306   -5933.6224   -3297.6199   -3668.1348   -10835.112   -4686.2579   -6726.9607    499.95872    82.900712 
   44600    941.79084    -100.9865   0.85215215   -100.13435   -14615.024    4.3610529    4.3610529    4.3610529   -14615.024   -8186.9334   -29026.722   -6631.4152   -830.75791    2566.6729    122.36198    82.941917 
   44700    448.38253   -100.54476   0.40570594   -100.13906   -2783.1782    4.3557301    4.3557301    4.3557301   -2783.1782    17287.119   -4960.9884   -20675.665   -344.02666   -8841.9532   -4394.8214     82.63859 
   44800    789.37619   -100.85094   0.71424417   -100.13669   -8932.3066    4.3569625    4.3569625    4.3569625   -8932.3066   -12898.668   -11050.873   -2847.3795   -482.17455    6328.2863    2833.9914    82.708751 
   44900    676.92212   -100.75107   0.61249336   -100.13858   -12319.503    4.3621116    4.3621116    4.3621116   -12319.503   -3032.5177   -25529.383   -8396.6085    1589.8707   -8933.3296    -5392.903    83.002335 
   45000    651.90123    -100.7241   0.58985393   -100.13425    -4550.732    4.3546474    4.3546474    4.3546474    -4550.732   -2131.2368   -6606.9033   -4914.0559   -5775.4831    -3069.474    22.893453    82.576981 
   45100    712.61605   -100.77912   0.64478998   -100.13433   -8935.8847     4.358241     4.358241     4.358241   -8935.8847   -17692.747   -4746.3198   -4368.5877    3755.0403    1716.9096   -161.90129    82.781584 
   45200    700.45087   -100.76923   0.63378267   -100.13545   -8322.0891    4.3622048    4.3622048    4.3622048   -8322.0891    3540.2681   -30263.435    1756.8999     -8483.83   -13237.024   -2475.8027    83.007656 
   45300    726.28492   -100.79024   0.65715786   -100.13309    6200.3703    4.3513736    4.3513736    4.3513736    6200.3703    6007.6836    9515.0371    3078.3903    739.86665    5158.4633    1839.8218    82.390873 
   45400    534.21044   -100.62163   0.48336483   -100.13827   -4388.0171    4.3626783    4.3626783    4.3626783   -4388.0171    16366.223   -17153.899   -12376.376   -1079.2331    -9021.528   -2219.2177    83.034689 
   45500    910.23251   -100.95809    0.8235975   -100.13449     151.5342    4.3593281    4.3593281    4.3593281     151.5342   -779.84606   -13869.145    15103.594   -4870.6155      4052.04   -429.68969    82.843542 
   45600    580.08221   -100.66229   0.52487057   -100.13742    6774.5708    4.3515001    4.3515001    4.3515001    6774.5708    20674.663    14105.694   -14456.645    7500.4626   -6979.3322    -1638.447    82.398063 
   45700    642.89244   -100.72201   0.58170259   -100.14031   -10955.025    4.3624465    4.3624465    4.3624465   -10955.025    -23276.04   -10569.269    980.23419   -10281.332   -3280.9032   -3327.1188    83.021453 
   45800    865.88676   -100.92141   0.78347254   -100.13794    697.45135    4.3583375    4.3583375    4.3583375    697.45135    7290.7826    3642.3057   -8840.7342     7965.782    -2718.245   -644.62849    82.787079 
   45900    546.27308   -100.63525   0.49427936   -100.14097   -8967.0041    4.3577991    4.3577991    4.3577991   -8967.0041   -2542.8991   -8117.1464   -16240.967   -7765.1055   -7427.9386   -4002.9552    82.756406 
   46000    659.33221   -100.73543   0.59657764   -100.13886    6365.4378    4.3569317    4.3569317    4.3569317    6365.4378   -7629.5867    15191.396    11534.504    996.15457    4625.5019   -937.12748    82.706998 
   46100    773.81122   -100.83871   0.70016065   -100.13855    -13699.66      4.36604      4.36604      4.36604    -13699.66   -8235.7902   -19185.417   -13677.774     583.2738   -13405.072   -2267.3711    83.226787 
   46200     669.2419   -100.73665   0.60554414   -100.13111    6971.3754    4.3508908    4.3508908    4.3508908    6971.3754   -5986.5506    12334.781    14565.896   -2214.0752     4046.627   -2003.6617    82.363455 
   46300    643.05045   -100.71621   0.58184556   -100.13436    -10519.38    4.3623798    4.3623798    4.3623798    -10519.38   -18010.353   -6919.5509   -6628.2366    6140.6501   -6974.2468    -1649.926    83.017647 
   46400    760.74524   -100.82358   0.68833828   -100.13524    -2334.171    4.3600157    4.3600157    4.3600157    -2334.171    1538.9291   -16420.699    7879.2567   -1646.1901   -7171.3454   -5207.1894    82.882752 
   46500    792.45143   -100.85032   0.71702671   -100.13329    1188.0763    4.3524972    4.3524972    4.3524972    1188.0763    6376.4046   -560.43118   -2251.7444    9123.0791    4896.7338    1037.9729    82.454719 
   46600    351.04931   -100.45588   0.31763679   -100.13825    -9638.613    4.3658167    4.3658167    4.3658167    -9638.613   -8828.2187   -14453.765   -5633.8554   -4929.3113   -16478.941   -6834.1353     83.21402 
   46700    1100.6483   -101.12803   0.99588967   -100.13214   -1587.0109    4.3515604    4.3515604    4.3515604   -1587.0109    10689.852   -16693.414    1242.5291    7946.7497    10960.295    3072.5056    82.401487 
   46800    396.56262   -100.49953   0.35881819   -100.14071   -5863.8865    4.3624065    4.3624065    4.3624065   -5863.8865    2232.1818   -3217.1766   -16606.665   -5699.2465   -13106.393   -5945.4027    83.019174 
   46900    707.72473   -100.77809    0.6403642   -100.13773   -10205.566    4.3577813    4.3577813    4.3577813   -10205.566   -19674.229   -11085.975    143.50587    4044.9465    2982.0829    3839.9555    82.755389 
   47000    882.61192   -100.93831   0.79860581    -100.1397   -2973.7435    4.3570237    4.3570237    4.3570237   -2973.7435   -3153.6544   -8924.7458    3157.1697    2872.1204   -9083.4335   -5177.1542    82.712239 
   47100    576.70559   -100.66237   0.52181534   -100.14056   -7005.1578    4.3598443    4.3598443    4.3598443   -7005.1578   -14139.162    1237.4412   -8113.7524   -1972.3186   -10125.956     526.4426    82.872977 
   47200    662.27699   -100.73489   0.59924214   -100.13565   -4766.8284    4.3587094    4.3587094    4.3587094   -4766.8284   -21540.693   -7436.0247    14676.232    9640.1875    3792.7046   -671.22835    82.808276 
   47300    755.89995   -100.82096   0.68395416     -100.137   -3184.6397    4.3601985    4.3601985    4.3601985   -3184.6397    3900.2896   -1864.3375   -11589.871    -5762.646   -18501.363    -5031.908    82.893176 
   47400    728.55786    -100.7908   0.65921446   -100.13159     4144.243    4.3520714    4.3520714    4.3520714     4144.243   -4658.8717    -1807.335    18898.936    7095.4523    2096.7436    6209.6386    82.430518 
   47500    387.58899   -100.48953   0.35069866   -100.13883   -11925.793    4.3669716    4.3669716    4.3669716   -11925.793   -18675.159   -2811.8452   -14290.374    802.16201   -13643.793   -7966.6552    83.280074 
   47600    1020.4759   -101.05761   0.92334801   -100.13426     3527.931    4.3537107    4.3537107    4.3537107     3527.931    21069.147   -11625.319    1139.9649   -686.57565   -10278.519    6166.6534    82.523704 
   47700     568.3759   -100.65708   0.51427846   -100.14281   -1183.1776    4.3593222    4.3593222    4.3593222   -1183.1776    3868.0878    3109.9055   -10527.526    1518.7921   -2986.7711   -6267.6502    82.843206 
   47800     481.5282   -100.57808   0.43569683   -100.14238     -7075.96    4.3586803    4.3586803    4.3586803     -7075.96    5013.6704    -5515.726   -20725.824    -2318.074   -7661.5003   -4305.7328    82.806618 
   47900     1058.888   -101.09507   0.95810411   -100.13696   -3293.0352    4.3568406    4.3568406    4.3568406   -3293.0352    10091.081    -17059.71   -2910.4769    1998.2621   -2627.3026     4904.207    82.701808 
   48000    433.80818   -100.52973   0.39251876   -100.13721   -11474.295    4.3625302    4.3625302    4.3625302   -11474.295   -820.30757   -6861.6898   -26740.888   -678.89248   -8788.5573   -11270.842    83.026233 
   48100    683.48083     -100.749   0.61842782   -100.13057     4652.647    4.3470086    4.3470086    4.3470086     4652.647   -6967.4824    3373.3052    17552.118    46.293529   -131.87777    4912.8214    82.143175 
   48200    850.62443   -100.91075   0.76966286   -100.14109   -18053.064    4.3690307    4.3690307    4.3690307   -18053.064   -9441.2618   -28425.944   -16291.987    537.04324   -8686.5233   -6277.2048    83.397933 
   48300    626.20327   -100.70391   0.56660188   -100.13731    715.35743      4.35593      4.35593      4.35593    715.35743   -6889.0514   -3783.1076    12818.231   -1713.7267     3112.825    743.74554    82.649965 
   48400    522.98257   -100.60968   0.47320562   -100.13647   -5346.9711     4.353683     4.353683     4.353683   -5346.9711   -14704.369   -2723.4521     1386.908    2168.0046   -3739.5744   -2158.2897    82.522126 
   48500    892.46922   -100.94322    0.8075249    -100.1357   -9850.5058    4.3647907    4.3647907    4.3647907   -9850.5058    8378.6723   -25638.611   -12291.578   -3829.1913   -3784.0775   -3443.8671    83.155365 
   48600    667.89047    -100.7349   0.60432134   -100.13058    3299.7629    4.3501986    4.3501986    4.3501986    3299.7629   -7127.0902    9940.4226    7085.9563    2355.2169    4458.6706    1489.8354    82.324149 
   48700    421.42572   -100.51922   0.38131485    -100.1379   -11402.318     4.361318     4.361318     4.361318   -11402.318    2650.6259   -14815.289   -22042.291   -1272.1749   -15540.564   -7518.9883    82.957043 
   48800    1112.3637   -101.14045      1.00649   -100.13396    1212.3048    4.3585327    4.3585327    4.3585327    1212.3048     6583.747    -2405.428   -541.40473    2769.4251    6922.8793    1538.9028    82.798205 
   48900    418.44623    -100.5191   0.37861894   -100.14048    -2096.179    4.3594329    4.3594329    4.3594329    -2096.179    21223.423   -6103.1797   -21408.781    3558.3017   -10046.033    -6241.292    82.849517 
   49000    645.15056   -100.72179   0.58374579   -100.13804   -6817.3847    4.3569924    4.3569924    4.3569924   -6817.3847   -15161.635    1599.2285   -6889.7477   -1753.8591   -741.55891   -1553.3467    82.710453 
   49100    936.94972   -100.98719    0.8477718   -100.13942    662.90657    4.3587877    4.3587877    4.3587877    662.90657    16753.649   -5948.7565   -8816.1731    1935.5625    -1539.352    -2554.776    82.812742 
   49200    451.00089   -100.54609   0.40807508   -100.13802   -13160.609    4.3639226    4.3639226    4.3639226   -13160.609   -16228.931   -2651.4432   -20601.453    4869.7144   -7717.4349   -3158.5377    83.105758 
   49300    718.19764   -100.78276   0.64984032   -100.13292    10213.001    4.3462357    4.3462357    4.3462357    10213.001   -1134.4051    12965.666    18807.742   -4802.8924    1685.3809   -510.93557    82.099372 
   49400    776.94344   -100.84451   0.70299475   -100.14152   -12740.622     4.371343     4.371343     4.371343   -12740.622   -4410.4129   -13449.467   -20361.987    6128.0793   -15566.386   -3276.9383    83.530418 
   49500    745.01274   -100.80686   0.67410319   -100.13276    4307.3412    4.3542998    4.3542998    4.3542998    4307.3412   -15258.878    5984.5064    22196.396    502.11669    5283.1116    78.188631    82.557208 
   49600    410.14292   -100.50859   0.37110593   -100.13748    2511.2825    4.3559543    4.3559543    4.3559543    2511.2825    8026.3976     1070.788   -1563.3383   -1701.0055   -12241.937   -6142.7802    82.651349 
   49700    1007.8512   -101.04508   0.91192494   -100.13316   -4154.6487    4.3648248    4.3648248    4.3648248   -4154.6487   -6043.6038   -9169.4721    2749.1298    5360.4668   -1951.2311    36.883944    83.157315 
   49800    632.06444   -100.70433   0.57190519   -100.13243    576.95249     4.353027     4.353027     4.353027    576.95249    6313.4511   -6170.0826    1587.4889   -954.75698   -1057.0803   -5211.6337    82.484828 
   49900    407.21407   -100.50686   0.36845585    -100.1384   -5259.0871    4.3613564    4.3613564    4.3613564   -5259.0871   -1505.0361    -919.7753    -13352.45   -1142.9169   -10381.063   -3161.9294    82.959232 
   50000    1219.6326   -101.23704    1.1035492   -100.13349   -8583.6909    4.3600727    4.3600727    4.3600727   -8583.6909   -5540.3852   -19154.799   -1055.8882    4268.8122    1467.5965   -2530.8354       82.886 
   50100    285.71522   -100.39877   0.25852114   -100.14025   -3161.4609    4.3591763    4.3591763    4.3591763   -3161.4609    8875.3196   -4110.4619    -14249.24   -3360.1852   -7407.9159   -5750.0227     82.83489 
   50200    816.83414   -100.87399    0.7390887    -100.1349   -12010.414    4.3566264    4.3566264    4.3566264   -12010.414   -25134.962   -6543.5242   -4352.7566    1048.5998   -722.25379   -1535.0488    82.689611 
   50300    764.85282   -100.83126    0.6920549   -100.13921   -699.42454    4.3629187    4.3629187    4.3629187   -699.42454    7097.4188   -12591.442    3395.7494    3743.6645   -1033.0903   -5943.9375    83.048416 
   50400    616.38668   -100.69266   0.55771962   -100.13494   -8814.5853    4.3583993    4.3583993    4.3583993   -8814.5853   -12055.861   -10960.913    -3426.982   -7766.7532    2030.1501   -2631.9961    82.790601 
   50500    571.93633   -100.65295   0.51750001   -100.13545    4800.3717    4.3540944    4.3540944    4.3540944    4800.3717   -7015.0795    5243.3591    16172.836    5777.2017   -3979.2655   -6238.0422    82.545524 
   50600    890.54418   -100.94268   0.80578309    -100.1369    -10129.05    4.3652814    4.3652814    4.3652814    -10129.05     6521.292    -24791.96   -12116.482   -3766.4789    381.38508   -3523.3437    83.183411 
   50700    667.02541   -100.73601   0.60353861   -100.13247    4614.3256    4.3552356    4.3552356    4.3552356    4614.3256   -10201.691    5230.7854    18813.883   -1554.0606    607.31546    -2011.187    82.610444 
   50800    437.53635   -100.53371   0.39589209   -100.13782   -8997.6637    4.3620146    4.3620146    4.3620146   -8997.6637    2592.9001   -14501.625   -15084.266    1032.7572   -8565.0884   -8717.6256      82.9968 
   50900    1063.6219   -101.09681   0.96238748   -100.13443    21.850515     4.356435     4.356435     4.356435    21.850515   -748.95799   -6781.0676    7595.5772   -5777.4387    7543.8809    3803.4259    82.678712 
   51000    484.26162   -100.57626   0.43817009   -100.13809   -10950.271    4.3614832    4.3614832    4.3614832   -10950.271   -7089.4408   -9281.5916   -16479.782    2307.4845    -9531.755   -10142.644    82.966473 
   51100    538.54383   -100.62373   0.48728578   -100.13645   -5559.1911    4.3557936    4.3557936    4.3557936   -5559.1911   -220.28914   -6359.2108   -10098.073   -5856.3817   -2843.8493    328.92525    82.642204 
   51200    1092.1546   -101.12536   0.98820446   -100.13715   -5924.9122    4.3577397    4.3577397    4.3577397   -5924.9122   -3951.3223   -10551.827   -3271.5872    1147.6178    2616.6783   -3699.5498    82.753018 
   51300    353.60312    -100.4588   0.31994753   -100.13885   -18135.808    4.3668139    4.3668139    4.3668139   -18135.808   -9134.8295   -18707.644   -26564.951   -4429.8975   -14340.411   -8331.5829    83.271052 
   51400    756.94498   -100.81832   0.68489972   -100.13342    8333.2454    4.3463809    4.3463809    4.3463809    8333.2454   -2614.8431    3135.7571    24478.822    524.22599     8806.003    5840.5926    82.107599 
   51500    835.93843   -100.89757   0.75637466    -100.1412   -13327.052    4.3693942    4.3693942    4.3693942   -13327.052    714.88476   -22812.467   -17883.574    -954.0887   -17364.305   -8703.3199    83.418753 
   51600    550.18711   -100.63418   0.49782086   -100.13636    6523.5743    4.3544707    4.3544707    4.3544707    6523.5743   -1870.0844   -5760.0337    27200.841    -3613.469    8243.7977    3812.2032    82.566924 
   51700    617.64037    -100.6965   0.55885399   -100.13765   -2417.9476    4.3579739    4.3579739    4.3579739   -2417.9476    1778.0384   -4299.1048   -4732.7766    4952.5521   -10973.093   -8310.2658    82.766361 
   51800    845.89815   -100.90198   0.76538642    -100.1366    -2115.248    4.3617383    4.3617383    4.3617383    -2115.248    6044.6777   -11580.756   -809.66536   -3095.3973   -4785.0336    59.927806    82.981027 
   51900    693.43975   -100.76092   0.62743885   -100.13348   -2135.5496    4.3539484    4.3539484    4.3539484   -2135.5496   -5126.8461   -6704.8389    5425.0362    260.51823    2527.0829   -3950.2037    82.537218 
   52000    453.19832   -100.54886   0.41006337   -100.13879   -8261.7213    4.3658127    4.3658127    4.3658127   -8261.7213    1443.3266    1128.0286   -27356.519    6060.7213   -10738.198   -5030.1726    83.213788 
   52100    1118.7328   -101.14561    1.0122529   -100.13335   -706.17351    4.3534603    4.3534603    4.3534603   -706.17351    999.89501   -9770.0607    6651.6452   -2746.6243    7055.2092    2743.3928    82.509462 
   52200    367.48425   -100.47065   0.33250747   -100.13814   -8994.6944    4.3658159    4.3658159    4.3658159   -8994.6944    3727.2547   -3773.2635   -26938.074    1487.7527   -6793.0323   -11007.011    83.213971 
   52300    728.41879    -100.7928   0.65908863   -100.13371   -3445.3107    4.3545553    4.3545553    4.3545553   -3445.3107   -6333.1926    4760.8918   -8763.6312    5594.2343    876.89496    6379.2925    82.571741 
   52400    859.82425   -100.91526   0.77798705   -100.13728    7493.7698    4.3564614    4.3564614    4.3564614    7493.7698    27411.793    -5445.789     515.3052   -5315.1964   -2571.9335   -9753.0202    82.680218 
   52500    477.51592   -100.56893   0.43206644   -100.13686   -16405.116    4.3661445    4.3661445    4.3661445   -16405.116   -22164.098    -5693.921    -21357.33     4762.497   -3397.5964   -1140.2359    83.232761 
   52600    693.74633   -100.76212   0.62771626   -100.13441    9769.7954    4.3525393    4.3525393    4.3525393    9769.7954    11172.453    9252.3006    8884.6327   -331.11425   -1748.6547    1094.8711    82.457106 
   52700    887.44078   -100.94037   0.80297507    -100.1374   -7770.1968    4.3647837    4.3647837    4.3647837   -7770.1968    7228.0307   -18935.658   -11602.963   -4730.9546    1220.7009   -11384.331    83.154961 
   52800    543.72416   -100.62799   0.49197304   -100.13601    3628.8614    4.3551927    4.3551927    4.3551927    3628.8614   -5223.7489    7332.5921    8777.7409    4996.0419   -504.65021    7595.4039    82.608001 
   52900    668.14261   -100.74095   0.60454947    -100.1364   -945.36764    4.3617181    4.3617181    4.3617181   -945.36764    7591.1547   -12190.381    1763.1236   -5225.3911    -957.5057   -9636.4431    82.979878 
   53000    980.59085    -101.0221   0.88725921   -100.13484   -1556.6655    4.3541696    4.3541696    4.3541696   -1556.6655   -2591.3481   -869.71408   -1208.9343    343.07937    195.99087    2313.3647      82.5498 
   53100    406.88335   -100.50866    0.3681566    -100.1405    7621.1852     4.360728     4.360728     4.360728    7621.1852    14226.552    -6319.022    14956.026    1746.4493    973.56032   -2648.8615    82.923378 
   53200    809.12657    -100.8702   0.73211472   -100.13808   -8328.8689    4.3600629    4.3600629    4.3600629   -8328.8689   -4709.9435   -4941.6264   -15335.037   -4855.9557    -1609.545   -3653.5363    82.885442 
   53300    771.02313   -100.83652   0.69763793   -100.13888    18834.253    4.3529451    4.3529451    4.3529451    18834.253    33658.619    4503.5776    18340.564    2634.6768    2682.4096    2542.7977    82.480176 
   53400    624.20937   -100.69914   0.56479776   -100.13434   -16476.131    4.3672477    4.3672477    4.3672477   -16476.131   -12022.724   -11118.021   -26287.647    482.64823    1445.1111   -3008.9964     83.29587 
   53500    622.78099   -100.69731   0.56350533   -100.13381    9982.4394    4.3486679    4.3486679    4.3486679    9982.4394    12795.415    13563.361    3588.5415   -3209.6324   -161.73703    1646.5784    82.237276 
   53600     990.8809   -101.03242   0.89656986   -100.13585   -1863.6481    4.3619808    4.3619808    4.3619808   -1863.6481     14671.71    -4435.886   -15826.768    3674.4078    7631.4512   -2317.5767     82.99487 
   53700    470.39739   -100.56311   0.42562544   -100.13749     -13418.9    4.3597873    4.3597873    4.3597873     -13418.9   -15112.469    -6514.389   -18629.841    3998.1748   -2192.6798    4305.8012    82.869728 
   53800    683.16739   -100.75457   0.61814421   -100.13643    12919.322    4.3526639    4.3526639    4.3526639    12919.322    26357.093    13894.808   -1493.9332   -1827.6492    6144.9129   -2057.1452    82.464192 
   53900    871.03943   -100.92514   0.78813478   -100.13701   -14302.685    4.3677396    4.3677396    4.3677396   -14302.685   -7849.3781   -26103.252   -8955.4246    7009.3473    2867.2356    8049.7382    83.324021 
   54000    535.64365   -100.61843   0.48466163   -100.13377    10062.354    4.3485858    4.3485858    4.3485858    10062.354    27571.616    1881.2769    734.16969    1443.0712    95.981744    -1376.129    82.232623 
   54100     662.4572    -100.7363    0.5994052    -100.1369   -4686.3894    4.3658105    4.3658105    4.3658105   -4686.3894   -18146.491   -8141.7362    12229.059   -666.20191    7264.8029    6608.7511    83.213664 
   54200    956.64759   -101.00343   0.86559485   -100.13784   -3271.8408    4.3550508    4.3550508    4.3550508   -3271.8408    21306.228   -25907.319   -5214.4314    9293.0784   -2762.0035     6670.647    82.599928 
   54300    485.09221   -100.57679   0.43892163   -100.13787     11570.61     4.355048     4.355048     4.355048     11570.61    8930.4387    3251.3026    22530.087   -2228.0534    664.09482   -625.84426     82.59977 
   54400     760.5112   -100.82623   0.68812652    -100.1381   -14559.764    4.3636613    4.3636613    4.3636613   -14559.764   -7512.4952   -20598.711   -15568.085    3546.3822    4207.0634    13672.499    83.090828 
   54500    841.98114   -100.89563   0.76184223   -100.13378    15933.475    4.3546912    4.3546912    4.3546912    15933.475    34070.323   -13508.035    27238.137    2396.4076   -8653.0809   -2221.7798    82.579471 
   54600    581.75279   -100.66224   0.52638215   -100.13586   -22132.454    4.3626404    4.3626404    4.3626404   -22132.454   -23896.768   -12539.284   -29961.309     1212.832    6073.5074    8842.5143    83.032525 
   54700    600.11984   -100.68112   0.54300104   -100.13812    12419.944    4.3555234    4.3555234    4.3555234    12419.944    23560.645   -3320.0127    17019.198     3696.111   -5950.4473    4848.3003    82.626826 
   54800    1015.6016   -101.05508   0.91893764   -100.13614   -12555.848    4.3601727    4.3601727    4.3601727   -12555.848   -5505.7122   -18699.298   -13462.533   -120.02532    918.39691     4341.367    82.891705 
   54900     282.6159   -100.39499   0.25571681   -100.13927   -1539.2165    4.3583373    4.3583373    4.3583373   -1539.2165    3864.0885    2274.3493   -10756.087    4755.8987    -418.2462    7916.1029     82.78707 
   55000    992.30137   -101.03142   0.89785513   -100.13356    573.81754    4.3570427    4.3570427    4.3570427    573.81754    5661.5757   -8440.0946    4499.9715   -3237.9855   -5294.2625    1815.0283    82.713317 
   55100     651.9666   -100.72786   0.58991308   -100.13795   -5067.2897    4.3592625    4.3592625    4.3592625   -5067.2897    268.51248   -6761.1192   -8709.2625    4023.2882     4316.022    8196.0518    82.839804 
   55200     582.3487   -100.66152   0.52692134    -100.1346    7848.8416    4.3590463    4.3590463    4.3590463    7848.8416    15188.928   -1007.7497    9365.3466   -413.39842   -9842.3081    772.73426    82.827478 
   55300    768.81628   -100.83305   0.69564112   -100.13741    556.75496    4.3584035    4.3584035    4.3584035    556.75496   -11440.499   -7106.1405    20216.905   -401.79833    5001.4245    7463.4794    82.790842 
   55400    760.20092   -100.82402   0.68784577   -100.13617    9595.2533    4.3595699    4.3595699    4.3595699    9595.2533    21703.339   -10008.795    17091.216    4541.5507   -7372.9861    2060.3726    82.857328 
   55500    507.19133   -100.59461   0.45891738   -100.13569    4588.9975     4.359243     4.359243     4.359243    4588.9975   -5622.8317   -1114.9366    20504.761   -1749.9965    782.40873     1922.913     82.83869 
   55600    880.98675   -100.93366   0.79713532   -100.13652    578.65664    4.3551163    4.3551163    4.3551163    578.65664    3660.2101   -11794.193    9869.9524    409.05714    -818.6207    8603.7021    82.603656 
   55700    723.67135   -100.78981   0.65479305   -100.13502    5949.8979    4.3616133    4.3616133    4.3616133    5949.8979    12304.677    -11762.51    17307.526    4264.2695   -1697.8453   -2136.6603    82.973893 
   55800    482.10311    -100.5749   0.43621703   -100.13868   -9505.3598     4.358269     4.358269     4.358269   -9505.3598   -17607.337   -8689.7644   -2218.9779   -1796.2173    3111.4213    7874.8333    82.783179 
   55900    1060.7975   -101.09608    0.9598319   -100.13625    2300.2314    4.3550044    4.3550044    4.3550044    2300.2314    10851.914   -12013.805    8062.5851    1319.7409   -6042.7069   -984.07525    82.597289 
   56000    407.47261   -100.51288   0.36868978   -100.14419    78.493772    4.3625444    4.3625444    4.3625444    78.493772    -3395.506   -21713.045    25344.033    5641.9278    7016.2087    6921.5613    83.027043 
   56100    870.28888   -100.92499   0.78745567   -100.13754   -12675.683    4.3601795    4.3601795    4.3601795   -12675.683   -17957.822   -9380.1235   -10689.104   -5654.9173   -1174.1153    1478.5432    82.892095 
   56200    596.62448   -100.67983   0.53983837   -100.13999    15692.868     4.354932     4.354932     4.354932    15692.868    11177.196   -12243.545    48144.955    8304.2526      318.449    7511.4396    82.593168 
   56300    856.85022   -100.91645   0.77529609   -100.14116   -9006.9804    4.3615441    4.3615441    4.3615441   -9006.9804    -12555.32   -16502.173    2036.5522   -1076.7706     10250.09    2443.1892    82.969944 
   56400    594.53884   -100.67497   0.53795123   -100.13701    8059.9662    4.3596702    4.3596702    4.3596702    8059.9662   -11318.299    445.32445    35052.873   -2808.8617   -3332.8114    -2829.716    82.863048 
   56500     607.9879   -100.68972   0.55012023    -100.1396   -3382.8875    4.3584533    4.3584533    4.3584533   -3382.8875    1346.9263    -7734.266   -3761.3226    8319.3191    5418.0616    8549.6654    82.793682 
   56600    907.14879   -100.95514   0.82080729   -100.13433    5152.6111     4.355758     4.355758     4.355758    5152.6111   -9766.7733     5692.027     19532.58   -5598.1335    567.24164   -7103.5247    82.640174 
   56700    496.12545   -100.58745   0.44890473   -100.13854    -15016.77     4.365558     4.365558     4.365558    -15016.77    -19824.13   -6224.7074   -19001.474    3040.9555    2426.1478    5121.3581    83.199224 
   56800     768.4402   -100.82723   0.69530084   -100.13193    6260.2915    4.3556822    4.3556822    4.3556822    6260.2915     5184.183    16137.788   -2541.0962    2822.1726   -962.13187    305.08576    82.635863 
   56900    765.49142   -100.82679   0.69263272   -100.13416   -2589.0851    4.3545839    4.3545839    4.3545839   -2589.0851   -9025.2224   -11745.729    13003.696   -3089.8823    5896.0351   -3216.7695    82.573367 
   57000    611.63803   -100.68991   0.55342294   -100.13648   -10360.966    4.3687499    4.3687499    4.3687499   -10360.966    -17209.23    14619.296   -28492.965    3336.6995   -3088.3301    5579.8745    83.381853 
   57100    708.80164   -100.77549   0.64133862   -100.13415    14687.818    4.3498983    4.3498983    4.3498983    14687.818    16487.219   -9298.6805    36874.917    2920.0468   -313.55028   -4205.1642      82.3071 
   57200    734.22135   -100.80531   0.66433891   -100.14097   -11165.543    4.3629596    4.3629596    4.3629596   -11165.543   -14015.849   -12238.824   -7241.9577    -3268.444    1652.0391    7058.5038    83.050756 
   57300    666.39353   -100.73915   0.60296687   -100.13618    9296.5732    4.3620889    4.3620889    4.3620889    9296.5732    3082.4571    3116.6859    21690.577    5388.6838   -2845.2018   -10279.461    83.001039 
   57400    703.51978   -100.77097   0.63655948   -100.13441   -394.48935    4.3495114    4.3495114    4.3495114   -394.48935    12285.722   -22661.379    9192.1883   -1222.1937    2822.1515    8779.0008     82.28514 
   57500    728.17994   -100.79714   0.65887252   -100.13826    249.84812     4.364967     4.364967     4.364967    249.84812   -10557.591   -3331.2859    14638.421    201.28993    1544.0915   -4733.6932    83.165442 
   57600    677.13917   -100.74881   0.61268975   -100.13612   -779.75941    4.3615813    4.3615813    4.3615813   -779.75941    5679.8115   -6553.6785   -1465.4112    5198.3562    2437.9819    5895.2846    82.972066 
   57700    664.26586   -100.73466   0.60104171   -100.13362   -2819.6321    4.3568704    4.3568704    4.3568704   -2819.6321   -591.61002   -5353.7875   -2513.4988   -2844.6803     1547.755     93.38526    82.703505 
   57800    781.76962   -100.84157   0.70736158   -100.13421    961.39926    4.3594019    4.3594019    4.3594019    961.39926   -2371.8822    1168.6845    4087.3955    4475.0892    3952.3227    -3893.522     82.84775 
   57900    620.48656   -100.69899   0.56142927   -100.13756   -6485.2228    4.3619217    4.3619217    4.3619217   -6485.2228   -4388.9856   -2241.8872   -12824.796     -372.134    3656.5868    8084.6471    82.991496 
   58000    733.11628   -100.79708   0.66333902   -100.13374    1235.8342    4.3577269    4.3577269    4.3577269    1235.8342   -2632.9838    6666.2564   -325.76994   -441.01143    102.36762   -10928.411    82.752294 
   58100    697.03298   -100.76837   0.63069009   -100.13768   -6279.7308    4.3594371    4.3594371    4.3594371   -6279.7308   -7763.6748   -17162.337    6086.8198    2138.8332    9151.2857    8652.9872    82.849759 
   58200    658.15336   -100.73722   0.59551099   -100.14171    10820.463    4.3585501    4.3585501    4.3585501    10820.463    -4847.688    19055.597    18253.481   -2200.4521    21.903426   -4672.1806    82.799197 
   58300    679.60135   -100.75838   0.61491758   -100.14346   -16545.994    4.3633593    4.3633593    4.3633593   -16545.994   -15243.061   -33016.409   -1378.5113    1129.5527    5912.8715    4715.0249    83.073579 
   58400    668.89863   -100.74777   0.60523354   -100.14254    5957.9185     4.356307     4.356307     4.356307    5957.9185   -4166.1375   -7490.0013    29529.894   -2183.0094     5397.284    4714.0873    82.671426 
   58500    824.77101   -100.88385   0.74627014   -100.13758   -11083.464    4.3610774    4.3610774    4.3610774   -11083.464   -12738.935   -11152.297   -9359.1583    1251.6958   -2665.6164   -3642.3885    82.943316 
   58600    399.33816   -100.50017   0.36132956   -100.13884   -15431.764     4.361944     4.361944     4.361944   -15431.764   -10027.633   -37038.799    771.14054    905.01382    8514.9048    9305.7861    82.992772 
   58700    956.57041     -101.002   0.86552501   -100.13648    421.43924    4.3557128    4.3557128    4.3557128    421.43924   -9514.1589    12622.215   -1843.7386   -339.36649   -64.248391   -2696.6944    82.637604 
   58800    636.74722   -100.71898   0.57614226   -100.14284   -15549.805    4.3657712    4.3657712    4.3657712   -15549.805   -17032.121   -10531.443   -19085.853    4872.5278    1839.4156    3573.5242    83.211416 
   58900    577.82666   -100.66167    0.5228297   -100.13884    10863.571    4.3544818    4.3544818    4.3544818    10863.571    -5228.809    27925.839    9893.6832    66.195346    1228.9689    1798.9996    82.567556 
   59000    770.43331   -100.83709   0.69710425   -100.13998   -7288.1308    4.3641842    4.3641842    4.3641842   -7288.1308    -13367.01   -14760.357    6262.9753    126.40549    1044.3039   -5849.5573    83.120705 
   59100    740.93731   -100.80906   0.67041564   -100.13864    6753.1794    4.3564867    4.3564867    4.3564867    6753.1794   -7067.1055     24595.28    2731.3633    4953.9499    4249.1529    6408.6355    82.681655 
   59200    561.78532   -100.64472   0.50831516   -100.13641   -429.83857    4.3593851    4.3593851    4.3593851   -429.83857   -4050.5751   -18182.426    20943.485    2537.1207   -29.298569   -7992.0461    82.846796 
   59300    722.24661   -100.79252   0.65350392   -100.13902   -11706.064    4.3645851    4.3645851    4.3645851   -11706.064   -7775.9096   -14571.224   -12771.058   -1487.5644    6305.9216    7673.4407    83.143614 
   59400    916.42333   -100.96285   0.82919909   -100.13365    8988.1685    4.3541252    4.3541252    4.3541252    8988.1685   -2758.9028    14671.984    15051.425    10821.774   -265.87895   -4668.5977    82.547272 
   59500    422.20767   -100.52323   0.38202238   -100.14121   -22028.366    4.3649294    4.3649294    4.3649294   -22028.366   -9041.9497   -39746.505   -17296.642   -4862.3331     2999.746    3294.7435    83.163293 
   59600     825.9401    -100.8869   0.74732796   -100.13957    12192.143    4.3550672    4.3550672    4.3550672    12192.143    270.06447    33133.484    3172.8789     4006.207    6107.9085    4004.1643     82.60086 
   59700    798.83437   -100.86574   0.72280213   -100.14294   -8919.9474    4.3656161    4.3656161    4.3656161   -8919.9474   -19214.514   -42.732391    -7502.596    3718.1452    1345.3586    5461.4042     83.20255 
   59800    487.74488   -100.58032   0.44132181   -100.13899    6516.3606    4.3544852    4.3544852    4.3544852    6516.3606    1524.8336    26919.048   -8894.7995   -2445.1065    7699.5808   -1247.7802     82.56775 
   59900    796.56226   -100.85702   0.72074627   -100.13627     4494.239    4.3604563    4.3604563    4.3604563     4494.239   -12785.709    8312.3379    17956.088    311.71539    2456.4441    4112.7278    82.907881 
   60000    807.08173   -100.86673   0.73026451   -100.13646   -7163.5345    4.3618936    4.3618936    4.3618936   -7163.5345   -16743.797    16489.687   -21236.493     2680.417    11064.214    188.90599    82.989893 
   60100    498.70171   -100.58479   0.45123579   -100.13356    14659.471    4.3529427    4.3529427    4.3529427    14659.471    3133.4348    5676.4887     35168.49   -3853.5862   -3190.7367    -3168.898    82.480038 
   60200    792.48635   -100.85551    0.7170583   -100.13845   -21278.165    4.3685197    4.3685197    4.3685197   -21278.165   -25847.436   -15222.068    -22764.99    356.79036    12182.969    4913.5653    83.368676 
   60300    804.98298   -100.86263   0.72836552   -100.13426    12958.456    4.3546446    4.3546446    4.3546446    12958.456   -2531.0156     18554.48    22851.906   -2443.8192    593.71743   -1101.4213    82.576819 
   60400    432.44332   -100.52795    0.3912838   -100.13667   -18072.589    4.3618867    4.3618867    4.3618867   -18072.589    -17200.48   -24334.456   -12682.831   -1699.3766    4263.4278    1163.9873    82.989499 
   60500    827.09818   -100.88606   0.74837582   -100.13768   -5491.7956    4.3589173    4.3589173    4.3589173   -5491.7956   -13836.367    1559.0055   -4198.0253   -3249.3322    8385.6666    6348.8087    82.820125 
   60600    832.42082   -100.89093   0.75319185   -100.13774   -2206.6677    4.3597585    4.3597585    4.3597585   -2206.6677   -13655.925    14463.271   -7427.3494    2336.7842      -2740.4   -6271.9462    82.868084 
   60700    432.06916   -100.53109   0.39094526   -100.14014    -9048.899    4.3592157    4.3592157    4.3592157    -9048.899   -8432.5513    5661.2306   -24375.376   -1990.6466     10206.02    5715.1176    82.837135 
   60800    922.55722   -100.97197   0.83474916   -100.13722    7996.9929    4.3563894    4.3563894    4.3563894    7996.9929   -1743.1994    20464.219    5269.9597    6613.5498   -4085.3706   -6297.9152    82.676118 
   60900    657.74324   -100.73642    0.5951399   -100.14128   -2452.4585    4.3639935    4.3639935    4.3639935   -2452.4585   -14230.325    30195.833   -23322.884    1304.0639    6003.7814    4412.4456     83.10981 
   61000    595.90023   -100.67474   0.53918305   -100.13555    1881.9943    4.3589875    4.3589875    4.3589875    1881.9943    1195.5154    7732.9423   -3282.4748    7804.3968   -44.893673    181.78671    82.824128 
   61100     737.7167    -100.8034   0.66750158    -100.1359    5053.3482    4.3568653    4.3568653    4.3568653    5053.3482    799.51908     4332.692    10027.833    31.492958    2365.4793   -2286.1225    82.703216 
   61200    798.94393   -100.86089   0.72290126   -100.13799   -4274.0715    4.3624572    4.3624572    4.3624572   -4274.0715   -14860.965    14651.288   -12612.538     6162.975    4353.5562    4835.2795    83.022068 
   61300    552.87051   -100.63613   0.50024885   -100.13588    2779.6867    4.3591804    4.3591804    4.3591804    2779.6867    10280.451   -23027.333    21085.943    6111.9408   -1107.3643    516.09136    82.835123 
   61400    804.10048   -100.86623   0.72756701   -100.13866   -1266.5311    4.3565786    4.3565786    4.3565786   -1266.5311    -1894.868    8549.8152    -10454.54   -67.554874    9935.6218    1318.6158    82.686893 
   61500    757.11306   -100.81971   0.68505181   -100.13466    5344.9338    4.3634753    4.3634753    4.3634753    5344.9338   -252.11115    9459.7125       6827.2    7889.9098   -1301.0434    492.99163    83.080206 
   61600    609.61001   -100.68802   0.55158795   -100.13643   -2447.6921    4.3553425    4.3553425    4.3553425   -2447.6921    12669.482   -2086.3794   -17926.179    -668.7429     6173.043    653.59258    82.616529 
   61700    721.32963   -100.79393   0.65267421   -100.14126    13012.582    4.3583972    4.3583972    4.3583972    13012.582    2847.6893    36223.557    -33.50159    3429.6618    3573.7715    8777.3853    82.790485 
   61800      813.338   -100.87579   0.73592531   -100.13987   -7904.1294    4.3654949    4.3654949    4.3654949   -7904.1294   -4709.7138   -817.45465    -18185.22    48.346177     145.0104    2958.0313    83.195621 
   61900    410.05455   -100.51201   0.37102597   -100.14098    14422.767    4.3522503    4.3522503    4.3522503    14422.767    17570.831    41141.652   -15444.182   -2044.1508    6465.4254    3293.6638    82.440687 
   62000    1017.5915   -101.05716   0.92073819   -100.13642   -13965.738    4.3661204    4.3661204    4.3661204   -13965.738   -13630.884   -21937.878   -6328.4536    -2914.695    763.56322    6802.4927    83.231388 
   62100     417.8421   -100.51612   0.37807231   -100.13805    9217.2026    4.3570732    4.3570732    4.3570732    9217.2026    9691.9574    32401.354   -14441.703    898.02637    1914.6284    1954.3991    82.715059 
   62200    837.96599   -100.89356   0.75820924   -100.13535   -10265.088    4.3586342    4.3586342    4.3586342   -10265.088   -851.06096   -19926.599   -10017.605    -5844.884    2819.0834    4890.1802     82.80399 
   62300     717.3444   -100.78617   0.64906829    -100.1371    2840.9656    4.3612645    4.3612645    4.3612645    2840.9656    3563.6579    715.36033    4243.8786   -407.42996    6100.4468   -1622.5927     82.95399 
   62400    630.18662   -100.70649   0.57020609   -100.13628   -2009.2647    4.3574126    4.3574126    4.3574126   -2009.2647   -2176.2958    5155.1389   -9006.6373   -1743.5932   -1000.2025    7127.0068    82.734387 
   62500    787.24104   -100.84609   0.71231223   -100.13378    -134.8208    4.3613027    4.3613027    4.3613027    -134.8208   -1977.2787   -12038.874     13611.69   -2041.4859    4607.0065    -3537.289    82.956169 
   62600    679.00414   -100.75104   0.61437721   -100.13666    9757.6136    4.3574228    4.3574228    4.3574228    9757.6136    13465.374    15579.202    228.26458    2453.0618    798.84753    7373.3361     82.73497 
   62700    684.80056   -100.75433   0.61962194   -100.13471   -3200.9157    4.3642961    4.3642961    4.3642961   -3200.9157   -19698.519     4.623098    10091.149    -242.5982   -4979.8149   -3595.0964    83.127102 
   62800    703.85863   -100.77554   0.63686608   -100.13868    3657.8205    4.3555386    4.3555386    4.3555386    3657.8205    20290.006    11538.139   -20854.683   -2717.6034    2923.5457     1031.754    82.627686 
   62900    742.26077   -100.81198   0.67161314   -100.14037    7877.6143    4.3572112    4.3572112    4.3572112    7877.6143    -3312.022    18331.065    8613.7997    4934.6453   -2343.3079    1134.3063    82.722917 
   63000     711.4614   -100.77977   0.64374522   -100.13603   -18825.103    4.3656449    4.3656449    4.3656449   -18825.103   -21230.059   -2393.1835   -32852.066   -2755.7619    504.47766   -5225.6662    83.204195 
   63100    558.39015   -100.64182   0.50524314   -100.13657    17010.334    4.3497211    4.3497211    4.3497211    17010.334    30817.441    29503.449   -9289.8863    1384.6453   -1040.4279    7744.6438    82.297043 
   63200    993.41839   -101.03412   0.89886584   -100.13526   -13744.808    4.3648738    4.3648738    4.3648738   -13744.808   -20667.985   -12216.405   -8350.0344    1520.3347    1814.7597   -6511.5091    83.160112 
   63300    337.64574   -100.44292   0.30550896   -100.13741     3889.717    4.3606754    4.3606754    4.3606754     3889.717    21147.522    18798.202   -28276.573   -1634.2918   -2363.2951    6800.8751    82.920377 
   63400    932.35521   -100.98056   0.84361458   -100.13695   -1433.2342    4.3562074    4.3562074    4.3562074   -1433.2342    7090.7365   -8610.2256   -2780.2136    4931.8347    1257.4599   -3401.6108    82.665756 
   63500    764.86643   -100.82881   0.69206722   -100.13675    3503.6107    4.3608816    4.3608816    4.3608816    3503.6107    12744.067    4251.2347   -6484.4693   -2302.4576   -1103.8077    2392.8046    82.932141 
   63600    429.40809   -100.52546   0.38853747   -100.13692    4059.5229    4.3579764    4.3579764    4.3579764    4059.5229    18310.326    3877.6686   -10009.426    1992.0041   -3005.4393      1646.52    82.766506 
   63700     904.6368   -100.95206   0.81853439   -100.13352    1560.0431    4.3611368    4.3611368    4.3611368    1560.0431    523.67707   -2797.9558    6954.4081    10.425556    3969.0475   -5305.0202    82.946701 
   63800    791.15483   -100.85121   0.71585351   -100.13536     10634.96    4.3543185    4.3543185    4.3543185     10634.96    31095.701    4166.9593   -3357.7799   -1799.4837   -2207.5366    8754.6304    82.558269 
   63900    409.60029   -100.50859   0.37061495   -100.13798   -7039.6655    4.3672049    4.3672049    4.3672049   -7039.6655   -28918.838    2472.0099    5327.8314   -3748.2137    699.97803   -7783.3804    83.293419 
   64000     977.4612   -101.01858   0.88442744   -100.13415   -1939.5077    4.3554156    4.3554156    4.3554156   -1939.5077    13998.067   -3640.3746   -16176.215    1835.1244    5642.4881     7558.236    82.620688 
   64100    635.96203   -100.71398   0.57543181   -100.13855    7923.1214    4.3532809    4.3532809    4.3532809    7923.1214    7188.6752    3437.8247    13142.864   -4426.4472   -7392.1705   -4503.2194    82.499267 
   64200     631.3371   -100.70495   0.57124708    -100.1337   -24653.115    4.3704173    4.3704173    4.3704173   -24653.115   -29706.274   -13782.903   -30470.168     1705.378    4881.5055   -529.88126    83.477364 
   64300    675.87347    -100.7442   0.61154452   -100.13266     16323.34    4.3481078    4.3481078    4.3481078     16323.34    43297.889    12365.124   -6692.9924   -2665.3612    1020.2949   -663.83017    82.205509 
   64400    979.08569     -101.023   0.88589731    -100.1371   -15667.522     4.362883     4.362883     4.362883   -15667.522    -15277.06   -21533.572   -10191.935   -6256.4798   -2717.9756   -4510.4488    83.046376 
   64500    378.13317   -100.48024   0.34214284   -100.13809      11695.7     4.359775     4.359775     4.359775      11695.7    34467.005    25877.716    -25257.62    869.78319    7091.7641    1281.4105    82.869026 
   64600    898.72045   -100.95175   0.81318115   -100.13857   -8213.2584    4.3588486    4.3588486    4.3588486   -8213.2584    194.69055   -15856.258   -8978.2073   -5916.7005   -1930.3316   -6324.6451     82.81621 
   64700    779.02037   -100.84055     0.704874   -100.13568    14787.461    4.3567029    4.3567029    4.3567029    14787.461    28431.731    18677.231    -2746.578   -3438.0519    3075.9275    3530.0889     82.69397 
   64800    527.12339   -100.61607   0.47695232   -100.13912   -4445.1015    4.3583571    4.3583571    4.3583571   -4445.1015    2309.6354    3198.2994   -18843.239    1364.9258   -1811.3251   -7646.8629    82.788199 
   64900    719.46091   -100.78962   0.65098335   -100.13863    7635.6414    4.3626535    4.3626535    4.3626535    7635.6414    11862.243    539.97217    10504.709   -4453.0778   -3049.7292    3373.7962    83.033274 
   65000    906.21488   -100.95876   0.81996227    -100.1388   -85.997752    4.3519273    4.3519273    4.3519273   -85.997752    647.91621    3845.8016   -4751.7111    4004.7125   -9946.7272   -5813.0592    82.422334 
   65100     317.1593    -100.4337    0.2869724   -100.14672    -2688.427    4.3643933    4.3643933    4.3643933    -2688.427   -14517.137    2958.7336     3493.122   -10755.322   -1239.2562   -2623.8978    83.132653 
   65200    1028.8359   -101.06763   0.93091237   -100.13672   -563.49977    4.3583234    4.3583234    4.3583234   -563.49977    3353.9347    642.30792   -5686.7419    1239.2904   -5787.8919   -3222.8153    82.786276 
   65300    531.93458   -100.62142   0.48130559   -100.14012   -8302.2985    4.3620948    4.3620948    4.3620948   -8302.2985   -1543.3069   -21958.659   -1404.9299   -4918.2725   -8577.1748   -8596.2705    83.001378 
   65400    793.70001   -100.85091   0.71815645   -100.13275    2877.1433    4.3538648    4.3538648    4.3538648    2877.1433    1878.2805    12449.626   -5696.4771   -3401.9297     258.5811    1480.9982    82.532468 
   65500    586.07329   -100.67032   0.53029143   -100.14003   -4471.8433    4.3619947    4.3619947    4.3619947   -4471.8433    13189.164   -15713.509   -10891.185    755.23277   -7729.7269   -9420.4426    82.995662 
   65600    842.37963   -100.89763   0.76220279   -100.13543   -7934.1148    4.3608927    4.3608927    4.3608927   -7934.1148   -2025.1506   -15958.834   -5818.3595   -4391.2513    -5433.496    735.34841    82.932779 
   65700    515.32206   -100.60048   0.46627423   -100.13421    7940.3167     4.355637     4.355637     4.355637    7940.3167    31516.822    14839.478    -22535.35    4010.8726    2115.7725   -8266.3338    82.633288 
   65800    760.66212   -100.82304   0.68826307   -100.13478   -20028.326    4.3645373    4.3645373    4.3645373   -20028.326   -19389.548    -25748.48   -14946.949   -6728.1992   -13033.648   -3636.5008    83.140884 
   65900    782.80351   -100.83907   0.70829706   -100.13078    11156.126    4.3540697    4.3540697    4.3540697    11156.126    22935.182    13723.525   -3190.3285    3034.1235    3794.8339   -1934.9791     82.54412 
   66000    558.83071   -100.64214   0.50564177    -100.1365   -19049.046    4.3631025    4.3631025    4.3631025   -19049.046   -23816.116    427.54412   -33758.567   -6313.6079   -7441.0235   -9216.5443    83.058917 
   66100    826.66959   -100.88186   0.74798802   -100.13387      6224.74    4.3572562    4.3572562    4.3572562      6224.74   -3066.8736    9497.9368    12243.157    2215.3145   -114.34099   -1047.3575    82.725477 
   66200    685.74172   -100.75715   0.62047352   -100.13668   -7632.0231    4.3611616    4.3611616    4.3611616   -7632.0231   -9025.6482    11042.888   -24913.309   -4473.3318    544.05834   -7074.0909     82.94812 
   66300    556.14915   -100.64125   0.50321544   -100.13804   -113.13527     4.358172     4.358172     4.358172   -113.13527   -12825.535    13772.042    -1285.913     901.8647   -7413.0684   -670.79638    82.777654 
   66400    906.67995   -100.95745   0.82038308   -100.13707     3938.835      4.35601      4.35601      4.35601     3938.835    -5852.318    18160.794   -491.97101    1201.8044    4093.0683    803.14658    82.654517 
   66500    504.27023   -100.59691    0.4562743   -100.14064   -17323.391    4.3683494    4.3683494    4.3683494   -17323.391   -15709.648   -23972.792   -12287.734   -3979.2771   -6493.2098    202.36698    83.358926 
   66600    814.72626   -100.86905   0.73718144   -100.13187    10609.821    4.3480163    4.3480163    4.3480163    10609.821   -664.34036    22718.081    9775.7229     1781.019    1130.5249   -1020.7095    82.200319 
   66700    647.49563   -100.72464   0.58586765   -100.13877   -13680.431    4.3640469    4.3640469    4.3640469   -13680.431   -10783.858   -21917.884   -8339.5509   -4072.6739   -4183.9506     21.62593    83.112861 
   66800    678.71864   -100.74648   0.61411889   -100.13236   -4229.7411    4.3604325    4.3604325    4.3604325   -4229.7411   -9791.5298   -8944.9765    6047.2831   -2512.5905   -75.092074    1524.9906    82.906523 
   66900    639.85629   -100.71174   0.57895542   -100.13279    2880.7281    4.3524809    4.3524809    4.3524809    2880.7281    3966.4413    27885.552   -23209.809   -1430.8021    -1942.771   -4711.0556    82.453787 
   67000    788.66786   -100.85017   0.71360325   -100.13656   -14172.609     4.367048     4.367048     4.367048   -14172.609   -22023.265   -19804.665   -689.89904   -1749.7157    228.43531    6961.7599    83.284444 
   67100    684.87971    -100.7523   0.61969356   -100.13261    12000.269    4.3521194    4.3521194    4.3521194    12000.269    13316.857    29354.392   -6670.4414   -3606.0003   -442.94266   -4271.7144    82.433248 
   67200    608.24624   -100.68737   0.55035398   -100.13702   -15313.733    4.3628528    4.3628528    4.3628528   -15313.733   -16148.465    3568.1985   -33360.931    553.22072   -1799.5828    2537.9369    83.044656 
   67300    931.25545   -100.97415    0.8426195   -100.13153    12419.246    4.3572468    4.3572468    4.3572468    12419.246   -1996.0169    23911.783    15341.973   -1386.7538    3033.9885    5667.7524    82.724942 
   67400    554.21753   -100.63736   0.50146767   -100.13589   -1507.5233    4.3567298    4.3567298    4.3567298   -1507.5233    6743.9443     13405.73   -24672.244   -3020.2519   -3333.4273    -9615.101    82.695499 
   67500    631.13034   -100.70853      0.57106   -100.13747   -1614.1525    4.3635519    4.3635519    4.3635519   -1614.1525   -19468.496    13115.537    1510.5019    122.12766    2588.0629    5528.8323    83.084582 
   67600    886.30504   -100.94032   0.80194743   -100.13837    13482.777    4.3509066    4.3509066    4.3509066    13482.777    16743.945    12543.196    11161.188   -3715.1946   -2480.8923   -13358.696    82.364353 
   67700    520.71241   -100.61515   0.47115153     -100.144   -11823.073    4.3659496    4.3659496    4.3659496   -11823.073   -19014.432   -13604.034   -2850.7531   -521.19174   -1096.4223    7107.5703    83.221619 
   67800    714.38304   -100.78278   0.64638879   -100.13639    13477.622    4.3528195    4.3528195    4.3528195    13477.622    11563.495    12313.174    16556.198    1351.3955   -1066.6814   -4428.0159    82.473036 
   67900    782.86945   -100.84807   0.70835673   -100.13971   -3441.0404    4.3606278    4.3606278    4.3606278   -3441.0404   -63.840322   -3427.0076   -6832.2732   -3869.1458   -1455.4347   -6114.8013    82.917663 
   68000    676.45493    -100.7461   0.61207063   -100.13402   -3199.1856    4.3626379    4.3626379    4.3626379   -3199.1856   -8126.1888   -10307.962    8836.5938    3758.0037   -4475.2246    4919.5681    83.032385 
   68100     595.5069   -100.67584   0.53882716   -100.13702    5458.9089    4.3494138    4.3494138    4.3494138    5458.9089    16421.333    27678.252   -27722.859   -5674.5107    1415.5892   -8838.6968      82.2796 
   68200    900.80306   -100.95553   0.81506554   -100.14047   -9807.9144    4.3672367    4.3672367    4.3672367   -9807.9144   -14477.629   -11843.952   -3102.1626   -104.64193   -6451.9781    1414.0363    83.295241 
   68300    653.35233   -100.72761   0.59116692   -100.13644    150.06031     4.355062     4.355062     4.355062    150.06031    7064.6168    10628.677   -17243.113    -3767.864   -1901.6862   -4884.2007    82.600567 
   68400    545.13651   -100.63168   0.49325097   -100.13843    2374.9898    4.3536169    4.3536169    4.3536169    2374.9898    20810.036    9034.7254   -22719.792   -4632.9985   -2397.5786   -376.93585    82.518367 
   68500    1031.7991    -101.0652    0.9335935   -100.13161   -2382.2385    4.3663787    4.3663787    4.3663787   -2382.2385   -8700.5365   -7496.8902    9050.7111   -2222.1305   -6456.7399    23.177201    83.246161 
   68600    424.18969   -100.51974   0.38381574   -100.13593    7614.6554    4.3540264    4.3540264    4.3540264    7614.6554    35316.731    9894.5173   -22367.282   -5591.6633    2493.9814    1774.6892    82.541654 
   68700    744.10935   -100.81278   0.67328578   -100.13949    3653.9224    4.3581036    4.3581036    4.3581036    3653.9224    565.71604   -1834.5975    12230.649   -2374.7859   -6302.7718    2367.3529    82.773753 
   68800    811.64862   -100.87596   0.73439673   -100.14157     10042.07    4.3590366    4.3590366    4.3590366     10042.07    29481.689    4111.1945   -3466.6733   -2256.0368    3040.6308   -296.27488    82.826929 
   68900     541.0261   -100.63048   0.48953178   -100.14095   -5048.3005    4.3600307    4.3600307    4.3600307   -5048.3005   -15112.442   -9338.0707    9305.6115    -3097.533   -1521.8035    3864.1277    82.883609 
   69000    743.65556   -100.80744   0.67287518   -100.13456    14996.429    4.3518289    4.3518289    4.3518289    14996.429    32652.763    10882.475    1454.0479    970.75657   -3724.3318    472.01439    82.416743 
   69100    730.85096   -100.80391   0.66128931   -100.14262   -9437.8381    4.3610375    4.3610375    4.3610375   -9437.8381   -15911.531   -8166.4237   -4235.5591   -4602.8021    706.69066    3594.1243    82.941038 
   69200    643.88846   -100.72073   0.58260381   -100.13813    130.18317    4.3604609    4.3604609    4.3604609    130.18317    10375.787   -13550.772    3565.5342    3666.5629   -6029.5047    4555.9708    82.908146 
   69300    659.49105   -100.73711   0.59672136   -100.14039    -5699.396    4.3543488    4.3543488    4.3543488    -5699.396    10181.037     5856.878   -33136.103   -2984.4165    957.73714      3210.43    82.559992 
   69400    790.39235   -100.85425   0.71516361   -100.13909   -5252.8052    4.3617999    4.3617999    4.3617999   -5252.8052   -10707.439   -9845.5527    4794.5755    3370.8169   -1311.3043    5855.4867    82.984542 
   69500    694.38943   -100.76141   0.62829815   -100.13311   -4646.8176    4.3590565    4.3590565    4.3590565   -4646.8176    13688.293   -11508.481   -16120.264    594.85728   -3251.4326    4356.9524    82.828063 
   69600    616.12351   -100.69401    0.5574815   -100.13653   -8913.3551     4.357977     4.357977     4.357977   -8913.3551   -4689.0802    10473.128   -32524.113   -1694.8855    2434.5736    6575.0059    82.766541 
   69700    908.78031    -100.9556   0.82228352   -100.13332    10004.049    4.3567727    4.3567727    4.3567727    10004.049    11547.576   -2747.3242    21211.896    356.07909   -5928.2418    2135.4734    82.697942 
   69800    491.21876   -100.58398   0.44446506   -100.13952   -9322.4421     4.363134     4.363134     4.363134   -9322.4421   -3391.7561    3624.0662   -28199.637   -5829.6109   -706.75493    7209.0058    83.060713 
   69900    750.15758    -100.8144   0.67875834   -100.13565    13764.788     4.354837     4.354837     4.354837    13764.788    16842.429    15047.892    9404.0423   -122.14319   -205.17171    2497.0133    82.587767 
   70000       757.84   -100.82319   0.68570956   -100.13749    4405.7818    4.3592595    4.3592595    4.3592595    4405.7818    969.56026    1900.8893    10346.896   -7199.8903   -5247.9615    4035.9754    82.839633 
   70100    557.93595   -100.64142   0.50483217   -100.13659   -2447.8946    4.3623681    4.3623681    4.3623681   -2447.8946   -6118.2923   -1913.6188    688.22739   -2966.3143    2432.3954    3808.4357     83.01698 
   70200    886.97605   -100.93548   0.80255457   -100.13292    7354.7848    4.3533644    4.3533644    4.3533644    7354.7848     714.1092    16764.014    4586.2308   -3487.1917   -4932.2106    -368.1829    82.504014 
   70300    557.11747   -100.64672    0.5040916   -100.14263   -7243.8751    4.3604705    4.3604705    4.3604705   -7243.8751    -14190.63    -14479.68    6938.6851   -6320.5989    3932.0587    5154.0887    82.908689 
   70400    859.20087   -100.91339     0.777423   -100.13597   -5213.2616    4.3578013    4.3578013    4.3578013   -5213.2616   -5635.9979   -3816.4005   -6187.3865   -2423.5662    171.78104   -264.25712    82.756532 
   70500    511.72608    -100.6026   0.46302051   -100.13958   -10411.987    4.3617104    4.3617104    4.3617104   -10411.987   -5806.6875   -5521.2025   -19908.071   -9158.4668    1168.0223     4937.887    82.979434 
   70600    834.95206   -100.88973   0.75548217   -100.13425    -4264.186    4.3507742    4.3507742    4.3507742    -4264.186   -4976.6334   -15006.956    7191.0311   -4769.6183     3993.995   -3457.7385    82.356833 
   70700     600.2879    -100.6834    0.5431531   -100.14025   -6784.1492    4.3626088    4.3626088    4.3626088   -6784.1492    9498.1056   -8015.9269   -21834.626   -5275.1476   -324.35752    1775.4156    83.030719 
   70800    650.82381   -100.72859   0.58887906   -100.13971   -12254.575    4.3625082    4.3625082    4.3625082   -12254.575   -10470.069   -2598.8567   -23694.799   -11042.137    5293.9014   -3495.8374    83.024979 
   70900    778.99597   -100.83895   0.70485192    -100.1341    10242.108     4.352161     4.352161     4.352161    10242.108    24759.375   -9517.6402    15484.589    5453.5853    435.74861    3557.1056    82.435613 
   71000    605.68035   -100.68703   0.54803231     -100.139   -16606.971    4.3635343    4.3635343    4.3635343   -16606.971   -19557.513   -8581.9182   -21681.483   -12805.673    5792.6381    722.42311    83.083579 
   71100    769.20447   -100.82893   0.69599237   -100.13294    8626.5252    4.3567322    4.3567322    4.3567322    8626.5252    14271.889    2695.0046    8912.6818     6882.222    839.62685   -841.01733    82.695636 
   71200    715.67405   -100.78164   0.64755692   -100.13409   -11819.099    4.3614509    4.3614509    4.3614509   -11819.099   -14327.737   -20157.179   -972.38155   -4994.2566    4487.2653    8386.5957    82.964626 
   71300    643.24312   -100.71659   0.58201989   -100.13457     7938.767    4.3547138    4.3547138    4.3547138     7938.767    -4977.973    15516.138    13278.136   -4478.6519    3386.0156   -5498.7444    82.580753 
   71400    817.17424   -100.87384   0.73939643   -100.13444   -11203.169    4.3631772    4.3631772    4.3631772   -11203.169   -3676.0941   -7500.9671   -22432.446    6321.9318    826.55966     5757.359    83.063182 
   71500    502.16335   -100.59255   0.45436795   -100.13818    2946.3667    4.3565719    4.3565719    4.3565719    2946.3667   -21444.822    12008.613    18275.309   -13450.399     5931.163    1905.2715     82.68651 
   71600    928.33448   -100.97372   0.83997654   -100.13375   -3303.6408    4.3549114    4.3549114    4.3549114   -3303.6408    676.96792    6972.9832   -17560.873    9902.2225   -85.087306    56.708423    82.591996 
   71700    395.94649   -100.49807   0.35826071   -100.13981    -9994.055    4.3668761    4.3668761    4.3668761    -9994.055   -16245.863    2806.3654   -16542.668   -12008.411    1090.9619    4269.4151    83.274613 
   71800    946.73573   -100.99176   0.85662638   -100.13513    611.78162    4.3497366    4.3497366    4.3497366    611.78162   -2545.3876   -4271.0611    8651.7936    3627.8716    1699.6298   -1549.0872    82.297926 
   71900    649.20064   -100.72749   0.58741038   -100.14008   -12287.154    4.3651705    4.3651705    4.3651705   -12287.154   -3197.6257   -9820.9599   -23842.878   -4470.3061   -209.01189    6017.2695    83.177071 
   72000    642.06436   -100.71794   0.58095333   -100.13699   -3215.9733    4.3559302    4.3559302    4.3559302   -3215.9733   -9756.4387   -8741.7985    8850.3173   -4508.6115     2390.809   -1082.1512    82.649977 
   72100    812.80601   -100.86931   0.73544396   -100.13387    344.69486     4.358662     4.358662     4.358662    344.69486    3262.9969   -12101.407    9872.4946    123.72027   -3847.6585   -1838.8256    82.805574 
   72200    638.61484   -100.71442   0.57783212   -100.13659   -6912.7275    4.3611045    4.3611045    4.3611045   -6912.7275   -12349.189   -12454.981    4065.9874   -9192.3032    2176.0415   -512.98306    82.944862 
   72300    651.89381   -100.72381   0.58984722   -100.13397    11776.618    4.3523355    4.3523355    4.3523355    11776.618    12187.863    18084.599    5057.3934   -921.60799   -4135.9458   -5651.6826    82.445526 
   72400    671.44587    -100.7477   0.60753834   -100.14016   -11091.353    4.3671368    4.3671368    4.3671368   -11091.353   -24621.404   -23723.392    15070.736   -9333.4367    1767.3839    6754.8882    83.289526 
   72500    739.54664   -100.80743   0.66915735   -100.13827    7460.4055    4.3512136    4.3512136    4.3512136    7460.4055    3579.9444    24967.865   -6166.5932   -1369.0673    -562.1213   -6130.8888    82.381788 
   72600    610.88491   -100.69222    0.5527415   -100.13947   -13079.669    4.3624837    4.3624837    4.3624837   -13079.669   -18846.723   -7913.5165   -12478.767   -8802.1132   -1327.6764      4508.76    83.023576 
   72700    642.59205   -100.71839   0.58143079   -100.13696    1598.9843    4.3604922    4.3604922    4.3604922    1598.9843    -15872.81    11073.919    9595.8442   -3718.4438    4190.2237   -4663.2344    82.909932 
   72800    942.63967   -100.98391   0.85292018   -100.13099   -4453.2166    4.3530675    4.3530675    4.3530675   -4453.2166   -4314.7493    4680.2219   -13725.122   -4587.2418   -2553.8307     3396.833    82.487129 
   72900    396.31624   -100.49799   0.35859526   -100.13939   -5830.0526    4.3611938    4.3611938    4.3611938   -5830.0526   -25995.817    13573.959   -5068.2996   -4652.4808    4947.4653    -3775.594    82.949955 
   73000    916.70204   -100.96557   0.82945127   -100.13612    1007.7752    4.3558845    4.3558845    4.3558845    1007.7752   -10804.753   -716.79855    14544.877   -168.65615   -676.16169    -4004.234    82.647375 
   73100    766.98472   -100.83141   0.69398389   -100.13742   -7262.5616    4.3625444    4.3625444    4.3625444   -7262.5616   -18288.782     7551.381   -11050.284   -6420.7847    1468.9573    5686.9946    83.027047 
   73200    440.01468   -100.53527   0.39813453   -100.13713    6872.5904    4.3546041    4.3546041    4.3546041    6872.5904    -15720.07    1094.2858    35243.555   -3285.0372    4052.7112    -6613.999    82.574518 
   73300    862.52973   -100.91887   0.78043502   -100.13844   -483.37317    4.3610121    4.3610121    4.3610121   -483.37317   -3051.3364   -3457.2706    5058.4875    -1002.382   -1143.8139    7946.9732    82.939591 
   73400    724.99594   -100.79342   0.65599157   -100.13743   -3198.6364     4.360743     4.360743     4.360743   -3198.6364   -20610.229   -9457.9183    20472.238   -5147.4508    9024.0109    560.34579    82.924236 
   73500    467.50296   -100.55883    0.4230065   -100.13583    3048.3978    4.3527263    4.3527263    4.3527263    3048.3978    7051.1179    9645.8873   -7551.8117     -818.296    -2245.331   -839.50872    82.467739 
   73600    901.51513   -100.95458   0.81570984   -100.13887   -5789.8168    4.3607565    4.3607565    4.3607565   -5789.8168    -9139.705   -13236.492    5006.7462   -1490.2367    6573.9691    3002.7774    82.925005 
   73700    690.05637   -100.76137    0.6243775     -100.137    565.58267    4.3617732    4.3617732    4.3617732    565.58267   -6688.1273    21232.015    -12847.14    180.60105     5333.436   -7230.9744     82.98302 
   73800    555.95234   -100.63862   0.50303736   -100.13558   -1353.1088    4.3572536    4.3572536    4.3572536   -1353.1088    2686.9666    5965.2539   -12711.547    3129.2032   -276.51344    4296.8834    82.725333 
   73900    734.39526   -100.80258   0.66449626   -100.13808    10442.609     4.358191     4.358191     4.358191    10442.609   -10839.681     30757.02    11410.487   -2142.7382    8197.4524   -5204.4184    82.778732 
   74000    834.28865   -100.89058    0.7548819    -100.1357   -4737.3883    4.3654779    4.3654779    4.3654779   -4737.3883   -4000.1002   -4343.2068   -5868.8578    6323.3957   -2103.3637   -3286.4928    83.194648 
   74100    369.15071   -100.46953   0.33401532   -100.13551     13522.83    4.3530147    4.3530147    4.3530147     13522.83   -7779.1294    34717.684    13629.934    464.12563    6655.6214    4439.8029    82.484128 
   74200    941.93215   -100.98752      0.85228   -100.13524   -3667.8742    4.3587735    4.3587735    4.3587735   -3667.8742   -5078.5391   -19427.412    13502.328    4804.5502    2344.7126   -7758.3453    82.811933 
   74300    741.17587   -100.80859   0.67063151   -100.13796    3916.4236    4.3596313    4.3596313    4.3596313    3916.4236   -8473.5079    15915.202    4307.5763   -1293.0194    7567.6121    2902.5503    82.860831 
   74400    554.63689   -100.63778   0.50184711   -100.13593    -7468.914    4.3584993    4.3584993    4.3584993    -7468.914   -20175.366   -10665.832    8434.4558    4271.6898    3045.4459     -8683.92      82.7963 
   74500    802.26089    -100.8619   0.72590252     -100.136   -7029.1903    4.3606193    4.3606193    4.3606193   -7029.1903   -6056.2197   -7775.4031    -7255.948  -0.26050671    6221.8307    2391.1051     82.91718 
   74600    847.29382    -100.9022   0.76664925   -100.13556   -1247.3046    4.3551545    4.3551545    4.3551545   -1247.3046   -10719.437    2394.7338    4582.7896    4153.5476    7821.3084   -4351.1155    82.605832 
   74700    460.57862   -100.55239   0.41674122   -100.13565   -11505.155    4.3640373    4.3640373    4.3640373   -11505.155   -19927.675   -4157.6621   -10430.127    2997.6554   -2744.4564    2013.4775    83.112311 
   74800    785.79319   -100.84645   0.71100219   -100.13545    4237.6508    4.3525613    4.3525613    4.3525613    4237.6508    16207.103   -4099.8886    605.73758    1290.3586      12504.6    -3187.777    82.458359 
   74900    771.09962   -100.83446   0.69770714   -100.13675    8100.0668    4.3606418    4.3606418    4.3606418    8100.0668   -10926.958    19921.616    15305.542    5158.5022   -6842.9489   -2295.5809     82.91846 
   75000    604.02702   -100.68216   0.54653634   -100.13562   -6928.8979     4.361636     4.361636     4.361636   -6928.8979    10881.476   -8532.3514   -23135.818   -1464.1369    5969.2446    1660.9811    82.975187 
   75100     600.8476   -100.68018   0.54365954   -100.13652    24458.783    4.3517264    4.3517264    4.3517264    24458.783    13854.552    42227.552    17294.246    2440.3987    3629.0291   -8449.1514     82.41092 
   75200    1041.5254   -101.07731   0.94239403   -100.13491   -6320.3389    4.3648924    4.3648924    4.3648924   -6320.3389   -1048.8718   -8335.8762   -9576.2688   -181.74231     -4607.29    6346.3139    83.161174 
   75300    395.80921   -100.49406   0.35813649   -100.13592    14904.819    4.3553751    4.3553751    4.3553751    14904.819    12168.665    40741.077   -8195.2836   -2076.4224    9058.0792   -6456.2679    82.618381 
   75400    851.01268    -100.9054   0.77001415   -100.13538   -1128.4726    4.3568704    4.3568704    4.3568704   -1128.4726    532.59527   -7861.7836    3943.7706    2023.9932   -4292.6088    6933.6796    82.703504 
   75500    765.54056   -100.83163   0.69267719   -100.13895    485.85431    4.3629483    4.3629483    4.3629483    485.85431    3902.6664    10100.143   -12545.247   -1323.3117    4301.9612   -3417.5192    83.050108 
   75600    633.34392   -100.70815   0.57306289   -100.13509   -6530.7036    4.3570991    4.3570991    4.3570991   -6530.7036   -15147.777    2425.2279   -6869.5614   -4776.6092   -1761.3765   -670.70535    82.716532 
   75700     556.9475   -100.64014    0.5039378   -100.13621   -1569.1493     4.356943     4.356943     4.356943   -1569.1493     8891.133   -7577.3293   -6021.2516   -865.93742   -1338.8265     731.8273    82.707641 
   75800    916.17824    -100.9646   0.82897733   -100.13562   -6560.4614    4.3608893    4.3608893    4.3608893   -6560.4614   -712.62389   -9272.6353    -9696.125   -6118.0137    1676.5271   -7480.6016    82.932585 
   75900     548.5774   -100.63081   0.49636436   -100.13444    -4757.285    4.3586054    4.3586054    4.3586054    -4757.285   -7986.8167    4515.1708   -10800.209   -2526.9193   -1672.0546    4596.4312    82.802351 
   76000    640.82998   -100.71646   0.57983643   -100.13662   -4100.1955    4.3572822    4.3572822    4.3572822   -4100.1955    25415.148   -23148.826   -14566.908   -1490.6546    7247.5572   -5814.0268    82.726961 
   76100    990.79791   -101.03211   0.89649477   -100.13562   -286.05381    4.3600129    4.3600129    4.3600129   -286.05381   -10149.054    15302.096   -6011.2033   -5003.2243   -1748.7257    1644.9812    82.882594 
   76200    455.06528   -100.54894   0.41175263   -100.13719     1794.937    4.3585448    4.3585448    4.3585448     1794.937    26781.176    -1864.957   -19531.408    592.64737     3882.798   -952.04099    82.798897 
   76300    737.66988    -100.8036   0.66745921   -100.13614     3117.699     4.357844     4.357844     4.357844     3117.699   -2518.3698    18610.195   -6738.7282   -2705.3452    2790.6393   -4631.1982    82.758962 
   76400    853.38405   -100.90952   0.77215982   -100.13736    4679.5582    4.3584519    4.3584519    4.3584519    4679.5582    19810.896    5741.4312   -11513.653   -737.86564   -250.06168   -2286.9998    82.793601 
   76500    502.03443   -100.59362    0.4542513   -100.13937   -1584.4782    4.3589795    4.3589795    4.3589795   -1584.4782   -10464.853    15054.014   -9342.5962   -580.19473    850.84709   -7531.7692    82.823674 
   76600    750.50738   -100.81476   0.67907485   -100.13568    1177.9183    4.3561623    4.3561623    4.3561623    1177.9183   -1515.2062    7206.5996   -2157.6385    3790.0344    1376.4559   -2908.1923    82.663188 
   76700    737.46422   -100.80623   0.66727313   -100.13896   -5366.7846    4.3624479    4.3624479    4.3624479   -5366.7846    -181.0232   -9481.7391   -6437.5915   -2398.4006    2042.2628   -6249.1521    83.021536 
   76800    669.50771    -100.7396   0.60578465   -100.13381   -5909.9508    4.3566471    4.3566471    4.3566471   -5909.9508   -22728.085     9945.784   -4947.5517     8526.495    937.21535   -1445.2663    82.690792 
   76900    530.84972   -100.61848   0.48032398   -100.13815   -7320.9005    4.3577642    4.3577642    4.3577642   -7320.9005    9743.4685   -16946.296   -14759.874    -839.4538    7395.9231    187.16174    82.754418 
   77000    961.78961   -101.00725   0.87024745     -100.137   -10243.989    4.3600031    4.3600031    4.3600031   -10243.989    -6369.676   -14762.993   -9599.2986    4578.9669   -4223.1177   -5981.8647    82.882034 
   77100    565.48372   -100.65099   0.51166156   -100.13933   -2827.5627    4.3543377    4.3543377    4.3543377   -2827.5627   -65.642219    5530.2076   -13947.253    7091.1852    6478.3979    3744.4658    82.559361 
   77200    610.99551   -100.69362   0.55284158   -100.14078   -7372.4406    4.3595173    4.3595173    4.3595173   -7372.4406    16484.981   -27133.617   -11468.686   -605.48028   -3512.8223   -11387.896     82.85433 
   77300    956.32134   -101.00209   0.86529965   -100.13679   -454.69469    4.3608265    4.3608265    4.3608265   -454.69469   -9975.3963    8291.0089     320.3034    8390.1877    3016.2345    5364.2521    82.928997 
   77400    496.04548   -100.58586   0.44883238   -100.13703     1852.365    4.3572335    4.3572335    4.3572335     1852.365     13201.35   -2305.6492   -5338.6057    2400.6603    2017.7651   -6523.5255    82.724188 
   77500    677.97669   -100.74863   0.61344755   -100.13518    4532.2004    4.3569077    4.3569077    4.3569077    4532.2004   -6123.9737    11470.561    8250.0137    1163.5097   -4446.9262    -4103.269    82.705631 
   77600    812.19366   -100.87203   0.73488989   -100.13714    3431.7272    4.3589631    4.3589631    4.3589631    3431.7272    4827.5719    9199.7282   -3732.1186     4047.795    9470.9967    6605.8121    82.822735 
   77700    625.70395   -100.70176   0.56615008   -100.13561     -233.019    4.3594891    4.3594891    4.3594891     -233.019   -17919.366    15041.476    2178.8333   -608.21323   -3103.9251   -9711.3013    82.852722 
   77800     665.0992   -100.73776   0.60179573   -100.13596   -5348.7327     4.356716     4.356716     4.356716   -5348.7327     -6773.16    5665.1722    -14938.21   -291.47654    5932.0604    7795.7269    82.694716 
   77900    830.12282   -100.89057   0.75111257   -100.13946   -4608.5316    4.3577816    4.3577816    4.3577816   -4608.5316   -917.09082   -5341.5309    -7566.973    2813.9597    192.93783   -8250.4888    82.755408 
   78000    656.34604   -100.73117   0.59387569   -100.13729   -8185.6959    4.3588703    4.3588703    4.3588703   -8185.6959   -28468.738    5377.1627   -1465.5124   -6061.2992     1302.076    1274.4859    82.817447 
   78100    571.64508   -100.65518   0.51723648   -100.13794   -15213.853    4.3597783    4.3597783    4.3597783   -15213.853   -6638.4444   -18841.637   -20161.476    5411.9445    4633.0028    1553.1643    82.869214 
   78200    825.08695   -100.88179   0.74655602   -100.13523     5715.065    4.3550096    4.3550096    4.3550096     5715.065    775.00094   -4375.9997    20746.194   -7137.3888   -841.88981   -6002.5104    82.597584 
   78300    636.27025   -100.71292    0.5757107   -100.13721    -17309.95    4.3637403    4.3637403    4.3637403    -17309.95   -33320.358   -3854.8048   -14754.687   -201.89128    5736.0868    4353.6291    83.095344 
   78400    591.78476   -100.67091   0.53545928   -100.13545    7988.4674    4.3514788    4.3514788    4.3514788    7988.4674    20485.461   -10834.248    14314.189   -2737.9518   -988.44249   -2829.8011    82.396849 
   78500    854.79659    -100.9108   0.77343791   -100.13736   -2400.8547    4.3595078    4.3595078    4.3595078   -2400.8547   -13502.814    13221.395   -6921.1451   -4694.4159     3584.908   -1247.3586    82.853787 
   78600    670.63117   -100.74271   0.60680117   -100.13591   -3009.0205     4.361105     4.361105     4.361105   -3009.0205   -5119.5055   -5143.7111    1236.1552   -783.28688    3539.3623    3937.8791    82.944891 
   78700    620.20662    -100.6947   0.56117598   -100.13353    11441.338    4.3527598    4.3527598    4.3527598    11441.338    8707.9636    22131.252    3484.7977   -6568.8881    3659.9299   -1442.6649    82.469639 
   78800    758.60729   -100.82297   0.68640381   -100.13657   -6774.4523    4.3636286    4.3636286    4.3636286   -6774.4523   -8189.1068   -689.72189   -11444.528    763.61519     3385.083    4562.4814    83.088961 
   78900    744.20022   -100.80737     0.673368     -100.134    10864.175    4.3537225    4.3537225    4.3537225    10864.175   -3243.1525     14044.56    21791.116    -9184.984    2710.0665    2094.9343    82.524374 
   79000    551.31776   -100.63499   0.49884389   -100.13615   -10653.212      4.36188      4.36188      4.36188   -10653.212   -10309.105    6975.9255   -28626.455   -90.717277    3329.3327    5758.7674    82.989118 
   79100    829.04223    -100.8853   0.75013483   -100.13517   -3489.3655    4.3552467    4.3552467    4.3552467   -3489.3655    1230.7163   -7715.2222   -3983.5905   -7506.2048   -405.42853     3363.771    82.611075 
   79200    772.78089   -100.83508   0.69922839   -100.13585   -27.730149    4.3535909    4.3535909    4.3535909   -27.730149   -21595.685    19664.738    1847.7571   -1863.3608    5982.3466    808.81992    82.516888 
   79300    539.47647    -100.6257   0.48812965   -100.13757   -20156.697    4.3668814    4.3668814    4.3668814   -20156.697    -11785.76   -20836.934   -27847.398   -5279.6523    1297.5163    5228.9251    83.274915 
   79400     775.5461   -100.83528   0.70173041   -100.13355    13317.199    4.3493142    4.3493142    4.3493142    13317.199   -4959.0715    7931.4286    36979.241   -4450.3334    924.21445   -1883.3853    82.273952 
   79500    722.19485   -100.79002   0.65345707   -100.13656   -14686.932    4.3644419    4.3644419    4.3644419   -14686.932   -35221.053   -9076.7317    236.98894   -1947.9969     7866.786    10367.936    83.135428 
   79600    536.14508   -100.61935   0.48511534   -100.13424    2938.5988    4.3543895    4.3543895    4.3543895    2938.5988   -1461.6411   -10860.001    21137.439    -7764.483   -1606.2779   -7573.4237    82.562309 
   79700    758.14578   -100.82227   0.68598623   -100.13629    22.873348    4.3538765    4.3538765    4.3538765    22.873348   -9732.6108    20257.935   -10456.704    1702.0754    7441.7532    12861.499     82.53313 
   79800    817.78332   -100.87825   0.73994754    -100.1383   -12217.453    4.3628007    4.3628007    4.3628007   -12217.453   -31755.116   -11763.021    6865.7776    -9798.571    683.85117    -10775.38    83.041682 
   79900    566.29648      -100.65   0.51239696    -100.1376    3260.2312    4.3564488    4.3564488    4.3564488    3260.2312    5141.3639    28419.685   -23780.356    421.69442    2006.1816    4525.1354      82.6795 
   80000    768.07336   -100.83311   0.69496892   -100.13814   -6906.5249    4.3576647    4.3576647    4.3576647   -6906.5249   -15092.053   -1320.5562   -4306.9657   -5579.4165    2870.0733   -116.41167    82.748748 
   80100    705.75789   -100.77867   0.63858457   -100.14008    9783.8248    4.3555667    4.3555667    4.3555667    9783.8248   -14130.309    32875.712    10606.071   -6347.2544    3401.0025   -8024.9653    82.629287 
   80200     603.3082   -100.68488   0.54588593     -100.139   -10203.295     4.363307     4.363307     4.363307   -10203.295    6145.6741   -13923.561   -22831.999    1034.3959   -959.13964    5065.3371    83.070594 
   80300    655.44123   -100.73354     0.593057   -100.14049    6841.5987    4.3527143    4.3527143    4.3527143    6841.5987    -12698.81    22200.453    11023.153   -10360.663    6988.4925   -113.86738    82.467057 
   80400    882.64978   -100.93969   0.79864007   -100.14105   -1630.5577    4.3563562    4.3563562    4.3563562   -1630.5577    948.72686   -4338.7311   -1501.6689    641.57595    2217.6432    5556.3429     82.67423 
   80500    514.28691   -100.60621    0.4653376   -100.14087    3366.4113    4.3570279    4.3570279    4.3570279    3366.4113    -86.00844    10389.692   -204.44982   -9472.8806    1726.1482   -3101.8943    82.712479 
   80600    759.82678   -100.82446   0.68750724   -100.13695    556.60195    4.3590927    4.3590927    4.3590927    556.60195   -7798.2828    4729.2305    4738.8582    1013.0832    7762.6864    2303.7717    82.830125 
   80700    801.74172   -100.85943   0.72543275     -100.134    15006.636     4.350264     4.350264     4.350264    15006.636   -936.65775    22286.781    23669.786   -5923.1271   -1542.1708   -618.39657    82.327862 
   80800     509.8137   -100.60328   0.46129015   -100.14199    1643.1493    4.3610086    4.3610086    4.3610086    1643.1493   -10427.132    3872.1648    11484.415   -4437.5016    3833.2745   -4489.5837    82.939388 
   80900    749.80577   -100.81512   0.67844002   -100.13668    548.37495    4.3610449    4.3610449    4.3610449    548.37495   -9072.9581    19463.248   -8745.1649    2569.7449    2984.8847    1812.6971    82.941459 
   81000    736.98917   -100.80355   0.66684329    -100.1367    11469.633    4.3480905    4.3480905    4.3480905    11469.633   -9929.9361    13296.829    31042.006   -10485.588   -2371.1792   -1601.4528    82.204527 
   81100    684.56858   -100.75318   0.61941204   -100.13377   -10736.152    4.3643457    4.3643457    4.3643457   -10736.152   -11608.723     15024.02   -35623.752    9514.8892    2874.0519    -4043.602    83.129931 
   81200     695.2904   -100.76236   0.62911337   -100.13325   -3756.7845     4.352314     4.352314     4.352314   -3756.7845   -7272.8706    4116.1974   -8113.6802   -12040.239    1403.5815    3023.3644    82.444304 
   81300    802.94273   -100.86379   0.72651945   -100.13727    638.41654    4.3544927    4.3544927    4.3544927    638.41654   -19267.882    14175.235    7007.8966    6553.4877     639.9726   -10989.795    82.568178 
   81400    724.40047   -100.79193   0.65545277   -100.13647   -13527.318    4.3623582    4.3623582    4.3623582   -13527.318   -12373.279   -4660.5906   -23548.086   -2651.4766    1932.4544    6084.6102    83.016414 
   81500    544.59174   -100.63211   0.49275805   -100.13935    81.013562    4.3554781    4.3554781    4.3554781    81.013562   -11899.457   -6444.4487    18586.946   -5069.5796    1337.6688   -8975.9527    82.624242 
   81600    902.82819   -100.95509   0.81689792   -100.13819    444.36042     4.356621     4.356621     4.356621    444.36042   -20118.001    7802.3583    13648.724    10147.286    2562.6503   -492.45286    82.689305 
   81700    612.57528   -100.69565   0.55427099   -100.14138    1920.7908    4.3557502    4.3557502    4.3557502    1920.7908   -2624.0969    -12805.77    21192.239   -12528.792   -3781.2918    2562.1304     82.63973 
   81800    612.58457   -100.69364   0.55427939   -100.13936   -7366.1419    4.3623197    4.3623197    4.3623197   -7366.1419   -20317.432   -57.418625   -1723.5749    11378.686    4320.4743   -4459.0854    83.014216 
   81900    921.50903    -100.9697   0.83380073    -100.1359    12865.653    4.3480324    4.3480324    4.3480324    12865.653   -244.92842    11243.967    27597.922   -7361.4506   -2480.7341    4133.5521    82.201231 
   82000    571.06974   -100.65862    0.5167159    -100.1419   -8516.1265    4.3625387    4.3625387    4.3625387   -8516.1265    -11269.36   -8853.7676   -5425.2518    1881.3926    189.32669    -1029.651    83.026718 
   82100    707.54478    -100.7777   0.64020139    -100.1375   -4756.6596    4.3568463    4.3568463    4.3568463   -4756.6596   -3736.5859    4785.5257   -15318.919    5104.9896    1307.2047    547.17594    82.702132 
   82200    707.62925    -100.7826   0.64027781   -100.14233    9166.3913    4.3512596    4.3512596    4.3512596    9166.3913   -5799.8016    11262.587    22036.388    -6949.846    1349.6404    1373.6205    82.384399 
   82300    707.09454   -100.77804     0.639794   -100.13825   -20263.019    4.3664253    4.3664253    4.3664253   -20263.019   -12587.144   -26205.433   -21996.479    13353.272     -921.101   -3791.1869    83.248821 
   82400    528.11737   -100.61308    0.4778517   -100.13522    967.25885     4.352929     4.352929     4.352929    967.25885    3149.2778    7420.4515   -7667.9527   -12223.741    3542.1943    2644.6674    82.479261 
   82500    828.53573   -100.88804   0.74967654   -100.13836    -5442.567    4.3538805    4.3538805    4.3538805    -5442.567    -14850.21   -9057.8363    7580.3455    11009.266   -1347.2827   -4839.3195    82.533357 
   82600    733.30266   -100.79953   0.66350766   -100.13602   -18203.325    4.3666496    4.3666496    4.3666496   -18203.325   -10483.625   -20516.635   -23609.715   -6333.8192   -1484.9593   -1852.7137    83.261656 
   82700     533.5845    -100.6181   0.48279847    -100.1353    5206.7568    4.3509939    4.3509939    4.3509939    5206.7568    981.67676     469.4451    14169.149    3202.9037    2175.4774   -384.49855    82.369309 
   82800    870.36509   -100.92305   0.78752462   -100.13553   -5447.8827    4.3584654    4.3584654    4.3584654   -5447.8827   -21341.778    -341.1653    5339.2955    1470.7005   -5712.7873   -5185.8415    82.794369 
   82900     761.1818   -100.82477   0.68873329   -100.13603   -1277.7786    4.3613569    4.3613569    4.3613569   -1277.7786   -7933.8633   -7120.5215    11221.049   -3384.0526    671.94852    3422.8479    82.959262 
   83000    365.89178   -100.47043   0.33106657   -100.13936    11919.421    4.3510469    4.3510469    4.3510469    11919.421    4843.5451     15776.86    15137.859    6238.7387     -601.912   -4965.1692    82.372317 
   83100    1000.6597    -101.0439   0.90541795   -100.13848   -8135.4131    4.3618771    4.3618771    4.3618771   -8135.4131   -26043.076     1058.307    578.53003   -7140.0957   -979.82541    1299.1517    82.988949 
   83200    532.73323   -100.62179   0.48202822   -100.13977    7909.6497      4.35784      4.35784      4.35784    7909.6497    18686.985   -2267.4838    7309.4481     7417.256   -540.52759    4818.2154    82.758737 
   83300      700.748   -100.76908   0.63405151   -100.13503   -10027.907    4.3535432    4.3535432    4.3535432   -10027.907   -5620.7543   -491.89629   -23971.069   -8166.2769    3042.9394   -4215.5027    82.514179 
   83400    776.25906   -100.84108   0.70237551    -100.1387   -981.59354    4.3582471    4.3582471    4.3582471   -981.59354    8043.1692   -865.92882   -10122.021     4063.623    -4499.738    6731.3042    82.781932 
   83500    717.59024   -100.78801   0.64929073   -100.13872   -7420.9377    4.3599793    4.3599793    4.3599793   -7420.9377    5193.4879   -15365.338   -12090.963   -731.25026    2285.8698   -2758.0446    82.880677 
   83600    697.59628   -100.76554   0.63119977   -100.13434   -6405.2182    4.3559394    4.3559394    4.3559394   -6405.2182    8192.8297   -2938.6937   -24469.791   -2296.1703    424.85431    2296.5387      82.6505 
   83700    523.42242   -100.61537   0.47360361   -100.14177    11195.783    4.3536682    4.3536682    4.3536682    11195.783    9562.9345    16067.449    7956.9651    8074.3356   -3217.7705    4016.6909    82.521284 
   83800    1015.5063   -101.05836   0.91885146   -100.13951   -9908.7801    4.3652382    4.3652382    4.3652382   -9908.7801   -11165.745    -5364.997   -13195.598    -9234.797    2912.4786   -3015.7097    83.180944 
   83900      345.007   -100.45424   0.31216959   -100.14207    14647.955     4.350656     4.350656     4.350656    14647.955    23933.789     21635.67    -1625.595    12526.409     144.9782    3219.0265    82.350118 
   84000     796.0325   -100.85932   0.72026694   -100.13906   -968.93052    4.3541138    4.3541138    4.3541138   -968.93052   -19993.337    4589.8547     12496.69   -5423.4499    688.15752   -6000.1009    82.546628 
   84100    815.51202    -100.8756   0.73789241   -100.13771   -8037.5244     4.366431     4.366431     4.366431   -8037.5244    -9609.705    1701.8501   -16204.718    6358.1384      5172.12   -338.04035    83.249151 
   84200    605.53001   -100.68467   0.54789628   -100.13677    4532.8776    4.3451484    4.3451484    4.3451484    4532.8776    8007.5771   -2900.5625     8491.618    5147.4735     1194.332   -2862.0522    82.037767 
   84300    692.11006   -100.76644   0.62623573   -100.14021   -14796.428    4.3642663    4.3642663    4.3642663   -14796.428   -29995.944    7256.3589   -21649.699    1364.1378    3009.7316   -1398.1533    83.125396 
   84400    855.14525   -100.91124   0.77375339   -100.13749   -10711.358    4.3597857    4.3597857    4.3597857   -10711.358   -1174.2256   -21081.019   -9878.8299    7697.6086    3070.0887   -2192.1758    82.869634 
   84500    637.94466   -100.70877   0.57722573   -100.13154    5299.7675    4.3483683    4.3483683    4.3483683    5299.7675    11684.181    14555.157   -10340.036    2557.6341    458.12643   -673.67869    82.220282 
   84600    618.06223   -100.69651    0.5592357   -100.13727   -12509.997    4.3621619    4.3621619    4.3621619   -12509.997   -15828.569   -6343.9099   -15357.513    5584.7842    846.96121   -460.49441    83.005211 
   84700    710.45497   -100.77964   0.64283458   -100.13681    14097.286    4.3565872    4.3565872    4.3565872    14097.286    29945.615    3442.9468    8903.2969    1938.6283    2953.3778    -1173.094    82.687381 
   84800    817.74737   -100.87403   0.73991501   -100.13411   -4916.0262    4.3562653    4.3562653    4.3562653   -4916.0262     -1122.24    2553.2754   -16179.114    7478.8424   -2785.0885   -1022.8095     82.66905 
   84900    389.22591   -100.49114   0.35217978   -100.13897    18781.417    4.3535479    4.3535479    4.3535479    18781.417    35397.235    9424.2012    11522.816   -3188.9428     546.7181   -2626.7968    82.514446 
   85000    970.37185   -101.01434   0.87801284   -100.13632   -7779.1161    4.3636377    4.3636377    4.3636377   -7779.1161   -15809.385    1492.4687   -9020.4321     9958.184    3407.7384   -1371.9613     83.08948 
   85100    617.82504   -100.69697   0.55902108   -100.13794    7044.3153    4.3539777    4.3539777    4.3539777    7044.3153    35952.077    3900.0715   -18719.203   -5714.0561   -6532.2276   -2326.8043    82.538883 
   85200    678.20225   -100.74964   0.61365164   -100.13599    2128.6371    4.3524476    4.3524476    4.3524476    2128.6371   -10215.019    14953.199    1647.7321    2711.8931    6252.6569   -3942.5198      82.4519 
   85300    739.51021   -100.80833   0.66912438    -100.1392   -18831.974    4.3678443    4.3678443    4.3678443   -18831.974   -18379.653   -14485.403   -23630.868    479.70315   -5189.5219    1631.1918    83.330014 
   85400    842.55018   -100.89792   0.76235711   -100.13557    7679.7459    4.3467889    4.3467889    4.3467889    7679.7459    17140.803    15252.037   -9353.6016   -4013.5688   -231.31175    -5432.225    82.130723 
   85500    551.14944   -100.63609    0.4986916    -100.1374   -15383.798    4.3611339    4.3611339    4.3611339   -15383.798   -33015.656   -106.94787   -13028.789    2467.3701   -1121.8076    2973.4444     82.94654 
   85600    748.07682   -100.81235   0.67687563   -100.13547   -7903.1108    4.3585537    4.3585537    4.3585537   -7903.1108   -12693.564    4407.9867   -15423.755   -2144.3587   -3367.8703   -9257.1362    82.799403 
   85700    822.38061   -100.87712   0.74410725   -100.13301    6835.4767    4.3493438    4.3493438    4.3493438    6835.4767    17329.702    15436.803   -12260.075   -2717.6235    1690.9429    3635.2303    82.275629 
   85800    481.12039   -100.57326   0.43532784   -100.13793   -11474.606    4.3629887    4.3629887    4.3629887   -11474.606     -27788.9    6894.2173   -13529.134    4380.6764   -4553.7511   -9203.8004    83.052415 
   85900    797.72245   -100.85652   0.72179604   -100.13472    8951.3733    4.3534594    4.3534594    4.3534594    8951.3733    22322.853    7767.2393    -3235.972    -3047.045    2960.4552    -1118.406    82.509411 
   86000    704.38851   -100.77377   0.63734553   -100.13643   -3305.9953    4.3609121    4.3609121    4.3609121   -3305.9953   -584.66849    10484.437   -19817.755    1241.8067   -6743.8121   -1743.9886    82.933884 
   86100    627.64873   -100.70328   0.56790976   -100.13537    5864.2584    4.3529776    4.3529776    4.3529776    5864.2584     19558.94   -104.37999   -1861.7853    9171.8286    5745.4842   -7417.7878    82.482023 
   86200    646.18014   -100.72315   0.58467737   -100.13848    883.43129    4.3585836    4.3585836    4.3585836    883.43129   -3304.9427      16466.9   -10511.663   -7741.8113   -6370.5102    3773.1648    82.801107 
   86300    864.28001   -100.91973   0.78201872   -100.13771   -2176.0328    4.3557671    4.3557671    4.3557671   -2176.0328    20114.347   -10437.893   -16204.553    15069.643    1864.6704   -8638.3122    82.640693 
   86400    556.66952   -100.64084   0.50368628   -100.13716    7555.6946     4.352763     4.352763     4.352763    7555.6946   -338.87696    29805.499   -6799.5379   -6001.2306   -2667.8419    1296.3345    82.469822 
   86500    749.45105   -100.81515   0.67811906   -100.13703   -21629.406     4.363713     4.363713     4.363713   -21629.406   -30274.057   -14821.783   -19792.377    7393.4266   -4624.7612   -6852.5719    83.093786 
   86600    811.86663   -100.86952   0.73459399   -100.13492        14009    4.3482103    4.3482103    4.3482103        14009    21856.853    30150.248   -9980.1005    2110.9567     2409.832    -6328.352    82.211321 
   86700    629.32481   -100.70613   0.56942632    -100.1367   -20523.068    4.3616692    4.3616692    4.3616692   -20523.068   -45236.022   -2736.8192   -13596.363   -924.83688    -5808.895   -3069.5819    82.977086 
   86800    614.68892   -100.69324   0.55618346   -100.13706   -1694.7543    4.3563925    4.3563925    4.3563925   -1694.7543    -16277.23    20460.544   -9267.5772   -700.60462     3866.281   -10725.978    82.676293 
   86900    949.64236   -100.99529   0.85925636   -100.13604    1670.4136    4.3503859    4.3503859    4.3503859    1670.4136    4749.6304    6484.9757   -6223.3653   -5998.3606   -4981.2732     3215.206    82.334784 
   87000    385.13226   -100.48847   0.34847576      -100.14   -11092.213     4.361571     4.361571     4.361571   -11092.213   -40976.593    15673.032   -7973.0791   -2241.7909    2460.6999     -9482.43    82.971481 
   87100    789.22419   -100.85025   0.71410663   -100.13614    3618.8309    4.3553391    4.3553391    4.3553391    3618.8309   -53.969351     6625.862    4284.6001   -3854.3031   -2088.9264    518.15763    82.616332 
   87200    820.47798   -100.87908   0.74238572    -100.1367    6.5929539    4.3548786    4.3548786    4.3548786    6.5929539    3457.0036    6100.6672    -9537.892   -5181.9964    1477.6062   -5190.6698    82.590133 
   87300    486.16879   -100.57797   0.43989574   -100.13808    344.42676    4.3552352    4.3552352    4.3552352    344.42676   -10272.214    12560.524   -1255.0292   -2966.4314   -2889.2774   -10202.976    82.610422 
   87400    787.97445   -100.84844   0.71297584   -100.13547    4697.9493    4.3584322    4.3584322    4.3584322    4697.9493    6921.3399    7478.8275   -306.31965   -2361.7475    305.46429    3318.6757    82.792479 
   87500    857.86469   -100.91231     0.776214    -100.1361   -14.291435    4.3555504    4.3555504    4.3555504   -14.291435    8952.4995    10066.022   -19061.396   -5127.3031    738.22363   -16242.785     82.62836 
   87600    565.53891   -100.64655   0.51171149   -100.13484    9489.1028    4.3540435    4.3540435    4.3540435    9489.1028    5479.9415      16915.5    6071.8674    1220.9831   -2790.5453    3741.6476    82.542625 
   87700    650.11818   -100.72667   0.58824059   -100.13843   -2177.7027    4.3602569    4.3602569    4.3602569   -2177.7027   -13257.708    19278.357   -12553.757    -2549.673    5063.5335   -10552.282    82.896506 
   87800    986.54391   -101.03126   0.89264566   -100.13861    1774.0284    4.3526019    4.3526019    4.3526019    1774.0284    21806.934   -6274.3731   -10210.475    4892.1476   -2065.0019   -3162.6024    82.460669 
   87900    414.16779   -100.51513   0.37474772   -100.14038    8159.6783    4.3523742    4.3523742    4.3523742    8159.6783   -24353.712     37005.13    11827.616    461.66984    4155.4166   -2103.8318    82.447725 
   88000    705.88995   -100.78097   0.63870407   -100.14227   -19333.526    4.3637332    4.3637332    4.3637332   -19333.526   -18186.643   -24324.314   -15489.622    6470.2159   -991.11079   -12800.396     83.09494 
   88100    948.28741   -100.99292   0.85803038   -100.13489    15600.125    4.3466716    4.3466716    4.3466716    15600.125    9256.4007    27182.715    10361.259    1975.6051    2503.7522    3977.2147    82.124073 
   88200    351.61239    -100.4584   0.31814628   -100.14025   -21327.478    4.3593521    4.3593521    4.3593521   -21327.478   -42893.015    -10606.28   -10483.139    2388.6655    1879.5624   -16713.493     82.84491 
   88300    783.60716   -100.84617   0.70902423   -100.13715   -1677.3123    4.3559802    4.3559802    4.3559802   -1677.3123   -15001.079    14897.901   -4928.7591    3219.4729   -260.02559   -2241.8831    82.652825 
   88400    853.79093   -100.91171   0.77252798   -100.13918    1615.1248    4.3523111    4.3523111    4.3523111    1615.1248    7041.7639    2235.1443   -4431.5338   -4253.8706   -942.24759   -8619.1536    82.444139 
   88500    473.29718   -100.56931   0.42824924   -100.14106   -19131.032    4.3615469    4.3615469    4.3615469   -19131.032   -42349.657   -1359.7802    -13683.66    4761.2357    277.18819   -8285.1343    82.970105 
   88600    800.60724   -100.86045   0.72440625   -100.13604    19028.688    4.3501958    4.3501958    4.3501958    19028.688    30549.352    19567.604    6969.1091   -1814.5152    -218.6732     2409.616    82.323988 
   88700    828.97254   -100.88943   0.75007178   -100.13936   -18683.987     4.363959     4.363959     4.363959   -18683.987   -8620.3856   -19479.926   -27951.648    122.39057    282.41216    -14080.29    83.107841 
   88800    586.41961   -100.66474   0.53060479   -100.13414    20120.087    4.3493555    4.3493555    4.3493555    20120.087    20404.267     23119.41    16836.585    6174.7386   -179.30525    4732.6509    82.276297 
   88900    663.94324   -100.73877    0.6007498   -100.13802   -10173.859    4.3596306    4.3596306    4.3596306   -10173.859   -3882.4845   -11419.412   -15219.681   -7636.6431   -1500.7133   -15200.285    82.860792 
   89000    767.34287   -100.83032   0.69430795   -100.13601      2832.96    4.3576384    4.3576384    4.3576384      2832.96     13051.27    -7287.806     2735.416    8020.2399   -1086.1226   -1117.3537     82.74725 
   89100    688.36136   -100.75795   0.62284383   -100.13511   -647.11384    4.3514326    4.3514326    4.3514326   -647.11384   -1670.9268    487.04523   -757.45999   -1909.0614    -2104.908   -5301.8069    82.394225 
   89200    460.47776   -100.55593   0.41664995   -100.13928   -17658.261    4.3644798    4.3644798    4.3644798   -17658.261   -23754.065   -10690.934   -18529.785   -757.82352   -3292.9203   -12594.933    83.137597 
   89300    1063.0879   -101.09406   0.96190429   -100.13216    2887.2912    4.3486529    4.3486529    4.3486529    2887.2912    15592.267   -13761.278     6830.885    1863.8396   -3369.0146    4167.1767    82.236427 
   89400     420.9732   -100.52149    0.3809054   -100.14059   -17032.086    4.3635972    4.3635972    4.3635972   -17032.086   -33384.038   -1846.8353   -15865.386    1538.1195   -1185.5693   -10811.454    83.087169 
   89500    901.28366   -100.94857    0.8155004   -100.13307   -4437.3231    4.3517351    4.3517351    4.3517351   -4437.3231   -14526.671    680.63238    534.06915   -2565.4935   -8550.3218    2560.3877    82.411413 
   89600    564.48844   -100.64987     0.510761   -100.13911     6739.145    4.3536982    4.3536982    4.3536982     6739.145    15883.155   -465.75663    4800.0369    7593.2537     4149.375   -8565.4088     82.52299 
   89700    835.52862   -100.89283   0.75600385   -100.13683   -16533.674    4.3619652    4.3619652    4.3619652   -16533.674    -36541.97   -1141.8192   -11917.232   -3827.1704   -8063.4309   -1263.3199    82.993977 
   89800    568.06547   -100.65064   0.51399757   -100.13665    26730.478    4.3467142    4.3467142    4.3467142    26730.478    25553.877    20776.267    33861.289    239.72398    4118.7228   -4369.1642    82.126488 
   89900    634.06053   -100.71252   0.57371129   -100.13881   -22490.521    4.3662936    4.3662936    4.3662936   -22490.521   -13623.086   -35488.177   -18360.299    5866.2039   -4632.6491   -7159.0506     83.24129 
   90000    884.84397    -100.9332   0.80062542   -100.13258    12161.021    4.3493236    4.3493236    4.3493236    12161.021    7072.6161    7844.0895    21566.357   -7557.5492    21.861873    1075.5046    82.274483 
   90100    593.63226   -100.67678   0.53713095   -100.13965   -12840.677    4.3555651    4.3555651    4.3555651   -12840.677    853.22145   -21540.545   -17834.706    5490.3638   -2486.8591     -8548.26    82.629194 
   90200    654.09426   -100.72793   0.59183824   -100.13609   -11611.326    4.3578289    4.3578289    4.3578289   -11611.326    38.968439   -29407.231   -5465.7164   -1404.2476   -7075.5771   -103.75159      82.7581 
   90300    874.91779   -100.92937     0.791644   -100.13773     -2261.13    4.3521717    4.3521717    4.3521717     -2261.13    3265.1094   -8131.7763   -1916.7231   -1638.2347    4205.0802    -4068.427     82.43622 
   90400    590.87813   -100.67254   0.53463895    -100.1379   -13048.242    4.3623152    4.3623152    4.3623152   -13048.242    -17237.65   -14119.028   -7788.0479    2593.3198   -9109.0813   -6858.4751    83.013962 
   90500    599.47251   -100.67845   0.54241532   -100.13603    12520.759    4.3485895    4.3485895    4.3485895    12520.759    14625.087   -6718.3986    29655.587    702.45914    6299.0213    1331.3177    82.232832 
   90600    702.01003   -100.77445   0.63519343   -100.13925   -7305.6463    4.3646584    4.3646584    4.3646584   -7305.6463   -23604.519    454.98813    1232.5919   -1449.8756   -6204.5106   -12454.094    83.147803 
   90700    848.68576    -100.9014   0.76790871   -100.13349    8250.6386    4.3510237    4.3510237    4.3510237    8250.6386   -2959.2861    7699.6782    20011.524    2668.4737    2047.0941    4644.2574       82.371 
   90800    388.78338   -100.49139   0.35177938   -100.13961     6089.032    4.3520582    4.3520582    4.3520582     6089.032    8128.5297   -1871.8377    12010.404    289.57954   -3739.9234   -9137.1606     82.42977 
   90900     975.6103   -101.01833    0.8827527   -100.13558   -10639.236    4.3636478    4.3636478    4.3636478   -10639.236     -19400.9   -8889.5639   -3627.2436   -2068.5398   -3656.1577     843.5693    83.090058 
   91000    719.16459   -100.78778   0.65071524   -100.13707    10409.325    4.3478682    4.3478682    4.3478682    10409.325    3953.0284    9592.3742    17682.571    2999.8911    -2301.662   -2292.4624    82.191917 
   91100     463.3952    -100.5565   0.41928972   -100.13721   -10418.363    4.3605698    4.3605698    4.3605698   -10418.363   -2177.0408   -36528.807    7450.7594   -623.67488   -3218.0723   -6040.0976    82.914353 
   91200    889.22098   -100.94203   0.80458583   -100.13744   -7703.8121    4.3575468    4.3575468    4.3575468   -7703.8121     -7369.13   -10161.335   -5580.9709   -3549.8697    2310.7447    3424.7968    82.742034 
   91300    654.57635   -100.73319   0.59227443   -100.14092    2041.6212    4.3515023    4.3515023    4.3515023    2041.6212    5727.9973   -11726.543     12123.41    5709.0329   -2111.2466   -13084.348    82.398186 
   91400    676.23778   -100.74924   0.61187416   -100.13736    -13833.31    4.3578654    4.3578654    4.3578654    -13833.31   -2520.6193   -37135.644   -1843.6666   -4660.2267    1144.5237    5989.1881    82.760184 
   91500    669.81883   -100.74486   0.60606616   -100.13879   -839.52089    4.3576366    4.3576366    4.3576366   -839.52089   -1169.8306   -8717.9008    7369.1687    3502.4545    1047.8687   -10802.406    82.747148 
   91600    923.62809    -100.9682    0.8357181   -100.13248    7626.9237    4.3474755    4.3474755    4.3474755    7626.9237     6834.359     3252.448    12793.964   -3079.9251   -1476.0709    1703.4265     82.16965 
   91700    395.43546   -100.50051   0.35779832   -100.14271    861.56859    4.3591886    4.3591886    4.3591886    861.56859    1243.4744    -20474.89    21816.121    2021.7591    1426.9238   -5738.6019    82.835593 
   91800    809.24536   -100.87125   0.73222221   -100.13903    2767.3792    4.3595434    4.3595434    4.3595434    2767.3792    663.31493    14406.031    -6767.208   -1432.2532   -1563.5002   -1952.5782    82.855819 
   91900    768.16916   -100.83311    0.6950556   -100.13806    7705.1475    4.3514246    4.3514246    4.3514246    7705.1475   -1454.8159    8996.5771    15573.681   -2466.4744     2044.287   -2855.2552    82.393774 
   92000    495.29386   -100.58612   0.44815229   -100.13797   -5221.7736    4.3575638    4.3575638    4.3575638   -5221.7736    3509.9452   -8245.0325   -10930.233    1964.2323    1796.8947   -3447.0244    82.743003 
   92100    801.18201   -100.85978   0.72492632   -100.13486     -9397.57    4.3590186    4.3590186    4.3590186     -9397.57   -9480.4019   -4385.2728   -14327.035   -8620.8286    3764.5606   -1024.1657    82.825902 
   92200    762.47911   -100.82619   0.68990712   -100.13629    -1742.497    4.3518543    4.3518543    4.3518543    -1742.497   -2615.1863   -2106.4126   -505.89217    7579.8487    1854.8868   -4932.0503    82.418183 
   92300    643.70727   -100.71537   0.58243987   -100.13293   -11391.151    4.3573643    4.3573643    4.3573643   -11391.151   -9206.1865   -28965.574    3998.3083   -4051.8676    4243.7077    2645.6489    82.731634 
   92400    691.02961    -100.7615   0.62525812   -100.13624   -14326.955    4.3606542    4.3606542    4.3606542   -14326.955   -6642.1161   -19113.956   -17224.793    -612.0383    3545.5719    -8786.779    82.919169 
   92500    778.46872   -100.83999   0.70437486   -100.13561    8627.1297    4.3501961    4.3501961    4.3501961    8627.1297    -8662.357    4533.8722    30009.874    4804.0017    149.44728   -931.79194     82.32401 
   92600    669.26707   -100.74527   0.60556691    -100.1397   -11177.841    4.3592873    4.3592873    4.3592873   -11177.841   -4940.4192   -30935.446    2342.3412   -6502.7021    5015.6694   -7092.0806     82.84122 
   92700    499.23414   -100.59192   0.45171754    -100.1402    8667.3382     4.357691     4.357691     4.357691    8667.3382   -1723.9122    11292.361    16433.566    3720.2434   -824.94857   -9407.4523    82.750248 
   92800    1038.6067   -101.07428   0.93975321   -100.13453    1424.5704    4.3493952    4.3493952    4.3493952    1424.5704   -923.71765    -838.5061    6035.9349   -3096.9074    3612.2823    914.05259    82.278549 
   92900    425.13301   -100.52496   0.38466928   -100.14029   -555.38951    4.3599308    4.3599308    4.3599308   -555.38951     5889.525    -15848.86    8293.1664    66.350448    506.28629   -14697.156    82.877908 
   93000    778.24787   -100.84031   0.70417503   -100.13614   -5178.1568    4.3539099    4.3539099    4.3539099   -5178.1568   -2873.3317    4455.9035   -17117.042    177.95802    3314.1415    2808.4337    82.535032 
   93100    789.06285   -100.85473   0.71396065   -100.14077    1065.6763    4.3539837    4.3539837    4.3539837    1065.6763    3150.9874    2169.7189   -2123.6773    69.206545   -1030.0135   -9937.9664    82.539229 
   93200    612.86579    -100.6918   0.55453385   -100.13726   -10358.419    4.3586499    4.3586499    4.3586499   -10358.419   -5376.9625   -19260.862   -6437.4319    3803.5296    2673.3198   -7462.9701    82.804883 
   93300    605.41164   -100.68324   0.54778917   -100.13545   -10456.819    4.3566765    4.3566765    4.3566765   -10456.819    585.89247   -7129.8014   -24826.548   -4159.8808   -2552.2859    34.229876    82.692464 
   93400    881.03211    -100.9323   0.79717636   -100.13512   -3307.6227    4.3539836    4.3539836    4.3539836   -3307.6227   -5109.0407    388.19772   -5202.0253    5828.4674    2296.1433    -11841.53    82.539222 
   93500    620.55666   -100.69765   0.56149271   -100.13615    -6072.591    4.3571828    4.3571828    4.3571828    -6072.591    3366.8298   -26173.906    4589.3033   -9469.5672   -2076.4033    4814.4697    82.721297 
   93600    680.64454   -100.75238   0.61586149   -100.13652   -10640.093    4.3571265    4.3571265    4.3571265   -10640.093   -2784.0682    -2911.326   -26224.885    3479.0318   -1068.4985   -9872.2784    82.718093 
   93700    773.99794   -100.83774    0.7003296   -100.13741    16044.703     4.350976     4.350976     4.350976    16044.703    10655.241    3296.0871     34182.78     -3549.46   -753.87299    4922.5323    82.368293 
   93800    781.36524   -100.84442   0.70699569   -100.13743   -9776.3488    4.3614495    4.3614495    4.3614495   -9776.3488   -6466.3519   -12408.005    -10454.69   -3456.9178    -4391.875    -5791.393     82.96455 
   93900    425.24497   -100.52184   0.38477059   -100.13707    16791.585    4.3535447    4.3535447    4.3535447    16791.585    13185.719    11297.235    25891.802    3412.6176    5535.8716   -4703.4686    82.514265 
   94000    963.61185   -101.00741   0.87189625   -100.13552   -1421.9786    4.3536264    4.3536264    4.3536264   -1421.9786    -7752.893    6235.2314   -2748.2741   -6207.0605   -5544.4469    517.87455    82.518908 
   94100    561.87974    -100.6461   0.50840059    -100.1377    3825.4446    4.3590383    4.3590383    4.3590383    3825.4446   -3952.1589   -4612.4414    20040.934     3113.893    7603.1061    -8964.213    82.827023 
   94200    642.48796   -100.71708   0.58133661   -100.13574   -4288.1331    4.3516928    4.3516928    4.3516928   -4288.1331   -745.97229   -4087.2231   -8031.2039   -4064.0586   -4379.9319      1513.95    82.409011 
   94300    817.03017   -100.87629   0.73926607   -100.13703   -7633.9956    4.3567023    4.3567023    4.3567023   -7633.9956   -9212.7953   -1355.6421    -12333.55   -377.53253    5522.9989   -7377.5877    82.693932 
   94400    756.95905   -100.82054   0.68491246   -100.13563   -10150.545    4.3577163    4.3577163    4.3577163   -10150.545    -16132.23   -21432.064    7112.6594   -4320.8798   -654.14038    764.35082    82.751689 
   94500    609.63643    -100.6869   0.55161185   -100.13529   -8642.9578    4.3546951    4.3546951    4.3546951   -8642.9578    8742.1086   -3972.7768   -30698.205    144.55074    1363.7187   -5590.9497    82.579691 
   94600    762.50712     -100.829   0.68993246   -100.13907   -3547.0798    4.3551883    4.3551883    4.3551883   -3547.0798   -17309.564    10349.505   -3681.1798   -12.350899    6658.1798   -4962.9657    82.607751 
   94700    740.71272    -100.8087   0.67021244   -100.13849    875.26847    4.3573392    4.3573392    4.3573392    875.26847    8154.9116   -14826.502    9297.3962    513.61425   -3953.2605   -6403.0089    82.730204 
   94800    566.45514   -100.64925   0.51254051   -100.13671    648.67461    4.3549462    4.3549462    4.3549462    648.67461      2700.53    20726.459   -21480.965    4012.7909     10025.64   -2220.4051    82.593978 
   94900    658.19836    -100.7328   0.59555171   -100.13725    11662.177    4.3524621    4.3524621    4.3524621    11662.177    4849.6958   -5314.4618    35451.296    186.74233   -2713.1062    -8017.084    82.452719 
   95000    856.60014   -100.91196    0.7750698   -100.13689    135.43886    4.3607283    4.3607283    4.3607283    135.43886   -2221.1169    8493.2943   -5865.8608    790.56703     12947.32   -2303.1272      82.9234 
   95100    531.96173   -100.61846   0.48133015   -100.13713    9845.1196    4.3530409    4.3530409    4.3530409    9845.1196    6710.4931   -9613.0059    32437.872    6112.7292   -3532.9673   -1956.8099    82.485619 
   95200    705.33511   -100.77474   0.63820203   -100.13654   -851.89573    4.3559132    4.3559132    4.3559132   -851.89573   -1824.2709     9781.913   -10513.329   -3815.5207    5993.5419   -1170.3861    82.649008 
   95300    851.71245   -100.90702   0.77064732   -100.13637   -6307.6309    4.3569034    4.3569034    4.3569034   -6307.6309   -19546.859   -15294.964    15918.931    7107.9956    1822.0776    1617.8952    82.705383 
   95400    592.08246   -100.67173   0.53572865     -100.136   -3903.1907    4.3543504    4.3543504    4.3543504   -3903.1907    3219.6216   -9130.1425   -5799.0511     804.9733   -1524.6061    431.43025    82.560083 
   95500    680.83463   -100.75084   0.61603348   -100.13481   -15608.827    4.3564166    4.3564166    4.3564166   -15608.827   -24473.207   -41.003612    -22312.27    2541.2427    3563.6789    688.67987    82.677669 
   95600    752.31929   -100.81769   0.68071431   -100.13698   -3000.8454    4.3546939    4.3546939    4.3546939   -3000.8454   -17703.516   -9439.6876    18140.667    8702.7344    -549.9901    98.844538    82.579623 
   95700    757.44679   -100.82139   0.68535377   -100.13603   -13554.533    4.3579695    4.3579695    4.3579695   -13554.533   -6174.1746   -11724.382   -22765.044   -2853.3965    1796.5936    3321.9117    82.766111 
   95800    412.13587   -100.51121    0.3729092    -100.1383    1986.5147    4.3529498    4.3529498    4.3529498    1986.5147   -25208.735    8907.1861    22261.093    12728.134    2716.8533   -2372.7407    82.480443 
   95900     983.8581   -101.02674   0.89021548   -100.13653   -6205.2289    4.3586496    4.3586496    4.3586496   -6205.2289   -12662.186   -13462.155    7508.6549   -5062.0532   -1590.7081    9234.3968     82.80487 
   96000     618.8402    -100.6988   0.55993961   -100.13886    7323.7574    4.3561955    4.3561955    4.3561955    7323.7574   -5120.3569    4101.9582    22989.671    9207.8379    2053.4852   -3851.1007    82.665077 
   96100    591.79176    -100.6723   0.53546562   -100.13683   -2266.9002    4.3533727    4.3533727    4.3533727   -2266.9002   -15398.081     7587.066    1010.3146   -152.28267   -730.07158    8335.5151    82.504482 
   96200     767.5198   -100.83348   0.69446804   -100.13901    1825.6495      4.35736      4.35736      4.35736    1825.6495   -5616.9793    2216.4311    8877.4968    2936.0722    775.21577   -2624.7281    82.731389 
   96300     833.1222   -100.89066   0.75382647   -100.13683   -4439.1943    4.3577738    4.3577738    4.3577738   -4439.1943   -16064.992   -3966.5405    6713.9497    7119.2112    584.97572    2575.6966    82.754962 
   96400    438.59025   -100.53221   0.39684567   -100.13537    -5961.443    4.3548019    4.3548019    4.3548019    -5961.443   -6666.3443    4337.5128   -15555.498   -1752.5438    8153.1915      3384.75     82.58577 
   96500    830.08022   -100.88803   0.75107403   -100.13695   -1377.7753    4.3538234    4.3538234    4.3538234   -1377.7753    -11260.51   -7080.5667    14207.751     12970.32   -3322.8237   -1606.8133    82.530112 
   96600    902.24772   -100.95216    0.8163727   -100.13579   -10562.373    4.3626541    4.3626541    4.3626541   -10562.373   -8432.3918   -16087.253   -7167.4751   -3151.8675    11332.523    6046.4003    83.033311 
   96700    349.36896   -100.45228   0.31611638   -100.13616    5043.4355     4.350661     4.350661     4.350661    5043.4355   -517.09757    3118.5267    12528.877    10779.346     2113.413     -1561.53    82.350402 
   96800    890.65214   -100.94052   0.80588078   -100.13464   -684.84049    4.3566842    4.3566842    4.3566842   -684.84049   -8584.8173   -11859.003    18389.299   -997.40346    2402.3118    5405.0448    82.692906 
   96900    724.58448   -100.79227   0.65561926   -100.13665    592.73203    4.3598746    4.3598746    4.3598746    592.73203    -3412.172   -3949.6928    9140.0609    5557.0183    13531.383    175.72696    82.874706 
   97000    539.34504   -100.62134   0.48801073   -100.13333    6155.8732    4.3497978    4.3497978    4.3497978    6155.8732   -7151.0724    -3051.335    28670.027    2748.8994   -7882.2002    2080.4889    82.301396 
   97100    606.87441   -100.68763   0.54911272   -100.13851   -4232.2081    4.3613418    4.3613418    4.3613418   -4232.2081   -13070.558     3513.937   -3140.0032    916.09403    11059.787    1553.6983    82.958401 
   97200    1031.4297   -101.07003   0.93325922   -100.13677   -4072.0485    4.3534322    4.3534322    4.3534322   -4072.0485   -12700.941   -13559.296    14044.091    8663.9933   -4526.2445    736.49554    82.507863 
   97300    393.72532   -100.49524   0.35625094   -100.13899   -7096.3261    4.3564015    4.3564015    4.3564015   -7096.3261   -22977.476    11984.156   -10295.659   -2470.7177    5017.7739    5683.1027    82.676806 
   97400    769.36747   -100.83481   0.69613985   -100.13867   -7160.1262    4.3531745    4.3531745    4.3531745   -7160.1262    -16770.06   -1364.7125   -3345.6055    12492.265     2989.438   -530.82606    82.493213 
   97500     962.9366   -101.00716   0.87128527   -100.13588    1801.6142    4.3571437    4.3571437    4.3571437    1801.6142   -7066.5048   -5484.3367    17955.684   -3020.9519   -4940.0348    6597.6989     82.71907 
   97600    400.22931   -100.49959   0.36213589   -100.13745   -6554.2566    4.3571548    4.3571548    4.3571548   -6554.2566   -26397.611    7576.7123   -841.87141    8749.4752    4090.2163   -1705.9937    82.719702 
   97700    793.10322   -100.85192   0.71761646    -100.1343    10164.173    4.3522467    4.3522467    4.3522467    10164.173    9799.8046   -5067.3218    25760.037   -170.53997   -5473.0328    3384.5665    82.440478 
   97800    802.17894   -100.86385   0.72582836   -100.13802   -3642.7276    4.3612519    4.3612519    4.3612519   -3642.7276   -9418.2007   -7782.2633    6272.2813    1528.5534    880.40888    3035.1147    82.953272 
   97900    607.47857    -100.6845   0.54965938   -100.13484    9305.2036    4.3502747    4.3502747    4.3502747    9305.2036     2016.224     4766.658    21132.729    4088.5448   -87.007101    -3965.838     82.32847 
   98000    582.90463   -100.66306   0.52742436   -100.13564    543.94657    4.3581787    4.3581787    4.3581787    543.94657     6178.758    523.55047   -5070.4688   -2681.0942   -1245.6167    9080.1947    82.778033 
   98100      904.822   -100.95444   0.81870196   -100.13574   -2728.0571     4.356038     4.356038     4.356038   -2728.0571   -10268.727   -7202.6191    9287.1753    7477.6726    3171.7293   -6454.5727    82.656115 
   98200    572.26451   -100.65296   0.51779695   -100.13517    10101.805    4.3514833    4.3514833    4.3514833    10101.805    6645.1982    23873.558   -213.34085   -2807.4112   -1881.6427    5268.2512    82.397108 
   98300    645.31292   -100.72349   0.58389269    -100.1396   -14340.313    4.3612626    4.3612626    4.3612626   -14340.313   -13715.361   -8203.9712   -21101.607    7596.0554    3291.7448   -686.29895    82.953883 
   98400    884.38329   -100.93626   0.80020859   -100.13605    15233.931    4.3508853    4.3508853    4.3508853    15233.931    917.53902    35394.904    9389.3514   -118.97895   -4150.9973   -1127.4334    82.363141 
   98500     628.4189     -100.707   0.56860663   -100.13839   -13347.341    4.3578752    4.3578752    4.3578752   -13347.341   -25579.839   -312.32753   -14149.858    1179.7237    3559.8744    5849.5805    82.760743 
   98600    699.48798   -100.77094   0.63291143   -100.13803    6546.3507    4.3526878    4.3526878    4.3526878    6546.3507   -8733.1223    34807.834   -6435.6593    4164.1791   -3428.1759   -25.299364    82.465551 
   98700    837.72519   -100.89691   0.75799135   -100.13892   -958.02651     4.355387     4.355387     4.355387   -958.02651   -9337.3223    2353.8841    4109.3587   -4370.4645    2283.5766    6169.5106    82.619062 
   98800    573.66689   -100.65901   0.51906586   -100.13994   -12442.444     4.360009     4.360009     4.360009   -12442.444   -36510.026    4273.8423   -5091.1472    9947.6683   -100.59628   -2272.2458    82.882367 
   98900    778.31049   -100.84143   0.70423169    -100.1372    8331.8044    4.3502318    4.3502318    4.3502318    8331.8044    4281.2223     20440.48     273.7108   -5600.8923    1439.9458    4981.6137    82.326035 
   99000     761.9187   -100.82996   0.68940005   -100.14056   -13513.763      4.36097      4.36097      4.36097   -13513.763   -25603.298   -16965.001    2027.0102      12214.9    3964.0466    2405.3796    82.937184 
   99100    507.08144   -100.59717   0.45881794   -100.13835    8136.5416    4.3549414    4.3549414    4.3549414    8136.5416   -17552.748    41654.548    307.82504    474.13855    -2584.815   -2640.9241    82.593705 
   99200    897.76867   -100.94975   0.81231996   -100.13743    -2442.214    4.3519386    4.3519386    4.3519386    -2442.214    6863.4819   -5004.8725   -9185.2513    8473.0538    7358.5532    11135.987    82.422972 
   99300    533.82556    -100.6216   0.48301658   -100.13858    5240.1621    4.3612888    4.3612888    4.3612888    5240.1621     -23120.4    35519.946    3320.9402    5247.2077   -3197.1413   -4602.6755    82.955374 
   99400     785.0352   -100.84455   0.71031635   -100.13423   -1666.2801     4.352475     4.352475     4.352475   -1666.2801   -3839.3264    7080.0157   -8239.5295   -1733.0329    1776.5489    13287.939    82.453456 
   99500    629.01117   -100.70801   0.56914253   -100.13887    7653.8095    4.3569792    4.3569792    4.3569792    7653.8095   -1677.2906    30792.117   -6153.3981    10050.368   -525.21531   -2635.8063    82.709703 
   99600    840.25474   -100.89464   0.76028015   -100.13436    -5947.888    4.3557904    4.3557904    4.3557904    -5947.888   -11465.859   -4171.0602   -2206.7448   -6075.9863   -4746.3525    6925.6806    82.642021 
   99700    453.87691   -100.54898   0.41067737    -100.1383    2815.9642    4.3555357    4.3555357    4.3555357    2815.9642    -4226.563    15987.832   -3313.3761    7053.1199     3724.928    3390.9257    82.627523 
   99800    1031.2354   -101.06711    0.9330835   -100.13403   -8634.8025    4.3572697    4.3572697    4.3572697   -8634.8025   -10862.049    -4386.512   -10655.847   -1751.1141   -3919.9003    1620.4099    82.726249 
   99900    439.44524   -100.53654   0.39761929   -100.13892    913.98395    4.3553615    4.3553615    4.3553615    913.98395   -126.64091   -5473.3793     8341.972     1183.209     79.63306    3772.7068    82.617608 
  100000    805.31715   -100.86673   0.72866788   -100.13807   -4646.4555    4.3560568    4.3560568    4.3560568   -4646.4555   -21162.166    17624.682   -10401.883    2094.5591    2301.6147    971.26648    82.657182 
Loop time of 21.5822 on 1 procs for 100000 steps with 8 atoms

Pair  time (%) = 6.57686 (30.4735)
Kspce time (%) = 5.31021 (24.6046)
Neigh time (%) = 0 (0)
Comm  time (%) = 1.07445 (4.97839)
Outpt time (%) = 0.0236268 (0.109474)
Other time (%) = 8.59705 (39.834)

Nlocal:    8 ave 8 max 8 min
Histogram: 1 0 0 0 0 0 0 0 0 0
Nghost:    2189 ave 2189 max 2189 min
Histogram: 1 0 0 0 0 0 0 0 0 0
Neighs:    2056 ave 2056 max 2056 min
Histogram: 1 0 0 0 0 0 0 0 0 0

Total # of neighbors = 2056
Ave neighs/atom = 257
Neighbor list builds = 0
Dangerous builds = 0
unfix 20
unfix 21
print "seeds:7396453"
seeds:7396453
