LAMMPS (10 Feb 2015)
# ---- initialize simulations
clear
units metal
dimension 3
boundary p p p
atom_style charge
atom_modify map array
# ---- create atoms
read_data /Users/eugeneragasa/pyflamestk_git/pypospack/tests/tests_integration/workflow/WorkflowLammpsThermalExpansion/param_9544/MgO_NaCl_unit.npt.T1400/lammps.structure
  triclinic box = (0 0 0) to (4.2565 4.2565 4.2565) with tilt (0 0 0)
  1 by 1 by 1 MPI processor grid
  reading atoms ...
  8 atoms
# ---- define interatomic potential
include potential.mod
mass 1 24.305
mass 2 15.999

group Mg type 1
4 atoms in group Mg
group O type 2
4 atoms in group O

set group Mg charge 1.64252902328
  4 settings made for charge
set group O charge -1.64252902328
  4 settings made for charge

variable R_cut equal 10.0

pair_style buck/coul/long ${R_cut}
pair_style buck/coul/long 10
pair_coeff 1 1 0.0 0.5 0.0 ${R_cut}
pair_coeff 1 1 0.0 0.5 0.0 10
pair_coeff 1 2 1425.65456865 0.277130619093 0.0 ${R_cut}
pair_coeff 1 2 1425.65456865 0.277130619093 0.0 10
pair_coeff 2 2 8710.58674493 0.211543782712 -4.62088168449 ${R_cut}
pair_coeff 2 2 8710.58674493 0.211543782712 -4.62088168449 10

kspace_style pppm 1.0e-5

neighbor 1.0 bin
neigh_modify every 1 delay 0 check yes
# ---- define settings
compute eng all pe/atom
compute eatoms all reduce sum c_eng
# ---- run minimization
reset_timestep 0
fix 1 all box/relax iso 0.0 vmax 0.001
thermo 10
thermo_style custom step pe lx ly lz xy xz yz press pxx pyy pzz pxy pxz pyz c_eatoms
min_style cg
minimize 1e-25 1e-25 5000 10000
PPPM initialization ...
  G vector (1/distance) = 0.352708
  grid = 8 8 8
  stencil order = 5
  estimated absolute RMS force accuracy = 3.89813e-05
  estimated relative force accuracy = 2.7071e-06
  using double precision FFTs
  3d grid and FFT values/proc = 3375 512
Neighbor list info ...
  1 neighbor list requests
  update every 1 steps, delay 0 steps, check yes
  master list distance cutoff = 11
Memory usage per processor = 4.06549 Mbytes
Step PotEng Lx Ly Lz Xy Xz Yz Press Pxx Pyy Pzz Pxy Pxz Pyz eatoms 
       0   -111.38871       4.2565       4.2565       4.2565            0            0            0   -14022.103   -14022.103   -14022.103   -14022.103 -1.0617953e-11 -7.0203049e-11 5.2505523e-12   -111.38871 
       6    -111.3915    4.2448057    4.2448057    4.2448057            0            0            0    11.870105    11.870105    11.870105    11.870105 -3.2023954e-10 4.899455e-11 2.2757866e-10    -111.3915 
Loop time of 0.0149672 on 1 procs for 6 steps with 8 atoms

Minimization stats:
  Stopping criterion = linesearch alpha is zero
  Energy initial, next-to-last, final = 
        -111.388714234     -111.391500014     -111.391500014
  Force two-norm initial, final = 2.0248 0.00171153
  Force max component initial, final = 2.0248 0.00170464
  Final line search alpha, max atom move = 0.00229153 3.90625e-06
  Iterations, force evaluations = 6 44

Pair  time (%) = 0.00410676 (27.4384)
Kspce time (%) = 0.00235057 (15.7048)
Neigh time (%) = 0 (0)
Comm  time (%) = 0.000447512 (2.98995)
Outpt time (%) = 0 (0)
Other time (%) = 0.00806236 (53.8669)

Nlocal:    8 ave 8 max 8 min
Histogram: 1 0 0 0 0 0 0 0 0 0
Nghost:    2189 ave 2189 max 2189 min
Histogram: 1 0 0 0 0 0 0 0 0 0
Neighs:    2344 ave 2344 max 2344 min
Histogram: 1 0 0 0 0 0 0 0 0 0

Total # of neighbors = 2344
Ave neighs/atom = 293
Neighbor list builds = 0
Dangerous builds = 0
unfix 1
# ---- define output variables ----
variable natoms equal "count(all)"
variable tot_energy equal "c_eatoms"
variable length_x equal "lx"
variable length_y equal "ly"
variable length_z equal "lz"
variable tilt_xy equal "xy"
variable tilt_xz equal "xz"
variable tilt_yz equal "yz"
variable tot_press equal "press"
variable press_xx equal "pxx"
variable press_yy equal "pyy"
variable press_zz equal "pzz"
variable press_xy equal "pxy"
variable press_xz equal "pxz"
variable press_yz equal "pyz"

# ---- output ----
print "pypospack:output_section:begin"
pypospack:output_section:begin
print "tot_energy = ${tot_energy}"
tot_energy = -111.391500014071
print "num_atoms = ${natoms}"
num_atoms = 8
print "xx = ${length_x}"
xx = 4.24480566540602
print "yy = ${length_y}"
yy = 4.24480566540602
print "zz = ${length_z}"
zz = 4.24480566540602
print "xy = ${tilt_xy}"
xy = 0
print "xz = ${tilt_xz}"
xz = 0
print "yz = ${tilt_yz}"
yz = 0
print "tot_press = ${tot_press}"
tot_press = 11.8701047091937
print "pxx = ${press_xx}"
pxx = 11.8701047092997
print "pyy = ${press_yy}"
pyy = 11.8701047087814
print "pzz = ${press_zz}"
pzz = 11.8701047094999
print "pxy = ${press_xy}"
pxy = -3.20239539923879e-10
print "pxz = ${press_xz}"
pxz = 4.8994550277695e-11
print "pyz = ${press_yz}"
pyz = 2.27578662531736e-10
print "pypospack:output_section:done"
pypospack:output_section:done
print "pypospack:lammps_sim:done"
pypospack:lammps_sim:done
#------------------------------------------------------------------------------
# RUN THERMOSTAT
# running using an NPT Nose-Hoover style thermostat
#------------------------------------------------------------------------------
variable tempdamp equal 0.1
variable pressdamp equal 1.0
# set initial velocities
velocity all create 1400 1304567 mom yes dist gaussian loop all
# fix for Nose-Hoover style thermostat
fix 20 all npt temp 1400 1400 0.1 aniso 0.0 0.0 1.0 drag 1.0 couple xyz
variable boxx equal lx
variable boxy equal ly
variable boxz equal lz
variable boxp equal press
variable boxt equal temp
# calculate averages every 10000 steps
reset_timestep 0
fix 21 all ave/time 10 10 100 v_boxx v_boxy v_boxz v_boxp v_boxt file lattice.out
thermo_style custom step temp pe ke etotal press lx ly lz press pxx pyy pzz pxy pxz pyz vol
thermo_modify flush yes
thermo 100
run 100000
PPPM initialization ...
  G vector (1/distance) = 0.352825
  grid = 8 8 8
  stencil order = 5
  estimated absolute RMS force accuracy = 3.87738e-05
  estimated relative force accuracy = 2.69269e-06
  using double precision FFTs
  3d grid and FFT values/proc = 3375 512
Memory usage per processor = 3.06549 Mbytes
Step Temp PotEng KinEng TotEng Press Lx Ly Lz Press Pxx Pyy Pzz Pxy Pxz Pyz Volume 
       0         1400    -111.3915    1.2667494   -110.12475    17702.338    4.2448057    4.2448057    4.2448057    17702.338    29390.597    15264.539    8451.8783   -6302.2851   -2437.1607    786.54942    76.484501 
     100    775.85892   -110.66656   0.70201346   -109.96455    17030.771    4.2796332    4.2796332    4.2796332    17030.771    51454.296    20709.043   -21071.026     66.25522    9671.9423   -356.32353    78.382594 
     200    803.68282   -110.34919   0.72718911     -109.622   -18484.804    4.3206117    4.3206117    4.3206117   -18484.804    84733.332   -65857.442   -74330.303    1889.2005    7947.6231    6748.6811    80.655823 
     300    1555.5148   -110.71427    1.4074625   -109.30681   -9599.9317    4.3128276    4.3128276    4.3128276   -9599.9317    34297.481   -9166.5409   -53930.735   -5628.8513   -325.47402    879.14855    80.220669 
     400     1642.297   -110.55995    1.4859848   -109.07396    11924.631    4.2966986    4.2966986    4.2966986    11924.631    19899.578    42983.749   -27109.434    11907.677   -5820.0349   -638.90591    79.324013 
     500    1420.8979   -110.21329    1.2856583   -108.92763   -6144.4051    4.3127271    4.3127271    4.3127271   -6144.4051    63695.824   -23258.408   -58870.632    4948.9964    9515.5294    12283.251    80.215064 
     600    1092.9255   -109.83526     0.988902   -108.84636     2274.398    4.3344006    4.3344006    4.3344006     2274.398    41832.633    25072.787   -60082.226    339.92823   -10648.574   -5216.2626    81.430505 
     700      1453.13   -110.11213    1.3148225    -108.7973   -11574.318    4.3326797    4.3326797    4.3326797   -11574.318    77669.354   -61027.736   -51364.572    8608.2251   -11353.626   -1221.9788    81.333556 
     800     1153.733    -109.8374    1.0439219   -108.79348    33479.092    4.3198999    4.3198999    4.3198999    33479.092    69022.489    62176.787       -30762        21320    8962.8916    6041.1769    80.615964 
     900    1613.2184   -110.27715    1.4596739   -108.81747   -16487.687     4.318241     4.318241     4.318241   -16487.687   -14197.726    19268.784    -54534.12   -2396.7026   -2061.9566   -11616.368    80.523126 
    1000     1227.517   -109.93959    1.1106831   -108.82891   -5850.8845    4.3221465    4.3221465    4.3221465   -5850.8845    1825.2284    18126.653   -37504.535    8358.5892   -11543.314    14429.373    80.741807 
    1100    1733.2094   -110.38635    1.5682443    -108.8181   -35000.859    4.3275794    4.3275794    4.3275794   -35000.859    -10843.09   -33259.121   -60900.365   -21971.083    15021.887   -1528.9199    81.046665 
    1200    1239.5165   -109.92992    1.1215406   -108.80838    16228.586    4.3147779    4.3147779    4.3147779    16228.586    29749.018    71948.315   -53011.574    3123.9745   -9438.8905   -5524.4286    80.329553 
    1300    1534.6899    -110.1974    1.3886197   -108.80878    5776.0455    4.3113368    4.3113368    4.3113368    5776.0455    18643.959    41850.461   -43166.283   -7692.5361   -8707.4617    11258.378    80.137512 
    1400     1442.077   -110.12468    1.3048216   -108.81986    2596.9018    4.3198026    4.3198026    4.3198026    2596.9018   -24087.903     47459.84   -15581.232    5060.4542   -2762.0446   -10693.718    80.610519 
    1500    1433.8828   -110.11879    1.2974073   -108.82138      8263.63    4.3186855    4.3186855    4.3186855      8263.63    51651.952   -10405.688   -16455.374    16796.455   -8156.6931     826.2396    80.547996 
    1600    1089.6973   -109.81096   0.98598097   -108.82498     22602.59    4.3286315    4.3286315    4.3286315     22602.59    6330.0064    88576.061   -27098.297    -4201.477    -3023.306    15657.076    81.105789 
    1700    1016.4909   -109.75388    0.9197423   -108.83414    1784.9532    4.3252026    4.3252026    4.3252026    1784.9532   -63488.513    67473.215    1370.1579   -24773.065    2181.7107   -10194.594      80.9132 
    1800      1647.77   -110.32264    1.4909369   -108.83171    29938.429    4.2908738    4.2908738    4.2908738    29938.429    5803.8026    89542.809   -5531.3229   -1520.5991   -8826.2042    -13438.63    79.001841 
    1900    1590.9327    -110.3245    1.4395093   -108.88499    -4610.944     4.306989     4.306989     4.306989    -4610.944   -30213.201    14940.244    1440.1251   -11862.091   -4487.4969   -7971.9085    79.895312 
    2000    1454.4145   -110.18828    1.3159848   -108.87229   -34681.738    4.3412825    4.3412825    4.3412825   -34681.738   -31062.151   -12295.505   -60687.556   -879.91928   -8743.4847    3567.7277    81.818994 
    2100    1530.7486   -110.20527    1.3850535   -108.82022   -28356.813    4.3361984    4.3361984    4.3361984   -28356.813   -38168.205    21636.149   -68538.383   -11380.895   -9024.9882   -14394.735    81.531874 
    2200     2100.047   -110.68888    1.9001667   -108.78872   -12096.937    4.3072763    4.3072763    4.3072763   -12096.937   -50.373081    8908.4318   -45148.869    10812.897   -4165.9572    7448.0034    79.911299 
    2300     1363.728   -110.04741    1.2339297   -108.81348    36522.466    4.3046254    4.3046254    4.3046254    36522.466    40980.785    68503.653    82.959563    9238.2871   -6227.4376    7873.9924    79.763846 
    2400    1249.5999   -109.96085    1.1306643   -108.83018   -18505.223    4.3333341    4.3333341    4.3333341   -18505.223     3928.916    3670.2538   -63114.838   -18541.858   -14336.972   -26567.519    81.370413 
    2500    1877.7925   -110.51613    1.6990662   -108.81706    -28076.24    4.3268406    4.3268406    4.3268406    -28076.24   -7669.4359   -18332.995   -58226.291   -11909.649    11405.728   -13274.167    81.005162 
    2600    1020.4431   -109.73492   0.92331839    -108.8116    48742.514     4.299579     4.299579     4.299579    48742.514   -3990.5825    140725.06    9493.0678    7247.4652   -1318.4555    18118.511    79.483647 
    2700    1535.8959   -110.23078    1.3897109   -108.84107   -4354.0947    4.3067767    4.3067767    4.3067767   -4354.0947   -2024.9494    10569.968   -21607.303   -141.50969    -6094.876    -20600.37    79.883498 
    2800    1376.3761   -110.09178     1.245374    -108.8464   -10828.889     4.334898     4.334898     4.334898   -10828.889    -24291.31    7381.7937   -15577.149   -10963.751    11066.025    12653.614    81.458545 
    2900    1388.2973   -110.07449    1.2561606   -108.81833   -23097.869    4.3325148    4.3325148    4.3325148   -23097.869    -41289.25   -10619.173   -17385.185    16524.076   -17594.445   -9071.5876    81.324266 
    3000    1424.3755   -110.07728    1.2888049   -108.78847    14436.317    4.2974699    4.2974699    4.2974699    14436.317   -12269.919    20643.367    34935.503    1344.8693   -6205.1525    -22362.11    79.366739 
    3100    1485.6725   -110.17493    1.3442677   -108.83066    10868.244    4.3059821    4.3059821    4.3059821    10868.244   -7100.6596    45435.851   -5730.4583   -9549.6181    727.03945    7751.5026     79.83929 
    3200    1197.9637   -109.92068    1.0839427   -108.83674    1470.7046    4.3279887    4.3279887    4.3279887    1470.7046   -27028.162   -4864.7815    36305.057     7749.531   -14402.722    4024.0253    81.069658 
    3300    1470.2297   -110.14869    1.3302947    -108.8184    226.23352    4.3213992    4.3213992    4.3213992    226.23352   -17761.954    26038.417   -7597.7625    3883.8458   -3580.9008   -1238.9175    80.699933 
    3400     1255.761   -109.95102    1.1362389   -108.81478    7106.4654    4.3144036    4.3144036    4.3144036    7106.4654   -22673.651   -5201.7643    49194.812   -7244.9816     8992.294   -12513.396    80.308649 
    3500    1519.3801   -110.20112     1.374767   -108.82636   -26676.251    4.3144927    4.3144927    4.3144927   -26676.251   -31374.476   -48232.732   -421.54544    20031.716   -2801.3322   -2121.6072     80.31362 
    3600     888.1659    -109.6394   0.80363117   -108.83577    12942.835    4.3161676    4.3161676    4.3161676    12942.835   -12118.248    30266.056    20680.697    16850.677    -776.3958   -10911.629    80.407193 
    3700     1577.596   -110.25168     1.427442   -108.82424    -4221.543    4.3146568    4.3146568    4.3146568    -4221.543   -22434.825    28000.251   -18230.055   -11103.105    21221.091    3103.6171    80.322787 
    3800    1317.3586    -110.0218    1.1919737   -108.82982   -31.271696    4.3112945    4.3112945    4.3112945   -31.271696   -24121.232   -32698.791    56726.208    13198.231   -4359.5442    16011.712    80.135154 
    3900    1448.3372   -110.14011    1.3104859   -108.82962   -4426.4842    4.3099631    4.3099631    4.3099631   -4426.4842   -32134.539    36317.909   -17462.822     5340.528    2825.0288    -9449.647    80.060936 
    4000    1363.0276   -110.07493    1.2332961   -108.84163   -20151.141    4.3342877    4.3342877    4.3342877   -20151.141   -43460.343    2111.7276   -19104.807   -1867.6457    -3661.365   -12185.045    81.424145 
    4100    1482.2089   -110.15261    1.3411337   -108.81147   -43496.903    4.3316601    4.3316601    4.3316601   -43496.903   -61924.021   -31427.482   -37139.207    7471.0726   -259.44315    7341.2508     81.27615 
    4200    1124.3278   -109.80612    1.0173154    -108.7888    50270.379    4.2876885    4.2876885    4.2876885    50270.379    16427.458    68880.527    65503.152   -8999.9949    880.55331   -3770.9384    78.826036 
    4300    1358.0906   -110.06584    1.2288289   -108.83701    9855.7254    4.3047276    4.3047276    4.3047276    9855.7254   -5379.9298    4258.6119    30688.494   -7287.5669    8505.7949    1478.1958     79.76953 
    4400    1493.9539    -110.1742    1.3517609   -108.82244   -31243.813    4.3310696    4.3310696    4.3310696   -31243.813   -22139.935   -16965.275    -54626.23   -7327.0574     19761.34   -5751.9361    81.242912 
    4500    1133.5971   -109.83039    1.0257025   -108.80469    34449.424    4.3131833    4.3131833    4.3131833    34449.424   -6341.8613    9366.6296     100323.5   -2781.3777   -2046.4885   -46.796633    80.240521 
    4600    1452.8644   -110.14293    1.3145823   -108.82835   -28656.982    4.3201235    4.3201235    4.3201235   -28656.982   -11712.558   -17578.352   -56680.035    11809.093      17647.5   -16773.417    80.628484 
    4700     1428.928   -110.11427    1.2929241   -108.82135   -4863.2059     4.309867     4.309867     4.309867   -4863.2059    7795.1998   -7915.9941   -14468.824   -3435.9371   -5987.2211   -22979.337    80.055577 
    4800    1575.2539    -110.2512    1.4253228   -108.82588    17485.851    4.3095371    4.3095371    4.3095371    17485.851    12760.872    8194.2034    31502.476   -11738.567    5575.3224   -497.10132    80.037199 
    4900    1078.3957   -109.80438   0.97575513   -108.82863   -19955.032    4.3343972    4.3343972    4.3343972   -19955.032   -13364.136   -24457.388    -22043.57    17040.191   -4592.3555   -27685.639    81.430316 
    5000    1630.5919   -110.28235    1.4753938   -108.80695   -1985.9377    4.3070498    4.3070498    4.3070498   -1985.9377    657.78033    -20444.08    13828.487    3086.1853    1570.6461   -849.19483    79.898696 
    5100    1540.5622   -110.19753     1.393933    -108.8036    43602.775    4.2881843    4.2881843    4.2881843    43602.775   -8521.9026    96479.542    42850.687   -1567.0943     1180.544   -14436.963    78.853385 
    5200    1193.5957   -109.92504    1.0799905   -108.84505   -13831.642    4.3215664    4.3215664    4.3215664   -13831.642   -38628.337   -51996.378    49129.787    2034.0116   -13828.879   -7466.8682    80.709296 
    5300    1314.2702   -110.00687    1.1891793   -108.81769   -14.554984    4.3323143    4.3323143    4.3323143   -14.554984   -41564.646    5364.3856    36156.595    -3768.279    4495.2097    944.24817     81.31298 
    5400    1528.7069    -110.1823    1.3832061   -108.79909    13416.125    4.3104475    4.3104475    4.3104475    13416.125    9191.6008   -2494.5776    33551.352   -7415.1311    2548.5225   -5071.9775    80.087932 
    5500    922.77638   -109.64582   0.83494746   -108.81088    28634.866    4.2918411    4.2918411    4.2918411    28634.866    8869.6042    -16723.99    93758.984    4325.4079    -11338.84    6829.2194    79.055286 
    5600    1657.0853   -110.34303    1.4993656   -108.84366   -10547.226    4.3034124    4.3034124    4.3034124   -10547.226   -22575.088   -26796.292    17729.703    2756.4346    11503.101    12725.008    79.696436 
    5700    1527.1321   -110.22655    1.3817812   -108.84477   -13162.176    4.3204715    4.3204715    4.3204715   -13162.176   -16549.745   -18430.249   -4506.5357   -8525.1095   -4453.3668   -189.21204    80.647969 
    5800    963.69852   -109.70817   0.87197468    -108.8362    6202.4932    4.3179268    4.3179268    4.3179268    6202.4932    6419.1799   -30778.543    42966.843    10087.223   -25479.989   -1523.8039     80.50555 
    5900    1724.2643   -110.37855    1.5601506    -108.8184   -26794.931    4.3088246    4.3088246    4.3088246   -26794.931   -8459.9761   -42682.142   -29242.676    6532.1148    4178.2395    25041.515    79.997508 
    6000    1488.9036   -110.16764    1.3471913   -108.82045    21890.597    4.3007709    4.3007709    4.3007709    21890.597    17691.342   -9368.2239    57348.674   -1659.4588   -1202.9475    12430.046    79.549771 
    6100    1849.0037   -110.50407    1.6730174   -108.83105   -12355.822    4.3113807    4.3113807    4.3113807   -12355.822   -8975.8421   -2815.7847    -25275.84    3823.2225   -52.869749     3767.155    80.139962 
    6200    1418.0176   -110.10971    1.2830521   -108.82666   -15299.126    4.3180481    4.3180481    4.3180481   -15299.126   -18229.415   -18952.429   -8715.5341    3559.6955   -1552.0652    10475.715    80.512338 
    6300    1537.2057    -110.2035     1.390896    -108.8126    8509.6815    4.3026647    4.3026647    4.3026647    8509.6815    43646.739   -687.06972   -17430.625    4847.6927    3260.1475    11691.408      79.6549 
    6400    1653.0714   -110.32025    1.4957338   -108.82452    22212.219    4.3134757    4.3134757    4.3134757    22212.219   -20153.447    55055.972    31734.132   -5893.0369   -3327.0428   -7884.6786     80.25684 
    6500     1533.654   -110.21012    1.3876824   -108.82244   -33879.424      4.33746      4.33746      4.33746   -33879.424   -55674.112   -15650.831   -30313.328   -10844.284   -3082.1299    6874.7311    81.603063 
    6600    1078.5535   -109.79623    0.9758979   -108.82033    10323.844    4.3041904    4.3041904    4.3041904    10323.844    7891.1931    21531.728    1548.6116   -6354.6441     6679.571   -16147.028    79.739667 
    6700    1663.7876   -110.30728      1.50543   -108.80185    52477.408    4.2821223    4.2821223    4.2821223    52477.408     66169.56     46332.11    44930.553   -589.08462   -4920.4376   -5016.0356    78.519439 
    6800    1703.4671   -110.37965    1.5413329   -108.83832   -8932.3916    4.3246612    4.3246612    4.3246612   -8932.3916   -43319.471   -3126.3253    19648.622    1906.6189   -6153.3424   -603.06601    80.882815 
    6900    1208.1961   -109.90814    1.0932012   -108.81494    11871.316    4.3243971    4.3243971    4.3243971    11871.316    42473.905   -52812.114    45952.157   -8058.2052    7803.7239   -6978.4139    80.868002 
    7000    1454.7481   -110.11031    1.3162867   -108.79402    6238.5276    4.3067837    4.3067837    4.3067837    6238.5276    18032.968   -30227.794    30910.408   -7293.8355    2256.0456   -5778.1948    79.883887 
    7100    1383.2002   -110.05736    1.2515486   -108.80582   -21470.195    4.3113434    4.3113434    4.3113434   -21470.195   -37373.118   -18275.228   -8762.2384   -6898.2266   -16553.361   -3207.6634    80.137878 
    7200    1548.5692   -110.20795    1.4011779   -108.80677    11567.071    4.3000713    4.3000713    4.3000713    11567.071    7057.4476   -3794.4663     31438.23   -5755.9381      2729.22   -1081.1882    79.510955 
    7300    1407.9936   -110.11565    1.2739822   -108.84167   -18551.958    4.3188794    4.3188794    4.3188794   -18551.958   -31391.573     -5130.33   -19133.971    4918.7869    -14447.76   -10905.216    80.558842 
    7400    1242.5353   -109.94469    1.1242721   -108.82042   -70365.703     4.335738     4.335738     4.335738   -70365.703   -97095.906    -67523.83   -46477.372   -1272.7983   -18582.308    3005.2044    81.505906 
    7500    1203.2812   -109.88048    1.0887541   -108.79172    33479.166    4.3038906    4.3038906    4.3038906    33479.166   -23944.112    72982.417    51399.194   -4973.6648    6716.4065    8808.7858    79.723009 
    7600    1229.1144    -109.9204    1.1121285   -108.80827    15895.101    4.3007876    4.3007876    4.3007876    15895.101   -16569.617    45436.143    18818.779    11184.106   -18684.865    15791.867    79.550699 
    7700    1097.8824   -109.81466    0.9933871   -108.82127   -31665.573    4.3180642    4.3180642    4.3180642   -31665.573   -66949.469   -34473.444    6426.1956   -2192.9277   -23470.697    18151.706    80.513237 
    7800    1106.4538   -109.82546    1.0011427   -108.82432   -2038.2534    4.3197085    4.3197085    4.3197085   -2038.2534   -30455.009   -5646.9505      29987.2   -3906.3101   -1510.6095    22037.459    80.605248 
    7900    1380.9756   -110.06881    1.2495358   -108.81927    13332.646    4.3114951    4.3114951    4.3114951    13332.646    6005.6135   -18400.963    52393.289   -9711.5379    31673.023    16153.796     80.14634 
    8000    1287.2022   -109.98285    1.1646876   -108.81816    -10877.52     4.311038     4.311038     4.311038    -10877.52   -37500.045   -20105.211    24972.695   -8994.4827    3111.7511   -5520.9191    80.120853 
    8100    1336.5514   -110.03473    1.2093398   -108.82539   -7216.9638    4.3153221    4.3153221    4.3153221   -7216.9638     16872.29    3809.7402   -42332.921   -7625.3039    -11204.75   -4497.2046    80.359949 
    8200    1638.8677   -110.29876     1.482882   -108.81588    8118.0697    4.3182574    4.3182574    4.3182574    8118.0697    14150.449    27493.639   -17289.878   -7001.4629    3816.6007    16357.973    80.524044 
    8300    1316.3437   -110.00835    1.1910555   -108.81729    9845.8052    4.3240836    4.3240836    4.3240836    9845.8052   -1422.9923    6499.5889    24460.819   -4808.2812   -2769.9323   -12416.655    80.850415 
    8400    1506.5175   -110.17037    1.3631287   -108.80724    3835.6003    4.3244217    4.3244217    4.3244217    3835.6003   -23141.525   -39767.837    74416.162     7905.888   -16477.628   -2909.7313    80.869382 
    8500     1753.702   -110.38876    1.5867864   -108.80198    7482.8238     4.319409     4.319409     4.319409    7482.8238   -29000.029   -30300.268    81748.768    7609.1935   -1161.1639    9339.4171    80.588484 
    8600    1657.5142   -110.30935    1.4997537    -108.8096    3664.4298    4.3163723    4.3163723    4.3163723    3664.4298   -28281.082    46462.713   -7188.3413    -96.35466    482.61353   -3168.9491    80.418635 
    8700    1302.8045    -110.0063    1.1788049   -108.82749    -4761.785    4.3235737    4.3235737    4.3235737    -4761.785   -29872.323    9023.2523    6563.7159   -7697.5335   -16340.775    6432.6031    80.821814 
    8800    1690.7478    -110.3325    1.5298241   -108.80268   -18635.114     4.326986     4.326986     4.326986   -18635.114   -18531.602   -9936.4092    -27437.33    -10974.57   -3103.3869   -7082.6948    81.013327 
    8900    1576.2531    -110.2159     1.426227   -108.78967    9294.6605    4.3144026    4.3144026    4.3144026    9294.6605   -14505.169    43372.651   -983.50019   -6581.4431    5211.8747   -7406.9226    80.308591 
    9000    875.96067   -109.61027   0.79258762   -108.81769    1417.1056    4.3206137    4.3206137    4.3206137    1417.1056     -20174.9   -10992.163     35418.38    8648.4264   -11473.533   -4900.4664    80.655931 
    9100     1956.505   -110.57896    1.7702868   -108.80867   -42258.291     4.313989     4.313989     4.313989   -42258.291   -20540.696   -59832.404   -46401.773   -19659.279   -2940.6459   -16542.658    80.285495 
    9200    1369.3741   -110.04519    1.2390385   -108.80615    57358.268    4.2874617    4.2874617    4.2874617    57358.268    21136.348    86686.446     64252.01   -4716.6154   -14422.841   -13669.107    78.813525 
    9300    1586.1144   -110.27438    1.4351497   -108.83923    -1852.067    4.3109806    4.3109806    4.3109806    -1852.067   -34557.384    1315.2375    27685.946    8414.9859   -3562.6903    12486.403    80.117651 
    9400    1828.2837   -110.47255    1.6542695   -108.81828   -44246.149    4.3318265    4.3318265    4.3318265   -44246.149   -36577.236   -44883.121   -51278.089    5147.7223    5492.7192    15987.284    81.285515 
    9500    1302.5241   -109.96952    1.1785512   -108.79097    16655.787     4.313083     4.313083     4.313083    16655.787   -15177.749    40747.876    24397.233    13312.135   -7263.9677   -21842.213    80.234924 
    9600    1349.4062   -110.01215    1.2209711   -108.79118    10299.727    4.3140967    4.3140967    4.3140967    10299.727   -19380.687    45620.628    4659.2407   -6278.3204   -8215.4563   -6973.8208    80.291509 
    9700    1951.1286   -110.55714    1.7654221   -108.79172   -24051.597    4.3080685    4.3080685    4.3080685   -24051.597   -44857.641   -14639.194   -12657.955   -6401.4977    1561.2926    7074.3818    79.955402 
    9800    1170.8135   -109.85976    1.0593766   -108.80038    30408.652    4.2949645    4.2949645    4.2949645    30408.652   -30601.418    68060.668    53766.705    586.30781   -4037.1836   -20860.798    79.228006 
    9900    1157.9278    -109.8834    1.0477174   -108.83568   -11554.896    4.3274547    4.3274547    4.3274547   -11554.896   -65790.878    8649.3116    22476.878    11579.797    -5664.602   -4448.8588    81.039656 
   10000     1505.027   -110.16218    1.3617801    -108.8004   -27925.914    4.3248409    4.3248409    4.3248409   -27925.914   -57656.824   -23096.484   -3024.4351    1692.9293    4371.0011    13208.932      80.8929 
   10100    1304.4315   -109.95996     1.180277   -108.77969    28805.518      4.27999      4.27999      4.27999    28805.518    -18870.79    56037.569    49249.776    733.20958   -3495.7577   -44204.827    78.402202 
   10200    1104.6621   -109.83147   0.99952147   -108.83195    5888.4342    4.2990544    4.2990544    4.2990544    5888.4342   -17040.652    732.17371    33973.781    12066.247    -3610.712   -4755.3997    79.454557 
   10300     1457.206   -110.13183    1.3185106   -108.81332   -28853.278    4.3256505    4.3256505    4.3256505   -28853.278   -54775.578   -24934.845   -6849.4106     89.28056   -6380.3366    2152.6654    80.938339 
   10400    1014.9829   -109.71503   0.91837787   -108.79665    17726.172    4.3223787    4.3223787    4.3223787    17726.172   -41458.184     1488.422    93148.279    5679.7406   -1789.1181   -37410.795    80.754817 
   10500    1470.2417   -110.11977    1.3303056   -108.78947   -17601.236    4.3229296    4.3229296    4.3229296   -17601.236   -51222.102    28135.151   -29716.758    13690.167   -15951.533    11176.628    80.785702 
   10600    1692.3073   -110.33001    1.5312352   -108.79877    2983.2257    4.2872662    4.2872662    4.2872662    2983.2257   -15341.912    9363.4052    14928.184   -8465.8515   -4362.1169   -1102.0501    78.802743 
   10700    1100.4814   -109.83759   0.99573873   -108.84185    26538.762    4.2793686    4.2793686    4.2793686    26538.762    12022.773    74045.654   -6452.1395    7301.4449   -1051.6843   -31683.349    78.368057 
   10800    1366.7062   -110.08306    1.2366245   -108.84644   -8759.8032    4.3241745    4.3241745    4.3241745   -8759.8032   -54899.819    14999.685    13620.724    1715.9638    13757.104    4405.1835     80.85551 
   10900    2075.0416   -110.68912    1.8775412   -108.81157   -29023.862    4.3177021    4.3177021    4.3177021   -29023.862   -39452.115   -27030.279   -20589.191    5296.9531   -2852.2876   -8207.5233    80.492981 
   11000    747.59513   -109.48671   0.67643979   -108.81027    34429.268    4.2939807    4.2939807    4.2939807    34429.268    21885.505     69722.35    11679.948    -9687.191   -1531.2934   -36630.295    79.173576 
   11100    1926.0391   -110.56144    1.7427207   -108.81872    4225.8984    4.3037772    4.3037772    4.3037772    4225.8984   -13666.974    47018.463   -20673.794    4110.3114     8102.209   -2041.8329    79.716707 
   11200    1881.5812   -110.52584    1.7024942   -108.82335       -14711    4.3169185    4.3169185    4.3169185       -14711   -23686.392   -493.83424   -19952.775   -12859.098   -3334.2371     3631.484    80.449168 
   11300    992.10529    -109.7229   0.89767771   -108.82522     33555.32    4.3044182    4.3044182    4.3044182     33555.32    -2437.695    131564.74   -28461.089    3751.3883    6255.6874   -35934.377    79.752328 
   11400    1789.5103   -110.44881    1.6191866   -108.82962   -14204.332    4.3134619    4.3134619    4.3134619   -14204.332   -29200.979   -6835.7615    -6576.256    4492.9726    7058.3461    4887.2252     80.25607 
   11500    1636.2463   -110.30104    1.4805101   -108.82053    3087.8119    4.3051223    4.3051223    4.3051223    3087.8119   -13214.365     8182.994    14294.807   -33742.729   -9013.1835   -6977.8553    79.791473 
   11600    1161.4689   -109.87871    1.0509215   -108.82779    13339.551    4.2972341    4.2972341    4.2972341    13339.551    9393.7869    20084.303    10540.563    5404.3139    3563.4676   -32723.108    79.353675 
   11700    1893.8473   -110.55374    1.7135928   -108.84014   -29098.766    4.3150908    4.3150908    4.3150908   -29098.766   -22732.079   -36545.366   -28018.854    375.87029   -2825.0353   -7078.1097    80.347029 
   11800    1298.9923   -110.00786    1.1753556    -108.8325   -588.71179    4.3233067    4.3233067    4.3233067   -588.71179   -62832.273    28693.335    32372.803   -19983.927   -2471.2032    18413.227    80.806844 
   11900    1248.7122   -109.94142    1.1298611   -108.81156   -11187.355    4.3081808    4.3081808    4.3081808   -11187.355   -10456.335   -15956.057   -7149.6737    1209.0886    16662.369   -30012.297    79.961655 
   12000    1435.9774   -110.10111    1.2993025   -108.80181    11292.509    4.2936812    4.2936812    4.2936812    11292.509    10563.822    46831.968   -23518.264   -4457.6605   -3027.3691    -4125.904    79.157014 
   12100    1601.0075   -110.26475    1.4486252   -108.81612    9086.5984     4.306737     4.306737     4.306737    9086.5984   -5994.6006    13071.535    20182.861   -6956.3405    -7314.757    5026.3717    79.881289 
   12200    1080.5404   -109.79801   0.97769567   -108.82031   -15203.393    4.3327341    4.3327341    4.3327341   -15203.393   -41797.174    28275.067   -32088.073   -13273.461    2793.9049   -26668.998    81.336617 
   12300    1043.1115   -109.74513   0.94382918    -108.8013   -7075.5564    4.3220249    4.3220249    4.3220249   -7075.5564   -63343.633    45814.042   -3697.0778   -18861.376    1018.8704   -2696.7666    80.734992 
   12400    1873.3104   -110.47577    1.6950106   -108.78076   -18504.993    4.2939954    4.2939954    4.2939954   -18504.993    -42889.34   -10719.081   -1906.5575    4977.0405   -2580.6736    12352.935    79.174387 
   12500    614.06925   -109.37879   0.55562276   -108.82317    7178.2887    4.3056326    4.3056326    4.3056326    7178.2887    19592.329    24525.741   -22583.204   -24583.248    6688.6415   -34567.713    79.819852 
   12600    1510.6532   -110.19616    1.3668707   -108.82929   -33376.044     4.309725     4.309725     4.309725   -33376.044    -12404.27   -24013.801   -63710.061    13427.406    6573.3824   -24246.258    80.047668 
   12700    1375.7212   -110.07379    1.2447815   -108.82901    23715.342    4.3031172    4.3031172    4.3031172    23715.342   -16051.678    65908.111    21289.594   -7791.4468   -1602.9721    14020.843    79.680034 
   12800      1270.22   -109.97757    1.1493217   -108.82825   -6552.4102    4.3196268    4.3196268    4.3196268   -6552.4102   -10671.398    31433.941   -40419.774   -14952.416    9509.2061   -11260.954    80.600674 
   12900    1246.6015   -109.94094    1.1279513   -108.81298   -32342.178    4.3235093    4.3235093    4.3235093   -32342.178   -13492.772   -6523.9863   -77009.775    19089.864    27020.248   -20457.715    80.818203 
   13000    1688.7464   -110.32043    1.5280132   -108.79242    15603.106    4.2983022    4.2983022    4.2983022    15603.106     4085.091    64625.848    -21901.62   -19131.189   -17386.465    11398.885    79.412862 
   13100    1813.4838   -110.44834    1.6408782   -108.80746   -18256.709    4.3072408    4.3072408    4.3072408   -18256.709    3113.2697   -26515.081   -31368.316   -1912.7902    2888.5504    -17970.69    79.909326 
   13200    901.91108   -109.63944    0.8160681   -108.82337    2995.6727    4.3205637    4.3205637    4.3205637    2995.6727   -7049.3107    54727.903   -38691.575    11258.499    19129.155   -28490.996     80.65313 
   13300    1936.7953   -110.55738    1.7524531   -108.80492    4983.4146    4.3058403    4.3058403    4.3058403    4983.4146   -6136.4705    7936.7747     13149.94   -4683.9616   -1332.7216    1857.8652    79.831402 
   13400    1857.2808   -110.49728    1.6805067   -108.81677   -1676.1256    4.3087463    4.3087463    4.3087463   -1676.1256   -4305.4854     11553.77   -12276.661   -1375.5825   -3344.8837   -3585.3625    79.993146 
   13500    912.41113   -109.65394   0.82556877   -108.82837   -2829.4483    4.3236078    4.3236078    4.3236078   -2829.4483    6286.6818    18690.696   -33465.723    16353.364    12275.867   -19780.786    80.823727 
   13600    1675.4119   -110.32365    1.5159479    -108.8077   -22508.514    4.3176635    4.3176635    4.3176635   -22508.514   -15480.211   -21106.822    -30938.51   -6684.9058    1073.6007   -3263.2572    80.490825 
   13700    1394.6291   -110.07073    1.2618897   -108.80884    46798.934    4.3063027    4.3063027    4.3063027    46798.934    29341.142    95006.737    16048.921   -3869.1417    7985.3423    23828.717    79.857121 
   13800    1282.6607   -109.98581    1.1605784   -108.82524    1350.4497    4.3142716    4.3142716    4.3142716    1350.4497    10109.291    55062.978    -61120.92   -8406.1983    14064.042   -1153.1482    80.301278 
   13900    1105.5754   -109.83351    1.0003479   -108.83316   -14867.331     4.329625     4.329625     4.329625   -14867.331   -14852.291    18079.625   -47829.326    -1230.686   -3634.2601   -13095.328    81.161646 
   14000    998.31071    -109.7159   0.90329251   -108.81261    10246.769    4.3336892    4.3336892    4.3336892    10246.769      35308.5   -9992.3196    5424.1251   -7822.6464   -1197.5094    14822.189     81.39042 
   14100    1354.8093   -110.00595    1.2258599   -108.78009    5946.7227     4.308251     4.308251     4.308251    5946.7227    41047.011    4251.1409   -27457.984   -6815.2627   -12683.652   -12867.373    79.965562 
   14200     1044.183   -109.73901   0.94479874   -108.79421    14936.049    4.2971105    4.2971105    4.2971105    14936.049    71531.081   -9385.3765   -17337.559   -10283.464    1352.8583   -33732.031    79.346827 
   14300    1214.1607   -109.92354    1.0985981   -108.82494   -4847.1985    4.3289685    4.3289685    4.3289685   -4847.1985   -36101.854    7107.1403    14453.119   -4830.0981   -57.276376    25231.143    81.124735 
   14400    1771.0716   -110.39739    1.6025028   -108.79488   -45717.597    4.3338659    4.3338659    4.3338659   -45717.597   -47009.231   -27408.973   -62734.586    14970.616    8234.8877   -8210.5753    81.400373 
   14500    856.67017   -109.57591   0.77513317   -108.80077    17008.114    4.2918654    4.2918654    4.2918654    17008.114     54512.98    34260.448   -37749.086   -6248.4954    3566.1416   -51226.567    79.056627 
   14600    1385.3529   -110.07091    1.2534964   -108.81741    23613.476    4.2802296    4.2802296    4.2802296    23613.476     44459.04    24222.063    2159.3264    15859.482   -11203.132    3854.0395    78.415369 
   14700    1607.4347   -110.30186    1.4544407   -108.84742   -26650.106    4.3269822    4.3269822    4.3269822   -26650.106    -36886.74    23408.789   -66472.367   -1893.3683   -10118.925    7198.0003    81.013114 
   14800    1199.2043   -109.90272    1.0850652   -108.81765   -40147.759    4.3291411    4.3291411    4.3291411   -40147.759    16136.415   -36919.614   -99660.079   -20039.237    2629.2498    -27405.52    81.134436 
   14900     1416.611   -110.06356    1.2817794   -108.78178    32427.697    4.2750961    4.2750961    4.2750961    32427.697    35407.337    53262.946    8612.8074    14612.012     6851.359   -2329.1382    78.133566 
   15000    1542.1905   -110.22544    1.3954064   -108.83003    12134.931    4.2933107    4.2933107    4.2933107    12134.931    54374.198   -492.50498   -17476.901    15509.177   -21780.847    8516.9616    79.136519 
   15100    1269.5595   -109.96446    1.1487241   -108.81574   -28501.497    4.3346207    4.3346207    4.3346207   -28501.497    29626.428   -30379.201   -84751.719    7752.0894    3156.2153   -15668.225    81.442914 
   15200    1299.4552   -109.97385    1.1757744   -108.79807    7131.6526    4.3203133    4.3203133    4.3203133    7131.6526    37098.265    36217.232   -51920.539   -5186.1442     -10434.6    8185.7615    80.639111 
   15300    1691.1555    -110.3172     1.530193   -108.78701    3385.7022    4.3037353    4.3037353    4.3037353    3385.7022    16914.266    -7393.961    636.80186    23121.731   -627.93794   -3282.6449    79.714374 
   15400    1453.2301   -110.11674    1.3149132   -108.80183   -4625.3307    4.2968727    4.2968727    4.2968727   -4625.3307    43057.113   -10723.323   -46209.781    4148.3205    17121.485   -24020.885    79.333652 
   15500     1466.163   -110.15165    1.3266151   -108.82504    2428.1353    4.3027499    4.3027499    4.3027499    2428.1353   -25406.932    31035.078    1656.2599   -24575.931    8994.6113   -3585.4662    79.659635 
   15600    1651.2277   -110.31667    1.4940655   -108.82261   -21207.471    4.3178743    4.3178743    4.3178743   -21207.471   -15474.883   -34195.655   -13951.874     12027.01     2023.933    22196.682    80.502614 
   15700    1655.2786   -110.31316    1.4977308   -108.81543   -9966.9649    4.2934044    4.2934044    4.2934044   -9966.9649   -15348.901    16469.555   -31021.548    13861.043    12321.726     -13067.6    79.141701 
   15800    1162.8862   -109.88331    1.0522039    -108.8311    36522.845     4.295536     4.295536     4.295536    36522.845    95326.127    -9224.019    23466.427   -17449.022    9988.2906   -10419.793    79.259638 
   15900     1802.616   -110.44473    1.6310448   -108.81368    -19860.64    4.3245795    4.3245795    4.3245795    -19860.64    -28798.95   -7383.3433   -23399.625    8687.1366   -7638.3286    7963.3654    80.878231 
   16000    1443.2624   -110.10399    1.3058942   -108.79809   -18416.871    4.3084058    4.3084058    4.3084058   -18416.871   -30733.576   -11115.284   -13401.752     12839.93    15886.074   -25751.994    79.974182 
   16100    978.46655   -109.67876    0.8853371   -108.79343    48830.444    4.2887066    4.2887066    4.2887066    48830.444    90371.192    57578.551   -1458.4113   -15368.517    15133.662   -5700.4021    78.882201 
   16200    1827.0595   -110.45964    1.6531618   -108.80648    1136.7834     4.307605     4.307605     4.307605    1136.7834   -11816.567    38586.156   -23359.239    5938.2702   -8465.2138    6091.5831    79.929595 
   16300    1349.4663    -110.0352    1.2210255   -108.81418   -37061.856    4.3118092    4.3118092    4.3118092   -37061.856   -46570.429   -24101.692   -40513.447    2192.5611    9536.8452   -996.40885    80.163859 
   16400    652.25072   -109.39889   0.59017016   -108.80872    44615.522    4.2891007    4.2891007    4.2891007    44615.522    60379.789    26447.882    47018.894   -8524.8133    14569.801   -11997.969    78.903949 
   16500    2112.9055   -110.72481    1.9118013     -108.813    -13003.46    4.3056532    4.3056532    4.3056532    -13003.46   -21877.993    10965.947   -28098.335    114.75315   -10522.461    9839.3349    79.820995 
   16600    1037.9923   -109.75109   0.93919722   -108.81189    1834.8867    4.3236043    4.3236043    4.3236043    1834.8867    8177.3287   -23759.953    21087.285     6981.474    7532.1464    5813.7097     80.82353 
   16700    951.81149    -109.6605   0.86121904   -108.79929    754.59624    4.3168285    4.3168285    4.3168285    754.59624   -8483.2002   -3933.4366    14680.425   -4608.2272    4804.1908   -11972.937    80.444134 
   16800    2215.1927   -110.78941    2.0043529   -108.78506    -2673.862    4.2976576    4.2976576    4.2976576    -2673.862   -37256.357    23358.314    5876.4569   -5216.9483    -9802.058    551.89822     79.37714 
   16900    1295.5905    -109.9794    1.1722775   -108.80712    53378.969    4.2814934    4.2814934    4.2814934    53378.969    21755.204    55699.052    82682.651   -2209.3509    7773.8517   -5777.5687    78.484849 
   17000    1107.0819   -109.85772     1.001711   -108.85601    10515.464    4.3130164    4.3130164    4.3130164    10515.464    6822.5299    35383.831    -10659.97    8379.6482   -3624.2775   -23099.381    80.231205 
   17100    1958.5761   -110.56715    1.7721608   -108.79499   -27340.514    4.3398925    4.3398925    4.3398925   -27340.514   -44560.121   -11736.989   -25724.431   -3641.0243   -10575.271    9459.3773    81.740428 
   17200    1284.7314    -109.9405    1.1624519   -108.77805    22958.155    4.3078008    4.3078008    4.3078008    22958.155    3405.5872    62038.677    3430.1999    -3056.978    13413.306   -4699.8768    79.940497 
   17300    797.97491   -109.50609   0.72202447   -108.78407    36229.763    4.2925895    4.2925895    4.2925895    36229.763    8125.2987    75098.854    25465.137    8247.4909   -8045.6302   -20843.583    79.096646 
   17400    1860.1695   -110.48914    1.6831204   -108.80602   -13426.953    4.3107433    4.3107433    4.3107433   -13426.953   -23862.101    17279.616   -33698.373   -7174.5504    14416.715    674.51175    80.104424 
   17500    962.10418   -109.68544   0.87053208    -108.8149    18057.781    4.3252605    4.3252605    4.3252605    18057.781    193.76004    20904.743     33074.84   -18378.108    8278.2181    7546.2294    80.916446 
   17600    1149.5463   -109.84362    1.0401337   -108.80349   -14530.563     4.321013     4.321013     4.321013   -14530.563    17330.184   -10571.564   -50350.309   -4695.3127    339.38756   -13366.629    80.678294 
   17700    1260.7396   -109.93596    1.1407437   -108.79521    6316.2503    4.3061121    4.3061121    4.3061121    6316.2503    25788.685    14507.217   -21347.151   -10702.507   -10726.892   -16842.838     79.84652 
   17800    1373.0121   -110.03651    1.2423302   -108.79418    39737.082    4.2865982    4.2865982    4.2865982    39737.082    49648.865    68579.563    982.81864   -22298.514   -8202.0746    188.19214    78.765917 
   17900    1096.9883   -109.83708   0.99257806    -108.8445   -20754.524    4.3151295    4.3151295    4.3151295   -20754.524    2858.5843   -31931.111   -33191.047    5558.8245    10740.832   -19053.959    80.349188 
   18000    1421.9352   -110.09889    1.2865968    -108.8123   -41619.057    4.3258618    4.3258618    4.3258618   -41619.057   -24578.274   -31770.205   -68508.693   -2528.4414   -6896.6047   -17341.087    80.950197 
   18100    1404.4551   -110.05176    1.2707805   -108.78098    56331.501    4.2852993    4.2852993    4.2852993    56331.501    56061.416    54529.152    58403.935   -6529.2993   -8051.0367     9352.159    78.694338 
   18200    1233.2659   -109.93822    1.1158849   -108.82233   -36542.532    4.3026228    4.3026228    4.3026228   -36542.532   -34886.926   -33399.568   -41341.102    3512.6452     9201.555   -38714.552    79.652576 
   18300     1277.346   -109.96466    1.1557695   -108.80889   -19845.605     4.318405     4.318405     4.318405   -19845.605   -10347.604   -49510.448     321.2389    1013.6107    13442.181   -19309.519    80.532301 
   18400    2077.9067   -110.67292    1.8801337   -108.79278    -12995.37    4.3007004    4.3007004    4.3007004    -12995.37    -1011.201   -15582.966   -22391.944    2611.0605    6620.0847    14744.388    79.545859 
   18500    1063.9577   -109.77865   0.96269129   -108.81596   -9018.4493    4.2946945    4.2946945    4.2946945   -9018.4493    48634.814   -35689.855   -40000.307    -12061.01    3503.9819   -51020.671    79.213067 
   18600    1792.9779   -110.43872    1.6223241    -108.8164    1996.4968    4.2914938    4.2914938    4.2914938    1996.4968    2443.1386    5402.2646   -1855.9128    18821.524    9315.6565   -4121.1851    79.036096 
   18700    1641.1592   -110.31529    1.4849553   -108.83033   -28608.424    4.3186007    4.3186007    4.3186007   -28608.424   -4931.3267   -50721.459   -30172.485   -7632.1836   -12414.517    8939.1488    80.543252 
   18800     1418.931   -110.10374    1.2838786   -108.81986   -40697.451    4.3101393    4.3101393    4.3101393   -40697.451   -4283.6275   -52941.337    -64867.39   -6581.5773   -4710.0156   -40682.197    80.070752 
   18900    1467.6429   -110.12981    1.3279542   -108.80186    57715.832    4.2775974    4.2775974    4.2775974    57715.832    32114.766    92137.963    48894.767    3986.2763    9325.2169   -11681.657    78.270791 
   19000    2044.9222   -110.67185    1.8502886   -108.82156   -26059.741    4.3011748    4.3011748    4.3011748   -26059.741   -17710.062   -27389.674   -33079.486   -9950.2477   -2918.2255   -1415.9276    79.572186 
   19100    991.30606   -109.72201   0.89695455   -108.82506   -2983.3088    4.3111993    4.3111993    4.3111993   -2983.3088    36986.224    20603.653   -66539.804     20610.45    4203.4343   -33138.212    80.129846 
   19200     1518.779    -110.1851    1.3742231   -108.81088   -6690.3732    4.3074287    4.3074287    4.3074287   -6690.3732   -6455.2353    51751.318   -65367.202     -17643.6    1029.2329   -831.47932    79.919785 
   19300    1498.5971   -110.15987    1.3559622   -108.80391   -5487.2044    4.3072693    4.3072693    4.3072693   -5487.2044   -3751.7304    9293.7483   -22003.631   -5290.7275   -2615.7943    2984.2779    79.910908 
   19400    1205.3419   -109.90417    1.0906187   -108.81355    1681.2429    4.2929162    4.2929162    4.2929162    1681.2429    33802.683     9929.269   -38688.223    8366.4809    12037.645   -28586.974     79.11471 
   19500    1080.9665   -109.80309   0.97808118   -108.82501    21247.562    4.2884088    4.2884088    4.2884088    21247.562    80509.364    35927.379   -52694.059   -7381.7065   -10438.912   -11892.905    78.865766 
   19600    1573.1812   -110.25578    1.4234474   -108.83233   -25180.455    4.3097265    4.3097265    4.3097265   -25180.455   -7727.8597   -22285.561   -45527.943    15791.634   -8689.7149    8067.8292    80.047752 
   19700    985.95114   -109.71122   0.89210931   -108.81911   -43625.085    4.3210512    4.3210512    4.3210512   -43625.085    3926.7114   -36222.312   -98579.653    5472.9996    6902.6712   -41734.708    80.680438 
   19800    1107.8205   -109.80391    1.0023793   -108.80153    4789.1588    4.2917082    4.2917082    4.2917082    4789.1588    53607.788    7561.1651   -46801.476   -10920.092    3124.0283   -18572.145    79.047938 
   19900    1823.4944   -110.44654    1.6499361   -108.79661    29695.512    4.2807015    4.2807015    4.2807015    29695.512    28790.234    55128.959    5167.3422     16038.29    72.415697    15780.024    78.441309 
   20000    1432.9123   -110.13211    1.2965292   -108.83558   -28804.222    4.3069339    4.3069339    4.3069339   -28804.222    19939.042   -23394.008     -82957.7   -12902.776   -3158.6541   -43249.597    79.892241 
   20100    821.17018   -109.57979   0.74301204   -108.83678    666.66343    4.3087986    4.3087986    4.3087986    666.66343    71460.223    -13829.79   -55630.443    16121.212    1399.1855   -1404.3161     79.99606 
   20200    2091.6311   -110.70678    1.8925518   -108.81423   -23352.066    4.3004153    4.3004153    4.3004153   -23352.066    1832.3299   -20233.338    -51655.19   -16328.068    2812.9188    9534.4721    79.530036 
   20300    1246.3892   -109.95181    1.1277591   -108.82405    9169.1337    4.2927493    4.2927493    4.2927493    9169.1337    62424.097   -2864.3807   -32052.315     20236.09    1929.0089   -59500.332    79.105482 
   20400    1432.6739   -110.12851    1.2963135   -108.83219   -3998.3766    4.2860046    4.2860046    4.2860046   -3998.3766    29805.475   -4334.1317   -37466.473   -14137.157   -7117.1652     12018.41      78.7332 
   20500    1452.5663   -110.15913    1.3143125   -108.84482   -16469.477    4.3078332    4.3078332    4.3078332   -16469.477   -10087.451   -15167.191    -24153.79     14286.18    7893.9184    29066.407      79.9423 
   20600    1718.5302   -110.37676    1.5549622    -108.8218   -28686.669    4.3140805    4.3140805    4.3140805   -28686.669   -2118.3299   -44241.106    -39700.57    21311.445   -15992.548   -32235.166    80.290607 
   20700    1048.7823   -109.76216   0.94896031    -108.8132     23643.44    4.2969325    4.2969325    4.2969325     23643.44    39620.607    4735.1013    26574.612   -13681.071    20712.999   -12764.933    79.336965 
   20800    1492.7369   -110.16618    1.3506597   -108.81552    9141.6863    4.2961012    4.2961012    4.2961012    9141.6863    58969.069   -27673.805   -3870.2045    1434.8145   -2270.4415     31458.98    79.290931 
   20900    1699.5247   -110.37241    1.5377657   -108.83465   -2809.5939    4.3016169    4.3016169    4.3016169   -2809.5939    4781.6388   -38855.737    25645.316   -6373.9416   -3006.2599   -19850.292    79.596724 
   21000    1138.8354   -109.87227    1.0304422   -108.84183    15588.454    4.3051627    4.3051627    4.3051627    15588.454     86434.93   -43373.573    3704.0041    7195.2088   -16914.749   -14919.615    79.793721 
   21100    1648.3591   -110.32011      1.49147   -108.82864   -9261.5127    4.3100808    4.3100808    4.3100808   -9261.5127    21190.245   -39263.448   -9711.3348   -15061.004   -9814.8631    35819.512    80.067492 
   21200    1560.3276   -110.22706    1.4118172   -108.81525   -4127.8349    4.3075305    4.3075305    4.3075305   -4127.8349     22838.38    -35663.33     441.4456    17553.803   -21464.438   -32507.639    79.925447 
   21300    1167.9533   -109.86859    1.0567887    -108.8118    2776.4483    4.3014502    4.3014502    4.3014502    2776.4483    61801.846   -39365.071    -14107.43    353.78393   -13650.969   -7873.8555    79.587468 
   21400    1464.5757   -110.13879    1.3251789   -108.81361   -10258.878    4.3091096    4.3091096    4.3091096   -10258.878    44246.794     -41673.1   -33350.329    9885.7903    3869.8541    40422.382    80.013379 
   21500    1261.8393   -109.95007    1.1417387   -108.80833   -20664.681    4.3227181    4.3227181    4.3227181   -20664.681    27397.358   -43230.535   -46160.864    9392.6278    -18161.21    -22532.91    80.773844 
   21600    1323.7457   -109.99355     1.197753    -108.7958   -14316.441    4.3146695    4.3146695    4.3146695   -14316.441    56102.069   -50511.199   -48540.192    19077.085   -1754.6458    12683.858    80.323495 
   21700    1140.7065   -109.83288    1.0321352   -108.80074    -19550.66    4.3134214    4.3134214    4.3134214    -19550.66     23543.96   -60085.314   -22110.627   -1176.5408    -10260.56    33839.013    80.253809 
   21800     1232.682   -109.91678    1.1153566   -108.80142   -18114.042    4.3060695    4.3060695    4.3060695   -18114.042        18001   -49609.383   -22733.742    12589.329    3665.1323   -36096.069    79.844149 
   21900    1115.0455   -109.81408    1.0089166   -108.80516    7840.0747    4.2953037    4.2953037    4.2953037    7840.0747     42969.52   -42664.376    23215.081    18835.375   -238.61377    12663.919    79.246781 
   22000    1748.1591   -110.39858    1.5817711   -108.81681   -26861.577    4.3089282    4.3089282    4.3089282   -26861.577   -3301.8327    -35756.17   -41526.727   -12396.236   -14329.772    25537.539    80.003275 
   22100     1275.763   -109.96765    1.1543371   -108.81332   -11655.135    4.3161305    4.3161305    4.3161305   -11655.135    31666.366   -72311.113    5679.3429    12762.662   -354.42626   -26058.586    80.405119 
   22200    1253.0556   -109.94414    1.1337911   -108.81035    2277.8593     4.305305     4.305305     4.305305    2277.8593    43352.131   -48034.465    11515.911   -7317.7244   -4242.3176   -1456.2395    79.801631 
   22300    1894.3835   -110.51757     1.714078   -108.80349    4384.0225    4.2994274    4.2994274    4.2994274    4384.0225    11842.026   -16913.366    18223.407    2179.7615    19484.626    9.9694802    79.475243 
   22400    1291.6325    -109.9882    1.1686962    -108.8195   -13950.473     4.309448     4.309448     4.309448   -13950.473   -5602.9568    -57841.05    21592.588    2574.3762   -6941.8542   -13767.783    80.032234 
   22500    1116.2663   -109.83199    1.0100212   -108.82197   -27658.918    4.3117495    4.3117495    4.3117495   -27658.918   -17984.648   -48313.969   -16678.138    4131.0581    13602.668   -10488.042    80.160528 
   22600    2013.0553   -110.62399    1.8214547   -108.80254    1216.2149    4.2994413    4.2994413    4.2994413    1216.2149    4691.6132   -22714.863    21671.895   -1110.7139   -3057.7171    7474.6189    79.476016 
   22700    1134.3633   -109.84036    1.0263958   -108.81396   -24723.666    4.3162718    4.3162718    4.3162718   -24723.666   -7401.6656   -80814.764    14045.431      7267.21    2025.8581   -35682.793    80.413018 
   22800    1220.7016   -109.89963    1.1045165   -108.79511   -6269.9274    4.3115979    4.3115979    4.3115979   -6269.9274    44860.434    -33925.96   -29744.256   -1028.1634     6570.684   -6905.5012    80.152072 
   22900    1946.6022   -110.54916    1.7613266   -108.78783   -11126.979    4.3028768    4.3028768    4.3028768   -11126.979   -5610.3142   -43320.631    15550.008     6321.854   -4077.0777   -3500.7424    79.666681 
   23000    845.44522   -109.58817    0.7649766   -108.82319   -18595.564    4.3217055    4.3217055    4.3217055   -18595.564    66602.682   -48326.198   -74063.177    5848.5457    5808.0357   -27574.284    80.717091 
   23100    1311.7563   -109.98957    1.1869047   -108.80267   -8929.3628    4.3212826    4.3212826    4.3212826   -8929.3628    12433.976   -20202.793   -19019.272     4994.951    13145.723    157.22721    80.693401 
   23200    1429.8437   -110.09069    1.2937526   -108.79694    6539.7062    4.2978313    4.2978313    4.2978313    6539.7062    52385.286     3317.788   -36083.955   -8464.2441    3491.2209   -20949.437    79.386765 
   23300    1233.8743   -109.94244    1.1164354     -108.826   -17985.943    4.2928689    4.2928689    4.2928689   -17985.943    6396.8404   -50194.056   -10160.614    -5581.202   -7404.3339   -24553.766    79.112094 
   23400    1070.7129   -109.80612   0.96880353   -108.83732    6138.8634    4.3041066    4.3041066    4.3041066    6138.8634    24720.196   -12401.713    6098.1074    16808.579   -3764.8991    10520.777    79.735013 
   23500    1295.9792   -109.99801    1.1726292   -108.82538    -23576.68    4.3237909    4.3237909    4.3237909    -23576.68   -20185.826   -74572.338    24028.123     17355.63    8940.1489   -25188.462    80.833999 
   23600    1217.3519   -109.90261    1.1014856   -108.80112   -16560.025    4.3239178    4.3239178    4.3239178   -16560.025    25137.571   -74893.081    75.436393   -14920.046   -4144.1798   -26747.301    80.841113 
   23700    1501.1823   -110.13523    1.3583013   -108.77693    13084.259    4.2937109    4.2937109    4.2937109    13084.259   -9187.5198    6693.3697    41746.928    4716.7996   -8621.8473     25882.51    79.158651 
   23800    1217.9012   -109.91624    1.1019826   -108.81426    30549.804    4.2945626    4.2945626    4.2945626    30549.804    37682.061    20441.782    33525.568    2315.6119   -8303.2374   -17439.115    79.205766 
   23900     1769.506   -110.41813    1.6010862   -108.81704   -41373.178    4.3339022    4.3339022    4.3339022   -41373.178   -44004.763   -47878.318   -32236.453    -12025.26    26332.572    -24718.49    81.402422 
   24000    1783.8859   -110.39355    1.6140974   -108.77945   -31701.904    4.3249538    4.3249538    4.3249538   -31701.904   -41159.874    -52464.49   -1481.3471    13.402652   -8346.1599    18248.858    80.899235 
   24100    1488.5798   -110.12038    1.3468983   -108.77349   -9312.7854    4.3005018    4.3005018    4.3005018   -9312.7854    38158.757   -13458.069   -52639.045   -8120.2968   -20442.352   -7485.4525     79.53484 
   24200    1441.5837   -110.09885    1.3043752   -108.79447   -17320.767    4.2970668    4.2970668    4.2970668   -17320.767    15237.468   -44842.281   -22357.486   -913.37886    8808.4101   -33889.073    79.344404 
   24300    1885.7426   -110.51807    1.7062595   -108.81181   -17722.796    4.2986856    4.2986856    4.2986856   -17722.796   -6754.0721   -35575.336    -10838.98    396.66138   -11527.769    13482.729    79.434114 
   24400    1012.3256   -109.74615    0.9159735   -108.83018   -21711.916    4.3253991    4.3253991    4.3253991   -21711.916    21692.266   -21723.688   -65104.325    314.11648   -13317.411   -4851.4308    80.924227 
   24500    1189.0267   -109.89811    1.0758563   -108.82225   -34403.127    4.3060329    4.3060329    4.3060329   -34403.127   -17069.547   -22921.426   -63218.407   -2594.7026    6934.5182   -29925.877    79.842112 
   24600     1144.771   -109.83648    1.0358129   -108.80067    47003.781     4.273299     4.273299     4.273299    47003.781     25543.42    22222.309    93245.613    4834.9664    23575.378   -17431.086    78.035075 
   24700    1780.2762   -110.45052    1.6108313   -108.83969   -5219.0869    4.3077988    4.3077988    4.3077988   -5219.0869    2577.1982   -6238.1955   -11996.263   -829.98569   -3905.4929    12399.284    79.940386 
   24800    1246.7159   -109.95016    1.1280548   -108.82211   -7468.9198    4.3320784    4.3320784    4.3320784   -7468.9198   -35274.918   -38849.529    51717.687   -9239.5288    -12452.68   -8082.3379    81.299699 
   24900     1197.594   -109.90283    1.0836082   -108.81922   -29469.659    4.3071314    4.3071314    4.3071314   -29469.659   -30370.506   -41648.727   -16389.743   -314.53395    39177.358   -18645.592    79.903233 
   25000    1273.7579   -109.95453    1.1525229   -108.80201    51206.791    4.2774693    4.2774693    4.2774693    51206.791    78811.395    24057.005    50751.972   -1666.1328    3781.9894    7054.4662    78.263761 
   25100    1613.0958   -110.30502     1.459563   -108.84546   -777.39054    4.3129828    4.3129828    4.3129828   -777.39054   -23979.747    -44856.52    66504.095    -10582.45    3251.4887   -1150.1733    80.229333 
   25200    979.79046   -109.70753     0.886535     -108.821   -18749.361    4.3287633    4.3287633    4.3287633   -18749.361   -55737.824   -42118.594    41608.335    6852.6745     43737.52   -10198.314    81.113197 
   25300    1481.8278   -110.14018     1.340789   -108.79939    16165.793     4.297834     4.297834     4.297834    16165.793    49416.949   -35536.492    34616.923     3563.909    22323.109   -2615.1605    79.386911 
   25400    1706.8024   -110.35597    1.5443507   -108.81162    12757.821    4.2929286    4.2929286    4.2929286    12757.821    43949.167   -37796.536    32120.833    -6580.374   -11944.682    18667.269    79.115396 
   25500    1572.0309   -110.24678    1.4224066   -108.82437    28725.683    4.2881733    4.2881733    4.2881733    28725.683    29289.102    18983.876     37904.07   -3565.3728      21576.7    4813.1341    78.852775 
   25600    1114.3969    -109.8701    1.0083298   -108.86177     15023.87    4.3126532    4.3126532    4.3126532     15023.87    10553.803   -23135.508    57653.316   -1790.8675    15339.532    4653.5648    80.210938 
   25700    1727.9203   -110.38055    1.5634586   -108.81709   -33176.773    4.3268758    4.3268758    4.3268758   -33176.773   -4819.6131     -70453.7   -24257.005   -3462.4361   -11946.217    9643.7284     81.00714 
   25800    1368.5024    -110.0377    1.2382497   -108.79945    51601.986    4.2792756    4.2792756    4.2792756    51601.986   -9287.8946    11944.853       152149   -1441.7398    19594.995   -12697.486    78.362951 
   25900    1651.8979   -110.32369    1.4946719   -108.82902   -2946.1676    4.2821054    4.2821054    4.2821054   -2946.1676   -11924.463     8560.774   -5474.8134    4424.9337    24503.705    27436.248    78.518511 
   26000    1322.0901   -110.03616    1.1962549   -108.83991   -16524.238    4.3145398    4.3145398    4.3145398   -16524.238   -39939.268   -37568.765    27935.318    3491.8779   -12546.481    14267.123    80.316253 
   26100    1625.3746   -110.30046    1.4706731   -108.82979   -25932.831    4.3122173    4.3122173    4.3122173   -25932.831   -18838.388   -66662.282    7702.1771   -5844.6264    1751.9484   -30338.833    80.186621 
   26200    1564.8948   -110.23917    1.4159497   -108.82322    6734.0749    4.2938297    4.2938297    4.2938297    6734.0749   -17758.169    7751.2741    30209.119    3938.0959    26874.719    5716.5555    79.165225 
   26300    1091.8695   -109.82685   0.98794647    -108.8389    30092.661    4.2996852    4.2996852    4.2996852    30092.661    -13252.57   -7369.8644    110900.42   -6748.1558    6492.8195    3869.4098    79.489538 
   26400    1776.1424   -110.44029    1.6070909    -108.8332   -18516.007    4.3114311    4.3114311    4.3114311   -18516.007    1899.0111   -28822.377   -28624.656   -12147.328   -20171.523   -15370.475    80.142772 
   26500    1385.4643   -110.07674    1.2535972   -108.82314    26813.993    4.3024473    4.3024473    4.3024473    26813.993    7010.7786   -33988.363    107419.56    11175.177    7309.3058    6235.2613    79.642828 
   26600    1650.1475   -110.31823    1.4930881   -108.82515    -9347.024    4.2991775    4.2991775    4.2991775    -9347.024   -15695.907   -24464.618    12119.453     2843.995    1669.7101    -2057.802    79.461385 
   26700    1307.3066   -110.01511    1.1828785   -108.83224   -721.02766    4.3011377    4.3011377    4.3011377   -721.02766   -6983.7452   -23745.091    28565.754   -10118.161   -27291.306    10830.238    79.570123 
   26800    1641.6873   -110.32504    1.4854332   -108.83961   -24593.924    4.3027111    4.3027111    4.3027111   -24593.924   -37161.339   -36959.956    339.52261    582.85559    -14337.86   -24918.346    79.657482 
   26900    1723.4481   -110.40073     1.559412   -108.84131    22233.915    4.2801808    4.2801808    4.2801808    22233.915    9821.7102   -15614.343    72494.378    9864.6083    18956.331   -16685.731    78.412689 
   27000    1579.6296   -110.28708     1.429282    -108.8578    20224.542    4.2801308    4.2801308    4.2801308    20224.542   -19195.578    3632.9275    76236.278   -7674.3358   -4068.1163    18355.377    78.409942 
   27100    955.34909   -109.73096   0.86441994   -108.86654   -49098.136    4.3231325    4.3231325    4.3231325   -49098.136   -69539.534    -62754.41   -15000.463   -16281.256   -35696.084   -24223.439    80.797074 
   27200    1825.2882   -110.48139    1.6515591   -108.82983    -28226.64    4.3039349    4.3039349    4.3039349    -28226.64   -40772.155   -44082.208    174.44309    11614.666     4940.882   -8430.8126     79.72547 
   27300    1938.0516    -110.5516    1.7535899   -108.79801   -4874.8411    4.2753245    4.2753245    4.2753245   -4874.8411   -42492.891   -12541.769    40410.136   -568.89322   -2954.7882    19120.054    78.146087 
   27400    1028.4271   -109.76863   0.93054242   -108.83809   -29647.777    4.2990497    4.2990497    4.2990497   -29647.777   -85717.145   -828.30625   -2397.8794   -14953.197    -30662.03   -6892.2784    79.454301 
   27500    1515.5965   -110.20243    1.3713436   -108.83109    1514.7583     4.308652     4.308652     4.308652    1514.7583   -31747.547    7074.9737    29216.849    8277.1401     7137.174   -19703.616    79.987891 
   27600    2078.3035   -110.70834    1.8804927   -108.82784   -39904.103    4.3121016    4.3121016    4.3121016   -39904.103   -45028.673   -56691.502   -17992.134    -6040.047      9348.67    28809.508    80.180165 
   27700    1095.5333   -109.83556   0.99126152   -108.84429    31435.468    4.2777672    4.2777672    4.2777672    31435.468   -5146.0875    28788.548    70663.942   -11924.029   -19230.241    35182.526    78.280114 
   27800     1913.252    -110.5723    1.7311506   -108.84115   -653.53758    4.2690591    4.2690591    4.2690591   -653.53758   -15862.242    9890.0537    4011.5758   -107.61069   -15456.264   -24224.352    77.803031 
   27900    1056.0405   -109.81374   0.95552767   -108.85821   -34405.234      4.31338      4.31338      4.31338   -34405.234   -9111.2712   -38769.654   -55334.778    7052.7711     13169.69    26287.975      80.2515 
   28000    1278.4008   -109.98556    1.1567239   -108.82884   -37388.441    4.3153999    4.3153999    4.3153999   -37388.441   -18277.996   -87332.521   -6554.8069   -7602.4899    5035.9312     28403.37    80.364294 
   28100    1967.2012   -110.59552     1.779965   -108.81555    2366.7869    4.2865182    4.2865182    4.2865182    2366.7869   -33766.278     8741.028    32125.611    -11242.75    -18905.99   -9260.8242    78.761507 
   28200    1671.5083   -110.33618    1.5124158   -108.82377    49547.271    4.2686279    4.2686279    4.2686279    49547.271    31615.268   -877.67741    117904.22    3714.2742    13889.369    13361.749    77.779457 
   28300    647.31821    -109.4628   0.58570712    -108.8771   -34940.207    4.3064353    4.3064353    4.3064353   -34940.207   -19827.647   -35294.434   -49698.539   -12040.928    10155.393    28547.503    79.864499 
   28400    1338.8252   -110.05894    1.2113971   -108.84754   -44231.243    4.3035133    4.3035133    4.3035133   -44231.243   -31172.221   -59070.366   -42451.141   -11086.078     6664.062   -15782.176     79.70204 
   28500     1443.285   -110.13089    1.3059146   -108.82498    58737.696    4.2749762    4.2749762    4.2749762    58737.696    28648.895    42703.198       104861    295.72755   -11241.506   -6482.4468     78.12699 
   28600    1869.6262   -110.52889    1.6916771   -108.83721   -11204.694    4.2913772    4.2913772    4.2913772   -11204.694    3694.2204   -18377.599   -18930.705   -1220.1579   -29.447698    19144.176    79.029652 
   28700    991.84007   -109.75196   0.89743774   -108.85453   -4963.3719    4.2944133    4.2944133    4.2944133   -4963.3719    -2747.343    -1482.336   -10660.437   -1823.0767    18148.547   -3265.1442     79.19751 
   28800    981.90054   -109.74727   0.88844424   -108.85883   -24603.129    4.2925397    4.2925397    4.2925397   -24603.129    7249.1593   -39373.537   -41685.009   -2365.7752   -9231.9992    -22814.27    79.093893 
   28900    1636.9614   -110.32453     1.481157   -108.84338    8202.4733    4.2888721    4.2888721    4.2888721    8202.4733    18557.018    4280.0701    1770.3316   -3973.2525   -4726.0721   -11039.518    78.891329 
   29000    1552.3063   -110.24424    1.4045593   -108.83968   -8835.3949    4.2983971    4.2983971    4.2983971   -8835.3949     2759.255    19707.081    -48972.52    5807.8974    15754.132    18980.633    79.418123 
   29100    800.82714   -109.55914   0.72460522   -108.83454   -25597.308    4.3054035    4.3054035    4.3054035   -25597.308    2511.2943   -13120.239   -66182.979    27.146561   -6312.8196    -25958.48    79.807107 
   29200    1270.0797   -109.97429    1.1491948   -108.82509    2176.1852    4.2831839    4.2831839    4.2831839    2176.1852    31550.493   -21521.717   -3500.2199    -12743.96   -2237.4061   -7097.3232    78.577853 
   29300    1746.9058    -110.4135    1.5806371   -108.83287    27987.032    4.2783811    4.2783811    4.2783811    27987.032    11862.951    42920.092    29178.052    51.130257    5832.0433     24471.92    78.313821 
   29400    2068.8076   -110.71673    1.8719005   -108.84483   -10274.079    4.2940914    4.2940914    4.2940914   -10274.079    14248.176   -33923.672    -11146.74    7003.3946   -3312.2927    -10451.25    79.179702 
   29500    1072.9154   -109.83021   0.97079641   -108.85941    927.96453    4.2998495    4.2998495    4.2998495    927.96453    -7973.808   -17175.066    27932.768   -8182.1654    -8435.315   -10449.128    79.498652 
   29600    1048.6285   -109.80541   0.94882106   -108.85659   -25133.314    4.3054502    4.3054502    4.3054502   -25133.314   -21553.523   -71126.243    17279.823   -16473.893   -5080.9701    19205.439    79.809707 
   29700    1913.8408   -110.56781    1.7316834   -108.83612    3187.1763    4.2819088    4.2819088    4.2819088    3187.1763   -6140.5869   -2242.0061    17944.122   -1006.5221    8395.0238    19447.649    78.507698 
   29800    1773.3959   -110.45027    1.6046059   -108.84567    38276.704    4.2704313    4.2704313    4.2704313    38276.704    15301.805    47312.702    52215.605    7427.3331   -2682.9592   -9533.0403    77.878077 
   29900     1126.375   -109.89385    1.0191678   -108.87468   -30226.614    4.3002412    4.3002412    4.3002412   -30226.614    434.20681   -56867.421   -34246.628   -1902.8421   -8468.5084     12164.68    79.520379 
   30000    705.10813   -109.49613   0.63799665   -108.85813   -4287.6036    4.3021875    4.3021875    4.3021875   -4287.6036   -9914.2546   -10769.265    7820.7087    6229.3232   -598.43704    11228.856      79.6284 
   30100    1593.8235   -110.27368     1.442125   -108.83156   -7301.2082    4.2948049    4.2948049    4.2948049   -7301.2082   -22328.438   -18060.096     18484.91    8945.5981    4170.4751   -10802.956    79.219176 
   30200    1437.1271   -110.12113    1.3003428   -108.82079    8186.1202    4.2927689    4.2927689    4.2927689    8186.1202   -1099.1779     33969.88   -8312.3414     7603.123    9362.1652    10056.868    79.106563 
   30300    1215.4247   -109.92676    1.0997418   -108.82702    12470.842     4.291674     4.291674     4.291674    12470.842    45733.804    -17945.95    9624.6722   -4321.1455   -8542.4846     10992.94    79.046051 
   30400    881.11262   -109.63628   0.79724921   -108.83903   -9284.6256    4.3082795    4.3082795    4.3082795   -9284.6256   -9543.1795    62.977981   -18373.675   -2504.4127    19842.624   -18252.486    79.967149 
   30500     1708.112   -110.37715    1.5455356   -108.83161   -24132.473    4.2997521    4.2997521    4.2997521   -24132.473   -41111.797   -12595.188   -18690.434   -4179.0725    15858.647    8384.6158    79.493249 
   30600    1605.4521   -110.27715    1.4526468    -108.8245    25506.182    4.2807979    4.2807979    4.2807979    25506.182     18327.67    52201.031    5989.8438   -8711.1698   -5935.0919    9839.1029    78.446611 
   30700    1297.6999   -110.01666    1.1741861   -108.84247   -14382.676    4.2991946    4.2991946    4.2991946   -14382.676    5355.4181   -42437.598   -6065.8473    6899.6479     11117.15   -6355.1882    79.462335 
   30800    1030.4815    -109.7581    0.9324013    -108.8257    -4370.029    4.3230927    4.3230927    4.3230927    -4370.029   -19490.203   -7756.0596    14136.175   -6008.0116    532.95932   -6187.9682    80.794843 
   30900     2234.885    -110.8215    2.0221709   -108.79933    -3135.221    4.3038928    4.3038928    4.3038928    -3135.221    3393.2241     744.1917   -13543.079   -10065.347    1438.4949     14972.17    79.723127 
   31000     1596.182   -110.25523     1.444259   -108.81097     22675.97     4.278694     4.278694     4.278694     22675.97    39554.618    27538.251    935.04058    8727.0781    8254.7329    -7597.387       78.331 
   31100    946.04575   -109.70082   0.85600207   -108.84482    1481.1708      4.28547      4.28547      4.28547    1481.1708    8618.7119   -22549.327    18374.128   -11830.762   -3749.2418   -23908.896    78.703739 
   31200    1384.1828   -110.09767    1.2524376   -108.84524   -2606.4855    4.3033803    4.3033803    4.3033803   -2606.4855    22224.701    3.6836384   -30047.841   -9558.1601   -2314.4885    2576.3102    79.694651 
   31300    1672.6167   -110.33816    1.5134187   -108.82474   -3545.7285    4.3124915    4.3124915    4.3124915   -3545.7285   -4570.6784    34153.901   -40220.408    2520.2128   -3035.8096    7263.8859     80.20192 
   31400    1531.2652   -110.20914     1.385521   -108.82362   -10462.912    4.2917516    4.2917516    4.2917516   -10462.912   -18808.787    2891.3669   -15471.316   -11708.077   -3627.9209   -9884.5002    79.050339 
   31500    913.91035   -109.66002   0.82692529   -108.83309    18119.173    4.2777147    4.2777147    4.2777147    18119.173    26295.459    1106.4536    26955.607   -18375.123    12044.286   -16024.534    78.277227 
   31600    1485.2882   -110.19416      1.34392   -108.85024   -6839.0095    4.3043043    4.3043043    4.3043043   -6839.0095   -3129.3472    8609.9674   -25997.649   -4261.2759   -4837.4968    -14072.78       79.746 
   31700    2001.2677   -110.62593    1.8107891   -108.81514   -33063.026    4.3255087    4.3255087    4.3255087   -33063.026   -28085.663   -33024.426   -38078.987   -7808.4775     3950.298   -1742.0021    80.930376 
   31800    1049.2113   -109.75479   0.94934843   -108.80544   -5985.2397    4.3128018    4.3128018    4.3128018   -5985.2397    13912.943    13718.954   -45587.616   -31380.135    6829.4459   -1336.7687     80.21923 
   31900    1279.5627   -109.95774    1.1577752   -108.79996     1684.226    4.2878367    4.2878367    4.2878367     1684.226    37103.477   -839.88525   -31210.914    8621.7453   -15337.246   -1522.5999    78.834209 
   32000    1937.1241   -110.56265    1.7527506    -108.8099    30113.705     4.285593     4.285593     4.285593    30113.705   -1496.2925    82785.491    9051.9167   -2354.9572   -5448.5887    1184.8355    78.710516 
   32100    1622.6062   -110.30049    1.4681682   -108.83232   -19857.862    4.3105915    4.3105915    4.3105915   -19857.862    8415.7647   -30518.695   -37470.656   -16929.993    2247.7584   -5069.3412    80.095959 
   32200    1021.0499   -109.75724   0.92386745   -108.83337   -11675.401    4.2992487    4.2992487    4.2992487   -11675.401    -5090.855     5017.625   -34952.973   -6985.7101   -2458.7158     3148.084    79.465333 
   32300    1593.4055   -110.27517    1.4417467   -108.83342    11885.969    4.2795033    4.2795033    4.2795033    11885.969    19821.742   -10001.358    25837.524    28084.491     1587.066    820.36311    78.375458 
   32400    1689.3208   -110.37537     1.528533   -108.84683   -5197.6283    4.2975119    4.2975119    4.2975119   -5197.6283   -13616.503    18485.425   -20461.807    26088.294   -1329.8623   -2818.6198    79.369065 
   32500     1263.286    -109.9762    1.1430477   -108.83316   -25262.784    4.3201812    4.3201812    4.3201812   -25262.784   -26321.568    25203.905    -74670.69   -13395.417   -9696.9455   -1261.6144    80.631715 
   32600    941.22812   -109.66514   0.85164298   -108.81349    5842.8149    4.3082803    4.3082803    4.3082803    5842.8149   -21578.695     57292.74   -18185.601    22880.914    4934.7157    10179.795    79.967191 
   32700    1322.3015   -110.00054    1.1964462   -108.80409    23585.197    4.2863206    4.2863206    4.2863206    23585.197   -7911.8717    59472.619    19194.845    9851.0294   -16332.175    9803.1917    78.750613 
   32800    1644.3518   -110.31535    1.4878441   -108.82751   -8631.2149    4.3036903    4.3036903    4.3036903   -8631.2149    10173.334    10321.333   -46388.311   -5304.8852    2739.4255   -2823.3198    79.711879 
   32900    1577.9069   -110.25643    1.4277234   -108.82871   -29120.265    4.3133962    4.3133962    4.3133962   -29120.265   -17045.547   -42159.091   -28156.157   -7894.2176   -1488.5169    4446.0505    80.252404 
   33000    1453.2127   -110.13454    1.3148973   -108.81965   -40023.908    4.3073607    4.3073607    4.3073607   -40023.908   -61314.221   -36526.283    -22231.22    3645.0134   -17924.761    2447.9947       79.916 
   33100    1286.4419   -109.98494    1.1639996   -108.82094   -11405.166    4.3070558    4.3070558    4.3070558   -11405.166    -1254.579    31051.772   -64012.692   -16399.835    16108.734   -7777.2216    79.899028 
   33200    1725.1036   -110.37563      1.56091   -108.81472   -15679.931    4.3127798    4.3127798    4.3127798   -15679.931    -32356.98    37062.004   -51744.816    12133.623    18677.428   -5627.6475    80.218007 
   33300    1256.9574   -109.94678    1.1373215   -108.80945    23309.742    4.3091338    4.3091338    4.3091338    23309.742   -1903.3059    109260.44   -37427.909    11953.054   -20354.608     2614.012    80.014727 
   33400    859.36525   -109.60014   0.77757174   -108.82256    9681.5426    4.3087757    4.3087757    4.3087757    9681.5426   -39685.817    120971.02    -52240.57   -12735.203     2413.716   -139.83856    79.994785 
   33500    1549.0644   -110.22145     1.401626   -108.81982    8399.3839    4.3076642    4.3076642    4.3076642    8399.3839    27605.415    34344.675   -36751.939    2038.1193    10867.915   -48.349031    79.932889 
   33600    2342.0019   -110.94516    2.1190925   -108.82607   -1366.7546    4.2893523    4.2893523    4.2893523   -1366.7546    14390.946    22149.181   -40640.391    26775.628   -1279.5595     4785.044    78.917832 
   33700    1217.4488   -109.94855    1.1015733   -108.84698    23118.154    4.2783017    4.2783017    4.2783017    23118.154    37662.202    41870.343   -10178.083   -4675.0474    9404.8513   -1305.2042    78.309458 
   33800    1101.0593     -109.861   0.99626155   -108.86474   -34775.927    4.3042113    4.3042113    4.3042113   -34775.927   -53950.812   -25935.877   -24441.091   -28740.356   -3311.9041   -7974.0603    79.740831 
   33900     1734.615   -110.40047    1.5695161   -108.83096    -11413.24    4.3110491    4.3110491    4.3110491    -11413.24   -18931.667    13863.498   -29171.551   -2880.3932   -4293.9132    4943.0965    80.121471 
   34000    1876.9082    -110.5174     1.698266   -108.81913    15304.887    4.2906204    4.2906204    4.2906204    15304.887    28686.836    22386.843   -5159.0173    8727.3641     12762.33   -1994.9725    78.987849 
   34100    639.50926   -109.41327   0.57864142   -108.83463    21458.155    4.2871659    4.2871659    4.2871659    21458.155    1472.3559    18319.353    44582.756   -24318.091    16816.397   -1994.2243    78.797214 
   34200    1185.9563   -109.91253    1.0730782   -108.83945   -7605.7744    4.3166299    4.3166299    4.3166299   -7605.7744     23858.57   -33321.864   -13354.028   -12597.845   -2962.0159    1112.6085    80.433033 
   34300    1750.0727   -110.39045    1.5835025   -108.80695   -16699.662    4.3140906    4.3140906    4.3140906   -16699.662    3522.8699   -4019.8809   -49601.976    9190.9982   -7725.3636    3353.3171    80.291171 
   34400    1062.3332   -109.75382    0.9612214    -108.7926    48344.643    4.2659457    4.2659457    4.2659457    48344.643     11009.61    50730.953    83293.366   -49628.399    14990.227   -9702.2961    77.632926 
   34500    1354.1415   -110.05264    1.2252557   -108.82738   -3498.3867    4.2832281    4.2832281    4.2832281   -3498.3867   -24812.016    35411.931   -21095.075   -30066.689    10400.962   -11631.897    78.580288 
   34600    1602.2133   -110.26479    1.4497163   -108.81507   -17366.985    4.3149197    4.3149197    4.3149197   -17366.985   -18899.314    8996.0009   -42197.642    19328.457    -5558.009   -442.43031    80.337471 
   34700    1143.4332   -109.84657    1.0346024   -108.81197   -23545.505    4.3065859    4.3065859    4.3065859   -23545.505   -48559.997   -32065.595    9989.0777   -40099.988    3595.3036    7843.4399    79.872881 
   34800    1328.0383   -110.00556     1.201637   -108.80392    3401.4598    4.2814493    4.2814493    4.2814493    3401.4598   -30931.717    23259.299    17876.798    -27392.14    12957.201   -19971.376    78.482427 
   34900    1652.2722    -110.3004    1.4950106   -108.80539     23330.31    4.2780413    4.2780413    4.2780413     23330.31   -6487.4991     47719.73    28758.698    7574.5042    4948.9844    24367.541     78.29516 
   35000    1065.5795   -109.79719   0.96415874   -108.83304   -11429.076    4.3034505    4.3034505    4.3034505   -11429.076     -53640.9    623.58233    18730.089   -22605.643   -5671.1916     9260.856     79.69855 
   35100    1402.3257   -110.07981    1.2688538   -108.81095    -30176.74    4.3151577    4.3151577    4.3151577    -30176.74   -63678.678    2258.7148   -29110.255   -2932.8668    14753.394    -8986.533    80.350763 
   35200    1686.5285   -110.32043    1.5260064   -108.79442    6361.8098    4.2881631    4.2881631    4.2881631    6361.8098   -16912.908    23521.471    12476.867    11816.493    5437.7462    15905.755    78.852212 
   35300     1124.845   -109.82292    1.0177834   -108.80514    36025.114    4.2842854    4.2842854    4.2842854    36025.114    598.69381    66760.945    40715.704   -33809.302   -2388.7045    9763.3894    78.638495 
   35400    1284.8221   -109.97541     1.162534   -108.81288   -26300.079     4.311467     4.311467     4.311467   -26300.079    -66737.21    2892.3606   -15055.386   -24965.749    2093.8395    2825.2328    80.144774 
   35500    1819.4072   -110.43214    1.6462379    -108.7859   -27019.468    4.3056145    4.3056145    4.3056145   -27019.468   -5957.5238   -37830.857   -37270.023    16173.534    4150.0311    6134.1707    79.818842 
   35600    898.47466   -109.60496   0.81295875   -108.79201     8704.065    4.3005996    4.3005996    4.3005996     8704.065    1093.1646   -8924.7998     33943.83   -34273.847    3148.8881     12799.35    79.540265 
   35700    1411.1193   -110.06762    1.2768104   -108.79081   -33849.712    4.3031539    4.3031539    4.3031539   -33849.712   -59397.252   -31221.565    -10930.32   -22430.865    11029.342    320.33121    79.682073 
   35800    1627.5521   -110.26366    1.4726433   -108.79102    20803.861    4.2821804    4.2821804    4.2821804    20803.861    17805.215    34448.894    10157.475     15007.18   -2057.8665   -19339.831    78.522637 
   35900    999.35856   -109.72258   0.90424063   -108.81834    5119.4915     4.288961     4.288961     4.288961    5119.4915    28320.502   -22872.739    9910.7111   -39780.731   -443.29191    5169.2136    78.896238 
   36000    1302.4136   -109.99641    1.1784512   -108.81796   -41573.421    4.3034732    4.3034732    4.3034732   -41573.421   -54746.595   -55080.477   -14893.191   -31811.974     19597.38    17724.137    79.699812 
   36100     1705.169   -110.35047    1.5428728    -108.8076    300.39904    4.2883705    4.2883705    4.2883705    300.39904    6998.1107    12940.757   -19037.671    21650.871    7307.9132   -28247.986    78.863654 
   36200    1215.3817   -109.91766    1.0997029   -108.81796   -1241.0187    4.2905953    4.2905953    4.2905953   -1241.0187    32920.702   -44693.535    8049.7767   -31178.713   -3319.2042   -1105.5192    78.986464 
   36300    1305.8686   -110.00473    1.1815774   -108.82315   -26608.808    4.2971741    4.2971741    4.2971741   -26608.808   -35202.608   -49380.342    4756.5267   -34711.662    2797.4052    11873.121    79.350351 
   36400    1597.1647    -110.2569    1.4451481   -108.81175    23267.245    4.2843711    4.2843711    4.2843711    23267.245    56604.168    25627.171   -12429.605    9789.6771    2737.8597   -10756.336     78.64321 
   36500    1425.8414   -110.11662    1.2901313   -108.82648   -4772.6184    4.2957584    4.2957584    4.2957584   -4772.6184    15735.894   -43521.528    13467.779   -12487.959    4523.7183    13553.057    79.271952 
   36600     1603.725   -110.26457    1.4510841   -108.81348    867.40551    4.3016555    4.3016555    4.3016555    867.40551    22691.441    -9702.032   -10387.193   -11637.341    4200.2514    10127.736    79.598864 
   36700    1410.2247    -110.0809    1.2760009    -108.8049    3204.3468    4.2931162    4.2931162    4.2931162    3204.3468    56130.247    3851.2751   -50368.482    1608.3603    12278.893   -18941.504    79.125764 
   36800    1248.1156   -109.94935    1.1293213   -108.82003   -33381.066    4.2943805    4.2943805    4.2943805   -33381.066   -53864.478   -8048.4045   -38230.315    2884.0525   -11233.808    4031.8623    79.195695 
   36900    1924.4772   -110.55294    1.7413075   -108.81163    2983.3527    4.2875071    4.2875071    4.2875071    2983.3527    24658.185    15289.806   -30997.933   -1936.9852   -4259.6342    -2300.626    78.816032 
   37000    1336.0516   -110.04012    1.2088875   -108.83123   -24625.307    4.2952263    4.2952263    4.2952263   -24625.307   -6380.2041   -5742.2829   -61753.433    7714.0958    15007.234   -19525.999    79.242496 
   37100    1074.4079   -109.80342   0.97214682   -108.83127   -14903.293    4.2933761    4.2933761    4.2933761   -14903.293   -51342.268    48409.953   -41777.562    12410.222    -4058.623    5743.7822    79.140139 
   37200    1686.2587   -110.34839    1.5257623   -108.82263     9414.506    4.3014474    4.3014474    4.3014474     9414.506    25827.091    37392.991   -34976.563   -6384.5993   -6100.8443   -3106.6141    79.587314 
   37300    1465.9967   -110.14356    1.3264646    -108.8171   -30313.407    4.3061148    4.3061148    4.3061148   -30313.407   -12526.341    10978.112   -89391.991   -16008.047    14183.199   -6935.8496    79.846668 
   37400    1252.2436    -109.9376    1.1330564   -108.80455    248.82388    4.2857618    4.2857618    4.2857618    248.82388   -7639.2164    41960.937   -33575.249    15526.477     1883.068   -12170.252    78.719821 
   37500    1737.2333   -110.38555    1.5718852   -108.81367    25693.247    4.2911287    4.2911287    4.2911287    25693.247    42393.197    26534.098    8152.4478    18129.008   -10902.998    6188.3864    79.015925 
   37600    1344.1776    -110.0427    1.2162401   -108.82646   -33738.368    4.3101283    4.3101283    4.3101283   -33738.368   -20516.341   -21506.769   -59191.995   -13700.095    9374.8802    4174.9826    80.070139 
   37700    1081.1013   -109.79683   0.97820315   -108.81862    15854.882    4.2872914    4.2872914    4.2872914    15854.882    10597.074    51638.325   -14670.753   -21026.913    9731.6593   -7002.5323    78.804136 
   37800    1910.6688   -110.53113    1.7288133   -108.80231    28320.017    4.2853655    4.2853655    4.2853655    28320.017    27819.296    54822.648    2318.1078    19902.091   -8552.5876    1627.3574    78.697986 
   37900    1066.3608   -109.78604   0.96486563   -108.82117   -9728.6317    4.3021326    4.3021326    4.3021326   -9728.6317    5768.7676   -743.31243    -34211.35   -6110.5069    13884.076   -18396.503    79.625357 
   38000    1169.4226    -109.8731    1.0581182   -108.81498    15844.432    4.3003283    4.3003283    4.3003283    15844.432   -9120.7771    55772.614    881.45801   -5513.6923    6656.5395   -6653.8503    79.525213 
   38100    1798.7517   -110.42657    1.6275484   -108.79903    10831.996    4.3021534    4.3021534    4.3021534    10831.996    15548.365    29952.659   -13005.036   -528.22849   -3515.3915   -9514.8943     79.62651 
   38200    1130.0416   -109.83391    1.0224854   -108.81143   -10808.474    4.2949799    4.2949799    4.2949799   -10808.474   -13795.645   -7366.0396   -11263.738    -7047.944   -2601.4332   -31113.714     79.22886 
   38300    1220.6323   -109.92185    1.1044537    -108.8174   -7039.2075    4.2890658    4.2890658    4.2890658   -7039.2075   -11788.881   -2068.5967    -7260.145   -18546.064    881.82201    -349.3228    78.902021 
   38400    1590.8898   -110.25693    1.4394705   -108.81746    141.52173    4.2934979    4.2934979    4.2934979    141.52173   -31123.009   -4800.3244    36347.898   -20075.695     11835.04    8836.7691    79.146874 
   38500    1096.8411    -109.8202   0.99244487   -108.82776    14194.117    4.2927249    4.2927249    4.2927249    14194.117   -4026.4748    36605.514    10003.311    14631.536   -10234.982   -32731.257    79.104135 
   38600    1305.8945     -110.006    1.1816008    -108.8244    -9468.625    4.3045095    4.3045095    4.3045095    -9468.625   -3987.5849   -1208.5337   -23209.756   -7848.2053    1719.3633    2091.7291    79.757403 
   38700    1459.4501   -110.12999    1.3205411   -108.80945   -8979.9677    4.3023421    4.3023421    4.3023421   -8979.9677   -33962.225   -29952.637    36974.959   -15908.841    7344.5493    5492.5442    79.636986 
   38800    859.67648   -109.59396   0.77785334    -108.8161    1875.6361    4.2781076    4.2781076    4.2781076    1875.6361    5806.9039    5742.4073   -5922.4029    1170.7636   -9642.2602    -32608.65    78.298801 
   38900    1195.6295   -109.90741    1.0818307   -108.82558    28310.335    4.2860985    4.2860985    4.2860985    28310.335    63002.269    36604.195   -14675.458   -8629.3125    10291.875   -4649.0374    78.738372 
   39000    1807.9318   -110.44551    1.6358547   -108.80966   -879.93494    4.3140974    4.3140974    4.3140974   -879.93494    45508.697   -30915.084   -17233.419   -3349.4258    4565.0922    1723.4369     80.29155 
   39100    632.16599   -109.38416   0.57199707   -108.81216    5776.1219    4.3108488    4.3108488    4.3108488    5776.1219    52031.046   -22966.416   -11736.264    437.44096    -5734.847    -27054.14    80.110303 
   39200    1454.8831   -110.12235    1.3164088   -108.80594   -13114.557    4.2877816    4.2877816    4.2877816   -13114.557   -1127.2267   -10161.271   -28055.174    7994.6547   -17712.479    893.21358    78.831171 
   39300    1478.7299   -110.14423    1.3379859   -108.80625     57993.01    4.2641128    4.2641128    4.2641128     57993.01    76079.267    62904.637    34995.126   -290.52287    1297.1731   -3261.2596    77.532902 
   39400    1305.8879   -110.04039    1.1815948    -108.8588   -20641.324    4.2968965    4.2968965    4.2968965   -20641.324     6046.692   -35630.776   -32339.887   -4826.7009   -5181.1914   -26730.219    79.334973 
   39500    1647.2927   -110.29653     1.490505   -108.80603   -53426.497    4.3283554    4.3283554    4.3283554   -53426.497   -60016.938   -52587.921   -47674.633    3995.9044   -1485.5669    2991.6482    81.090267 
   39600    1750.4984   -110.36599    1.5838877    -108.7821    13205.098    4.2885861    4.2885861    4.2885861    13205.098    19954.707    3170.9693    16489.617   -3862.8748    5650.6061   -9492.5971    78.875552 
   39700    1349.9278   -110.00695     1.221443   -108.78551    6258.3044    4.2673567    4.2673567    4.2673567    6258.3044    59811.001    -28749.13   -12286.958   -13290.336   -15473.177   -46695.396    77.709988 
   39800    1594.9822    -110.2607    1.4431734   -108.81752   -13554.549    4.2938044    4.2938044    4.2938044   -13554.549   -24175.324    2925.4106   -19413.733    15450.904     10264.88    2829.4101    79.163826 
   39900    1851.2232   -110.48377    1.6750257   -108.80874   -10238.816    4.3048624    4.3048624    4.3048624   -10238.816   -7220.5181   -18623.557   -4872.3713   -7526.9313    1662.3379   -10193.902    79.777024 
   40000    1185.1795   -109.88569    1.0723753   -108.81331   -16799.647    4.3005042    4.3005042    4.3005042   -16799.647    22972.036   -51443.708   -21927.269   -6247.7945   -8324.6546   -43201.957    79.534972 
   40100    1660.9283    -110.3098    1.5028429   -108.80695    -249.7274    4.2889675    4.2889675    4.2889675    -249.7274    6408.7953   -15602.925    8444.9473   -943.36601    16819.222    11392.862    78.896598 
   40200    1824.2259   -110.45941    1.6505979   -108.80881    30761.444    4.2691762    4.2691762    4.2691762    30761.444     10005.49    39867.882    42410.961    1457.2424   -18844.013   -4657.7092    77.809429 
   40300    1288.6792   -110.01171    1.1660241   -108.84569   -26538.021    4.2869926    4.2869926    4.2869926   -26538.021    14850.162   -63459.864   -31004.362     11255.62   -3015.1625   -54091.597    78.787657 
   40400    1727.0122    -110.3863     1.562637   -108.82366   -30163.291    4.3045805    4.3045805    4.3045805   -30163.291   -10239.906   -30318.649   -49931.317   -16302.541    7336.6621    152.59972    79.761351 
   40500    1786.4022   -110.42535    1.6163742   -108.80898   -2767.7765    4.2936842    4.2936842    4.2936842   -2767.7765   -9331.2143   -7053.3227    8081.2074    13101.098   -5723.6111    12890.583    79.157176 
   40600    1239.6111   -109.94047    1.1216262   -108.81885   -17369.594    4.2797745    4.2797745    4.2797745   -17369.594    10173.416   -44554.691   -17727.505        10912    8214.3653   -49413.925    78.390361 
   40700    1677.3549   -110.34679    1.5177059   -108.82908    7983.0095    4.2760002    4.2760002    4.2760002    7983.0095    644.44409   -4183.1826    27487.767   -41580.717   -14151.063   -17560.478     78.18315 
   40800    1889.1162    -110.5433     1.709312   -108.83399    2628.9375     4.299168     4.299168     4.299168    2628.9375   -2212.2522    6398.5182    3700.5467    6205.1596     4836.115    21698.409    79.460861 
   40900    1415.6768   -110.11421    1.2809341   -108.83328   -16729.602    4.2945487    4.2945487    4.2945487   -16729.602   -14323.585   -31119.893   -4745.3271    26216.105     9147.413   -33293.819    79.205001 
   41000    1212.0628   -109.92138    1.0966999   -108.82468    26446.771    4.2744983    4.2744983    4.2744983    26446.771    27412.444    10533.699    41394.171   -20214.537   -6091.8903    -19130.99    78.100791 
   41100    1978.5127   -110.60905    1.7901999   -108.81885    1186.7323    4.2895499    4.2895499    4.2895499    1186.7323    4363.6949    -16229.51    15426.012   -4589.8882    20096.953    22347.625    78.928738 
   41200    1386.7569   -110.07763    1.2547668   -108.82286   -5440.7642    4.2967016    4.2967016    4.2967016   -5440.7642    16548.128   -20899.136   -11971.285    11312.511   -3987.8981   -18394.731    79.324177 
   41300    1482.6528   -110.16388    1.3415354   -108.82235   -8280.4486    4.2861645    4.2861645    4.2861645   -8280.4486   -1381.7497   -37896.585    14436.988    144.36506     2109.554   -32925.575    78.742009 
   41400    1948.0889    -110.5805    1.7626718   -108.81783     7432.289    4.2806335    4.2806335    4.2806335     7432.289   -19566.933   -4771.2196     46635.02   -4788.2426     11583.47    6391.6795    78.437573 
   41500    1379.1393   -110.08553    1.2478742   -108.83766   -5277.8583      4.29145      4.29145      4.29145   -5277.8583    1125.0764    1958.3758   -18917.027   -2817.8047   -6653.2731    10989.996    79.033675 
   41600    1209.8506   -109.92972    1.0946982   -108.83502   -17439.074    4.3037794    4.3037794    4.3037794   -17439.074   -13250.277   -13752.742   -25314.205   -32.826647    12322.506   -44857.228    79.716829 
   41700    1844.8577   -110.48162     1.669266   -108.81236    1404.9075    4.3013833    4.3013833    4.3013833    1404.9075   -5959.4117   -3956.3052    14130.439   -817.56938    8112.1615    10024.235    79.583756 
   41800    1392.3273   -110.07676     1.259807   -108.81696    17292.404    4.2779766    4.2779766    4.2779766    17292.404    38051.101   -332.33113    14158.443   -5422.6832    -8601.204    28411.994    78.291609 
   41900    785.80409   -109.54083   0.71101205   -108.82982    21889.849    4.2727506    4.2727506    4.2727506    21889.849    56334.356    -61859.94    71195.131    4520.5159    10889.125   -44326.434    78.005032 
   42000    1714.5476   -110.38016    1.5513587    -108.8288   -25179.338    4.3033085    4.3033085    4.3033085   -25179.338   -9051.3592   -48956.254     -17530.4    2308.3002   -9458.6637   -12935.705    79.690664 
   42100    1614.0078   -110.27124    1.4603882   -108.81085    4121.7867    4.2969283    4.2969283    4.2969283    4121.7867   -12706.582    4233.4566    20838.485   -7133.1857   -8695.4734    9240.6921    79.336736 
   42200    1126.1792   -109.83293    1.0189906   -108.81393    2498.8099    4.2747498    4.2747498    4.2747498    2498.8099    44389.271   -60020.276    23127.435   -1811.6638    17042.852   -41321.132    78.114582 
   42300    1295.7329   -109.99759    1.1724064   -108.82518   -5086.0624    4.2793876    4.2793876    4.2793876   -5086.0624    3291.8784   -36298.816     17748.75    4108.4727   -14366.913   -21920.668    78.369103 
   42400    1731.3042   -110.39203    1.5665205   -108.82551   -9588.2155    4.2911538    4.2911538    4.2911538   -9588.2155   -34415.346   -37352.984    43003.684   -9150.3469   -2499.7111    5245.6474    79.017312 
   42500    1099.7804   -109.82789   0.99510442   -108.83279   -20641.108    4.3016089    4.3016089    4.3016089   -20641.108    23151.831   -63833.278   -21241.878   -13230.477   -3525.7964    -45839.76    79.596281 
   42600    1149.1928    -109.8637    1.0398138   -108.82389    992.21048    4.2875784    4.2875784    4.2875784    992.21048    48903.621   -42327.611   -3599.3778    9539.8505   -5970.7411   -7058.4745    78.819963 
   42700    1827.3607   -110.46445    1.6534343   -108.81101    2012.1357    4.2726342    4.2726342    4.2726342    2012.1357   -16507.735   -18494.676    41038.817   -8745.4043   -3518.5798     27027.61    77.998661 
   42800    1042.8461   -109.77692   0.94358904   -108.83333   -20265.866    4.2883629    4.2883629    4.2883629   -20265.866    4006.4964   -51676.272   -13127.823   -15352.784   -16505.272   -42701.612    78.863235 
   42900    1498.7249    -110.1839    1.3560778   -108.82782   -826.53582    4.2851374    4.2851374    4.2851374   -826.53582    32492.576   -42354.528    7382.3443    16500.905    12273.681   -3182.4795    78.685419 
   43000    1544.5564   -110.21834    1.3975471   -108.82079    12370.319    4.2926397    4.2926397    4.2926397    12370.319    10909.036   -7768.5348    33970.456   -12926.543   -6376.1403    24346.285    79.099425 
   43100    1257.6865   -109.96921    1.1379812   -108.83123   -39641.774    4.2932814    4.2932814    4.2932814   -39641.774     -50708.2   -40123.861    -28093.26    -29419.61    -28181.77   -24811.908    79.134899 
   43200     945.9123     -109.681   0.85588133   -108.82512    32619.163     4.266128     4.266128     4.266128    32619.163    10221.656     44381.95    43253.882   -5177.0115    -7131.374   -30033.908    77.642882 
   43300    2100.2485   -110.72709     1.900349   -108.82674    6310.8619    4.2829823    4.2829823    4.2829823    6310.8619   -6513.1434    930.21102    24515.518    4876.2222   -3885.1478    8822.6339    78.566759 
   43400    1099.5487   -109.82606   0.99489476   -108.83117     6382.405    4.3043444    4.3043444    4.3043444     6382.405    14575.561    29216.645   -24644.991   -9132.7921   -14430.466   -4447.0758    79.748228 
   43500    1072.0345   -109.77786   0.96999933   -108.80786    7113.9839    4.2993729    4.2993729    4.2993729    7113.9839   -29.305443    24265.983   -2894.7259   -17576.844    -6476.356   -29118.238    79.472219 
   43600    1736.4402    -110.3522    1.5711675   -108.78103    6449.6197    4.2979765    4.2979765    4.2979765    6449.6197   -7242.1117   -4520.2028    31111.173     16344.09   -3853.2067    10834.128    79.394807 
   43700    1147.2479   -109.83223     1.038054   -108.79418   -30823.681    4.2967759    4.2967759    4.2967759   -30823.681   -27950.725   -7589.2106   -56931.107   -10508.658   -26461.411   -26643.277    79.328292 
   43800    1178.5946   -109.87389    1.0664172   -108.80747   -4583.3123    4.2783065    4.2783065    4.2783065   -4583.3123   -10891.073    16213.467   -19072.331   -14938.421   -8902.3397   -24929.062    78.309724 
   43900    1576.0211   -110.24392     1.426017    -108.8179    27161.867    4.2770596    4.2770596    4.2770596    27161.867    8450.7467    28287.303     44747.55    12776.258     14938.57    9094.5518    78.241272 
   44000      1264.05    -109.9761     1.143739   -108.83236   -9575.0993    4.2972911    4.2972911    4.2972911   -9575.0993   -6249.7394   -14426.945   -8048.6132    3698.2848   -14332.467   -1769.4316    79.356832 
   44100     1133.509   -109.84875    1.0256228   -108.82312   -26112.554    4.3003917    4.3003917    4.3003917   -26112.554   -43901.441   -26049.576   -8386.6436   -20851.521    2030.9877   -35278.321    79.528728 
   44200    1660.8095   -110.30404    1.5027354    -108.8013    19649.977    4.2861617    4.2861617    4.2861617    19649.977   -19349.911   -703.51755     79003.36    2793.3639    6045.7279    -576.5131     78.74186 
   44300    1318.5711   -110.00532    1.1930708   -108.81225    11122.593    4.2877016    4.2877016    4.2877016    11122.593    2142.5652   -320.53985    31545.753    1387.9019   -28890.989   -5014.0306    78.826757 
   44400    1046.3413   -109.76226   0.94675159   -108.81551   -21647.681    4.3034412    4.3034412    4.3034412   -21647.681    9970.1039   -70973.096   -3940.0493   -23010.355    -10855.41   -23102.633    79.698036 
   44500    2008.7271   -110.61586    1.8175385   -108.79832   -3066.8834    4.2915504    4.2915504    4.2915504   -3066.8834   -1421.4966   -42641.374     34862.22   -3425.3579    14289.311    7038.0885    79.039222 
   44600    1730.7938   -110.36878    1.5660586   -108.80272    21856.327    4.2707097    4.2707097    4.2707097    21856.327    31904.263    17158.535    16506.181    7684.0872   -14647.031   -1627.3207    77.893308 
   44700    984.31027   -109.72976   0.89062462   -108.83913   -18346.916    4.2835092    4.2835092    4.2835092   -18346.916   -10451.111   -18806.422   -25783.214   -18169.282   -25816.621   -42631.012    78.595758 
   44800    1533.2459   -110.22062    1.3873131   -108.83331   -26864.598    4.2962614    4.2962614    4.2962614   -26864.598   -23110.786   -55004.167   -2478.8395   -26926.651    8595.7343   -4070.5835    79.299801 
   44900    1803.9317   -110.44742    1.6322353   -108.81519   -8789.5673    4.3047624    4.3047624    4.3047624   -8789.5673     -4149.59    3141.4586    -25360.57    654.94368   -2284.6703    10664.521    79.771463 
   45000    790.48702   -109.52113   0.71524927   -108.80588   -12165.352    4.3077987    4.3077987    4.3077987   -12165.352    19908.642    7888.9904   -64293.687   -9509.9039    -14312.26   -48719.737    79.940377 
   45100    1687.0452   -110.30367     1.526474   -108.77719    8691.8566    4.2840402    4.2840402    4.2840402    8691.8566    38419.464      12175.9   -24519.795   -35133.795    5175.4356   -5559.8856    78.624994 
   45200    1742.7137   -110.36362     1.576844   -108.78677     -3847.55     4.284154     4.284154     4.284154     -3847.55    14043.357    24922.271   -50508.278    9303.6226   -18385.926    4383.3833    78.631258 
   45300    743.56321   -109.49016   0.67279162   -108.81737   -41474.267    4.2961452    4.2961452    4.2961452   -41474.267    4912.4494   -32715.096   -96620.156   -3209.4441   -23851.841   -50646.994    79.293369 
   45400    1122.2492   -109.84058    1.0154346   -108.82514     10589.56    4.2765776    4.2765776    4.2765776     10589.56     30181.42    15440.321   -13853.062    -25552.51    5368.8059   -12426.376    78.214821 
   45500    1760.8967   -110.42248    1.5932963   -108.82919    12175.241    4.2724783    4.2724783    4.2724783    12175.241    24786.288    18921.935    -7182.499     11610.74    713.37032    26467.775    77.990124 
   45600     1343.786    -110.0551    1.2158858   -108.83921     835.8927    4.2873042    4.2873042    4.2873042     835.8927    31673.354    25505.568   -54671.244   -5554.2172   -19629.725   -21304.925    78.804844 
   45700     1303.095   -110.00909    1.1790678   -108.83002   -14024.015    4.2972296    4.2972296    4.2972296   -14024.015   -5502.2112    1081.8183   -37651.651   -19792.429    9758.1204   -21615.942    79.353428 
   45800    1202.9468   -109.90121    1.0884515   -108.81275   -15942.279    4.2957211    4.2957211    4.2957211   -15942.279    1166.7005   -21447.317   -27546.221    6260.0353     2776.073     31609.11    79.269888 
   45900    1415.5124   -110.08527    1.2807853   -108.80448    1740.1571    4.2788222    4.2788222    4.2788222    1740.1571    8702.4898    4605.4547   -8087.4734    8657.2997   -13575.148    15349.049    78.338046 
   46000    1537.5775   -110.20592    1.3912324   -108.81469    7400.7848    4.2822251    4.2822251    4.2822251    7400.7848   -2665.1257     22829.88    2037.5997    -12345.21    831.36672   -12557.786    78.525094 
   46100     1413.056   -110.10206    1.2785628    -108.8235   -19519.159    4.2918409    4.2918409    4.2918409   -19519.159   -7042.1135   -10766.679   -40748.684   -20087.454     6702.136    4110.7658    79.055275 
   46200    1062.7285    -109.7903   0.96157909   -108.82872   -615.99577    4.2815984    4.2815984    4.2815984   -615.99577   -18881.618    36793.756   -19760.125    19834.438   -6453.3062    24830.494    78.490626 
   46300     1546.208    -110.2277    1.3990415   -108.82866   -1331.5842    4.2798277    4.2798277    4.2798277   -1331.5842   -15285.414   -5133.2904    16423.952    18643.253   -7591.7047   -392.45001    78.393285 
   46400    1568.6254   -110.24788    1.4193252   -108.82855     18657.53    4.2959578    4.2959578    4.2959578     18657.53   -7559.6227    46459.412      17072.8   -19921.756    7943.9432   -3778.4322    79.282989 
   46500    603.00479    -109.3598    0.5456114   -108.81419   -7209.9543    4.3242845    4.3242845    4.3242845   -7209.9543   -3902.3416    15610.333   -33337.855    27191.163   -19338.749    28381.584    80.861686 
   46600    1830.2854   -110.42148    1.6560807    -108.7654   -13464.308    4.3105527    4.3105527    4.3105527   -13464.308   -39448.669   -9933.1065    8988.8526    19615.082   -3937.8284   -19820.795    80.093796 
   46700    1775.6681   -110.35649    1.6066618   -108.74983    27018.424    4.2664101    4.2664101    4.2664101    27018.424    14926.382    32096.185    34032.705   -10535.803    290.10492    29943.991    77.658287 
   46800    1082.1632   -109.77881   0.97916403   -108.79965   -9747.3159    4.2626386    4.2626386    4.2626386   -9747.3159   -8456.4037   -12103.606   -8681.9375    23706.847   -17661.447     45359.31    77.452518 
   46900    1076.7715   -109.81913   0.97428546   -108.84484   -7965.9621     4.279618     4.279618     4.279618   -7965.9621   -30012.295   -31784.478    37898.886    23489.041    -4011.442   -11136.187    78.381759 
   47000    1616.7972   -110.31753    1.4629121   -108.85462   -14534.094    4.2960328    4.2960328    4.2960328   -14534.094   -35050.817   -843.65495   -7707.8119    -24920.61    877.82507   -12285.216    79.287142 
   47100    1958.3192   -110.61449    1.7719284   -108.84256    7038.9218    4.2833307    4.2833307    4.2833307    7038.9218   -8881.7831     6239.249      23759.3    5616.7507   -2339.8691    9426.3275    78.585934 
   47200    1659.1116   -110.33604     1.501199   -108.83484    22441.895    4.2653285    4.2653285    4.2653285    22441.895   -13897.483    34687.371    46535.798    32991.093   -267.29204   -6342.4036    77.599236 
   47300     754.3267      -109.54   0.68253065   -108.85747   -18516.517    4.2866958    4.2866958    4.2866958   -18516.517   -34054.787   -33252.211    11757.446   -26188.682   -3690.3083   -35250.879    78.771298 
   47400    1557.1434   -110.24401     1.408936   -108.83508   -8610.0147    4.2914952    4.2914952    4.2914952   -8610.0147   -25203.061    11294.113   -11921.097   -22982.695    5252.6854   -9350.0275     79.03617 
   47500    2344.5506   -110.93668    2.1213986   -108.81529   -5820.9171    4.2875188    4.2875188    4.2875188   -5820.9171   -10710.583    12968.733   -19720.901    22141.759    6568.5142    14443.332    78.816676 
   47600    1230.1342   -109.94351    1.1130513   -108.83046   -14708.942    4.2847458    4.2847458    4.2847458   -14708.942   -14518.314   -16446.368   -13162.144   -23985.366   -5510.0623   -28342.292     78.66385 
   47700    951.64775   -109.69616   0.86107088   -108.83509    10284.444    4.2655404    4.2655404    4.2655404    10284.444    2463.1755    23423.537    4966.6191   -30914.892    15894.759   -2938.7417    77.610803 
   47800    1217.5096   -109.95452    1.1016283    -108.8529   -3062.8027    4.2740522    4.2740522    4.2740522   -3062.8027    8173.7789   -11487.772   -5874.4155    6486.2284   -187.15058     38893.25    78.076346 
   47900    1817.4837   -110.48726    1.6444974   -108.84277   -17157.295    4.2842928    4.2842928    4.2842928   -17157.295   -27311.778   -3429.9966    -20730.11    11395.563   -17375.422   -1754.8542    78.638899 
   48000     1619.095   -110.30684    1.4649911   -108.84184   -19351.734    4.2832947    4.2832947    4.2832947   -19351.734   -8249.7281   -35695.816    -14109.66   -31998.921    4065.1093   -10943.222    78.583954 
   48100    762.08984   -109.53234    0.6895549   -108.84279   -10318.576    4.2804863    4.2804863    4.2804863   -10318.576    17260.304    -32540.49   -15675.541   -7818.9091    11322.836    34524.534    78.429477 
   48200    982.80815    -109.7281   0.88926547   -108.83883   -406.28912    4.2862846    4.2862846    4.2862846   -406.28912   -22434.351    30578.379   -9362.8945    28639.538   -2776.3871    9521.3188     78.74863 
   48300    1811.9765   -110.47278    1.6395144   -108.83327   -12719.207    4.2789711    4.2789711    4.2789711   -12719.207   -29968.941   -12063.565    3874.8858    24300.111   -6718.1853   -10259.224     78.34622 
   48400    1694.6256   -110.36943    1.5333328    -108.8361    25448.035    4.2576696    4.2576696    4.2576696    25448.035    21503.176    39701.398    15139.531   -19629.179    14217.249    11362.829    77.181971 
   48500    1057.8225   -109.81943   0.95714004   -108.86229   -29211.797    4.2807303    4.2807303    4.2807303   -29211.797   -30447.064   -62000.795    4812.4692     27137.59   -2624.9413    32934.483    78.442893 
   48600    995.78525   -109.75195   0.90100742   -108.85094   -17145.836    4.2888505    4.2888505    4.2888505   -17145.836   -13125.212   -44524.965    6212.6688    38443.271   -4458.9389   -9600.9157     78.89014 
   48700    1607.6146   -110.29051    1.4546034   -108.83591     17076.23    4.2809762    4.2809762    4.2809762     17076.23    10124.166    34103.684    7000.8413   -18986.928    12422.511   -28653.746    78.456411 
   48800    1941.4545   -110.58846    1.7566688   -108.83179    -12870.26    4.2817373    4.2817373    4.2817373    -12870.26   -31146.092   -3727.9999   -3736.6868    51.287075    11247.655    16314.959    78.498265 
   48900    1257.2708   -109.97974     1.137605   -108.84214    23907.936    4.2716094    4.2716094    4.2716094    23907.936    32404.014    30068.813    9250.9807    43431.964    8460.9388    -4503.729    77.942548 
   49000    886.15205   -109.66101   0.80180899    -108.8592   -6453.0796    4.2833641    4.2833641    4.2833641   -6453.0796    10164.946   -29417.768   -106.41644   -5054.4573   -7624.6715   -27354.883     78.58777 
   49100    1569.0736    -110.2657    1.4197308   -108.84597   -12922.925    4.2868194    4.2868194    4.2868194   -12922.925    195.16245   -27263.407   -11700.529   -28992.435   -673.50618   -316.59656    78.778112 
   49200    2084.0515   -110.71994    1.8856936   -108.83424    19274.761    4.2800978    4.2800978    4.2800978    19274.761    20522.455     42041.65   -4739.8233    12912.501     5591.772    9598.3722    78.408125 
   49300    1798.8967   -110.47387    1.6276796   -108.84619     11013.26    4.2738963    4.2738963    4.2738963     11013.26    9857.9089    34895.037   -11713.165    2240.7597   -10295.117   -22771.139    78.067801 
   49400    964.21837   -109.73672   0.87244504   -108.86427    3242.8826    4.2721777    4.2721777    4.2721777    3242.8826    3651.4865    25871.923   -19794.762   -30158.319    -183.1128   -1761.5161    77.973662 
   49500    1065.0378   -109.83237   0.96366857    -108.8687   -25445.965    4.2829576    4.2829576    4.2829576   -25445.965    1399.4338   -54707.411   -23029.919   -8094.8959    3570.1779    26275.093    78.565401 
   49600    1898.5165   -110.57184    1.7178176   -108.85402   -833.64081     4.276122     4.276122     4.276122   -833.64081    230.45428    13657.018   -16388.395    27557.535   -5582.6923   -4182.2165    78.189828 
   49700    1786.7955   -110.46876    1.6167301   -108.85203   -7431.1793     4.283689     4.283689     4.283689   -7431.1793   -10448.419    5351.9446   -17197.063   -19673.851   -7076.7385    1077.8651    78.605657 
   49800    1300.0464   -110.02839    1.1763093   -108.85208    1968.6299    4.2825912    4.2825912    4.2825912    1968.6299    38788.992    57.575502   -32940.678    -41384.68    6987.5792    27353.749     78.54524 
   49900    1014.6812   -109.76848   0.91810489   -108.85037    26132.804    4.2746797    4.2746797    4.2746797    26132.804    53320.879    43358.343   -18280.811    19473.569   -82.881981    13134.572    78.110737 
   50000    1259.0801   -109.99198    1.1392422   -108.85274   -6916.5848     4.282429     4.282429     4.282429   -6916.5848    34057.097    -29278.89   -25527.962    43917.348   -8296.3206   -22808.516    78.536316 
   50100    1854.2374   -110.52662     1.677753   -108.84886   -1142.3788    4.2741311    4.2741311    4.2741311   -1142.3788    5037.0872    11320.529   -19784.753   -11729.456    -7312.355   -4588.6894    78.080666 
   50200    1822.4452   -110.50761    1.6489867   -108.85862   -8791.4822    4.2744725    4.2744725    4.2744725   -8791.4822    15559.807   -6442.2791   -35491.974   -16088.237   -37.313376    28389.174    78.099379 
   50300    848.99438   -109.64445   0.76818796   -108.87627   -16969.561     4.278086     4.278086     4.278086   -16969.561   -13329.007    -13882.23   -23697.447    39010.417    2429.6963    -16797.86    78.297616 
   50400    743.02986   -109.55505   0.67230903   -108.88274   -8995.1891     4.281819     4.281819     4.281819   -8995.1891   -31202.523    19913.045    -15696.09    34307.516   -4008.6942   -23600.221    78.502761 
   50500     1958.437   -110.63322     1.772035   -108.86119   -7924.8855    4.2790884    4.2790884    4.2790884   -7924.8855   -14680.438    8616.3506   -17710.569   -16212.771    -9629.437    8959.5365    78.352664 
   50600    1837.2416   -110.51741    1.6623748   -108.85504    9261.3505    4.2732582    4.2732582    4.2732582    9261.3505    20890.409   -1514.6923     8408.335   -4401.6143   -2835.2613   -10088.956    78.032837 
   50700    1112.1178   -109.86778    1.0062675   -108.86151   -18208.053    4.2883961    4.2883961    4.2883961   -18208.053    12955.998   -63672.393   -3907.7633    40555.094   -6825.4513    -29624.36    78.865065 
   50800    1109.9079   -109.85442     1.004268   -108.85015    9322.4204    4.2826978    4.2826978    4.2826978    9322.4204    28024.494   -2114.9985    2057.7656    -3777.901   -18769.022    4107.5466    78.551103 
   50900     1534.707   -110.22514    1.3886352   -108.83651    24691.572    4.2861315    4.2861315    4.2861315    24691.572     44915.37    30652.615    -1493.269   -40561.361   -2145.9039    13858.358    78.740191 
   51000    1631.2986   -110.30247    1.4760333   -108.82644   -8221.5497    4.2944695    4.2944695    4.2944695   -8221.5497    15131.413   -28462.015   -11334.048    25240.254    3426.3157   -13874.509    79.200616 
   51100    1277.2672   -109.98112    1.1556982   -108.82542    22444.484    4.2779085    4.2779085    4.2779085    22444.484    22264.379    30011.855     15057.22    31742.634   -706.15171   -10289.047    78.287872 
   51200    1175.9139   -109.90152    1.0639916   -108.83753   -7067.1499    4.2836132    4.2836132    4.2836132   -7067.1499    15439.428   -39831.877    3190.9982    -30722.54    3287.8027    14756.142    78.601484 
   51300    1250.4675   -109.97204    1.1314492   -108.84059   -16409.289    4.2870279    4.2870279    4.2870279   -16409.289   -10546.129   -21044.513   -17637.226   -24227.374   -107.75758    23127.605    78.789608 
   51400    1808.5907   -110.47672    1.6364509   -108.84027    2979.4408    4.2715258    4.2715258    4.2715258    2979.4408   -11349.985    17072.015    3216.2923    31500.012    11808.428   -3958.0925     77.93797 
   51500    1472.3963    -110.1864    1.3322551   -108.85415     28754.02    4.2668762    4.2668762    4.2668762     28754.02    42101.146    8545.9326    35614.981    1993.9571    17781.763    2563.9917    77.683742 
   51600    668.54658   -109.48047     0.604915   -108.87555     20041.08     4.287926     4.287926     4.287926     20041.08    15057.827    38662.042    6403.3712   -25335.282   -1757.2619    25619.074    78.839137 
   51700    1389.4167   -110.10606    1.2571735   -108.84888   -16664.963    4.3008094    4.3008094    4.3008094   -16664.963    19216.227   -24923.005    -44288.11    -10034.24   -7271.8086   -7515.7792    79.551907 
   51800    1944.8824    -110.5869    1.7597704   -108.82712    33502.759    4.2691972    4.2691972    4.2691972    33502.759    47755.905    37021.877    15730.495    9874.3158    9979.1883   -7834.5305    77.810581 
   51900    1508.1681   -110.20271    1.3646222   -108.83808    13060.673    4.2653044    4.2653044    4.2653044    13060.673    10629.195   -11380.923    39933.747   -17742.512    11441.865    33655.269    77.597922 
   52000    1016.0413   -109.76758   0.91933548   -108.84824   -8601.6964    4.2859676    4.2859676    4.2859676   -8601.6964    11047.152   -29755.527   -7096.7138   -29062.648   -7746.3176    3234.9732    78.731161 
   52100    1286.3529   -110.00203    1.1639192   -108.83811    11230.002    4.2918322    4.2918322    4.2918322    11230.002    18737.573    27555.099   -12602.666    23764.233   -5138.8981   -28298.681    79.054795 
   52200    1534.8973   -110.22201    1.3888073   -108.83321   -19837.542    4.2916501    4.2916501    4.2916501   -19837.542   -37011.509   -15416.935   -7084.1811    8890.2289    10205.342   -3396.8239    79.044731 
   52300    1507.0442    -110.1969    1.3636052   -108.83329    14969.974    4.2641344    4.2641344    4.2641344    14969.974     10226.73    24089.341    10593.852   -50471.559    7400.0054    4766.8538    77.534081 
   52400    1681.1599   -110.36418    1.5211488   -108.84303    15875.465    4.2631594    4.2631594    4.2631594    15875.465    34101.082    7009.2593    6516.0526   -9634.7027   -5622.7105   -5599.4047     77.48091 
   52500    1469.3324   -110.17908    1.3294828    -108.8496   -23096.081    4.2907712    4.2907712    4.2907712   -23096.081    -9909.799     -39849.7   -19528.745    35493.585    4874.5313   -7617.7277    78.996178 
   52600    1247.0188   -109.96751    1.1283288   -108.83918    9984.0677     4.283794     4.283794     4.283794    9984.0677    52724.059   -26256.808    3484.9512   -16585.906    8829.2622   -716.45705    78.611436 
   52700    1352.3701   -110.06311    1.2236529   -108.83945   -11234.818    4.2809692    4.2809692    4.2809692   -11234.818     12166.82   -27045.766   -18825.506   -38423.135   -5305.8078    627.94119    78.456027 
   52800     1335.212   -110.04759    1.2081279   -108.83946     11855.07    4.2693636    4.2693636    4.2693636     11855.07     50147.15   -3325.0596   -11256.881    7187.2052   -11246.259   -14282.217    77.819679 
   52900     1669.695   -110.35948    1.5107751   -108.84871    11893.256    4.2752833    4.2752833    4.2752833    11893.256    34663.438    -3028.825     4045.155     3806.371    90.959285   -16599.098     78.14383 
   53000    1497.2708   -110.19795    1.3547621   -108.84319   -25747.939    4.2971836    4.2971836    4.2971836   -25747.939   -47897.767   -34314.873    4968.8235   -15738.304    2871.6719     8676.088    79.350875 
   53100    1214.9742   -109.94037    1.0993342   -108.84104    12138.997    4.2733982    4.2733982    4.2733982    12138.997    7006.6532    42746.005   -13335.668   -5400.0986   -12733.364   -7211.7456    78.040507 
   53200    791.40183   -109.57034   0.71607701   -108.85427     3802.596    4.2710779    4.2710779    4.2710779     3802.596    57947.706   -977.94704   -45561.971    16336.673    1855.5519    -21519.77    77.913457 
   53300    1353.7931   -110.07309    1.2249405   -108.84815   -17210.842    4.2912678    4.2912678    4.2912678   -17210.842   -903.56934   -26197.128   -24531.829    19222.679    5175.1643    7586.4947    79.023609 
   53400    2122.3183   -110.74563    1.9203182   -108.82531    8950.9437    4.2854457    4.2854457    4.2854457    8950.9437    1884.0999    28356.995   -3388.2642   -22567.036   -5969.9097   -8886.2594    78.702401 
   53500    1119.7151   -109.85361    1.0131417   -108.84047   -25163.927    4.2904121    4.2904121    4.2904121   -25163.927    10026.796   -39987.226   -45531.351    8189.5424   -6852.7981   -31825.496    78.976342 
   53600    648.53496   -109.43441   0.58680806    -108.8476   -3403.3592    4.2777394    4.2777394    4.2777394   -3403.3592    36002.443   -5942.9354   -40269.586    16682.101    3603.7446     15445.11    78.278583 
   53700    1249.8398   -109.98419    1.1308813   -108.85331    26777.312    4.2733582    4.2733582    4.2733582    26777.312    74142.574    44337.061   -38147.701   -987.89033    18745.183    11447.827    78.038315 
   53800    2017.5471   -110.67639    1.8255191   -108.85087   -4234.5019    4.2836897    4.2836897    4.2836897   -4234.5019    3627.1163    21461.431   -37792.053   -4594.6642    -1928.373   -10794.724    78.605694 
   53900    1512.2439    -110.2233    1.3683101   -108.85499    19836.621    4.2761676    4.2761676    4.2761676    19836.621    50037.565     13758.34   -4286.0412     15298.86   -833.37386    6458.3745    78.192329 
   54000    760.38333   -109.55217   0.68801081   -108.86416   -15479.412    4.2851151    4.2851151    4.2851151   -15479.412    8876.7735   -15664.924   -39650.087     19707.05     15348.97    21985.757    78.684188 
   54100    914.10893   -109.68069   0.82710497   -108.85358   -21479.105    4.2877255    4.2877255    4.2877255   -21479.105   -581.61405    11223.538   -75079.239     -6665.19   -5678.7385    3457.4653    78.828073 
   54200    1564.8203   -110.25299    1.4158823   -108.83711    6864.2946    4.2762795    4.2762795    4.2762795    6864.2946    18370.857    1389.2981     832.7285    10744.095     -14327.6   -11204.479     78.19847 
   54300    1508.2456   -110.20069    1.3646923     -108.836    11085.708    4.2798049    4.2798049    4.2798049    11085.708    45240.293    -29588.05    17604.881     30211.02    24669.299    10140.971    78.392029 
   54400    934.33754   -109.68652   0.84540824   -108.84112    1296.0579    4.2864005    4.2864005    4.2864005    1296.0579    45903.708    12314.821   -54330.355   -7890.0678    4744.2838     6945.448    78.755016 
   54500    771.50524   -109.54187   0.69807415    -108.8438   -11260.883    4.2886989    4.2886989    4.2886989   -11260.883    7922.8741    19380.855   -61086.379    -5227.571   -21637.727   -21495.493    78.881776 
   54600    1873.0866   -110.52637    1.6948081   -108.83156    10474.617    4.2821528    4.2821528    4.2821528    10474.617    23763.116    15260.925   -7600.1891    6255.1058    660.92055    644.91797    78.521117 
   54700    1993.1447    -110.6388    1.8034392   -108.83536    5497.9343    4.2817084    4.2817084    4.2817084    5497.9343    3262.7587    23795.424    -10564.38    11659.482    6952.6675    15433.941    78.496676 
   54800    1204.2857   -109.93898     1.089663   -108.84932    7346.9227    4.2774255    4.2774255    4.2774255    7346.9227   -1993.5905    58089.395   -34055.036    6433.3506   -21642.681   -9446.6786    78.261355 
   54900    1039.7767   -109.79548   0.94081185   -108.85467    9093.6297    4.2824973    4.2824973    4.2824973    9093.6297    28076.293    30687.706   -31483.109   -506.65683   -3140.7431   -7613.9995     78.54007 
   55000    1649.2522   -110.33427     1.492278   -108.84199   -17129.009    4.2979027    4.2979027    4.2979027   -17129.009    5589.5073   -28360.671   -28615.864    2659.6853    9022.1218    31014.822    79.390719 
   55100    1933.6235   -110.56357    1.7495831   -108.81399   -7611.3081    4.2991425    4.2991425    4.2991425   -7611.3081   -16480.798    28207.412   -34560.539    9304.6417   -21830.629    9746.9778    79.459443 
   55200    1483.1745   -110.14512    1.3420075   -108.80312   -17765.306    4.2927034    4.2927034    4.2927034   -17765.306    15688.503   -2113.9258   -66870.496   -2138.9207    10295.045    -3581.165    79.102942 
   55300    1056.5166   -109.76212   0.95595846   -108.80616   -8717.1541    4.2793595    4.2793595    4.2793595   -8717.1541    40295.165   -11903.857   -54542.771   -1579.1818    20672.082    35834.335     78.36756 
   55400      2083.72   -110.69828    1.8853937   -108.81289     15671.04    4.2793706    4.2793706    4.2793706     15671.04    12797.483    45521.348   -11305.712    5975.7698   -8047.5688    2154.2876    78.368167 
   55500    2017.0858   -110.65395    1.8251016   -108.82885   -7241.4475    4.2903332    4.2903332    4.2903332   -7241.4475   -8657.8935    9761.4965   -22827.946   -3657.6901   -2980.7787    12130.253    78.971986 
   55600    888.72189   -109.65381   0.80413424   -108.84968    18370.764    4.2745208    4.2745208    4.2745208    18370.764    48513.304    50454.764   -43855.775    3390.1586    16698.491    38766.317    78.102026 
   55700     1277.776   -110.00492    1.1561586   -108.84876   -2638.7405    4.2778047    4.2778047    4.2778047   -2638.7405    20305.608    31867.179   -60089.009   -325.30934    18011.498   -18062.424    78.282173 
   55800    1429.0561   -110.12796      1.29304   -108.83492   -12985.208    4.2880112    4.2880112    4.2880112   -12985.208   -16456.258    3893.1722   -26392.537    17661.939   -16973.939   -19081.364    78.843833 
   55900    1484.0575   -110.17381    1.3428064     -108.831    1393.8148     4.277724     4.277724     4.277724    1393.8148    18903.895   -26890.134    12167.684    2968.6782   -4187.4656     28792.25    78.277743 
   56000    1252.3283   -109.96951    1.1331329   -108.83638    2436.3535     4.280688     4.280688     4.280688    2436.3535    70928.264   -33857.694   -29761.509   -10288.434    8474.1668    3914.9849    78.440567 
   56100    1394.7857   -110.09705    1.2620314   -108.83502   -8729.0985    4.2795575    4.2795575    4.2795575   -8729.0985    20352.024   -3861.5575   -42677.762    13348.748   -24609.848   -22738.409    78.378437 
   56200    1109.0643   -109.84307    1.0035047   -108.83957    -7690.988    4.2787662    4.2787662    4.2787662    -7690.988    28071.662   -31404.329   -19740.296    4329.2315   -11230.438    11321.702     78.33497 
   56300    1294.4002   -110.00671    1.1712005   -108.83551   -22552.848    4.2889955    4.2889955    4.2889955   -22552.848    11524.389   -74291.693   -4891.2399   -21628.309    19518.507    10199.215    78.898139 
   56400    1629.7514    -110.2929    1.4746333   -108.81827   -2116.1622    4.2871093    4.2871093    4.2871093   -2116.1622    14308.177   -10331.916   -10324.747   -21754.995   -14652.253   -6096.9455    78.794093 
   56500    1521.5918   -110.18931    1.3767682   -108.81254    442.44907    4.2881326    4.2881326    4.2881326    442.44907    27856.015   -6985.8089   -19542.859    10082.837   -14268.862    14707.747    78.850531 
   56600    665.09633   -109.42344   0.60179314   -108.82165   -3216.8603    4.2859213    4.2859213    4.2859213   -3216.8603    14634.492   -65091.093     40806.02   -16831.696    15953.833    5907.5967    78.728606 
   56700    1723.7621   -110.37039    1.5596962    -108.8107   -200.04839    4.2789428    4.2789428    4.2789428   -200.04839    9086.7422   -32306.808    22619.921   -11289.452    11568.489    1529.7915    78.344665 
   56800    1976.6158   -110.60296    1.7884835   -108.81448   -562.73212    4.2864697    4.2864697    4.2864697   -562.73212    47740.055   -34289.814   -15138.438    12049.521    296.31608    2424.2065    78.758835 
   56900    732.03584   -109.50214   0.66236141   -108.83978   -8974.5159    4.2872809    4.2872809    4.2872809   -8974.5159    31431.786   -70350.934    11995.599   -15624.667    16576.178    7745.7511    78.803556 
   57000    1017.2113   -109.76076   0.92039414   -108.84036   -1752.8053    4.2755912    4.2755912    4.2755912   -1752.8053    9049.6975   -28026.792    13718.679   -2165.0925    17171.756    6530.4783    78.160715 
   57100     1645.118   -110.32252    1.4885373   -108.83399    1477.0695    4.2779306    4.2779306    4.2779306    1477.0695    46694.559   -22330.683   -19932.667    5083.6427   -4329.6838   -18014.847    78.289085 
   57200    1312.5948   -110.02678    1.1876633   -108.83912   -11762.247    4.2872351    4.2872351    4.2872351   -11762.247    32714.257   -52521.834   -15479.165   -11026.734     -3229.98   -4367.5078    78.801031 
   57300    1544.7905   -110.22825    1.3977589   -108.83049    552.11086    4.2816043    4.2816043    4.2816043    552.11086     11832.28   -24232.782    14056.835   -9913.8138    16689.041    23537.154    78.490948 
   57400     1897.065   -110.53414    1.7165042   -108.81763    5126.5116    4.2814693    4.2814693    4.2814693    5126.5116    25410.779     2870.554   -12901.798    6711.2943    38.240039   -14433.047    78.483525 
   57500    1097.1639   -109.82083   0.99273696    -108.8281   -16441.253    4.2933418    4.2933418    4.2933418   -16441.253    10234.169    2691.9393   -62249.869   -5502.2466   -18257.203   -12562.984    79.138241 
   57600    1125.3708   -109.84497    1.0182591   -108.82671   -4800.2013    4.2851452    4.2851452    4.2851452   -4800.2013   -2044.5111     16157.29   -28513.382    -28808.92   -4983.1579    28436.739    78.685846 
   57700    2119.3674   -110.72875    1.9176482    -108.8111    15396.532    4.2752118    4.2752118    4.2752118    15396.532    36391.324     5049.532    4748.7392   -20748.154    6598.0766    1117.1222    78.139912 
   57800    1643.3577    -110.3127    1.4869446   -108.82576    9195.7133    4.2851283    4.2851283    4.2851283    9195.7133    40968.072    11623.671   -25004.603    12163.123   -11743.097   -265.91866    78.684915 
   57900    792.89244    -109.5576   0.71742574   -108.84017   -21337.662     4.289892     4.289892     4.289892   -21337.662    34319.176       -51773   -46559.162   -27610.795   -2000.1561    20411.152    78.947628 
   58000     1202.466    -109.9237    1.0880165   -108.83568   -7507.2846    4.2795974    4.2795974    4.2795974   -7507.2846     14673.28   -23932.308   -13262.826    -4918.413    20149.864    3122.0828    78.380627 
   58100    1957.0182   -110.59754    1.7707512   -108.82679    5291.9879    4.2737718    4.2737718    4.2737718    5291.9879    18195.253     1354.324   -3673.6128     29177.88    5010.8247   -3825.2705    78.060976 
   58200    1404.0877   -110.10948     1.270448   -108.83903   -10802.657    4.2860116    4.2860116    4.2860116   -10802.657    16710.603   -27870.598   -21247.976   -27384.314   -7504.9034    29636.087    78.733586 
   58300    902.65713   -109.65371   0.81674314   -108.83697   -5326.8881    4.2971894    4.2971894    4.2971894   -5326.8881      -2232.7    22585.395    -36333.36   -20943.171    10749.364    4232.5903    79.351199 
   58400    1786.6904   -110.43216     1.616635   -108.81553   -11415.205    4.2878629    4.2878629    4.2878629   -11415.205   -9135.0112    5660.1102   -30770.713    19649.551     22560.71    -16234.19    78.835651 
   58500    1623.3224   -110.28559    1.4688162   -108.81677    26867.291    4.2598611    4.2598611    4.2598611    26867.291     51803.41   -5418.1928    34216.655   -18345.096   -6632.1128    1263.7991    77.301213 
   58600    1121.4335   -109.85762    1.0146966   -108.84293    31973.931     4.263821     4.263821     4.263821    31973.931    35646.406     38289.96    21985.427   -42380.788    6274.8776    10085.797    77.516986 
   58700    1508.9672   -110.19797    1.3653452   -108.83262   -12257.966    4.3012883    4.3012883    4.3012883   -12257.966   -6502.2156    25258.379   -55530.062    8320.5935    19065.552   -8251.0331    79.578484 
   58800    1616.1185   -110.26738     1.462298   -108.80508   -5540.9833    4.2978365    4.2978365    4.2978365   -5540.9833   -3001.9677   -31662.727    18041.745   -18795.374   -4908.6909   -12973.622    79.387052 
   58900    1091.6924   -109.78267   0.98778624   -108.79489    9601.9046    4.2817745    4.2817745    4.2817745    9601.9046   -13306.076    17174.974    24936.816   -44684.829    6532.0484    8678.4854    78.500308 
   59000    1884.0193   -110.49831    1.7047002   -108.79361    3506.2285    4.2797145    4.2797145    4.2797145    3506.2285    18939.532   -1502.4323   -6918.4146    17544.992    11356.445    7811.7358    78.387066 
   59100    1555.5754    -110.2178    1.4075173   -108.81028    10264.438    4.2777478    4.2777478    4.2777478    10264.438   -6280.6687    9909.3037     27164.68   -31302.045    686.74915     1952.389    78.279049 
   59200    1509.1765   -110.18601    1.3655346   -108.82048   -9557.9237     4.284747     4.284747     4.284747   -9557.9237   -19308.245   -15421.814    6056.2878   -39388.407   -10586.751     1514.479    78.663915 
   59300    1414.2937   -110.10395    1.2796826   -108.82427     -4373.18    4.2805207    4.2805207    4.2805207     -4373.18    34775.878   -12610.475   -35284.943    24966.163    27004.753    16844.751    78.431369 
   59400    1389.4483    -110.0881     1.257202   -108.83089     11374.73    4.2724869    4.2724869    4.2724869     11374.73   -2559.9484    34383.027    2301.1101   -3418.4455     9025.147    7454.7949    77.990592 
   59500    2059.4748   -110.68338    1.8634561   -108.81992    24885.767    4.2785373    4.2785373    4.2785373    24885.767    22455.185    22013.533    30188.582   -27792.345   -14575.661   -699.14323    78.322396 
   59600    1152.8625   -109.87465    1.0431342   -108.83152   -6709.5111    4.2925869    4.2925869    4.2925869   -6709.5111    25963.515   -42452.296   -3639.7518    25322.754     25955.51    15472.177    79.096505 
   59700    1207.4744   -109.91519    1.0925482   -108.82264    3098.7294    4.2889919    4.2889919    4.2889919    3098.7294   -23219.941    8553.2673    23962.862    13428.589    7883.6296    13321.021    78.897941 
   59800    2265.3421   -110.84187    2.0497292   -108.79214    27900.498    4.2782323    4.2782323    4.2782323    27900.498    36260.779    25248.697    22192.019   -6878.4082   -6350.5439   -8687.3205    78.305649 
   59900    1265.9934   -109.96902    1.1454974   -108.82352   -17553.484    4.2778594    4.2778594    4.2778594   -17553.484     21927.18   -44286.079   -30301.553    8936.6436    699.58086   -5730.9315    78.285174 
   60000    992.29966   -109.73021   0.89785358   -108.83235     9522.894     4.275163     4.275163     4.275163     9522.894    33919.717    -4790.303   -560.73162    24224.585    5884.4861    4703.5548    78.137234 
   60100    2021.8989   -110.64643    1.8294566   -108.81698   -3424.4711     4.284473     4.284473     4.284473   -3424.4711    13143.929   -36852.762    13435.419   -10940.332    9003.7957   -1874.5672    78.648825 
   60200    1146.8136   -109.86326    1.0376611    -108.8256   -5970.0681    4.2888725    4.2888725    4.2888725   -5970.0681    50176.696   -31764.417   -36322.484   -21782.006   -9422.4521    1616.0537    78.891355 
   60300    1555.0072   -110.22205    1.4070032   -108.81505    14032.681    4.2730945    4.2730945    4.2730945    14032.681    41350.145   -1591.4162    2339.3131    13988.706    24397.494    14918.568    78.023872 
   60400    1659.2612   -110.31396    1.5013344   -108.81263    13917.927    4.2774258    4.2774258    4.2774258    13917.927    33609.532    -29771.47    37915.719   -21324.053   -7942.5897   -4752.9227    78.261372 
   60500    1069.1965   -109.79516   0.96743145   -108.82773   -33275.627    4.2874419    4.2874419    4.2874419   -33275.627   -29657.768   -39286.626   -30882.488   -34313.974   -28493.743     1168.531    78.812437 
   60600    1340.1625   -110.03906    1.2126072   -108.82646    15411.902    4.2732131    4.2732131    4.2732131    15411.902    39655.696    10509.394   -3929.3847    20325.954    29908.897    16413.904    78.030366 
   60700    1894.5129   -110.53444    1.7141951   -108.82025   -719.90454    4.2792703    4.2792703    4.2792703   -719.90454   -13340.369    943.17855    10237.477    297.06906   -6183.0965   -3432.1987    78.362656 
   60800    974.22386   -109.71505   0.88149822   -108.83355   -26276.105    4.2856651    4.2856651    4.2856651   -26276.105   -38166.224   -6504.5462   -34157.544   -33307.466   -40744.631   -1192.7725    78.714494 
   60900    1423.7412   -110.10767     1.288231   -108.81944    1938.2553    4.2740477    4.2740477    4.2740477    1938.2553   -9762.1584    19552.155   -3975.2306   -8606.9448   -564.78069    866.29914    78.076094 
   61000    1721.3545   -110.37398    1.5575177   -108.81646    5663.7392    4.2842445    4.2842445    4.2842445    5663.7392    2212.6019   -9861.9656    24640.581    26403.936    4190.0504   -8425.3125    78.636243 
   61100    798.68144   -109.55155   0.72266376   -108.82889    -13367.73    4.2852885    4.2852885    4.2852885    -13367.73   -49412.611    16226.408   -6916.9869    4156.7076   -26338.736    80.662361    78.693741 
   61200    1271.7345   -109.97082    1.1506921   -108.82013    11385.657    4.2719231    4.2719231    4.2719231    11385.657    23216.462    5378.6657    5561.8417   -26670.522   -13740.568   -522.78203    77.959719 
   61300    1843.3981   -110.48742    1.6679454   -108.81947   -7412.8534    4.2808974    4.2808974    4.2808974   -7412.8534   -11047.486   -2828.7824   -8362.2922    29015.486    22304.098    4317.6946    78.452077 
   61400    914.03947   -109.65334   0.82704212    -108.8263   -1130.0718    4.2893026    4.2893026    4.2893026   -1130.0718   -34418.643    45943.241   -14914.814    13677.123   -25601.992    3867.8883     78.91509 
   61500    1617.3399   -110.27312    1.4634031   -108.80972     579.9225    4.2884146    4.2884146    4.2884146     579.9225    4558.8808    581.69957   -3400.8129   -16384.877   -19838.102    1635.0773    78.866086 
   61600    1639.5906   -110.29982    1.4835361   -108.81629   -5589.0899    4.2788764    4.2788764    4.2788764   -5589.0899   -9363.6187   -2394.1864   -5009.4648    3363.4645    30385.426     -1814.01    78.341021 
   61700    991.15224   -109.72762   0.89681538   -108.83081   -3890.5936     4.263626     4.263626     4.263626   -3890.5936   -23234.325    24576.298   -13013.753    30781.871   -18258.083   -3066.8081    77.506355 
   61800    1538.4079   -110.23426    1.3919838   -108.84228    18618.678    4.2740509    4.2740509    4.2740509    18618.678    21663.057    24882.155    9310.8216    8113.3132   -32702.229    1687.1418    78.076274 
   61900    1772.3795   -110.42717    1.6036862   -108.82348   -27348.671    4.2998541    4.2998541    4.2998541   -27348.671    3051.5984   -44775.716   -40321.896    -19452.08    33469.404     -15668.5    79.498905 
   62000    1128.9479   -109.84283    1.0214958   -108.82133   -15997.503    4.2851788    4.2851788    4.2851788   -15997.503   -27943.727    15768.142   -35816.925    22448.739    2445.0109    1351.7429    78.687697 
   62100    1572.4428   -110.22961    1.4227793   -108.80683    6148.3921    4.2647321    4.2647321    4.2647321    6148.3921   -15481.876    20564.461    13362.591    5152.8093   -30280.886   -1418.8582    77.566692 
   62200    1327.1772    -110.0239    1.2008579   -108.82304   -2837.6055    4.2709293    4.2709293    4.2709293   -2837.6055    21581.358   -21406.653   -8687.5209   -31609.457    6400.5399   -24259.019    77.905328 
   62300    1212.6371   -109.93421    1.0972195   -108.83699   -9868.8731    4.2816552    4.2816552    4.2816552   -9868.8731    -16597.49    2481.8489   -15490.978   -458.45341    28528.325    3263.3665     78.49375 
   62400    1866.2169   -110.51195    1.6885923   -108.82335   -19286.124    4.2899638    4.2899638    4.2899638   -19286.124   -34989.096   -12623.698   -10245.578    15036.873   -2921.0675   -502.82793    78.951593 
   62500    1018.7152   -109.75228   0.92175489   -108.83052   -8872.9944     4.280342     4.280342     4.280342   -8872.9944   -1640.2106    -57538.97    32560.197   -29895.958   -9399.4774   -18896.263    78.421549 
   62600    509.68538   -109.29188   0.46117404   -108.83071    26724.477    4.2748709    4.2748709    4.2748709    26724.477    57200.991   -4598.7698     27571.21   -33721.222    20156.023   -7079.5682     78.12122 
   62700    1930.9758   -110.56146    1.7471874   -108.81428   -5593.0574    4.2892373    4.2892373    4.2892373   -5593.0574    2169.0602   -25169.609    6221.3759    9451.7719    8201.9644    798.79847    78.911488 
   62800    1281.4507   -109.97842    1.1594835   -108.81894    2624.4999    4.2871195    4.2871195    4.2871195    2624.4999    3596.5093   -44635.785    48912.775   -17062.381   -3498.5107    -6471.095    78.794656 
   62900    675.25258   -109.44066   0.61098272   -108.82967   -7344.8065    4.2803383    4.2803383    4.2803383   -7344.8065    2923.6469   -5081.1618   -19876.905   -33914.909    18019.152   -11773.739    78.421346 
   63000    1275.3117   -109.98743    1.1539289    -108.8335   -4016.7198    4.2700465    4.2700465    4.2700465   -4016.7198   -17147.182    13811.227   -8714.2044    14811.162    10826.634    -407.2839    77.857025 
   63100    1466.5661   -110.16525    1.3269798   -108.83827    27244.981     4.263455     4.263455     4.263455    27244.981    -14594.94    53726.624    42603.259    7889.9205   -12493.174    14298.858     77.49703 
   63200    1027.0011    -109.7867   0.92925218   -108.85745   -10471.134    4.2842221    4.2842221    4.2842221   -10471.134    -14523.17   -28653.699    11763.467   -37891.288    1754.5091   -14375.108    78.635009 
   63300      1284.01   -110.00443    1.1617992   -108.84263   -20856.534    4.2866569    4.2866569    4.2866569   -20856.534   -15361.216   -40071.675    -7136.711   -18385.288    14506.362   -21364.419    78.769152 
   63400    1480.6957   -110.16239    1.3397646   -108.82262    24535.828    4.2762072    4.2762072    4.2762072    24535.828   -5730.6812    38674.919    40663.244    25639.753   -10159.353    9488.3703    78.194504 
   63500    1007.6909   -109.74009   0.91177986   -108.82831   -11891.741    4.2857756    4.2857756    4.2857756   -11891.741   -32447.016   -46638.045    43409.838   -35497.782   -12482.373   -7395.9074    78.720581 
   63600    1366.7325   -110.05474    1.2366483   -108.81809   -13690.818    4.2826618    4.2826618    4.2826618   -13690.818   -20793.014   -41647.818    21368.379   -36421.161    6833.8076   -12356.049    78.549125 
   63700    1537.2224   -110.20592    1.3909111   -108.81501     21533.12    4.2750066    4.2750066    4.2750066     21533.12   -3616.0536    42644.087    25571.325    16531.853   -20960.273   -1416.0894    78.128661 
   63800    1402.6619    -110.1003    1.2691579   -108.83115   -6643.1215     4.280313     4.280313     4.280313   -6643.1215   -48419.921    4133.2345    24357.322   -29906.212   -23461.064   -61.309527    78.419957 
   63900    1256.9467   -109.97133    1.1373118   -108.83401    13120.543    4.2741409    4.2741409    4.2741409    13120.543   -18142.981    15230.001     42274.61   -27559.321    7685.3833   -13710.808    78.081202 
   64000    1094.1686   -109.83163   0.99002671    -108.8416    4005.5052    4.2794733    4.2794733    4.2794733    4005.5052    2846.7958    11384.363   -2214.6428    18829.412   -8654.9996   -13947.948    78.373812 
   64100    1495.2906   -110.18668    1.3529704   -108.83371    -15727.02    4.2883306    4.2883306    4.2883306    -15727.02   -24037.747    15692.476    -38835.79    3388.9169   -35479.796    13538.466    78.861453 
   64200    2031.7798    -110.6619    1.8383971    -108.8235    18405.252    4.2714357    4.2714357    4.2714357    18405.252     10345.47    36246.747    8623.5386   -23214.303    7474.3557   -9380.4619    77.933041 
   64300    1259.3088   -109.98327    1.1394491   -108.84382   -305.96183    4.2716747    4.2716747    4.2716747   -305.96183    25230.563   -14736.954   -11411.495   -1482.8999   -995.48734   -20591.238    77.946124 
   64400      877.143   -109.64335   0.79365742   -108.84969   -12725.757    4.2816225    4.2816225    4.2816225   -12725.757   -7492.4647    4954.6557   -35639.462    28064.233   -40257.754    3108.3049    78.491951 
   64500     1870.894   -110.51865    1.6928242   -108.82583    21857.542    4.2851286    4.2851286    4.2851286    21857.542    -59.60021    75711.564   -10079.338    1070.2629    51.877016    1958.3785    78.684935 
   64600    1699.9617   -110.36045     1.538161   -108.82229    4103.7971    4.2916937    4.2916937    4.2916937    4103.7971    2576.3743    47370.845   -37635.828   -6921.1781    6237.3972   -297.39563    79.047136 
   64700    1026.8641   -109.75237   0.92912822   -108.82324    8844.5914    4.2827228    4.2827228    4.2827228    8844.5914   -15021.391    63551.757   -21996.592    21398.222   -34459.621     2891.246    78.552477 
   64800    1581.8178   -110.24961     1.431262   -108.81835    719.76042    4.2772395    4.2772395    4.2772395    719.76042   -22314.452    13122.796    11350.938   -10018.386    4228.7342    12860.215    78.251148 
   64900    1548.7781   -110.22388     1.401367   -108.82252    2681.0969    4.2820143    4.2820143    4.2820143    2681.0969    10054.549    5474.1955   -7485.4538    -23019.66     2661.295   -3440.5292    78.513499 
   65000    1466.0352   -110.15564    1.3264995   -108.82914   -14018.919    4.2887091    4.2887091    4.2887091   -14018.919   -30148.158    24924.649   -36833.248    17361.668   -38469.256    7455.2035    78.882339 
   65100    1615.4766   -110.28471    1.4617171   -108.82299    1595.5869    4.2824582    4.2824582    4.2824582    1595.5869    9564.8558   -1914.4288   -2863.6662    5181.5584    -2237.768    3649.3627    78.537922 
   65200    1251.5739   -109.95756    1.1324504   -108.82511    8621.8334    4.2820645    4.2820645    4.2820645    8621.8334   -29625.655    47539.951    7951.2047   -30894.608   -4397.2134   -3235.7914    78.516261 
   65300    1184.8315   -109.90265    1.0720605   -108.83059   -13516.021    4.2917918    4.2917918    4.2917918   -13516.021    -58589.21    29955.679   -11914.532    9487.4111   -37050.205    7441.1808    79.052562 
   65400    1787.5351   -110.43605    1.6173993   -108.81865   -5695.0374    4.2860683    4.2860683    4.2860683   -5695.0374    1099.3979   -6357.0311   -11827.479    1843.9057     2076.522    5814.5486    78.736712 
   65500    1915.0158   -110.54922    1.7327466   -108.81648     441.6049    4.2827941    4.2827941    4.2827941     441.6049   -23009.359     4936.734     19397.44   -19986.788    3681.3401   -4063.4829      78.5564 
   65600    967.50127   -109.70192   0.87541548    -108.8265    -16725.05    4.2927352    4.2927352    4.2927352    -16725.05   -42950.129    17084.054   -24309.075    4425.4981   -31662.609   -5679.4522    79.104704 
   65700    1368.1229   -110.06244    1.2379063   -108.82453    6090.1632    4.2786865    4.2786865    4.2786865    6090.1632    1932.9957     13214.12    3123.3743    17242.254    6425.6306    8947.9045    78.330592 
   65800    2061.3212   -110.68521    1.8651267   -108.82008    34883.386    4.2685657    4.2685657    4.2685657    34883.386    28718.713    2768.2064    73163.238   -3000.9998    16945.386    1543.9357    77.776054 
   65900    1622.2027   -110.30872    1.4678031   -108.84091    5238.0976     4.278628     4.278628     4.278628    5238.0976    12459.293    15956.652   -12701.652   -7854.6163   -32173.432   -18762.874    78.327379 
   66000    1064.2999    -109.8092   0.96300089    -108.8462    23547.158    4.2818177    4.2818177    4.2818177    23547.158   -18294.691    37800.363    51135.801    15563.887   -11891.878   -4167.5965    78.502685 
   66100    1668.5059   -110.34505    1.5096992   -108.83535    782.03505    4.2937792    4.2937792    4.2937792    782.03505   -37335.545    22897.655    16783.995    18865.117    30209.183    1622.6307    79.162432 
   66200    1955.5942   -110.59187    1.7694627    -108.8224   -1404.5004    4.2825986    4.2825986    4.2825986   -1404.5004   -9214.2639    3906.8355    1093.9272   -4370.6552   -15650.743    -14402.63    78.545647 
   66300    1564.3255   -110.23444    1.4154346   -108.81901    37256.295    4.2614766    4.2614766    4.2614766    37256.295    20058.561    58011.004    33699.319    5115.9348   -17217.273   -14272.364    77.389195 
   66400    1376.2229   -110.08571    1.2452354   -108.84047   -15066.416    4.2876809    4.2876809    4.2876809   -15066.416    -51843.97    36113.732   -29469.009    21911.315    13616.111    4675.8008    78.825614 
   66500    1454.1427   -110.14443    1.3157389   -108.82869   -10209.582    4.2914412    4.2914412    4.2914412   -10209.582   -34526.108    17330.911   -13433.549   -12768.027    832.82249   -7692.6581    79.033185 
   66600    1409.3711   -110.09986    1.2752285   -108.82463    20921.741    4.2761642    4.2761642    4.2761642    20921.741    24935.028    40183.126   -2352.9305   -5955.8932   -11681.437   -18434.124    78.192144 
   66700    1566.5959   -110.24263    1.4174889   -108.82515   -457.81486    4.2826693    4.2826693    4.2826693   -457.81486   -15972.685    29360.481   -14761.241     15055.72    2866.3866    2365.2834    78.549536 
   66800     1232.054   -109.94592    1.1147884   -108.83113    5463.3695     4.286153     4.286153     4.286153    5463.3695   -41911.346    25840.471    32460.983   -26891.536     6954.859    8987.6183     78.74138 
   66900    1121.3082   -109.84737    1.0145832   -108.83278   -18074.662    4.2936538    4.2936538    4.2936538   -18074.662   -2792.8695   -47677.886   -3753.2304   -8841.1028   -9988.7163   -11254.713    79.155496 
   67000    1150.3016   -109.86554    1.0408171   -108.82472   -14326.454    4.2824683    4.2824683    4.2824683   -14326.454    23542.238   -21968.256   -44553.345    9003.5854    47.801206   -1446.4837    78.538479 
   67100    1512.6057   -110.18521    1.3686375   -108.81657    3958.9995    4.2742793    4.2742793    4.2742793    3958.9995   -17925.921    34632.689   -4829.7688   -9372.1848    19315.389    17896.645    78.088791 
   67200    1507.4322    -110.1839    1.3639563   -108.81995   -20925.997    4.2938711    4.2938711    4.2938711   -20925.997   -33987.329    -4283.282   -24507.379   -13020.393    7952.1608   -15900.622    79.167512 
   67300    886.52006   -109.62087   0.80214198   -108.81873   -8240.0182    4.2918816    4.2918816    4.2918816   -8240.0182    35646.127    3703.0603   -64069.242   -5846.2157    5334.0517    1446.7135    79.057523 
   67400    1157.8928   -109.86533    1.0476857   -108.81765    11892.374    4.2790314    4.2790314    4.2790314    11892.374     20045.94    53887.947   -38256.765    2836.1151    14519.901    35707.624    78.349535 
   67500    1898.1071   -110.53196    1.7174472   -108.81451    10965.676    4.2770917    4.2770917    4.2770917    10965.676    -25399.07    39533.525    18762.573   -1983.1055   -1444.7522   -5999.6721    78.243034 
   67600    1205.6481    -109.9306    1.0908957    -108.8397    -16004.81    4.2783631    4.2783631    4.2783631    -16004.81    9568.7628   -9333.7554   -48249.438   -500.73087   -14497.459   -4138.0309    78.312828 
   67700    678.20086   -109.46687   0.61365039   -108.85322   -885.50448    4.2764179    4.2764179    4.2764179   -885.50448    43344.847   -25421.097   -20580.264    8018.4589    5517.7351    25030.073     78.20606 
   67800    1710.7782   -110.38828    1.5479481   -108.84033   -3799.4386    4.2844605    4.2844605    4.2844605   -3799.4386   -34525.363    29542.846   -6415.7984   -343.94936    7646.4345   -5114.4697    78.648138 
   67900    1538.4354   -110.22254    1.3920086   -108.83053    -19888.64    4.2915386    4.2915386    4.2915386    -19888.64    -29273.32    16666.597   -47059.196   -6396.2147   -19763.787   -370.98259    79.038571 
   68000    852.40629   -109.59681   0.77127512   -108.82554     8942.532    4.2830103    4.2830103    4.2830103     8942.532    53881.905    19612.128   -46666.437   -3748.3372   -8822.2787    22877.369    78.568298 
   68100    1705.8344    -110.3565    1.5434748   -108.81302   -303.83031    4.2853872    4.2853872    4.2853872   -303.83031    26429.358    13146.263   -40487.112   -5185.1994   -527.45891   -6472.2798     78.69918 
   68200    1852.8631   -110.48937    1.6765095   -108.81286   -4975.1517    4.2851557    4.2851557    4.2851557   -4975.1517   -47738.905    43810.348   -10996.898    -8214.063   -14715.682    13138.873    78.686425 
   68300    965.26264   -109.70444   0.87338992   -108.83105   -3198.8733     4.277817     4.277817     4.277817   -3198.8733   -2178.1494    28477.436   -35895.906    -7200.975    -6995.851    19971.119    78.282843 
   68400    1478.5231   -110.17095    1.3377988   -108.83315   -525.09015     4.282594     4.282594     4.282594   -525.09015    4809.7598   -15152.709     8767.679    9837.9858    3225.1533   -1053.1301     78.54539 
   68500    1790.5766   -110.44379    1.6201513   -108.82364    6683.3207    4.2893589    4.2893589    4.2893589    6683.3207   -44032.506    51435.066    12647.402   -2447.3803   -20897.203   -17176.145    78.918198 
   68600    1278.7076   -109.98563    1.1570015   -108.82863   -7456.6025    4.2867596    4.2867596    4.2867596   -7456.6025   -22482.123    21089.278   -20976.963    -6499.397   -17977.844    26431.231    78.774812 
   68700    1113.0114   -109.83631    1.0070761   -108.82923    731.61661    4.2742805    4.2742805    4.2742805    731.61661    23028.585    7499.7168   -28333.452    -1931.251    5056.2229    17002.823    78.088856 
   68800    1620.7418   -110.29281    1.4664813   -108.82632    8697.3676    4.2679116    4.2679116    4.2679116    8697.3676   -39059.351    51610.414     13541.04    4147.0908   -21927.934   -30153.907    77.740308 
   68900    1501.0807   -110.19244    1.3582094   -108.83423   -5425.2244    4.2848125    4.2848125    4.2848125   -5425.2244   -48142.959    53961.995   -22094.709   -1256.6593   -19570.372    10735.098    78.667522 
   69000    1564.0513    -110.2435    1.4151865   -108.82831   -5988.7234    4.2851005    4.2851005    4.2851005   -5988.7234    27203.967    838.43628   -46008.574   -4033.2487    15152.083    24117.428    78.683387 
   69100    1511.3441   -110.19376    1.3674959   -108.82627    3973.2793    4.2784667    4.2784667    4.2784667    3973.2793    5089.2903    44571.197   -37740.649    6429.1241    -14897.83   -639.95556    78.318521 
   69200     1531.636   -110.21783    1.3858565   -108.83197      2131.94    4.2821563    4.2821563    4.2821563      2131.94   -19140.837    54965.207    -29428.55   -5629.2881   -35175.217    -24336.17    78.521314 
   69300    1805.3439    -110.4627    1.6335131   -108.82918    -2632.974    4.2871879    4.2871879    4.2871879    -2632.974    13583.535    12361.418   -33843.875    2507.7447    11453.336    36621.187    78.798428 
   69400    1379.2219   -110.07491    1.2479489   -108.82696   -17968.741    4.2976052    4.2976052    4.2976052   -17968.741   -1419.5123    9535.4935   -62022.204   -2289.9269   -8814.0573     11786.65    79.374236 
   69500    1151.2646   -109.86896    1.0416884   -108.82727     -29735.3    4.2939098    4.2939098    4.2939098     -29735.3   -34227.388    21284.316   -76262.826     11065.88   -44774.113   -39060.552    79.169656 
   69600     1939.568   -110.57163    1.7549619   -108.81667    11092.798    4.2719923    4.2719923    4.2719923    11092.798    3432.7043    47115.755   -17270.066   -9689.3417    1763.0266   -4270.2773    77.963508 
   69700     1972.327   -110.61131    1.7846029   -108.82671    19567.773    4.2677972    4.2677972    4.2677972    19567.773    523.28869    68182.574   -10002.544   -8450.5504   -3024.5191    12998.157    77.734055 
   69800    1045.0437   -109.80276   0.94557748   -108.85718    -24594.64    4.2862975    4.2862975    4.2862975    -24594.64   -10982.398    13186.936   -75988.459    1424.3872   -42663.304   -45356.685    78.749342 
   69900    1065.7145   -109.81548   0.96428086    -108.8512    2555.5901    4.2918607    4.2918607    4.2918607    2555.5901    20509.549    29752.875   -42595.654   -8045.2331   -7203.1363   -16995.797    79.056366 
   70000    2088.1825   -110.70926    1.8894314   -108.81983   -7434.0228    4.2868755    4.2868755    4.2868755   -7434.0228   -13057.284    16074.616   -25319.401     5596.721    10362.454    33479.065    78.781204 
   70100    1064.2884   -109.78599   0.96299051     -108.823   -9248.5381    4.2844084    4.2844084    4.2844084   -9248.5381   -16804.528     39828.39   -50769.476   -10068.481    -37807.86   -30893.571    78.645267 
   70200    1349.8436   -110.04442    1.2213669   -108.82305   -6435.7822    4.2834468    4.2834468    4.2834468   -6435.7822   -461.92185    6948.0814   -25793.506    4314.4753   -19171.909   -18765.687    78.592322 
   70300    1657.1454   -110.31745      1.49942   -108.81803    7747.0076    4.2838214    4.2838214    4.2838214    7747.0076   -13539.874    41192.123   -4411.2262   -8001.6901    10322.868    23497.647    78.612946 
   70400    1028.4452   -109.76638   0.93055881   -108.83582   -12217.056    4.2824736    4.2824736    4.2824736   -12217.056    -29540.47    20753.812   -27864.509   -4834.4604   -32529.084    10210.522    78.538768 
   70500    1233.2377   -109.94895    1.1158594   -108.83309     6773.756     4.277604     4.277604     4.277604     6773.756   -15673.051    42174.913   -6180.5935    1385.5814   -22627.281   -16705.918    78.271155 
   70600    1637.1924    -110.3035    1.4813661   -108.82213   -4799.8334    4.2888712    4.2888712    4.2888712   -4799.8334   -26009.625    28979.116   -17368.991   -8469.9944    20090.452   -4343.3295    78.891283 
   70700    953.06593   -109.69339   0.86235409   -108.83103   -29173.593    4.2950736    4.2950736    4.2950736   -29173.593   -37914.512   -28056.438    -21549.83   -4685.6303    -23595.95    35400.227    79.234048 
   70800    1269.5497   -109.97096    1.1487152   -108.82225    9219.6703    4.2762372    4.2762372    4.2762372    9219.6703   -2555.5445    29127.911    1086.6441   -4724.3704   -16927.257    7572.7964    78.196147 
   70900    1579.6581   -110.25162    1.4293078   -108.82231    7438.7522    4.2748789    4.2748789    4.2748789    7438.7522    -35417.83    75540.249   -17806.163    6733.7273    48000.366   -8096.2916    78.121658 
   71000    1163.8664   -109.88394    1.0530907   -108.83085    103.20845    4.2901857    4.2901857    4.2901857    103.20845   -27661.187    55920.932    -27950.12   -802.10819   -5217.2025    184.52621    78.963842 
   71100    914.60845   -109.65826   0.82755694   -108.83071    14266.691    4.2876525    4.2876525    4.2876525    14266.691   -39532.809     96076.41   -13743.529    -3158.364   -9163.5297    20218.662    78.824052 
   71200    1294.5459   -109.99669    1.1713323   -108.82536    6819.7586    4.2901903    4.2901903    4.2901903    6819.7586   -37920.323    81347.428   -22967.829    -1070.017     46012.78    -8415.545    78.964094 
   71300     1984.499   -110.60279    1.7956164   -108.80717    11145.071    4.2865115    4.2865115    4.2865115    11145.071    3003.5414    36765.564   -6333.8918    404.72964    -7822.531   -4250.0509     78.76114 
   71400    1128.0834   -109.84561    1.0207136    -108.8249   -318.94852     4.279907     4.279907     4.279907   -318.94852   -8630.3936    607.78243    7065.7657   -8828.3837      9492.68    34277.323    78.397643 
   71500    932.30778   -109.67584   0.84357167   -108.83227   -14865.432    4.2805773    4.2805773    4.2805773   -14865.432   -33818.835    12652.615   -23430.076    3886.8204    42227.455    2253.0699    78.434485 
   71600    1683.8047   -110.34681    1.5235418   -108.82327    675.19264    4.2882683    4.2882683    4.2882683    675.19264   -15310.348    19445.706   -2109.7807    17984.729   -13100.022    648.45474    78.858019 
   71700    1398.5657   -110.08811    1.2654517   -108.82266    4988.3562    4.2858573    4.2858573    4.2858573    4988.3562    8844.3196    19937.551   -13816.802    2145.5661    8871.0331    25825.924     78.72508 
   71800    1035.7495   -109.75835    0.9371679   -108.82118    29551.562    4.2755979    4.2755979    4.2755979    29551.562    23216.181    64029.316    1409.1902   -7617.2742    31832.239     17734.66    78.161082 
   71900    1643.9052   -110.30637    1.4874399   -108.81893     3318.482     4.283092     4.283092     4.283092     3318.482   -26700.542    3.4426482    36652.546    22881.338    -10788.49   -6385.4291    78.572796 
   72000    1379.1823   -110.07078    1.2479131   -108.82287     15723.12    4.2784842    4.2784842    4.2784842     15723.12    8456.5021    33198.948    5513.9092    13540.569    -140.3301    2340.9084     78.31948 
   72100    979.94755   -109.72272   0.88667714   -108.83604    18262.803    4.2787801    4.2787801    4.2787801    18262.803    574.45502    67029.694   -12815.742   -10365.233    45421.572    21582.743    78.335733 
   72200    1773.9362   -110.43609    1.6050947     -108.831   -7812.1796    4.2867578    4.2867578    4.2867578   -7812.1796   -26216.689   -14027.809    16807.959    15043.677    689.60116   -5672.1333    78.774714 
   72300    1820.5645    -110.4743     1.647285   -108.82701     17053.58    4.2761041    4.2761041    4.2761041     17053.58   -7057.8293    19121.026    39097.545    2160.4377    1547.7168   -3588.2896    78.188848 
   72400    756.68569   -109.53506   0.68466511   -108.85039    -22535.01    4.2835045    4.2835045    4.2835045    -22535.01    -45446.19   -9689.5493   -12469.291   -9898.8756    50905.656    16554.024    78.595498 
   72500    1635.6677   -110.31476    1.4799865   -108.83477   -14534.341    4.2851956    4.2851956    4.2851956   -14534.341   -27719.928   -1837.2013   -14045.893   -1331.6601    13412.514     11909.66    78.688625 
   72600    2336.8061   -110.93219    2.1143913    -108.8178   -14636.659    4.2920419    4.2920419    4.2920419   -14636.659   -28816.865   -18387.452    3294.3393   -375.28045   -1800.0738   -17038.718    79.066383 
   72700    878.89711   -109.62658   0.79524458   -108.83134   -48557.145    4.2959319    4.2959319    4.2959319   -48557.145    -63973.63   -6824.6891   -74873.115   -8267.6997    59293.688    11479.944    79.281554 
   72800    1505.8888   -110.18025    1.3625598   -108.81769     6505.608    4.2717011    4.2717011    4.2717011     6505.608   -15051.119    7511.1255    27056.817   -13804.853    15914.591    20774.335    77.947566 
   72900    2060.0472   -110.68591     1.863974   -108.82193    887.84679    4.2828684    4.2828684    4.2828684    887.84679   -17291.636    -16600.14    36555.316    19359.922    -15922.56   -15425.375     78.56049 
   73000    1212.9442   -109.92561    1.0974974   -108.82811   -19137.523    4.2940885    4.2940885    4.2940885   -19137.523   -34543.851    5381.9307   -28250.648   -577.22817    32029.516    4694.0119    79.179542 
   73100    1221.6155   -109.93087    1.1053434   -108.82553    8557.9798    4.2935025    4.2935025    4.2935025    8557.9798   -25343.322    27642.933    23374.329    -5021.415    15771.431     25389.27    79.147125 
   73200    1784.2962   -110.41892    1.6144687   -108.80445   -13757.114    4.2995628    4.2995628    4.2995628   -13757.114   -55737.149    -38515.12    52980.926    29891.679   -15011.725   -12608.876    79.482752 
   73300    1161.9881   -109.85913    1.0513912   -108.80774    9103.5332    4.2767064    4.2767064    4.2767064    9103.5332   -10085.275    25750.427    11645.447   -2141.6038    38900.189    8945.9282    78.221891 
   73400    1203.9562   -109.90805    1.0893649   -108.81869    8790.9195     4.272842     4.272842     4.272842    8790.9195    4300.7069    33933.747   -11861.695   -496.40318    27162.118    21563.006     78.01004 
   73500    1676.6411   -110.33667    1.5170601   -108.81961   -12023.605     4.290525     4.290525     4.290525   -12023.605   -40558.771   -10799.966    15287.923    20535.938   -9339.4528    9223.9042    78.982579 
   73600     1372.186   -110.07005    1.2415828   -108.82847   -4310.3079    4.2830367    4.2830367    4.2830367   -4310.3079   -36333.268    30868.057    -7465.713   -348.50469    18322.959     2158.712    78.569751 
   73700    839.44721    -109.5984   0.75954948   -108.83885    10670.883    4.2747387    4.2747387    4.2747387    10670.883   -6789.7335    71222.269   -32419.887   -5812.8084    20846.623    29357.732    78.113969 
   73800    1848.7467    -110.5019    1.6727849   -108.82912    -5834.937    4.2810593    4.2810593    4.2810593    -5834.937   -14225.526   -2134.1358   -1145.1488    3250.6587   -8586.1204    28427.909    78.460982 
   73900    1805.9112   -110.46496    1.6340264   -108.83093    9411.5634    4.2806952    4.2806952    4.2806952    9411.5634   -16307.987    53343.772   -8801.0955    3581.9756    14314.767     -18843.3    78.440965 
   74000    593.17033   -109.38344   0.53671298   -108.84673   -457.81141    4.2818528    4.2818528    4.2818528   -457.81141   -4174.2259    7879.8028   -5079.0111   -2668.7614    26790.748    25830.021    78.504619 
   74100     1365.614   -110.06975    1.2356362   -108.83412   -27315.869    4.2846183    4.2846183    4.2846183   -27315.869   -24942.168   -20911.766   -36093.672   -10874.492   -10080.724    35981.174    78.656824 
   74200     1907.286   -110.54908    1.7257524   -108.82333    8856.8388    4.2735077    4.2735077    4.2735077    8856.8388    10887.528    26304.406   -10621.418   -784.70546    3792.3805   -24173.678    78.046506 
   74300    1488.0711   -110.18215     1.346438   -108.83571   -9761.2835     4.276988     4.276988     4.276988   -9761.2835   -5253.8917      13574.5   -37604.459    136.53924    24136.383    5268.8402    78.237342 
   74400     848.0728   -109.60874   0.76735409   -108.84139   -12340.777     4.287873     4.287873     4.287873   -12340.777   -29890.112    26351.943   -33484.162   -15234.516    8562.6719    33125.707    78.836208 
   74500    1607.4352    -110.2815    1.4544411   -108.82706   -14759.206    4.2880985    4.2880985    4.2880985   -14759.206   -31854.315   -12693.147    269.84536     -8114.54   -3566.5321   -7854.7194    78.848652 
   74600    1706.8506   -110.36313    1.5443943   -108.81873   -361.53847     4.282423     4.282423     4.282423   -361.53847    7889.1267   -2141.6488   -6832.0933    4603.7773    15170.163   -344.76946    78.535984 
   74700    1254.8009   -109.96471    1.1353702   -108.82934   -14106.824    4.2767495    4.2767495    4.2767495   -14106.824    8518.9737   -16785.904   -34053.543   -11318.463    9045.9043    51597.029    78.224255 
   74800    1256.1844   -109.97303     1.136622   -108.83641    -3598.063    4.2748283    4.2748283    4.2748283    -3598.063   -38272.403   -6875.6747    34353.888    -22253.93   -8112.7201   -4436.1888    78.118885 
   74900    1412.9113   -110.11089    1.2784319   -108.83246   -9101.5197    4.2839214    4.2839214    4.2839214   -9101.5197   -16739.761   -11460.825    896.02642   -4150.6346   -3411.9964   -3737.5944    78.618451 
   75000    1342.3815   -110.04018     1.214615   -108.82557   -6981.3466    4.2869495    4.2869495    4.2869495   -6981.3466    21270.255    16841.355    -59055.65   -1326.0101    3461.5911    52636.186    78.785285 
   75100    1642.4557   -110.29908    1.4861284   -108.81296     1276.161    4.2836815    4.2836815    4.2836815     1276.161   -13893.481    20812.028   -3090.0642   -6078.1706    3694.4649    3651.0033    78.605246 
   75200    1167.6739   -109.87767    1.0565358   -108.82113   -9259.3586    4.2855025    4.2855025    4.2855025   -9259.3586   -22793.079   -22388.756    17403.759    5699.2912   -4073.8462   -841.02384    78.705532 
   75300    1188.3015   -109.89689    1.0752002   -108.82169   -12698.131    4.2833859    4.2833859    4.2833859   -12698.131    22746.586   -33649.686   -27191.292   -3797.5263   -3564.0102    51215.155    78.588973 
   75400    1607.5899   -110.26831    1.4545811   -108.81373     3466.633    4.2815168    4.2815168    4.2815168     3466.633    11275.856   -13455.488    12579.531   -588.50396    10675.285    1313.2314    78.486136 
   75500    1395.8109   -110.08334     1.262959   -108.82038    -2.927633    4.2835349    4.2835349    4.2835349    -2.927633    -12499.41   -37902.447    50393.074    6969.7166    2297.3058   -11827.619    78.597173 
   75600    918.91006    -109.6579   0.83144914   -108.82645    5974.8368    4.2860857    4.2860857    4.2860857    5974.8368   -10902.469   -24964.453    53791.433   -1208.5878    -10630.49    33206.415     78.73767 
   75700     1254.748   -109.95914    1.1353223   -108.82382     2897.394    4.2864794    4.2864794    4.2864794     2897.394    -25227.02    28596.438    5322.7644   -5170.5865    15971.514    11541.795    78.759366 
   75800    1787.2701   -110.43092    1.6171595   -108.81376    11060.347     4.276751     4.276751     4.276751    11060.347   -15221.493   -8496.5579    56899.093    4828.4716   -2317.0218   -19467.668    78.224338 
   75900    1091.9308    -109.8191   0.98800192    -108.8311   -5901.7933    4.2809483    4.2809483    4.2809483   -5901.7933   -7510.5535   -11687.089     1492.263    526.58057   -19171.977    30369.951    78.454877 
   76000     785.7843    -109.5523   0.71099414   -108.84131   -9853.4113    4.2821194    4.2821194    4.2821194   -9853.4113   -15203.939    14281.706   -28638.002   -5183.7476    11763.008    37788.068    78.519284 
   76100    1804.4263   -110.46431    1.6326828   -108.83163    15396.555    4.2744418    4.2744418    4.2744418    15396.555   -4107.9824    19257.529     31040.12    127.32369    24860.519   -18850.334    78.097696 
   76200     1769.679   -110.43451    1.6012427   -108.83327    5080.6676    4.2813815    4.2813815    4.2813815    5080.6676    3350.3629    859.39959     11032.24    8967.2858   -16475.204    8150.1487    78.478698 
   76300    826.01212   -109.58205   0.74739312   -108.83465   -10109.979    4.2913353    4.2913353    4.2913353   -10109.979   -21126.129   -1896.5186   -7307.2875   -2407.2994   -11435.683    40240.492    79.027339 
   76400    1693.1237   -110.35199    1.5319739   -108.82002   -9481.7351    4.2840551    4.2840551    4.2840551   -9481.7351   -39330.779    27495.863   -16610.289   -2797.8792    24697.544   -4029.3566    78.625813 
   76500    1863.9249   -110.50055    1.6865184   -108.81403    29655.748    4.2699246    4.2699246    4.2699246    29655.748    14074.573    29667.523    45225.148   -803.81718   -4081.5722    12368.356    77.850359 
   76600    1209.8856   -109.93039    1.0947299   -108.83566   -4649.3187    4.2810147    4.2810147    4.2810147   -4649.3187    1431.5172    12592.071   -27971.544    1131.7687   -3822.4484    33126.816     78.45853 
   76700    1391.5608   -110.08386    1.2591134   -108.82475   -17385.403    4.2895369    4.2895369    4.2895369   -17385.403   -48189.214    15867.301   -19834.297    601.15521     28002.66    -9891.192    78.928023 
   76800    1750.5924   -110.39592    1.5839728   -108.81195    5012.3727      4.27857      4.27857      4.27857    5012.3727   -14237.415     5475.848    23798.685   -6618.5366    6419.9226    11037.335    78.324195 
   76900     902.7798   -109.64407   0.81685414   -108.82721   -5751.9135    4.2811517    4.2811517    4.2811517   -5751.9135    14759.221    10663.765   -42678.727    11939.786   -9619.3963    39513.903    78.466063 
   77000    1363.4838     -110.055    1.2337088   -108.82129    -7922.803    4.2845625    4.2845625    4.2845625    -7922.803   -14452.251    23737.202    -33053.36    3414.9416     11726.41   -994.53402    78.653751 
   77100    1844.7363   -110.48122    1.6691561   -108.81206    13679.193    4.2825946    4.2825946    4.2825946    13679.193    12624.434    23592.199    4820.9468   -7589.7118    2290.4704   -1806.3529    78.545427 
   77200    942.02699   -109.67799   0.85236582   -108.82562   -6235.3133    4.2866805    4.2866805    4.2866805   -6235.3133    44159.093   -669.45917   -62195.574     3538.361   -10051.145     53958.51    78.770451 
   77300     1139.985    -109.8539    1.0314824   -108.82241   -2480.5265    4.2764383    4.2764383    4.2764383   -2480.5265    20145.859   -264.11298   -27323.326    5568.8624     3195.885   -17319.697     78.20718 
   77400    1492.7076   -110.16816    1.3506332   -108.81752    15752.299     4.273333     4.273333     4.273333    15752.299    17623.864    10776.622    18856.411    7651.4396   -1062.8925   -12351.961    78.036939 
   77500    1547.6311   -110.22014    1.4003291   -108.81981   -25297.772    4.2941415    4.2941415    4.2941415   -25297.772   -379.35353   -31491.871   -44022.092   -2107.0895   -5375.3169    57701.969    79.182472 
   77600    1405.1088   -110.08097     1.271372    -108.8096   -15518.529     4.289573     4.289573     4.289573   -15518.529   -7464.3304   -7172.0543   -31919.201   -1912.1396    5714.6568   -30173.755    78.930018 
   77700    1365.3737   -110.04588    1.2354189   -108.81046   -15462.149    4.2745789    4.2745789    4.2745789   -15462.149    6303.9995   -21085.195   -31605.252   -5688.7432   -4370.0668   -24098.298    78.105214 
   77800    1472.1332   -110.15134    1.3320171   -108.81932    10063.113    4.2751618    4.2751618    4.2751618    10063.113    33814.583     4175.217   -7800.4612   -8204.5102   -1366.1783    54651.346    78.137166 
   77900    1632.9917   -110.30136    1.4775652   -108.82379   -4619.0306    4.2893655    4.2893655    4.2893655   -4619.0306    23076.561   -10670.579   -26263.074    12769.897   -16056.937   -28019.739    78.918565 
   78000    1096.2466   -109.81264     0.991907   -108.82073   -7394.7282    4.2966573    4.2966573    4.2966573   -7394.7282    4925.7938   -15839.676   -11270.302    6021.8942   -874.54674   -31547.509    79.321724 
   78100    1617.5834   -110.26656    1.4636235   -108.80294   -10760.019    4.2931074    4.2931074    4.2931074   -10760.019   -12831.629    -19218.57   -229.85907   -14298.598    10981.158    21696.247    79.125279 
   78200    1639.9746    -110.2816    1.4838834   -108.79772    3155.2777    4.2790671    4.2790671    4.2790671    3155.2777    24386.632    3596.8267   -18517.625    4823.1314    1915.3574   -33122.112    78.351494 
   78300    1318.7318   -110.00293    1.1932162   -108.80971   -3165.5209    4.2753526    4.2753526    4.2753526   -3165.5209     6031.741   -14831.013   -697.29067    -2483.644    810.52363   -30313.889    78.147628 
   78400    1596.9548   -110.25738    1.4449582   -108.81242   -24521.727    4.2948438    4.2948438    4.2948438   -24521.727   -47740.577   -36530.082    10705.478   -6581.3106    9859.4523    20582.068    79.221327 
   78500    1193.8938   -109.88378    1.0802602   -108.80352   -34472.849    4.3014142    4.3014142    4.3014142   -34472.849   -4882.0528    -40028.93   -58507.564    7206.2865    2673.4629   -34900.822    79.585469 
   78600    1259.2813   -109.93332    1.1394242    -108.7939    13052.945    4.2825719    4.2825719    4.2825719    13052.945    34888.961   -800.83011    5070.7038    -10452.69   -2942.5645   -28998.342    78.544178 
   78700    1773.8067   -110.39634    1.6049776   -108.79136    16749.634    4.2747058    4.2747058    4.2747058    16749.634    24812.265    9051.5516    16385.086   -9953.7311    8771.8029    22696.501    78.112169 
   78800    594.38152   -109.36503   0.53780889   -108.82722   -1694.9006    4.2828787    4.2828787    4.2828787   -1694.9006    54431.411   -15792.439   -43723.673    6000.7643    8427.3458   -50982.787     78.56106 
   78900    1341.7566   -110.03504    1.2140496   -108.82099   -17000.164    4.2958573    4.2958573    4.2958573   -17000.164    15797.954   -25711.794   -41086.652    1648.5363    718.16462   -18816.008    79.277426 
   79000    1989.4938   -110.60381    1.8001358   -108.80367    2703.2046    4.2840242    4.2840242    4.2840242    2703.2046    10578.273    2309.5533   -4778.2128    2000.7045     3806.387    4178.6727    78.624108 
   79100    764.03547    -109.5139   0.69131535   -108.82258    1539.5432    4.2730971    4.2730971    4.2730971    1539.5432    77405.867   -13950.699   -58836.539   -6100.8568    830.81427   -61643.916    78.024011 
   79200    1117.0724   -109.83395    1.0107505    -108.8232   -13179.534    4.2824766    4.2824766    4.2824766   -13179.534    5001.2809   -30512.632   -14027.252    7677.4988    1983.3309   -1775.4282    78.538933 
   79300    1533.9421   -110.20235    1.3879431   -108.81441   -18220.688    4.2925581    4.2925581    4.2925581   -18220.688   -39054.611   -3045.1915   -12562.263    13084.888    160.47825    1997.6067    79.094914 
   79400    1024.1993   -109.74389   0.92671708   -108.81717   -7992.1547    4.2919644    4.2919644    4.2919644   -7992.1547    6030.0807    10221.396   -40227.941    4720.1716    2486.9441   -50977.406    79.062097 
   79500    1400.5404   -110.07204    1.2672384    -108.8048    15881.959    4.2748303    4.2748303    4.2748303    15881.959    2719.8248    31440.702     13485.35    3532.5584   -1334.4939    23544.353    78.118992 
   79600    1285.0664   -109.98009     1.162755   -108.81733   -1742.4688    4.2799414    4.2799414    4.2799414   -1742.4688   -15469.073    14398.885   -4157.2178    3908.8947   -5779.0063    9559.3487    78.399532 
   79700    1316.4297   -110.00921    1.1911333   -108.81808   -25385.543    4.2965182    4.2965182    4.2965182   -25385.543    8066.8922   -39131.799   -45091.721    4392.5295    3712.0974   -48072.144    79.314018 
   79800    1305.9235    -109.9878    1.1816271   -108.80617    13771.311    4.2885132    4.2885132    4.2885132    13771.311    52791.884    25094.464   -36572.414   -35.288561    3707.9021    34342.331    78.871525 
   79900    1642.2322   -110.28379    1.4859262   -108.79786    8357.8766    4.2924022    4.2924022    4.2924022    8357.8766    20281.791    19075.508   -14283.668   -4070.1703    1463.9321    18970.728    79.086295 
   80000    1801.9181   -110.43038    1.6304133   -108.79996    618.64584    4.2840539    4.2840539    4.2840539    618.64584   -1446.1889    14414.714   -11112.587   -4334.7716     1520.502   -26811.874    78.625748 
   80100    733.62942   -109.48575   0.66380332   -108.82195    14708.172    4.2714105    4.2714105    4.2714105    14708.172    45894.833    47826.942    -49597.26   -4186.1304    3126.5559    47512.519    77.931663 
   80200    1741.5688   -110.40444    1.5758081   -108.82863   -10283.165    4.2913063    4.2913063    4.2913063   -10283.165   -5284.4384    10071.366   -35636.424   -822.00964    4368.7811    7098.2684    79.025735 
   80300    2030.8197    -110.6432    1.8375284   -108.80567    2152.7344    4.2962218    4.2962218    4.2962218    2152.7344    3907.1842    11735.728   -9184.7086   -431.79389   -1152.1463    14041.611    79.297607 
   80400    849.18518   -109.57289   0.76836059   -108.80453    2314.0384    4.2972894    4.2972894    4.2972894    2314.0384     51839.33   -19623.354    -25273.86   -1857.6745   -10795.671    52816.016    79.356737 
   80500     1650.841   -110.27447    1.4937156   -108.78076    3662.0591    4.2939211    4.2939211    4.2939211    3662.0591     10314.12   -8314.7112    8986.7689    2078.9978   -18216.092   -30435.127    79.170279 
   80600    1477.8109   -110.12157    1.3371543   -108.78441    11035.837    4.2806793    4.2806793    4.2806793    11035.837      37241.8   -8713.1857    4578.8981   -2237.6569   -5762.4266    33284.785    78.440091 
   80700    1338.1811    -110.0148    1.2108144   -108.80398    -6939.938    4.2796518    4.2796518    4.2796518    -6939.938    26265.144   -2829.5133   -44255.445   -7100.6648   -1318.4108    49888.996     78.38362 
   80800    1404.3173   -110.07956    1.2706558   -108.80891    1984.0631    4.2841532    4.2841532    4.2841532    1984.0631    6783.5893   -5098.1308    4266.7309    723.96873   -3049.6741   -41087.217    78.631215 
   80900    1264.7253    -109.9568      1.14435   -108.81245   -8258.1678    4.2904721    4.2904721    4.2904721   -8258.1678   -12177.626    9296.1886   -21893.066    14867.275    -2422.916    16448.202    78.979656 
   81000    1431.3125   -110.10115    1.2950817   -108.80607   -5702.1539    4.2882893    4.2882893    4.2882893   -5702.1539      5090.28   -8131.8685   -14064.873    6447.6415   -1708.3195    29112.486    78.859172 
   81100    1244.5685   -109.92772    1.1261118   -108.80161    7025.2247    4.2780864    4.2780864    4.2780864    7025.2247    26630.685    21724.479    -27279.49   -8745.2175   -5614.1827   -52745.099    78.297636 
   81200    1135.2394   -109.84059    1.0271885    -108.8134   -9549.4584    4.2843706    4.2843706    4.2843706   -9549.4584   -2685.3013   -21666.225   -4296.8484    11916.475    150.14727   -13527.762    78.643185 
   81300    1672.5125   -110.32427    1.5133245   -108.81094   -5442.2731    4.2829948    4.2829948    4.2829948   -5442.2731   -18653.743    203.73576    2123.1876    7704.9353    2784.4856    23783.508    78.567446 
   81400     1063.671   -109.78718   0.96243186   -108.82475    2581.5873    4.2843334    4.2843334    4.2843334    2581.5873    14316.185    21194.612   -27766.035    -6263.111    221.64952   -62499.105    78.641134 
   81500    1171.8617   -109.88384    1.0603251   -108.82351   -21645.367     4.291185     4.291185     4.291185   -21645.367   -26981.113   -16067.215   -21887.772    13859.011    4785.6776   -30162.987    79.019035 
   81600    1535.1425    -110.1976    1.3890292   -108.80857   -2013.3841     4.278723     4.278723     4.278723   -2013.3841   -17734.541   -7307.5611     19001.95    10189.657    6304.7301    19424.377    78.332594 
   81700    1010.3623   -109.73253   0.91419703   -108.81833   -16873.247    4.2846598    4.2846598    4.2846598   -16873.247     51449.95   -64573.798   -37495.894    -8711.259    5569.5185   -63254.338     78.65911 
   81800    1542.5904   -110.20267    1.3957683    -108.8069   -27347.351     4.294689     4.294689     4.294689   -27347.351   -8460.8097   -23634.806   -49946.438    5288.5556   -9836.3967   -5338.4775    79.212765 
   81900    1437.8905   -110.11088    1.3010336   -108.80984    14578.507    4.2752104    4.2752104    4.2752104    14578.507   -23415.984    34155.297    32996.207    25948.287   -6557.3864    15920.333    78.139833 
   82000    1290.2176   -109.98937     1.167416   -108.82196     14311.25    4.2731499    4.2731499    4.2731499     14311.25    21331.991    28731.329   -7129.5703    11942.691    6316.7153   -59835.515    78.026905 
   82100    1624.8918   -110.29931    1.4702362   -108.82908   -25689.987    4.2931584    4.2931584    4.2931584   -25689.987    -28261.27    7258.1924   -56066.882   -514.23569   -24421.272    -789.3738    79.128098 
   82200     1283.659   -109.98838    1.1614816    -108.8269    -8711.467    4.2906731    4.2906731    4.2906731    -8711.467   -27865.863    13665.113   -11933.652    9725.8261   -11751.042    29250.831    78.990759 
   82300    1865.7325   -110.50214     1.688154   -108.81399   -1514.7072    4.2852529    4.2852529    4.2852529   -1514.7072   -1508.5317   -4757.9456    1722.3556    5782.6763     5166.375   -31275.188    78.691779 
   82400    1737.5542   -110.38096    1.5721755   -108.80879   -18540.125    4.2908611    4.2908611    4.2908611   -18540.125   -698.27643    3677.2437   -58599.343    -5214.004    -19594.96    6665.7003    79.001141 
   82500    750.48861   -109.49415   0.67905787   -108.81509    7993.9091    4.2891796    4.2891796    4.2891796    7993.9091   -15133.885    75403.915   -36288.303    5944.2049   -11580.274    46353.865    78.908303 
   82600    1869.3118   -110.49786    1.6913926   -108.80647   -17794.201    4.2895904    4.2895904    4.2895904   -17794.201   -39816.572    1727.1145   -15293.145     20687.55    16423.368   -9934.3453    78.930978 
   82700    1820.2277   -110.46087    1.6469803   -108.81389    1755.6368     4.272381     4.272381     4.272381    1755.6368     10673.93    8701.6287   -14108.648    6589.9069   -11048.578    11984.478    77.984791 
   82800    1022.2646    -109.7634    0.9249665   -108.83843    5225.1857    4.2723842    4.2723842    4.2723842    5225.1857    1629.4011    25224.688   -11178.532   -4397.3857   -20688.194    34661.514    77.984971 
   82900    1139.3698   -109.87113    1.0309257    -108.8402   -20811.251     4.294125     4.294125     4.294125   -20811.251   -55766.294    6779.7156   -13447.175    7675.0701    6420.6786   -5116.7094    79.181559 
   83000    1502.0031   -110.18282     1.359044   -108.82378   -1545.6899    4.2875462    4.2875462    4.2875462   -1545.6899    15622.955   -40834.938    20574.913    11495.242    6115.6428   -15738.773    78.818187 
   83100    858.94223   -109.60373   0.77718898   -108.82654    25668.278    4.2756746    4.2756746    4.2756746    25668.278    69092.678   -8283.5868    16195.741    2350.4799   -24846.662    26875.918    78.165291 
   83200    1042.9423   -109.77031   0.94367608   -108.82664    2237.7805    4.2900313    4.2900313    4.2900313    2237.7805    13239.493     2225.318   -8751.4693   -5602.6905    -37996.21     9206.048    78.955316 
   83300    1553.1797   -110.21828    1.4053496   -108.81293   -8995.9942    4.2964027    4.2964027    4.2964027   -8995.9942      24234.1   -41573.893   -9648.1898    3093.3622    5927.1807   -5822.2386    79.307625 
   83400    860.04543   -109.59635   0.77818718   -108.81817   -7333.2063    4.2860394    4.2860394    4.2860394   -7333.2063    56490.368   -64251.317    -14238.67    2906.9112   -15800.986    28901.857    78.735117 
   83500    765.68828   -109.52368   0.69281084   -108.83087   -15799.629    4.2769618    4.2769618    4.2769618   -15799.629    -33214.36   -14294.389    109.86127   -15346.375   -54271.593    11771.212    78.235907 
   83600     1673.593   -110.34187    1.5143021   -108.82757    88.576677    4.2804617    4.2804617    4.2804617    88.576677   -10985.754   -14337.306     25588.79   -1382.6797    -12284.85   -6918.7607    78.428126 
   83700    1527.1227   -110.21229    1.3817727   -108.83052   -1263.3922    4.2872738    4.2872738    4.2872738   -1263.3922    34582.523   -38857.193    484.49352    6776.1358    8340.7041    27930.532    78.803162 
   83800    843.54546   -109.59534   0.76325766   -108.83208    679.09147    4.2852491    4.2852491    4.2852491    679.09147    19675.192   -17222.927   -414.99099   -2816.0779   -51156.758    14169.421    78.691569 
   83900    1355.1256    -110.0526    1.2261461   -108.82645   -17953.714    4.2912919    4.2912919    4.2912919   -17953.714   -7460.2758   -26218.288   -20182.578   -10570.632   -1108.4762   -6076.8657     79.02494 
   84000    1616.8291   -110.28212    1.4629409   -108.81918   -17477.136     4.285452     4.285452     4.285452   -17477.136   -34495.248   -1434.1194    -16502.04   -1370.0688    36726.977     3374.251    78.702748 
   84100    1076.4483   -109.79432   0.97399307   -108.82033    3784.9537    4.2784395    4.2784395    4.2784395    3784.9537    12971.275    32797.661   -34414.074    10053.082    -61783.65    18521.083    78.317025 
   84200    1495.9923   -110.17187    1.3536053   -108.81826   -26463.903    4.2981261    4.2981261    4.2981261   -26463.903   -18944.728   -16514.202   -43932.778   -22636.126   -6528.5769   -5787.1686    79.403099 
   84300    1641.3917   -110.29997    1.4851657   -108.81481   -9070.9811    4.2831691    4.2831691    4.2831691   -9070.9811    3581.5719   -7153.7767   -23640.739    -10205.96    36458.812   -6324.8631     78.57704 
   84400    866.10991   -109.60283   0.78367445   -108.81915    12925.457     4.258767     4.258767     4.258767    12925.457    54123.315    34753.058   -50100.001    3676.4214   -61953.559    21687.202     77.24167 
   84500    1461.5217   -110.15999    1.3224155   -108.83758   -8142.7329    4.2791032    4.2791032    4.2791032   -8142.7329    14098.494    11623.349   -50150.041   -13265.968   -35435.127    8966.9358     78.35348 
   84600    2011.7547   -110.63919     1.820278   -108.81891   -8133.9222    4.2888809    4.2888809    4.2888809   -8133.9222    36640.437   -28763.843   -32278.361    8078.3848    10326.171   -11877.655    78.891819 
   84700    892.27932   -109.63571   0.80735308   -108.82836   -25119.376    4.2892077    4.2892077    4.2892077   -25119.376   -13093.094    9908.0997   -72173.132   -6355.9447   -56983.808    9235.6387    78.909854 
   84800    1381.3673   -110.07019    1.2498902    -108.8203   -21367.309    4.2821616    4.2821616    4.2821616   -21367.309   -2371.6742   -1884.4149   -59845.839    4679.2178   -4420.4619    21706.542    78.521605 
   84900    1725.6283   -110.37675    1.5613847   -108.81536    22437.549    4.2660556    4.2660556    4.2660556    22437.549    62822.066    13822.851   -9332.2712    11489.383    17859.579   -19670.029     77.63893 
   85000    923.82149   -109.67938    0.8358931   -108.84348    5838.8137    4.2831832    4.2831832    4.2831832    5838.8137    2189.2082     48728.96   -33401.727   -13207.985   -52159.992   -10828.291    78.577818 
   85100    1686.6473   -110.34354    1.5261139   -108.81742   -31875.636    4.3020734    4.3020734    4.3020734   -31875.636   -28584.234   -18581.562   -48461.112     1931.162   -4083.3764    19196.351    79.622066 
   85200    1581.2641   -110.23804    1.4307609   -108.80728    5392.6368    4.2834895    4.2834895    4.2834895    5392.6368    27946.663    15599.044   -27367.796    6274.9378    16193.119    -27127.23    78.594674 
   85300    820.76917   -109.56021   0.74264919   -108.81756    7311.1643    4.2750408    4.2750408    4.2750408    7311.1643    5657.1614    19389.559    -3113.228    4480.3173   -45539.819    -20474.15    78.130533 
   85400    1341.0594   -110.03948    1.2134187   -108.82606   -9457.2016    4.2828097    4.2828097    4.2828097   -9457.2016   -8935.2572    896.71521   -20333.063   -3477.9583   -18029.293    5580.2014    78.557259 
   85500    1947.9797   -110.58222     1.762573   -108.81965     9191.385    4.2824832    4.2824832    4.2824832     9191.385    42624.203    2016.1451   -17066.193    93.951278    23784.961   -7524.7561    78.539293 
   85600    844.53488   -109.60372    0.7641529   -108.83957   -5856.4224     4.291996     4.291996     4.291996   -5856.4224    28836.002   -12184.621   -34220.648    7902.0862   -43048.692    -18277.56    79.063843 
   85700    1174.7019    -109.8853    1.0628949   -108.82241     -10131.7    4.2948416    4.2948416    4.2948416     -10131.7   -10829.718   -25205.658    5640.2748     292.6519    -45778.73    626.49365    79.221206 
   85800    2162.3889   -110.75754    1.9565749   -108.80096   -7101.9149    4.2931476    4.2931476    4.2931476   -7101.9149    15796.123   -28999.578   -8102.2895   -3162.5749    6771.5507   -6297.0147      79.1275 
   85900    1236.9671   -109.94008    1.1192338   -108.82084   -38246.751    4.2877362    4.2877362    4.2877362   -38246.751   -33692.542   -7996.9042   -73050.806    484.67259   -37913.868   -29218.569    78.828667 
   86000    1179.9428   -109.89343    1.0676371   -108.82579    6194.7846    4.2586678    4.2586678    4.2586678    6194.7846    -14055.56    24296.528    8343.3855    23589.061   -40833.812   -8286.7022    77.236272 
   86100    1783.4876   -110.45913     1.613737   -108.84539    5431.8993    4.2797566    4.2797566    4.2797566    5431.8993    31544.189   -12528.452   -2720.0393    61.592599    12657.216    18349.023    78.389379 
   86200    1649.3302   -110.32616    1.4923486   -108.83381   -36987.236    4.2955775    4.2955775    4.2955775   -36987.236   -33964.625   -13510.686   -63486.395   -13740.566    10705.742   -3874.0456    79.261938 
   86300    1334.1079   -110.02799    1.2071289   -108.82086     27630.28     4.265471     4.265471     4.265471     27630.28     47759.79    33108.026    2023.0251    20749.456   -33983.506   -19104.808    77.607014 
   86400    1372.9818    -110.0789    1.2423027    -108.8366   -1498.7088     4.281098     4.281098     4.281098   -1498.7088     36388.64   -40280.024   -604.74203      14493.6   -5187.5937    31344.923     78.46311 
   86500    1764.3233   -110.41432    1.5963968   -108.81793     -5731.15    4.2888949    4.2888949    4.2888949     -5731.15    41364.356   -13535.649   -45022.157   -8721.3654    25524.045     17883.18    78.892591 
   86600    1336.5553   -110.02667    1.2093433   -108.81733    6580.8338    4.2890967    4.2890967    4.2890967    6580.8338    29602.733    35975.341   -45835.572    6510.1133   -17047.072   -14448.136    78.903725 
   86700    1193.2605   -109.89232    1.0796872   -108.81263   -37338.823    4.3019086    4.3019086    4.3019086   -37338.823   -27325.622   -38342.618   -46348.231    19395.564   -3211.9042     30500.67    79.612915 
   86800    1825.2604   -110.46147     1.651534   -108.80994    13622.387    4.2690845    4.2690845    4.2690845    13622.387    50602.657    14560.079   -24295.574    4022.1406    2491.0938    26193.245    77.804416 
   86900    1768.9001   -110.41946     1.600538   -108.81892     29972.21    4.2612231    4.2612231    4.2612231     29972.21    50132.723    66567.425   -26783.518   -14435.098   -25082.678   -13620.587    77.375382 
   87000    1051.7517   -109.79835   0.95164708   -108.84671   -16773.678     4.290077     4.290077     4.290077   -16773.678    10085.264     1502.073   -61908.371    6963.4791   -6472.3092    26165.246    78.957842 
   87100    1119.6184   -109.84763    1.0130543   -108.83457    18670.982     4.295157     4.295157     4.295157    18670.982    94283.897    8678.8126   -46949.764   -54.534444    16060.715    12902.485    79.238661 
   87200    1790.1272   -110.43699    1.6197447   -108.81724    8757.9853    4.2935676    4.2935676    4.2935676    8757.9853    23162.502    46907.715   -43796.261   -24012.285   -5388.4063    -17960.42    79.150728 
   87300    1551.2071    -110.2221    1.4035648   -108.81853    22987.734    4.2762913    4.2762913    4.2762913    22987.734    59410.148    36131.477   -26578.423   -10558.894   -4742.9811    40045.785    78.199114 
   87400    1084.1845   -109.81338   0.98099291   -108.83238    4132.8549    4.2772622    4.2772622    4.2772622    4132.8549     33718.31    15268.946   -36588.691    12046.404    19783.591    18982.142    78.252391 
   87500    1659.0424   -110.32813    1.5011365   -108.82699   -22221.767    4.2966089    4.2966089    4.2966089   -22221.767   -3974.7838   -25746.466   -36944.051    18707.397    11240.995   -36349.044    79.319043 
   87600    2014.5934   -110.63705    1.8228465    -108.8142   -4488.7231     4.293505     4.293505     4.293505   -4488.7231    32038.014   -16910.844   -28593.339   -5095.6917   -4759.8109     26488.72    79.147267 
   87700    1394.9349   -110.08289    1.2621664   -108.82072     1164.783    4.2830424    4.2830424    4.2830424     1164.783    42477.135     653.0686   -39635.854    17982.682     13068.38    14355.148    78.570066 
   87800    1007.7971   -109.74498     0.911876   -108.83311    1576.1768    4.2778962    4.2778962    4.2778962    1576.1768    25255.789     19325.81   -39853.069    14789.286    17320.986   -50148.321    78.287193 
   87900    1988.2657    -110.6175    1.7990246   -108.81848     9154.041    4.2842824    4.2842824    4.2842824     9154.041   -3350.4289    29697.727    1114.8253   -1745.0863   -15296.601     7312.584    78.638327 
   88000    1606.2708   -110.26768    1.4533876   -108.81429   -11779.228    4.3024126    4.3024126    4.3024126   -11779.228   -9248.9886    32636.976   -58725.671    753.90843    11516.738    10314.827    79.640902 
   88100    875.23403   -109.60814   0.79193014   -108.81621   -21585.569    4.2955812    4.2955812    4.2955812   -21585.569   -9174.6255    12707.767    -68289.85    13533.479     19196.24   -43468.487    79.262142 
   88200    1414.2228     -110.092    1.2796185   -108.81238    22740.277    4.2632607    4.2632607    4.2632607    22740.277   -4131.1367    48719.438    23632.529    6125.4243   -29751.378    438.48141    77.486433 
   88300    1914.4683    -110.5528    1.7322511   -108.82055    20654.902    4.2626132    4.2626132    4.2626132    20654.902    38260.297    33824.997   -10120.588   -12612.737   -16320.746    6411.1828    77.451131 
   88400    1198.8579   -109.92772    1.0847518   -108.84297   -1112.5041    4.2920226    4.2920226    4.2920226   -1112.5041    14699.057   -12374.569   -5662.0001    20054.082    20639.113   -29270.752    79.065316 
   88500    1084.9566   -109.80942   0.98169156   -108.82772   -10419.732     4.302795     4.302795     4.302795   -10419.732   -10469.794   -7582.6237   -13206.777    3647.5511   -12349.668    -5998.553    79.662139 
   88600    1653.5586   -110.30285    1.4961746   -108.80667     14207.41    4.2815324    4.2815324    4.2815324     14207.41    53239.668    19781.436   -30398.874   -13700.501   -28059.801    10676.659    78.486995 
   88700    1404.9261    -110.0822    1.2712067     -108.811    20580.816    4.2588244    4.2588244    4.2588244    20580.816    34643.234   -3293.5163     30392.73    30643.313     11390.35   -23199.624    77.244789 
   88800    1097.0723   -109.83033   0.99265407   -108.83768    16404.108    4.2733368    4.2733368    4.2733368    16404.108    12801.948     9041.691    27368.686    29094.902    850.10025   -22326.793    78.037144 
   88900     1480.992   -110.16809    1.3400327   -108.82805   -21272.462    4.2999643    4.2999643    4.2999643   -21272.462   -588.44781   -11091.984   -52136.954    3049.2502    -24055.65      15117.1    79.505018 
   89000     1558.353   -110.22971    1.4100306   -108.81968   -6124.6001    4.2896321    4.2896321    4.2896321   -6124.6001    25308.569   -31153.757   -12528.612   -2299.5724    -2659.205    661.27661    78.933276 
   89100    1635.1782   -110.28921    1.4795436   -108.80966    28062.737    4.2676104    4.2676104    4.2676104    28062.737    29607.069      13003.3    41577.841    18969.031    2193.8701   -19859.018    77.723846 
   89200    1521.2972   -110.19961    1.3765017   -108.82311    -5750.673    4.2774199    4.2774199    4.2774199    -5750.673   -832.60413    10114.575    -26533.99    21529.811   -15299.039    5886.8424    78.261046 
   89300    1141.3884   -109.86207    1.0327522   -108.82932   -5097.0539    4.2929405    4.2929405    4.2929405   -5097.0539    20028.107   -40090.773    4771.5043   -8782.5719   -2641.5945    11571.023    79.116051 
   89400    1909.5907   -110.53992    1.7278378   -108.81208   -11557.143    4.2947481    4.2947481    4.2947481   -11557.143   -2808.4013   -42473.107    10610.078   -16750.534    8062.6239     1111.201    79.216033 
   89500    1685.9077   -110.33292    1.5254448   -108.80747    -14400.79    4.2828523    4.2828523    4.2828523    -14400.79    -22483.43    19494.419    -40213.36    12676.059   -25115.725   -2232.3549    78.559604 
   89600    1242.9519   -109.93833     1.124649   -108.81368    657.71035    4.2714482    4.2714482    4.2714482    657.71035    22032.198   -555.51971   -19503.547   -4776.7344   -3103.5468    31692.649    77.933724 
   89700    1830.6658    -110.4814    1.6564249   -108.82498    13048.563     4.284418     4.284418     4.284418    13048.563    67462.619   -11302.852   -17014.077    4460.3886    3019.6381    17195.712    78.645798 
   89800    1557.1623    -110.2379    1.4089532   -108.82895    12259.342     4.289416     4.289416     4.289416    12259.342    62652.978    18878.077   -44753.029    15213.192   -19496.322   -7783.9811    78.921347 
   89900     842.8348   -109.59804   0.76261464   -108.83542    6642.0472    4.2846399    4.2846399    4.2846399    6642.0472    27407.711    54833.952   -62315.522     6364.903   -5716.1701      25019.2    78.658013 
   90000    1949.0869   -110.57301    1.7635747   -108.80944   -4975.3983    4.2882773    4.2882773    4.2882773   -4975.3983    8081.0208    17152.227   -40159.443     17297.28     16780.41    12328.844    78.858513 
   90100    1702.7119   -110.35246    1.5406495   -108.81182    183.48543    4.2831091    4.2831091    4.2831091    183.48543    21513.531    10093.646   -31056.721    3965.1676   -16174.313    -23959.68    78.573735 
   90200      996.781   -109.73193    0.9019084   -108.83002   -20321.733    4.2864132    4.2864132    4.2864132   -20321.733   -45368.331    41540.113   -57136.982   -2917.7483   -3709.8166    8323.9588     78.75572 
   90300    1490.3925   -110.16861    1.3485384   -108.82008    2862.0699    4.2868927    4.2868927    4.2868927    2862.0699    15982.783    34811.329   -42207.902    2752.0066    3535.1638    -5687.811    78.782153 
   90400    1510.4735   -110.19534    1.3667081   -108.82863   -10485.788    4.2865493    4.2865493    4.2865493   -10485.788    52465.981   -47689.617    -36233.73   -10162.766   -2574.9948   -57291.719    78.763221 
   90500    1624.4771    -110.2882    1.4698611   -108.81834    42218.666    4.2695226    4.2695226    4.2695226    42218.666    59698.135    81272.876   -14315.013   -4044.0737   -243.91365    6211.8804    77.828371 
   90600    1189.1357   -109.91159     1.075955   -108.83564   -7955.1325    4.2880896    4.2880896    4.2880896   -7955.1325    27711.268    9736.8662   -61313.531    894.77354    4967.2304   -21706.257    78.848157 
   90700    789.20144   -109.54023   0.71408605   -108.82615   -31589.055     4.304586     4.304586     4.304586   -31589.055    4603.1711   -37336.684   -62033.651   -1307.5236    5758.8346   -54683.183    79.761657 
   90800    2333.0057   -110.90417    2.1109525   -108.79321   -2005.4705    4.2827062    4.2827062    4.2827062   -2005.4705   -737.88387    19809.552    -25088.08   -280.09614    702.33096    18564.605    78.551568 
   90900    1130.7963   -109.84325    1.0231682   -108.82009   -6606.4864    4.2865291    4.2865291    4.2865291   -6606.4864    40039.467   -111.63639    -59747.29   -3444.3118    10322.945   -37925.432    78.762109 
   91000    839.72826   -109.58333   0.75980378   -108.82353   -10940.844    4.2855982    4.2855982    4.2855982   -10940.844    47980.386   -46419.911   -34383.007    3738.4591    2496.6221   -44190.643    78.710807 
   91100    1883.6487   -110.51407    1.7043649    -108.8097    6633.3649    4.2836915    4.2836915    4.2836915    6633.3649    1723.9643    37489.486   -19313.355   -5152.4225   -3396.5967    29874.997    78.605796 
   91200    1553.8903   -110.22294    1.4059926   -108.81695   -30930.631    4.2924027    4.2924027    4.2924027   -30930.631    39176.496   -53886.149    -78082.24   -5611.4226    9381.7618   -38188.382    79.086321 
   91300    1187.5875   -109.89024    1.0745541   -108.81569     6616.637    4.2779236    4.2779236    4.2779236     6616.637    66106.087   -8807.7747   -37448.402   -11666.763    4163.6088   -44627.351    78.288697 
   91400    1749.6251   -110.40203    1.5830976   -108.81893   -5590.0595    4.2868327    4.2868327    4.2868327   -5590.0595   -3512.4616   -3591.7931   -9665.9236    6535.8255    8490.1927    33365.207    78.778847 
   91500    1371.4044   -110.06224    1.2408755   -108.82137   -38885.597    4.2974043    4.2974043    4.2974043   -38885.597    24062.515   -76522.734   -64196.572    10134.632   -3731.4532    -32784.97    79.363101 
   91600    1599.8307   -110.26593    1.4475605   -108.81837    16535.847    4.2688117    4.2688117    4.2688117    16535.847    70594.267   -21977.743    991.01596   -12096.073   -5453.6294   -46705.663    77.789503 
   91700    2054.2717   -110.68509    1.8587482   -108.82635    8123.7871      4.27489      4.27489      4.27489    8123.7871    10134.965    4719.9449    9516.4518    3910.4666    32576.093    21433.919    78.122265 
   91800    1163.3794   -109.88905    1.0526501    -108.8364   -22236.802    4.3004003    4.3004003    4.3004003   -22236.802    42933.663   -85718.517   -23925.551    5421.8319   -11128.612   -34385.414    79.529207 
   91900    1402.1947    -110.0908    1.2687353   -108.82207   -22898.085    4.2954348    4.2954348    4.2954348   -22898.085   -1007.7076   -65707.765   -1978.7822    3769.6342    126.75184   -29903.013    79.254038 
   92000    1639.5338   -110.29077    1.4834846   -108.80729   -7213.1554    4.2822131    4.2822131    4.2822131   -7213.1554   -21876.278    4520.3318   -4283.5201   -20243.921    29943.559     14506.02    78.524437 
   92100    1234.8076    -109.9338    1.1172799   -108.81652   -9428.9872    4.2750346    4.2750346    4.2750346   -9428.9872    29558.096   -28600.303   -29244.755    5216.7616    17019.196   -58691.314    78.130194 
   92200    1643.6484   -110.31143    1.4872076   -108.82422   -262.56266    4.2794797    4.2794797    4.2794797   -262.56266    62005.075   -47695.347   -15097.415   -3823.8262   -10816.568   -20474.394    78.374161 
   92300    1562.6912   -110.23933    1.4139559   -108.82537   -7317.8968    4.2946298    4.2946298    4.2946298   -7317.8968    530.53865   -11358.483   -11125.746   -23164.773    7424.8743    20195.619    79.209488 
   92400    740.84588   -109.49894   0.67033292   -108.82861    -12294.47    4.2984609    4.2984609    4.2984609    -12294.47    52857.315   -36813.724       -52927   -6489.0215    26698.127   -46515.061    79.421658 
   92500    1546.9635   -110.22068    1.3997251   -108.82096   -7959.4249    4.2859381    4.2859381    4.2859381   -7959.4249    42526.597   -33334.483   -33070.388    -5376.791   -10775.377   -26230.016    78.729533 
   92600    2083.4905   -110.69708     1.885186   -108.81189    31575.817    4.2689347    4.2689347    4.2689347    31575.817    67594.171    18747.801    8385.4787    5213.8781   -17913.244    11211.363    77.796226 
   92700    940.82045   -109.70663   0.85127412   -108.85535   -16519.701    4.2911727    4.2911727    4.2911727   -16519.701    2036.9009   -32446.144    -19149.86   -17129.496    19137.317   -43690.348    79.018355 
   92800    1314.9255   -110.02138    1.1897722   -108.83161   -38390.764    4.3073382    4.3073382    4.3073382   -38390.764   -35093.216   -17786.697   -62292.377    -10674.55    11763.461   -26892.168    79.914744 
   92900     2042.296   -110.64974    1.8479123   -108.80183    13826.089    4.2863008    4.2863008    4.2863008    13826.089    37061.342    10271.752    -5854.828   -9826.2591    -16816.74    20904.834    78.749525 
   93000    1013.0416   -109.72903   0.91662128   -108.81241   -12811.848      4.27728      4.27728      4.27728   -12811.848    24050.352   -28720.294   -33765.604   -9443.6812    15059.038   -36288.358     78.25337 
   93100    1239.5001   -109.94294    1.1215257   -108.82142    8423.5301    4.2755144    4.2755144    4.2755144    8423.5301   -10130.087     56725.09   -21324.413   -6476.8333    20851.431   -24326.143    78.156505 
   93200    1895.9041   -110.53768    1.7154539   -108.82223   -12545.584    4.2929488    4.2929488    4.2929488   -12545.584    20647.167   -28486.665   -29797.254   -8603.1616   -15253.491    29802.675    79.116512 
   93300     851.4745   -109.59302   0.77043202   -108.82259   -1917.7741    4.2987662    4.2987662    4.2987662   -1917.7741    50426.453   -10376.691   -45803.084    8866.8935   -2438.6832   -10196.182    79.438579 
   93400    1265.9628   -109.95157    1.1454698    -108.8061    18850.114    4.2879462    4.2879462    4.2879462    18850.114    36213.875    5684.8009    14651.665   -7256.3556    11704.366   -28212.515    78.840246 
   93500     1897.041   -110.51459    1.7164826   -108.79811    8054.0949    4.2836866    4.2836866    4.2836866    8054.0949    31011.392   -22444.545    15595.437    2270.2552    5901.4639    22272.401    78.605526 
   93600    1077.5619   -109.79603   0.97500062   -108.82103    32576.826    4.2728723    4.2728723    4.2728723    32576.826    56746.862    9514.9747    31468.641    10114.787   -11173.082   -16322.707    78.011698 
   93700     1026.071   -109.77335   0.92841064   -108.84494   -9125.5032     4.289911     4.289911     4.289911   -9125.5032    20240.242   -47614.833   -1.9182683    -3017.218    18814.035   -33816.243    78.948674 
   93800    1836.7614     -110.488    1.6619403   -108.82606   -12221.435    4.2911276    4.2911276    4.2911276   -12221.435   -26532.658    202.27004   -10333.916   -3290.2873    17621.034    8816.1669    79.015861 
   93900    1364.6719    -110.0572    1.2347838   -108.82241    34906.763    4.2667518    4.2667518    4.2667518    34906.763    37735.076    47879.598    19105.613    1179.3179   -28726.322   -22393.579    77.676946 
   94000    1208.3678   -109.93169    1.0933565   -108.83834   -575.59234    4.2846832    4.2846832    4.2846832   -575.59234    70917.271   -70484.212   -2159.8358    27670.142    7109.6754    -34603.63    78.660401 
   94100    1729.0563   -110.37857    1.5644864   -108.81408   -2036.7323    4.3002636    4.3002636    4.3002636   -2036.7323    12786.882   -5997.3899   -12899.689   -413.87456   -688.74473     9401.077    79.521625 
   94200     1257.526   -109.94871    1.1378359   -108.81087    14684.405    4.2906513    4.2906513    4.2906513    14684.405    43361.438   -14150.969    14842.747   -22733.029   -15190.736    -24367.98    78.989553 
   94300     1142.775   -109.85399    1.0340069   -108.81999   -3517.7517    4.2867733    4.2867733    4.2867733   -3517.7517    63070.109   -71849.335   -1774.0284    9886.2506   -6518.6121   -29064.984     78.77557 
   94400    1956.8913   -110.57995    1.7706364   -108.80931    18528.291    4.2806185    4.2806185    4.2806185    18528.291     50277.85     2348.765    2958.2588     8559.381    4647.9086    11095.152    78.436747 
   94500    1257.1383   -109.96788    1.1374852   -108.83039      18895.2    4.2854997    4.2854997    4.2854997      18895.2    26254.505    13445.459    16985.637   -39167.566    2418.4202   -23978.359    78.705378 
   94600    974.85948   -109.70745   0.88207334   -108.82538    11721.376    4.3095209    4.3095209    4.3095209    11721.376    24451.469    43265.804   -32553.146   -12562.892   -10521.131   -24768.072    80.036295 
   94700    2105.1257   -110.68177     1.904762   -108.77701   -29723.837      4.32158      4.32158      4.32158   -29723.837   -27508.817   -23844.662   -37818.034   -2898.9728    8480.3423    13516.432    80.710061 
   94800    906.34149   -109.60032   0.82007683   -108.78024   -30140.186    4.3017636    4.3017636    4.3017636   -30140.186    -18605.56   -49416.963   -22398.034   -41182.141   -19515.075   -41136.432    79.604867 
   94900    1677.0858   -110.29434    1.5174624   -108.77688    15883.559     4.266955     4.266955     4.266955    15883.559    61208.315   -11658.554   -1899.0841    5020.7481   -7358.4503   -18245.445    77.688045 
   95000    2160.8766   -110.75054    1.9552066   -108.79533    29406.959    4.2708344    4.2708344    4.2708344    29406.959    27892.814    39512.485    20815.577   -1670.9235    257.93564    16248.283    77.900134 
   95100    1104.8677   -109.83325   0.99970748   -108.83354   -30249.085    4.3001152    4.3001152    4.3001152   -30249.085   -2326.0295   -61006.663   -27414.563   -36529.806   -7293.1863   -30755.774     79.51339 
   95200    1464.5302   -110.14663    1.3251377   -108.82149   -11802.781    4.3027592    4.3027592    4.3027592   -11802.781   -13370.452   -3813.0258   -18224.864   -18876.782   -19672.931   -19881.769    79.660151 
   95300    2211.2963   -110.79132    2.0008274   -108.79049   -2652.4831    4.2927544    4.2927544    4.2927544   -2652.4831   -14945.271    26650.772   -19662.951    18569.162     5017.691    11819.037    79.105762 
   95400    640.68764   -109.39001   0.57970764   -108.81031   -14601.248    4.2818889    4.2818889    4.2818889   -14601.248   -15497.402    14743.979   -43050.322    -38903.71   -6453.1408   -51063.666    78.506604 
   95500    1318.4397   -110.01964     1.192952   -108.82669   -6237.3795    4.2731106    4.2731106    4.2731106   -6237.3795   -11691.371    13416.718   -20437.486   -31879.324   -7092.7441   -20894.098    78.024751 
   95600    2289.9616   -110.89974    2.0720054   -108.82774   -17271.495    4.2902994    4.2902994    4.2902994   -17271.495   -17821.596    8972.9579   -42965.847    13086.167     9273.123    30665.966     78.97012 
   95700    1170.5047   -109.88434    1.0590973   -108.82525   -52932.193    4.3144034    4.3144034    4.3144034   -52932.193   -32669.999   -58364.024   -67762.555    -27777.63   -1084.4579   -46038.699    80.308635 
   95800    1538.1201   -110.19775    1.3917234   -108.80603     -29728.7    4.2887375    4.2887375    4.2887375     -29728.7    -24682.68   -39876.267   -24627.153   -37599.124    1959.1557   -17151.916    78.883907 
   95900    1775.6708   -110.39681    1.6066643   -108.79015     21825.94    4.2704466    4.2704466    4.2704466     21825.94     34449.48    36972.175    -5943.835    4325.4383    1748.8503    47864.576    77.878911 
   96000    1559.4133   -110.21904      1.41099   -108.80805   -14914.411    4.2871414    4.2871414    4.2871414   -14914.411    16765.532   -21728.896   -39779.867   -14661.328    4620.4149    -27936.62    78.795866 
   96100    1259.4081   -109.95605    1.1395389   -108.81652    5608.4253    4.2889652    4.2889652    4.2889652    5608.4253    6070.7644    10349.437    405.07488   -26841.427    7619.4948    -22957.72    78.896468 
   96200    1492.7276   -110.16067    1.3506513   -108.81002   -3465.6525    4.3019375    4.3019375    4.3019375   -3465.6525    215.31029   -5108.8534   -5503.4145   -2278.0274    7102.6865    53839.333     79.61452 
   96300    1433.6899   -110.09161    1.2972328   -108.79437    7445.3358    4.3006308    4.3006308    4.3006308    7445.3358    5250.9669   -1144.0347    18229.075   -10287.317     16249.97    -10030.52    79.541998 
   96400    1209.4497   -109.89322    1.0943355   -108.79889    1769.5817    4.2909562    4.2909562    4.2909562    1769.5817   -321.14113   -27226.507    32856.393   -17744.349    9264.0868   -22237.079    79.006397 
   96500    1374.3748   -110.04585    1.2435632   -108.80229    25372.328     4.276179     4.276179     4.276179    25372.328    4608.7583    13038.685     58469.54   -1302.0614    49.592897    37558.626    78.192958 
   96600    1541.8481   -110.21766    1.3950965   -108.82256   -8732.2053    4.2819289    4.2819289    4.2819289   -8732.2053   -1097.2084   -20444.199   -4655.2082   -5237.9026   -10543.531   -1199.4441    78.508801 
   96700     1040.997   -109.77234   0.94191596   -108.83043   -23403.647    4.2942962    4.2942962    4.2942962   -23403.647    13813.305   -70295.076   -13729.168   -20187.689   -7048.5756    -51210.22    79.191028 
   96800    1677.9673   -110.33207    1.5182601   -108.81381    3084.7812    4.2782531    4.2782531    4.2782531    3084.7812    26410.038   -15800.709   -1354.9855    330.38865    21682.319    8876.3088    78.306787 
   96900    1583.8268   -110.25372    1.4330798   -108.82064    2312.2479    4.2815178    4.2815178    4.2815178    2312.2479    26678.411    20625.516   -40367.183    2726.9222   -1278.1157    7536.9805    78.486194 
   97000    837.89609   -109.58987   0.75814599   -108.83173    -13851.86    4.2857474    4.2857474    4.2857474    -13851.86    59580.138   -60706.043   -40429.676   -23154.727   -16394.339   -44119.942    78.719025 
   97100    1519.8756    -110.1997    1.3752153   -108.82448   -3363.3912    4.2804999    4.2804999    4.2804999   -3363.3912    18584.792   -43899.482    15224.517    9083.1842    11102.356   -5844.9767    78.430226 
   97200    1854.9193   -110.49824      1.67837   -108.81987   -26732.173    4.2920201    4.2920201    4.2920201   -26732.173   -19925.705   -29571.577   -30699.239    10883.594   -22965.768    3379.2264    79.065173 
   97300    731.33553    -109.4948   0.66172776   -108.83308     -10350.3    4.2803862    4.2803862    4.2803862     -10350.3    55475.666   -32667.471   -53859.096   -15620.304   -26262.016   -58820.122     78.42398 
   97400    1278.8911   -109.98772    1.1571676   -108.83055     3553.242    4.2728037    4.2728037    4.2728037     3553.242   -2290.4062   -13822.195    26772.327    14047.602    3408.4033   -8611.2557     78.00794 
   97500    1800.6741   -110.44932    1.6292878   -108.82003   -24558.685    4.2940194    4.2940194    4.2940194   -24558.685   -14572.555   -46515.084   -12588.415    16451.149   -629.92272    4896.6272    79.175715 
   97600    1211.6465   -109.92163    1.0963232   -108.82531   -6956.1784    4.2797392    4.2797392    4.2797392   -6956.1784    35008.764   -15579.137   -40298.161    -9874.878   -8833.1359   -56980.944    78.388421 
   97700    1262.5511   -109.96559    1.1423828    -108.8232    13870.446    4.2730946    4.2730946    4.2730946    13870.446     452.1141    263.87925    40895.345    2685.6373   -15832.876   -5366.7992    78.023874 
   97800     1344.554   -110.03765    1.2165808   -108.82106   -35865.738    4.2905202    4.2905202    4.2905202   -35865.738   -43568.286   -55727.513   -8301.4137    23594.519    8511.2517   -4304.4694    78.982313 
   97900    1163.5942   -109.87911    1.0528445   -108.82626    14320.598     4.274924     4.274924     4.274924    14320.598    38993.461   -20985.514    24953.846    4050.0128    25126.706    -46746.32     78.12413 
   98000    1907.2812   -110.55206    1.7257481   -108.82631    21002.756    4.2770879    4.2770879    4.2770879    21002.756    42517.447     15727.39    4763.4296   -3759.7561   -17324.194        -1523    78.242826 
   98100    1323.9891   -110.03408    1.1979731    -108.8361    5862.4883    4.2908123    4.2908123    4.2908123    5862.4883    45800.079   -30210.104    1997.4904    29032.211   -5829.5046    3210.1943    78.998445 
   98200    804.90548    -109.5622   0.72829539    -108.8339    12761.972     4.287407     4.287407     4.287407    12761.972    37787.706   -13899.449    14397.659   -9069.1222    21103.632   -36009.927    78.810512 
   98300     1899.598    -110.5319    1.7187962    -108.8131    1129.9557    4.2859638    4.2859638    4.2859638    1129.9557    5312.4985    23874.958    -25797.59   -20044.104     14564.78     3299.631    78.730952 
   98400    1769.9733   -110.41595    1.6015091   -108.81444    982.08587    4.2813599    4.2813599    4.2813599    982.08587    12889.058   -13051.252    3108.4521    29415.911   -3278.7858    1624.2082     78.47751 
   98500    1110.7645   -109.83639    1.0050431   -108.83135   -1518.9975    4.2774973    4.2774973    4.2774973   -1518.9975   -5395.8727    11473.085   -10634.204    24203.962   -2989.1892   -33565.919    78.265298 
   98600    1183.8522    -109.9104    1.0711743   -108.83922    3140.7693    4.2791633    4.2791633    4.2791633    3140.7693   -14183.807    72901.208   -49295.093   -16560.526    19493.849   -457.19026    78.356781 
   98700    1626.3198   -110.31134    1.4715283   -108.83981    5485.0674    4.2807853    4.2807853    4.2807853    5485.0674    7370.6519    23344.352   -14259.802   -21454.029    4846.5172    12330.609    78.445918 
   98800    1763.3864    -110.4305     1.595549   -108.83495    24907.235    4.2761588    4.2761588    4.2761588    24907.235    20483.959    47630.177    6607.5684     16907.73   -2052.8039   -7399.5019    78.191848 
   98900     1347.922   -110.06819    1.2196282   -108.84856     -16097.5    4.2848557    4.2848557    4.2848557     -16097.5   -27229.288    23744.308   -44807.519    6474.9073    21352.497   -3262.2101    78.669898 
   99000    598.62719   -109.39021   0.54165046   -108.84856   -28659.281    4.2908161    4.2908161    4.2908161   -28659.281   -16972.755   -5772.4397   -63232.647   -24771.047    4580.9575     19900.04    78.998655 
   99100    1694.1263   -110.35879    1.5328811   -108.82591    16349.861    4.2748834    4.2748834    4.2748834    16349.861    20456.959    7155.0162    21437.607    2122.1224     -15178.9    12821.153    78.121902 
   99200    1790.6354   -110.44926    1.6202045   -108.82905    12174.472    4.2735876    4.2735876    4.2735876    12174.472   -6871.2055     52441.35    -9046.728    904.55916     34352.02   -12023.414    78.050883 
   99300    978.15001   -109.73129   0.88505068   -108.84624    17333.512    4.2779486    4.2779486    4.2779486    17333.512   -1878.1087    79339.092   -25460.448   -3841.4273    12843.619    3702.2346    78.290073 
   99400    1070.6666   -109.80951   0.96876168   -108.84075    7391.4627    4.2907912    4.2907912    4.2907912    7391.4627   -7476.4049    39658.444   -10007.651    -25116.17   -25846.483    17919.469    78.997279 
   99500    1736.0072   -110.39086    1.5707758   -108.82009   -46.760213     4.292552     4.292552     4.292552   -46.760213   -8134.3088    23353.526   -15359.498    679.51695    10153.005    -13137.19    79.094573 
   99600    1614.4184   -110.27815    1.4607597   -108.81739    23157.718    4.2722449    4.2722449    4.2722449    23157.718    7552.1319    74013.372   -12092.351    421.60223    -10420.88    2565.1265     77.97734 
   99700    657.57129   -109.43702   0.59498432   -108.84204   -17569.261    4.2747816    4.2747816    4.2747816   -17569.261     -29720.4   -15768.691   -7218.6917   -45780.233   -29229.395    7847.9942    78.116323 
   99800    1375.4093   -110.08907    1.2444993   -108.84457   -21360.395    4.2830888    4.2830888    4.2830888   -21360.395   -836.44033   -54187.822   -9056.9218   -13052.993    11741.167    5334.4141     78.57262 
   99900    1886.8638    -110.5342     1.707274   -108.82692   -4712.3307    4.2934434    4.2934434    4.2934434   -4712.3307    12331.991    19989.023   -46458.007    16566.138   -2155.2575   -6090.3363     79.14386 
  100000    1104.1572   -109.82896   0.99906467   -108.82989    -15301.92    4.2944913    4.2944913    4.2944913    -15301.92   -18906.571    7239.3071   -34238.497    -29871.44   -23695.791    2254.5248    79.201826 
Loop time of 22.4898 on 1 procs for 100000 steps with 8 atoms

Pair  time (%) = 7.19269 (31.982)
Kspce time (%) = 5.34183 (23.7522)
Neigh time (%) = 0.102202 (0.454439)
Comm  time (%) = 1.10204 (4.90016)
Outpt time (%) = 0.026125 (0.116164)
Other time (%) = 8.72492 (38.795)

Nlocal:    8 ave 8 max 8 min
Histogram: 1 0 0 0 0 0 0 0 0 0
Nghost:    2189 ave 2189 max 2189 min
Histogram: 1 0 0 0 0 0 0 0 0 0
Neighs:    2246 ave 2246 max 2246 min
Histogram: 1 0 0 0 0 0 0 0 0 0

Total # of neighbors = 2246
Ave neighs/atom = 280.75
Neighbor list builds = 1157
Dangerous builds = 0
unfix 20
unfix 21
print "seeds:1304567"
seeds:1304567
