LAMMPS (10 Feb 2015)
# ---- initialize simulations
clear
units metal
dimension 3
boundary p p p
atom_style charge
atom_modify map array
# ---- create atoms
read_data /Users/eugeneragasa/pyflamestk_git/pypospack/tests/tests_integration/workflow/WorkflowLammpsThermalExpansion/MgO_NaCl_unit.npt.T700/lammps.structure
  triclinic box = (0 0 0) to (4.2565 4.2565 4.2565) with tilt (0 0 0)
  1 by 1 by 1 MPI processor grid
  reading atoms ...
  8 atoms
# ---- define interatomic potential
include potential.mod
mass 1 24.305
mass 2 15.999

group Mg type 1
4 atoms in group Mg
group O type 2
4 atoms in group O

set group Mg charge 1.7
  4 settings made for charge
set group O charge -1.7
  4 settings made for charge

variable R_cut equal 10.0

pair_style buck/coul/long ${R_cut}
pair_style buck/coul/long 10
pair_coeff 1 1 0.0 0.5 0.0 ${R_cut}
pair_coeff 1 1 0.0 0.5 0.0 10
pair_coeff 1 2 929.69 0.29909 0.0 ${R_cut}
pair_coeff 1 2 929.69 0.29909 0.0 10
pair_coeff 2 2 4870 0.2679 77 ${R_cut}
pair_coeff 2 2 4870 0.2679 77 10

kspace_style pppm 1.0e-5

neighbor 1.0 bin
neigh_modify every 1 delay 0 check yes
# ---- define settings
compute eng all pe/atom
compute eatoms all reduce sum c_eng
# ---- run minimization
reset_timestep 0
fix 1 all box/relax iso 0.0 vmax 0.001
thermo 10
thermo_style custom step pe lx ly lz xy xz yz press pxx pyy pzz pxy pxz pyz c_eatoms
min_style cg
minimize 1e-25 1e-25 5000 10000
PPPM initialization ...
  G vector (1/distance) = 0.353152
  grid = 8 8 8
  stencil order = 5
  estimated absolute RMS force accuracy = 4.10333e-05
  estimated relative force accuracy = 2.84961e-06
  using double precision FFTs
  3d grid and FFT values/proc = 3375 512
Neighbor list info ...
  1 neighbor list requests
  update every 1 steps, delay 0 steps, check yes
  master list distance cutoff = 11
Memory usage per processor = 4.06549 Mbytes
Step PotEng Lx Ly Lz Xy Xz Yz Press Pxx Pyy Pzz Pxy Pxz Pyz eatoms 
       0   -119.82944       4.2565       4.2565       4.2565            0            0            0   -43102.631   -43102.631   -43102.631   -43102.631 -1.1410716e-10 2.0651384e-11 1.0044018e-10   -119.82944 
       9    -119.8549     4.222448     4.222448     4.222448            0            0            0   -490.28356   -490.28356   -490.28356   -490.28356 -3.7927136e-11 -7.2182599e-11 3.2130495e-11    -119.8549 
Loop time of 0.174255 on 1 procs for 9 steps with 8 atoms

Minimization stats:
  Stopping criterion = linesearch alpha is zero
  Energy initial, next-to-last, final = 
        -119.829437963     -119.854898204     -119.854898204
  Force two-norm initial, final = 6.22404 0.0696885
  Force max component initial, final = 6.22404 0.069669
  Final line search alpha, max atom move = 1.75215e-06 1.2207e-07
  Iterations, force evaluations = 9 35

Pair  time (%) = 0.00763798 (4.38322)
Kspce time (%) = 0.107149 (61.4895)
Neigh time (%) = 0 (0)
Comm  time (%) = 0.000720978 (0.413748)
Outpt time (%) = 0 (0)
Other time (%) = 0.0587475 (33.7135)

Nlocal:    8 ave 8 max 8 min
Histogram: 1 0 0 0 0 0 0 0 0 0
Nghost:    2189 ave 2189 max 2189 min
Histogram: 1 0 0 0 0 0 0 0 0 0
Neighs:    2344 ave 2344 max 2344 min
Histogram: 1 0 0 0 0 0 0 0 0 0

Total # of neighbors = 2344
Ave neighs/atom = 293
Neighbor list builds = 0
Dangerous builds = 0
unfix 1
# ---- define output variables ----
variable natoms equal "count(all)"
variable tot_energy equal "c_eatoms"
variable length_x equal "lx"
variable length_y equal "ly"
variable length_z equal "lz"
variable tilt_xy equal "xy"
variable tilt_xz equal "xz"
variable tilt_yz equal "yz"
variable tot_press equal "press"
variable press_xx equal "pxx"
variable press_yy equal "pyy"
variable press_zz equal "pzz"
variable press_xy equal "pxy"
variable press_xz equal "pxz"
variable press_yz equal "pyz"

# ---- output ----
print "pypospack:output_section:begin"
pypospack:output_section:begin
print "tot_energy = ${tot_energy}"
tot_energy = -119.854898204259
print "num_atoms = ${natoms}"
num_atoms = 8
print "xx = ${length_x}"
xx = 4.222448
print "yy = ${length_y}"
yy = 4.222448
print "zz = ${length_z}"
zz = 4.222448
print "xy = ${tilt_xy}"
xy = 0
print "xz = ${tilt_xz}"
xz = 0
print "yz = ${tilt_yz}"
yz = 0
print "tot_press = ${tot_press}"
tot_press = -490.283556338482
print "pxx = ${press_xx}"
pxx = -490.283556338668
print "pyy = ${press_yy}"
pyy = -490.283556338614
print "pzz = ${press_zz}"
pzz = -490.283556338163
print "pxy = ${press_xy}"
pxy = -3.79271362347293e-11
print "pxz = ${press_xz}"
pxz = -7.2182599384956e-11
print "pyz = ${press_yz}"
pyz = 3.21304951944417e-11
print "pypospack:output_section:done"
pypospack:output_section:done
print "pypospack:lammps_sim:done"
pypospack:lammps_sim:done
#------------------------------------------------------------------------------
# RUN THERMOSTAT
# running using an NPT Nose-Hoover style thermostat
#------------------------------------------------------------------------------
variable tempdamp equal 0.1
variable pressdamp equal 1.0
# set initial velocities
velocity all create 700 5139347 mom yes dist gaussian loop all
# fix for Nose-Hoover style thermostat
fix 20 all npt temp 700 700 0.1 aniso 0.0 0.0 1.0 drag 1.0 couple xyz
variable boxx equal lx
variable boxy equal ly
variable boxz equal lz
variable boxp equal press
variable boxt equal temp
# calculate averages every 10000 steps
reset_timestep 0
fix 21 all ave/time 10 10 100 v_boxx v_boxy v_boxz v_boxp v_boxt file lattice.out
thermo_style custom step temp pe ke etotal press lx ly lz press pxx pyy pzz pxy pxz pyz vol
thermo_modify flush yes
thermo 100
run 100000
PPPM initialization ...
  G vector (1/distance) = 0.353501
  grid = 8 8 8
  stencil order = 5
  estimated absolute RMS force accuracy = 4.03791e-05
  estimated relative force accuracy = 2.80417e-06
  using double precision FFTs
  3d grid and FFT values/proc = 3375 512
Memory usage per processor = 3.06549 Mbytes
Step Temp PotEng KinEng TotEng Press Lx Ly Lz Press Pxx Pyy Pzz Pxy Pxz Pyz Volume 
       0          700    -119.8549   0.63337471   -119.22152    8496.5642     4.222448     4.222448     4.222448    8496.5642    5710.1252    11806.192    7973.3756    -2281.595   -32.566325    3056.0055    75.282309 
     100    267.72817   -119.37835   0.24224608   -119.13611   -9987.3701    4.2502769    4.2502769    4.2502769   -9987.3701    -34866.85    22276.885   -17372.146    7777.3907   -253.14837    1815.3127    76.780633 
     200    505.96255   -119.42913   0.45780555   -118.97132   -10952.995    4.2449658    4.2449658    4.2449658   -10952.995    -11457.98   -11088.794   -10312.212   -4820.9333   -2039.0867   -1238.9935    76.493157 
     300    337.82335   -119.12098   0.30566967   -118.81531    21069.107     4.243834     4.243834     4.243834    21069.107    17023.405    12435.848    33748.067    2878.1936   -1473.4587   -4483.9041    76.431987 
     400    851.55855   -119.46362   0.77050807   -118.69311   -15641.294    4.2655876    4.2655876    4.2655876   -15641.294    13639.542   -34562.308   -26001.115    4118.0344   -3472.7644    3779.7358     77.61338 
     500    445.38134   -119.01904    0.4029904   -118.61605    36638.046    4.2442318    4.2442318    4.2442318    36638.046     48598.79    24591.511    36723.838    7172.0816   -2643.6274   -5448.9097    76.453484 
     600    425.78418   -118.97181   0.38525848   -118.58655    607.38932    4.2693945    4.2693945    4.2693945    607.38932    25708.449    -14374.98   -9511.3009    5236.6476    128.31482   -6206.0771    77.821367 
     700    866.21737   -119.35139   0.78377168   -118.56762   -7968.0168    4.2603568    4.2603568    4.2603568   -7968.0168    -867.8726    5460.1285   -28496.306   -7851.2476    8127.7648    4087.9695    77.328204 
     800    946.21286   -119.41584   0.85615328   -118.55968    19408.288    4.2413894    4.2413894    4.2413894    19408.288    16758.484    27238.036    14228.344    4023.9188    949.37251   -8713.8647    76.299983 
     900    678.12936   -119.18243    0.6135857   -118.56884   -38201.251    4.2802361    4.2802361    4.2802361   -38201.251   -48985.934   -11542.694   -54075.126   -3508.2763    -49.80845     4102.833    78.415729 
    1000    440.76207   -118.96879   0.39881078   -118.56998    12861.624    4.2454101    4.2454101    4.2454101    12861.624    -19027.86    54961.971    2650.7624    8383.3154      4257.32   -372.03646    76.517178 
    1100    986.58661   -119.47245    0.8926843   -118.57976    5367.3467    4.2474467    4.2474467    4.2474467    5367.3467    1762.6715    4315.5737    10023.795   -5770.3877     339.5785    9176.7291    76.627351 
    1200    698.46991   -119.20536   0.63199026   -118.57337   -27893.886    4.2840864    4.2840864    4.2840864   -27893.886   -32136.438   -5770.9284    -45774.29    1235.2298   -2474.6649    -2573.679    78.627533 
    1300    611.74248   -119.12485   0.55351745   -118.57134    23617.452    4.2330214    4.2330214    4.2330214    23617.452    6200.4875    25596.108     39055.76    20487.787   -6783.9316   -241.69982     75.84927 
    1400    492.02497   -119.03157   0.44519453   -118.58637    9188.2182    4.2504254    4.2504254    4.2504254    9188.2182     1381.956    26687.746     -505.047     9683.823   -5668.6502   -6510.9763    76.788679 
    1500    686.90764   -119.19019   0.62152847   -118.56866   -24595.329    4.2815375    4.2815375    4.2815375   -24595.329   -22599.181   -16649.625   -34537.181   -964.84765    7507.7713   -3512.1247    78.487276 
    1600      861.106   -119.33857   0.77914681   -118.55943    20122.957    4.2395119    4.2395119    4.2395119    20122.957    7960.5608    13677.154    38731.156    2302.6132   -2550.7149    5939.5081    76.198702 
    1700    769.80121   -119.26693   0.69653231    -118.5704    3123.5198     4.253059     4.253059     4.253059    3123.5198   -6431.5928    16723.652   -921.50017   -1576.6452   -9675.9727   -2892.3016    76.931503 
    1800    699.80903   -119.20728   0.63320192   -118.57407   -7725.8716    4.2643939    4.2643939    4.2643939   -7725.8716   -21181.466   -10996.324    9000.1748    8131.2851    211.46545   -1100.5785    77.548237 
    1900    389.66481   -118.93078   0.35257691    -118.5782    21771.933    4.2485392    4.2485392    4.2485392    21771.933    11950.387    33191.048    20174.366   -2989.3453    3179.9976    8091.2052    76.686496 
    2000     899.3976   -119.39464   0.81379385   -118.58084   -14369.418    4.2529838    4.2529838    4.2529838   -14369.418   -4894.7821   -22109.617   -16103.853   -789.71524    5333.9266    -4796.524    76.927423 
    2100    745.67318   -119.25671   0.67470077     -118.582    8239.9359    4.2485075    4.2485075    4.2485075    8239.9359     11177.31    22385.391   -8842.8933    4432.9932   -5441.2433   -11094.656    76.684776 
    2200    731.76136    -119.2482   0.66211305   -118.58608   -25602.129    4.2642466    4.2642466    4.2642466   -25602.129   -29519.191   -28489.276    -18797.92    10276.569    -510.6375     7351.478    77.540204 
    2300     388.3662   -118.93918    0.3514019   -118.58778   -180.32344     4.248543     4.248543     4.248543   -180.32344   -1701.5386    9372.9248   -8212.3565    7807.6096     14899.29     642.2153    76.686699 
    2400    759.76523   -119.27522   0.68745154   -118.58777     11931.91    4.2464869    4.2464869    4.2464869     11931.91    5869.0168    27135.764    2790.9492   -4699.8083    2710.2185    295.59706    76.575417 
    2500    840.55458   -119.33929   0.76055145   -118.57874    -19342.33    4.2749587    4.2749587    4.2749587    -19342.33   -34096.745    11221.977   -35152.222    7660.3332   -4126.4482   -140.57448    78.126031 
    2600    856.63818   -119.34858   0.77510423   -118.57347    22706.182    4.2345598    4.2345598    4.2345598    22706.182    20563.348    35573.756    11981.443    11736.935   -6020.4438    12625.953    75.931997 
    2700    537.43248   -119.08068    0.4862802    -118.5944    2669.1829    4.2565163    4.2565163    4.2565163    2669.1829    551.48017    16955.029   -9498.9605    4170.6267    5008.4849    9987.6412     77.11927 
    2800    621.08969   -119.14189     0.561975   -118.57992   -23564.042    4.2720922    4.2720922    4.2720922   -23564.042   -24963.462   -16055.315   -29673.349   -86.915838    8016.3104   -10521.158    77.968981 
    2900     877.1562   -119.35408   0.79366936   -118.56041    34437.684    4.2208027    4.2208027    4.2208027    34437.684    50133.453    25247.721    27931.877   -3234.0002   -2094.7115    7626.9981    75.194343 
    3000    646.87944   -119.16852   0.58531011   -118.58321   -18605.794    4.2694876    4.2694876    4.2694876   -18605.794   -7136.6431   -19264.318    -29416.42    6294.4968     130.9035    12408.156    77.826459 
    3100    523.46463   -119.05157    0.4736418   -118.57793   -16717.037    4.2611906    4.2611906    4.2611906   -16717.037   -35560.164   -19431.061    4840.1153    18629.207    5200.5018    -427.7505    77.373611 
    3200     696.7982   -119.19412   0.63047766   -118.56364    20198.484     4.228376     4.228376     4.228376    20198.484    6830.3194    33853.905    19911.228    -4518.662     12088.98    -6705.738    75.599825 
    3300    767.82715    -119.2656   0.69474614   -118.57085   -28641.325    4.2729723    4.2729723    4.2729723   -28641.325   -38465.583   -8145.7472   -39312.644   -254.75933   -10679.774   -2556.7934    78.017178 
    3400    814.81164   -119.30674   0.73725869   -118.56949    5100.8298    4.2509128    4.2509128    4.2509128    5100.8298    -9441.515    30149.277   -5405.2731   -832.33493   -2632.2444    15288.292    76.815098 
    3500    628.87295   -119.14207   0.56901746   -118.57305    19891.811    4.2409347    4.2409347    4.2409347    19891.811    18678.291    32780.218    8216.9232    1102.8424     10116.74    11158.022    76.275444 
    3600    520.11427    -119.0478   0.47061032   -118.57719   -3265.3689    4.2654274    4.2654274    4.2654274   -3265.3689   -11223.504    34205.611   -32778.214    4021.4268    12934.095   -14702.714    77.604637 
    3700     813.5842   -119.30747   0.73614808   -118.57132   -3364.5376    4.2534657    4.2534657    4.2534657   -3364.5376   -1845.9379   -170.67053   -8077.0045   -7486.8681     -158.904    7554.2863    76.953574 
    3800    659.75663   -119.17039   0.59696166   -118.57343    1087.1945    4.2499273    4.2499273    4.2499273    1087.1945    9130.2057     3698.502   -9567.1244    4580.0499   -4948.0359    12791.158    76.761684 
    3900    915.03422    -119.4018   0.82794219   -118.57386   -12635.754    4.2517822    4.2517822    4.2517822   -12635.754   -18408.423   -5723.0996   -13775.739    3731.1524    7138.9815   -2907.1847    76.862238 
    4000    584.67045   -119.10682   0.52902211    -118.5778   -2311.2846    4.2609597    4.2609597    4.2609597   -2311.2846   -28253.983    294.23357    21025.896   -255.62696    12697.016   -2031.4941    77.361035 
    4100    736.49572   -119.24161    0.6663968   -118.57521   -5630.4098    4.2558669    4.2558669    4.2558669   -5630.4098    6748.1005   -15243.438    -8395.892     8632.423    1966.6559   -6988.0077    77.083976 
    4200    562.59076   -119.08266   0.50904394   -118.57361     27731.65    4.2409802    4.2409802    4.2409802     27731.65    33828.769    46905.919    2460.2626   -7751.0667   -6736.4777    5798.4954    76.277901 
    4300    720.70254   -119.22949   0.65210681   -118.57738   -5589.9253      4.26418      4.26418      4.26418   -5589.9253   -5418.9499   -11531.059    180.23304   -1729.3065    16032.052    10875.067    77.536571 
    4400    651.92337    -119.1643   0.58987397   -118.57442    11878.689    4.2533852    4.2533852    4.2533852    11878.689    20734.177    23368.707   -8466.8158    4527.4455    13046.744   -9910.7374    76.949207 
    4500     962.5302   -119.44334   0.87091755   -118.57242    1325.5344    4.2392428    4.2392428    4.2392428    1325.5344   -664.29935    14784.709   -10143.806   -2497.2533   -2188.2173    7477.1536    76.184191 
    4600    460.77826   -118.99748   0.41692185   -118.58056   -2331.3282     4.258536     4.258536     4.258536   -2331.3282    19024.833   -6665.2123   -19353.606    1340.4784   -1744.9595    13242.159    77.229099 
    4700    687.26883   -119.20079   0.62185528   -118.57894   -18925.065     4.254736     4.254736     4.254736   -18925.065   -22336.747    -3147.633   -31290.815   -6456.7926     16244.94     -5249.15     77.02254 
    4800    630.70895    -119.1505   0.57067872   -118.57982    2332.7089    4.2460498    4.2460498    4.2460498    2332.7089   -22192.409    44630.274   -15439.738   -8364.1917    19250.275    1299.6579    76.551773 
    4900    1136.0549   -119.60667    1.0279264   -118.57875    -6355.725    4.2462733    4.2462733    4.2462733    -6355.725   -5050.6778   -4239.1145   -9777.3827    4550.9668   -2718.3127    1849.3823     76.56386 
    5000    595.72319   -119.12552   0.53902286    -118.5865   -2911.1918    4.2619362    4.2619362    4.2619362   -2911.1918    -12938.12    25363.345   -21158.801   -1180.0257    2228.2649    9853.4294    77.414237 
    5100    557.15205   -119.09082   0.50412288    -118.5867    -9767.677    4.2501085    4.2501085    4.2501085    -9767.677   -25620.527    22284.591   -25967.095    564.25084     15341.89    1490.3757    76.771505 
    5200    486.60665   -119.02447   0.44029193   -118.58418    27022.817    4.2323034    4.2323034    4.2323034    27022.817    33493.956    19559.665    28014.829    1655.5232    14729.969    409.15275     75.81068 
    5300    907.61471   -119.40281   0.82122886   -118.58158   -29033.383    4.2729946    4.2729946    4.2729946   -29033.383   -1655.3528   -42801.969   -42642.826   -7605.7373   -5751.3456     112.1347    78.018399 
    5400    866.83309    -119.3613   0.78432879   -118.57697   -4582.0967    4.2529473    4.2529473    4.2529473   -4582.0967    5073.2175   -15153.975   -3665.5322     5007.123   -3511.3085    9505.6053    76.925441 
    5500    500.43667   -119.02794   0.45280562   -118.57514    22945.093    4.2320265    4.2320265    4.2320265    22945.093     52717.72    4271.7704    11845.789    13672.631    8914.0998    14766.382    75.795799 
    5600    528.67139   -119.05993   0.47835299   -118.58158    -19421.09    4.2706246    4.2706246    4.2706246    -19421.09   -29836.344    9330.2469   -37757.172   -8912.7543    12555.214   -2973.4734    77.888654 
    5700    622.02143   -119.13732   0.56281807    -118.5745    8761.3642    4.2549662    4.2549662    4.2549662    8761.3642   -7171.1303    38674.567   -5219.3438   -6069.5109    -6992.724   -4109.3982    77.035044 
    5800    1046.0308   -119.51064   0.94647065   -118.56417    3073.9142    4.2376664    4.2376664    4.2376664    3073.9142    5045.3668    1708.4496    2467.9261   -2110.9323   -2067.5984    2138.2707    76.099236 
    5900    636.18046   -119.15166   0.57562945   -118.57603   -14237.675    4.2632856    4.2632856    4.2632856   -14237.675   -39581.861    36286.526    -39417.69     188.8619    19388.599     2907.734    77.487789 
    6000    607.13636    -119.1295   0.54934974   -118.58015   -27978.314    4.2578822    4.2578822    4.2578822   -27978.314   -24599.928   -23049.153   -36285.862   -3456.6119    11063.804   -9982.9987    77.193533 
    6100    475.77919   -119.01063   0.43049501   -118.58014    11365.239    4.2340556    4.2340556    4.2340556    11365.239    42949.612       -11793    2939.1052   -12666.418    355.18257   -9488.2676    75.904873 
    6200    1002.2909   -119.49107   0.90689385   -118.58417   -11404.867    4.2538104    4.2538104    4.2538104   -11404.867   -6215.6684   -545.37298   -27453.561   -2417.9946    -2160.966   -6524.1727    76.972288 
    6300    744.66009   -119.25697    0.6737841   -118.58319    13430.407    4.2557714    4.2557714    4.2557714    13430.407    31766.143    10928.091   -2403.0117    9086.4039    14266.902    3972.8914    77.078786 
    6400    806.16029   -119.30984   0.72943077   -118.58041    15796.128    4.2410932    4.2410932    4.2410932    15796.128    33231.575    21401.599   -7244.7906   -4899.1288    6821.5912   -1254.9092    76.283997 
    6500    486.01159   -119.02456    0.4397535   -118.58481    3403.1483    4.2503839    4.2503839    4.2503839    3403.1483   -142.16537    34803.248   -24451.637   -8531.8199   -6314.4895   -13597.408    76.786429 
    6600    679.99841   -119.19779   0.61527685   -118.58251   -12160.011     4.252598     4.252598     4.252598   -12160.011   -5915.1322   -22339.876    -8225.023   -11918.832   -4554.9312   -4118.5597    76.906488 
    6700     883.5211   -119.38034   0.79942846   -118.58091   -12663.863    4.2526598    4.2526598    4.2526598   -12663.863   -1716.7352   -11769.975   -24504.879   -4633.2633    8984.0983    14448.425    76.909843 
    6800    891.17247   -119.38749   0.80635158   -118.58114   -20787.316    4.2533835    4.2533835    4.2533835   -20787.316    -19339.26   -15255.492   -27767.197   -3359.2172    6493.1746   -12508.979    76.949112 
    6900    542.03517   -119.07481   0.49044481   -118.58436    14181.203    4.2427973    4.2427973    4.2427973    14181.203    59139.399   -5249.6995   -11346.091   -6091.2837   -13988.973   -11945.405    76.375991 
    7000    573.73511   -119.10751   0.51912758   -118.58839   -13736.856    4.2628991    4.2628991    4.2628991   -13736.856   -2184.3662   -3932.6379   -35093.564   -11022.635   -2560.0298    8393.9446    77.466719 
    7100    773.36152   -119.28389   0.69975375   -118.58414      12135.6    4.2401834    4.2401834    4.2401834      12135.6    10746.191    34152.034   -8491.4259     803.0455   -6801.4185    11464.646    76.234915 
    7200     965.9996   -119.46173   0.87405674   -118.58768     13276.37    4.2402336    4.2402336    4.2402336     13276.37    14991.665    13929.234    10908.212    943.18252    3789.2287   -5642.1249    76.237623 
    7300    631.09991    -119.1511   0.57103246   -118.58006   -33940.847    4.2766901    4.2766901    4.2766901   -33940.847    -50112.87   -952.33506   -50757.337    7908.5944   -8799.7238    -7662.884    78.220998 
    7400    534.56516   -119.05672   0.48368579   -118.57303    16919.512    4.2333771    4.2333771    4.2333771    16919.512    30679.723    23733.229   -3654.4174   -11257.993   -17912.903    7001.1161    75.868389 
    7500    787.16525   -119.29422   0.71224366   -118.58198   -13104.287    4.2533999    4.2533999    4.2533999   -13104.287    6732.5413   -33129.571   -12915.832   -2080.0474    10021.292    13664.982    76.950004 
    7600     886.4859   -119.36646   0.80211107   -118.56434   -29880.236    4.2704274    4.2704274    4.2704274   -29880.236   -17010.696   -37836.477   -34793.533    2069.5996    2533.2736   -2279.1895    77.877863 
    7700    644.72168   -119.14316   0.58335773    -118.5598    22177.146     4.236019     4.236019     4.236019    22177.146    50359.303    6322.3607    9849.7729     872.4741   -16911.863   -7980.0367    76.010521 
    7800    527.70276   -119.05266   0.47747655   -118.57518   -15400.385     4.264636     4.264636     4.264636   -15400.385    261.03094   -27979.208   -18482.977   -9389.9708    -7120.064    8285.6074    77.561449 
    7900    690.27428   -119.19515   0.62457467   -118.57057    547.19682    4.2543831    4.2543831    4.2543831    547.19682    3004.6592   -22015.777    20652.709   -12897.762    4290.2945    -948.1005    77.003378 
    8000    678.85961   -119.18227   0.61424644   -118.56803    7238.3934    4.2473548    4.2473548    4.2473548    7238.3934    14298.947   -4800.2887    12216.522    400.91745   -5421.2867   -5513.6661    76.622378 
    8100    712.82665   -119.21474   0.64498053   -118.56976   -24852.876    4.2660711    4.2660711    4.2660711   -24852.876   -27228.847   -36385.763   -10944.017    2616.9756   -8922.8331     -6590.13    77.639774 
    8200     716.7315   -119.21604   0.64851372   -118.56752     16795.54    4.2423857    4.2423857    4.2423857     16795.54   -7501.9265    12264.215     45624.33   -14763.819   -2564.3893    2470.7903    76.353766 
    8300    827.62025   -119.32414   0.74884819   -118.57529   -3303.9687    4.2577348    4.2577348    4.2577348   -3303.9687    4173.6668   -15299.787     1214.214   -6914.0553    7474.8901    9424.3962    77.185515 
    8400    745.65378   -119.24582   0.67468321   -118.57114    11798.395     4.253126     4.253126     4.253126    11798.395    -2344.908    15882.828    21857.267    3944.9765   -219.16869   -3980.8092    76.935142 
    8500      697.538    -119.2063   0.63114704   -118.57516    12459.258    4.2430514    4.2430514    4.2430514    12459.258    19893.471    15256.444    2227.8587   -7665.4091   -7363.8797   -5544.6761    76.389715 
    8600    380.10415   -118.92685   0.34392623   -118.58292   -12377.781    4.2620624    4.2620624    4.2620624   -12377.781   -25214.043    6215.5639   -18134.863   -20976.676   -11577.694    2286.5199    77.421113 
    8700    812.18804   -119.30984   0.73488481   -118.57495    5189.1103    4.2412592    4.2412592    4.2412592    5189.1103   -9173.0479    22726.007    2014.3712   -9492.1821   -4803.5646    6192.6909    76.292957 
    8800    1002.8166   -119.48646   0.90736954   -118.57909    -9760.376    4.2513994    4.2513994    4.2513994    -9760.376   -7855.4395    2337.4261   -23763.115    9877.7679      4735.18    7037.5229    76.841483 
    8900    766.41622   -119.27548    0.6934695   -118.58202   -5748.6636    4.2493013    4.2493013    4.2493013   -5748.6636   -18047.121    9535.0386   -8733.9087    1841.6201   -5733.5391    332.87614    76.727772 
    9000    402.84274   -118.94872   0.36450058   -118.58422    1881.7589    4.2540472    4.2540472    4.2540472    1881.7589    2248.5838     -9300.12    12696.813   -22908.811   -9872.7394    1719.5236    76.985143 
    9100    873.55604   -119.36568   0.79041186   -118.57527    -23227.83     4.259027     4.259027     4.259027    -23227.83   -9863.1132   -34647.736   -25172.641   -2008.1498   -725.22472    3641.1343    77.255816 
    9200    880.16389   -119.36525   0.79639079   -118.56886     25714.97    4.2348118    4.2348118    4.2348118     25714.97    36043.072    22804.441    18297.398    9510.1784    8508.9463    2527.7993    75.945551 
    9300    432.70525   -118.97088    0.3915208   -118.57936   -14365.424    4.2719876    4.2719876    4.2719876   -14365.424   -17632.585   -17586.318   -7877.3693   -21527.781   -642.32086    1747.6917    77.963253 
    9400    574.34372   -119.09524   0.51967826   -118.57556    5562.8297    4.2480846    4.2480846    4.2480846    5562.8297   -3464.6236    8779.1417    11373.971   -23288.669   -12610.054   -8092.8728    76.661883 
    9500    801.85564   -119.29209   0.72553583   -118.56655    18377.898    4.2384651    4.2384651    4.2384651    18377.898    21975.468    23387.176    9771.0518   -3969.8858    9754.1335   -786.97601    76.142272 
    9600    795.51258   -119.28503    0.7197965   -118.56523   -27131.777    4.2758409    4.2758409    4.2758409   -27131.777   -29607.678   -27763.885   -24023.768    5342.1548    3644.1811    8591.7157     78.17441 
    9700    550.02763   -119.06877   0.49767656    -118.5711    11498.371    4.2394223    4.2394223    4.2394223    11498.371    18359.181   -6368.9404    22504.872   -15808.108   -6460.8055   -7178.6297     76.19387 
    9800    582.08691   -119.10316   0.52668447   -118.57648    11834.768    4.2416851    4.2416851    4.2416851    11834.768    22237.369   -6328.9081    19595.843   -18941.731   -4131.5399    544.67829    76.315942 
    9900    1025.9979   -119.49702   0.92834448   -118.56868   -17861.287    4.2656068    4.2656068    4.2656068   -17861.287   -16817.856   -8672.2092   -28093.795    7470.8187   -626.01847    1453.3299    77.614426 
   10000    869.31786   -119.35775   0.78657707   -118.57118    10047.317    4.2433777    4.2433777    4.2433777    10047.317    17770.398    11459.779    911.77459     2045.531    6321.4466    6373.8379    76.407337 
   10100    338.58395   -118.88878   0.30635787   -118.58242    -984.9591    4.2518398    4.2518398    4.2518398    -984.9591   -12491.267    4570.0034    4966.3864    -29431.45    3354.5281    13632.696    76.865361 
   10200    593.33624   -119.11621    0.5368631   -118.57934    1184.8398    4.2501246    4.2501246    4.2501246    1184.8398    -4580.046    11672.122   -3537.5569   -23684.255   -4225.8047   -5668.9539    76.772375 
   10300    956.22057   -119.44119   0.86520846   -118.57598   -1375.6372    4.2532224    4.2532224    4.2532224   -1375.6372   -9299.8208    11263.029   -6090.1196    3457.9612     2290.906     233.8221    76.940374 
   10400    699.74992   -119.21224   0.63314843   -118.57909   -3616.6869    4.2533718    4.2533718    4.2533718   -3616.6869   -10049.229    6977.0577   -7777.8895   -6069.1635    2993.2897    7905.4178    76.948479 
   10500    392.94101    -118.9369   0.35554129   -118.58136    15363.116     4.240566     4.240566     4.240566    15363.116    11617.385    5467.3803    29004.582    -31366.35    268.44286    1876.6773    76.255555 
   10600    633.66839   -119.15313   0.57335647   -118.57977   -9658.1697    4.2598682    4.2598682    4.2598682   -9658.1697       -22256   -29936.983    23218.473    -16691.97   -6800.5873    102.22213    77.301601 
   10700    951.84143   -119.42993   0.86124613   -118.56869    14237.376    4.2456914    4.2456914    4.2456914    14237.376    2244.9842     33159.77    7307.3729    14907.641   -1532.4776   -10674.729     76.53239 
   10800    611.61487   -119.13101   0.55340198   -118.57761   -7354.1328    4.2559756    4.2559756    4.2559756   -7354.1328   -8284.0419   -19408.131    5629.7742   -7479.4251    5630.2344   -3111.5192    77.089882 
   10900     370.1532   -118.91215    0.3349224   -118.57723   -958.99176     4.252028     4.252028     4.252028   -958.99176   -12327.884   -8615.0292    18065.938   -25596.092    3915.4136    5949.3416    76.875571 
   11000    1041.7731   -119.51384   0.94261822   -118.57123   -8062.3286    4.2455347    4.2455347    4.2455347   -8062.3286    2309.7391   -13623.948   -12872.777    194.54733   -2660.2698    1160.4247    76.523913 
   11100    819.27436   -119.31004   0.74129665   -118.56874   -34738.383    4.2715156    4.2715156    4.2715156   -34738.383   -20323.608   -46817.531    -37074.01    3229.1807   -1979.6541   -8455.4639    77.937415 
   11200    483.09259   -119.01104   0.43711233   -118.57393    1372.1074    4.2353865    4.2353865    4.2353865    1372.1074    1943.7516   -22961.196    25133.767   -21020.055    4278.7021    602.03015    75.976474 
   11300     467.5443   -119.00601   0.42304391   -118.58297    3614.3305    4.2450541    4.2450541    4.2450541    3614.3305    9174.1409   -20865.042    22533.893   -20629.958   -1748.3375    2344.0238    76.497932 
   11400    951.29552   -119.42334   0.86075218   -118.56259    -40453.39    4.2766305    4.2766305    4.2766305    -40453.39    -22503.88   -52599.162   -46257.126    1604.6304   -1349.4942   -8813.9743    78.217724 
   11500    654.96909   -119.15378   0.59262979   -118.56115    27057.353    4.2282083    4.2282083    4.2282083    27057.353    36777.753    16014.165    28380.142   -4626.1754   -1815.8567   -15003.566    75.590833 
   11600    475.19861   -119.01025   0.42996969   -118.58028   -3603.1394    4.2527173    4.2527173    4.2527173   -3603.1394    733.64797   -18005.673    6462.6071   -26305.027    693.00242   -6910.7556    76.912965 
   11700     747.6852   -119.24668   0.67652128   -118.57016   -15842.675    4.2670153    4.2670153    4.2670153   -15842.675   -13485.386    -24033.81   -10008.827    -7111.302    10136.565    9656.2851    77.691339 
   11800     1155.998   -119.60271    1.0459713   -118.55673    15894.787    4.2308771    4.2308771    4.2308771    15894.787    18378.626    10834.281    18471.454    11772.524    -2263.532   -6506.9072    75.734057 
   11900    613.75789   -119.13176   0.55534104   -118.57642   -2104.4449    4.2525849    4.2525849    4.2525849   -2104.4449    -6131.854    4585.3626   -4766.8435   -6839.4679    -2899.154   -7267.5724    76.905777 
   12000    411.48812   -118.94912    0.3723231   -118.57679    5716.8155     4.257874     4.257874     4.257874    5716.8155   -391.70336   -3132.4411    20674.591   -22923.919   -1828.6653   -6525.5978    77.193088 
   12100    755.26251   -119.25614    0.6833774   -118.57276    14068.753    4.2497106    4.2497106    4.2497106    14068.753    11404.042    12456.567    18345.651    -3772.531   -3907.2589   -4644.7569    76.749942 
   12200    1032.4655   -119.50433   0.93419645   -118.57013    8660.1876    4.2447015    4.2447015    4.2447015    8660.1876    8724.0556    25314.303   -8057.7955     4012.871    3769.9317    4574.5506    76.478872 
   12300    421.78197   -118.96393   0.38163719   -118.58229    6207.8272    4.2537956    4.2537956    4.2537956    6207.8272    20789.894   -10105.868    7939.4555   -22013.007   -7074.2453   -3100.9205    76.971483 
   12400    561.34401   -119.08442   0.50791585    -118.5765   -15772.564    4.2594422    4.2594422    4.2594422   -15772.564   -3433.1478    -24412.06   -19472.483   -23052.212    5134.8102     521.8016     77.27841 
   12500    1090.1884    -119.5502   0.98642536   -118.56377     5180.714    4.2444308    4.2444308    4.2444308     5180.714   -6753.4966    19491.171    2804.4671    7905.6026    3210.7373    9250.5122    76.464239 
   12600    787.02678   -119.28521   0.71211837   -118.57309   -12117.052    4.2622988    4.2622988    4.2622988   -12117.052   -18134.144   -23109.938    4892.9268   -5825.1303    4535.8487    11.155858    77.433998 
   12700    271.60175   -118.81696   0.24575098    -118.5712    4481.1681    4.2621274    4.2621274    4.2621274    4481.1681   -14920.305    343.18126    28020.628   -20586.893   -873.86655   -5898.8732    77.424657 
   12800    924.07558    -119.3954     0.836123   -118.55927    18282.963    4.2395233    4.2395233    4.2395233    18282.963    9186.9225    740.12558    44921.842    3711.4044   -2631.7782   -3336.2305    76.199319 
   12900    734.14845   -119.23351   0.66427295   -118.56924    6712.1325    4.2562344    4.2562344    4.2562344    6712.1325   -13940.844   -9442.5325    43519.774     1198.187    1729.8405    -4700.366    77.103945 
   13000    345.56914    -118.8893   0.31267822   -118.57662   -951.28206    4.2623076    4.2623076    4.2623076   -951.28206    5887.5784   -38739.277    29997.853    -23118.61   -3634.9667    -3216.049    77.434474 
   13100    645.76342   -119.15553   0.58430032   -118.57123    14089.875    4.2434774    4.2434774    4.2434774    14089.875    13401.263   -7748.9573    36617.321   -6406.8176    3794.2279   -332.63051    76.412726 
   13200    1106.5213    -119.5685    1.0012037    -118.5673   -13187.064    4.2534483    4.2534483    4.2534483   -13187.064   -11280.126   -12693.042   -15588.022    6791.7075   -9446.1998    2775.6842    76.952632 
   13300    616.32249   -119.12779   0.55766154   -118.57013    1303.5718    4.2562909    4.2562909    4.2562909    1303.5718    26541.886   -11466.463   -11164.707   -15933.418    4728.1668    8960.6711    77.107017 
   13400    590.46884   -119.10463   0.53426862   -118.57036   -5753.9727    4.2532414    4.2532414    4.2532414   -5753.9727    12027.706   -21899.846    -7389.778   -23919.234    3231.6836   -1667.4214    76.941402 
   13500    806.63786   -119.30148   0.72986289   -118.57161    10639.919    4.2397956    4.2397956    4.2397956    10639.919    10887.991    17636.375      3395.39   -577.95047   -5990.7731   -5166.8379    76.213999 
   13600    753.61041   -119.26087   0.68188254   -118.57899    958.83152    4.2531719    4.2531719    4.2531719    958.83152    36.427114    8383.9168   -5543.8494   -460.14541   -7331.2989    1922.6763    76.937631 
   13700    485.93378   -119.01358   0.43968309    -118.5739   -16300.458    4.2629123    4.2629123    4.2629123   -16300.458   -33012.891   -33739.978    17851.495   -28702.823   -6204.7325   -3577.4897    77.467438 
   13800    659.92624   -119.16555   0.59711513   -118.56843    12338.859    4.2370224    4.2370224    4.2370224    12338.859   -2835.5531    1163.4368    38688.693   -6336.9266    9107.8095   -6907.7215    76.064547 
   13900    963.16061   -119.44215   0.87148796   -118.57066   -22906.515    4.2584021    4.2584021    4.2584021   -22906.515   -12055.018    -27353.29   -29311.238    8669.4208    862.61257   -12109.199    77.221813 
   14000    777.41465   -119.27323   0.70342111   -118.56981   -16638.582    4.2575534    4.2575534    4.2575534   -16638.582   -28661.032   -28491.513    7236.7988   -12132.336   -1546.6315    233.50847    77.175651 
   14100    514.33524   -119.03576   0.46538134   -118.57038    11226.421    4.2387506    4.2387506    4.2387506    11226.421    12488.845   -11873.811    33064.228   -22815.641    2924.6763    3375.2862    76.157662 
   14200    772.84573   -119.27282   0.69928706   -118.57353   -4198.3103    4.2506068    4.2506068    4.2506068   -4198.3103    11271.368   -8538.9288    -15327.37   -1956.3133    -4323.516   -17102.225    76.798512 
   14300    717.82869   -119.22126   0.64950649   -118.57175    10522.073    4.2560077    4.2560077    4.2560077    10522.073    2739.0547     24444.07    4383.0938    874.55714   -2846.5448   -12823.491    77.091629 
   14400    640.49637   -119.15007   0.57953457   -118.57054    3624.2566    4.2535985    4.2535985    4.2535985    3624.2566    2775.1108    3639.7751    4457.8839    -24406.59    6128.6263    442.32397    76.960782 
   14500    544.39142   -119.06455    0.4925768   -118.57198    685.86657    4.2500984    4.2500984    4.2500984    685.86657    5158.1811   -883.08312   -2217.4983   -20887.029   -4182.6445   -1762.0486    76.770959 
   14600    819.41991   -119.31363   0.74142836    -118.5722   -779.55251    4.2505383    4.2505383    4.2505383   -779.55251    9234.8941     63.50576   -11637.057    7446.0876    880.74185   -2209.4791    76.794797 
   14700    997.76278   -119.47072   0.90279673   -118.56792    -17858.72     4.256225     4.256225     4.256225    -17858.72   -18775.547   -32539.248   -2261.3641    6061.9114    7485.0399    -266.3593    77.103435 
   14800    471.46378   -119.00037   0.42659034   -118.57378    4059.0432     4.246063     4.246063     4.246063    4059.0432     1004.579   -283.31035    11455.861   -25750.218   -11209.552     1756.698    76.552485 
   14900     502.9983   -119.03155   0.45512343   -118.57643    3121.2716    4.2504067    4.2504067    4.2504067    3121.2716   -10399.458   -1352.6622    21115.935   -7063.3239   -6123.3494    2131.9879    76.787666 
   15000    888.25017   -119.37178   0.80370742   -118.56808   -5703.2055     4.258305     4.258305     4.258305   -5703.2055   -16404.028   -14781.125    14075.536    12260.089   -3778.5587   -6334.6933     77.21653 
   15100    651.82386   -119.16012   0.58978393   -118.57034    11357.512    4.2474578    4.2474578    4.2474578    11357.512   -16253.522    13937.187     36388.87   -16423.543   -1871.3355    508.91524    76.627952 
   15200    599.36464   -119.11691   0.54231772   -118.57459   -2935.4383    4.2525933    4.2525933    4.2525933   -2935.4383   -24900.871   -18803.472    34898.029   -28391.036    -4371.746    3618.6222    76.906236 
   15300    881.26468    -119.3647    0.7973868   -118.56731   -7462.7625    4.2568003    4.2568003    4.2568003   -7462.7625   -12430.533    -15111.21    5153.4553     6489.907     27.89708     1661.664    77.134707 
   15400    944.85866   -119.42224   0.85492797   -118.56731   -9508.6842    4.2463931    4.2463931    4.2463931   -9508.6842   -16048.533   -587.07519   -11890.444      -3124.8    4365.2892    -810.3477     76.57034 
   15500    385.37636   -118.92556   0.34869663   -118.57686    1355.4955    4.2493511    4.2493511    4.2493511    1355.4955   -10279.653   -9611.0647    23957.204   -38573.497   -421.64007    4927.3111    76.730469 
   15600    694.67106   -119.20126   0.62855297   -118.57271   -8551.3188    4.2572168    4.2572168    4.2572168   -8551.3188   -23815.201    637.33203   -2476.0872   -19814.573   -4209.3557   -3107.8508    77.157352 
   15700    974.22348    -119.4498   0.88149788    -118.5683    12043.687    4.2430458    4.2430458    4.2430458    12043.687    1213.0148    31555.361    3362.6841    11882.201   -4078.2064   -5545.4633    76.389412 
   15800    569.24253   -119.09197    0.5150626   -118.57691   -6679.9418    4.2534312    4.2534312    4.2534312   -6679.9418   -26971.755     10523.59   -3591.6605   -24206.059    1248.6285   -1890.9617    76.951705 
   15900    471.28917   -119.00375   0.42643234   -118.57731   -10609.815    4.2521699    4.2521699    4.2521699   -10609.815   -31791.562   -4020.1087    3982.2245   -36383.913    6093.7026   -2714.1351    76.883268 
   16000    937.20441   -119.42066   0.84800225   -118.57266   -6952.6238    4.2474707    4.2474707    4.2474707   -6952.6238   -4926.3232    455.97752   -16387.526    9495.7109    -158.4296    8577.6741    76.628653 
   16100    954.55768   -119.43521   0.86370385   -118.57151   -24762.534    4.2586984    4.2586984    4.2586984   -24762.534   -34823.667     -29363.8   -10100.136    2980.8433   -3588.5288   -1014.0264    77.237933 
   16200    345.37723   -118.88673   0.31250458   -118.57422     23463.34    4.2409294    4.2409294    4.2409294     23463.34    16002.691    -9208.085    63595.415   -30078.948    -400.5063    -1538.642    76.275159 
   16300    571.75408   -119.09275    0.5173351   -118.57541   -1517.1863    4.2616767    4.2616767    4.2616767   -1517.1863   -10205.071   -27716.586    33370.097   -12219.204   -782.76772    -1393.224    77.400098 
   16400    1034.7991   -119.50218   0.93630794   -118.56587   -731.02845    4.2515881    4.2515881    4.2515881   -731.02845    18315.199   -14942.469   -5565.8159     10688.93   -3075.5929   -1144.3816    76.851713 
   16500    611.36908   -119.12368   0.55317959    -118.5705    15437.674    4.2379885    4.2379885    4.2379885    15437.674     24748.23   -7849.6454    29414.437   -29726.226   -3177.0375   -1192.9294    76.116588 
   16600    488.80394   -119.01587   0.44228008   -118.57359   -23568.024    4.2641431    4.2641431    4.2641431   -23568.024   -29452.405    -28291.97   -12959.696   -34787.581      -6299.7   -1563.9181    77.534558 
   16700     1010.804    -119.4759   0.91459673    -118.5613    1733.0012    4.2483533    4.2483533    4.2483533    1733.0012    12324.558    901.18014   -8026.7345    9193.0801    495.65849   -1198.2451     76.67643 
   16800    774.89386   -119.26947   0.70114025   -118.56833   -3388.3001    4.2499558    4.2499558    4.2499558   -3388.3001   -22486.776   -19280.247    31602.123   -8677.4989    1464.8603   -2285.3987    76.763228 
   16900    347.47049   -118.88963    0.3143986   -118.57523    15021.679    4.2484749    4.2484749    4.2484749    15021.679   -7942.6719    -1366.742    54374.451    -34034.76   -35.548063    315.83659    76.683014 
   17000    739.71507   -119.24015   0.66930974   -118.57084    11789.921    4.2558429    4.2558429    4.2558429    11789.921    24426.363   -18997.304    29940.704    2977.1872   -105.89257   -6563.0475    77.082672 
   17100     798.1517   -119.29117   0.72218443   -118.56899    1088.0002    4.2548085    4.2548085    4.2548085    1088.0002    1246.5642   -10856.983    12874.419    10877.068    1402.1698   -4668.0009    77.026482 
   17200    427.82165   -118.95987   0.38710202   -118.57276    24481.304    4.2360887    4.2360887    4.2360887    24481.304    42544.829   -375.14821     31274.23   -29090.397    3677.7286   -1852.8866    76.014272 
   17300    749.47803   -119.25506   0.67814347   -118.57691   -20928.013    4.2613868    4.2613868    4.2613868   -20928.013   -12019.943   -39412.171   -11351.927   -23534.685    503.43898    3788.4552    77.384302 
   17400    936.81765   -119.41493    0.8476523   -118.56728   -12931.452     4.253813     4.253813     4.253813   -12931.452     3705.757   -22596.431   -19903.681    13247.003    6316.8509   -5124.3919    76.972425 
   17500    534.82461   -119.05299   0.48392055   -118.56907    641.62752    4.2427259    4.2427259    4.2427259    641.62752    2145.8565   -1321.6943    1100.7204   -11034.413   -11317.684   -7153.5948    76.372133 
   17600    561.59203   -119.07971   0.50814027   -118.57157   -15846.115    4.2568016    4.2568016    4.2568016   -15846.115   -39381.789   -30111.394    21954.838   -36017.017   -1783.5078    1247.5652    77.134778 
   17700    893.56149   -119.37502   0.80851321   -118.56651   -7110.7811    4.2494297    4.2494297    4.2494297   -7110.7811   -6685.8119   -14315.821   -330.70989   -4020.2572   -392.66069   -8010.9796    76.734724 
   17800     769.0942   -119.26518   0.69589259   -118.56928     3225.885    4.2415788    4.2415788    4.2415788     3225.885   -5256.1744    6699.4319    8234.3976    14403.413   -1893.9466   -2763.3227    76.310207 
   17900    411.12341    -118.9515    0.3719931   -118.57951   -5529.6224     4.256688     4.256688     4.256688   -5529.6224   -18458.373    490.79753    1378.7081   -14249.677   -289.38907   -4543.5355    77.128604 
   18000    774.41695   -119.27789   0.70070873   -118.57718    6556.6062    4.2454967    4.2454967    4.2454967    6556.6062     6682.348    6898.0014    6089.4693   -20234.461   -5877.7629    1882.9983    76.521862 
   18100    941.65817   -119.42543    0.8520321    -118.5734    14335.459    4.2424172    4.2424172    4.2424172    14335.459    28614.921    12214.776    2176.6811    3068.0238    9659.7481    8584.6139    76.355465 
   18200    719.54265   -119.22648   0.65105731   -118.57543   -1765.7641    4.2544622    4.2544622    4.2544622   -1765.7641   -295.96357   -10724.617    5723.2884    14367.164    6284.1034   -4658.1494    77.007672 
   18300    500.77043   -119.02933   0.45310761   -118.57623    14728.017    4.2425298    4.2425298    4.2425298    14728.017    7179.2849    25181.827    11822.938   -12507.369   -5988.9418   -6243.1475    76.361547 
   18400    732.36127   -119.23871   0.66265587   -118.57606    791.31508    4.2501265    4.2501265    4.2501265    791.31508    -13726.02    11646.575    4453.3904    -21382.44   -793.55176   -1535.6794    76.772478 
   18500    795.59246   -119.29183   0.71986878   -118.57197   -4358.9864    4.2530046    4.2530046    4.2530046   -4358.9864    -13922.07    24393.748   -23548.637   -622.85834    7784.9429    439.77634    76.928552 
   18600    684.80445   -119.19162   0.61962546   -118.57199    4673.3154    4.2415009    4.2415009    4.2415009    4673.3154    -5329.471    33616.409   -14266.992    1196.1823     11487.29    5100.7523    76.306003 
   18700    641.70817   -119.15819   0.58063103   -118.57756   -15906.999    4.2504268    4.2504268    4.2504268   -15906.999   -31588.941   -8830.7245   -7301.3308   -26328.587   -4764.0907    1608.5867    76.788752 
   18800    640.81064   -119.15777   0.57981894   -118.57795   -9119.4529    4.2472103    4.2472103    4.2472103   -9119.4529   -26665.981   -4531.2752    3838.8975   -25394.923    -4013.687   -6635.4901    76.614555 
   18900    687.93276   -119.19933   0.62245601   -118.57688   -8485.3561    4.2463085    4.2463085    4.2463085   -8485.3561   -11950.013     14255.56   -27761.616      3679.65     22288.14    14175.488    76.565768 
   19000    631.11984   -119.14795    0.5710505    -118.5769   -12073.563    4.2542701    4.2542701    4.2542701   -12073.563   -7743.1671   -12525.647   -15951.873     -4143.99    8272.9502    6996.6169    76.997245 
   19100     811.5931   -119.30656    0.7343465   -118.57221    2261.1422    4.2446183    4.2446183    4.2446183    2261.1422    4486.0338    276.32807    2021.0647   -15503.796   -10720.494   -7216.6235    76.474374 
   19200    851.58965    -119.3441   0.77053621   -118.57356    1488.7272      4.24558      4.24558      4.24558    1488.7272   -8733.2867    10886.231    2313.2371   -11812.561    3306.4988    2615.0549    76.526363 
   19300    496.56771   -119.02875    0.4493049   -118.57945     11616.86    4.2502833    4.2502833    4.2502833     11616.86    38078.731    4217.9819   -7446.1328      5378.32    14102.791    63.877773    76.780979 
   19400    681.70741   -119.19358   0.61682319   -118.57676   -1182.3846    4.2496151    4.2496151    4.2496151   -1182.3846   -10385.147   -2348.0527     9186.046   -2782.4835    14818.842    4558.8562    76.744773 
   19500    818.04482   -119.31352   0.74018415   -118.57334    20532.215    4.2382826    4.2382826    4.2382826    20532.215    12329.902     22614.61    26652.133   -15956.087   -6844.9428     2223.982    76.132435 
   19600    790.11795   -119.29323   0.71491532   -118.57831   -13096.405    4.2563157    4.2563157    4.2563157   -13096.405   -32105.267    -10922.32    3738.3734   -7275.7795   -846.40604    -4618.926    77.108368 
   19700    558.30381   -119.08272   0.50516502   -118.57756   -9387.4164     4.247482     4.247482     4.247482   -9387.4164   -19267.356    3563.9108   -12458.803   -2218.2011    29185.363    11729.125     76.62926 
   19800    645.34423   -119.16126   0.58392102   -118.57734   -808.83216     4.237087     4.237087     4.237087   -808.83216     5032.096     438.0254   -7896.6178   -889.21037    12995.881     6754.558    76.068025 
   19900    795.26494   -119.29313   0.71957243   -118.57356   -29121.452     4.259757     4.259757     4.259757   -29121.452   -40926.545   -35128.821   -11308.991   -23803.272   -10380.362   -1742.0643    77.295546 
   20000    773.22749   -119.27638   0.69963248   -118.57674    4910.4547    4.2385043    4.2385043    4.2385043    4910.4547   -3138.1521    7937.9846    9931.5315   -8129.0258    2207.2789    3281.1045    76.144384 
   20100    730.39525    -119.2396   0.66087697   -118.57873    5802.7726    4.2405506    4.2405506    4.2405506    5802.7726     24557.14    1818.7762    -8967.598     8468.962    9889.0112   -983.90056    76.254723 
   20200    617.81245   -119.13459   0.55900969   -118.57558   -5824.3012    4.2581661    4.2581661    4.2581661   -5824.3012   -14048.676   -25593.562    22169.334   -9408.1057    13431.906    6577.4312    77.208977 
   20300    702.78829    -119.2103   0.63589761   -118.57441    12468.612     4.240131     4.240131     4.240131    12468.612    4905.7713    19318.739    13181.325   -14852.922   -8468.4113   -2552.2262    76.232091 
   20400    652.92954   -119.16783   0.59078437   -118.57704   -232.20133    4.2506581    4.2506581    4.2506581   -232.20133   -8860.7294    9748.6871   -1584.5618   -870.82477   -18706.319   -2843.7847    76.801293 
   20500    753.80961   -119.25285   0.68206278   -118.57079   -8948.4565    4.2551777    4.2551777    4.2551777   -8948.4565   -7079.8042   -3229.4248    -16536.14     2656.432    3382.6119    8272.1893    77.046534 
   20600    624.42224   -119.13503   0.56499036   -118.57004    3581.3149    4.2447358    4.2447358    4.2447358    3581.3149   -164.24075    4603.6515    6304.5341   -8007.6445    4393.8168   -813.71809    76.480725 
   20700    697.23687     -119.203   0.63087457   -118.57213   -6154.0595    4.2476039    4.2476039    4.2476039   -6154.0595   -26467.926   -705.26946    8711.0164   -13392.397   -11314.374      5087.47    76.635861 
   20800    585.77204   -119.10451   0.53001885   -118.57449    4338.0162    4.2516047    4.2516047    4.2516047    4338.0162   -5218.7878   -3494.8905    21727.727    998.26516   -17679.372   -656.63095    76.852612 
   20900    837.05367   -119.32944   0.75738375   -118.57206    275.19085    4.2488729    4.2488729    4.2488729    275.19085     12472.45   -11548.776   -98.101888    1571.4808   -5873.1096   -522.17643    76.704564 
   21000    740.43394   -119.24483   0.66996019   -118.57487     13492.77    4.2409772    4.2409772    4.2409772     13492.77   -7031.6959   -4591.5659    52101.571   -12919.989    13382.219      1279.84    76.277741 
   21100    553.03855   -119.08343    0.5004009   -118.58303   -1578.9077    4.2507653    4.2507653    4.2507653   -1578.9077   -15374.633    -938.9243    11576.834   -13066.172   -14130.817   -5910.3663    76.807102 
   21200    551.49421   -119.07917   0.49900355   -118.58017    1626.5117    4.2477065    4.2477065    4.2477065    1626.5117    560.74506    17566.444   -13247.654     6286.952   -26780.757   -2385.3433    76.641413 
   21300    886.87396   -119.37754    0.8024622   -118.57508    414.55178    4.2429458    4.2429458    4.2429458    414.55178   -3646.9762   -3128.2883    8018.9198     4002.052   -1886.6788    1611.7591     76.38401 
   21400    838.22326   -119.33532   0.75844202   -118.57688   -9316.0968    4.2521499    4.2521499    4.2521499   -9316.0968    2853.4033   -23321.546    -7480.148   -16136.635    7204.5507   -6349.0693    76.882183 
   21500    465.02827   -119.00142   0.42076735   -118.58066    5574.3516    4.2456055    4.2456055    4.2456055    5574.3516    424.74968    17287.769   -989.46391   -9438.5999    -21691.55    5180.2902    76.527745 
   21600    575.57074   -119.09955    0.5207885   -118.57876   -522.30507    4.2472292    4.2472292    4.2472292   -522.30507   -20463.545    8132.6297        10764    1347.7375    -32722.95   -128.52751    76.615581 
   21700    856.58658   -119.35116   0.77505754    -118.5761    5145.2626    4.2446831    4.2446831    4.2446831    5145.2626    1107.7353   -3644.9283    17972.981    -2986.643    68.657626   -7809.0207    76.477877 
   21800    827.24472   -119.32732    0.7485084   -118.57881     8264.884    4.2452639    4.2452639    4.2452639     8264.884    7885.0147    -2935.364    19845.001   -7913.8656    15288.708    801.43251    76.509275 
   21900    527.06107   -119.05733   0.47689594   -118.58044   -6348.2874    4.2555395    4.2555395    4.2555395   -6348.2874    -25132.29   -9047.0297    15134.458   -8045.2301   -23403.616   -899.50026    77.066185 
   22000    620.81697   -119.13895   0.56172824   -118.57723    3398.3898    4.2410636    4.2410636    4.2410636    3398.3898    4044.7117    8307.9588   -2157.5011    3754.9466   -22010.713    2472.0445    76.282404 
   22100    819.65098   -119.31761   0.74163743   -118.57597    1460.1912    4.2438721    4.2438721    4.2438721    1460.1912   -5314.5416    1689.1022     8006.013    4026.1122    12144.811   -5010.7203    76.434048 
   22200    896.88042   -119.38594   0.81151625   -118.57443   -12265.257    4.2544998    4.2544998    4.2544998   -12265.257   -2933.8651    -22530.63   -11331.274   -12439.381    7965.5334   -3403.3811    77.009718 
   22300    485.14188   -119.01477   0.43896657    -118.5758     -363.613    4.2486634    4.2486634    4.2486634     -363.613    13015.508   -7536.6367   -6569.7104   -12209.376   -14066.287    9503.1559    76.693218 
   22400    742.18202   -119.24466   0.67154189   -118.57312      290.589    4.2402579    4.2402579    4.2402579      290.589   -10426.547    5398.2382    5900.0759    3916.4581   -23867.067   -2537.3445    76.238932 
   22500    767.85243   -119.27005   0.69476902   -118.57528   -2130.5622    4.2536288    4.2536288    4.2536288   -2130.5622   -12955.591   -6722.8369    13286.741    2657.1738     6192.868   -814.97082    76.962428 
   22600    849.41297   -119.34332    0.7685667   -118.57475   -9535.3117    4.2491449    4.2491449    4.2491449   -9535.3117   -15344.127   -10324.808   -2936.9998   -15175.673    9290.1722    1879.7794    76.719298 
   22700    486.12307   -119.01663   0.43985437   -118.57678    14086.128    4.2368656    4.2368656    4.2368656    14086.128   -2442.6349    14460.785    30240.233   -14954.621   -18976.569    2375.7536    76.056102 
   22800    710.69404    -119.2212    0.6430509   -118.57815   -12474.795    4.2558725    4.2558725    4.2558725   -12474.795   -13381.065     1689.196   -25732.516    2796.7674   -22644.485    4511.2502     77.08428 
   22900    802.05583   -119.29756   0.72571697   -118.57184    861.90899    4.2511262    4.2511262    4.2511262    861.90899   -8104.9784    12298.342   -1607.6364    981.80648    9350.3924   -11233.467    76.826669 
   23000    685.25763   -119.19204   0.62003551   -118.57201    2702.4444    4.2438318    4.2438318    4.2438318    2702.4444   -6745.8912     4512.932    10340.292   -13470.001    6920.5313   -641.97818    76.431871 
   23100    539.55942   -119.06291   0.48820471   -118.57471     1378.285    4.2499116    4.2499116    4.2499116     1378.285    -1174.564    15405.912   -10096.493   -11858.825   -14385.911    6599.4006    76.760834 
   23200    854.66765   -119.34595   0.77332125   -118.57263   -3168.3104    4.2474298    4.2474298    4.2474298   -3168.3104   -11682.878    7277.6007   -5099.6543     5087.822   -12987.002   -8306.8835    76.626435 
   23300    692.72598   -119.20256   0.62679302   -118.57577   -277.49455    4.2454142    4.2454142    4.2454142   -277.49455   -15739.061   -4781.1765    19687.753    6958.0118     5387.956   -6133.2625    76.517398 
   23400    527.02825   -119.05816   0.47686624    -118.5813   -6593.3123    4.2456578    4.2456578    4.2456578   -6593.3123   -19474.164   -3521.3135    3215.5405   -16198.206    12198.062    -5341.333    76.530571 
   23500    659.12344   -119.17649   0.59638874    -118.5801   -304.21683     4.245483     4.245483     4.245483   -304.21683   -8302.6953   -1002.2464    8392.2912   -16821.703   -10313.394    6426.4546    76.521122 
   23600    1022.5101   -119.49894    0.9251886   -118.57375   -15009.858    4.2531801    4.2531801    4.2531801   -15009.858   -12176.024   -13771.389   -19082.161    7572.2341   -6194.1031     1047.689    76.938075 
   23700    590.07996   -119.11135   0.53391675   -118.57743    5545.9222    4.2445546    4.2445546    4.2445546    5545.9222   -3286.1189    21066.143   -1142.2572    3131.2932    1489.1587   -12195.003     76.47093 
   23800    376.34197   -118.92338   0.34052213   -118.58286   -3434.5001    4.2478023    4.2478023    4.2478023   -3434.5001   -27406.322   -986.52957    18089.351    -24450.76    3539.2614    980.67895      76.6466 
   23900    749.86285   -119.25541   0.67849167   -118.57692   -680.98765    4.2489786    4.2489786    4.2489786   -680.98765   -16167.991    2288.5619    11836.466   -13533.072    5129.0219    7845.5528    76.710292 
   24000    1196.2858    -119.6541    1.0824245   -118.57167   -5843.1685    4.2466792    4.2466792    4.2466792   -5843.1685   -11848.721    3179.1335   -8859.9178    8612.7521   -2029.7335   -12429.827    76.585817 
   24100    505.32913   -119.04041   0.45723242   -118.58317     9603.861    4.2444358    4.2444358    4.2444358     9603.861   -19498.773   -4953.3141     53263.67   -8260.9998    814.57748   -631.77695    76.464511 
   24200    296.24932   -118.85468   0.26805261   -118.58663    13212.166     4.246333     4.246333     4.246333    13212.166   -23535.432    16380.597    46791.333   -16608.173    4076.6662   -5230.2327    76.567089 
   24300    776.90787   -119.28171   0.70296257   -118.57875   -6780.9626    4.2556077    4.2556077    4.2556077   -6780.9626   -34810.928    7437.1061    7030.9339   -254.41296    4592.8954   -436.49637    77.069892 
   24400    949.80137   -119.43103   0.85940024   -118.57163    16094.964    4.2332293    4.2332293    4.2332293    16094.964   -1841.9178    24873.797    25253.013     5805.651   -4391.2901    9121.0953    75.860444 
   24500    558.89388   -119.08858   0.50569893   -118.58288   -10154.684    4.2513787    4.2513787    4.2513787   -10154.684   -16304.927   -7593.4458   -6565.6806   -17078.347   -5141.1562   -7004.5103    76.840356 
   24600    461.85312   -118.99884   0.41789441   -118.58095   -5484.6712    4.2523028    4.2523028    4.2523028   -5484.6712   -19834.907    2473.1921    907.70122   -14780.967    10609.398   -4832.7782    76.890475 
   24700    1034.7901   -119.50911   0.93629979   -118.57281    7801.2535    4.2337357    4.2337357    4.2337357    7801.2535   -7507.4821    8994.6747    21916.568    9867.4465    2507.0898    4662.1563    75.887672 
   24800    889.96463   -119.38356    0.8052587    -118.5783   -4150.8533    4.2517032    4.2517032    4.2517032   -4150.8533   -13128.819   -6729.5296    7405.7885    688.87401   -6953.8267    2123.5004    76.857951 
   24900    384.42636   -118.93256   0.34783705   -118.58472    11026.228    4.2484376    4.2484376    4.2484376    11026.228   -2184.0518   -1015.1484    36277.883   -17333.546   -6709.2874    2515.8811    76.680996 
   25000    520.62215   -119.05484   0.47106986   -118.58377   -1113.9374    4.2473777    4.2473777    4.2473777   -1113.9374    -18971.26   -16619.537    32248.985   -11650.594   -4317.5119   -7925.8664    76.623618 
   25100    1085.7167   -119.55566   0.98237933   -118.57328    1972.9277     4.241401     4.241401     4.241401    1972.9277   -5555.4109    8202.9146    3271.2795    5044.7292    9747.4322    -3282.069     76.30061 
   25200    829.96979   -119.33035   0.75097411   -118.57938   -5050.0535    4.2506926    4.2506926    4.2506926   -5050.0535   -7758.6624    -2074.366   -5317.1322   -2530.3605   -7172.7657   -508.87079    76.803161 
   25300    416.12008   -118.95837    0.3765142   -118.58185   -6613.8271    4.2497161    4.2497161    4.2497161   -6613.8271   -25738.033   -6702.2243    12598.776   -27222.029   -11622.171    2978.2898     76.75024 
   25400    554.74364   -119.08121    0.5019437   -118.57926    10603.857    4.2434357    4.2434357    4.2434357    10603.857   -4497.3269    12121.093    24187.804   -11741.186    3368.7613    1221.5846    76.410473 
   25500    1144.6589   -119.60769    1.0357114   -118.57198   -14347.739    4.2515183    4.2515183    4.2515183   -14347.739    -20037.48   -7086.4753   -15919.263    12962.495   -3907.4853   -6764.6814    76.847928 
   25600    708.84953     -119.218   0.64138195   -118.57662    10489.058    4.2434753    4.2434753    4.2434753    10489.058    268.27189    19798.029    11400.872   -10270.328    2925.4936    2534.9964    76.412611 
   25700    332.63066    -118.8823   0.30097122   -118.58133   -6634.1586    4.2545133    4.2545133    4.2545133   -6634.1586   -5803.6005   -27592.646     13493.77   -27926.809   -4593.1959    5592.4571     77.01045 
   25800    738.04217   -119.24218   0.66779607   -118.57439    3656.7297    4.2416856    4.2416856    4.2416856    3656.7297    21777.363    -22212.21    11405.035   -1396.9236    1092.9927    8058.5961    76.315971 
   25900    903.49535   -119.39101   0.81750158   -118.57351    4137.3306    4.2471121    4.2471121    4.2471121    4137.3306    25800.281   -4139.9173   -9248.3716    6811.7431    13123.177    1204.6519    76.609244 
   26000    509.54826   -119.03723   0.46104997   -118.57618   -16088.397    4.2604505    4.2604505    4.2604505   -16088.397   -23578.559   -26807.672    2121.0383   -12234.422    1663.9062   -6045.3539    77.333305 
   26100    561.79989   -119.08257   0.50832835   -118.57424    9742.3538    4.2350132    4.2350132    4.2350132    9742.3538     1452.493    7657.1323    20117.436   -21342.367   -5864.0714    21.875484    75.956391 
   26200    934.76791   -119.41894   0.84579765   -118.57314   -11423.749    4.2544257    4.2544257    4.2544257   -11423.749     -1561.01   -15031.446   -17678.791    1299.8157    -549.1935   -4567.4588    77.005692 
   26300    706.06574   -119.21096   0.63886312   -118.57209   -11526.062    4.2577957    4.2577957    4.2577957   -11526.062   -35746.111    6097.5102   -4929.5851    12174.845    4680.9104   -1225.8571    77.188829 
   26400    489.57182   -119.01227   0.44297487   -118.56929    26128.198    4.2315352    4.2315352    4.2315352    26128.198   -12958.115    54742.623    36600.087    -13638.09    4543.6272   -1135.8597    75.769407 
   26500    816.92092   -119.31277   0.73916721    -118.5736   -8094.7503    4.2537839    4.2537839    4.2537839   -8094.7503   -17057.777   -18943.968    11717.495     -11232.9   -2767.1052   -97.026585    76.970846 
   26600    783.76144   -119.28056   0.70916382   -118.57139   -1854.0954    4.2513458    4.2513458    4.2513458   -1854.0954   -18831.649    328.85909    12940.504    1945.4613   -6223.3047    2988.5487    76.838576 
   26700    523.61982   -119.04969   0.47378222   -118.57591   -2694.9796    4.2434714    4.2434714    4.2434714   -2694.9796   -9553.9238   -3980.7778    5449.7627    11253.628    13660.958    6088.5559    76.412399 
   26800    533.43331   -119.06047   0.48266167   -118.57781   -3513.4908    4.2466832    4.2466832    4.2466832   -3513.4908   -10473.853    -17417.18    17350.561    5727.8449    9224.3948   -3618.9836    76.586038 
   26900    1009.6459   -119.48508   0.91354883   -118.57153   -13103.091    4.2544656    4.2544656    4.2544656   -13103.091    -14360.76   -14175.345   -10773.167   -9139.6805   -2318.4411     4322.583    77.007858 
   27000    611.02215   -119.12731   0.55286568   -118.57445   -7226.0825    4.2531449    4.2531449    4.2531449   -7226.0825     14948.61    -10365.97   -26260.887    4618.0048   -3687.3115    7358.1024    76.936163 
   27100    647.10522   -119.15979    0.5855144   -118.57428    10809.078    4.2352265    4.2352265    4.2352265    10809.078    11356.946    16235.792    4834.4971    11999.562    -579.2605   -2212.5373    75.967866 
   27200    863.68624   -119.35603   0.78148146   -118.57455   -2362.1143    4.2539619    4.2539619    4.2539619   -2362.1143   -27064.058     17935.18    2042.5347    3261.2142    4224.8229   -6198.6164     76.98051 
   27300    827.97408   -119.32095   0.74916835   -118.57179    -4227.931    4.2535311    4.2535311    4.2535311    -4227.931    7411.0075   -10127.178   -9967.6229   -2490.3045   -4722.8906    4369.0943    76.957127 
   27400     373.4376   -118.91022   0.33789419   -118.57233    15901.277    4.2430121    4.2430121    4.2430121    15901.277    4423.6922    18783.328    24496.811   -1670.4454   -18277.477     15346.07    76.387593 
   27500    728.49685   -119.22914   0.65915926   -118.56998   -8003.1352    4.2571107    4.2571107    4.2571107   -8003.1352   -31548.353   -5585.7855    13124.733    4856.5573    4553.8746    5521.1078     77.15158 
   27600    1076.2095   -119.53807   0.97377696   -118.56429   -10814.481     4.251695     4.251695     4.251695   -10814.481   -9871.0603   -26985.001    4412.6172   -1961.2609    3358.0063    110.44707    76.857509 
   27700    479.42326   -119.01061   0.43379224   -118.57681   -3246.6125    4.2415353    4.2415353    4.2415353   -3246.6125   -1586.3757    873.44589   -9026.9076   -4045.0331   -22034.546    9000.8606     76.30786 
   27800    358.79579   -118.90767   0.32464597   -118.58303    7649.0072    4.2432411    4.2432411    4.2432411    7649.0072    22986.445    -1478.397    1438.9739    9797.4617   -7805.2785    9646.1934    76.399958 
   27900    796.15626   -119.29699   0.72037892   -118.57661   -10906.527     4.260499     4.260499     4.260499   -10906.527   -8726.7166   -29679.757    5686.8931    11940.611    4522.2383   -6355.4211    77.335943 
   28000    1023.2368    -119.4974   0.92584614   -118.57155     6406.921    4.2393352    4.2393352    4.2393352     6406.921    6198.7742    -11148.38    24170.369   -1583.4905    9487.6094   -4762.9169    76.189176 
   28100    366.62042   -118.91505   0.33172586   -118.58332    9138.1472    4.2444605    4.2444605    4.2444605    9138.1472    19834.995   -2150.4074    9729.8539   -1934.8108   -12011.723    8258.9807    76.465845 
   28200    410.52142   -118.94999   0.37144841   -118.57854   -12056.241    4.2610126    4.2610126    4.2610126   -12056.241   -5791.8533   -24827.675   -5549.1944    4880.2141   -13314.451     4676.355    77.363917 
   28300    1023.0932   -119.49294   0.92571618   -118.56722    14788.128    4.2343846    4.2343846    4.2343846    14788.128    5915.0345   -3181.8381    41631.188    2983.9861     14194.94   -3130.3785    75.922569 
   28400    798.19755   -119.30086   0.72222592   -118.57863    3187.0043    4.2466784    4.2466784    4.2466784    3187.0043    9738.0913   -6323.1034    6146.0251   -992.63684     6668.316   -5486.6455    76.585779 
   28500    244.87897   -118.80216   0.22157164   -118.58059    -2792.549    4.2613084    4.2613084    4.2613084    -2792.549    6944.3082   -2048.0056    -13273.95    1927.7661   -22966.254    6069.5426    77.380033 
   28600    643.37163   -119.15768   0.58213617   -118.57555    14859.717    4.2371708    4.2371708    4.2371708    14859.717    14310.915    9968.0814    20300.156    5038.1926   -17663.936    8454.7586    76.072539 
   28700    1060.3427   -119.53356   0.95942037   -118.57414    3093.5952    4.2400425    4.2400425    4.2400425    3093.5952    13183.361   -12569.443    8666.8678    1849.9463    8623.4232    508.05835    76.227318 
   28800    612.78984   -119.13456   0.55446512    -118.5801   -5909.6245    4.2571413    4.2571413    4.2571413   -5909.6245   -4129.0201   -11293.985   -2305.8685   -7482.9726    3097.3051   -2228.2017    77.153247 
   28900     365.0735   -118.91202   0.33032617   -118.58169   -8742.4458    4.2500411    4.2500411    4.2500411   -8742.4458    -786.9242    2398.0049   -27838.418   -3404.4237   -20555.026    9311.2843    76.767852 
   29000    714.35946   -119.22268   0.64636745   -118.57631   -660.57083    4.2390013    4.2390013    4.2390013   -660.57083     21458.97   -13529.221   -9911.4613    2734.1928   -6672.0615    24831.963    76.171176 
   29100    1106.0886   -119.57289    1.0008122   -118.57208   -15676.864    4.2498577    4.2498577    4.2498577   -15676.864   -5361.1726    -25137.15   -16532.269    98.054866    11891.234    1180.2434    76.757915 
   29200    645.33451   -119.16179   0.58391223   -118.57788   -6194.2971    4.2524402    4.2524402    4.2524402   -6194.2971   -2185.2425     15619.25   -32016.899   -1468.2368   -474.33801   -3113.8259    76.897931 
   29300    483.33719   -119.01567   0.43733364   -118.57833    7124.3226    4.2448516    4.2448516    4.2448516    7124.3226    33732.021    17823.459   -30182.513   -4670.4056   -10234.658    12055.522    76.486982 
   29400    931.91116   -119.41687   0.84321281   -118.57366    986.70592    4.2458149    4.2458149    4.2458149    986.70592    8111.4809     1155.123   -6306.4861   -1477.0982   -3472.9834    5019.8652    76.539067 
   29500    775.26127   -119.27584   0.70147268   -118.57437    9827.8253     4.250689     4.250689     4.250689    9827.8253    6219.8774    25418.931   -2155.3327    5793.0151    3369.2967   -4098.8092    76.802965 
   29600     488.6593   -119.01815   0.44214921     -118.576    721.77572    4.2522326    4.2522326    4.2522326    721.77572    8041.3908   -1773.8201   -4102.2435    487.07208   -7920.1596   -9989.8781    76.886667 
   29700    588.27964   -119.10461   0.53228778   -118.57233    13279.899    4.2388852    4.2388852    4.2388852    13279.899    -378.6612    12737.647     27480.71   -5981.0799   -16317.281    551.55611    76.164915 
   29800    1026.4444   -119.50339   0.92874849   -118.57464   -9264.8505     4.250359     4.250359     4.250359   -9264.8505   -20679.768   -15404.972    8290.1893    8503.7935     979.7121    6067.3356     76.78508 
   29900    546.37449   -119.07085   0.49437112   -118.57648   -17268.659    4.2570833    4.2570833    4.2570833   -17268.659   -27520.444   -30188.735    5903.2014    4121.0292    1477.6842    3682.7986    77.150093 
   30000    489.66279   -119.01742   0.44305718   -118.57436    5566.6299    4.2345025    4.2345025    4.2345025    5566.6299   -9497.9359     26036.62    161.20534   -5296.3761   -16289.349   -6335.7216    75.928911 
   30100    758.73474   -119.26454   0.68651914   -118.57802   -7166.5949     4.250674     4.250674     4.250674   -7166.5949   -4128.6812    20223.645   -37594.748   -3689.3498   -6708.2865   -3488.6112    76.802153 
   30200     929.1247   -119.41255   0.84069156   -118.57186   -8974.5143    4.2528409    4.2528409    4.2528409   -8974.5143   -10074.567    -7906.197    -8942.779    7675.5168    4950.1111    552.80792     76.91967 
   30300    652.78212   -119.16499   0.59065098   -118.57434    8662.2034    4.2373338    4.2373338    4.2373338    8662.2034   -14026.992    37465.971    2547.6307    9041.4195    -1302.184    7456.9901    76.081319 
   30400    555.45605   -119.08333   0.50258831   -118.58074   -5607.3645    4.2449922    4.2449922    4.2449922   -5607.3645   -12484.315    7448.0497   -11785.828   -3460.7412   -11998.592   -10907.391    76.494582 
   30500    679.24292   -119.19435   0.61459327   -118.57976   -6402.1768      4.24887      4.24887      4.24887   -6402.1768    9784.0387   -15141.168   -13849.401   -5935.3931   -9364.4326   -8580.9248    76.704412 
   30600    778.03499   -119.28126   0.70398241   -118.57728   -8234.5474    4.2463072    4.2463072    4.2463072   -8234.5474   -6339.2379   -11041.866   -7322.5379     15695.85    6585.9356    11657.158    76.565693 
   30700    683.35208   -119.19586   0.61831132   -118.57755    3855.3366    4.2403347    4.2403347    4.2403347    3855.3366   -14609.981    14479.304    11696.687    10725.967   -675.17206   -1674.0366    76.243075 
   30800    622.30183   -119.14441   0.56307177   -118.58133   -3701.0842    4.2509273    4.2509273    4.2509273   -3701.0842   -22327.054    4039.7111      7184.09   -15678.628   -15788.174   -653.35757    76.815883 
   30900    695.48699   -119.20513   0.62929125   -118.57584   -3649.5899    4.2519021    4.2519021    4.2519021   -3649.5899    -15950.02    15898.948   -10897.697   -7047.4046   -4837.9124   -2607.4804    76.868741 
   31000    957.44339   -119.43473    0.8663149   -118.56841    9536.5619    4.2389255    4.2389255    4.2389255    9536.5619    9985.1628    19601.965   -977.44226    9134.1455    7174.2191    5503.2243    76.167086 
   31100    674.68583   -119.18906   0.61046992   -118.57859    2137.7835    4.2511573    4.2511573    4.2511573    2137.7835    12283.095   -9680.1468    3810.4027   -3101.0364   -6739.2933    4859.2719    76.828355 
   31200    339.90775   -118.88817   0.30755568   -118.58062    2349.8745    4.2528207    4.2528207    4.2528207    2349.8745   -13374.299    22906.826   -2482.9033   -16667.691    -34383.97   -5295.9333    76.918575 
   31300    725.65177    -119.2297   0.65658497   -118.57312    15130.119      4.23656      4.23656      4.23656    15130.119    12513.112    16192.747    16684.499   -7174.9492   -10902.562    2232.9717    76.039647 
   31400    879.05378   -119.36874   0.79538634   -118.57335   -9560.0863    4.2550265    4.2550265    4.2550265   -9560.0863     8151.321   -24201.295   -12630.285    4094.0464      17473.8    5465.9886     77.03832 
   31500     624.6654    -119.1402   0.56521038   -118.57499   -3668.4892    4.2498195    4.2498195    4.2498195   -3668.4892   -10830.174    21489.947   -21665.241   -102.73678   -12190.144   -771.25556    76.755846 
   31600    635.11937   -119.14762   0.57466935   -118.57295    5461.0475    4.2388025    4.2388025    4.2388025    5461.0475    6232.4164    19303.182   -9152.4557   -5331.8382   -26715.191   -1696.8539    76.160456 
   31700    888.79921   -119.37457   0.80420421   -118.57037   -12007.389    4.2509573    4.2509573    4.2509573   -12007.389   -7306.8804   -26934.632   -1780.6553     -5291.11    2783.7177    614.88097     76.81751 
   31800    730.04875   -119.23264   0.66056345   -118.57207    688.65961    4.2480022    4.2480022    4.2480022    688.65961    6359.8909   -5636.3152    1342.4031    3220.2081    17495.436    7377.6038    76.657421 
   31900    554.46212    -119.0758   0.50168898   -118.57411    87.687437    4.2498341    4.2498341    4.2498341    87.687437    10320.412    2521.5099    -12578.86    5541.6614   -7343.5735    211.24803    76.756638 
   32000    762.13248   -119.26041   0.68959349   -118.57081    2430.4414    4.2454145    4.2454145    4.2454145    2430.4414   -215.69813   -11002.901    18509.923    -8021.661   -24865.154   -2764.5486    76.517416 
   32100    924.94335   -119.40816   0.83690818   -118.57125    3128.0822    4.2423538    4.2423538    4.2423538    3128.0822    5849.1348   -7439.2864    10974.398    159.86118    9270.5639    2526.6684    76.352039 
   32200    458.68657   -118.99376   0.41502925   -118.57873   -467.29314    4.2493954    4.2493954    4.2493954   -467.29314    10187.645   -4577.8657   -7011.6587    11573.635    15676.866    163.93368     76.73287 
   32300    457.61663   -118.99428   0.41406114   -118.58022   -1646.7301    4.2461337    4.2461337    4.2461337   -1646.7301    1402.1493   -1387.8638   -4954.4757     4107.222   -10223.935   -2036.1695    76.556308 
   32400    928.65852   -119.41565   0.84026974   -118.57538    -2282.434     4.244065     4.244065     4.244065    -2282.434    3521.6519    232.62299   -10601.577   -2690.8437   -20206.831   -6271.4424    76.444471 
   32500    854.37348   -119.34663   0.77305508   -118.57358    -9764.103    4.2519104    4.2519104    4.2519104    -9764.103   -4191.7856   -18784.494   -6316.0295   -3574.9757     3592.767    1121.4803    76.869192 
   32600    469.74351   -119.00113    0.4250338   -118.57609    -1537.381    4.2480364    4.2480364    4.2480364    -1537.381    8166.7857   -20857.827    8078.8984    6689.2537    7439.6271    6097.4399    76.659274 
   32700    631.36352   -119.14718   0.57127098   -118.57591    1153.0405    4.2416933    4.2416933    4.2416933    1153.0405    12888.007    6103.9052   -15532.791    7135.0135   -7634.2653    1957.3974    76.316386 
   32800    980.48424   -119.45868   0.88716275   -118.57152   -3747.1218     4.246705     4.246705     4.246705   -3747.1218   -1313.9373    -12976.36    3048.9319   -9693.4665   -4541.2775     1201.656    76.587216 
   32900    733.40038   -119.23862   0.66359607   -118.57503   -15949.021    4.2530997    4.2530997    4.2530997   -15949.021   -12594.457   -32176.446   -3076.1607   -8950.9011    3498.9486    9417.9538    76.933711 
   33000    486.17201   -119.01738   0.43989865   -118.57749   -1096.7499    4.2442226    4.2442226    4.2442226   -1096.7499    15340.524   -731.40386    -17899.37    3950.2115    8600.6343    18695.539    76.452988 
   33100    883.35003   -119.37149   0.79927367   -118.57222   -8040.8388    4.2525331    4.2525331    4.2525331   -8040.8388   -7110.1177   -15299.942    -1712.457    -1305.335    5674.1477   -2574.1623    76.902971 
   33200    958.90253   -119.43814   0.86763516   -118.57051   -7416.7151    4.2479271    4.2479271    4.2479271   -7416.7151   -10075.302   -14985.178    2810.3354   -15131.915   -597.79361   -1768.7306    76.653355 
   33300    458.84302   -118.98997   0.41517081    -118.5748    22954.733    4.2348971    4.2348971    4.2348971    22954.733    13519.141    26443.196    28901.862   -11117.606   -1164.9592    14522.445    75.950143 
   33400    613.42719   -119.13077   0.55504181   -118.57572   -5520.1334    4.2584142    4.2584142    4.2584142   -5520.1334   -5866.8679   -18955.897     8262.365    7397.3441     3044.365    7327.4915    77.222474 
   33500    819.82368   -119.31139   0.74179369    -118.5696    15879.627    4.2430524    4.2430524    4.2430524    15879.627    12061.721    12640.305    22936.856   -41.516971   -31.305371   -666.64513    76.389766 
   33600    636.33413   -119.15099   0.57576849   -118.57522    11076.639    4.2448338    4.2448338    4.2448338    11076.639   -8972.5159      7623.75    34578.683   -23418.316   -5686.1099    1457.7629     76.48602 
   33700    534.38355   -119.05693   0.48352147    -118.5734   -9820.9957    4.2550099    4.2550099    4.2550099   -9820.9957   -17115.018   -24548.966    12200.997   -11514.913   -671.76931    8639.2333    77.037421 
   33800    757.51352    -119.2526   0.68541415   -118.56718    10538.559    4.2358454    4.2358454    4.2358454    10538.559    18499.333    12436.362    679.98195     12844.07     5524.529    1492.0372    76.001176 
   33900    839.14011   -119.32995   0.75927161   -118.57068   -23178.717    4.2552014    4.2552014    4.2552014   -23178.717   -30955.287   -23942.888   -14637.976   -15961.655     8760.193   -4662.8539    77.047824 
   34000    608.81588   -119.12306    0.5508694   -118.57219    -5360.571    4.2460683    4.2460683    4.2460683    -5360.571   -22730.033   -5133.1053    11781.426   -31597.556   -611.74265   -3392.2231    76.552772 
   34100      710.529   -119.21579   0.64290157   -118.57288   -4643.5635    4.2426475    4.2426475    4.2426475   -4643.5635   -15058.061   -2200.1016    3327.4724   -150.55863   -110.48424    10982.692    76.367898 
   34200    808.12623   -119.30178    0.7312096   -118.57058    -14671.85    4.2530239    4.2530239    4.2530239    -14671.85   -9540.1113   -21211.073   -13264.367    2275.9856    1990.5438    7334.4773    76.929598 
   34300    732.27259   -119.23464   0.66257562   -118.57207    4376.1469    4.2404193    4.2404193    4.2404193    4376.1469   -6366.0467    -19320.05    38814.537   -28095.694    3254.3442   -3270.8684    76.247642 
   34400     594.6028   -119.11293   0.53800911   -118.57492   -4973.9611    4.2510273    4.2510273    4.2510273   -4973.9611   -23496.578   -2634.7649     11209.46   -27436.727   -3993.6129   -2103.3822    76.821303 
   34500    789.92826   -119.28702   0.71474369   -118.57227   -2212.7694    4.2468814    4.2468814    4.2468814   -2212.7694   -1312.0931    8852.2985   -14178.514    10361.411   -7736.6488     10391.69    76.596762 
   34600     706.5779   -119.21208   0.63932653   -118.57275    8441.0446    4.2393864    4.2393864    4.2393864    8441.0446    14800.849    10736.269    -213.9846   -523.41632   -1077.4418    13295.856    76.191938 
   34700    562.07422   -119.08696   0.50857657   -118.57838   -378.52927    4.2493129    4.2493129    4.2493129   -378.52927   -11228.041    2483.4279    7609.0256    -34641.47     2812.152    839.73906    76.728401 
   34800    775.19339   -119.27713   0.70141127   -118.57571    6370.7732    4.2433365    4.2433365    4.2433365    6370.7732    7739.0767    14748.722   -3375.4787   -17746.296    2062.7258   -3638.5318    76.405112 
   34900    998.18417   -119.47707   0.90317801    -118.5739   -3039.1981     4.244715     4.244715     4.244715   -3039.1981   -4418.1652    7216.6131   -11916.042    18086.405   -9198.7363    5698.2293    76.479603 
   35000    524.11827   -119.05732   0.47423323   -118.58308    6001.3066    4.2429165    4.2429165    4.2429165    6001.3066    28856.798   -15501.731    4648.8531    -14597.54   -6164.9407    9518.0666    76.382429 
   35100    363.64513   -118.91668   0.32903376   -118.58765    2845.4667    4.2461528    4.2461528    4.2461528    2845.4667    31963.969   -36322.346    12894.778   -35875.171    1014.1954    8131.8509    76.557346 
   35200    814.77483   -119.31838   0.73722538   -118.58115   -10280.105    4.2487025    4.2487025    4.2487025   -10280.105   -4535.1961   -18471.786   -7833.3322   -11004.119   -602.77546   -10264.508    76.695338 
   35300    1126.4379   -119.59289    1.0192247   -118.57366    4372.3519    4.2330932    4.2330932    4.2330932    4372.3519    16265.408    2689.9462   -5838.2981    10791.715   -2642.8713   -2719.4454     75.85313 
   35400    547.16271   -119.08056   0.49508432   -118.58548   -13622.565     4.255108     4.255108     4.255108   -13622.565   -18863.949     -7147.76   -14855.986   -28286.375   -4056.3678    8595.0669    77.042749 
   35500    384.16459   -118.93379    0.3476002   -118.58619   -664.91468    4.2452495    4.2452495    4.2452495   -664.91468   -8140.5878    3213.1989    2932.6449   -38398.522   -1157.2964     6469.642    76.508492 
   35600     868.5696   -119.36339   0.78590003   -118.57749    17898.051    4.2296826    4.2296826    4.2296826    17898.051    25300.032     12082.19    16311.931    7543.9531    6294.0832    2829.1325    75.669933 
   35700    974.57164   -119.45772    0.8818129   -118.57591   -16445.095    4.2568667    4.2568667    4.2568667   -16445.095   -28702.855   -1393.0337   -19239.397     10300.13    7253.8126    -5369.295    77.138314 
   35800    500.11777   -119.03427   0.45251707   -118.58175   -548.82577    4.2431145    4.2431145    4.2431145   -548.82577    9124.1706   -22722.536    11951.888   -30557.895   -300.93044    -1571.115    76.393122 
   35900    490.01615   -119.02382   0.44337691   -118.58044     8530.139    4.2341913    4.2341913    4.2341913     8530.139     8123.669   -69.727408    17536.476   -23122.301   -750.87111    9536.8498    75.912174 
   36000    835.21714   -119.33183   0.75572202   -118.57611   -10342.065    4.2551818    4.2551818    4.2551818   -10342.065   -11379.345    9453.5451   -29100.396    11508.187    2304.3465     9238.869    77.046756 
   36100    900.02457   -119.38786   0.81436114   -118.57349    8756.7917    4.2427795    4.2427795    4.2427795    8756.7917    11398.357    15551.034   -679.01532   -8698.1061    4115.9091   -4831.1188    76.375031 
   36200    560.73509   -119.08504   0.50736489   -118.57767    9831.9992    4.2430874    4.2430874    4.2430874    9831.9992    -13290.66    16775.625    26011.032   -24842.349   -927.64988    -501.4725    76.391659 
   36300     538.2608   -119.06364   0.48702968   -118.57661   -9076.6907    4.2499167    4.2499167    4.2499167   -9076.6907   -10538.027   -13932.604   -2759.4403   -13855.261    -1407.019    19576.438    76.761113 
   36400    829.74709   -119.32272    0.7507726   -118.57194    3174.6035    4.2393119    4.2393119    4.2393119    3174.6035    23887.164    4809.8765    -19173.23    12321.157    -3199.569    17202.958    76.187918 
   36500    854.78883   -119.34683    0.7734309   -118.57339   -21383.644    4.2540395    4.2540395    4.2540395   -21383.644   -24510.086   -20512.846   -19127.999     -9097.35   -7532.3359   -10927.234    76.984722 
   36600     588.7538   -119.10913   0.53271681   -118.57641     455.9599    4.2377451    4.2377451    4.2377451     455.9599   -3082.2852   -13830.612    18280.777   -29486.064   -356.81428   -4253.1118    76.103475 
   36700    535.29557   -119.06611   0.48434668   -118.58176    1168.3923    4.2460595    4.2460595    4.2460595    1168.3923    18491.333   -6234.3093   -8751.8465   -6094.4811    309.44632    26876.153    76.552299 
   36800    843.10737   -119.33372   0.76286127   -118.57086   -17712.842    4.2577697    4.2577697    4.2577697   -17712.842   -14558.797   -22633.366   -15946.363    11492.315   -4065.2975    14665.088    77.187416 
   36900    669.65855   -119.17193   0.60592113   -118.56601    21915.701    4.2334939    4.2334939    4.2334939    21915.701    4070.1573    16217.716    45459.229   -18524.341    -1142.783   -10018.922    75.874672 
   37000    512.25474   -119.03676   0.46349886   -118.57326   -8081.8157    4.2564604    4.2564604    4.2564604   -8081.8157   -16471.886   -17135.695    9362.1338    -18427.75   -2187.0783    4449.6462    77.116233 
   37100    812.40896   -119.30083    0.7350847   -118.56575   -1000.4806    4.2493851    4.2493851    4.2493851   -1000.4806   -4560.8019   -618.21149    2177.5715    8900.3761   -1460.4894    18712.631     76.73231 
   37200    873.91697   -119.35359   0.79073844   -118.56286    2883.9373    4.2404632    4.2404632    4.2404632    2883.9373   -6111.7832     2762.984    12000.611   -3302.5286   -2404.7786    7103.3167    76.250006 
   37300    512.45225    -119.0368   0.46367756   -118.57313    4106.8217    4.2471486    4.2471486    4.2471486    4106.8217   -13005.533    22760.911    2565.0871   -23031.043   -6320.3073   -6875.5808    76.611217 
   37400    680.46124   -119.18869   0.61569563   -118.57299    8852.8184    4.2455511    4.2455511    4.2455511    8852.8184    2021.0776   -1340.1829     25877.56   -12339.512     1502.768    -1388.075    76.524801 
   37500    863.21855   -119.35064   0.78105828   -118.56958   -755.60699    4.2511045    4.2511045    4.2511045   -755.60699    3072.4783   -9466.9659    4127.6666    8036.2502    3725.1668    8614.7779    76.825491 
   37600    609.34958   -119.12301   0.55135231   -118.57166    5711.8582    4.2441776    4.2441776    4.2441776    5711.8582    6237.0386   -3759.6218    14658.158   -12888.116    3701.6226    9251.2014    76.450556 
   37700    529.16774    -119.0526    0.4788021    -118.5738    143.84738    4.2486147    4.2486147    4.2486147    143.84738    -26336.64   -381.30394    27149.486   -27181.908   -697.73082   -3541.8996    76.690585 
   37800    910.51215   -119.38873   0.82385052   -118.56488   -19456.555    4.2554927    4.2554927    4.2554927   -19456.555    -17047.39   -29223.488   -12098.787    3814.6203   -8512.1568   -4249.3976    77.063646 
   37900    723.27224   -119.21837   0.65443192   -118.56394   -2770.3482    4.2418465    4.2418465    4.2418465   -2770.3482    14311.734    -11968.46   -10654.319    183.51843   -2001.6008    8298.6473    76.324657 
   38000     519.7437   -119.04284   0.47027503   -118.57256   -3269.3635    4.2451448    4.2451448    4.2451448   -3269.3635   -21703.465   -5589.3517    17484.726   -28928.728    846.72717   -180.35649    76.502835 
   38100    787.55924   -119.28428   0.71260015   -118.57168   -9044.1962    4.2515086    4.2515086    4.2515086   -9044.1962   -14458.426   -11990.739    -683.4233   -16021.987   -3276.0812   -1710.1727    76.847404 
   38200    908.23025   -119.39236   0.82178582   -118.57057    4758.1444    4.2389595    4.2389595    4.2389595    4758.1444    24863.571    -15718.91    5129.7723    6112.2398   -3647.7655   -737.21569    76.168921 
   38300    504.00629   -119.03524   0.45603548    -118.5792    4310.9444    4.2454305    4.2454305    4.2454305    4310.9444     4464.385   -25397.251      33865.7   -5389.6922   -1861.5461    2499.9328    76.518282 
   38400    591.16417   -119.11313   0.53489776   -118.57823   -5141.7506    4.2506802    4.2506802    4.2506802   -5141.7506   -10927.619   -18950.773     14453.14   -18139.224    5196.2308     2060.535    76.802491 
   38500    951.59522   -119.43192   0.86102336    -118.5709    5721.9503    4.2405504    4.2405504    4.2405504    5721.9503   -5099.2502    10536.292     11728.81   -9282.5037     7918.505   -3270.7757    76.254715 
   38600    720.83754   -119.22701   0.65222895   -118.57478   -3722.3991    4.2476151    4.2476151    4.2476151   -3722.3991    3513.6853   -27431.691    12750.808    8801.5503    461.62861   -2866.3853    76.636465 
   38700    378.64589   -118.92183   0.34260676   -118.57922    2672.8303    4.2461059    4.2461059    4.2461059    2672.8303    15644.662   -21536.734    13910.563   -3400.0973   -2274.7445    7366.3249    76.554804 
   38800    771.05213   -119.27485   0.69766417   -118.57718    70.153146    4.2425271    4.2425271    4.2425271    70.153146   -8224.3403   -1980.6188    10415.419   -11129.577   -493.66621    7431.5708    76.361401 
   38900     1082.736   -119.55145   0.97968227   -118.57177   -8493.5326    4.2456311    4.2456311    4.2456311   -8493.5326   -24489.052   -9877.4631    8885.9168    2844.5522    3232.6199   -2027.8345    76.529129 
   39000    556.70703   -119.08534   0.50372022   -118.58162   -1471.4334    4.2430375    4.2430375    4.2430375   -1471.4334    167.74895   -14717.813    10135.764    9299.6686   -361.60337    475.30834    76.388962 
   39100    227.31243   -118.79261   0.20567706   -118.58693    2709.1368    4.2446388    4.2446388    4.2446388    2709.1368    6435.4913   -24275.002    25966.921    1297.9286   -7123.4147    8871.5065    76.475479 
   39200    853.39843   -119.35374   0.77217283   -118.58157    44.968352    4.2439081    4.2439081    4.2439081    44.968352   -6193.8461   -21492.515    27821.266   -5205.3194   -2406.5556    1146.1554    76.435995 
   39300     1067.638   -119.54181   0.96602128   -118.57579    6323.4764    4.2418543    4.2418543    4.2418543    6323.4764    1244.7731   -931.82803    18657.484     6283.178   -1190.4549   -4272.3392    76.325076 
   39400    513.23982    -119.0465   0.46439018   -118.58211    1546.8445    4.2503222    4.2503222    4.2503222    1546.8445   -1115.2559   -24223.704    29979.494    16446.008    3655.2158    1896.1855    76.783083 
   39500    461.36975    -118.9974   0.41745705   -118.57994    1734.1946    4.2453404    4.2453404    4.2453404    1734.1946     11804.09   -24771.004    18169.498    4065.6437    5830.1592    -13.00217    76.513411 
   39600    890.76839   -119.37942   0.80598596   -118.57343   -253.42977    4.2414096    4.2414096    4.2414096   -253.42977    7152.4688   -12231.096    4318.3379   -3484.7894   -1915.2972   -1532.6615    76.301075 
   39700    833.20409   -119.32547   0.75390057   -118.57157   -17311.166    4.2559575    4.2559575    4.2559575   -17311.166   -43228.862   -11589.622    2884.9862    11656.793    3545.0467   -2984.1175    77.088898 
   39800    438.01634   -118.97028   0.39632639   -118.57395    968.56927    4.2454759    4.2454759    4.2454759    968.56927   -3927.5918   -4829.5219    11662.822    13327.866    872.18801    1605.1024    76.520736 
   39900    599.67187   -119.11573   0.54259571   -118.57314     7973.732    4.2397065    4.2397065    4.2397065     7973.732    37423.607   -13830.446     328.0352   -3667.2201   -3450.9868    10426.321    76.209197 
   40000    966.75403   -119.44315   0.87473936   -118.56841   -9772.6525    4.2537123    4.2537123    4.2537123   -9772.6525   -6906.2302   -13982.602   -8429.1255   -3358.5865    300.63545    559.08609    76.966963 
   40100    704.72924   -119.20918   0.63765382   -118.57153   -1094.2639    4.2448289    4.2448289    4.2448289   -1094.2639   -28798.204    12409.007    13106.405    11120.458   -1063.2609   -2323.1249    76.485754 
   40200    381.54249   -118.92313   0.34522766    -118.5779      1564.55    4.2427576    4.2427576    4.2427576      1564.55   -14170.113     510.3247    18353.439    10345.171     280.6045    9449.6895    76.373845 
   40300    895.42991   -119.38392    0.8102038   -118.57372   -7522.0059    4.2496541    4.2496541    4.2496541   -7522.0059   -14049.081   -10707.218    2190.2815   -3778.2972    3765.3745    6968.6951    76.746883 
   40400    1004.0311   -119.47817   0.90846845    -118.5697   -341.87008    4.2476071    4.2476071    4.2476071   -341.87008   -12293.094    15666.679   -4399.1953    2125.9246   -1697.4441   -3402.5658    76.636034 
   40500    396.91304   -118.93741   0.35913526   -118.57827    9637.9309    4.2443079    4.2443079    4.2443079    9637.9309   -9756.4206    15838.588    22831.625    14482.845   -1965.9922   -2394.4954    76.457596 
   40600    339.12668   -118.88826   0.30684894   -118.58141    5746.5336    4.2495155    4.2495155    4.2495155    5746.5336   -10714.068     10046.97    17906.698    6379.8806   -1713.7173    3236.2133    76.739373 
   40700    1076.1495   -119.54459   0.97372272   -118.57087   -6855.6434     4.248782     4.248782     4.248782   -6855.6434   -10141.826   -291.74808   -10133.356   -6051.9608    494.40665    3543.6131    76.699643 
   40800    1009.2731   -119.48345   0.91321147   -118.57024   -6819.9467    4.2447795    4.2447795    4.2447795   -6819.9467   -17519.691    5130.6157   -8070.7648     3779.001    5968.0852   -7170.5662    76.483087 
   40900    289.14762   -118.84125   0.26162684   -118.57962   -1001.9073    4.2494636    4.2494636    4.2494636   -1001.9073   -28707.127   -3796.9119    29498.317    17937.203   -107.32491   -9347.3416    76.736563 
   41000    619.47063   -119.13771   0.56051004    -118.5772   -898.31686    4.2461841    4.2461841    4.2461841   -898.31686   -19754.996    3164.5251     13895.52   -883.70096    420.18595    8011.9291    76.559035 
   41100    1069.0607   -119.53605   0.96730857   -118.56874    1897.8832    4.2460275    4.2460275    4.2460275    1897.8832    2772.0973    1496.5603    1424.9919   -12579.862   -1135.8108   -1655.1566    76.550569 
   41200    633.48521   -119.14931   0.57319073   -118.57612   -442.20918    4.2466377    4.2466377    4.2466377   -442.20918   -5469.7272   -6842.9587    10986.058    17765.085   -2297.5671   -15240.023    76.583573 
   41300     277.2566   -118.83075    0.2508676   -118.57988    3106.5365     4.247343     4.247343     4.247343    3106.5365   -9821.0647   -721.82802    19862.502    24191.302    327.80525    2006.0176    76.621737 
   41400    929.11271   -119.41418   0.84068071    -118.5735   -9965.6642    4.2506633    4.2506633    4.2506633   -9965.6642   -16891.332   -7348.5646   -5657.0963   -2891.0498    2288.7826     2715.555    76.801571 
   41500    1156.3573   -119.61593    1.0462964   -118.56963   -2476.9802    4.2419686    4.2419686    4.2419686   -2476.9802   -8948.8389   -1143.3504    2661.2488   -6282.7359    2164.2027   -6784.1632    76.331243 
   41600    396.73391   -118.94004   0.35897318   -118.58107   -115.25536     4.248616     4.248616     4.248616   -115.25536    2820.5097   -21488.414    18322.138    14406.043     895.3364   -10697.715    76.690653 
   41700    407.87726    -118.9469   0.36905592   -118.57785   -569.23371    4.2518041    4.2518041    4.2518041   -569.23371   -6518.3279   -5999.8374    10810.464    21694.297    -3144.949   -1631.9408    76.863428 
   41800    1091.3661   -119.55551   0.98749096   -118.56802     6894.251    4.2442576    4.2442576    4.2442576     6894.251    -2813.728    1098.2475    22398.233   -3456.8061   -3584.9974    5042.1983    76.454878 
   41900    832.66088   -119.32653   0.75340907   -118.57312    -784.8695    4.2489682    4.2489682    4.2489682    -784.8695    4533.0736   -10137.432    3249.7497   -5169.7899    -5310.606   -10362.823    76.709728 
   42000    161.50341   -118.72706   0.14613168   -118.58093    5977.6321    4.2450646    4.2450646    4.2450646    5977.6321   -8153.7258    256.17333    25830.449    21209.653   -2663.8238   -16251.967    76.498501 
   42100    571.89763   -119.09853     0.517465   -118.58106   -434.18748      4.24561      4.24561      4.24561   -434.18748   -22905.294   -11272.842    32875.574    15262.935     1129.709   -1046.6785    76.527987 
   42200    1220.8595   -119.67705    1.1046593    -118.5724   -3641.2569    4.2455656    4.2455656    4.2455656   -3641.2569   -15930.077   -1429.2253    6435.5313   -8905.9612    3084.2584   -1098.1077    76.525587 
   42300    663.08382   -119.18138   0.59997217   -118.58141    3183.4382    4.2470767    4.2470767    4.2470767    3183.4382    -21151.98    9734.0889    20968.206    5757.3671    2917.1379   -6528.2142    76.607325 
   42400    213.32758   -118.77548   0.19302328   -118.58245   -7323.4893    4.2520873    4.2520873    4.2520873   -7323.4893   -30006.741    -12442.16    20478.433    29845.781    4993.0824   -15147.312    76.878784 
   42500    824.73259   -119.32204   0.74623538   -118.57581    8889.1074    4.2343038    4.2343038    4.2343038    8889.1074   -2228.4915    9554.5816    19341.232    8723.0236   -262.42965   -335.67081    75.918223 
   42600    1213.5814   -119.67176     1.098074   -118.57369   -15080.408     4.250561     4.250561     4.250561   -15080.408   -31924.379    -3354.694    -9962.151   -8771.5332   -5239.8215     2153.416    76.796026 
   42700    462.83844   -119.00077   0.41878595   -118.58198   -12758.695    4.2510788    4.2510788    4.2510788   -12758.695   -41661.186   -8369.0276     11754.13    15624.259   -1831.3767   -4365.9406    76.824096 
   42800    284.91116    -118.8403    0.2577936   -118.58251    9245.1175    4.2315186    4.2315186    4.2315186    9245.1175   -10141.029    3173.1859    34703.196    21752.747   -1151.6142    -10484.93    75.768515 
   42900    990.89591   -119.47547   0.89658344   -118.57889   -13277.179    4.2517572    4.2517572    4.2517572   -13277.179   -23630.306   -11183.247   -5017.9857   -5545.0838    1982.5873   -17563.572    76.860882 
   43000    1048.6367   -119.52257   0.94882854   -118.57375   -8690.1628    4.2495183    4.2495183    4.2495183   -8690.1628   -27031.551   -8392.4291    9353.4922   -1026.4782   -1185.7491    13222.062    76.739527 
   43100    375.00908   -118.91945    0.3393161   -118.58014    6331.0876    4.2372851    4.2372851    4.2372851    6331.0876   -15584.103    1222.7538    33354.612    22802.201    -1609.763    3392.3349    76.078694 
   43200    359.69098   -118.90825   0.32545595    -118.5828   -466.47871    4.2450894    4.2450894    4.2450894   -466.47871   -23204.386    11213.107    10591.843    7554.8889   -131.63211   -19315.422    76.499839 
   43300    941.29735     -119.428   0.85170562   -118.57629   -2977.8829    4.2463685    4.2463685    4.2463685   -2977.8829    -21219.73    11535.224    750.85687   -11742.051    3425.6408   -5182.2668    76.569012 
   43400    816.58381   -119.31417   0.73886219   -118.57531     6218.112     4.244382     4.244382     4.244382     6218.112   -6459.1656    11169.185    13944.316    7288.4021    3993.7478    14209.474    76.461599 
   43500    489.94559   -119.02317   0.44331307   -118.57986    8582.9055       4.2434       4.2434       4.2434    8582.9055   -11160.024    3979.2305     32929.51    18483.449   -1790.8758    12295.272    76.408543 
   43600    574.06731   -119.10087   0.51942817   -118.58144    4965.5725    4.2445892    4.2445892    4.2445892    4965.5725   -22051.527   -5030.0511    41978.296    116.83928    2247.3211   -16977.459    76.472802 
   43700    848.26036   -119.34526    0.7675238   -118.57773    1427.5754    4.2432734    4.2432734    4.2432734    1427.5754   -12377.495    9510.7221    7149.4987   -6513.3391    1796.1148   -17286.223    76.401706 
   43800    790.76958   -119.29248   0.71550493   -118.57698   -7245.6368    4.2450948    4.2450948    4.2450948   -7245.6368   -14288.508   -11315.761    3867.3589    10721.084   -1966.4366    12986.149    76.500131 
   43900    472.83122   -119.00761   0.42782763   -118.57979   -6226.4853    4.2455173    4.2455173    4.2455173   -6226.4853   -22458.502   -17246.638    21025.684    16375.262    1906.3834    4921.6764    76.522975 
   44000    683.01664   -119.19694   0.61800781   -118.57893   -1725.9673    4.2398256    4.2398256    4.2398256   -1725.9673   -10770.651   -3274.3944    8867.1433   -5160.7148   -2855.4841    -17480.56    76.215618 
   44100    989.33038   -119.47068   0.89516692   -118.57552   -8035.0273    4.2478044    4.2478044    4.2478044   -8035.0273   -14103.357   -9713.8019   -287.92274   -7779.8027    2302.3608   -12449.372    76.646712 
   44200    704.86225   -119.21562   0.63777418   -118.57785    3531.3014    4.2428952    4.2428952    4.2428952    3531.3014   -17901.484    23245.649    5249.7392    13060.874    4620.8425    12653.338    76.381278 
   44300    399.85261   -118.94471   0.36179505   -118.58292   -1133.7994    4.2463908    4.2463908    4.2463908   -1133.7994   -25743.923    4375.8825    17966.642    10489.576    4554.7493    11028.757    76.570215 
   44400    690.63757   -119.20446   0.62490338   -118.57956     2424.295    4.2451849    4.2451849    4.2451849     2424.295   -19127.289    504.69086    25895.483   -11323.577    1214.1251   -17745.641    76.505003 
   44500    1100.4761    -119.5675   0.99573387   -118.57177   -7124.6271    4.2462103    4.2462103    4.2462103   -7124.6271   -21200.136    9388.8306   -9562.5762    -3318.684    -3097.484   -4074.3916    76.560451 
   44600    697.48369   -119.20885    0.6310979   -118.57775   -6325.1897    4.2448413    4.2448413    4.2448413   -6325.1897   -18724.833   -13499.503    13248.767    14139.633    3184.7139    15541.782    76.486426 
   44700    364.45822   -118.91255   0.32976946   -118.58278    7983.4088    4.2385084    4.2385084    4.2385084    7983.4088    -16632.54    12567.691    28015.076    2020.9216    4175.6009    9270.1719    76.144605 
   44800    733.02615   -119.24293   0.66325746   -118.57967   -7700.5616    4.2518136    4.2518136    4.2518136   -7700.5616   -37101.557    4001.1482    9998.7245    -11820.55   -1179.6509   -10266.941    76.863944 
   44900    936.93408   -119.42143   0.84775765   -118.57367    6912.8555     4.241899     4.241899     4.241899    6912.8555   -15431.664    9277.4794    26892.751    117.22462   -8402.7823   -3251.2169    76.327489 
   45000    614.28469   -119.13632    0.5558177    -118.5805    6255.5412    4.2418208    4.2418208    4.2418208    6255.5412   -6091.5247    9083.0664    15775.082    7922.8182    -4423.822    19843.928    76.323268 
   45100    464.54742   -119.00155   0.42033226   -118.58122   -2709.4592    4.2505823    4.2505823    4.2505823   -2709.4592   -34165.222   -16896.487    42933.331   -4365.7208    3267.4159    6111.8111    76.797184 
   45200    768.37284   -119.26968   0.69523989   -118.57444    4417.5823    4.2424798    4.2424798    4.2424798    4417.5823    -17171.74   -1561.6516    31986.138   -9296.2974    -9076.947   -8108.2974    76.358846 
   45300      899.665   -119.38607    0.8140358   -118.57204    -3697.784    4.2485333    4.2485333    4.2485333    -3697.784   -13511.278    2801.4625   -383.53672    3914.0006   -7466.1621   -166.80585    76.686178 
   45400    547.01642   -119.07301   0.49495195   -118.57806    9715.8092    4.2422267    4.2422267    4.2422267    9715.8092   -11318.558    1705.2532    38760.732    10149.001   -102.19116    6493.1737     76.34518 
   45500    349.96311   -118.89966   0.31665398   -118.58301    6120.6034    4.2474877    4.2474877    4.2474877    6120.6034    -12258.31   -1290.5622    31910.683   -9118.2095    3536.0705    8203.2816    76.629571 
   45600    927.98593   -119.41733   0.83966117   -118.57767   -3875.7765    4.2432348    4.2432348    4.2432348   -3875.7765   -7904.1911   -5554.2037    1831.0653   -14412.195    959.75285   -6194.0014    76.399622 
   45700    1022.1743    -119.5001   0.92488481   -118.57521   -2590.2021    4.2424185    4.2424185    4.2424185   -2590.2021   -12521.041    -2694.931    7445.3652    8718.5354   -6763.1507    299.04767    76.355533 
   45800    461.49917   -118.99948   0.41757415    -118.5819   -15871.979    4.2527325    4.2527325    4.2527325   -15871.979   -24101.491   -24159.952    645.50639    12332.069   -2090.0169    6754.3634    76.913785 
   45900    437.41632   -118.97721   0.39578348   -118.58143    7202.6609    4.2358353    4.2358353    4.2358353    7202.6609   -11637.274    2611.5179    30633.739   -14949.474    3227.1755    9269.5753    76.000631 
   46000    877.43773   -119.37096    0.7939241   -118.57703   -11616.332    4.2505084    4.2505084    4.2505084   -11616.332   -30716.007   -15662.149     11529.16   -10496.347    10144.584    2680.7235    76.793178 
   46100    965.00256   -119.44802   0.87315459   -118.57486    234.47824    4.2405826    4.2405826    4.2405826    234.47824   -17770.411   -5353.4209    23827.266    14567.008    3230.0653   -6002.3471    76.256448 
   46200    455.29803   -118.99425   0.41196323   -118.58229    8595.0953    4.2434299    4.2434299    4.2434299    8595.0953   -13666.297   -10098.972    49550.555    3005.4799    1227.7376     9093.407     76.41016 
   46300    604.55022   -119.12341   0.54700975    -118.5764   -12473.368    4.2555717    4.2555717    4.2555717   -12473.368   -32717.081   -15738.868    11035.843    -15557.15    6110.5387    7133.6248    77.067939 
   46400    999.43211   -119.47054   0.90430717   -118.56624    14401.923    4.2338833    4.2338833    4.2338833    14401.923    6956.5723    23263.533    12985.665   -343.31825    1837.7741   -1284.1101    75.895611 
   46500    693.43834    -119.2037   0.62743759   -118.57626   -1925.0397    4.2526978    4.2526978    4.2526978   -1925.0397    -4601.996   -4038.2872    2865.1641    18325.816    3113.5323   -306.58244    76.911906 
   46600    425.69521   -118.95934   0.38517797   -118.57416    1234.6131    4.2540235    4.2540235    4.2540235    1234.6131   -12348.572    3810.1762    12242.235    1380.9452   -3373.1817    2999.7587    76.983855 
   46700    886.76272   -119.36664   0.80236155   -118.56428    8554.5821    4.2393741    4.2393741    4.2393741    8554.5821    7136.5738    1128.4749    17398.697   -16903.076   -6605.4549    15424.775    76.191272 
   46800     870.7476   -119.35288   0.78787073   -118.56501   -1905.3193     4.251698     4.251698     4.251698   -1905.3193   -8343.6129   -3788.6588     6416.314    7308.2296    6511.7772   -7046.0317    76.857672 
   46900    531.39586   -119.05138   0.48081815   -118.57056     8879.881    4.2485678    4.2485678    4.2485678     8879.881   -4583.6506    385.52807    30837.766     20710.24    1782.5224   -3875.1737    76.688043 
   47000    531.84264   -119.05255    0.4812224   -118.57133    411.49042    4.2464789    4.2464789    4.2464789    411.49042    4643.1093    -24536.82    21128.182   -2966.1728    3255.4665    17236.407    76.574982 
   47100    860.90426    -119.3482   0.77896426   -118.56924    1153.8299    4.2381742    4.2381742    4.2381742    1153.8299    13614.525   -8328.9336   -1824.1015   -14037.967    459.32191    8978.0635    76.126595 
   47200    778.62034   -119.27904   0.70451204   -118.57453    -14312.74    4.2531774    4.2531774    4.2531774    -14312.74   -25360.594   -21680.059    4102.4319      23734.5   -3449.4393   -6994.3979    76.937929 
   47300    547.42201   -119.07236   0.49531894   -118.57704   -12839.135    4.2489282    4.2489282    4.2489282   -12839.135   -22409.178   -27559.978    11451.752    23122.473     3477.406    -1822.538    76.707559 
   47400    724.41362   -119.22721   0.65546466   -118.57175    10991.428    4.2311893    4.2311893    4.2311893    10991.428    14237.305    8986.6154    9750.3649   -12148.971   -3258.0801    18867.489    75.750826 
   47500     828.9573   -119.32192   0.75005799   -118.57186   -14327.054    4.2568129    4.2568129    4.2568129   -14327.054   -15658.584   -19931.704   -7390.8736   -438.66559   -4299.6462    10160.348    77.135391 
   47600    757.53781   -119.25871   0.68543613   -118.57327    6853.8405    4.2421114    4.2421114    4.2421114    6853.8405   -303.04588   -15.043975    20879.611    23396.323    692.67023   -12023.286    76.338956 
   47700    555.87875   -119.07819   0.50297078   -118.57522    14677.475    4.2385385    4.2385385    4.2385385    14677.475    21441.236    3804.9902    18786.198    12047.428   -2465.7842     5398.241     76.14623 
   47800    663.00517   -119.17074   0.59990101   -118.57084   -2900.8262    4.2543043    4.2543043    4.2543043   -2900.8262    7375.5319   -17374.343     1296.333   -11398.168    6087.1444    21536.619    76.999101 
   47900    820.02992   -119.30909   0.74198031   -118.56711    3571.9113    4.2464739    4.2464739    4.2464739    3571.9113   -847.40466    2781.3505    8781.7881    5539.8668   -2682.2935    2980.0517    76.574714 
   48000    549.39797   -119.06784   0.49710683   -118.57073   -6159.4675    4.2464721    4.2464721    4.2464721   -6159.4675    -33255.22    2192.4019    12584.416     27465.65   -14336.512   -4658.2228    76.574614 
   48100    625.71132   -119.13756   0.56615675    -118.5714    977.34632     4.241348     4.241348     4.241348    977.34632   -13065.357   -2783.8569    18781.253    5950.4613    2897.8893    9754.8479    76.297748 
   48200    951.58051   -119.43063   0.86101004   -118.56962   -13761.508    4.2517437    4.2517437    4.2517437   -13761.508   -10038.205   -12144.996   -19101.324   -11241.835   -2005.2211    10171.687    76.860152 
   48300    752.24727   -119.25472   0.68064914   -118.57407    1170.7833    4.2410545    4.2410545    4.2410545    1170.7833   -8354.0134    13083.286   -1216.9225    17919.405    -10438.41   -3563.8107    76.281908 
   48400    507.79905   -119.03903   0.45946725   -118.57956    5874.0234    4.2419776    4.2419776    4.2419776    5874.0234    -10164.63    12295.265    15491.435    26647.406   -9546.7725   -4590.4722    76.331734 
   48500    686.86509   -119.19466   0.62148996   -118.57317   -9618.9915    4.2560995    4.2560995    4.2560995   -9618.9915   -11225.288   -9337.2989   -8294.3873   -3584.0109   -3152.1444    9172.0298    77.096614 
   48600    977.37301   -119.45184   0.88434764   -118.56749    13202.381    4.2343547    4.2343547    4.2343547    13202.381    19345.934    4721.9832    15539.227   -9086.9926    4534.9473    11980.748    75.920962 
   48700    644.16313   -119.16026   0.58285234    -118.5774    643.65534    4.2453147    4.2453147    4.2453147    643.65534   -4508.3365   -9662.6621    16101.965    22211.796   -6880.1083   -728.89316    76.512019 
   48800    463.96299   -118.99692   0.41980346   -118.57712   -918.73977    4.2499315    4.2499315    4.2499315   -918.73977   -10026.246   -5796.9952    13067.022    24925.827   -8602.4785   -1458.7223    76.761915 
   48900    785.94745   -119.28414   0.71114177     -118.573    1020.4826     4.243176     4.243176     4.243176    1020.4826      15403.5   -8145.1169   -4196.9354   -5854.8819    2292.1007    12063.273    76.396443 
   49000    918.12248   -119.40207   0.83073652   -118.57133    -5754.785     4.243999     4.243999     4.243999    -5754.785    9228.6221   -17280.358   -9212.6193    -1651.548   -2778.3196    14390.336    76.440904 
   49100    601.52828     -119.121   0.54427543   -118.57673    1097.9653    4.2432627    4.2432627    4.2432627    1097.9653   -11784.686    5976.4221    9102.1592    27919.475    529.25136   -6687.3536    76.401127 
   49200    502.48108   -119.03321   0.45465544   -118.57856   -7714.8552    4.2479401    4.2479401    4.2479401   -7714.8552   -15554.033    2127.8099   -9718.3429    20160.526   -6204.8059    1621.5031    76.654059 
   49300    777.25167    -119.2777   0.70327365   -118.57443    9308.2071     4.238361     4.238361     4.238361    9308.2071    14495.071    15678.643   -2249.0932   -10529.797   -7639.6695    12650.313    76.136661 
   49400    836.23469   -119.33264   0.75664272     -118.576   -1712.8838    4.2474703    4.2474703    4.2474703   -1712.8838   -10780.282    1912.4269    3729.2039    1809.9887    5773.1328    5619.2641    76.628631 
   49500    476.53661   -119.00934   0.43118034   -118.57816    3145.7238    4.2477023    4.2477023    4.2477023    3145.7238   -18919.296    7797.5285    20558.939    21955.872   -988.13415   -1781.8725    76.641183 
   49600    584.50784   -119.10372   0.52887498   -118.57484    9122.9495    4.2401706    4.2401706    4.2401706    9122.9495   -5932.2563     21894.96    11406.145    8584.4948   -6128.5101   -9346.9686    76.234228 
   49700    957.99898   -119.43633   0.86681761   -118.56951   -13636.658    4.2524321    4.2524321    4.2524321   -13636.658   -11688.522   -8624.1643   -20597.289   -8095.1062   -1888.8414    6165.7085    76.897492 
   49800    750.02093    -119.2491    0.6786347   -118.57046   -4915.4596     4.245644     4.245644     4.245644   -4915.4596   -16685.532     469.3238    1469.8299     2260.379    1527.7107    14410.179    76.529824 
   49900    378.54781   -118.91702   0.34251801    -118.5745    1483.2109    4.2438571    4.2438571    4.2438571    1483.2109   -31446.432    26916.168    8979.8965    22645.045    6521.8328   -2502.4236     76.43324 
   50000    753.10905   -119.25452   0.68142889   -118.57309   -8094.0776    4.2476888    4.2476888    4.2476888   -8094.0776   -16673.589    4255.5837   -11864.228    6886.1431   -2640.4556   -2385.8365    76.640457 
   50100    1009.5126   -119.48379   0.91342819   -118.57037    7578.0582    4.2376352    4.2376352    4.2376352    7578.0582    8165.0249     9713.675    4855.4747   -7333.5781   -5934.8793   -4423.3126    76.097557 
   50200    626.04087   -119.14498   0.56645493   -118.57853   -9303.8346    4.2486351    4.2486351    4.2486351   -9303.8346   -28501.078    4657.7571    -4068.183    11136.251    7861.8161    1798.2733    76.691689 
   50300    348.47541   -118.89584   0.31530788   -118.58054    687.32811    4.2437303    4.2437303    4.2437303    687.32811   -20445.864    14561.348    7946.5001     18923.61    7792.9118    6329.1138    76.426385 
   50400    811.62667   -119.31156   0.73437687   -118.57718    2514.9736    4.2388024    4.2388024    4.2388024    2514.9736    1475.5424    11230.898   -5161.5197    5569.6889    1009.0289   -16074.105     76.16045 
   50500      1028.44   -119.50424   0.93055416   -118.57368   -7822.7143    4.2493993    4.2493993    4.2493993   -7822.7143   -6975.8462    -3211.802   -13280.495   -8734.7502   -3544.5525   -8121.8904     76.73308 
   50600    615.99008   -119.13351   0.55736077   -118.57615    937.39357    4.2452798    4.2452798    4.2452798    937.39357   -26890.369    33610.116   -3907.5661    13533.002    1845.5496    4930.9954    76.510134 
   50700    398.80295   -118.93801   0.36084529   -118.57717   -490.97093    4.2461454    4.2461454    4.2461454   -490.97093   -22096.802     21258.24   -634.35085    18463.218    9710.8819   -2745.5678    76.556942 
   50800    823.43159   -119.31784   0.74505821   -118.57278      2374.72    4.2436947    4.2436947    4.2436947      2374.72    9789.9682    3699.5976   -6365.4059   -4853.0551   -3065.0163   -5154.7692    76.424461 
   50900    939.35384   -119.42015   0.84994709   -118.57021    2172.1896    4.2444614    4.2444614    4.2444614    2172.1896     11832.47    4912.8414   -10228.742   -2873.9383   -8092.9759   -3903.8925    76.465895 
   51000    483.99239   -119.01458   0.43792649   -118.57665    -3196.282    4.2474984    4.2474984    4.2474984    -3196.282   -1545.6534    3755.7187   -11798.911    22971.306   -36.171335    3937.0871    76.630151 
   51100    482.83903   -119.01581    0.4368829   -118.57893    11022.286    4.2373409    4.2373409    4.2373409    11022.286    11542.429    8497.8141    13026.614    20475.238    8823.4994    3497.1697      76.0817 
   51200     931.8399   -119.41947   0.84314832   -118.57632   -5234.8081    4.2476493    4.2476493    4.2476493   -5234.8081    6093.0318   -9464.7833   -12332.673   -2851.1796    7216.1689   -13302.816    76.638315 
   51300    835.99638   -119.33122   0.75642709    -118.5748   -3925.4534    4.2458264    4.2458264    4.2458264   -3925.4534    6370.4513   -5196.1769   -12950.635   -5000.3273   -10460.264   -4752.6177    76.539691 
   51400    356.93929    -118.9031   0.32296617   -118.58014    5519.7821    4.2389104    4.2389104    4.2389104    5519.7821   -21120.185     27649.48    10030.051    20029.219   -6993.8311    7001.9652    76.166273 
   51500    606.00224   -119.12824   0.54832356   -118.57992   -8770.9626    4.2484592    4.2484592    4.2484592   -8770.9626   -29351.167    12570.264   -9531.9849    16502.158    13423.181   -1877.4732    76.682162 
   51600    1164.4744   -119.62484    1.0536409    -118.5712   -6199.8646    4.2451333    4.2451333    4.2451333   -6199.8646     153.2246   -3434.9608   -15317.858   -7047.5475   -611.38386    1783.3663    76.502213 
   51700    683.62592    -119.1949    0.6185591   -118.57634   -573.43098    4.2451467    4.2451467    4.2451467   -573.43098    -21853.13    17330.378    2802.4594   -853.34622   -18714.825   -2268.9915    76.502936 
   51800    300.74965   -118.85127    0.2721246   -118.57914    4038.5338    4.2501067    4.2501067    4.2501067    4038.5338   -4287.4702    5041.0923    11361.979    20045.312   -8121.7786    215.26541    76.771409 
   51900    916.18737    -119.3991   0.82898559   -118.57012   -9965.7113    4.2527878    4.2527878    4.2527878   -9965.7113   -2229.9249   -16177.072   -11490.137    11869.796    8176.9434    8428.5721    76.916788 
   52000    1159.0268   -119.61149    1.0487118   -118.56277   -5789.7555     4.243435     4.243435     4.243435   -5789.7555   -2870.0882   -2904.9506   -11594.228   -10463.777    134.11821   -3330.3418    76.410431 
   52100     316.9974   -118.86191   0.28682591   -118.57508    4577.6775    4.2479516    4.2479516    4.2479516    4577.6775   -6374.3997    13455.753    6651.6792    10650.677   -20562.321    4723.8565    76.654683 
   52200    422.19338   -118.95869   0.38200945   -118.57668    1874.3574    4.2520017    4.2520017    4.2520017    1874.3574   -20886.895    20606.561    5903.4063    25022.933   -11800.151    258.60002    76.874145 
   52300    1158.2767   -119.61521    1.0480331   -118.56717   -181.22691    4.2457089    4.2457089    4.2457089   -181.22691    740.43888    5882.6506   -7166.7702     2108.702    3488.0669   -581.51988    76.533336 
   52400    957.52102   -119.43803   0.86638514   -118.57165    2840.6454    4.2389886    4.2389886    4.2389886    2840.6454   -7416.5815    28637.125   -12698.607   -5616.7827    -6831.168    1429.6509    76.170492 
   52500      196.523   -118.76359   0.17781814   -118.58577   -2872.1935    4.2500382    4.2500382    4.2500382   -2872.1935   -44330.057    37769.198   -2055.7217    17014.479    -14574.42   -3432.8218    76.767695 
   52600    545.64081   -119.07618   0.49370727   -118.58247    -4970.835    4.2476039    4.2476039    4.2476039    -4970.835    -24150.04   -2410.6733    11648.209    14843.583   -4952.9162    4100.7529    76.635862 
   52700     1124.594   -119.58989    1.0175563   -118.57233    6125.9881    4.2351694    4.2351694    4.2351694    6125.9881    8035.8938    10073.141     268.9294   -7087.0579    11042.014   -135.05916    75.964793 
   52800    795.23984    -119.2974   0.71954972   -118.57785   -10260.511     4.249725     4.249725     4.249725   -10260.511   -818.76312   -777.24714   -29185.524   -721.76842    5137.7643   -2353.1823    76.750725 
   52900    319.27512   -118.87205   0.28888684   -118.58316    6134.9886     4.244503     4.244503     4.244503    6134.9886   -673.51892    17362.952     1715.533     24859.37    -14372.91     4874.257    76.468139 
   53000    721.12967   -119.23218   0.65249328   -118.57969    4735.9632    4.2396907    4.2396907    4.2396907    4735.9632   -17679.289    24964.684    6922.4943    19880.197   -7950.4173   -1142.6619    76.208346 
   53100    1125.4484   -119.59149    1.0183293   -118.57316   -4046.8079     4.246435     4.246435     4.246435   -4046.8079    2348.3298    2145.7976   -16634.551   -12670.783    9668.5306    -3053.247    76.572608 
   53200    676.17217    -119.1919   0.61181479   -118.58009   -3474.6285    4.2441211    4.2441211    4.2441211   -3474.6285   -17373.625    23623.939   -16674.199    2630.9755    6569.7605   -1373.3026    76.447501 
   53300    223.52664    -118.7878    0.2022516   -118.58555   -1825.3582    4.2435277    4.2435277    4.2435277   -1825.3582   -15645.966    11771.753   -1601.8616    37673.604   -8758.0337   -4420.5974    76.415442 
   53400    698.47012   -119.21577   0.63199044   -118.58378     2469.843    4.2419771    4.2419771    4.2419771     2469.843    12078.525   -15.054509   -4653.9416    16214.696   -11034.854    941.03477    76.331703 
   53500    1119.9903   -119.58914    1.0133907   -118.57575   -4651.4914    4.2454602    4.2454602    4.2454602   -4651.4914   -4697.7429    3923.9966   -13180.728   -17513.741    2784.7789      2467.94    76.519887 
   53600    593.51221   -119.11674   0.53702232   -118.57971   -1788.8235    4.2474093    4.2474093    4.2474093   -1788.8235   -6374.1069    1175.0362   -167.39974    10855.037    4293.2386   -2042.8287    76.625327 
   53700    330.24494   -118.88136   0.29881257   -118.58255    4528.8928    4.2389706    4.2389706    4.2389706    4528.8928   -19477.854    19361.528    13703.005    39399.097   -9824.3859    3140.2302    76.169518 
   53800    801.11388   -119.30513   0.72486468   -118.58027   -996.54459    4.2435065    4.2435065    4.2435065   -996.54459   -8432.4313    12508.327   -7065.5299     9074.087   -9643.1855   -490.70967    76.414294 
   53900    1047.5825   -119.51953   0.94787464   -118.57165   -7882.7489     4.252237     4.252237     4.252237   -7882.7489   -12570.068    6462.7539   -17540.932    -20111.41    4890.4418   -5636.0973    76.886904 
   54000    497.77869   -119.02709   0.45040062   -118.57669    2797.3702    4.2438681    4.2438681    4.2438681    2797.3702    -33795.01    20151.635    22035.485    17470.836   -1367.9881   -1339.3267    76.433833 
   54100    366.23576   -118.91031   0.33137781   -118.57894     5924.408    4.2416906    4.2416906    4.2416906     5924.408   -522.86949   -433.71813    18729.811    35664.545   -11330.126   -2302.0815     76.31624 
   54200    1009.7013   -119.48776   0.91359893   -118.57417   -9289.6243    4.2490788    4.2490788    4.2490788   -9289.6243   -9597.3281    515.25928   -18786.804   -2390.4729   -9853.8758    1112.3038     76.71572 
   54300    988.02876   -119.46585   0.89398918   -118.57186   -4497.9324    4.2436423    4.2436423    4.2436423   -4497.9324   -22224.738    6238.8688    2492.0717   -11925.279    2534.6248     4046.555    76.421631 
   54400    382.34902   -118.92761   0.34595743   -118.58165    6531.9988    4.2424781    4.2424781    4.2424781    6531.9988   -35680.126     21781.81    33494.312     24433.92    4151.3381   -959.66349    76.358755 
   54500    423.03502   -118.96556   0.38277098   -118.58279   -922.27189    4.2508014    4.2508014    4.2508014   -922.27189   -47612.883    30198.442    14647.625    24206.447   -9630.8247    1616.4443    76.809059 
   54600    1094.2421   -119.56396   0.99009324   -118.57387    2413.6504    4.2390626    4.2390626    4.2390626    2413.6504   -15609.405    22777.198    73.158432   -8095.7378   -5941.0461   -3200.7968    76.174479 
   54700    859.34771   -119.35341   0.77755586   -118.57585   -1952.8493    4.2438993    4.2438993    4.2438993   -1952.8493   -30202.435    25263.972   -920.08529    6647.3783    7300.5479   -5729.6316    76.435515 
   54800    380.81165   -118.92348   0.34456638   -118.57891   -9685.3348    4.2507711    4.2507711    4.2507711   -9685.3348   -52670.107    4271.1375    19342.965    33300.894      5832.96    968.02257    76.807414 
   54900    656.52471   -119.16919   0.59403736   -118.57515    1716.4037     4.238962     4.238962     4.238962    1716.4037   -23125.997    6069.4396    22205.768   -1394.3266   -7449.6179   -1867.6286    76.169057 
   55000    952.09149   -119.43176   0.86147239   -118.57029   -14613.899       4.2478       4.2478       4.2478   -14613.899   -23394.494    2083.4352    -22530.64   -14808.173    273.04846   -4306.2777    76.646472 
   55100    705.84369   -119.21203    0.6386622   -118.57336    1501.4159    4.2424208    4.2424208    4.2424208    1501.4159   -8704.9538     12975.92     233.2819    12519.286    14875.766   -1069.1122    76.355657 
   55200    533.90478      -119.06   0.48308826   -118.57692    5453.8599     4.245535     4.245535     4.245535    5453.8599   -16274.127    19126.285    13509.422    20233.037    2918.7137   -88.729537    76.523933 
   55300    745.75649   -119.24954   0.67477614   -118.57477    2257.9488    4.2485674    4.2485674    4.2485674    2257.9488   -24735.311    26225.052    5284.1058   -4464.0202   -13378.391    2733.7534     76.68802 
   55400    916.98017   -119.40093   0.82970293   -118.57123    9351.4048     4.237621     4.237621     4.237621    9351.4048    6123.1688    8404.4999    13526.546   -14457.556    3600.6774   -7584.7665    76.096788 
   55500    538.22696   -119.06455   0.48699907   -118.57755   -6140.5738     4.248218     4.248218     4.248218   -6140.5738   -21148.853    13949.447   -11222.316    9271.6628    22140.483   -5871.2756    76.669103 
   55600    642.47834   -119.15678    0.5813279   -118.57545   -6008.7806    4.2441709    4.2441709    4.2441709   -6008.7806   -19443.471    14206.912   -12789.783    15283.491    6554.4428    2363.0979    76.450193 
   55700    926.72589   -119.41245   0.83852106   -118.57393    -4997.478    4.2434335    4.2434335    4.2434335    -4997.478   -8652.1736   -8889.5719    2549.3115   -2586.0414   -15122.668   -646.30964    76.410354 
   55800    732.78671   -119.23867   0.66304081   -118.57563   -7985.7335    4.2468948    4.2468948    4.2468948   -7985.7335   -20511.309    11649.239    -15095.13   -6709.3444    13087.063   -2500.3468    76.597484 
   55900    392.68395   -118.93321   0.35530869    -118.5779    8841.2938     4.242471     4.242471     4.242471    8841.2938    6828.6007     28727.32   -9032.0394     3874.183    32016.802   -6732.2051    76.358368 
   56000    783.05907   -119.28463    0.7085283   -118.57611   -8003.8015    4.2481259    4.2481259    4.2481259   -8003.8015   -12385.542   -3204.7714   -8421.0915    13033.532   -3608.1616   -1928.0033    76.664115 
   56100    1022.9811    -119.4977   0.92561477   -118.57209    7294.8182    4.2362173    4.2362173    4.2362173    7294.8182   -9289.7373    17621.805    13552.387    270.15744   -17192.045    6629.3944    76.021192 
   56200    494.48911   -119.02868   0.44742414   -118.58126   -5218.7447    4.2499217    4.2499217    4.2499217   -5218.7447   -33578.409    7143.5713    10778.603   -3240.9963    26544.561   -6584.0251    76.761381 
   56300    395.75439    -118.9412   0.35808689   -118.58311   -5737.6304    4.2454353    4.2454353    4.2454353   -5737.6304   -16847.904   -5534.6948    5169.7076   -1387.9461    28881.504   -12596.505    76.518539 
   56400    913.87888   -119.40193   0.82689681   -118.57504    9608.4902    4.2325178    4.2325178    4.2325178    9608.4902    18109.683   -4563.4016    15279.189    4567.2383   -7369.7274     1360.914      75.8222 
   56500     900.2997   -119.39003   0.81461008   -118.57542   -19126.869    4.2549841    4.2549841    4.2549841   -19126.869   -23202.671   -20743.273   -13434.663    5723.5875    2197.4638    11359.819     77.03602 
   56600    475.37134   -119.01044   0.43012597   -118.58031    7723.3828    4.2382905    4.2382905    4.2382905    7723.3828   -8991.8848    18509.963     13652.07   -2996.9467    32911.249   -1414.5765    76.132865 
   56700    663.47419    -119.1793   0.60032539   -118.57897    3986.9258    4.2386112    4.2386112    4.2386112    3986.9258   -12680.515    1126.4275    23514.865   -2596.6375    16827.878   -12479.166    76.150148 
   56800    909.36762   -119.39678   0.82281493   -118.57396   -5921.8453     4.249439     4.249439     4.249439   -5921.8453   -2166.4308   -37771.052    22171.947    957.94434   -11685.052    5037.9578    76.735232 
   56900    657.09449   -119.17279    0.5945529   -118.57824    6398.4635    4.2390435    4.2390435    4.2390435    6398.4635     13678.87   -8249.9955    13766.516    2990.6577    8433.0052    20529.407    76.173447 
   57000     445.5796   -118.98581   0.40316978   -118.58264   -4258.9049    4.2428105    4.2428105    4.2428105   -4258.9049   -23049.074     13347.79    -3075.431    2888.1194    32455.537    5156.5997    76.376704 
   57100    843.80603   -119.34176   0.76349343   -118.57827    40.526694    4.2401476    4.2401476    4.2401476    40.526694   -20682.888     9295.809    11508.659   -2492.3939    6373.0973   -4613.3641    76.232983 
   57200    937.14663   -119.42471   0.84794997   -118.57676   -15201.011    4.2496507    4.2496507    4.2496507   -15201.011   -9392.6714   -23993.186   -12217.174    -1801.358   -17802.062    6173.4943    76.746697 
   57300    534.86283   -119.06646   0.48395513   -118.58251    3756.9407    4.2377067    4.2377067    4.2377067    3756.9407    11109.326    2802.3255   -2640.8294   -1820.5609    13012.125     17980.67    76.101404 
   57400    465.64605    -119.0067   0.42132633   -118.58537    4804.9567    4.2399217    4.2399217    4.2399217    4804.9567   -4180.5794    11703.013     6892.436    3707.6441    38377.895    8643.1736    76.220803 
   57500    899.40614   -119.39132   0.81380158   -118.57751   -15859.884    4.2512556    4.2512556    4.2512556   -15859.884   -26549.809   -10713.038   -10316.805    6796.7804    2981.6257   -7100.8729    76.833683 
   57600    960.45789   -119.44323   0.86904248   -118.57419    4716.6708    4.2370607    4.2370607    4.2370607    4716.6708    6263.4753    -2965.554    10852.091   -4159.1069   -19713.407    6234.9675    76.066609 
   57700    486.83821   -119.02328   0.44050144   -118.58277   -7672.9531    4.2449007    4.2449007    4.2449007   -7672.9531    8121.0454   -4439.0073   -26700.897   -5797.1835    17453.495    17943.403    76.489638 
   57800    443.22092   -118.98578    0.4010356   -118.58475    3268.6042    4.2403806    4.2403806    4.2403806    3268.6042    11304.572    2084.2236   -3582.9827    6862.7371     29752.08    2979.7036    76.245553 
   57900     792.8115   -119.29721   0.71735251   -118.57986   -7196.9319    4.2474866    4.2474866    4.2474866   -7196.9319   -13304.366   -16864.079    8577.6493    15720.601    2782.8151   -6233.5546     76.62951 
   58000    958.05887    -119.4426    0.8668718   -118.57573   -4296.6321    4.2419511    4.2419511    4.2419511   -4296.6321   -1931.2324   -6743.9809   -4214.6828    4547.8923   -7128.4605    207.67766      76.3303 
   58100    632.16536   -119.15297    0.5719965   -118.58097    12909.971    4.2366332    4.2366332    4.2366332    12909.971    12726.955    26122.969   -120.01126   -9034.3148    10109.848     13548.26    76.043586 
   58200    430.03115   -118.96936   0.38910122   -118.58026   -6164.9336    4.2548315    4.2548315    4.2548315   -6164.9336   -6469.6875    6238.6861     -18263.8    7439.8998    16794.492    5781.4102    77.027727 
   58300    722.62039   -119.22889   0.65384211   -118.57504    6665.8857    4.2404521    4.2404521    4.2404521    6665.8857    11114.315    2965.2997    5918.0425     22672.39   -3110.7752   -10333.818    76.249411 
   58400    986.99921   -119.46461   0.89305762   -118.57155    5404.8616    4.2389408    4.2389408    4.2389408    5404.8616    2198.4184    10203.359    3812.8078    3383.8881   -6563.9202    2626.2546    76.167912 
   58500    691.13907   -119.20057   0.62535716   -118.57522   -6262.1524    4.2523018    4.2523018    4.2523018   -6262.1524    716.91361   -5189.8046   -14313.566   -11665.732     17897.37    11432.931    76.890423 
   58600     422.2204   -118.95947   0.38203389   -118.57744    5733.2282    4.2403592    4.2403592    4.2403592    5733.2282    5279.8763    3838.4986    8081.3098     6392.356    18673.306    5054.2003    76.244396 
   58700    750.42691   -119.25529   0.67900204   -118.57629    3562.0879    4.2389871    4.2389871    4.2389871    3562.0879     1152.636    -2968.653    12502.281    17575.548     -4218.43   -1018.9252    76.170409 
   58800    951.96027   -119.43572   0.86135366   -118.57437   -4880.6632    4.2490233    4.2490233    4.2490233   -4880.6632   -10931.427   -13555.124    9844.5608    5862.9573   -5786.8481   -3284.0866    76.712713 
   58900    618.71895   -119.13729   0.55982991   -118.57746   -617.45746    4.2448358    4.2448358    4.2448358   -617.45746   -15584.098    3735.4349    9996.2909   -8366.1486    12709.081    7775.8531    76.486128 
   59000    509.48172   -119.03822   0.46098977   -118.57723   -677.81372    4.2400517    4.2400517    4.2400517   -677.81372    285.53029   -5925.5981    3606.6266    4828.2093    17133.439    9900.9309    76.227813 
   59100    878.95548   -119.36896   0.79529739   -118.57367   -9503.5574    4.2454659    4.2454659    4.2454659   -9503.5574   -5996.1227   -28689.131    6174.5821    18769.527   -2197.6172   -4691.4993    76.520197 
   59200    837.14999   -119.33091    0.7574709   -118.57344   -10229.388     4.249594     4.249594     4.249594   -10229.388   -13749.463   -5867.2736   -11071.428     771.0626   -11542.668   -1569.0719    76.743627 
   59300    561.36723   -119.08244   0.50793687    -118.5745    1911.2725    4.2411658    4.2411658    4.2411658    1911.2725   -3218.5614    7202.4866    1749.8924    -5306.755     10531.92    2839.0025    76.287916 
   59400    586.66919   -119.10646   0.53083061   -118.57563   -1033.2191    4.2450536    4.2450536    4.2450536   -1033.2191   -7764.4862   -20200.933    24865.762     7430.593    12716.333    3207.2181    76.497901 
   59500     911.2202   -119.39643   0.82449118   -118.57193   -7913.6916    4.2475188    4.2475188    4.2475188   -7913.6916   -8411.0685   -22696.878    7366.8719    7055.2885     1737.479   -5362.7939    76.631252 
   59600    727.37545   -119.23222   0.65814459   -118.57407    6965.5215    4.2379663    4.2379663    4.2379663    6965.5215   -2510.5997    10653.096    12754.068    1262.6765   -5774.7887    -13171.77    76.115394 
   59700    530.82127   -119.05879   0.48029824   -118.57849   -6707.2567    4.2463845    4.2463845    4.2463845   -6707.2567   -36925.635    4800.0202    12003.845   -3550.0993    3141.0106    1851.2501    76.569877 
   59800    726.93258   -119.23345   0.65774388   -118.57571   -1816.1821    4.2434912    4.2434912    4.2434912   -1816.1821    -17898.11     1625.411    10824.152   -1373.5941    12015.688    9100.6779    76.413471 
   59900    854.16931   -119.34654   0.77287035   -118.57367   -4146.6765    4.2456266    4.2456266    4.2456266   -4146.6765    14123.983   -17891.599   -8672.4137    4503.5474    2253.9283   -16027.506    76.528887 
   60000    702.90474   -119.21027   0.63600298   -118.57426   -3332.5401    4.2444362    4.2444362    4.2444362   -3332.5401    1911.6784   -6286.5679   -5622.7308   -1257.1485   -15781.888   -10659.342    76.464529 
   60100    541.73029   -119.06523   0.49016895   -118.57506    4932.8344    4.2390323    4.2390323    4.2390323    4932.8344   -22683.202    19609.374    17872.331   -2091.6749   -10470.205    8742.2342    76.172846 
   60200    649.83676   -119.16297   0.58798596   -118.57499   -12488.546    4.2515489    4.2515489    4.2515489   -12488.546   -32947.485   -6987.9521     2469.798    1505.9864    9756.5547   -2825.4592    76.849588 
   60300    860.25288   -119.35022   0.77837488   -118.57185    3643.6879    4.2407251    4.2407251    4.2407251    3643.6879    923.12943   -663.92839    10671.863    1235.5137    6921.8356   -14464.296    76.264137 
   60400    817.39575   -119.31218   0.73959686   -118.57258   -783.56432    4.2412452    4.2412452    4.2412452   -783.56432   -5256.7045   -66.995249    2973.0068   -440.52273   -12800.996   -9208.8439    76.292202 
   60500    529.22382   -119.05587   0.47885284   -118.57701    427.99803    4.2463759    4.2463759    4.2463759    427.99803   -30005.169    3171.9582    28117.205    332.14507   -5864.1809    4920.1051    76.569409 
   60600    598.61469   -119.11997   0.54163915   -118.57833    2399.3789    4.2422029    4.2422029    4.2422029    2399.3789   -26619.111    22312.444    11504.803    1256.2865     11151.11    1961.0836    76.343897 
   60700    858.34695   -119.35122   0.77665036   -118.57457   -3685.4864    4.2435873    4.2435873    4.2435873   -3685.4864   -9834.7007    2467.5555   -3689.3139    1139.6909    12410.187   -15572.698    76.418659 
   60800    921.42134    -119.4064   0.83372139   -118.57267   -3555.0486    4.2433383    4.2433383    4.2433383   -3555.0486   -7801.9952   -17688.766    14825.615   -2044.2827   -9004.7379   -6689.9452    76.405211 
   60900    511.12677   -119.04375   0.46247825   -118.58127    -1599.692    4.2435251    4.2435251    4.2435251    -1599.692   -26199.379     11655.73    9744.5734   -1495.2507   -5828.6828    9685.2607    76.415302 
   61000    468.51487   -119.00677    0.4239221   -118.58285    7172.0826    4.2406792    4.2406792    4.2406792    7172.0826   -25358.943    28583.251     18291.94    1535.1988    15279.775    761.59379    76.261663 
   61100    927.86011   -119.41623   0.83954733   -118.57668   -6054.2747    4.2469026    4.2469026    4.2469026   -6054.2747   -19550.475   -15990.766    17378.417   -797.05438    9543.7976   -2950.6993    76.597905 
   61200    955.68963   -119.43987   0.86472807   -118.57514   -1438.9713    4.2401247    4.2401247    4.2401247   -1438.9713    -5336.577   -19689.071    20708.734   -3021.0307   -3932.5826    1303.5784    76.231748 
   61300    560.85202   -119.09039   0.50747069   -118.58292    6906.2918    4.2388748    4.2388748    4.2388748    6906.2918    -15123.31    9055.2158     26786.97   -1977.1387   -5025.7768    3659.3361    76.164355 
   61400     493.0783    -119.0265   0.44614761   -118.58035   -11424.011    4.2511008    4.2511008    4.2511008   -11424.011   -42189.397   -97.664327    8015.0276      911.178    7572.6418    6200.4448    76.825288 
   61500    747.37562   -119.25145   0.67624117   -118.57521    863.93139    4.2360451    4.2360451    4.2360451    863.93139   -8524.5436   -7936.4369    19052.775   -532.17256    6610.6238   -2420.4976    76.011925 
   61600    818.99831   -119.31711   0.74104688   -118.57607   -6597.2009    4.2423882    4.2423882    4.2423882   -6597.2009    2227.3067   -26969.642     4950.733   -5312.1084   -2198.5927   -12079.388    76.353901 
   61700    835.87422   -119.33248   0.75631656   -118.57617    -8642.174    4.2453711    4.2453711    4.2453711    -8642.174   -18785.603   -7451.5361    310.61771   -557.01857   -1931.7118   -18.733262     76.51507 
   61800    580.19793    -119.1023   0.52497528   -118.57733     2044.339    4.2406126    4.2406126    4.2406126     2044.339   -30988.907    18032.125    19089.799    760.38169    -1093.943    3481.5234    76.258066 
   61900    528.09191   -119.05522   0.47782866   -118.57739   -4173.4804    4.2467567    4.2467567    4.2467567   -4173.4804   -18052.996   -10501.777    16034.332   -86.034884    5457.0097   -6911.9463    76.590014 
   62000    929.16711   -119.41279   0.84072993   -118.57206   -538.75447    4.2433559    4.2433559    4.2433559   -538.75447    10229.257   -20787.454    8941.9333   -911.61675    375.63569     -11662.5    76.406159 
   62100    954.36951   -119.43476   0.86353359   -118.57123   -2406.2027    4.2456831    4.2456831    4.2456831   -2406.2027   -14003.998    -730.5672    7515.9568   -2171.4821   -3465.6281   -5946.7465    76.531939 
   62200    311.98817   -118.86142   0.28229345   -118.57912    5365.9309    4.2443679    4.2443679    4.2443679    5365.9309   -16801.981    9501.5208    23398.253    4414.7083    2721.0421    3453.3271    76.460839 
   62300    404.30287    -118.9478   0.36582174   -118.58198    825.95387     4.244968     4.244968     4.244968    825.95387   -12431.154   -3383.3601    18292.376    7552.5042    1077.7765    1371.8124    76.493274 
   62400    1229.5163   -119.68402    1.1124921   -118.57153   -5622.9511    4.2443605    4.2443605    4.2443605   -5622.9511   -12461.574   -13744.045    9336.7657    1638.8569   -269.54629   -6171.0078    76.460443 
   62500    960.59125   -119.44555   0.86916315   -118.57639   -2522.3875     4.241614     4.241614     4.241614   -2522.3875   -20010.581   -3517.4719    15960.891   -3385.0025    597.66756   -920.73151    76.312104 
   62600    169.23132   -118.73834   0.15312406   -118.58522   -613.22736    4.2471477    4.2471477    4.2471477   -613.22736   -44187.088    19612.059    22735.347    3045.3914    3257.8741   -169.86716     76.61117 
   62700    600.61205   -119.12447    0.5434464   -118.58102    156.35784    4.2451546    4.2451546    4.2451546    156.35784   -35240.148     14168.91    21540.312    7891.5836   -4971.2785   -3277.3363    76.503363 
   62800    1223.6145   -119.67745    1.1071521    -118.5703   -1264.1358    4.2422431    4.2422431    4.2422431   -1264.1358   -7235.3269   -6126.4905      9569.41   -1883.4207   -2660.2026   -2618.3246    76.346067 
   62900    686.04284   -119.19816   0.62074598   -118.57741    2247.6248    4.2442352    4.2442352    4.2442352    2247.6248   -10175.229   -3580.0993    20498.203   -8959.3138    7069.8215   -4149.2999     76.45367 
   63000      295.752    -118.8485   0.26760262   -118.58089    2839.5766    4.2460084    4.2460084    4.2460084    2839.5766   -21761.316     12755.31    17524.736    -1274.425     5037.527   -1288.9887    76.549531 
   63100    776.82055   -119.27821   0.70288355   -118.57533    967.46633    4.2434936    4.2434936    4.2434936    967.46633   -17846.608    16880.045    3868.9619    2075.0441   -1400.6208   -1215.8723    76.413599 
   63200    984.72633    -119.4626   0.89100108    -118.5716   -5001.3641    4.2452672    4.2452672    4.2452672   -5001.3641    -2816.617   -16151.014    3963.5388   -7687.6457   -5680.4523    4606.1432    76.509452 
   63300    588.83623   -119.10648    0.5327914   -118.57369   -8059.6705    4.2486497    4.2486497    4.2486497   -8059.6705   -8790.6988   -20399.989     5011.676    -10052.03    11424.631    8806.7098    76.692476 
   63400    621.12218   -119.13429    0.5620044   -118.57229     5497.768    4.2403611    4.2403611    4.2403611     5497.768    -17999.16    20253.587    14238.878    954.65784    9927.3554   -5053.5075    76.244503 
   63500     882.0988   -119.36943   0.79814153   -118.57129   -4292.2209    4.2462857    4.2462857    4.2462857   -4292.2209   -24094.415    2627.8092    8589.9431    4147.1248   -4375.9114     -865.676     76.56453 
   63600    661.02119   -119.17136   0.59810586   -118.57325   -1154.3092    4.2464819    4.2464819    4.2464819   -1154.3092    5678.4159   -13450.409    4309.0659   -12721.228   -4683.3757    10921.932    76.575147 
   63700    579.86804   -119.09842   0.52467679   -118.57374    2894.4431    4.2389673    4.2389673    4.2389673    2894.4431    5791.9011   -6252.6079    9144.0361   -10816.435    6654.2357    6347.2698    76.169342 
   63800    754.24776   -119.25794   0.68245922   -118.57548   -4371.4217    4.2423963    4.2423963    4.2423963   -4371.4217   -24445.744    6978.7828    4352.6963    5407.4241    17998.508    -788.5902    76.354337 
   63900    718.90444   -119.22846   0.65047985   -118.57798    2637.5693    4.2438058    4.2438058    4.2438058    2637.5693   -17675.353     12849.13    12738.931     1883.113    1688.4336   -3822.4637    76.430467 
   64000    675.70166   -119.18896   0.61138906   -118.57757   -3383.7781    4.2452121    4.2452121    4.2452121   -3383.7781   -1519.1348   -18103.835    9471.6359   -9504.4451   -13858.594    5972.3664    76.506472 
   64100    713.93991   -119.22092   0.64598784   -118.57493    6008.8922    4.2378608    4.2378608    4.2378608    6008.8922    7634.1591   -11129.728    21522.245   -10067.761    8575.2239    10018.157    76.109708 
   64200    652.69546   -119.17018   0.59057256   -118.57961   -4025.2623     4.243785     4.243785     4.243785   -4025.2623    -23494.41    11569.171   -150.54737    1921.3605    29806.295   -3358.9991    76.429344 
   64300    592.25809    -119.1153   0.53588757   -118.57941   -2555.8467    4.2442495    4.2442495    4.2442495   -2555.8467   -24265.932     5699.036    10899.356    3161.2805    7088.2029   -5380.1352    76.454443 
   64400    725.13593   -119.23237   0.65611823   -118.57625    2275.1053    4.2393072    4.2393072    4.2393072    2275.1053   -3409.6703   -8637.1293    18872.115   -10432.783   -22657.673    1969.6539    76.187665 
   64500    746.35527   -119.25223   0.67531793   -118.57691   -3114.1162    4.2445741    4.2445741    4.2445741   -3114.1162   -6721.4883   -6597.9197    3977.0594   -8116.8823    10671.165    2214.3071    76.471986 
   64600    673.16084   -119.18703   0.60909007   -118.57794    -2131.643    4.2446791    4.2446791    4.2446791    -2131.643   -22779.227    5144.6764    11239.621    3057.4464    39605.056    4531.8004    76.477662 
   64700    613.22187   -119.13259   0.55485603   -118.57773   -4286.3101    4.2416857    4.2416857    4.2416857   -4286.3101   -22868.385    4579.5315    5429.9235    2516.1351   -2706.2412   -3205.0955    76.315975 
   64800    689.68021   -119.20022   0.62403715   -118.57618    3191.2266    4.2386699    4.2386699    4.2386699    3191.2266   -2367.6376   -542.06447    12483.382   -4695.6767   -30808.018   -4406.2927    76.153313 
   64900     714.6453   -119.22227   0.64662609   -118.57565   -5929.8607    4.2509224    4.2509224    4.2509224   -5929.8607   -5739.1715   -7508.1425   -4542.2681    -4876.946    11280.772    6047.0923    76.815619 
   65000    753.66121   -119.25457    0.6819285   -118.57264   -5570.0444    4.2464882    4.2464882    4.2464882   -5570.0444   -10816.101   -403.55509   -5490.4773    3744.2434    31653.703    2855.5817    76.575486 
   65100    650.10176    -119.1587   0.58822574   -118.57047    7006.2095    4.2370629    4.2370629    4.2370629    7006.2095   -3750.2253    10498.101    14270.753    2630.0889    -7606.643   -5324.2877    76.066728 
   65200    572.03784   -119.09213   0.51759186   -118.57454    -7082.257     4.250663     4.250663     4.250663    -7082.257   -11274.671   -1733.6433   -8238.4566   -6693.5163   -28623.738   -2984.2564    76.801556 
   65300    806.76301   -119.30539   0.72997613   -118.57542     3799.072    4.2408917    4.2408917    4.2408917     3799.072    2469.2816     14108.36   -5180.4258   -4820.4951    4421.2243     10843.77    76.273124 
   65400     939.8788    -119.4241   0.85042209   -118.57368    5095.4191    4.2387072    4.2387072    4.2387072    5095.4191   -4318.4505    14520.181    5084.5272    336.95716    18411.941    2110.7032    76.155321 
   65500    609.15509   -119.12986   0.55117633   -118.57869   -7209.7964    4.2492605    4.2492605    4.2492605   -7209.7964   -16850.183    3936.5861   -8715.7928    3024.5572   -13614.323   -13880.689    76.725562 
   65600    401.46307   -118.94587   0.36325222   -118.58261    8794.1963    4.2388766    4.2388766    4.2388766    8794.1963   -9993.6709    22427.168    13949.092   -3349.2704   -23513.791   -4241.7942    76.164452 
   65700    847.62109   -119.34589   0.76694537   -118.57894   -8294.7403    4.2445251    4.2445251    4.2445251   -8294.7403    -24644.87    18.240742   -257.59159   -8131.7868   -660.32562     10800.15    76.469337 
   65800    1017.5946   -119.49312   0.92074095   -118.57238   -8373.2415    4.2459559    4.2459559    4.2459559   -8373.2415   -10101.671   -6864.6803   -8153.3734    1280.5761    4242.0701    4622.1955    76.546693 
   65900    490.11218   -119.02396    0.4434638   -118.58049    652.90567    4.2430316    4.2430316    4.2430316    652.90567   -1605.2332    15737.706   -12173.756   -1161.1165   -18549.269   -22344.846    76.388643 
   66000     426.9929   -118.96852   0.38635215   -118.58217    6335.7849    4.2433078    4.2433078    4.2433078    6335.7849   -19753.524    25154.162    13606.716   -1249.8741   -19259.568    -11166.95    76.403561 
   66100    960.43727    -119.4426   0.86902383   -118.57357   -8873.0427    4.2477897    4.2477897    4.2477897   -8873.0427   -21651.969    -5265.366    298.20696    4987.7401    4321.6834    9341.1869    76.645915 
   66200    933.82146   -119.41839   0.84494128   -118.57344   -78.472767    4.2396181    4.2396181    4.2396181   -78.472767    3992.0066    8360.9719   -12588.397    4521.1741    6756.1558   -6366.7642    76.204431 
   66300    352.99822   -118.90369   0.31940021   -118.58429    45.571799    4.2441899    4.2441899    4.2441899    45.571799    14112.169    9458.4222   -23433.876   -1967.3702   -19213.667   -22501.418    76.451221 
   66400    408.85931   -118.95554    0.3699445    -118.5856    288.40294     4.246393     4.246393     4.246393    288.40294    21902.417    6247.8604   -27285.068    1447.8779   -20047.184    -7845.407    76.570339 
   66500    1085.8336   -119.55864   0.98248507   -118.57616    5606.8825    4.2376794    4.2376794    4.2376794    5606.8825    13653.116    5899.6922   -2732.1602    4395.7629    4485.7504    9305.2287    76.099936 
   66600    979.07223   -119.46525   0.88588513   -118.57936   -4663.0188    4.2454448    4.2454448    4.2454448   -4663.0188     18688.18    -12713.24   -19963.996   -671.69827    306.66484   -5403.5872    76.519055 
   66700    378.04753   -118.92859   0.34206535   -118.58652   -1876.0698    4.2438949    4.2438949    4.2438949   -1876.0698    8386.1183    7846.4872   -21860.815   -4709.3867   -26120.987   -19875.486    76.435278 
   66800    406.20543   -118.95351   0.36754321   -118.58597    3086.1743    4.2380731    4.2380731    4.2380731    3086.1743   -8808.3899     23126.73   -5059.8175   -2712.1538   -18423.684    -7616.248    76.121148 
   66900    1023.2802   -119.50393   0.92588546   -118.57805   -7455.3741     4.244597     4.244597     4.244597   -7455.3741   -5226.5537    -5894.231   -11245.338    -2632.776    7534.0228    12928.744    76.473222 
   67000    786.71048   -119.29007   0.71183218   -118.57824   -1489.9541    4.2458711    4.2458711    4.2458711   -1489.9541   -9930.7443    3510.3699    1950.5122    181.47568   -3698.0095    10022.557    76.542108 
   67100    366.16016   -118.91196   0.33130941   -118.58065   -450.21918    4.2444313    4.2444313    4.2444313   -450.21918   -9440.3199    21700.991   -13611.329     -3891.42   -33171.495   -14193.732    76.464265 
   67200    741.14559   -119.24564   0.67060411   -118.57504   -3197.0522    4.2441439    4.2441439    4.2441439   -3197.0522   -1631.0597    7627.8569   -15587.954   -922.02252     -12860.1    -11754.97    76.448735 
   67300    1133.0409   -119.59348    1.0251992   -118.56828   -13957.097    4.2498374    4.2498374    4.2498374   -13957.097   -10976.908   -14112.389   -16781.995    1348.0158    11087.715    10137.642    76.756814 
   67400    522.60244   -119.04719   0.47286167   -118.57432    1933.9528      4.24449      4.24449      4.24449    1933.9528    4687.9475    14957.004   -13843.093    2588.7794   -22559.046    10755.508    76.467436 
   67500    267.04521   -118.81994   0.24162812   -118.57831    13289.866    4.2432212    4.2432212    4.2432212    13289.866    4988.1362    26053.616    8827.8464   -2045.4016   -32196.166   -3876.7976    76.398887 
   67600    973.79332   -119.45272   0.88110866   -118.57161    -6182.997    4.2479098    4.2479098    4.2479098    -6182.997   -4591.5756   -3578.4424   -10378.973   -6198.1674    9148.9824   -12287.036     76.65242 
   67700    998.99711   -119.47402   0.90391358   -118.57011    2830.3841    4.2399114    4.2399114    4.2399114    2830.3841    17912.395   -432.89207   -8988.3508    1249.6982    2826.3408    1312.3584    76.220244 
   67800    386.29332   -118.92929   0.34952632   -118.57976   -15969.339     4.247626     4.247626     4.247626   -15969.339   -11281.569    1727.6532   -38354.101   -306.64604   -40450.157    10039.362    76.637054 
   67900    508.97537   -119.04151   0.46053161   -118.58098    4295.5697    4.2352945    4.2352945    4.2352945    4295.5697    14921.413    4790.2763     -6824.98      482.413    -23552.24       1766.7    75.971527 
   68000    1100.8908   -119.57311   0.99610914     -118.577   -8986.9031    4.2474201    4.2474201    4.2474201   -8986.9031    9715.3653   -29126.924   -7549.1508    2014.7307      10196.6   -6934.7582    76.625913 
   68100    757.96138   -119.26651   0.68581939   -118.58069   -7004.2665    4.2449562    4.2449562    4.2449562   -7004.2665    8264.2488   -3089.1545   -26187.894   -1922.2452   -10704.204   -5408.6189    76.492636 
   68200    204.33327   -118.76934   0.18488503   -118.58445    16161.898      4.23072      4.23072      4.23072    16161.898    32153.555     32790.02   -16457.881    464.92297   -36669.691    6323.5054    75.725624 
   68300    621.45219   -119.14614     0.562303   -118.58384    -17098.44    4.2522308    4.2522308    4.2522308    -17098.44     2971.394   -14699.898   -39566.817   -67.317542   -1932.1529    9501.5825    76.886568 
   68400    1189.8453   -119.65047     1.076597   -118.57387   -143.18611    4.2411542    4.2411542    4.2411542   -143.18611    15394.523   -8831.6217   -6992.4592   -2376.9269    14699.796    1179.7736    76.287292 
   68500    796.84821   -119.29893     0.721005   -118.57793    2620.7087    4.2384176    4.2384176    4.2384176    2620.7087   -3005.9019    16679.488   -5811.4597    367.59158   -28393.942   -4451.8339    76.139711 
   68600    350.26452   -118.89984    0.3169267   -118.58292    1882.2531     4.245048     4.245048     4.245048    1882.2531     16934.85    15610.513   -26898.604    -2073.703   -28268.329    3273.9297      76.4976 
   68700    564.53402   -119.09107   0.51080225   -118.58027    1433.1942    4.2458317    4.2458317    4.2458317    1433.1942    24882.224   -1337.1198   -19245.522   -42.316036    15144.777    11608.961    76.539975 
   68800    905.74225   -119.39498   0.81953462   -118.57545   -1980.8481    4.2401567    4.2401567    4.2401567   -1980.8481   -47.553195   -4590.1609   -1304.8304   -649.10051    18738.403    371.50154    76.233474 
   68900    814.76354   -119.31283   0.73721517   -118.57562    5400.8865    4.2391229    4.2391229    4.2391229    5400.8865    6527.1187    4026.8632    5648.6775   -2970.5357   -20364.986   -10769.038    76.177732 
   69000    688.37404   -119.20076    0.6228553    -118.5779   -8039.8869    4.2482435    4.2482435    4.2482435   -8039.8869    4827.5995   -10838.434   -18108.826     1707.743   -16653.418     5338.432    76.670485 
   69100    549.82516   -119.07767   0.49749336   -118.58018    3704.4353    4.2384528    4.2384528    4.2384528    3704.4353    23909.914    205.40948   -13002.018   -1197.3324     16724.22    20644.034    76.141611 
   69200    585.81495   -119.11191   0.53005768   -118.58186    1862.9866    4.2396362    4.2396362    4.2396362    1862.9866    14100.054    6253.5733   -14764.668   -517.81087     14698.05    -2753.892    76.205402 
   69300    793.66818   -119.29723   0.71812765    -118.5791   -5523.0615    4.2455622    4.2455622    4.2455622   -5523.0615    -8181.393   -1859.3248   -6528.4668    1237.8271   -1942.7994    -19331.57    76.525405 
   69400    833.01046   -119.33008   0.75372537   -118.57635   -1707.6269    4.2447473    4.2447473    4.2447473   -1707.6269    4633.8871   -1400.8272   -8355.9404   -1828.1625   -5219.7885    9594.6968    76.481345 
   69500      539.066   -119.06684   0.48775824   -118.57909   -240.07121    4.2441597    4.2441597    4.2441597   -240.07121      4584.64    16825.841   -22130.695   -356.63734    8775.9548    27827.085    76.449589 
   69600    551.98293   -119.07845   0.49944576     -118.579   -119.36263    4.2435321    4.2435321    4.2435321   -119.36263   -5505.4768    18721.707   -13574.318    2599.3426    10583.462   -5088.3546    76.415679 
   69700    919.57254   -119.40419   0.83204856   -118.57214   -8889.5449    4.2462579    4.2462579    4.2462579   -8889.5449   -4282.9852   -16093.674   -6291.9758   -346.61117   -4847.2358   -24092.214    76.563027 
   69800    796.14597   -119.29238    0.7203696   -118.57201   -118.21581     4.241523     4.241523     4.241523   -118.21581    1772.6891   -14119.761    11992.425     -2147.49    289.63669    9527.4662    76.307193 
   69900    425.46305   -118.96459   0.38496791   -118.57962    1478.8466    4.2448536    4.2448536    4.2448536    1478.8466   -225.55854   -5124.8965    9786.9949   -2110.5789    14866.188    26195.295    76.487092 
   70000    659.25249   -119.17528   0.59650551   -118.57877   -1271.9664    4.2455005    4.2455005    4.2455005   -1271.9664    1607.9258   -583.28209    -4840.543    4807.2314    8275.5979   -1093.8177    76.522068 
   70100    1048.7309   -119.51964   0.94891374   -118.57072    4533.4134    4.2413352    4.2413352    4.2413352    4533.4134    8829.6756   -3301.6241    8072.1887    2956.3164   -5418.7163   -9780.3997    76.297059 
   70200    666.86322   -119.18181   0.60339185   -118.57842   -4334.1032    4.2476075    4.2476075    4.2476075   -4334.1032    23010.884   -23427.494   -12585.699   -4562.1544   -4156.3496     16489.51    76.636055 
   70300    312.55438   -118.86554   0.28280577   -118.58273    6522.9063    4.2418312    4.2418312    4.2418312    6522.9063    18527.312   -6241.6083    7283.0147   -1681.5349    12675.958    18957.101     76.32383 
   70400     795.8672   -119.29722   0.72011737    -118.5771   -8766.7181    4.2475289    4.2475289    4.2475289   -8766.7181   -18717.302   -13841.745    6258.8924    4007.4464    14388.579   -1382.4466      76.6318 
   70500    1027.6322   -119.49825   0.92982325   -118.56843   -11254.206     4.245361     4.245361     4.245361   -11254.206   -6581.8058   -14003.584   -13177.227    1460.4572   -5338.3401   -1735.0403    76.514524 
   70600      559.625   -119.08295   0.50636046   -118.57659    3307.9468    4.2412653    4.2412653    4.2412653    3307.9468    5571.1454     2534.387    1818.3081   -3705.1294   -8539.7062    18607.516    76.293288 
   70700    546.52635   -119.07227   0.49450852   -118.57776   -4664.4969    4.2468512    4.2468512    4.2468512   -4664.4969   -6179.6099   -2712.2359   -5101.6449   -883.36444    8855.0133    15680.364    76.595126 
   70800    922.68284   -119.40647   0.83486283    -118.5716    2632.4511    4.2402472    4.2402472    4.2402472    2632.4511    7756.6557    1796.9919   -1656.2942   -499.90337    12536.604   -11344.319    76.238356 
   70900    755.65913   -119.25983   0.68373626   -118.57609   -2564.0803    4.2447515    4.2447515    4.2447515   -2564.0803    9609.7744    6117.0083   -23419.024    2068.5283   -6170.7631   -7751.6249    76.481575 
   71000    395.96057   -118.94071   0.35827345   -118.58243    2389.8876    4.2439529    4.2439529    4.2439529    2389.8876    2370.2409    27978.577   -23179.156    728.21948   -16124.104    16586.685    76.438416 
   71100    707.78488   -119.22092   0.64041863    -118.5805    1296.6757    4.2414161    4.2414161    4.2414161    1296.6757    -5365.007    10748.207    -1493.173   -980.02269   -2812.7779    20599.217    76.301425 
   71200    1051.9238   -119.52493   0.95180273   -118.57313   -6386.9556     4.245178     4.245178     4.245178   -6386.9556   -11988.308   -2286.1959   -4886.3632    793.32673    6047.7152   -10407.785    76.504629 
   71300    711.40081   -119.22466    0.6436904   -118.58097    -3842.312    4.2422544    4.2422544    4.2422544    -3842.312    10183.368    9386.0708   -31096.375   -1945.6645   -3629.1067   -18466.037    76.346675 
   71400    279.21504   -118.83862   0.25263963   -118.58598     6162.097    4.2398837    4.2398837    4.2398837     6162.097    22772.599    26932.341   -31218.649   -4060.8598   -13073.731    19598.251    76.218753 
   71500    650.61031   -119.17204   0.58868588   -118.58336   -7179.2706     4.247622     4.247622     4.247622   -7179.2706   -3252.3196    9570.6421   -27856.134   -3504.7949   -5350.7545    24301.334    76.636837 
   71600    1088.7487   -119.55871   0.98512272   -118.57358   -2958.6438    4.2428711    4.2428711    4.2428711   -2958.6438   -12209.584    17329.458   -13995.805   -1994.9864     8327.916   -7847.6466    76.379976 
   71700    836.67779   -119.33689   0.75704364   -118.57985    2998.3298    4.2385249    4.2385249    4.2385249    2998.3298    6413.3256    22815.465   -20233.801   -769.37421    4037.4967   -2934.0282    76.145495 
   71800    352.52544   -118.90343   0.31897242   -118.58446    -758.7463    4.2467668    4.2467668    4.2467668    -758.7463    15791.227    16566.793   -34634.258   -1233.3432   -12157.905    26422.292    76.590557 
   71900     554.0646   -119.08198   0.50132929   -118.58065   -4273.1028    4.2434566    4.2434566    4.2434566   -4273.1028    11056.856    4185.9694   -28062.134   -2248.3703   -872.25773    15021.497    76.411599 
   72000    918.84236   -119.40661   0.83138787   -118.57522   -3730.0693     4.240589     4.240589     4.240589   -3730.0693   -5553.7226    13091.144   -18727.629   -3485.4081     21970.38   -12738.984    76.256795 
   72100    836.95001   -119.33381   0.75728996   -118.57652   -7612.9368    4.2446043    4.2446043    4.2446043   -7612.9368   -5261.8699   -1931.6621   -15645.278    350.62823     9997.203    10209.139    76.473614 
   72200    627.75759   -119.14546   0.56800826   -118.57745   -1734.2151    4.2430981    4.2430981    4.2430981   -1734.2151        11224   -964.81201   -15461.833   -3218.6663   -8940.0848     29414.51    76.392233 
   72300    591.58123   -119.11351   0.53527513   -118.57824    3157.1117    4.2407796    4.2407796    4.2407796    3157.1117    11319.394    23525.894   -25373.953   -3019.9544    1840.9389    3837.8303    76.267078 
   72400    635.45255   -119.15375   0.57497082   -118.57878    313.62743    4.2439055    4.2439055    4.2439055    313.62743    6661.4715    22964.521    -28685.11   -2208.7321    19906.333   -12053.692    76.435853 
   72500    731.68872   -119.23918   0.66204733   -118.57713   -398.65969    4.2443783    4.2443783    4.2443783   -398.65969    13590.668   -363.82194   -14422.825    -527.1762    9894.2064     6318.525    76.461402 
   72600    942.66812   -119.42619   0.85294593   -118.57325   -1582.7599    4.2432417    4.2432417    4.2432417   -1582.7599    12628.613   -11562.763   -5814.1296   -194.11866   -7120.2151    16757.623     76.39999 
   72700    685.30905   -119.19775   0.62008203   -118.57767    1375.6661    4.2434694    4.2434694    4.2434694    1375.6661    15073.306    12822.964   -23769.272   -2351.4222    3617.4726     1994.183    76.412294 
   72800    299.28855    -118.8544   0.27080257    -118.5836    5756.2966     4.243139     4.243139     4.243139    5756.2966    32056.593     18279.62   -33067.323   -218.86278    14444.217   -12351.196    76.394445 
   72900    644.64681   -119.16661   0.58328998   -118.58332    2088.3382    4.2411418    4.2411418    4.2411418    2088.3382    22781.121    -4348.696   -12167.411    3106.0557    3098.8644   -4637.1191    76.286621 
   73000    1188.1816   -119.65043    1.0750917   -118.57533   -1778.0166      4.24231      4.24231      4.24231   -1778.0166    11120.506   -10756.911   -5697.6453    1386.4841   -5146.9639    5894.7571    76.349675 
   73100    788.16261   -119.29553    0.7131461   -118.58238   -4534.2805    4.2452172    4.2452172    4.2452172   -4534.2805    15339.564    1823.6158   -30766.021   -743.85579    7278.3342   -643.39599    76.506749 
   73200    212.43926   -118.78019    0.1922195   -118.58797    4515.4125    4.2386807    4.2386807    4.2386807    4515.4125    29659.423     18301.82   -34415.005    971.87391    13044.896   -11710.264    76.153893 
   73300    580.15127    -119.1112   0.52493306   -118.58626    1046.1974    4.2408001    4.2408001    4.2408001    1046.1974    13093.128     20643.68   -30598.217    382.81402   -1446.2443   -8760.3555    76.268185 
   73400    1081.6983   -119.55522   0.97874335   -118.57647   -8604.9148    4.2489691    4.2489691    4.2489691   -8604.9148   -1665.2088   -7735.8162   -16413.719       995.28    -4812.911    5199.5317    76.709777 
   73500    736.66047   -119.24464   0.66654588    -118.5781   -3074.7327    4.2407651    4.2407651    4.2407651   -3074.7327    7285.8079   -12633.184   -3876.8219    -1200.434    9699.9585    9735.2776    76.266297 
   73600    441.76677   -118.98111   0.39971986   -118.58139    6901.2931    4.2353594    4.2353594    4.2353594    6901.2931    20208.492     12922.14   -12426.753    111.42145    15878.375    -7070.162    75.975017 
   73700    748.89996   -119.25629   0.67762042   -118.57867   -12371.125    4.2508132    4.2508132    4.2508132   -12371.125      441.785   -6409.3611   -31145.798    1918.3974    810.30577   -12019.127    76.809697 
   73800    793.27452   -119.29289   0.71777146   -118.57512   -7532.3709    4.2442773    4.2442773    4.2442773   -7532.3709    964.73565   -13897.604   -9664.2445   -5116.4516   -7856.3654    12180.674    76.455943 
   73900    523.67851   -119.05053   0.47383532   -118.57669    7434.1699    4.2336422    4.2336422    4.2336422    7434.1699    11867.246    14076.814   -3641.5502   -3297.4495    10114.806    19205.262    75.882642 
   74000    619.41925   -119.14031   0.56046356   -118.57984   -4686.7397    4.2482958    4.2482958    4.2482958   -4686.7397    857.68244    13675.461   -28593.362    1212.5041    20780.642    1540.1911    76.673315 
   74100    990.15992   -119.46927    0.8959175   -118.57336   -6281.3604    4.2472125    4.2472125    4.2472125   -6281.3604    2027.1005    3386.3462   -24257.528    137.27143    1611.4533   -6914.6973    76.614674 
   74200    840.49218   -119.33448   0.76049498   -118.57398    3170.3512    4.2353764    4.2353764    4.2353764    3170.3512    10255.063   -1654.0008    909.99136   -5460.4566   -10551.289    12683.049    75.975934 
   74300    373.10938   -118.92061   0.33759721   -118.58301    94.262632    4.2447301    4.2447301    4.2447301    94.262632    -3823.307      44.3372    4061.7577   -8818.4331    13408.067    20760.694    76.480417 
   74400    581.74174   -119.10578   0.52637215   -118.57941   -4430.3453    4.2516928    4.2516928    4.2516928   -4430.3453   -13966.844    7822.4914   -7146.6832    1114.0005    25888.143   -1086.5838    76.857392 
   74500    1126.1719   -119.58839     1.018984    -118.5694    5431.7787    4.2377371    4.2377371    4.2377371    5431.7787    6962.5936   -1657.0512    10989.794    1709.4904    246.59875   -6957.3571    76.103046 
   74600    756.54285   -119.26264   0.68453587   -118.57811    7425.0905     4.242537     4.242537     4.242537    7425.0905    14155.234   -12427.279    20547.316   -7716.0339   -2993.2218    10100.371    76.361932 
   74700    226.32134   -118.78445   0.20478031   -118.57967   -2459.5183    4.2547162    4.2547162    4.2547162   -2459.5183    681.52135   -7787.3235    -272.7527   -5713.6872     27417.09    13630.928    77.021467 
   74800    734.92757   -119.23693   0.66497791   -118.57195    946.91425    4.2415274    4.2415274    4.2415274    946.91425   -9203.1662    6762.9237    5280.9853    5357.0746    20065.292   -3098.1423    76.307429 
   74900    1139.5233   -119.59655    1.0310646   -118.56548    -4624.337    4.2422037    4.2422037    4.2422037    -4624.337   -5898.9925   -3090.1116   -4883.9069   -88.792092    -9515.478   -6241.3827     76.34394 
   75000    554.29649   -119.07438   0.50153912   -118.57284   -4213.7111    4.2524442    4.2524442    4.2524442   -4213.7111     731.9125    -417.3607   -12955.685   -15348.415    950.83257    14361.631    76.898148 
   75100    378.14377   -118.91604   0.34215243   -118.57389    1980.6863    4.2469269    4.2469269    4.2469269    1980.6863   -12038.959    24889.592    -6908.574   -7934.7248    28193.943    11608.371     76.59922 
   75200    991.29753   -119.46478   0.89694684   -118.56783    16.926857    4.2393624    4.2393624    4.2393624    16.926857   -6811.8548    12846.743   -5984.1075    7424.7683    9741.7263   -6911.4394    76.190642 
   75300    1041.4441   -119.51303   0.94232054   -118.57071   -4361.5891    4.2456385    4.2456385    4.2456385   -4361.5891    1440.7796   -8877.3502   -5648.1967   -3611.6991   -10654.443    792.26399    76.529527 
   75400    368.46204   -118.91069    0.3333922    -118.5773   -10619.706    4.2525253    4.2525253    4.2525253   -10619.706   -14053.589    -4851.189   -12954.339   -17009.389    14661.731     17624.38    76.902547 
   75500    411.95745   -118.95043   0.37274776   -118.57769     6693.408    4.2360952    4.2360952    4.2360952     6693.408    279.41161    19855.501   -54.688444   -4377.6479    25658.659    9704.3892     76.01462 
   75600    1153.8123   -119.61572    1.0439936   -118.57173   -5744.0185    4.2438608    4.2438608    4.2438608   -5744.0185    5659.7983   -9044.5182   -13847.336    7070.6487   -1481.7261   -6916.9929    76.433435 
   75700    891.90852   -119.38141   0.80701757   -118.57439   -9358.9454    4.2525721    4.2525721    4.2525721   -9358.9454    17613.783   -36999.758   -8690.8612   -6697.3385   -3066.4853    2199.6549    76.905087 
   75800    125.56862   -118.69549   0.11361713   -118.58187    11136.191    4.2382185    4.2382185    4.2382185    11136.191    26922.983   -3371.7055    9857.2955   -15090.425    29387.378    13196.325    76.128983 
   75900    544.17765    -119.0729   0.49238337   -118.58051   -900.15269    4.2421692    4.2421692    4.2421692   -900.15269     3845.536   -593.14503   -5952.8491    1386.8872    21889.829    2094.2472    76.342076 
   76000    1186.4422   -119.64248    1.0735179   -118.56897    -16943.13    4.2527773    4.2527773    4.2527773    -16943.13   -11842.777   -19917.175   -19069.437    5178.5929   -7913.9672   -4940.5825    76.916221 
   76100    673.49541   -119.18446    0.6093928   -118.57507    3344.6492    4.2405418    4.2405418    4.2405418    3344.6492    -6967.742    9753.2817     7248.408   -8564.8486    813.99616     10704.32    76.254247 
   76200    198.92277   -118.76077   0.17998951   -118.58078    7004.1957     4.243261     4.243261     4.243261    7004.1957   -15253.158     29189.57    7076.1755   -14385.004    24059.607    19020.367    76.401032 
   76300    860.77683   -119.35185   0.77884896     -118.573   -10557.536    4.2538426    4.2538426    4.2538426   -10557.536    -23506.46     6805.549   -14971.698    1049.1226    9651.5792    10.833755    76.974037 
   76400    1204.3036   -119.65475    1.0896792   -118.56507   -1047.5146    4.2416034    4.2416034    4.2416034   -1047.5146    2103.0446   -2654.5243    -2591.064    5688.6554   -8197.9816   -3448.4635    76.311534 
   76500    421.51596   -118.95751    0.3813965   -118.57612   -1002.8726    4.2470183    4.2470183    4.2470183   -1002.8726   -2291.0735    6506.2674   -7223.8117     -14491.7     19045.69    13564.499    76.604167 
   76600    367.21035   -118.90873   0.33225965   -118.57647   -2840.1309     4.250424     4.250424     4.250424   -2840.1309   -12717.566     4604.546   -407.37305   -15010.775    22199.728    9901.0198    76.788601 
   76700     1141.559   -119.59884    1.0329066   -118.56593   -2491.7396    4.2435123    4.2435123    4.2435123   -2491.7396   -9232.9384   -2088.3953     3846.115    2507.8652   -5860.4014    -5843.006    76.414607 
   76800    978.05256   -119.45674   0.88496251   -118.57177   -592.89199    4.2446626    4.2446626    4.2446626   -592.89199    6932.4465   -14102.476    5391.3533    754.54895     89.54126    730.23657    76.476768 
   76900    235.50699   -118.79508   0.21309168   -118.58199    5555.3196    4.2482352    4.2482352    4.2482352    5555.3196     9736.793   -10072.537    17001.702   -12376.366    30145.154    12185.903    76.670033 
   77000    517.20882   -119.04595   0.46798141   -118.57797   -1242.0481    4.2470848    4.2470848    4.2470848   -1242.0481   -3023.8619   -5000.5562    4298.2738   -6219.2438    18636.566    1323.9393    76.607764 
   77100     1122.539   -119.58125    1.0156969   -118.56555   -5143.0681    4.2442451    4.2442451    4.2442451   -5143.0681   -7028.9295   -803.04808   -7597.2266    7737.1713   -12803.096   -8022.3731    76.454201 
   77200    684.17277   -119.19331    0.6190539   -118.57426    -482.3737    4.2466257    4.2466257    4.2466257    -482.3737     -4498.88    16062.902   -13011.143   -4354.6808    3250.5637    8553.9171    76.582924 
   77300    261.54348   -118.81739   0.23665003   -118.58074    10852.073    4.2444769    4.2444769    4.2444769    10852.073   -6814.0124    34888.824    4481.4076   -15594.185    23967.044    18213.364     76.46673 
   77400    826.80694   -119.32323   0.74811229   -118.57512   -7366.8953    4.2476626    4.2476626    4.2476626   -7366.8953   -22122.969     13788.02   -13765.737   -1608.2748    4246.8097    2082.4874    76.639038 
   77500    1145.5731   -119.60459    1.0365386   -118.56806   -4165.5528    4.2395802    4.2395802    4.2395802   -4165.5528   -239.04649    1309.5668   -13567.179    6919.4956   -10335.729   -6753.3134    76.202383 
   77600    525.65159   -119.05823   0.47562061   -118.58261   -2405.5932    4.2457508    4.2457508    4.2457508   -2405.5932    5161.3167    648.58911   -13026.685   -7415.9597    17996.034    9506.2703    76.535604 
   77700    353.05093   -118.90257    0.3194479   -118.58312   -2316.0888    4.2469963    4.2469963    4.2469963   -2316.0888    12778.572    7123.0736   -26849.912   -15124.213    25275.751    14285.516    76.602978 
   77800    934.24885   -119.42038   0.84532799   -118.57506    1712.6475    4.2396046    4.2396046    4.2396046    1712.6475    14390.609     2424.239   -11676.906   -2786.5977    -5946.392   -4530.9179    76.203702 
   77900    1064.6453   -119.53643   0.96331341   -118.57312   -11755.077    4.2469837    4.2469837    4.2469837   -11755.077   -4300.1253   -19200.387   -11764.718    4879.2166    -6160.435   -5550.9137    76.602295 
   78000    401.30824   -118.94705   0.36311213   -118.58394    7624.1493    4.2432612    4.2432612    4.2432612    7624.1493    3169.8019   -3863.4343     23566.08   -7344.5474    26450.786    13057.506    76.401043 
   78100    349.00903   -118.90008   0.31579071   -118.58429    2864.8135    4.2461621    4.2461621    4.2461621    2864.8135    2019.5549   -6174.0442     12748.93   -7107.0549    23446.975    13200.582    76.557847 
   78200    1000.7484   -119.47753   0.90549815   -118.57203   -390.38186    4.2442043    4.2442043    4.2442043   -390.38186   -8820.3221   -4703.3358    12352.512    4837.2478   -8247.2254    -7425.218    76.451997 
   78300    862.91327    -119.3544   0.78078206   -118.57362   -3976.4799    4.2492761    4.2492761    4.2492761   -3976.4799   -20659.417    14617.882   -5887.9051    735.16808    701.06732   -7019.6999    76.726404 
   78400    253.01249   -118.80996   0.22893102   -118.58103    7853.3231    4.2446007    4.2446007    4.2446007    7853.3231    -5558.311    33239.998   -4121.7179   -13960.088    23994.721     16142.45    76.473421 
   78500     579.4786   -119.10364   0.52432441   -118.57932    3814.0116     4.245169     4.245169     4.245169    3814.0116   -5353.4173    17409.877   -614.42464   -7183.1382    6003.5445    12488.052    76.504142 
   78600    1189.6284   -119.64106    1.0764008   -118.56466   -17073.034    4.2529714    4.2529714    4.2529714   -17073.034   -19002.519   -17115.165   -15101.418    7911.3557   -7541.4171   -6138.8517    76.926748 
   78700    630.96966   -119.14331    0.5709146    -118.5724    8838.5654    4.2412477    4.2412477    4.2412477    8838.5654   -4947.9517    12353.799    19109.849   -5097.6444    20443.159    2149.5993    76.292337 
   78800    305.82789   -118.85333    0.2767195   -118.57661   -366.02632    4.2503343    4.2503343    4.2503343   -366.02632   -3029.7767    817.12836    1114.5694   -17542.171    23474.264    14960.327    76.783741 
   78900    990.26896   -119.46407   0.89601617   -118.56805   -9462.0526    4.2511146    4.2511146    4.2511146   -9462.0526   -1857.1713   -20322.623   -6206.3637   -1820.8227   -9544.2035    4472.7871    76.826039 
   79000    1092.9973   -119.55119   0.98896691   -118.56222   -9137.7798    4.2452272    4.2452272    4.2452272   -9137.7798   -13046.977   -9812.2519   -4554.1105    2717.6613   -2667.4619    -7232.992    76.507289 
   79100    359.16698   -118.89879   0.32498183    -118.5738    4350.7843    4.2450923    4.2450923    4.2450923    4350.7843   -1934.5218    3815.6385    11171.236   -14760.658    28200.384    6669.2579    76.499994 
   79200    525.44211   -119.04899   0.47543106   -118.57355    4128.5522    4.2483074    4.2483074    4.2483074    4128.5522     12791.76   -17523.307    17117.204   -9939.7513    18455.066    13056.051    76.673944 
   79300    1088.1433   -119.55047    0.9845749   -118.56589    -4338.263    4.2468861    4.2468861    4.2468861    -4338.263    10796.701   -22460.176   -1351.3146    7516.3349   -8978.4962   -3099.1733    76.597016 
   79400    692.97113   -119.19859   0.62701484   -118.57158   -1309.0366    4.2417115    4.2417115    4.2417115   -1309.0366   -7191.1388    8347.4009   -5083.3717    405.85611    11524.087   -10063.752    76.317366 
   79500    225.67284   -118.78614   0.20419352   -118.58195    2062.4893    4.2434605    4.2434605    4.2434605    2062.4893   -8641.2637    18196.904   -3368.1724    -13925.27    29138.367    6726.5095    76.411813 
   79600      651.591   -119.17344   0.58957323   -118.58387    968.85696    4.2434618    4.2434618    4.2434618    968.85696    6796.6333    4661.5562   -8551.6187   -9798.1458    1551.0317    17336.752     76.41188 
   79700    1109.2384   -119.57907    1.0036622   -118.57541   -1680.9318    4.2413833    4.2413833    4.2413833   -1680.9318    588.98297   -708.63826   -4923.1401     5631.818    -8569.861    2779.4046    76.299652 
   79800    771.05888   -119.27717   0.69767028    -118.5795    2557.1869    4.2412794    4.2412794    4.2412794    2557.1869   -3939.9018    9883.4478    1728.0147    3525.9335    17650.957   -6300.5325    76.294047 
   79900    415.49576   -118.96035   0.37594929    -118.5844    2233.3316    4.2447172    4.2447172    4.2447172    2233.3316    22.606331    12173.517   -5496.1287   -14218.237    20905.908     6908.355    76.479716 
   80000    700.40377   -119.21449   0.63374005   -118.58075   -3035.7454      4.24473      4.24473      4.24473   -3035.7454    3256.9012   -2213.0515   -10151.086   -12938.735   -4585.1296     13997.84    76.480409 
   80100    989.88657   -119.46768   0.89567017   -118.57201   -5882.7524    4.2439738    4.2439738    4.2439738   -5882.7524   -4480.7705   -9732.3023   -3435.1843    3804.8541   -8135.0528    3264.4202    76.439544 
   80200    653.54007   -119.16645   0.59133679   -118.57511   -1947.7119    4.2470818    4.2470818    4.2470818   -1947.7119   -12841.819    763.86972    6234.8139    1290.1505    22075.357   -3559.7603    76.607606 
   80300    407.30995   -118.94501    0.3685426   -118.57647    5566.8203    4.2467079    4.2467079    4.2467079    5566.8203    9052.3452   -9783.9246     17432.04   -11599.051    26268.702    4912.3918    76.587372 
   80400     806.4151   -119.29946   0.72966133    -118.5698    2115.7072    4.2467656    4.2467656    4.2467656    2115.7072    11145.923   -21100.676    16301.875   -6417.2047   -3842.6317    6418.2352    76.590492 
   80500    806.87756   -119.29322   0.73007977   -118.56314   -6558.8622     4.252256     4.252256     4.252256   -6558.8622   -29377.885     12503.44    -2802.142    8201.0665    3890.8013   -5669.2214    76.887936 
   80600    425.50389   -118.95148   0.38500486   -118.56648    2974.9547    4.2468795    4.2468795    4.2468795    2974.9547   -34657.242      39417.7    4164.4065    -965.0519    24208.104   -1020.3473    76.596656 
   80700    768.10066   -119.25955   0.69499362   -118.56456   -2602.3707    4.2476467    4.2476467    4.2476467   -2602.3707   -13360.617    6135.8507    -582.3456   -15940.498    1212.6857    8456.2366    76.638175 
   80800     1016.137   -119.48103    0.9194221   -118.56161   -8288.7915    4.2495295    4.2495295    4.2495295   -8288.7915   -6354.6027   -12810.771   -5701.0009   -6150.1895   -5138.0741    4733.8313     76.74013 
   80900      527.924   -119.04765   0.47767673   -118.56998    2063.4362    4.2432311    4.2432311    4.2432311    2063.4362   -20333.165    15277.021    11246.452    5538.0777    25197.792    1726.7794    76.399422 
   81000    427.89231   -118.96296   0.38716595   -118.57579    4006.5886    4.2433201    4.2433201    4.2433201    4006.5886   -19321.015    18157.155    13183.625    1007.8939    20408.252   -2113.4699    76.404224 
   81100    939.60579   -119.42333   0.85017507   -118.57315   -1151.7387    4.2446546    4.2446546    4.2446546   -1151.7387   -1062.2899   -9335.4259    6942.4997   -8136.1427   -9993.3367    3629.2431    76.476337 
   81200    888.15949   -119.37814   0.80362537   -118.57452   -3817.9595     4.244342     4.244342     4.244342   -3817.9595   -642.75443   -11834.099    1022.9749   -3983.7774    5729.2891    6551.6277    76.459441 
   81300    428.12999   -118.96765   0.38738101   -118.58027    1533.2919     4.240279     4.240279     4.240279    1533.2919   -26056.329    17404.804    13251.401     2991.361    36074.764    684.88724    76.240073 
   81400    560.59205   -119.08862   0.50723547   -118.58139   -1608.1435    4.2434732    4.2434732    4.2434732   -1608.1435    -30621.23    7655.6732    18141.126   -473.67732    9656.0313   -2026.3364    76.412498 
   81500    1034.5696   -119.51129    0.9361003   -118.57519   -10876.686    4.2466605    4.2466605    4.2466605   -10876.686   -8411.7139   -20192.963   -4025.3816   -6042.3581   -22425.542    651.75364    76.584809 
   81600    864.22729   -119.35703   0.78197102   -118.57506    1643.0633    4.2393765    4.2393765    4.2393765    1643.0633    343.89251    5708.6568   -1123.3594   -2323.1946    12492.655    2146.3787    76.191404 
   81700    442.69951   -118.98024   0.40056382   -118.57968   -3512.2499    4.2481299    4.2481299    4.2481299   -3512.2499   -29743.605    15582.595    3624.2603    5475.2948    41028.457    1382.9307    76.664334 
   81800    648.66473   -119.16193   0.58692548     -118.575   -6086.1304    4.2487021    4.2487021    4.2487021   -6086.1304   -19005.183   -4445.9607    5192.7525    6714.1202   -3309.7752   -1970.4913    76.695317 
   81900    944.76414   -119.42486   0.85484245   -118.57002   -931.56056    4.2369952    4.2369952    4.2369952   -931.56056    6768.4781   -4320.5231   -5242.6367    1080.4983   -29915.351   -3208.6999    76.063083 
   82000     589.2331   -119.10916    0.5331505   -118.57601   -399.11377    4.2415148    4.2415148    4.2415148   -399.11377    3319.4053    14538.813    -19055.56   -189.55731    20360.901    1254.5591    76.306752 
   82100    516.58329   -119.04446   0.46741541   -118.57704    663.49349    4.2498353    4.2498353    4.2498353    663.49349     247.0302    9079.7216   -7336.2713   -761.14008    38459.471    269.41614    76.756702 
   82200    900.05781   -119.38544   0.81439122   -118.57105    2072.6843    4.2450222    4.2450222    4.2450222    2072.6843    10946.007   -13816.023     9088.069   -278.13329   -10302.694   -2678.8353    76.496209 
   82300    779.64472   -119.27653   0.70543892    -118.5711    3633.9338    4.2427441    4.2427441    4.2427441    3633.9338     27292.29   -10356.649   -6033.8396    2392.4252   -21864.301   -3159.6845    76.373115 
   82400    353.73796   -118.89666   0.32006954   -118.57659    2437.7241    4.2446163    4.2446163    4.2446163    2437.7241    6634.3066     13013.18   -12334.314    2537.8475    25277.262   -1672.5965    76.474268 
   82500    668.43924   -119.18163   0.60481787   -118.57682    3629.8434    4.2404947    4.2404947    4.2404947    3629.8434   -511.52536     8832.144    2568.9117   -585.55964     30376.08    3690.1304    76.251709 
   82600    991.40265   -119.47223   0.89704195   -118.57519   -1428.6929     4.243151     4.243151     4.243151   -1428.6929    12995.173   -19975.087    2693.8354   -192.18843   -11705.658     5316.263    76.395095 
   82700    621.94972    -119.1423   0.56275317   -118.57954   -1521.1828    4.2446653    4.2446653    4.2446653   -1521.1828    15679.495   -17353.398   -2889.6453    1081.6123   -16443.385   -849.32856    76.476915 
   82800    317.72909   -118.86942   0.28748796   -118.58193    2445.5132    4.2426745    4.2426745    4.2426745    2445.5132    13698.253    5293.6916   -11655.405   -1461.5753    19169.725    -5597.877    76.369356 
   82900    766.26745    -119.2721   0.69333489   -118.57877    2163.0538    4.2395916    4.2395916    4.2395916    2163.0538    9091.3693   -3560.1747    957.96672   -4245.1359     21675.48     473.4544    76.202998 
   83000    945.43056   -119.43242   0.85544544   -118.57698   -2760.2613    4.2432278    4.2432278    4.2432278   -2760.2613    11585.814   -30097.029    10230.432   -5708.4132   -9896.3982    5832.6025    76.399242 
   83100    481.17948   -119.01669   0.43538131   -118.58131   -3733.2121    4.2442507    4.2442507    4.2442507   -3733.2121    18837.321   -26015.194   -4021.7632   -2567.3709    -10168.74    18.610282    76.454506 
   83200    425.68217   -118.96856   0.38516617   -118.58339    2812.7941    4.2373651    4.2373651    4.2373651    2812.7941    16682.998    372.90507   -8617.5204    2497.6591    9905.7811   -8147.9532    76.083006 
   83300    952.74947   -119.44311   0.86206774   -118.58104    1123.0518    4.2410768    4.2410768    4.2410768    1123.0518    8107.9781   -7200.9155    2462.0926   -710.83786    8936.2585   -841.69906    76.283114 
   83400    868.50591    -119.3646    0.7858424   -118.57875     -6449.54    4.2474715    4.2474715    4.2474715     -6449.54    5498.0627   -33131.162     8284.479   -4038.2823   -5294.9708    10649.849    76.628696 
   83500    302.50996   -118.85639   0.27371737   -118.58267     3737.876    4.2405578    4.2405578    4.2405578     3737.876    24007.719   -28596.227    15802.136   -407.60152   -13090.785   -578.99437     76.25511 
   83600    552.96667   -119.08422   0.50033587   -118.58388    3292.0705    4.2386134    4.2386134    4.2386134    3292.0705    19462.118   -14812.458     5226.552    510.31903   -1849.9368   -14823.153    76.150265 
   83700    1148.9983    -119.6159    1.0396378   -118.57626   -2727.3626    4.2449651    4.2449651    4.2449651   -2727.3626    -3979.041   -14284.363    10081.316   -107.09472    5667.9114   -385.18786     76.49312 
   83800    760.38893   -119.26559   0.68801588   -118.57757   -7184.2677     4.247557     4.247557     4.247557   -7184.2677   -4541.9187   -31141.674    14130.789   -1055.8967   -5902.4283    14961.775     76.63332 
   83900    173.76981    -118.7417   0.15723058   -118.58447    6632.6742     4.236146     4.236146     4.236146    6632.6742     28811.39   -30267.989    21354.621   -600.81426   -6689.2026   -2483.1751    76.017353 
   84000    606.01711   -119.13453   0.54833702    -118.5862   -235.19071     4.241455     4.241455     4.241455   -235.19071      21458.7   -30106.665    7942.3928     2802.065   -5930.9054   -18944.815    76.303523 
   84100    1137.3656   -119.60588    1.0291123   -118.57677   -7191.8741    4.2456517    4.2456517    4.2456517   -7191.8741   -10680.797   -23392.915    12498.089    175.12946    392.04539   -154.02118    76.530243 
   84200    689.24049   -119.20457   0.62363928   -118.58093   -1781.9273    4.2405482    4.2405482    4.2405482   -1781.9273    117.79839   -19475.914    14012.334     -1562.38    6753.1105    9703.3532    76.254596 
   84300    303.62066   -118.86246   0.27472235   -118.58774    4097.0796    4.2384228    4.2384228    4.2384228    4097.0796    32973.915   -30905.079    10222.403    944.29342   -7293.3904   -10589.553    76.139994 
   84400    666.00282   -119.18811   0.60261335    -118.5855   -910.37555    4.2431115    4.2431115    4.2431115   -910.37555     16652.26    -36462.37    17078.983     781.8771   -10256.046   -15030.018    76.392958 
   84500     948.1237   -119.43473   0.85788225   -118.57685   -1838.5769    4.2440514    4.2440514    4.2440514   -1838.5769   -9896.5045   -16405.981    20786.755   -1106.0267    11818.027    2962.2268    76.443735 
   84600    611.18173   -119.13276   0.55301007   -118.57975    6371.4169    4.2404585    4.2404585    4.2404585    6371.4169    3435.5172    -3044.717    18723.451   -566.17466    18149.601    380.83977    76.249755 
   84700    515.30371   -119.04798   0.46625763   -118.58172   -2704.6105    4.2472308    4.2472308    4.2472308   -2704.6105    26179.219   -33865.611   -427.43954   -226.87825   -701.60945   -18612.487    76.615669 
   84800    773.39594   -119.27689    0.6997849   -118.57711    467.29969    4.2408728    4.2408728    4.2408728    467.29969    20745.775   -31329.487    11985.611   -617.68473   -11278.882   -11714.413    76.272107 
   84900    793.03951   -119.29271   0.71755881   -118.57515   -225.57817    4.2394508    4.2394508    4.2394508   -225.57817    -9660.225   -1672.5817    10656.072    3421.3334    14885.802    6938.4018    76.195407 
   85000     574.3161   -119.09988   0.51965328   -118.58022   -6869.5263    4.2468078    4.2468078    4.2468078   -6869.5263   -1377.3984   -647.17993   -18584.001    1719.8556    28891.282   -201.76254    76.592776 
   85100    625.06333   -119.14644   0.56557043   -118.58087    5383.8711    4.2391498    4.2391498    4.2391498    5383.8711    31185.884   -11593.348   -3440.9231   -1656.0569   -1185.9122   -22427.312    76.179179 
   85200    756.86744   -119.26294   0.68482956   -118.57811   -4222.1473     4.243797     4.243797     4.243797   -4222.1473    8324.4016   -23285.117    2294.2735    2118.1511   -14174.791     -14674.4    76.429992 
   85300    680.67698   -119.19292   0.61589083   -118.57702    978.24505    4.2423879    4.2423879    4.2423879    978.24505   -9703.9884    2081.2525    10557.471    1002.7253    16785.402    9253.2729    76.353881 
   85400    562.95146   -119.09074   0.50937031   -118.58137    475.49958    4.2428766    4.2428766    4.2428766    475.49958   -2293.2421    8043.2566   -4323.5158    1482.3405    33497.437   -2748.8367     76.38027 
   85500    668.35356   -119.18563   0.60474034   -118.58089     3329.962    4.2408104    4.2408104    4.2408104     3329.962     18127.41   -420.06932   -7717.4544     740.1028    735.93444   -21155.315     76.26874 
   85600    786.90756   -119.28956    0.7120105   -118.57755   -603.77149    4.2424692    4.2424692    4.2424692   -603.77149    -4526.217    -5576.593    8291.4955   -699.02431   -18483.403   -11126.711    76.358275 
   85700    652.95803   -119.16888   0.59081015   -118.57807   -7340.9982    4.2469109    4.2469109    4.2469109   -7340.9982   -36399.215    5394.6557    8981.5648    5778.4437    14548.191    4226.0301    76.598354 
   85800    606.64898   -119.12799   0.54890875   -118.57908    3387.4573    4.2381913    4.2381913    4.2381913    3387.4573   -10449.104    16966.259    3645.2176    3321.8223    31853.873    976.05761    76.127515 
   85900    739.37059   -119.24731   0.66899805   -118.57831   -1890.7975     4.243548     4.243548     4.243548   -1890.7975    745.18059   -3234.3859   -3183.1871   -2209.3283    4413.9029   -16937.908    76.416538 
   86000    825.61515   -119.32136   0.74703394   -118.57432   -6712.1811    4.2469532    4.2469532    4.2469532   -6712.1811   -20562.679    -5193.111    5619.2468    914.80111   -10306.523   -10870.833    76.600646 
   86100    550.85898   -119.07716   0.49842879   -118.57873    3510.1866    4.2382291    4.2382291    4.2382291    3510.1866   -31155.321    22867.541     18818.34    2383.5278    15587.281    6050.3327    76.129554 
   86200    499.41275   -119.03396   0.45187915   -118.58208    217.22963    4.2410261    4.2410261    4.2410261    217.22963   -26087.032    19165.581    7573.1395    2951.4457    24529.296   -486.98906    76.280378 
   86300    818.45895   -119.31856   0.74055886     -118.578   -3293.5967    4.2449787    4.2449787    4.2449787   -3293.5967   -14343.544    513.60256    3949.1513   -2696.4336   -1319.7082    -8954.152    76.493854 
   86400    876.98101   -119.36855   0.79351085   -118.57504   -1822.7448    4.2436812    4.2436812    4.2436812   -1822.7448   -22034.411    3916.5253    12649.651   -5649.0356   -2036.5498    -8451.527    76.423733 
   86500    534.54665    -119.0639   0.48366904   -118.58023    3363.1237      4.23917      4.23917      4.23917    3363.1237   -31289.677    21743.936    19635.112    1290.2371    21214.341   -3106.4806    76.180266 
   86600    420.61333   -118.96446   0.38057978   -118.58388    2386.2552    4.2419608    4.2419608    4.2419608    2386.2552    -29169.21    21295.838    15032.137     2534.967    16242.103    1057.3615    76.330824 
   86700    862.77856   -119.35887   0.78066017   -118.57821   -4884.3528    4.2455767    4.2455767    4.2455767   -4884.3528   -24139.454   -2898.7914    12385.187   -2654.0644   -11298.111   -6085.7883    76.526188 
   86800    988.71587   -119.46783    0.8946109   -118.57322   -4268.8535    4.2438364    4.2438364    4.2438364   -4268.8535   -23567.654   -11972.133    22733.227   -3297.5632    4549.6001   -3829.6681    76.432118 
   86900    510.11819   -119.04288   0.46156566   -118.58131    1470.3292    4.2405874    4.2405874    4.2405874    1470.3292   -29510.819      17107.7    16814.107     2756.417    28734.646    2098.6666    76.256711 
   87000    327.21185    -118.8812   0.29606816   -118.58513    4290.2308    4.2418326    4.2418326    4.2418326    4290.2308   -38001.977    30089.881    20782.789    1262.8007    1135.9531   -552.44085    76.323907 
   87100    788.93775   -119.29443   0.71384745   -118.58058   -3189.7756    4.2438402    4.2438402    4.2438402   -3189.7756   -29678.101    1865.0564    18243.718   -1991.3981   -23186.275    1049.0344    76.432326 
   87200    1057.1326   -119.53078   0.95651581   -118.57427    1128.2656    4.2395139    4.2395139    4.2395139    1128.2656   -7336.0024   -5484.6541    16205.453    704.72211    4789.3775   -1451.6363    76.198812 
   87300    669.41272   -119.18909    0.6056987   -118.58339   -5141.6346      4.24402      4.24402      4.24402   -5141.6346   -28510.431    3197.2208    9888.3068    2418.7664    22793.137   -1256.5043    76.442039 
   87400    309.48016   -118.86689   0.28002415   -118.58687     3312.198    4.2403971    4.2403971    4.2403971     3312.198    -43814.19    32812.838    20937.946    4569.2472   -10831.216    2544.6647    76.246445 
   87500    633.38227   -119.15624   0.57309759   -118.58314    892.79563    4.2421879    4.2421879    4.2421879    892.79563    -35133.33    16206.085    21605.631   -398.82192   -24561.963   -3966.2894    76.343084 
   87600    1056.0936   -119.52919   0.95557566   -118.57362   -10521.484     4.246919     4.246919     4.246919   -10521.484   -20318.329   -20128.907     8882.783   -3134.2504    2892.8189   -3004.9385    76.598795 
   87700    822.19607   -119.32217   0.74394028   -118.57823    990.87078    4.2391604    4.2391604    4.2391604    990.87078   -17396.005    10975.779    9392.8387    1460.1113    4224.4078    1926.1309    76.179751 
   87800    408.37918   -118.95175   0.36951006   -118.58224    372.49455    4.2419913    4.2419913    4.2419913    372.49455   -46064.954    33444.771    13737.666     2055.894   -18999.861   -1318.0302    76.332468 
   87900    589.31855   -119.11113   0.53322781    -118.5779   -4181.0726    4.2459452    4.2459452    4.2459452   -4181.0726   -45788.252    16989.556    16255.478   -1306.1539   -11588.248    2625.1735    76.546118 
   88000    912.88604   -119.39832   0.82599848   -118.57232   -1555.8223    4.2432431    4.2432431    4.2432431   -1555.8223   -9751.5191   -5286.5648    10370.617   -6128.3567    8931.8944   -1009.8454    76.400065 
   88100    822.01417   -119.31971    0.7437757   -118.57593   -1256.2011    4.2396983    4.2396983    4.2396983   -1256.2011   -8289.7003    4002.3871    518.70987   -3318.0765   -11504.246   -327.20101    76.208753 
   88200    477.79965    -119.0127   0.43232316   -118.58037    678.32296    4.2406126    4.2406126    4.2406126    678.32296   -33811.756    20943.286    14903.439    2969.4082   -29940.771    5939.7149     76.25807 
   88300    617.18897   -119.13806   0.55844555   -118.57962   -6783.7741     4.245157     4.245157     4.245157   -6783.7741    -33687.42    164.06353    13172.034    817.91323    -4714.419    -563.6594    76.503491 
   88400    974.24042   -119.45816   0.88151321   -118.57665   -127.28209    4.2409787    4.2409787    4.2409787   -127.28209    400.13965   -7437.5188    6655.5329   -485.97642      17623.6   -2302.8301    76.277822 
   88500    714.48971   -119.22711    0.6464853   -118.58063    1284.9111    4.2407177    4.2407177    4.2407177    1284.9111    1662.2147    12807.622   -10615.103   -1592.5027   -14174.558    -2061.494    76.263738 
   88600    381.63769   -118.92945    0.3453138   -118.58414    1111.8386    4.2420979    4.2420979    4.2420979    1111.8386   -21903.785    20308.973    4930.3285    1715.7149   -38030.084   -910.42759    76.338226 
   88700     810.7536   -119.31333   0.73358689   -118.57975   -935.11107    4.2429296    4.2429296    4.2429296   -935.11107   -21797.469    3627.4188    15364.717    6181.5041   -383.93927    1947.7309    76.383136 
   88800    1056.1122   -119.53167   0.95559249   -118.57607   -4871.9607    4.2462523    4.2462523    4.2462523   -4871.9607   -2073.8802   -9142.6884   -3399.3135    1293.6255    18271.596   -3335.1924    76.562728 
   88900    365.33533   -118.91207   0.33056309    -118.5815    3497.8028    4.2453143    4.2453143    4.2453143    3497.8028    6652.3625    12001.526     -8160.48    494.76069   -26928.823   -4125.3494    76.511998 
   89000    271.57646   -118.82925   0.24572809   -118.58352    6648.0148    4.2436669    4.2436669    4.2436669    6648.0148    479.32983    23508.491   -4043.7762    4106.7405   -39411.285    3745.5566    76.422959 
   89100    1105.4767   -119.57629    1.0002586   -118.57604   -4868.5776    4.2453551    4.2453551    4.2453551   -4868.5776   -2368.1822    98.002899   -12335.554    3997.8678    4183.3213    3742.2189    76.514203 
   89200    1085.9845   -119.55666   0.98262159   -118.57403   -4386.6388    4.2439718    4.2439718    4.2439718   -4386.6388   -706.05467   -1531.0366   -10922.825    1924.8411    2225.4729    581.97736    76.439437 
   89300    354.28241   -118.90385   0.32056217   -118.58329   -4159.0462    4.2457532    4.2457532    4.2457532   -4159.0462    -6648.547    17698.792   -23527.384   -960.31968   -36521.095   -1762.0556    76.535729 
   89400    463.10108   -119.00156   0.41902359   -118.58254     718.6839    4.2440079    4.2440079    4.2440079     718.6839    11374.541    16108.905   -25327.395    2095.7744   -18552.147   -1070.3852    76.441386 
   89500    938.50509   -119.42476   0.84917912   -118.57558   -2088.1881    4.2435006    4.2435006    4.2435006   -2088.1881    9272.1386   -1683.1498   -13853.553    2885.0955    15429.331    1306.8582    76.413977 
   89600    787.29489   -119.28794   0.71236096   -118.57557   -1058.8674    4.2426948    4.2426948    4.2426948   -1058.8674   -18123.947    11978.694    2968.6501   -2201.9012   -5831.7793    1376.1768    76.370456 
   89700    643.66668   -119.16152   0.58240314   -118.57911      1395.98    4.2409183    4.2409183    4.2409183      1395.98   -18823.181    20960.628    2050.4933    359.06199   -27147.166   -789.79262    76.274564 
   89800    649.87231   -119.16938   0.58801812   -118.58136   -303.88757     4.241386     4.241386     4.241386   -303.88757    7394.7468    10870.316   -19176.726    4301.0997   -7971.2609     2693.028    76.299797 
   89900    551.96115   -119.08247   0.49942605   -118.58305    1669.2632    4.2413991    4.2413991    4.2413991    1669.2632    7616.2465    12702.628   -15311.085     3982.113    13404.254    4679.8379    76.300508 
   90000    699.17153   -119.21417    0.6326251   -118.58154   -475.60233    4.2419112    4.2419112    4.2419112   -475.60233   -25012.351    23619.567   -34.023274   -1708.4726    6366.4171    934.81122    76.328147 
   90100    957.97892   -119.44487   0.86679946   -118.57808   -1894.3947    4.2428223    4.2428223    4.2428223   -1894.3947   -26974.316    21978.505   -687.37273   -5223.2274   -9524.9967    169.58708    76.377339 
   90200    771.22032   -119.27722   0.69781635   -118.57941   -1898.6769    4.2426403    4.2426403    4.2426403   -1898.6769   -604.56632    15341.447   -20432.911   -242.85717   -8112.2183    498.36485    76.367512 
   90300    345.11962   -118.89553   0.31227148   -118.58325   -1234.1788    4.2412834    4.2412834    4.2412834   -1234.1788    5311.4197    13971.222   -22985.178    4575.0708    9778.6192   -1250.9133    76.294261 
   90400    539.16607   -119.07281   0.48784879   -118.58496   -676.49406    4.2400089    4.2400089    4.2400089   -676.49406   -13494.111     24895.02   -13430.391   -4313.8964    13240.919     270.6976    76.225504 
   90500    1020.2935   -119.50379   0.92318304   -118.58061    -5131.949    4.2425696    4.2425696    4.2425696    -5131.949   -20790.549    12859.529    -7464.827   -14123.875   -265.75083    981.14508    76.363693 
   90600    909.01199   -119.40133   0.82249315   -118.57884   -2804.6684    4.2407468    4.2407468    4.2407468   -2804.6684   -694.47181    6640.1363    -14359.67   -5314.2571   -5554.1084   -3109.7413    76.265307 
   90700    414.36713   -118.96153   0.37492809    -118.5866    1347.9603    4.2418463    4.2418463    4.2418463    1347.9603    10197.288    28910.869   -35064.276    3674.6863    11011.608    1257.5139    76.324646 
   90800    456.19939   -119.00113   0.41277879   -118.58835    -302.5181    4.2429974    4.2429974    4.2429974    -302.5181    5276.8547     25546.41   -31730.819    -2335.055    18410.395    8576.4205    76.386797 
   90900      895.393   -119.39085    0.8101704   -118.58068   -3284.6329    4.2414208    4.2414208    4.2414208   -3284.6329   -2757.0269    5451.6809   -12548.553   -7390.8375   -3601.8981    1123.8462     76.30168 
   91000    879.63098   -119.37153    0.7959086   -118.57562   -6849.8346    4.2462712    4.2462712    4.2462712   -6849.8346   -8850.0955     1956.121   -13655.529   -1329.4005   -12295.892   -377.17913    76.563748 
   91100     575.0138   -119.09917   0.52028457   -118.57888    3844.4083    4.2454886    4.2454886    4.2454886    3844.4083    9301.6717    11066.412   -8834.8588    4204.8629    11885.084    7082.2544    76.521425 
   91200    621.68192   -119.13939   0.56251087   -118.57688    5530.0818    4.2450908    4.2450908    4.2450908    5530.0818    18390.816     11855.07    -13655.64   -1487.7743    20979.986    5437.2401    76.499912 
   91300     725.1669     -119.227   0.65614625   -118.57085   -1687.7097    4.2457304    4.2457304    4.2457304   -1687.7097   -1177.0772    144.85564   -4030.9075   -5371.0477   -11124.603   -1097.2498    76.534501 
   91400    645.47211   -119.15722   0.58403673   -118.57318    1476.7708    4.2423466    4.2423466    4.2423466    1476.7708   -12799.088    7112.9452    10116.455    738.84932   -29641.007   -128.84675    76.351651 
   91500    771.71985   -119.27509   0.69826834   -118.57682    -1336.133    4.2421594    4.2421594    4.2421594    -1336.133   -9907.7802    13923.025   -8023.6436    2980.0417    4333.7666    9532.3409    76.341544 
   91600    832.93682      -119.33   0.75365874   -118.57635    2952.8613    4.2379619    4.2379619    4.2379619    2952.8613      13131.6    5808.7481   -10081.764    1053.6095    20784.806    8668.8472    76.115157 
   91700     535.0276   -119.06462   0.48410421   -118.58052    -6972.476     4.247484     4.247484     4.247484    -6972.476     2927.946   -6907.3018   -16938.072   -1597.1118   -23145.476   -3412.4143    76.629368 
   91800    571.79198   -119.09759    0.5173694   -118.58022   -6914.5217    4.2447558    4.2447558    4.2447558   -6914.5217   -7470.0712    3362.3075   -16635.801   -769.97793   -37555.858   -731.31041    76.481805 
   91900    961.56467   -119.44619   0.87004393   -118.57615    938.99783    4.2387267    4.2387267    4.2387267    938.99783    11529.922   -5209.4137   -3503.5152    5732.3183    2855.2298    9877.2616     76.15637 
   92000     899.7232   -119.38827   0.81408846   -118.57418   -14952.578     4.248164     4.248164     4.248164   -14952.578    3726.8603   -23225.455   -25359.138    3188.2717    7364.3711     8621.347    76.666181 
   92100    511.04143   -119.04379   0.46240103   -118.58138    5520.5488    4.2361979    4.2361979    4.2361979    5520.5488    14532.501    13061.081   -11031.936   -1874.2886   -32870.715     327.7449    76.020152 
   92200    566.46584    -119.0966    0.5125502   -118.58405   -3355.4432    4.2445435    4.2445435    4.2445435   -3355.4432   -91.315754    -1075.982   -8899.0318   -1833.1816   -28556.091    1609.2496    76.470329 
   92300     838.0169   -119.33461    0.7582553   -118.57635   -8924.3631    4.2468249    4.2468249    4.2468249   -8924.3631    7588.6729   -32975.623    -1386.139    3508.8965    9695.0524    8185.8037    76.593703 
   92400    708.58044   -119.21517   0.64113848   -118.57403    7233.8994    4.2364093    4.2364093    4.2364093    7233.8994    17873.917   -4708.6644    8536.4459    6073.3713   -1692.7001    4361.1527    76.031529 
   92500    660.36302   -119.17556   0.59751034   -118.57805     280.4261    4.2450578    4.2450578    4.2450578     280.4261   -3816.8774    15647.831   -10989.675    236.02498   -32608.554   -870.57333    76.498128 
   92600    859.25134   -119.35237   0.77746867    -118.5749   -78.597904    4.2439355    4.2439355    4.2439355   -78.597904    10067.699   -1306.8037    -8996.689   -3055.3748   -12898.315    -215.2174    76.437472 
   92700    702.02927     -119.209   0.63521083   -118.57379   -7777.4546    4.2441021    4.2441021    4.2441021   -7777.4546    4086.6897    -33398.04    5978.9865    1749.4847    13899.989     3978.746    76.446474 
   92800    529.74376   -119.05509   0.47932329   -118.57577   -2391.7838    4.2430581    4.2430581    4.2430581   -2391.7838   -6869.6107   -14385.114    14079.373    8971.3093   -3684.2927    6675.5335    76.390077 
   92900    766.69729   -119.26791   0.69372382   -118.57419   -785.73318    4.2475228    4.2475228    4.2475228   -785.73318   -4724.4831    6938.5652   -4571.2816    2291.3817   -20200.313   -2813.8783     76.63147 
   93000    876.75187   -119.36359   0.79330351   -118.57029   -1811.1352    4.2454956    4.2454956    4.2454956   -1811.1352   -84.824669   -3505.2157   -1843.3654   -7628.3975   -1233.6963   -10613.974    76.521801 
   93100    570.75941   -119.08768   0.51643511   -118.57124    6477.1688    4.2401393    4.2401393    4.2401393    6477.1688    15554.468   -23978.994    27856.032    2832.6379    5934.0514   -216.10444    76.232535 
   93200    562.80717     -119.083   0.50923976   -118.57376   -5487.3126    4.2501336    4.2501336    4.2501336   -5487.3126    1042.4493   -31054.379    13549.992    8331.1664   -10953.517    5823.7956    76.772866 
   93300    847.10896   -119.33665   0.76648199   -118.57017    1956.3552    4.2439599    4.2439599    4.2439599    1956.3552    15913.311   -4319.7383   -5724.5068     978.8418   -15470.935   -6354.6386    76.438794 
   93400    713.91626   -119.21707   0.64596644   -118.57111    5278.1642    4.2405436    4.2405436    4.2405436    5278.1642    35005.473   -9047.5701    -10123.41    3359.1615    1257.3622   -14926.146    76.254347 
   93500    524.76876   -119.04935    0.4748218   -118.57453   -2650.1198    4.2460913    4.2460913    4.2460913   -2650.1198    8242.5819   -26063.185    9870.2434    4944.5967      7752.61   -576.20737    76.554016 
   93600    691.07058   -119.20029   0.62529518   -118.57499    428.02826     4.242369     4.242369     4.242369    428.02826    2956.6242   -12897.982    11225.443    3997.2493   -3561.6657    4334.3024    76.352861 
   93700    855.40641   -119.34832    0.7739897   -118.57433   -8766.6568     4.244988     4.244988     4.244988   -8766.6568    13852.792   -20013.575   -20139.187   -1866.1973   -6939.1946     -18791.7    76.494355 
   93800     731.3023   -119.23583   0.66169769   -118.57414   -5299.8317    4.2444649    4.2444649    4.2444649   -5299.8317    12534.559   -18727.487   -9706.5668   -2136.5846    4359.4326   -17945.327    76.466084 
   93900    584.31238   -119.10405   0.52869812   -118.57535    -1514.334    4.2448396    4.2448396    4.2448396    -1514.334    5909.5958   -23577.561    13124.964    2607.6948    6445.5079    4472.7425    76.486333 
   94000    627.03498   -119.14437   0.56735443   -118.57701     388.5456    4.2430721    4.2430721    4.2430721     388.5456    13922.298   -19714.316    6957.6546   -378.23222   -2843.3715    470.38463    76.390834 
   94100    824.41744   -119.32211   0.74595022   -118.57616    7309.0517    4.2381656    4.2381656    4.2381656    7309.0517    25422.308    374.64386   -3869.7969   -2828.1846   -1947.9335   -15939.727    76.126132 
   94200    801.11724   -119.29987   0.72486771     -118.575   -4668.6948    4.2468764    4.2468764    4.2468764   -4668.6948    12130.006   -16296.991   -9839.0998   -1724.1346    9500.8868   -8641.9226    76.596488 
   94300    502.01503   -119.03187   0.45423375   -118.57763   -484.55556    4.2445642    4.2445642    4.2445642   -484.55556    4799.6025   -29079.495    22826.226    2788.3889        10462     7304.566    76.471449 
   94400    629.67143   -119.14609   0.56973994   -118.57635   -940.44428    4.2432431    4.2432431    4.2432431   -940.44428    1138.6665    -26539.64    22579.641    6607.8677   -1587.5067    1133.6563    76.400065 
   94500    994.13258   -119.46996   0.89951205   -118.57045    -6249.776     4.246853     4.246853     4.246853    -6249.776    902.95759   -16647.267   -3005.0187    1847.4781   -2563.0752    -10450.53    76.595224 
   94600    759.21616   -119.25776   0.68695473    -118.5708   -2347.9195    4.2447582    4.2447582    4.2447582   -2347.9195   -8060.3829   -4907.4724    5924.0966   -2948.0274    10381.955    -1995.516    76.481933 
   94700    381.58116    -118.9234   0.34526265   -118.57813    3009.6525    4.2405012    4.2405012    4.2405012    3009.6525     3793.761   -12109.425    17344.621    652.76621    4179.6728    9731.8987     76.25206 
   94800    683.74038   -119.19773   0.61866267   -118.57907     -188.702    4.2435701    4.2435701    4.2435701     -188.702    17871.514   -26150.331    7712.7107     8344.591      -6426.7    8221.6067     76.41773 
   94900    1029.2302   -119.50457   0.93126912    -118.5733   -6012.5945    4.2462008    4.2462008    4.2462008   -6012.5945    4281.8457   -19506.901   -2812.7277    2379.6005     4133.317      98.5817    76.559938 
   95000    714.52273   -119.22354   0.64651518   -118.57703    4159.4847    4.2380254    4.2380254    4.2380254    4159.4847   -1408.7965    4682.0568    9205.1939   -3930.9841    19973.113   -778.65954    76.118576 
   95100     523.0956    -119.0562   0.47330789   -118.58289    2527.9746     4.240933     4.240933     4.240933    2527.9746    1192.5889   -8495.1677    14886.503    3468.1893    7058.8803    7584.4888    76.275352 
   95200    692.77533   -119.20764   0.62683768    -118.5808   -3497.6622    4.2460864    4.2460864    4.2460864   -3497.6622    2851.4568   -28853.351    15508.907    7794.5974   -8772.3602    9544.5063     76.55375 
   95300    682.41166   -119.19393   0.61746041   -118.57647   -4074.0359    4.2428492    4.2428492    4.2428492   -4074.0359    767.68405   -23242.198    10252.406    1602.0643    9618.4614   -5911.8294    76.378791 
   95400    620.16871   -119.13762   0.56114169   -118.57648    -3017.473    4.2419841    4.2419841    4.2419841    -3017.473   -3514.7316   -6559.5122    1021.8248   -5461.4154    22517.375   -9047.4703    76.332083 
   95500    828.29632   -119.32513   0.74945991   -118.57567   -5112.7426    4.2449125    4.2449125    4.2449125   -5112.7426   -14869.516   -8327.9235    7859.2114    4834.9941   -1164.2931    5734.9057    76.490278 
   95600    765.83319   -119.26782   0.69294197   -118.57487   -2298.5702    4.2452242    4.2452242    4.2452242   -2298.5702   -3089.6368   -13653.299    9847.2258    14605.331   -12795.923    3696.0365    76.507125 
   95700    575.24424   -119.09597   0.52049308   -118.57547    6648.9526    4.2392441    4.2392441    4.2392441    6648.9526    9902.5704    6586.2917    3457.9957    677.80856    11193.496   -8726.9415    76.184266 
   95800    650.81764   -119.16725   0.58887348   -118.57837    4867.7602    4.2427472    4.2427472    4.2427472    4867.7602   -5944.8354    18743.615    1804.5013   -6830.7796    23263.849   -8949.2025    76.373282 
   95900    807.52471   -119.30812   0.73066532   -118.57745   -3728.2339    4.2466277    4.2466277    4.2466277   -3728.2339   -17302.801    2853.4285    3264.6712    7903.6551   -4402.9277   -638.49396    76.583033 
   96000    679.21093   -119.19072   0.61456432   -118.57615    1493.2985    4.2391611    4.2391611    4.2391611    1493.2985   -9354.1843    7423.0953    6410.9844    18504.696   -16940.582    4488.8668    76.179789 
   96100    628.53113   -119.14658   0.56870818   -118.57787   -3370.8992    4.2420744    4.2420744    4.2420744   -3370.8992   -5315.3106      6695.02   -11492.407     6714.297    12278.084   -4487.7967    76.336958 
   96200    892.67686   -119.38516   0.80771278   -118.57745   -2656.8648    4.2431272    4.2431272    4.2431272   -2656.8648   -2956.7342    9882.4892   -14896.349   -9486.1073    22932.161    -8634.543    76.393806 
   96300    770.86353   -119.27543   0.69749352   -118.57793    -3334.786    4.2414223    4.2414223    4.2414223    -3334.786   -20720.312      9711.12    1004.8339    7909.1696    -5346.668    -1190.614    76.301761 
   96400     474.7471   -119.00978   0.42956115   -118.58022   -1068.7797    4.2416297    4.2416297    4.2416297   -1068.7797   -19888.263    10325.105    6356.8187    18354.623    -14577.52    2290.5838    76.312952 
   96500    698.68021    -119.2112   0.63218054   -118.57902   -2614.5378    4.2450701    4.2450701    4.2450701   -2614.5378   -8336.3303    16905.428   -16412.711    3202.9441     11006.55   -257.90233    76.498794 
   96600    1069.9344   -119.54124   0.96809917   -118.57314   -6862.7172    4.2460334    4.2460334    4.2460334   -6862.7172   -11665.839    13923.453   -22845.766   -7050.7098     13650.43   -4520.3457    76.550887 
   96700    637.77458   -119.15328   0.57707184   -118.57621    7410.5524    4.2393674    4.2393674    4.2393674    7410.5524   -10292.646    16485.727    16038.576    7460.3503    -12875.56   -1353.1666    76.190911 
   96800    249.55358   -118.80716   0.22580132   -118.58136    2943.8043    4.2466983    4.2466983    4.2466983    2943.8043   -28759.672     15689.72    21901.365     13827.65   -13597.172    -1269.154    76.586852 
   96900    833.92537   -119.32825    0.7545532   -118.57369   -4419.6355    4.2486846    4.2486846    4.2486846   -4419.6355   -30645.752    21529.635   -4142.7897   -2722.9351    8676.5109   -5400.4394    76.694371 
   97000    1107.1873   -119.56805    1.0018063   -118.56624   -1541.7508    4.2469283    4.2469283    4.2469283   -1541.7508   -9275.9411    21022.714   -16372.025    -1608.197    1183.1065   -2519.8571    76.599299 
   97100    405.08633   -118.93844   0.36653062   -118.57191    4145.6695    4.2496205    4.2496205    4.2496205    4145.6695   -13963.909    25300.638      1100.28    17966.331   -20184.447     4801.984    76.745065 
   97200    337.59233   -118.87713   0.30546064   -118.57167    6317.9458    4.2448798    4.2448798    4.2448798    6317.9458   -24958.956    23821.135    20091.659    10234.101   -5882.7156     2760.379    76.488508 
   97300     993.3823   -119.46395   0.89883318   -118.56511   -7618.5072    4.2460169    4.2460169    4.2460169   -7618.5072   -19422.665   -1820.7248   -1612.1319    -13623.35    10547.598   -1878.8052    76.549991 
   97400     958.1001   -119.43275   0.86690911   -118.56584   -11669.376    4.2489679    4.2489679    4.2489679   -11669.376   -11850.112   -903.90404   -22254.113    -5003.083   -9947.4222   -291.44597    76.709712 
   97500     388.2914   -118.92282   0.35133422   -118.57149   -406.47123    4.2477223    4.2477223    4.2477223   -406.47123   -8260.1379    8041.2647   -1000.5405    14120.046   -21667.715   -1297.3908    76.642268 
   97600    579.67242   -119.09481   0.52449979   -118.57031    2228.2746    4.2453281    4.2453281    4.2453281    2228.2746   -8015.6142   -612.28493    15312.723    4409.2262    1974.1799   -2962.5767    76.512744 
   97700    1056.3843   -119.52169   0.95583876   -118.56586   -2678.1331    4.2451231    4.2451231    4.2451231   -2678.1331   -2113.2027   -4688.9621   -1232.2345   -11897.232    3240.6467   -505.66957    76.501659 
   97800    737.01415   -119.24058   0.66686589   -118.57371   -6109.7793    4.2453598    4.2453598    4.2453598   -6109.7793   -7119.7005    1365.5301   -12575.168    2903.9592   -24509.677    2895.7441    76.514461 
   97900    304.00259   -118.85589   0.27506793   -118.58082    2639.2743    4.2393678    4.2393678    4.2393678    2639.2743   -12893.031    13393.084    7417.7696    21467.149   -20600.109    4445.2844    76.190934 
   98000        738.7   -119.24685   0.66839129   -118.57846   -2866.1168    4.2435971    4.2435971    4.2435971   -2866.1168   -12763.534    5698.2838   -1533.1002    11777.819    9473.1397    843.19185    76.419188 
   98100    1060.1523   -119.53406    0.9592481   -118.57481   -3002.6118    4.2448579    4.2448579    4.2448579   -3002.6118   -7675.1994    6526.4067   -7859.0426   -8017.0212    3129.0909   -5148.0633    76.487323 
   98200     594.5898   -119.11833   0.53799734   -118.58034    7630.7205    4.2399561    4.2399561    4.2399561    7630.7205   -2717.7908    18421.857    7188.0953    3773.1172   -24221.015   -5090.5359    76.222657 
   98300    332.07861   -118.88218    0.3004717    -118.5817   -1270.2066    4.2470229    4.2470229    4.2470229   -1270.2066   -19751.448    6304.4092    9636.4196    22748.023   -16849.646   -1123.1314    76.604416 
   98400    818.83041   -119.31517   0.74089497   -118.57428   -1172.0931     4.244841     4.244841     4.244841   -1172.0931   -16140.663   -3302.0204    15926.404    7564.0026    8483.1609   -429.94742    76.486412 
   98500     1046.615   -119.51817   0.94699922   -118.57117   -1341.3386    4.2435325    4.2435325    4.2435325   -1341.3386   -7235.5793   -2264.8857    5476.4491   -10040.511   -2039.1823   -894.21716    76.415699 
   98600    488.97276   -119.02021   0.44243283   -118.57778    2177.0561    4.2451019    4.2451019    4.2451019    2177.0561   -10340.423    9067.1629    7804.4284    8008.6688   -26792.057   -2166.5237    76.500517 
   98700     328.1001   -118.87727   0.29687187    -118.5804    3225.9179    4.2431681    4.2431681    4.2431681    3225.9179   -16569.908    6991.0333    19256.628     26274.91   -15770.258    1132.6815    76.396017 
   98800    1038.9303   -119.51433   0.94004596   -118.57429   -5621.4796    4.2433623    4.2433623    4.2433623   -5621.4796   -16744.799   -6462.0616    6342.4221    4015.3314    8662.8335    255.26877    76.406505 
   98900    1174.2048   -119.63599    1.0624452   -118.57355   -9853.9679    4.2449912    4.2449912    4.2449912   -9853.9679   -12144.765   -10354.408   -7062.7311   -10145.531   -2334.6709    -3039.635    76.494533 
   99000    337.86626   -118.88722   0.30570849   -118.58152   -3746.4176    4.2464683    4.2464683    4.2464683   -3746.4176   -21896.623    -711.5188    11368.889    20167.877   -25925.517    2077.3204     76.57441 
   99100    344.64056   -118.89319   0.31183802   -118.58136    2991.5978    4.2431096    4.2431096    4.2431096    2991.5978   -10693.383   -750.31778    20418.494    23138.522   -13645.948   -3178.3231    76.392857 
   99200    1137.6794   -119.60225    1.0293963   -118.57285   -5385.0613     4.245299     4.245299     4.245299   -5385.0613    -1157.758   -15096.346     98.91977   -7593.8085     2687.218   -3561.1379    76.511172 
   99300    1003.8005   -119.48448   0.90825978   -118.57622    1461.2771    4.2415107    4.2415107    4.2415107    1461.2771    6103.9755   -5866.4812    4146.3371   -4394.1199   -5290.8758    127.44465     76.30653 
   99400    198.61153   -118.76526   0.17970789   -118.58556    381.02537    4.2444617    4.2444617    4.2444617    381.02537   -17163.164    687.96868    17618.271     26767.22   -21441.792    460.53032    76.465908 
   99500    352.49763   -118.90626   0.31894726   -118.58732    2440.5064    4.2412823    4.2412823    4.2412823    2440.5064   -17545.799    3423.5894    21443.729    21475.799   -14425.837   -3399.4726    76.294204 
   99600    1176.3213   -119.64363    1.0643603   -118.57927   -588.83221    4.2400681    4.2400681    4.2400681   -588.83221    2397.9604   -5095.0841    930.62712   -9249.6802    6542.9736   -7715.2007    76.228697 
   99700    1002.3993    -119.4856   0.90699198   -118.57861   -9194.0227    4.2466542    4.2466542    4.2466542   -9194.0227   -14432.659    -8904.809   -4244.6002    785.54868   -1228.0274   -146.39575    76.584465 
   99800    297.77866   -118.85384   0.26943639    -118.5844   -779.46794    4.2416281    4.2416281    4.2416281   -779.46794   -20929.634    10716.804    7874.4262     29127.33   -16809.918    4321.3421    76.312865 
   99900    543.50947   -119.07299   0.49177879   -118.58122   -4525.4019    4.2455873    4.2455873    4.2455873   -4525.4019   -11419.346    1780.2935   -3937.1536    16513.937   -10467.667   -866.58442    76.526761 
  100000    1111.4881   -119.57701    1.0056978   -118.57131   -4573.0631    4.2484023    4.2484023    4.2484023   -4573.0631    5488.8818   -11923.373   -7284.6985   -11862.252    2851.4524   -8772.2567    76.679084 
Loop time of 220.717 on 1 procs for 100000 steps with 8 atoms

Pair  time (%) = 76.4427 (34.6338)
Kspce time (%) = 52.8191 (23.9307)
Neigh time (%) = 0 (0)
Comm  time (%) = 11.3505 (5.14255)
Outpt time (%) = 0.215343 (0.097565)
Other time (%) = 79.8893 (36.1954)

Nlocal:    8 ave 8 max 8 min
Histogram: 1 0 0 0 0 0 0 0 0 0
Nghost:    2189 ave 2189 max 2189 min
Histogram: 1 0 0 0 0 0 0 0 0 0
Neighs:    2472 ave 2472 max 2472 min
Histogram: 1 0 0 0 0 0 0 0 0 0

Total # of neighbors = 2472
Ave neighs/atom = 309
Neighbor list builds = 0
Dangerous builds = 0
unfix 20
unfix 21
print "seeds:5139347"
seeds:5139347
