LAMMPS (16 Mar 2018)
# ---- initialize simulations
clear
units metal
dimension 3
boundary p p p
atom_style charge
atom_modify map array
# ---- create atoms
read_data /home/manuelesp/repos/pypospack/dev/MgO_iterative_conditioner/MgO_condition_by_a0/rank_7/MgO_NaCl.lmps_min_all/lammps.structure
  triclinic box = (0 0 0) to (4.2565 4.2565 4.2565) with tilt (0 0 0)
  1 by 1 by 1 MPI processor grid
  reading atoms ...
  8 atoms
# ---- define interatomic potential
include potential.mod
mass 1 24.305
mass 2 15.999

group Mg type 1
4 atoms in group Mg
group O type 2
4 atoms in group O

set group Mg charge 2.32779280783179
  4 settings made for charge
set group O charge -2.32779280783179
  4 settings made for charge

variable R_cut equal 10.0

pair_style buck/coul/long ${R_cut}
pair_style buck/coul/long 10
pair_coeff 1 1 0.0 0.5 0.0 ${R_cut}
pair_coeff 1 1 0.0 0.5 0.0 10
pair_coeff 1 2 996.6612573293085 0.31791195727041904 0.0 ${R_cut}
pair_coeff 1 2 996.6612573293085 0.31791195727041904 0.0 10
pair_coeff 2 2 3586.835772764404 0.16274043818444495 33.475942371618956 ${R_cut}
pair_coeff 2 2 3586.835772764404 0.16274043818444495 33.475942371618956 10

kspace_style pppm 1.0e-5

neighbor 1.0 bin
neigh_modify every 1 delay 0 check yes
# ---- define settings
compute eng all pe/atom
compute eatoms all reduce sum c_eng
# ---- run minimization
reset_timestep 0
fix 1 all box/relax aniso 0.0 vmax 0.001
thermo 10
thermo_style custom step pe xhi xlo yhi ylo zhi xy xz yz press pxx pyy pzz pxy pxz pyz c_eatoms
min_style cg
minimize 1e-25 1e-25 5000 10000
PPPM initialization ...
  using 12-bit tables for long-range coulomb (../kspace.cpp:321)
  G vector (1/distance) = 0.360991
  grid = 9 9 9
  stencil order = 5
  estimated absolute RMS force accuracy = 4.62962e-05
  estimated relative force accuracy = 3.2151e-06
  using double precision FFTs
  3d grid and FFT values/proc = 4096 729
Neighbor list info ...
  update every 1 steps, delay 0 steps, check yes
  max neighbors/atom: 2000, page size: 100000
  master list distance cutoff = 11
  ghost atom cutoff = 11
  binsize = 5.5, bins = 1 1 1
  1 neighbor lists, perpetual/occasional/extra = 1 0 0
  (1) pair buck/coul/long, perpetual
      attributes: half, newton on
      pair build: half/bin/newton/tri
      stencil: half/bin/3d/newton/tri
      bin: standard
Per MPI rank memory allocation (min/avg/max) = 4.994 | 4.994 | 4.994 Mbytes
Step PotEng Xhi Xlo Yhi Ylo Zhi Xy Xz Yz Press Pxx Pyy Pzz Pxy Pxz Pyz c_eatoms 
       0   -227.63391       4.2565            0       4.2565            0       4.2565            0            0            0    -428857.1    -428857.1    -428857.1    -428857.1 -8.2472202e-11 3.0310946e-10 3.7165407e-10   -227.63391 
      10    -228.2116    4.2352175    0.0212825    4.2352175    0.0212825    4.2352175            0            0            0   -377850.03   -377850.03   -377850.03   -377850.03 1.4351189e-10 8.4262983e-11 -4.529189e-11    -228.2116 
      20   -228.70067     4.213935     0.042565     4.213935     0.042565     4.213935            0            0            0   -318843.84   -318843.84   -318843.84   -318843.84 -1.8398907e-10 -1.4366439e-10 -1.6915241e-10   -228.70067 
      30   -229.09301    4.1926525    0.0638475    4.1926525    0.0638475    4.1926525            0            0            0   -250913.25   -250913.25   -250913.25   -250913.25 4.2707239e-10 -5.5347543e-11 -3.7823489e-10   -229.09301 
      40   -229.37937      4.17137      0.08513      4.17137      0.08513      4.17137            0            0            0   -173024.52   -173024.52   -173024.52   -173024.52 -3.179933e-10 3.4971439e-10 6.4009923e-10   -229.37937 
      50   -229.55156    4.1500875    0.1064125    4.1500875    0.1064125    4.1500875            0            0            0   -84045.463   -84045.463   -84045.463   -84045.463 1.4835369e-10 1.9843824e-10 3.103126e-10   -229.55156 
      60   -229.59815    4.1322496   0.12425041    4.1322496   0.12425041    4.1322496            0            0            0    30.744507    30.744507    30.744507    30.744507 4.885592e-10 -1.6776151e-10 -1.2000969e-10   -229.59815 
      63   -229.59815    4.1322557   0.12424432    4.1322557   0.12424432    4.1322557            0            0            0   0.50553831   0.50553831   0.50553832   0.50553831 5.9983263e-10 2.3435595e-10 2.6491604e-10   -229.59815 
Loop time of 0.057272 on 1 procs for 63 steps with 8 atoms

99.9% CPU use with 1 MPI tasks x no OpenMP threads

Minimization stats:
  Stopping criterion = linesearch alpha is zero
  Energy initial, next-to-last, final = 
        -227.633910968     -229.598150769     -229.598150769
  Force two-norm initial, final = 35.7537 0.000142971
  Force max component initial, final = 20.6424 2.81976e-05
  Final line search alpha, max atom move = 0.5 1.40988e-05
  Iterations, force evaluations = 63 79

MPI task timing breakdown:
Section |  min time  |  avg time  |  max time  |%varavg| %total
---------------------------------------------------------------
Pair    | 0.012802   | 0.012802   | 0.012802   |   0.0 | 22.35
Kspace  | 0.013697   | 0.013697   | 0.013697   |   0.0 | 23.92
Neigh   | 0          | 0          | 0          |   0.0 |  0.00
Comm    | 0.00091577 | 0.00091577 | 0.00091577 |   0.0 |  1.60
Output  | 0.00010824 | 0.00010824 | 0.00010824 |   0.0 |  0.19
Modify  | 0          | 0          | 0          |   0.0 |  0.00
Other   |            | 0.02975    |            |       | 51.94

Nlocal:    8 ave 8 max 8 min
Histogram: 1 0 0 0 0 0 0 0 0 0
Nghost:    2189 ave 2189 max 2189 min
Histogram: 1 0 0 0 0 0 0 0 0 0
Neighs:    2344 ave 2344 max 2344 min
Histogram: 1 0 0 0 0 0 0 0 0 0

Total # of neighbors = 2344
Ave neighs/atom = 293
Neighbor list builds = 0
Dangerous builds = 0
# ---- define output variables ----
variable natoms equal "count(all)"
variable tot_energy equal "c_eatoms"
variable a11 equal "xhi-xlo"
variable a22 equal "yhi-ylo"
variable a33 equal "zhi-zlo"
variable tilt_xy equal "xy"
variable tilt_xz equal "xz"
variable tilt_yz equal "yz"
variable tot_press equal "press"
variable press_xx equal "pxx"
variable press_yy equal "pyy"
variable press_zz equal "pzz"
variable press_xy equal "pxy"
variable press_xz equal "pxz"
variable press_yz equal "pyz"

# ---- output ----
print "pypospack:output_section:begin"
pypospack:output_section:begin
print "tot_energy = ${tot_energy}"
tot_energy = -229.598150768981
print "num_atoms = ${natoms}"
num_atoms = 8
print "a11 = ${a11}"
a11 = 4.00801135974372
print "a22 = ${a22}"
a22 = 4.00801135974372
print "a33 = ${a33}"
a33 = 4.00801135974372
print "a12 = ${tilt_xy}"
a12 = 0
print "a13 = ${tilt_xz}"
a13 = 0
print "a23 = ${tilt_yz}"
a23 = 0
print "tot_press = ${tot_press}"
tot_press = 0.505538314661144
print "pxx = ${press_xx}"
pxx = 0.50553831415266
print "pyy = ${press_yy}"
pyy = 0.505538315848817
print "pzz = ${press_zz}"
pzz = 0.505538313981955
print "pxy = ${press_xy}"
pxy = 5.99832629970118e-10
print "pxz = ${press_xz}"
pxz = 2.34355945446939e-10
print "pyz = ${press_yz}"
pyz = 2.6491604209296e-10
print "pypospack:output_section:done"
pypospack:output_section:done
print "pypospack:lammps_sim:done"
pypospack:lammps_sim:done
Total wall time: 0:00:00
