LAMMPS (10 Feb 2015)
# ---- initialize simulations
clear
units metal
dimension 3
boundary p p p
atom_style charge
atom_modify map array
# ---- create atoms
read_data /Users/eugeneragasa/pyflamestk_git/pypospack/tests/tests_integration/workflow/WorkflowLammpsThermalExpansion/param_5378/MgO_NaCl_unit.npt.T700/lammps.structure
  triclinic box = (0 0 0) to (4.2565 4.2565 4.2565) with tilt (0 0 0)
  1 by 1 by 1 MPI processor grid
  reading atoms ...
  8 atoms
# ---- define interatomic potential
include potential.mod
mass 1 24.305
mass 2 15.999

group Mg type 1
4 atoms in group Mg
group O type 2
4 atoms in group O

set group Mg charge 1.67557694923
  4 settings made for charge
set group O charge -1.67557694923
  4 settings made for charge

variable R_cut equal 10.0

pair_style buck/coul/long ${R_cut}
pair_style buck/coul/long 10
pair_coeff 1 1 0.0 0.5 0.0 ${R_cut}
pair_coeff 1 1 0.0 0.5 0.0 10
pair_coeff 1 2 1405.50211521 0.282257384366 0.0 ${R_cut}
pair_coeff 1 2 1405.50211521 0.282257384366 0.0 10
pair_coeff 2 2 19860.1058829 0.143671361936 6.84969713079 ${R_cut}
pair_coeff 2 2 19860.1058829 0.143671361936 6.84969713079 10

kspace_style pppm 1.0e-5

neighbor 1.0 bin
neigh_modify every 1 delay 0 check yes
# ---- define settings
compute eng all pe/atom
compute eatoms all reduce sum c_eng
# ---- run minimization
reset_timestep 0
fix 1 all box/relax iso 0.0 vmax 0.001
thermo 10
thermo_style custom step pe lx ly lz xy xz yz press pxx pyy pzz pxy pxz pyz c_eatoms
min_style cg
minimize 1e-25 1e-25 5000 10000
PPPM initialization ...
  G vector (1/distance) = 0.352969
  grid = 8 8 8
  stencil order = 5
  estimated absolute RMS force accuracy = 4.01483e-05
  estimated relative force accuracy = 2.78815e-06
  using double precision FFTs
  3d grid and FFT values/proc = 3375 512
Neighbor list info ...
  1 neighbor list requests
  update every 1 steps, delay 0 steps, check yes
  master list distance cutoff = 11
Memory usage per processor = 4.06549 Mbytes
Step PotEng Lx Ly Lz Xy Xz Yz Press Pxx Pyy Pzz Pxy Pxz Pyz eatoms 
       0   -115.02334       4.2565       4.2565       4.2565            0            0            0    14836.064    14836.064    14836.064    14836.064 5.7083842e-11 -5.8546636e-11 3.613515e-11   -115.02334 
       4   -115.02629     4.268627     4.268627     4.268627            0            0            0   -3.7663252   -3.7663252   -3.7663252   -3.7663252 5.5364648e-11 -5.1262271e-11 1.3911233e-11   -115.02629 
Loop time of 0.007195 on 1 procs for 4 steps with 8 atoms

Minimization stats:
  Stopping criterion = linesearch alpha is zero
  Energy initial, next-to-last, final = 
        -115.023341276       -115.0262927       -115.0262927
  Force two-norm initial, final = 2.14234 0.00179672
  Force max component initial, final = 2.14234 0.000546963
  Final line search alpha, max atom move = 0.00390625 2.13657e-06
  Iterations, force evaluations = 4 21

Pair  time (%) = 0.00195646 (27.192)
Kspce time (%) = 0.00112915 (15.6936)
Neigh time (%) = 0 (0)
Comm  time (%) = 0.00022459 (3.12148)
Outpt time (%) = 0 (0)
Other time (%) = 0.00388479 (53.993)

Nlocal:    8 ave 8 max 8 min
Histogram: 1 0 0 0 0 0 0 0 0 0
Nghost:    2189 ave 2189 max 2189 min
Histogram: 1 0 0 0 0 0 0 0 0 0
Neighs:    2344 ave 2344 max 2344 min
Histogram: 1 0 0 0 0 0 0 0 0 0

Total # of neighbors = 2344
Ave neighs/atom = 293
Neighbor list builds = 0
Dangerous builds = 0
unfix 1
# ---- define output variables ----
variable natoms equal "count(all)"
variable tot_energy equal "c_eatoms"
variable length_x equal "lx"
variable length_y equal "ly"
variable length_z equal "lz"
variable tilt_xy equal "xy"
variable tilt_xz equal "xz"
variable tilt_yz equal "yz"
variable tot_press equal "press"
variable press_xx equal "pxx"
variable press_yy equal "pyy"
variable press_zz equal "pzz"
variable press_xy equal "pxy"
variable press_xz equal "pxz"
variable press_yz equal "pyz"

# ---- output ----
print "pypospack:output_section:begin"
pypospack:output_section:begin
print "tot_energy = ${tot_energy}"
tot_energy = -115.026292700229
print "num_atoms = ${natoms}"
num_atoms = 8
print "xx = ${length_x}"
xx = 4.26862697136346
print "yy = ${length_y}"
yy = 4.26862697136346
print "zz = ${length_z}"
zz = 4.26862697136346
print "xy = ${tilt_xy}"
xy = 0
print "xz = ${tilt_xz}"
xz = 0
print "yz = ${tilt_yz}"
yz = 0
print "tot_press = ${tot_press}"
tot_press = -3.7663252179344
print "pxx = ${press_xx}"
pxx = -3.76632521787482
print "pyy = ${press_yy}"
pyy = -3.76632521789834
print "pzz = ${press_zz}"
pzz = -3.76632521803003
print "pxy = ${press_xy}"
pxy = 5.53646482695888e-11
print "pxz = ${press_xz}"
pxz = -5.12622707696674e-11
print "pyz = ${press_yz}"
pyz = 1.39112332535826e-11
print "pypospack:output_section:done"
pypospack:output_section:done
print "pypospack:lammps_sim:done"
pypospack:lammps_sim:done
#------------------------------------------------------------------------------
# RUN THERMOSTAT
# running using an NPT Nose-Hoover style thermostat
#------------------------------------------------------------------------------
variable tempdamp equal 0.1
variable pressdamp equal 1.0
# set initial velocities
velocity all create 700 3642063 mom yes dist gaussian loop all
# fix for Nose-Hoover style thermostat
fix 20 all npt temp 700 700 0.1 aniso 0.0 0.0 1.0 drag 1.0 couple xyz
variable boxx equal lx
variable boxy equal ly
variable boxz equal lz
variable boxp equal press
variable boxt equal temp
# calculate averages every 10000 steps
reset_timestep 0
fix 21 all ave/time 10 10 100 v_boxx v_boxy v_boxz v_boxp v_boxt file lattice.out
thermo_style custom step temp pe ke etotal press lx ly lz press pxx pyy pzz pxy pxz pyz vol
thermo_modify flush yes
thermo 100
run 100000
PPPM initialization ...
  G vector (1/distance) = 0.352845
  grid = 8 8 8
  stencil order = 5
  estimated absolute RMS force accuracy = 4.03767e-05
  estimated relative force accuracy = 2.80401e-06
  using double precision FFTs
  3d grid and FFT values/proc = 3375 512
Memory usage per processor = 3.06549 Mbytes
Step Temp PotEng KinEng TotEng Press Lx Ly Lz Press Pxx Pyy Pzz Pxy Pxz Pyz Volume 
       0          700    -115.0263   0.63337471   -114.39292    8693.6884     4.268627     4.268627     4.268627    8693.6884    19661.075    3000.7735     3419.217   -2794.7595   -3099.8545    1158.0096    77.779404 
     100    315.26276   -114.59405   0.28525637    -114.3088     892.9808    4.2903512    4.2903512    4.2903512     892.9808    26623.087   -14398.969   -9545.1754     2834.882    15.874795   -435.86327     78.97298 
     200    316.92546     -114.421   0.28676082   -114.13424   -11460.695    4.2958433    4.2958433    4.2958433   -11460.695    8101.9397   -31432.228   -11051.796   -3397.3542    858.67111   -216.52711     79.27665 
     300    889.57918    -114.7846   0.80490993   -113.97969    10201.693    4.2762875    4.2762875    4.2762875    10201.693    19327.156   -2717.4086    13995.331    1744.1982    851.41597   -1805.5394    78.198906 
     400    658.67236   -114.47086    0.5959806   -113.87488   -3180.9655    4.3064189    4.3064189    4.3064189   -3180.9655    23454.635   -15968.531   -17029.001   -3743.6397    3116.5977   -1115.2803    79.863588 
     500    510.27958   -114.25999   0.46171169   -113.79828   -14031.848    4.2988432    4.2988432    4.2988432   -14031.848   -3593.7618   -43143.534    4641.7511   -325.05247    -6826.158   -70.034287    79.442852 
     600    790.84336   -114.47148   0.71557169   -113.75591    10915.183     4.276772     4.276772     4.276772    10915.183    12785.712   -5535.2656    25495.102    1310.0801    1506.2774   -1003.0467    78.225493 
     700    732.54971   -114.41287   0.66282637   -113.75004    -6760.017    4.3143231    4.3143231    4.3143231    -6760.017     24303.43   -24444.004   -20139.477    2064.1658    3352.2771    688.16728    80.304151 
     800     709.8732   -114.39217   0.64230819   -113.74986   -10599.069    4.2996905    4.2996905    4.2996905   -10599.069   -2588.8286    -35767.66    6559.2828    933.57374   -3720.6564   -1666.7826    79.489836 
     900     551.5428   -114.24563   0.49904752   -113.74658    12578.919    4.2772401    4.2772401    4.2772401    12578.919    25666.954   -10720.927     22790.73    1314.8178    703.42835   -724.79295    78.251178 
    1000    608.59611   -114.30431   0.55067055   -113.75364   -13290.192     4.314337     4.314337     4.314337   -13290.192    11263.747   -30510.347   -20623.975    -4336.993   -4914.8634    1217.9056    80.304926 
    1100    978.71371   -114.63341   0.88556073   -113.74785   -10182.342    4.2972771    4.2972771    4.2972771   -10182.342    2736.9029   -24428.803   -8855.1251    4285.8389    3849.6297   -1035.4099    79.356056 
    1200     546.8203   -114.24645    0.4947745   -113.75167    13502.606    4.2825212    4.2825212    4.2825212    13502.606     38808.88   -13205.934    14904.874   -1397.6874   -2067.0908    190.21224    78.541387 
    1300    474.70407   -114.18576   0.42952222   -113.75624   -18988.457      4.31375      4.31375      4.31375   -18988.457   -8121.4263   -42997.172   -5846.7742    2324.8755     5488.122   -1477.8933    80.272155 
    1400    998.21388    -114.6473   0.90320489    -113.7441   -5798.8057    4.2966112    4.2966112    4.2966112   -5798.8057    439.43497   -21005.166    3169.3137   -3063.8527    1794.4452    -2262.689     79.31917 
    1500    463.87989   -114.16956   0.41972827   -113.74983    11240.221    4.2916836    4.2916836    4.2916836    11240.221    33938.326   -19551.401    19333.738    7009.9495   -2256.3469    1503.3194    79.046581 
    1600    428.03295   -114.14265   0.38729321   -113.75536    7854.6604    4.2997203    4.2997203    4.2997203    7854.6604     24446.65   -25538.908    24656.239   -4982.7632   -6434.7314   -1265.8323    79.491485 
    1700    1045.0088   -114.69688   0.94554594   -113.75134   -14075.891    4.3043153    4.3043153    4.3043153   -14075.891   -4150.7581   -32205.818   -5871.0968    2581.5526    186.41823    -1979.887    79.746608 
    1800    772.85168   -114.45606   0.69929244   -113.75677    10096.035    4.2883618    4.2883618    4.2883618    10096.035    40287.193   -6524.9123   -3474.1772   -1002.2342    5033.1443   -2624.6903    78.863177 
    1900    315.02558   -114.05181   0.28504177   -113.76677    276.57357    4.2985406    4.2985406    4.2985406    276.57357    25949.467   -23539.178   -1580.5679    2209.1423    3506.6461    2613.7089    79.426075 
    2000     1010.967   -114.67298   0.91474423   -113.75823   -16802.298    4.3006693    4.3006693    4.3006693   -16802.298    7461.8762   -38056.256   -19812.515   -4938.0632    566.46952    3658.5731    79.544134 
    2100    1103.6774    -114.7582   0.99863046   -113.75957    -9268.163    4.2942663    4.2942663    4.2942663    -9268.163    6768.1646   -8966.5227   -25606.131    3968.8325   -385.67371    785.05874    79.189377 
    2200    691.74002   -114.39707    0.6259009   -113.77117   -6076.5851    4.2979581    4.2979581    4.2979581   -6076.5851    17154.862   -21166.009   -14218.608   -1983.1562   -6829.3125     854.4893    79.393787 
    2300    511.43679   -114.23353   0.46275876   -113.77077   -9133.1681    4.3018404    4.3018404    4.3018404   -9133.1681    18876.389   -49878.593    3602.7001    884.36185    5117.1462   -2713.6491     79.60913 
    2400    984.29389   -114.64577    0.8906098   -113.75516    6374.4524    4.2877116    4.2877116    4.2877116    6374.4524    18462.581   -1197.7357    1858.5116   -1116.0834    1277.8771   -1512.7131    78.827308 
    2500    646.20321   -114.34084   0.58469825   -113.75614   -7298.0965    4.3072326    4.3072326    4.3072326   -7298.0965    10437.921   -27998.026   -4334.1849    6180.6876    1788.2642    840.16814     79.90887 
    2600      624.611    -114.3187   0.56516116   -113.75354    5285.6548    4.2899602    4.2899602    4.2899602    5285.6548     22867.54   -35588.024    28577.448   -7100.1036   -6613.3171     750.0353    78.951392 
    2700    797.97267   -114.48086   0.72202244   -113.75884   -1191.1052    4.3000252    4.3000252    4.3000252   -1191.1052    20950.025   -27268.951    2745.6104    7249.0268    658.91942    1444.3617    79.508397 
    2800    777.13658   -114.45331   0.70316951   -113.75014    6357.5918    4.3040558    4.3040558    4.3040558    6357.5918    29379.956   -11999.652    1692.4718    -4051.546    8137.1662    595.25929    79.732189 
    2900    726.31142   -114.40194   0.65718183   -113.74476    10047.058    4.2885144    4.2885144    4.2885144    10047.058    39990.744   -26157.847    16308.275   -1942.9804    806.88154    2113.7199    78.871593 
    3000    605.92975   -114.30106   0.54825797    -113.7528   -30592.616    4.3106451    4.3106451    4.3106451   -30592.616   -26170.413   -48145.484    -17461.95   -2477.1034    2716.6131   -1178.4239    80.098947 
    3100    785.29399   -114.45809    0.7105505   -113.74754    19310.476    4.2844078    4.2844078    4.2844078    19310.476    42891.196    5469.2347    9570.9979   -1389.6094    535.51655    400.19068    78.645231 
    3200    782.89755   -114.46199   0.70838215    -113.7536    -12525.91    4.3056141    4.3056141    4.3056141    -12525.91   -14052.672   -35084.043    11558.986    -1363.618    1112.0937    -1331.115     79.81882 
    3300    477.20636   -114.18902   0.43178634   -113.75724   -10551.209    4.3001656    4.3001656    4.3001656   -10551.209   -20803.873   -32594.805    21745.052   -7439.9349    1117.0128   -2683.4344    79.516186 
    3400    462.83236   -114.16981   0.41878045   -113.75103    41590.965    4.2787122    4.2787122    4.2787122    41590.965    67132.983    3836.4931    53803.419    10082.023    14350.577   -4402.5411    78.332002 
    3500    895.88901   -114.55854   0.81061921   -113.74792   -31170.009    4.3167484    4.3167484    4.3167484   -31170.009   -33098.178   -35680.672   -24731.178   -1622.6664    14315.329   -978.94985    80.439659 
    3600    734.86023   -114.41151   0.66491698    -113.7466    20366.605    4.2784484    4.2784484    4.2784484    20366.605    34380.142    580.68253     26138.99   -1061.3939   -7368.4354   -84.381511    78.317516 
    3700    564.28376   -114.27182    0.5105758   -113.76124   -11782.155    4.3014856    4.3014856    4.3014856   -11782.155    -10692.39   -28099.344    3445.2704   -4786.1442    3559.4909     2989.661    79.589437 
    3800    815.43262   -114.49187   0.73782057   -113.75405   -25044.021    4.3019934    4.3019934    4.3019934   -25044.021    -20939.09    -29794.52   -24398.453    3344.4203    8837.3238    4280.0605    79.617625 
    3900    524.30513   -114.22462    0.4744023   -113.75022    27167.014    4.2800143    4.2800143    4.2800143    27167.014    28937.018    4148.6578    48415.366   -5519.4597    13778.057    185.25992    78.403539 
    4000    723.28001   -114.40776   0.65443896   -113.75332   -3894.9535    4.3067338    4.3067338    4.3067338   -3894.9535   -7827.8583   -33744.515    29887.513    2802.1466    1956.2487   -2468.1764    79.881109 
    4100    756.91848   -114.43559   0.68487574   -113.75071    2561.8571     4.295748     4.295748     4.295748    2561.8571    28883.746   -25690.653    4492.4788    2275.1142    8350.0766   -2944.3309    79.271374 
    4200     610.5214   -114.30279   0.55241259   -113.75038    3557.9881    4.2912687    4.2912687    4.2912687    3557.9881    18929.217   -6259.2919   -1995.9606   -626.41484    10939.227    3533.4768    79.023655 
    4300    873.74213   -114.53919   0.79058024   -113.74861    -4560.816    4.3000301    4.3000301    4.3000301    -4560.816   -860.34721   -28632.641     15810.54     4665.787   -9880.0304    772.25212    79.508667 
    4400     695.6171   -114.37844   0.62940897   -113.74903    12509.889    4.2950281    4.2950281    4.2950281    12509.889    24853.435   -27376.959    40053.191    112.06376   -482.59452    1258.9235    79.231528 
    4500    627.46585   -114.32151   0.56774428   -113.75376    -8929.571    4.2930707    4.2930707    4.2930707    -8929.571   -5534.0437   -16632.456   -4622.2136    1477.8513    16218.175    6353.1585    79.123253 
    4600    667.58029   -114.36057   0.60404067   -113.75653    -1874.556    4.2942607    4.2942607    4.2942607    -1874.556    12985.288   -18355.642   -253.31419    3288.8809    13146.369    2477.7007    79.189068 
    4700    801.74277   -114.48028    0.7254337   -113.75485   -6738.3195    4.3013271    4.3013271    4.3013271   -6738.3195    -3838.014   -34353.979    17977.034   -793.51184   -6253.3672   -1432.5969    79.580639 
    4800    685.80081   -114.37614   0.62052698   -113.75561    4426.8646    4.2887533    4.2887533    4.2887533    4426.8646   -6301.5839   -6030.6435    25612.821    -821.7399     9047.995   -717.80882    78.884777 
    4900    515.24319      -114.23   0.46620287    -113.7638   -100.08879    4.2965113    4.2965113    4.2965113   -100.08879     29012.07   -24176.312   -5136.0239    -1683.015    13117.982    1903.7589    79.313639 
    5000    825.06701   -114.50516   0.74653797   -113.75862   -4197.7589    4.2965296    4.2965296    4.2965296   -4197.7589   -3947.7926   -24303.193    15657.709    2191.7202   -10785.323   -994.88716    79.314653 
    5100    876.21729    -114.5466   0.79281981   -113.75378    6629.6451    4.2882026    4.2882026    4.2882026    6629.6451    12132.475   -1790.9848    9547.4453   -2647.9819    3924.7023    461.91734    78.854393 
    5200    391.42229    -114.1136   0.35416712   -113.75944    766.66928    4.3010732    4.3010732    4.3010732    766.66928    16182.461   -18575.088    4692.6346    3600.3289    11808.187     6939.114    79.566547 
    5300    796.13097   -114.47506   0.72035603   -113.75471   -3526.1672    4.2904639    4.2904639    4.2904639   -3526.1672   -7794.4631   -19825.083    17041.045   -1423.9357    10455.723    1778.8671    78.979202 
    5400    777.05018   -114.45968   0.70309133   -113.75659   -7444.3833    4.2951859    4.2951859    4.2951859   -7444.3833   -10401.695   -8891.7547   -3039.7003    890.95964   -18954.829   -4947.0488    79.240263 
    5500    658.75206   -114.35322   0.59605271   -113.75716    4894.3409     4.295188     4.295188     4.295188    4894.3409    23106.491   -8230.9194   -192.54866   -267.24387    4365.1511   -80.737555    79.240376 
    5600    709.68092   -114.39843   0.64213421   -113.75629   -10398.124    4.3002011    4.3002011    4.3002011   -10398.124   -4439.5766   -20832.176   -5922.6203    2531.9966    13996.934   -1273.3294    79.518158 
    5700    612.63244   -114.30739    0.5543227   -113.75307    13401.007     4.289872     4.289872     4.289872    13401.007    22753.213    -10406.82    27856.628   -5283.3862   -12542.126   -1380.4166    78.946522 
    5800    757.63388   -114.44324   0.68552306   -113.75772   -7137.3256    4.2978821    4.2978821    4.2978821   -7137.3256    -23227.82   -9682.9569      11498.8    2507.8151    5205.0025    1412.5493    79.389577 
    5900    714.68003   -114.40283   0.64665751   -113.75617   -8730.9744    4.2975883    4.2975883    4.2975883   -8730.9744    9932.6879   -9644.9582   -26480.653   -3519.0305    15442.667    6065.2601    79.373299 
    6000    687.43234   -114.37626   0.62200323   -113.75426    5631.4557    4.2944665    4.2944665    4.2944665    5631.4557     12429.15   -13334.285    17799.503    287.63243    6460.2019    2403.6433    79.200452 
    6100    817.67791   -114.49263   0.73985216   -113.75278   -5852.2024    4.2978472    4.2978472    4.2978472   -5852.2024   -16135.604   -17300.036    15879.033    6192.4989   -18383.341   -2779.7857    79.387642 
    6200    468.51933   -114.17974   0.42392613   -113.75582    25456.423    4.2882082    4.2882082    4.2882082    25456.423    55313.576    6580.2803    14475.413    -1822.948    3023.2795   -4755.7593    78.854701 
    6300    813.82615   -114.49705     0.736367   -113.76068   -25510.064    4.3044325    4.3044325    4.3044325   -25510.064   -14127.725   -27169.238   -35233.229     -1279.11    16884.426     7235.996    79.753126 
    6400     972.8039   -114.63587   0.88021341   -113.75565    883.62339    4.2879979    4.2879979    4.2879979    883.62339    9424.6236   -4843.2633   -1930.4901   -2040.2845   -2322.4037    1361.5165    78.843098 
    6500    514.63942   -114.22833   0.46565656   -113.76267    5633.5382    4.2966909    4.2966909    4.2966909    5633.5382     12242.99   -7342.4783    12000.103   -184.69621   -11534.491    417.75207    79.323587 
    6600    618.84717   -114.32185   0.55994592   -113.76191   -3517.8463    4.2968357    4.2968357    4.2968357   -3517.8463   -2329.5094   -16539.214    8315.1839    2444.9367    8724.6201    7745.5334    79.331604 
    6700      971.166   -114.63793   0.87873141    -113.7592   -6514.6724    4.2909857    4.2909857    4.2909857   -6514.6724    12615.547   -15102.028   -17057.537    3900.9315    5339.2202    7224.5788    79.008026 
    6800    637.82185    -114.3376   0.57711461   -113.76049    14607.862    4.2944885    4.2944885    4.2944885    14607.862    45228.252   -4699.3508    3294.6842   -3371.8267   -13459.356   -485.20757    79.201667 
    6900    673.81681    -114.3718   0.60968361   -113.76212   -19749.704    4.3038776    4.3038776    4.3038776   -19749.704   -16711.868   -20139.603   -22397.641     184.8397    10504.978   -1379.3926    79.722285 
    7000    607.84959   -114.30794   0.54999509   -113.75795    11079.202     4.285008     4.285008     4.285008    11079.202    17352.537   -6230.0724    22115.141   -3136.3482    13384.502    6861.2003    78.678289 
    7100    676.85422   -114.37402   0.61243192   -113.76158    4311.4022    4.2966199    4.2966199    4.2966199    4311.4022    22470.078   -15642.021    6106.1499    2312.8989   -11566.922     -2410.45    79.319655 
    7200    787.86743   -114.47299   0.71287901   -113.76012   -13089.442    4.2993413    4.2993413    4.2993413   -13089.442   -6682.4558   -13058.471   -19527.399    3600.6524   -15943.628   -728.93471    79.470466 
    7300    600.03201   -114.30088   0.54292157   -113.75796    9772.2352    4.2855115    4.2855115    4.2855115    9772.2352    40505.579   -1756.8078   -9432.0659    186.91335    15048.102    11235.345    78.706027 
    7400    537.35951   -114.24404   0.48621417   -113.75783    -10270.41    4.3050207    4.3050207    4.3050207    -10270.41   -7755.9167   -28921.058    5865.7453     2206.151    10843.938    6266.0551    79.785824 
    7500    939.36192   -114.60023   0.84995441   -113.75027   -580.98469     4.288992     4.288992     4.288992   -580.98469   -11018.988   -8726.9322    18002.966   -6251.3386   -11364.893    355.26469    78.897949 
    7600    482.25341    -114.1975   0.43635302   -113.76115    4271.6844    4.2929683    4.2929683    4.2929683    4271.6844    24453.405   -3064.0797   -8574.2718    3330.9973    96.051948    924.74267    79.117591 
    7700    588.50183   -114.29413   0.53248882   -113.76164   -13847.073    4.2992346    4.2992346    4.2992346   -13847.073    15656.529   -24313.622   -32884.127    -2461.995    15234.433    6870.9764     79.46455 
    7800     971.5186   -114.63616   0.87905045   -113.75711   -6679.7101    4.2935243    4.2935243    4.2935243   -6679.7101    -10974.82   -10721.138    1656.8273    3186.7737   -3857.6624   -1982.0084    79.148331 
    7900    651.11269   -114.34564   0.58914045    -113.7565    19875.332    4.2927552    4.2927552    4.2927552    19875.332     55295.06   -8153.0911    12484.026    -169.1838   -4804.1244   -1014.6153    79.105806 
    8000    422.93094   -114.14557    0.3826768   -113.76289   -10179.278    4.2985273    4.2985273    4.2985273   -10179.278   -2217.4165   -23922.037   -4398.3792    8.0457887    10543.644    11208.286     79.42534 
    8100    787.07867   -114.47295   0.71216532   -113.76079    2237.9878    4.2885998    4.2885998    4.2885998    2237.9878   -4188.0191    -2742.288     13644.27   -2228.8763    12441.419    3982.5146    78.876307 
    8200    857.46359   -114.53584   0.77585107   -113.75999    1217.3638    4.3019053    4.3019053    4.3019053    1217.3638    29536.986   -19625.428   -6259.4666    1532.8597   -9871.8097   -685.89359    79.612735 
    8300     793.1987   -114.47609   0.71770285   -113.75839     8031.377    4.2854277    4.2854277    4.2854277     8031.377    33510.677   -3174.6678   -6241.8783    1113.8103     4264.563    3353.7231     78.70141 
    8400    554.31892   -114.26754   0.50155941   -113.76598    -5756.693    4.2968242    4.2968242    4.2968242    -5756.693   -11128.689   -2777.7464   -3363.6434   -659.69831    14810.445    3687.6869    79.330968 
    8500    624.49542   -114.32499   0.56505658   -113.75993   -680.28637    4.3029584    4.3029584    4.3029584   -680.28637    22297.015   -22739.382    -1598.492   -8867.4295   -2516.9876   -2367.8128    79.671218 
    8600    748.08661   -114.43038   0.67688449    -113.7535     25873.45    4.2809488    4.2809488    4.2809488     25873.45    46882.906   -2750.9506    33488.395    903.58381   -1955.3904    761.86988    78.454905 
    8700    736.61086   -114.42734   0.66650099   -113.76084   -24070.936    4.2999939    4.2999939    4.2999939   -24070.936    -17943.05   -17269.687   -37000.071    1222.4013    21918.111    9993.5931    79.506664 
    8800    516.29429   -114.22471   0.46715393   -113.75755    8856.5727    4.2932336    4.2932336    4.2932336    8856.5727    51486.614   -8900.0764    -16016.82   -4400.5009    8080.9406    3050.2038    79.132258 
    8900    946.84898   -114.61153   0.85672885    -113.7548   -2031.8834    4.2939658    4.2939658    4.2939658   -2031.8834     13819.45   -19481.274     -433.826    2500.9222   -8004.9333   -1767.2516    79.172751 
    9000     801.8388   -114.48021   0.72552059   -113.75468    1989.0242    4.2916054    4.2916054    4.2916054    1989.0242    13727.406   -6486.9208   -1273.4127   -1981.8407    4025.3051    6658.5783    79.042258 
    9100    370.23092   -114.09414   0.33499272   -113.75915    380.41744     4.300076     4.300076     4.300076    380.41744    10011.879   -14645.831    5775.2036   -3113.6357    14117.712    4575.1526    79.511216 
    9200    798.65682   -114.47387   0.72264148   -113.75123    69.549184    4.2929038    4.2929038    4.2929038    69.549184    2487.0424   -16948.583    14670.188   -11940.753     5315.298   -6385.6246    79.114021 
    9300    847.27762   -114.51823    0.7666346   -113.75159    9617.6945    4.2890118    4.2890118    4.2890118    9617.6945    32256.415    233.22724   -3636.5586    6605.2337   -10342.589    3995.2833    78.899039 
    9400    563.73535   -114.26573   0.51007959   -113.75565    -6788.293    4.3016365    4.3016365    4.3016365    -6788.293    28612.887   -20020.121   -28957.645   -7738.8387    8738.6587    9378.9947    79.597809 
    9500    780.28158   -114.46233   0.70601517   -113.75631    1469.7699    4.2902629    4.2902629    4.2902629    1469.7699    20986.606   -12496.775   -4080.5216   -491.97998    5435.0085    605.37383    78.968107 
    9600    813.67626    -114.4955   0.73623138   -113.75927    2319.1825    4.2930682    4.2930682    4.2930682    2319.1825    7249.5889   -10118.632     9826.591   -2992.6396   -2815.6628    3389.5098    79.123113 
    9700     469.2874   -114.18471    0.4246211   -113.76009    6747.0427    4.2990012    4.2990012    4.2990012    6747.0427    37402.392   -26064.996     8903.732    4394.0418   -373.20403     8071.168    79.451607 
    9800    744.37789   -114.43006   0.67352876   -113.75654   -1645.8018    4.2918521    4.2918521    4.2918521   -1645.8018    2399.5213   -13712.371    6375.4448   -15413.585    6406.1897    5417.1419     79.05589 
    9900    720.90773   -114.40942   0.65229246   -113.75713   -6162.9857    4.2930034    4.2930034    4.2930034   -6162.9857    5466.4519   -24606.022    650.61337    2493.5722   -3669.0261   -4752.3472    79.119529 
   10000    614.35975   -114.31303   0.55588561   -113.75714    -10198.68    4.2978518    4.2978518    4.2978518    -10198.68    15495.612   -21864.651       -24227    1448.6158   -4043.6255     9382.446    79.387901 
   10100    858.27235   -114.53062   0.77658286   -113.75404   -11377.233    4.2932283    4.2932283    4.2932283   -11377.233   -1575.1611   -26714.803   -5841.7338   -4918.6746    2565.5904      4335.84    79.131967 
   10200     795.0349   -114.47452   0.71936428   -113.75516    5917.6475    4.2876213    4.2876213    4.2876213    5917.6475    23956.863   -13814.779    7610.8588    -10848.74     2012.194   -6736.4118    78.822328 
   10300    463.43171    -114.1821   0.41932275   -113.76277     2676.954     4.302256     4.302256     4.302256     2676.954    31539.923   -30903.298    7394.2371    865.63808    966.40946   -394.01424    79.632207 
   10400    877.17597   -114.55398   0.79368725   -113.76029    -651.9934    4.2886975    4.2886975    4.2886975    -651.9934    3407.5686   -15233.543     9869.994    334.56978   -7277.5466    5282.4386    78.881694 
   10500    915.43798   -114.58951   0.82830752   -113.76121    12052.454    4.2867047    4.2867047    4.2867047    12052.454    30647.531     -14170.1    19679.933   -8308.9435   -1803.1836    3669.1195    78.771786 
   10600    663.52925    -114.3584   0.60037521   -113.75802   -32918.579    4.3119474    4.3119474    4.3119474   -32918.579   -23493.672   -39719.631   -35542.433   -1174.5619   -3564.5446   -2905.2069    80.171563 
   10700    718.66405   -114.40194   0.65026234   -113.75168    18619.995    4.2717181    4.2717181    4.2717181    18619.995    25916.694     14277.67    15665.622     14618.38   -7251.0215     811.9408    77.948496 
   10800    822.27848   -114.50886   0.74401484   -113.76485   -6870.9166    4.3002994    4.3002994    4.3002994   -6870.9166    459.92916   -22853.388    1780.7094   -9503.6872   -2071.7145   -3015.2749     79.52361 
   10900    643.40711   -114.33786   0.58216828   -113.75569    7877.1441    4.3004526    4.3004526    4.3004526    7877.1441    23005.042   -10436.579    11062.969   -4115.0858    6655.0438   -3887.5241    79.532109 
   11000    720.06428   -114.40087    0.6515293   -113.74934    4502.4868    4.2843017    4.2843017    4.2843017    4502.4868    20584.556   -6358.9208   -718.17476    4876.3369   -8247.4184   -4550.4017    78.639393 
   11100    579.02416    -114.2748   0.52391323   -113.75088   -18811.623    4.3039448    4.3039448    4.3039448   -18811.623    -4861.359   -25622.341    -25951.17    1635.2163   -17538.583    7529.3355    79.726018 
   11200    876.59251   -114.53668   0.79315932   -113.74352    15129.955    4.2833208    4.2833208    4.2833208    15129.955    49461.457    1353.0405   -5424.6326     -7390.15    1506.6057    59.953404     78.58539 
   11300    731.71289   -114.41337    0.6620692    -113.7513   -27878.332    4.3083668    4.3083668    4.3083668   -27878.332   -12215.047   -33066.938   -38353.012    7936.9436    504.30961   -891.06941    79.972008 
   11400    495.65333   -114.20978   0.44847755   -113.76131   -5606.7857    4.2822778    4.2822778    4.2822778   -5606.7857   -1084.0544   -848.64125   -14887.661    10658.975   -9829.1205    3374.1996    78.527998 
   11500     469.8249   -114.19325   0.42510744   -113.76814    28975.768    4.2863012    4.2863012    4.2863012    28975.768    65847.316    8228.7834    12851.203   -9952.9715   -11921.309    44.315802    78.749545 
   11600    846.05706   -114.51389    0.7655302   -113.74836   -23150.223    4.3171368    4.3171368    4.3171368   -23150.223    -8896.957   -40379.793    -20173.92    4284.5859   -604.90119   -2366.6662     80.46137 
   11700    503.83729   -114.19462   0.45588257   -113.73874    49552.175    4.2541616    4.2541616    4.2541616    49552.175     68640.17    42036.132    37980.222    9852.9922   -15973.419   -1538.4269    76.991351 
   11800    532.76434   -114.25135   0.48205637    -113.7693   -30316.686    4.3105375    4.3105375    4.3105375   -30316.686   -34711.289   -18395.494   -37843.273    960.10754   -9345.3105    3456.9264    80.092946 
   11900    884.71333   -114.55642   0.80050721   -113.75591   -11443.767    4.2988749    4.2988749    4.2988749   -11443.767     8941.483   -12731.211   -30541.573    262.79594    12504.306     259.3227    79.444609 
   12000    804.14591   -114.45914   0.72760812   -113.73153     38022.94    4.2551981    4.2551981    4.2551981     38022.94    41452.737    27349.869    45266.215    11645.157   -4563.7961    1076.6251    77.047642 
   12100    428.46207   -114.12942   0.38768149   -113.74174   -46252.996    4.3196472    4.3196472    4.3196472   -46252.996   -60232.324   -39073.779   -39452.883    8414.3833   -25112.604    6394.9239    80.601818 
   12200    709.19942   -114.38624   0.64169854   -113.74454    19730.644    4.2768028    4.2768028    4.2768028    19730.644    31367.311    8000.2841    19824.337    -6932.322   -4738.1003    10171.455    78.227178 
   12300    967.22048   -114.62081   0.87516142   -113.74565    7752.9548      4.28018      4.28018      4.28018    7752.9548    13719.753    -30.46969    9569.5806    11183.152    7126.7945   -2906.0943    78.412643 
   12400     621.9739   -114.31262   0.56277505   -113.74984   -20805.199    4.3024676    4.3024676    4.3024676   -20805.199   -1648.9044   -29458.622   -31308.071    4082.1322   -13313.225   -1416.5203    79.643954 
   12500    638.89466   -114.32808   0.57808531   -113.74999    21334.677    4.2747841    4.2747841    4.2747841    21334.677    26694.348    22415.527    14894.158   -1945.0093   -20649.674     5597.061    78.116459 
   12600    934.81364   -114.59678   0.84583903   -113.75095   -8445.5112    4.2967829    4.2967829    4.2967829   -8445.5112   -11392.131   -19711.283    5766.8799   -1639.1817    14124.212   -1026.3089    79.328681 
   12700     645.5855   -114.33683   0.58413933   -113.75269    17421.416    4.2834206    4.2834206    4.2834206    17421.416    16701.173   -5215.1741    40778.251    5726.5638   -1496.8839   -2372.5153    78.590882 
   12800    618.76236   -114.31801   0.55986919   -113.75814   -10499.587    4.2917425    4.2917425    4.2917425   -10499.587   -24873.048   -264.29341   -6361.4206    4921.7879   -19677.857    2420.5902    79.049834 
   12900    782.18831   -114.46078   0.70774042   -113.75304   -4365.9906    4.2915789    4.2915789    4.2915789   -4365.9906    3577.3592   -5352.2482   -11323.083   -3231.7449   -14530.553    9895.7088    79.040797 
   13000    827.93539   -114.49974   0.74913334   -113.75061    16332.159    4.2785692    4.2785692    4.2785692    16332.159    6424.1962   -5118.9147    47691.194    8182.1108    5976.2267   -6564.2327    78.324146 
   13100    412.47847   -114.12967   0.37321919   -113.75645   -22651.057    4.3041447    4.3041447    4.3041447   -22651.057   -43470.636   -27670.465    3187.9305    688.78023       -19776   -144.80782     79.73713 
   13200    637.62769   -114.32872   0.57693894   -113.75178    10983.267    4.2771131    4.2771131    4.2771131    10983.267    10865.368    10683.088    11401.346   -3387.7735   -18277.053    4537.8435    78.244207 
   13300    904.25226   -114.57333   0.81818645   -113.75515    1028.9416    4.2899374    4.2899374    4.2899374    1028.9416   -3039.3868   -19452.495    25578.707    3513.1779    5885.3682    2817.2164    78.950135 
   13400    634.54703    -114.3314   0.57415148   -113.75724   -13305.367    4.2960564    4.2960564    4.2960564   -13305.367   -12816.706   -22100.382   -4999.0118    2056.9361     -4997.77   -5587.6914     79.28845 
   13500    493.02511   -114.19867   0.44609948   -113.75257    22272.562     4.274143     4.274143     4.274143    22272.562   -3990.4899    17866.035     52942.14    516.93472   -27437.141    2318.2597    78.081319 
   13600    739.75956   -114.42104      0.66935   -113.75169    -9199.206    4.3015158    4.3015158    4.3015158    -9199.206    2895.0349   -23483.561   -7009.0916    -333.7434   -2221.9538    6855.4047    79.591108 
   13700    937.42298   -114.59782   0.84820001   -113.74962    11338.415    4.2765705    4.2765705    4.2765705    11338.415    6521.8982    6212.5797    21280.766     6990.409    1300.3347    2467.0713    78.214436 
   13800    588.34586   -114.29415    0.5323477   -113.76181   -4973.1894    4.2892103    4.2892103    4.2892103   -4973.1894   -6724.7907   -3494.2597   -4700.5177   -2628.8474   -17165.736   -3498.8457    78.909998 
   13900    639.36906   -114.33289   0.57851456   -113.75438   -8988.4341    4.2974369    4.2974369    4.2974369   -8988.4341   -19333.047   -9888.4039    2256.1488   -59.314131   -17240.252      2026.16    79.364909 
   14000    812.95787   -114.48172   0.73558136   -113.74614    22773.999    4.2733821    4.2733821    4.2733821    22773.999    11452.584    13961.181    42908.233    4032.0943    13100.687    4036.0173    78.039628 
   14100    677.32695   -114.36469   0.61285965   -113.75183   -21919.276    4.3014111    4.3014111    4.3014111   -21919.276   -26177.789   -20181.605   -19398.433    323.40411   -8618.1999   -3959.8806    79.585301 
   14200    851.22881   -114.51895   0.77020972   -113.74874   -276.63837    4.2835327    4.2835327    4.2835327   -276.63837   -15903.673    11528.255    3545.5036    -199.7264   -23434.188    2451.3289    78.597055 
   14300    717.92213    -114.4005   0.64959103   -113.75091    3782.7673    4.2853636    4.2853636    4.2853636    3782.7673    6755.9914   -3773.0243    8365.3347    4184.3538    9265.5356    3698.4701    78.697879 
   14400    604.92199   -114.29842   0.54734613   -113.75107   -16719.774    4.2977869    4.2977869    4.2977869   -16719.774   -38177.493   -26096.738    14114.907    5626.1661     6982.915    6726.2293    79.384304 
   14500    736.14047   -114.41356   0.66607537   -113.74749    16384.171    4.2778742    4.2778742    4.2778742    16384.171    14632.208    6415.3845     28104.92   -6536.9475    -18598.87   -1646.8696    78.285987 
   14600    851.07207   -114.52142   0.77006789   -113.75136   -14300.665     4.293328     4.293328     4.293328   -14300.665   -13894.817   -6013.8816   -22993.295    1908.7793   -4971.8514    1950.5185    79.137479 
   14700    560.03492   -114.26241   0.50673136   -113.75568   -7041.6302    4.2870916    4.2870916    4.2870916   -7041.6302   -3332.2451    -17357.39   -435.25605     4909.608    18919.199    3596.4262    78.793116 
   14800    666.64666   -114.35819   0.60319591     -113.755      3501.02    4.2878538    4.2878538    4.2878538      3501.02   -9090.0305   -4279.2559    23872.346   -6539.5465    4071.3524    5713.5809    78.835151 
   14900     892.2463   -114.55637    0.8073232   -113.74905    7969.1024    4.2895096    4.2895096    4.2895096    7969.1024    -2266.015    3688.1994    22485.123    4469.0336   -16025.202    -4934.882    78.926515 
   15000     452.1431   -114.16427   0.40910858   -113.75516    6814.0629    4.2859364    4.2859364    4.2859364    6814.0629    4362.9708   -2679.9002    18759.118    4255.1582    6836.6709    4416.8572    78.729443 
   15100    600.85555   -114.30051   0.54366673   -113.75684   -22715.869    4.2923805    4.2923805    4.2923805   -22715.869   -36805.656   -14142.174   -17199.779   -518.70683    20487.245    -62.48449    79.085097 
   15200    1012.5656     -114.665   0.91619065    -113.7488    11021.322    4.2817626    4.2817626    4.2817626    11021.322    15254.744    367.84437    17441.379   -3031.3232       436.81   -282.50016    78.499658 
   15300    737.74359   -114.42189    0.6675259   -113.75436   -10544.328    4.2976327    4.2976327    4.2976327   -10544.328   -26584.945   -27304.282    22256.243    3181.0413    662.41532   -4443.4934    79.375759 
   15400    332.83659   -114.06014   0.30115754   -113.75898   -419.11579    4.2862547    4.2862547    4.2862547   -419.11579   -20481.804   -8541.6008    27766.058    4199.7991    22928.114    5194.5785    78.746984 
   15500    898.00178   -114.56632   0.81253088   -113.75379    3821.9947    4.2836128    4.2836128    4.2836128    3821.9947   -12569.968    8461.4277    15574.524   -4390.8795    14789.532    6513.7631    78.601461 
   15600    996.74833   -114.65273   0.90187883   -113.75085    -8944.761     4.299589     4.299589     4.299589    -8944.761   -11044.691   -7074.0332   -8715.5585    3031.6762   -9799.1074   -5981.7374    79.484202 
   15700     561.7093   -114.26141   0.50824638   -113.75317    4299.1041    4.2831977    4.2831977    4.2831977    4299.1041   -18511.784    14133.876    17275.219    5067.1758     12673.39   -3313.9793    78.578614 
   15800    635.36452   -114.32751   0.57489117   -113.75262    41.191074    4.2923186    4.2923186    4.2923186    41.191074   -17563.835    -3534.125    21221.533    283.93627    10186.414   -1370.3288    79.081671 
   15900    855.12609   -114.51859   0.77373606   -113.74486    6133.5764    4.2921991    4.2921991    4.2921991    6133.5764   -2811.1442   -5714.4279    26926.301   -741.85953   -10928.918   -2241.5078    79.075069 
   16000    791.24647    -114.4645   0.71593643   -113.74856    1205.2234    4.2786756    4.2786756    4.2786756    1205.2234   -3708.7693   -2727.0123    10051.452    760.30542    6595.0793   -695.29059    78.329991 
   16100    561.20056    -114.2622   0.50778606   -113.75441   -17504.345    4.2980443    4.2980443    4.2980443   -17504.345    -3715.064   -17515.275   -31282.695   -9.4301739    16656.429    9312.6854    79.398568 
   16200    896.42464   -114.55925   0.81110386   -113.74814    2355.7594    4.2872353    4.2872353    4.2872353    2355.7594   -15257.421    4484.5734    17840.126    1215.7222   -3792.9062   -1716.0525    78.801044 
   16300    485.22421   -114.19074   0.43904106    -113.7517    18314.701    4.2854788    4.2854788    4.2854788    18314.701    13376.543    10519.402    31048.158   -1432.6669   -15006.834   -10026.222    78.704225 
   16400    573.38512   -114.27153   0.51881091   -113.75272   -7962.1539    4.2944305    4.2944305    4.2944305   -7962.1539   -26630.702   -6652.1907    9396.4313    5708.9423    19518.146   -5391.3524     79.19846 
   16500    672.74256   -114.35964   0.60871161   -113.75093    4561.1539    4.2850576    4.2850576    4.2850576    4561.1539    1384.5611    24307.729   -12008.829    1833.7449    5693.5379    5200.6241     78.68102 
   16600    646.97186   -114.33768   0.58539374   -113.75229   -7033.3183    4.2904148    4.2904148    4.2904148   -7033.3183    -23032.51    15738.049   -13805.494    1302.9639   -27784.299   -1025.6203    78.976494 
   16700     469.1902   -114.17658   0.42453315   -113.75205   -8030.9953    4.2957437    4.2957437    4.2957437   -8030.9953   -28123.675   -10306.475    14337.164     4488.209    5848.2572    3647.0654    79.271138 
   16800    637.84947   -114.32431   0.57713961   -113.74717    12985.757    4.2802758    4.2802758    4.2802758    12985.757   -2843.5274    14785.891    27014.907    2712.4169    10296.433    2385.3227    78.417911 
   16900    736.71376   -114.41733   0.66659409   -113.75073   -17244.171    4.2954669    4.2954669    4.2954669   -17244.171   -25979.355   -5686.3957   -20066.762   -2526.3295   -21900.211   -1078.2878    79.255814 
   17000    640.76197   -114.33136    0.5797749   -113.75158    -18952.51    4.2939225    4.2939225    4.2939225    -18952.51   -28470.577   -12620.614    -15766.34    5096.7853   -9335.3372   -8096.7398    79.170356 
   17100    788.73766   -114.45912   0.71366641   -113.74546    26119.065    4.2709027    4.2709027    4.2709027    26119.065    11133.694    10983.468    56240.032    4745.6377    14860.932   -3974.1013    77.903869 
   17200    611.73793   -114.30564   0.55351334   -113.75212   -12962.137    4.3033074    4.3033074    4.3033074   -12962.137   -28747.736   -8335.9791   -1802.6958   -3593.2459   -13389.074    5345.1928    79.690603 
   17300    646.16509   -114.33933   0.58466375   -113.75467   -2690.4194    4.2818275    4.2818275    4.2818275   -2690.4194   -19751.531    15435.016    -3754.743     542.5946   -30558.571    1549.1827    78.503224 
   17400     789.5407   -114.46724   0.71439302   -113.75285     21763.24    4.2764284    4.2764284    4.2764284     21763.24    23267.236    12221.616    29800.868    10040.721    9572.1449   -6374.8859     78.20664 
   17500    803.43936   -114.47427   0.72696882    -113.7473    -26366.25    4.3069935    4.3069935    4.3069935    -26366.25    -44168.74   -17803.366   -17126.645    2439.4027   -4111.9984    1527.5373     79.89556 
   17600    405.32524   -114.11344   0.36674679   -113.74669    27562.407    4.2694607    4.2694607    4.2694607    27562.407     15650.25    34631.835    32405.137   -2948.9803   -28700.843   -3046.4572    77.824988 
   17700    795.53976   -114.47366   0.71982109   -113.75384   -10427.215    4.2935343    4.2935343    4.2935343   -10427.215   -30309.285   -26968.931    25996.571     12962.77    -2060.353    1732.6029    79.148885 
   17800    934.57669   -114.59192   0.84562463    -113.7463   -7163.3462    4.2931593    4.2931593    4.2931593   -7163.3462   -7905.4026   -14580.843    996.20686    8370.2124    4782.8749   -2679.1797    79.128152 
   17900    707.52961   -114.38672   0.64018766   -113.74653    6278.8187    4.2752039    4.2752039    4.2752039    6278.8187   -9245.8865    16848.403     11233.94   -4492.7009   -26907.651    3131.9569    78.139476 
   18000    624.32818    -114.3148   0.56490526    -113.7499   -24857.961    4.2998788    4.2998788    4.2998788   -24857.961   -48839.645   -32310.965    6576.7273    10974.824   -14881.017     1450.304    79.500278 
   18100    834.73357   -114.50244   0.75528447   -113.74715    21046.954    4.2748442    4.2748442    4.2748442    21046.954    5834.7456   -5058.1133     62364.23    13471.074    4015.7637   -1482.8235    78.119755 
   18200     848.9692   -114.52228   0.76816517   -113.75411   -8292.7966    4.2908937    4.2908937    4.2908937   -8292.7966   -25379.902    4911.9512   -4410.4391   -3654.0981   -20105.982   -2231.6062    79.002942 
   18300    589.57039    -114.2891   0.53345568   -113.75565    -17574.96    4.2919401    4.2919401    4.2919401    -17574.96   -33536.172   -2924.8981   -16263.809    4721.2513   -23241.932   -4631.4605    79.060753 
   18400    754.45659   -114.43174   0.68264817    -113.7491    14702.989    4.2713326    4.2713326    4.2713326    14702.989    -8749.759    15117.828    37740.897    14535.786    11954.111    3661.6597    77.927398 
   18500    727.81932   -114.40789   0.65854622   -113.74935   -10072.577    4.3025872    4.3025872    4.3025872   -10072.577   -28251.575   -13013.651    11047.494    -2526.049   -3140.9851   -451.69915    79.650599 
   18600    840.60734   -114.51115   0.76059919   -113.75055    9347.0964    4.2750952    4.2750952    4.2750952    9347.0964   -11520.872    23215.904    16346.257    3044.0587   -24964.284    6809.0133    78.133515 
   18700    520.36535   -114.22817   0.47083751   -113.75733   -1548.0477    4.2836452    4.2836452    4.2836452   -1548.0477   -14739.676   -10088.764    20184.297    21618.002   -464.76921   -3328.8536    78.603248 
   18800    839.58964    -114.5094   0.75967835   -113.74972   -18174.621    4.2952091    4.2952091    4.2952091   -18174.621   -24233.653   -24251.427   -6038.7819     3907.376    4642.4743    4704.0235    79.241544 
   18900    941.14533   -114.59643   0.85156807   -113.74486    21754.316    4.2734483    4.2734483    4.2734483    21754.316    24569.995    20693.649    19999.304   -7805.9451   -6095.6861   -5443.4003    78.043251 
   19000    655.96626   -114.34529   0.59353206   -113.75176   -16324.932    4.2953336    4.2953336    4.2953336   -16324.932   -30725.232   -19761.435    1511.8718    23469.448   -11183.749   -2621.1635    79.248436 
   19100    629.42639   -114.32304   0.56951822   -113.75352    6214.6156     4.279301     4.279301     4.279301    6214.6156   -20996.189   -3244.6615    42884.697    12726.372    12401.041   -1704.8025    78.364346 
   19200    822.14733   -114.49779   0.74389618    -113.7539    12054.904    4.2845762    4.2845762    4.2845762    12054.904    7694.6076    5713.8687    22756.237    -15038.15    6020.0012    2425.6339    78.654506 
   19300    878.03371   -114.54811   0.79446335   -113.75364   -14126.758    4.2902644    4.2902644    4.2902644   -14126.758   -28176.145   -11218.713    -2985.416    13798.262   -7223.9227    5377.2029    78.968187 
   19400    649.84144   -114.34164   0.58799019   -113.75365    3860.4406    4.2767792    4.2767792    4.2767792    3860.4406     1088.878    -6803.169    17295.613    26793.581   -7722.4502   -3464.6807    78.225885 
   19500    775.85244    -114.4555   0.70200759   -113.75349   -9370.9676     4.292768     4.292768     4.292768   -9370.9676   -20861.704   -11043.945    3792.7462   -12500.025    12675.905    5416.1243    79.106516 
   19600    818.52209   -114.49258   0.74061599   -113.75196    4148.1954     4.280324     4.280324     4.280324    4148.1954   -2740.4447    1020.6261    14164.405    1767.8053    15611.988   -7800.8993    78.420559 
   19700      508.608   -114.21646    0.4601992   -113.75626    7223.6056    4.2848504    4.2848504    4.2848504    7223.6056     4189.569   -22639.549    40120.797    25881.449   -11098.298   -1465.2267    78.669607 
   19800    797.77689   -114.47444   0.72184529   -113.75259   -7259.1438    4.2895749    4.2895749    4.2895749   -7259.1438   -19801.725   -13982.669    12006.963     1551.716    2296.2781   -5494.5112    78.930123 
   19900    734.68385   -114.41591   0.66475739   -113.75115    16057.244    4.2766127    4.2766127    4.2766127    16057.244    19035.399     12618.99    16517.343   -9285.5254     14455.19    2233.7206    78.216752 
   20000    608.57927   -114.30348   0.55065531   -113.75283   -24328.117    4.2987332    4.2987332    4.2987332   -24328.117   -37451.507    -34472.76   -1060.0857    25066.325    8430.2832     146.4448    79.436752 
   20100    713.54111   -114.39571   0.64562699   -113.75008    11779.925    4.2763266    4.2763266    4.2763266    11779.925    6948.2703   -5551.1774    33942.683    14978.963   -15267.666    5122.2562    78.201052 
   20200    617.34525   -114.31353   0.55858696   -113.75494     8867.192    4.2834289    4.2834289    4.2834289     8867.192   -416.80763   -4467.5526    31485.936   -7916.2227    2558.6168    1998.3637    78.591339 
   20300    441.64418    -114.1533   0.39960894   -113.75369   -21190.695    4.2991297    4.2991297    4.2991297   -21190.695   -33030.134    -38126.73    7584.7779    13722.756    16296.543   -1269.2163    79.458732 
   20400    754.83186   -114.42785   0.68298773   -113.74486    14006.731    4.2719694    4.2719694    4.2719694    14006.731    25143.101   -6482.0957    23359.189    15063.449   -2177.5617   -2632.9334    77.962258 
   20500    868.25852   -114.53325   0.78561855   -113.74763   -19914.207    4.2957587    4.2957587    4.2957587   -19914.207   -19343.884   -21012.284   -19386.453   -7737.3985   -7999.4834   -3061.4083    79.271969 
   20600    534.38337   -114.23616   0.48352131   -113.75264   -3348.2419    4.2830865    4.2830865    4.2830865   -3348.2419   -4121.3342   -12804.695    6881.3031    4468.4823    15085.394   -1005.6479    78.572493 
   20700     545.0063   -114.24766   0.49313315   -113.75453    7713.5881    4.2827857    4.2827857    4.2827857    7713.5881    6513.9076   -19735.571    36362.428    17326.491    3990.7307    -1347.231    78.555941 
   20800    708.80328   -114.38981    0.6413401   -113.74847    -1661.498    4.2940521    4.2940521    4.2940521    -1661.498   -2071.4913   -16139.493     13226.49    1317.0547   -23488.325    3766.8843    79.177529 
   20900    690.57735   -114.37342    0.6248489   -113.74858    6570.4119    4.2749596    4.2749596    4.2749596    6570.4119    1677.5788    10527.676    7505.9806    692.91183    -1734.673    4897.5816    78.126079 
   21000    589.21845   -114.28689   0.53313724   -113.75375   -26712.849    4.2953517    4.2953517    4.2953517   -26712.849   -39997.383   -17783.942   -22357.221    17829.604    30283.518    1601.5272    79.249438 
   21100    813.00263   -114.48462   0.73562186     -113.749    3446.2125    4.2840521    4.2840521    4.2840521    3446.2125   -6660.5567    2606.4047     14392.79    3754.5375   -7546.3518   -965.45777    78.625647 
   21200    655.74395   -114.34223    0.5933309    -113.7489    13275.085    4.2830282    4.2830282    4.2830282    13275.085     4240.099    10825.561    24759.594   -2918.7476   -21804.589   -5695.9327    78.569286 
   21300     443.1638   -114.15435   0.40098392   -113.75336   -2170.8863    4.2928748    4.2928748    4.2928748   -2170.8863   -20335.019   -7808.1093    21630.469    10954.621    14203.993   -1508.5218    79.112422 
   21400    782.04548    -114.4568   0.70761119   -113.74919    6722.2415    4.2832502    4.2832502    4.2832502    6722.2415    3483.6631    2959.7488    13723.312    3768.0631    10504.697   -4099.7418    78.581505 
   21500    1038.5469   -114.68693   0.93969903   -113.74723   -456.29474    4.2872784    4.2872784    4.2872784   -456.29474    725.65878    7575.2318   -9669.7748   -1922.9908   -17335.571   -1543.5257    78.803419 
   21600    754.70873   -114.43411   0.68287632   -113.75124   -1726.1114     4.286202     4.286202     4.286202   -1726.1114   -14051.252    3770.0507    5102.8666    9529.0249    3146.2171    3609.6131    78.744079 
   21700    602.97012   -114.30033   0.54558004   -113.75475    1562.8039    4.2871453    4.2871453    4.2871453    1562.8039   -7525.2151   -4850.1599    17063.787    13467.426    22837.864    19.807307    78.796081 
   21800    881.17059   -114.54785   0.79730167   -113.75055    10810.919     4.283872     4.283872     4.283872    10810.919    7920.9731    1009.2033    23502.579   -6575.0285   -11172.594    4917.4152    78.615732 
   21900    878.60736   -114.54679    0.7949824   -113.75181     2364.705    4.2845214    4.2845214    4.2845214     2364.705   -3787.2717    3897.4683    6983.9183    1909.0861   -16454.214   -5120.3821    78.651489 
   22000    538.81701   -114.24489   0.48753296   -113.75736   -22908.087      4.29017      4.29017      4.29017   -22908.087   -36433.182   -9436.2988   -22854.779    20784.009    28493.107   -923.85616    78.962976 
   22100    759.43822   -114.44149   0.68715566   -113.75433    9248.3306    4.2742805    4.2742805    4.2742805    9248.3306   -2909.7573    27282.491    3372.2586   -1285.4428    17629.348     2807.116    78.088857 
   22200    946.87629   -114.60874   0.85675357   -113.75199   -5622.3499    4.2947086    4.2947086    4.2947086   -5622.3499   -3704.1476    -14331.54    1168.6377   -904.13098   -15892.532   -2415.8194    79.213846 
   22300    465.18054   -114.18115   0.42090513   -113.76024    3325.1951    4.2822888    4.2822888    4.2822888    3325.1951   -2276.1742   -4252.1664    16503.926    17050.437    4888.7051     4375.912    78.528603 
   22400    411.33189    -114.1327   0.37218174   -113.76052    3190.9144    4.2777711    4.2777711    4.2777711    3190.9144   -15111.413    7300.9427    17383.214    6926.6445     26652.43   -1129.5538    78.280328 
   22500    881.31386   -114.54776    0.7974313   -113.75033   -12421.778     4.296674     4.296674     4.296674   -12421.778    -15884.63   -15319.621   -6061.0817   -13975.227    849.96486    3941.7574    79.322647 
   22600    879.27393    -114.5445   0.79558553   -113.74891    14802.551    4.2734267    4.2734267    4.2734267    14802.551    23850.741   -1322.5281     21879.44    6538.8983    -1329.101    -4253.854    78.042068 
   22700    337.62697    -114.0646   0.30549197   -113.75911   -13748.847    4.2885888    4.2885888    4.2885888   -13748.847   -14702.218   -17837.438   -8706.8861    17660.378    21475.391   -881.38717    78.875701 
   22800    559.71777   -114.26173    0.5064444   -113.75528   -1510.2997    4.2886469    4.2886469    4.2886469   -1510.2997   -2015.5545   -7373.6082    4858.2637   -8896.8694    12324.527    1255.0153    78.878904 
   22900    957.54554   -114.61246   0.86640733   -113.74605    18187.189    4.2780891    4.2780891    4.2780891    18187.189    7674.6025   -1354.3568    48241.323   -1656.5596   -8940.3178     2382.399    78.297787 
   23000    567.72863   -114.26853   0.51369279   -113.75483   -9938.8136      4.28942      4.28942      4.28942   -9938.8136   -15813.852   -18375.017    4372.4279    19914.801    20261.675    1779.9186    78.921567 
   23100    485.43996   -114.19589   0.43923628   -113.75666   -4538.9923    4.2838347    4.2838347    4.2838347   -4538.9923   -5156.9978   -1155.7139   -7304.2652    237.66102    27448.553    386.70016    78.613679 
   23200     929.2191   -114.59206   0.84077697   -113.75128    2446.1998    4.2878775    4.2878775    4.2878775    2446.1998    7854.7118   -5972.0063    5455.8941   -11767.393   -5220.8309    1507.5249     78.83646 
   23300    926.00666   -114.58923   0.83787029   -113.75136    830.12965    4.2835958    4.2835958    4.2835958    830.12965   -2944.2936   -5550.4541    10985.137    9857.5476   -5436.3344   -3171.2178    78.600528 
   23400    494.64845   -114.20527   0.44756832    -113.7577   -3444.9249    4.2849883    4.2849883    4.2849883   -3444.9249   -26803.252    4804.4981    11663.979    10548.034    29551.149   -564.37963    78.677203 
   23500    781.48236   -114.46219   0.70710167   -113.75509   -3807.7806    4.2893611    4.2893611    4.2893611   -3807.7806    2363.5936   -10155.616    -3631.319   -10716.192    18652.466    184.25078    78.918317 
   23600    908.94379    -114.5722   0.82243144   -113.74977    24461.904    4.2756018    4.2756018    4.2756018    24461.904    47978.739    3150.5372    22256.435    1582.4636   -6483.0159    1932.5547    78.161297 
   23700    609.02166   -114.31025    0.5510556   -113.75919    -18388.29    4.2940514    4.2940514    4.2940514    -18388.29   -23447.899   -11867.491   -19849.481    15093.621    21208.156   -2220.1526    79.177489 
   23800    656.14449    -114.3468   0.59369332   -113.75311   -6342.3252    4.2884511    4.2884511    4.2884511   -6342.3252   -6988.4096    1466.7203   -13505.286    -2208.937    21201.065    3131.7622    78.868104 
   23900    1132.3889   -114.76921    1.0246092   -113.74461     11127.09    4.2747858    4.2747858    4.2747858     11127.09    32433.139   -100.26706    1048.3967   -1082.6648   -13943.883    4138.7882    78.116552 
   24000    533.15041   -114.23913   0.48240569   -113.75672   -3702.0685    4.2892685    4.2892685    4.2892685   -3702.0685    17924.501   -10727.814   -18302.893    10455.293     10608.53   -2991.1418    78.913208 
   24100    387.10732   -114.11035   0.35026284   -113.76008   -5711.6155    4.2887419    4.2887419    4.2887419   -5711.6155   -14805.124   -841.64465   -1488.0778    10225.158    33284.114    796.54661    78.884149 
   24200    975.65532   -114.63298   0.88279344   -113.75018    11519.472    4.2800592    4.2800592    4.2800592    11519.472    14699.603    1863.3841     17995.43   -2617.4152    2461.6992   -3052.9036    78.406004 
   24300    743.56654   -114.42732   0.67279463   -113.75453    5652.5285    4.2840794    4.2840794    4.2840794    5652.5285    25042.591   -5599.4113    -2485.594    2146.1254   -9405.8382    556.14527    78.627151 
   24400    277.83324    -114.0121   0.25138936   -113.76071    -15025.69    4.2920744    4.2920744    4.2920744    -15025.69   -13854.976   -2892.2457    -28329.85    13217.721    27134.642   -3566.9613    79.068179 
   24500    730.87466   -114.41661   0.66131075    -113.7553   -827.46815    4.2810573    4.2810573    4.2810573   -827.46815    3192.2859    1492.5639   -7167.2542   -4701.0881    19736.734     4736.462    78.460868 
   24600    880.05562   -114.54755   0.79629282   -113.75126    13828.008    4.2794032    4.2794032    4.2794032    13828.008    21121.891    3059.8959    17302.238   -3590.9757   -11383.092    3012.7232     78.36996 
   24700    433.78748   -114.15155   0.39250003   -113.75905   -16705.992    4.2952943    4.2952943    4.2952943   -16705.992   -24590.402   -12419.345   -13108.228    9868.5835    18806.396    675.90951    79.246258 
   24800    365.35033   -114.08788   0.33057665   -113.75731    7827.6206    4.2801081    4.2801081    4.2801081    7827.6206    19475.269    4941.5336   -933.94084    10018.793    21145.146    1572.9744    78.408693 
   24900    971.12991   -114.62947   0.87869875   -113.75077    7083.5546    4.2800393    4.2800393    4.2800393    7083.5546    24062.459   -591.95946    -2219.836   -6823.8156   -1356.3289   -612.37011    78.404913 
   25000    782.81184   -114.46167    0.7083046   -113.75337   -16410.184    4.2949113    4.2949113    4.2949113   -16410.184   -12749.799   -13757.218   -22723.536   -4889.7141    6025.4187    916.36738    79.225066 
   25100    460.77323     -114.172   0.41691731   -113.75509    3587.8236    4.2802702    4.2802702    4.2802702    3587.8236    7779.0169    8423.7487   -5439.2947    8405.3414    30577.261   -5417.0644    78.417602 
   25200    683.81544   -114.37295   0.61873058   -113.75422    5658.5465    4.2821945    4.2821945    4.2821945    5658.5465    6833.1108   -8504.9375    18647.466   -9826.8305   -198.20793    1388.0541    78.523411 
   25300    815.98092   -114.48946   0.73831669   -113.75114   -1947.5682    4.2910468    4.2910468    4.2910468   -1947.5682   -4835.3838    -20446.56    19439.239   -14252.232   -7156.6415    1793.8081    79.011397 
   25400    670.09572   -114.35851   0.60631669   -113.75219   -7406.7783    4.2857149    4.2857149    4.2857149   -7406.7783   -21855.565    1522.9801   -1887.7502    9793.5253    27064.711    1749.2474    78.717236 
   25500    796.76631   -114.47166    0.7209309   -113.75073   -7929.2335    4.2802898    4.2802898    4.2802898   -7929.2335   -17787.627    497.16017   -6497.2339    37.533548    21539.976    896.39881    78.418681 
   25600    824.53753   -114.49826   0.74605889    -113.7522    -4903.462    4.2907488    4.2907488    4.2907488    -4903.462    8258.1716   -25391.275    2422.7169   -23374.523   -8124.5114    1282.5262    78.994938 
   25700    800.52852   -114.47498   0.72433503   -113.75065    1420.3265     4.288389     4.288389     4.288389    1420.3265    397.92937   -8863.4489    12726.499   -3851.1622    2743.2801    491.43525    78.864676 
   25800      692.135   -114.37581   0.62625829   -113.74956    11142.603     4.280136     4.280136     4.280136    11142.603    3268.7997    5730.0693    24428.941     5020.928    23163.977   -1357.1302    78.410227 
   25900    653.94301   -114.34345   0.59170138   -113.75175   -1221.0613    4.2915333    4.2915333    4.2915333   -1221.0613   -15050.974   -20189.019    31576.809   -20107.704    3011.4731   -3626.1749    79.038276 
   26000    868.79323   -114.53414   0.78610237   -113.74804    2346.6502    4.2854869    4.2854869    4.2854869    2346.6502    10369.809   -12749.599    9419.7399   -12478.953    3575.8665   -555.50059    78.704671 
   26100    728.67548   -114.40982   0.65932089    -113.7505    4966.8789    4.2816436    4.2816436    4.2816436    4966.8789     28116.24    7571.3408   -20786.944    13392.111    20260.558   -759.55283    78.493111 
   26200    640.52781   -114.33436   0.57956302    -113.7548   -16856.961    4.2876256    4.2876256    4.2876256   -16856.961   -28056.287   -16560.438   -5954.1576    -14129.06    11206.572    3506.8226    78.822568 
   26300    774.14292   -114.45464   0.70046078   -113.75418   -3344.3182    4.2838628    4.2838628    4.2838628   -3344.3182   -10262.256   -22182.933    22412.234   -25619.292   -9503.5466    2461.7272    78.615225 
   26400    712.80813   -114.39728   0.64496377   -113.75232    3808.0081    4.2892082    4.2892082    4.2892082    3808.0081    28411.092   -11920.192   -5066.8761     4380.633    12572.712    1728.1738    78.909879 
   26500    610.75946   -114.30613     0.552628   -113.75351    6428.5782    4.2808988    4.2808988    4.2808988    6428.5782    12236.976    -11557.34    18606.099   -7558.9406    24700.709    798.36155    78.452158 
   26600    568.55978    -114.2713   0.51444484   -113.75685   -1783.2887    4.2872387    4.2872387    4.2872387   -1783.2887   -1308.5554   -34580.097    30538.786   -25722.714   -692.42084   -336.11709     78.80123 
   26700    854.62466   -114.52443   0.77328236   -113.75115   -5502.6868    4.2873231    4.2873231    4.2873231   -5502.6868   -306.40447   -20138.702    3937.0459   -1711.9329   -8580.2973    3418.0783    78.805884 
   26800    698.21563   -114.38438   0.63176017   -113.75262    5470.8505    4.2793287    4.2793287    4.2793287    5470.8505     27970.11   -3082.3862   -8475.1721    2266.0921    3453.5629   -2932.8003    78.365868 
   26900    519.95169   -114.22643   0.47046322   -113.75597   -21369.542    4.2935435    4.2935435    4.2935435   -21369.542   -20179.926     -42272.5   -1656.2006   -33270.774    14190.786    203.63571    79.149395 
   27000     804.1914   -114.47891   0.72764928   -113.75126    7111.1599    4.2776496    4.2776496    4.2776496    7111.1599    20018.185   -12010.577    13325.871   -10705.188    -5550.131   -388.64072    78.273656 
   27100    845.89754   -114.51671   0.76538587   -113.75133   -4458.1322    4.2873303    4.2873303    4.2873303   -4458.1322    5148.0202   -7535.5242   -10986.893    8153.2702   -1577.8018     1263.699    78.806278 
   27200     356.9474   -114.08059   0.32297351   -113.75762    1085.4571    4.2863846    4.2863846    4.2863846    1085.4571    12108.882   -21412.838    12560.327   -22695.755    10017.392    1330.4384    78.754141 
   27300    629.71036   -114.32583   0.56977517   -113.75606    7645.7106     4.279684     4.279684     4.279684    7645.7106    6419.5576   -15519.565    32037.139   -21848.685    1147.5154    2391.4256    78.385385 
   27400    923.45982   -114.58589   0.83556585   -113.75033    1332.2014    4.2887753    4.2887753    4.2887753    1332.2014    12363.437   -7978.1405   -388.69203    8535.6124   -4496.7261    5868.7667     78.88599 
   27500    555.54341   -114.25884   0.50266735   -113.75617     904.8798    4.2829375    4.2829375    4.2829375     904.8798    5806.3258   -9538.7017    6447.0153   -13721.956    5509.5768   -1140.8586    78.564291 
   27600    375.48788   -114.09938   0.33974932   -113.75963   -9508.1981    4.2885125    4.2885125    4.2885125   -9508.1981    734.66278   -24241.587   -5017.6698   -34291.726    13078.197    1214.4349    78.871489 
   27700    962.87822   -114.62271   0.87123245   -113.75147    1167.6619    4.2837301    4.2837301    4.2837301    1167.6619    11757.479    116.36606   -8370.8593     3815.784   -4492.9555    803.41127    78.607922 
   27800    837.24252   -114.51145   0.75755462    -113.7539   -4940.5474    4.2834209    4.2834209    4.2834209   -4940.5474   -4249.9957   -5057.7866     -5513.86   -7609.5226   -7752.3127   -796.21347    78.590901 
   27900     288.7808     -114.023   0.26129493   -113.76171   -9327.4725    4.2855904    4.2855904    4.2855904   -9327.4725   -12936.341   -20684.946    5638.8697   -30724.295    9344.3769   -2503.6409    78.710372 
   28000    575.33136   -114.27959   0.52057191   -113.75902    3598.2898    4.2848732    4.2848732    4.2848732    3598.2898    13885.487   -7566.1029    4475.4852   -3970.5606     15295.86   -107.95515    78.670864 
   28100    967.38172   -114.62717   0.87530731   -113.75186    6626.4106    4.2843414    4.2843414    4.2843414    6626.4106    15502.648   -4377.0566    8753.6403    5765.3194   -2114.0849    3844.7223    78.641579 
   28200    479.66481   -114.19388    0.4340108   -113.75987   -4796.7406    4.2855591    4.2855591    4.2855591   -4796.7406   -6159.2589   -19752.215    11521.252   -31569.548    1858.0247    1202.0424    78.708653 
   28300    391.70026   -114.11539   0.35441863   -113.76097    -2451.519    4.2813708    4.2813708    4.2813708    -2451.519   -1084.6072   -2474.2487    -3795.701   -17953.427    8952.6963   -365.23672    78.478107 
   28400    893.53049   -114.56292   0.80848517   -113.75443    5584.1839    4.2812699    4.2812699    4.2812699    5584.1839      18623.4    4479.8518   -6350.7001    14606.503   -327.96311    4382.1104    78.472561 
   28500    692.82805    -114.3806   0.62688538   -113.75371   -6339.2749    4.2910047    4.2910047    4.2910047   -6339.2749    6159.5677   -20402.658   -4774.7337   -13715.942   -2151.6098    2430.8552    79.009075 
   28600     583.3904   -114.28261   0.52786389   -113.75475   -8853.8676    4.2791085    4.2791085    4.2791085   -8853.8676   -20142.041   -4420.0959    -1999.466    -26729.96    4743.5792   -2870.8465     78.35377 
   28700    708.87789   -114.39785   0.64140761   -113.75644   -1806.2542    4.2821194    4.2821194    4.2821194   -1806.2542    9546.2132   -1894.4271   -13070.549    4947.0148    10976.039    94.057538    78.519283 
   28800    795.47359   -114.47369   0.71976122   -113.75393     960.6756    4.2879142    4.2879142    4.2879142     960.6756     23525.23   -23962.545    3319.3409    8898.2767   -5319.9956    1368.0657    78.838485 
   28900    662.40732   -114.35509   0.59936006   -113.75573   -3805.0248    4.2832821    4.2832821    4.2832821   -3805.0248   -5842.6926   -14251.714    8679.3324   -24624.851    4234.2345    -1151.602    78.583258 
   29000    653.78597   -114.34714   0.59155929   -113.75558   -63.403294    4.2824094    4.2824094    4.2824094   -63.403294    3489.3521   -3324.5679   -354.99407   -6239.4148    11932.933   -311.30297    78.535234 
   29100    754.47266   -114.43515   0.68266272   -113.75248     5980.009    4.2863405    4.2863405    4.2863405     5980.009    34617.065   -17296.609    619.57089    13952.761    2046.6531    2686.3201    78.751715 
   29200    769.40197   -114.45125   0.69617107   -113.75508   -9982.5066    4.2839374    4.2839374    4.2839374   -9982.5066   -18599.351   -26487.158    15138.989   -3999.7631   -2412.7593    3530.2343    78.619333 
   29300     626.6277   -114.32406   0.56698591   -113.75707    4592.7833     4.277976     4.277976     4.277976    4592.7833    15693.384   -3346.1301    1431.0962   -22086.011    588.61339   -4259.7114    78.291577 
   29400    859.91022   -114.53236   0.77806484   -113.75429    -11458.67    4.2914978    4.2914978    4.2914978    -11458.67    7641.3052   -22416.601   -19600.715    13646.518    9956.7683   -578.48046    79.036315 
   29500    753.14681   -114.43531   0.68146306   -113.75384    1721.1413    4.2803025    4.2803025    4.2803025    1721.1413    12582.347   -22272.331    14853.408    12778.418   -5930.7008    2735.0585    78.419378 
   29600    654.47421   -114.34847   0.59218202   -113.75629    1069.3369    4.2780962    4.2780962    4.2780962    1069.3369    12732.173   -16835.934     7311.772   -19950.295    2155.7477   -2874.3021    78.298173 
   29700    856.86381   -114.52924   0.77530838   -113.75393   -13492.305    4.2916408    4.2916408    4.2916408   -13492.305    1824.6422   -21542.124   -20759.432   -9008.2805    4218.8369   -8048.5616    79.044215 
   29800     791.0021    -114.4675   0.71571532   -113.75178    15560.356    4.2781171    4.2781171    4.2781171    15560.356     37963.35   -8320.3333    17038.051    24686.647    1593.3484   -2774.3959    78.299321 
   29900    640.86857   -114.33707   0.57987135    -113.7572   -6916.5982    4.2858646    4.2858646    4.2858646   -6916.5982   -2119.3759   -29321.699    10691.281    2421.8287   -2671.1944    3344.0148    78.725487 
   30000    743.92954   -114.42887   0.67312308   -113.75575   -1704.8375    4.2826713    4.2826713    4.2826713   -1704.8375   -2342.2292   -6562.6576    3790.3745     -25363.9   -2601.5688   -2813.3447    78.549645 
   30100     851.5436   -114.52408   0.77049454   -113.75359    5715.6052    4.2840565    4.2840565    4.2840565    5715.6052    22407.859   -9690.7178    4429.6749    11285.044    3386.0355   -4193.8421    78.625887 
   30200    690.89643   -114.38062    0.6251376   -113.75548    2879.6633     4.284589     4.284589     4.284589    2879.6633    25002.824   -20309.858    3946.0234    15246.183   -1399.2927    2346.9086    78.655211 
   30300    651.10025   -114.34654   0.58912919   -113.75741    2726.8143    4.2807306    4.2807306    4.2807306    2726.8143    11287.409   -17695.501    14588.535   -19801.172   -1976.0364   -4359.5978    78.442908 
   30400    802.58545   -114.48105   0.72619619   -113.75486   -7942.2588    4.2916441    4.2916441    4.2916441   -7942.2588    8533.1823   -24404.085    -7955.874   -10364.254   -1331.2763   -7057.7413    79.044401 
   30500    911.82028   -114.57695   0.82503415   -113.75192    18404.682    4.2713754    4.2713754    4.2713754    18404.682    47327.439   -4771.3826     12657.99    24613.196    3545.1633    167.20423    77.929738 
   30600    519.32788   -114.23214   0.46989878   -113.76224   -2585.1631    4.2871614    4.2871614    4.2871614   -2585.1631    3677.5043   -27572.127    16139.134   -7511.3124   -3908.5571    755.03687    78.796965 
   30700    600.44759   -114.29909    0.5432976    -113.7558   -14752.368    4.2911411    4.2911411    4.2911411   -14752.368   -20603.382     -32725.4    9071.6774   -31231.215   -1698.8628   -6675.8149     79.01661 
   30800    994.03179   -114.64447   0.89942085   -113.74505     16659.13    4.2686741    4.2686741    4.2686741     16659.13    30406.681    8172.8797    11397.827    11569.485   -3686.0169    -4610.129    77.781979 
   30900    579.91365   -114.27866   0.52471806   -113.75395   -4495.1892    4.2902924    4.2902924    4.2902924   -4495.1892    3848.6029   -30411.718    13077.547    12094.955    900.49705    3971.7743    78.969735 
   31000    378.93599   -114.09868   0.34286925   -113.75582   -756.42134    4.2840512    4.2840512    4.2840512   -756.42134    2366.0002   -32305.167    27669.903   -28404.305   -4702.2487   -383.94585    78.625598 
   31100    905.04003   -114.56866   0.81889923   -113.74976   -1989.4908    4.2819607    4.2819607    4.2819607   -1989.4908    16791.683   -17780.352   -4979.8033    -6949.495    -2353.375   -3071.5703    78.510553 
   31200     812.3999   -114.48505    0.7350765   -113.74997      6308.86    4.2833805    4.2833805    4.2833805      6308.86    28447.442   -19968.505    10447.643    10990.836    6877.9496     692.5552    78.588677 
   31300    382.18878   -114.10327   0.34581244   -113.75746   -1874.9609    4.2829598    4.2829598    4.2829598   -1874.9609    7641.2611    -31870.85    18604.706    -22870.33   -3735.7762   -1671.9191    78.565523 
   31400    642.29835   -114.33705   0.58116505   -113.75588   -10337.567    4.2857735    4.2857735    4.2857735   -10337.567   -465.41162   -27447.095   -3100.1929   -17525.389   -2552.3251   -3723.9101    78.720465 
   31500    914.24303   -114.57659   0.82722631   -113.74936     14097.77    4.2747802    4.2747802    4.2747802     14097.77    34838.735    -293.1865    7747.7631    8181.8495   -8040.6035   -762.60639    78.116249 
   31600    556.61632   -114.26109   0.50363814   -113.75745   -25062.595    4.2928183    4.2928183    4.2928183   -25062.595   -23577.775   -52222.432    612.42291   -17433.411    6479.7195    3745.1419    79.109298 
   31700    378.03605   -114.10087   0.34205496   -113.75881   -2599.6684    4.2805316    4.2805316    4.2805316   -2599.6684    4659.9585   -27998.251    15539.288   -25282.205   -4310.5204   -3388.1091    78.431967 
   31800    974.79916   -114.63186   0.88201877   -113.74984    17295.254    4.2726549    4.2726549    4.2726549    17295.254    40301.217   -3553.3126    15137.857    8543.4003   -2738.4594   -859.07977    77.999792 
   31900     738.7021   -114.42137   0.66839318   -113.75298   -19349.525    4.2977494    4.2977494    4.2977494   -19349.525    -5046.909   -41405.182   -11596.484   -11379.121    6100.6241    3719.6579    79.382222 
   32000    411.67672   -114.12698   0.37249375   -113.75448    2034.7112    4.2779259    4.2779259    4.2779259    2034.7112    15826.075   -29658.847    19936.905   -28058.297    -2629.742    1291.8677    78.288826 
   32100    805.53025   -114.48006    0.7288607    -113.7512     15608.03    4.2744861    4.2744861    4.2744861     15608.03    32271.445   -2549.9093    17102.556     6114.129     2811.195   -2506.1456    78.100124 
   32200    892.78148   -114.55697   0.80780744   -113.74916    -6657.746     4.292596     4.292596     4.292596    -6657.746    17840.589   -23547.693   -14266.135   -408.22685    819.41543    544.19208    79.097005 
   32300     429.5409   -114.14475   0.38865763    -113.7561   -8825.8951    4.2820394    4.2820394    4.2820394   -8825.8951   -9464.0349   -22484.145    5470.4944   -27522.912    9666.3197       3782.4    78.514882 
   32400    636.02018   -114.33198   0.57548443    -113.7565    3147.3197    4.2731414    4.2731414    4.2731414    3147.3197   -1146.7063    -13382.36    23971.025    5077.9446   -4340.0195   -1498.5302     78.02644 
   32500    904.57888   -114.57001   0.81848198   -113.75153   -4888.2478    4.2943726    4.2943726    4.2943726   -4888.2478    18571.164   -17538.082   -15697.825    10774.682   -116.03087    5530.9811    79.195255 
   32600    591.98913   -114.29148    0.5356442   -113.75583   -7530.7698    4.2864416    4.2864416    4.2864416   -7530.7698   -4204.2399   -13588.885   -4799.1845   -21813.071    4559.1492    4828.9181    78.757286 
   32700    544.57129   -114.24537   0.49273955   -113.75264    9013.6086    4.2662283    4.2662283    4.2662283    9013.6086    5418.0192   -10102.719    31725.525   -13319.455    2323.6656    -693.3168    77.648356 
   32800    848.04531   -114.51957   0.76732921   -113.75224   -9271.2953    4.2970804    4.2970804    4.2970804   -9271.2953   -6302.0248   -13697.974   -7813.8868    17558.517   -681.34394   -3121.3007    79.345161 
   32900     765.0366   -114.44446   0.69222119   -113.75224    1306.0367    4.2860526    4.2860526    4.2860526    1306.0367     16671.08   -478.93158   -12274.039   -5846.7063   -729.72987    2390.5472    78.735846 
   33000    529.41938   -114.22882   0.47902978   -113.74979    14345.026    4.2651105    4.2651105    4.2651105    14345.026    15724.381    327.99356    26982.703   -20797.309    7699.4286    3483.4297    77.587338 
   33100    737.81609   -114.41876   0.66759151   -113.75117   -19625.137    4.2974689    4.2974689    4.2974689   -19625.137   -24751.644   -30703.887   -3419.8797    11307.065   -2696.0974   -2011.7444    79.366682 
   33200    954.68219   -114.61325   0.86381651   -113.74943   -216.59686    4.2818935    4.2818935    4.2818935   -216.59686    3993.6042    4555.0947   -9198.4895     6186.708   -4781.7126    3195.9472    78.506855 
   33300    618.78492   -114.31152    0.5598896   -113.75163    12890.233    4.2676864    4.2676864    4.2676864    12890.233     25275.16    1670.0039    11725.536   -24218.487    -2813.496    3630.2652    77.728003 
   33400    635.75921   -114.32995    0.5752483    -113.7547   -9450.9251    4.2945604    4.2945604    4.2945604   -9450.9251   -11110.192   -29348.474    12105.891   -2949.5184     7984.544    879.89692    79.205646 
   33500    903.43692   -114.56739   0.81744872   -113.74994   -144.61239     4.285621     4.285621     4.285621   -144.61239    13954.851    -9998.282   -4390.4063     15482.86   -5714.7786   -2891.0014    78.712063 
   33600    767.29313   -114.44259   0.69426294   -113.74833    12304.887    4.2658287    4.2658287    4.2658287    12304.887    10529.866    8716.3118    17668.484    -11623.98   -11386.351     1296.216    77.626539 
   33700    565.31643   -114.26991   0.51151018    -113.7584   -3760.9785    4.2911635    4.2911635    4.2911635   -3760.9785   -2755.7803   -18462.301    9935.1458   -19201.698    1846.6032    3204.7508    79.017845 
   33800    922.54658   -114.58649   0.83473953   -113.75175    -8552.102    4.2893544    4.2893544    4.2893544    -8552.102   -7141.5168   -25901.734    7386.9452    8596.6111   -1004.8569   -4052.7003    78.917951 
   33900    776.95283   -114.45052   0.70300325   -113.74751    19151.374    4.2640413    4.2640413    4.2640413    19151.374     18337.66    20993.731    18122.729     6873.309   -13720.105    252.57167    77.529004 
   34000    683.09698   -114.37406   0.61808051   -113.75598   -21519.662    4.2923909    4.2923909    4.2923909   -21519.662   -33759.536   -20535.152   -10264.297   -26009.282   -8594.0543    476.99621    79.085672 
   34100    824.85283   -114.50039   0.74634417   -113.75404   -145.19506    4.2853021    4.2853021    4.2853021   -145.19506   -2656.2991   -10480.188    12700.902   -10794.168    11631.706    1039.5459     78.69449 
   34200    946.03963   -114.60277   0.85599654   -113.74678    20722.655    4.2666577    4.2666577    4.2666577    20722.655    23405.408    18678.687    20083.868    12391.055   -18864.837   -5908.5705    77.671807 
   34300    492.32653   -114.20196   0.44546739    -113.7565   -5879.1656    4.2930028    4.2930028    4.2930028   -5879.1656   -9209.1183   -7939.4543   -488.92422   -11154.098   -20164.064    474.84412    79.119495 
   34400    746.48983   -114.42623   0.67543968   -113.75079   -980.61429    4.2859378    4.2859378    4.2859378   -980.61429   -14403.798   -9124.0897    20586.045   -21301.308    5605.7556    4620.8712    78.729518 
   34500    1004.0132   -114.65306   0.90845223   -113.74461    18947.874    4.2698361    4.2698361    4.2698361    18947.874    14298.846    21449.087    21095.688    3498.1984    2272.7198   -5009.3456    77.845519 
   34600    770.10949   -114.45091   0.69681125    -113.7541   -7767.3257    4.2874176    4.2874176    4.2874176   -7767.3257   -10275.606    125.61812   -13151.989    2302.4175   -15559.216   -4241.2799    78.811094 
   34700    461.94321   -114.17406   0.41797592   -113.75608   -4851.4721    4.2877016    4.2877016    4.2877016   -4851.4721   -23217.247      -5115.6    13778.431   -24731.748    -6441.918    3172.1344    78.826755 
   34800    898.66211   -114.56273   0.81312836    -113.7496    10404.665    4.2736357    4.2736357    4.2736357    10404.665    12175.716    4082.8392     14955.44   -9867.3059    10834.276    6556.0742    78.053519 
   34900    828.88694   -114.50106   0.74999432   -113.75107    732.32867    4.2840847    4.2840847    4.2840847    732.32867   -6258.6475    8794.1188   -338.48529     5561.768   -14920.745   -10859.702    78.627442 
   35000    396.53174   -114.11677   0.35879025   -113.75798   -9229.4516    4.2863563    4.2863563    4.2863563   -9229.4516   -23901.168   -10000.936    6213.7498   -23816.046   -18452.651    -4808.697    78.752583 
   35100    640.53987   -114.33491   0.57957394   -113.75534   -1643.6357    4.2757248    4.2757248    4.2757248   -1643.6357   -16403.698    67.470194    11405.321   -19543.754    5788.0061    3747.2665    78.168042 
   35200    954.73931   -114.61484   0.86386819   -113.75098   -433.39515    4.2835209    4.2835209    4.2835209   -433.39515   -8925.5171    14903.294    -7277.962    9601.0869    3767.9347    1156.1498    78.596404 
   35300    643.82649   -114.33778   0.58254774   -113.75523   -15291.891    4.2880667    4.2880667    4.2880667   -15291.891   -24464.032   -6229.6706   -15181.971   -13826.403   -12688.957    33.692282    78.846896 
   35400    397.34581   -114.11652   0.35952684   -113.75699    5134.6271    4.2749428    4.2749428    4.2749428    5134.6271   -11823.161    -4213.665    31440.708   -32170.196   -5121.2744     956.0541    78.125163 
   35500    910.27506   -114.57571     0.823636   -113.75208    2988.8857    4.2809567    4.2809567    4.2809567    2988.8857   -1791.4778   -3140.1446    13898.279    6012.3453    10085.016    5460.6068    78.455339 
   35600     778.7454   -114.45845    0.7046252   -113.75382   -4373.6283     4.286883     4.286883     4.286883   -4373.6283   -7749.2322   -1937.1802   -3434.4725    2049.3854   -6881.5827   -5364.0374    78.781615 
   35700    379.12791   -114.10113    0.3430429   -113.75809   -9.5363545    4.2782354    4.2782354    4.2782354   -9.5363545   -23858.105   -9784.7956    33614.291   -39282.188   -7048.2363   -2732.6114    78.305817 
   35800    805.89966   -114.48204   0.72919495   -113.75285   -3446.0654    4.2818929    4.2818929    4.2818929   -3446.0654   -5221.5263   -11698.059    6581.3891   -6563.9158   -4498.9926    2608.9922    78.506821 
   35900    921.44553   -114.58373   0.83374328   -113.74999    -4117.958    4.2841518    4.2841518    4.2841518    -4117.958   -2173.3257   -6021.5294   -4159.0188    14984.819    5156.2084    4709.1883    78.631137 
   36000    406.69824     -114.126   0.36798911   -113.75801   -7587.9945      4.27844      4.27844      4.27844   -7587.9945   -26990.894   -21882.478    26109.389   -31756.492   -5993.8932    154.90212    78.317052 
   36100     485.8806   -114.19849   0.43963497   -113.75885   -2267.4195    4.2820552    4.2820552    4.2820552   -2267.4195   -7179.2328   -24713.006     25089.98   -19933.543   -11508.393    1574.6676    78.515748 
   36200    998.28656   -114.65277   0.90327066    -113.7495   -3003.5919    4.2851471    4.2851471    4.2851471   -3003.5919    6436.9252   -11235.135    -4212.566    11164.472    6643.7626    5299.9776    78.685955 
   36300    595.02041   -114.29478   0.53838697   -113.75639   -4456.2591    4.2790417    4.2790417    4.2790417   -4456.2591   -9512.5987   -16099.819     12243.64   -19830.168   -2257.6585   -3824.1007    78.350098 
   36400    331.70864   -114.06178   0.30013694   -113.76164   -420.05202    4.2768756    4.2768756    4.2768756   -420.05202   -8179.6373   -8211.5963    15131.078   -24703.883   -9742.0375   -2361.7606    78.231178 
   36500    793.43685   -114.47341   0.71791834   -113.75549   -7203.6927    4.2872704    4.2872704    4.2872704   -7203.6927    -232.8318    1893.0211   -23271.268    4596.9819   -14448.946   -2558.6922    78.802975 
   36600    776.85512   -114.45627   0.70291484   -113.75336   -3752.5885    4.2820626    4.2820626    4.2820626   -3752.5885    1838.4548   -17773.049    4676.8288    -3396.012    8866.4864    6923.4832    78.516156 
   36700    381.40915   -114.10172   0.34510701   -113.75662    5904.9803    4.2756822    4.2756822    4.2756822    5904.9803   -8856.8672    2689.8511    23881.957   -26424.127   -10543.745   -2187.3367    78.165706 
   36800    576.65389   -114.27705   0.52176856   -113.75529   -11354.872    4.2881108    4.2881108    4.2881108   -11354.872   -13033.537   -11311.246   -9719.8329   -1719.5763   -10572.846    -3599.664    78.849326 
   36900    711.91348   -114.39639   0.64415428   -113.75224    46.627192     4.278635     4.278635     4.278635    46.627192     8065.202    1263.2148   -9188.5353    1813.0421    7609.2892   -1341.8578    78.327762 
   37000    590.94298   -114.28916   0.53469762   -113.75447    3093.8791    4.2772896    4.2772896    4.2772896    3093.8791    1968.1885    2297.1867     5016.262   -26653.646    4437.2349      3276.74    78.253898 
   37100    609.58913   -114.30553   0.55156906   -113.75396   -5144.8224    4.2882952    4.2882952    4.2882952   -5144.8224   -5970.0283   -15908.413    6443.9743   -6301.0949   -10858.819   -2682.7349    78.859498 
   37200    679.40852   -114.36609    0.6147431   -113.75134    8258.5895    4.2766034    4.2766034    4.2766034    8258.5895    22425.453    11273.288   -8922.9722    5291.2803   -6920.5448     -7749.82    78.216242 
   37300     572.2911    -114.2731   0.51782101   -113.75528    170.16951    4.2783192    4.2783192    4.2783192    170.16951     8384.156   -13335.404    5461.7568   -13335.945    13670.328    2334.5633    78.310422 
   37400    534.90887   -114.23921   0.48399678   -113.75521    -753.6291    4.2873468    4.2873468    4.2873468    -753.6291   -4938.1225   -12308.143    14985.379   -21453.967   -4435.5218    22.447142     78.80719 
   37500    823.84456   -114.49594   0.74543187   -113.75051    6016.9801    4.2762922    4.2762922    4.2762922    6016.9801    19140.517    2050.3721   -3139.9493    3752.2166   -6125.9751   -5269.2159    78.199163 
   37600    601.63797   -114.29918   0.54437468    -113.7548   -11718.213    4.2817109    4.2817109    4.2817109   -11718.213   -3377.5439   -12976.766    -18800.33   -7131.0877    7062.8057    -9233.453    78.496813 
   37700     498.9576   -114.20785   0.45146732   -113.75638   -10944.316    4.2834867    4.2834867    4.2834867   -10944.316   -14732.676   -12944.981   -5155.2904   -30856.939    10575.744      7633.71    78.594522 
   37800    837.52937   -114.51063   0.75781418   -113.75282   -1536.7022    4.2789844    4.2789844    4.2789844   -1536.7022   -1719.4523   -3207.4457    316.79152     7151.779   -6322.4375   -1229.3113    78.346951 
   37900    740.17806    -114.4223   0.66972866   -113.75258   -6127.4948    4.2825233    4.2825233    4.2825233   -6127.4948   -3504.6376   -2308.3945   -12569.452    1829.5142   -3679.9751   -15133.873      78.5415 
   38000    433.07943   -114.14922   0.39185937   -113.75736   -1915.0713    4.2810779    4.2810779    4.2810779   -1915.0713   -12945.414    16.966346     7183.234   -22713.662    14480.836   -1582.4618    78.462003 
   38100    638.09906   -114.33188   0.57736544   -113.75452    113.16054     4.284195     4.284195     4.284195    113.16054   -5954.2423   -2023.9947    8317.7186   -12693.881   -849.85698    9593.6622    78.633516 
   38200    859.69233   -114.52802   0.77786769   -113.75015    9697.7537    4.2776036    4.2776036    4.2776036    9697.7537    11784.448    9328.6652    7980.1479     6569.316   -1466.6173   -4157.0232    78.271131 
   38300    640.61134    -114.3359   0.57963861   -113.75627   -7735.6098    4.2827617    4.2827617    4.2827617   -7735.6098    -9903.881   -8583.5638   -4719.3845   -9084.1582    3808.1495   -15302.011     78.55462 
   38400    493.46638   -114.20385   0.44649875   -113.75735   -4488.3683    4.2837157    4.2837157    4.2837157   -4488.3683    5163.7396   -12604.501   -6024.3437   -21868.962    9513.3458    10493.536    78.607124 
   38500    856.94783   -114.52856    0.7753844   -113.75317    7813.9375    4.2741695    4.2741695    4.2741695    7813.9375    6339.8604    2836.7541    14265.198    8064.8465    359.05457    8157.2954    78.082772 
   38600     723.5511   -114.40886   0.65468424   -113.75417   -7858.1971    4.2889406    4.2889406    4.2889406   -7858.1971   -3828.8541   -12412.224   -7333.5135   -2059.1066    -676.3322   -19155.997     78.89511 
   38700     482.5451   -114.19347   0.43661695   -113.75685    785.50846    4.2798702    4.2798702    4.2798702    785.50846    1882.8223   -10719.973    11193.676   -16833.913      12037.8   -11528.489    78.395617 
   38800    711.83735   -114.39774    0.6440854   -113.75365    6413.3802    4.2745623    4.2745623    4.2745623    6413.3802   -2169.6007     3755.338    17654.403   -8618.4799    2077.2437    16491.408    78.104301 
   38900    759.08251   -114.43927   0.68683381   -113.75243   -14341.899    4.2899627    4.2899627    4.2899627   -14341.899   -4058.2245   -20720.368   -18247.106     3943.128    497.48102   -6340.4341    78.951528 
   39000    725.16389   -114.40955   0.65614353    -113.7534   -3702.8077    4.2750607    4.2750607    4.2750607   -3702.8077   -5409.1706   -7046.7627    1347.5102   -8403.3785   -1034.6155   -20755.277    78.131624 
   39100    576.73568   -114.27765   0.52184256   -113.75581   -1343.3747     4.282726     4.282726     4.282726   -1343.3747   -15222.866    7619.1384    3573.6033   -16424.642    11969.191    8769.3095    78.552653 
   39200    778.03995   -114.45683    0.7039869   -113.75285   -8466.6091    4.2850549    4.2850549    4.2850549   -8466.6091   -7163.3431   -12638.961   -5597.5234    8522.8042    2837.6691    6408.1779    78.680873 
   39300      628.867   -114.32166   0.56901208   -113.75265    9719.1097    4.2765743    4.2765743    4.2765743    9719.1097    10297.415   -7639.1523    26499.067   -2768.4309   -2405.2397     -22554.7     78.21464 
   39400    719.83618   -114.40418    0.6513229   -113.75286   -5214.2652    4.2864092    4.2864092    4.2864092   -5214.2652   -17440.643   -11433.718    13231.565   -13186.034    16010.252   -7754.7084    78.755497 
   39500    784.52354   -114.46122   0.70985338   -113.75136    7736.3674    4.2782561    4.2782561    4.2782561    7736.3674    16709.852   -4103.5482    10602.799   -2034.9811    8077.8478    19904.869    78.306954 
   39600    703.53081   -114.38974   0.63656946   -113.75317   -5931.3666    4.2854325    4.2854325    4.2854325   -5931.3666    11174.116   -21069.311   -7898.9048    639.00582   -3467.8459     -3560.14    78.701678 
   39700    763.47661   -114.44265   0.69080968   -113.75184    629.24781    4.2817035    4.2817035    4.2817035    629.24781     2121.749   -13638.108    13404.102   -4894.8135   -3215.8577   -21882.244    78.496408 
   39800    751.10725   -114.43118   0.67961763   -113.75156    12575.182    4.2793118    4.2793118    4.2793118    12575.182    2299.2742    7015.6143    28410.657   -10789.739    9141.2203    6033.3272    78.364937 
   39900    642.27587   -114.33529   0.58114471   -113.75415   -8436.6484    4.2866044    4.2866044    4.2866044   -8436.6484   -3275.8434   -17298.665   -4735.4365    6973.1285     8778.576    5874.8039    78.766258 
   40000    748.53849   -114.43049   0.67729335    -113.7532   -486.74336     4.277014     4.277014     4.277014   -486.74336    16113.743   -16734.204   -839.76888    5519.7557   -4411.1028   -17802.557    78.238772 
   40100    917.97733   -114.58294   0.83060518   -113.75234   -7387.9593    4.2861878    4.2861878    4.2861878   -7387.9593    -13017.12   -5715.7287    -3431.029   -2342.9418     15269.74   -3992.6717    78.743297 
   40200    792.23318   -114.47062   0.71682923    -113.7538    1083.3196     4.279697     4.279697     4.279697    1083.3196     5455.775   -8593.7713    6387.9552   -792.46407    11049.126    12840.024    78.386102 
   40300    557.43159   -114.26102   0.50437582   -113.75665    2885.0955    4.2799161    4.2799161    4.2799161    2885.0955    24098.414   -23200.661     7757.533    103.00549   -5083.2769   -11095.997    78.398139 
   40400    796.12799   -114.47344   0.72035334   -113.75309   -6144.0119    4.2876561    4.2876561    4.2876561   -6144.0119    9703.5952   -16678.363   -11457.268    3683.7678    1221.0953   -19576.951    78.824248 
   40500    962.70254   -114.62004   0.87107349   -113.74896    19477.866    4.2720194    4.2720194    4.2720194    19477.866    13775.476    29379.065    15279.058   -3316.6196    10286.937    6227.5366    77.964993 
   40600    657.86659   -114.35178   0.59525151   -113.75653   -10418.749    4.2888035    4.2888035    4.2888035   -10418.749      8473.15   -27177.186    -12552.21    4967.5265    7136.7366    3322.7914    78.887548 
   40700    607.23496    -114.3063   0.54943895   -113.75687   -1543.7573    4.2808888    4.2808888    4.2808888   -1543.7573    20806.765    -29390.19    3952.1535    3083.9973   -5622.9811   -9285.1066    78.451604 
   40800    988.78881   -114.64684    0.8946769   -113.75216    10675.722    4.2759854    4.2759854    4.2759854    10675.722    4846.6673    11831.833    15348.666    1891.4873    9042.0768   -6104.8872    78.182334 
   40900    943.75626   -114.60548    0.8539305   -113.75155   -11958.785    4.2899573    4.2899573    4.2899573   -11958.785   -11499.327   -14234.544   -10142.485     1045.709    7323.2754    5318.5133    78.951233 
   41000    494.00444    -114.2025    0.4469856   -113.75551    4176.9767     4.276077     4.276077     4.276077    4176.9767    23268.502   -10256.691    -480.8803    2253.9019    -5179.333   -3212.0345    78.187363 
   41100    703.20595   -114.39321   0.63627552   -113.75693   -2763.9396    4.2831387    4.2831387    4.2831387   -2763.9396    5250.2476   -8992.3858   -4549.6805   -1811.8221    4409.0882   -6741.3599    78.575369 
   41200    938.33399   -114.60011   0.84902432   -113.75109    3510.5929    4.2831179    4.2831179    4.2831179    3510.5929   -10558.594    4350.8439    16739.529   -8307.2668    6125.8665    4260.9471    78.574223 
   41300    711.40853   -114.39832   0.64369739   -113.75462   -3198.0682    4.2774861    4.2774861    4.2774861   -3198.0682    17967.775   -25709.624    -1852.355    3432.0895    4152.3266    667.19417    78.264684 
   41400    495.65871   -114.20549   0.44848242     -113.757   -17486.544    4.2884289    4.2884289    4.2884289   -17486.544    7329.9934   -32430.837   -27358.788    3889.8552   -6055.8344   -15681.405    78.866877 
   41500    866.63303   -114.53594   0.78414777   -113.75179    9185.6586     4.276336     4.276336     4.276336    9185.6586   -550.47406    6447.1649    21660.285   -4526.2742   -3261.7671   -910.43517    78.201568 
   41600    797.32105   -114.47517   0.72143284   -113.75374    6164.1668    4.2810403    4.2810403    4.2810403    6164.1668   -5054.1669    952.61565    22594.051   -7741.1013    2151.0791    5778.6254    78.459935 
   41700    431.19075   -114.14771   0.39015045   -113.75756    -8348.877    4.2878287    4.2878287    4.2878287    -8348.877    -112.3054   -22808.411   -2125.9142    3673.7421   -2694.0277   -4402.0485    78.833767 
   41800    680.17464   -114.36871   0.61543631   -113.75327    1507.6303    4.2776937    4.2776937    4.2776937    1507.6303    72.875047   -8391.0728    12841.089   -2418.7022   -1771.1531      -8507.6    78.276077 
   41900    992.38822   -114.64691   0.89793372   -113.74898    133.14496    4.2821462    4.2821462    4.2821462    133.14496   -17976.405   -7260.0989    25635.939   -13753.614     1000.206    1159.6397    78.520756 
   42000    595.52672    -114.2925    0.5388451   -113.75365   -3036.4062    4.2854018    4.2854018    4.2854018   -3036.4062   -8283.1982   -24523.777    23697.756    -4130.455    1891.2266     1874.935    78.699983 
   42100    405.38947   -114.12402   0.36680492   -113.75721   -7443.6332    4.2809554    4.2809554    4.2809554   -7443.6332    6806.6627   -16373.321   -12764.241    2799.9039   -6140.3067   -5913.2835    78.455271 
   42200    742.89464   -114.42425   0.67218668   -113.75206    7865.2242    4.2776453    4.2776453    4.2776453    7865.2242   -6720.2423    1523.7526    28792.162   -6130.6915    -4510.026   -529.97456    78.273422 
   42300    807.81563   -114.48134   0.73092856   -113.75041    -10134.31    4.2891602    4.2891602    4.2891602    -10134.31   -17168.088   -15587.268    2352.4255   -6454.1136    37.986376    2544.3949    78.907232 
   42400    324.05194   -114.05018     0.293209   -113.75697   -8101.9618    4.2805709    4.2805709    4.2805709   -8101.9618     21380.85   -28432.022   -17254.714    5780.4439    2777.2673   -6119.7941    78.434131 
   42500    560.90378   -114.26343   0.50751752   -113.75591    1972.7344    4.2755163    4.2755163    4.2755163    1972.7344    8366.5604   -21041.013    18592.656   -5831.6437   -1363.1133   -8433.0527    78.156607 
   42600    882.61244   -114.54782   0.79860628   -113.74922    -7682.596    4.2917982    4.2917982    4.2917982    -7682.596   -26213.044   -15475.786    18641.042   -10867.539    3458.7831    6735.9997    79.052911 
   42700    494.14558   -114.20197    0.4471133   -113.75486     732.4817    4.2788593    4.2788593    4.2788593     732.4817    9344.7704     -845.528   -6301.7973   -3435.5145    3385.5545   -78.618459    78.340081 
   42800    337.39704   -114.06261   0.30528394   -113.75733    632.37674    4.2784587    4.2784587    4.2784587    632.37674    12382.656   -12800.998     2315.472   -935.46018   -6099.3772   -12023.303    78.318082 
   42900    887.54238   -114.55331     0.803067   -113.75024   -4895.8192    4.2886938    4.2886938    4.2886938   -4895.8192     -23752.2   -8822.5296    17887.272   -4338.2954     2139.692   -3219.3643    78.881491 
   43000    798.65565   -114.47357   0.72264042   -113.75093    6936.2258    4.2779549    4.2779549    4.2779549    6936.2258   -6181.8862   -2789.1286    29779.692   -237.86612    1733.1768   -521.35864    78.290415 
   43100    407.65047   -114.12667   0.36885071   -113.75782   -12898.663    4.2823392    4.2823392    4.2823392   -12898.663    12316.453   -32931.907   -18080.535    3662.9039    5301.5471   -5146.8887    78.531371 
   43200    654.59544   -114.34887   0.59229171   -113.75658   -5214.8043    4.2843013    4.2843013    4.2843013   -5214.8043   -661.95406   -14726.266   -256.19284   -1479.8436   -1484.8464   -1215.8213    78.639367 
   43300     974.6087   -114.63092   0.88184643   -113.74908    6590.0874    4.2818441    4.2818441    4.2818441    6590.0874   -8960.5918    10111.419    18619.435   -1912.0204    2275.6086   -107.45762    78.504138 
   43400    452.94586   -114.16587   0.40983494   -113.75604   -1071.1297    4.2825948    4.2825948    4.2825948   -1071.1297    8306.0808   -9393.2763   -2126.1938    6.5026157    3620.0293   -9620.3726    78.545437 
   43500    461.67415    -114.1759   0.41773247   -113.75817   -3834.0995    4.2800451    4.2800451    4.2800451   -3834.0995    24144.394   -38702.698    3056.0053    2258.3548   -4114.2409   -6747.3823    78.405232 
   43600    967.11649   -114.62618   0.87506732   -113.75112   -3619.1707    4.2863036    4.2863036    4.2863036   -3619.1707   -6308.8301   -14454.366    9905.6838   -866.16585    4066.9167    5375.3359    78.749678 
   43700    932.59281   -114.59576   0.84382957   -113.75193    3207.5371    4.2778824    4.2778824    4.2778824    3207.5371    1600.4147   -3125.1966    11147.393    2828.0238    2228.2811   -3508.3755    78.286438 
   43800    397.32546   -114.11903   0.35950843   -113.75952   -5798.5323    4.2835812    4.2835812    4.2835812   -5798.5323     17188.59   -38634.473    4050.2868     7163.969    4976.5986   -14080.228    78.599722 
   43900    717.11263   -114.40498   0.64885857   -113.75613   -7563.6625    4.2856873    4.2856873    4.2856873   -7563.6625   -1826.5638    -14915.44   -5948.9839    701.65875   -3989.3378   -945.09052    78.715715 
   44000    1003.6727   -114.65713   0.90814416   -113.74899    13183.044     4.275207     4.275207     4.275207    13183.044     -1523.08    21480.294    19591.918   -1796.9904    -4406.476     1135.903    78.139647 
   44100    720.97564   -114.40732   0.65235391   -113.75496   -15449.112    4.2873272    4.2873272    4.2873272   -15449.112    6314.4433    -31615.61    -21046.17    926.02718    1773.4113   -14578.719    78.806111 
   44200    588.29883   -114.28874   0.53230515   -113.75644   -6159.6986    4.2815393    4.2815393    4.2815393   -6159.6986    18504.611   -28604.759   -8378.9478    3035.1526   -1505.0384    330.64403    78.487378 
   44300    950.53818   -114.61115   0.86006692   -113.75109    4754.8025     4.280745     4.280745     4.280745    4754.8025    3463.9065   -3107.1963    13907.697   -728.43994    297.88737    7450.8005    78.443699 
   44400    863.74809   -114.53271   0.78153743   -113.75118    4487.7522      4.28416      4.28416      4.28416    4487.7522   -69.093909    4180.1516    9352.1988   -4899.8152     -657.266   -15527.727    78.631586 
   44500    538.87561   -114.24392   0.48758598   -113.75633    4171.2632    4.2810884    4.2810884    4.2810884    4171.2632    25164.111   -4786.1268   -7864.1948    3836.1387    1070.5494   -15550.834    78.462582 
   44600    790.79775   -114.46916   0.71553042   -113.75363    2439.4661    4.2835724    4.2835724    4.2835724    2439.4661    7973.9723    1530.3722   -2185.9461    2471.9365   -4291.6046    13148.224    78.599238 
   44700    1040.4437   -114.69062   0.94141533    -113.7492    389.83616    4.2827088    4.2827088    4.2827088    389.83616   -6238.4787   -2389.5053    9797.4924   -7940.3475   -4452.8465    1688.8181    78.551708 
   44800    688.63836   -114.37661   0.62309446   -113.75352   -3301.4048    4.2820104    4.2820104    4.2820104   -3301.4048    9748.8535   -26134.202    6481.1344   -8573.6875    226.32073   -23697.728    78.513286 
   44900    681.75265   -114.37094   0.61686412   -113.75408   -5611.3686    4.2841946    4.2841946    4.2841946   -5611.3686    4009.9077   -1630.6487   -19213.365    1306.8915    -3453.174   -2222.2973    78.633491 
   45000     870.5441   -114.53815    0.7876866   -113.75046    5466.9218    4.2817464    4.2817464    4.2817464    5466.9218   -7440.7109    22095.112    1746.3642   -4178.6239   -4399.6093    11821.263    78.498764 
   45100    740.44411   -114.42332   0.66996939   -113.75335   -6870.9515    4.2820423    4.2820423    4.2820423   -6870.9515   -5805.3905   -11067.748   -3739.7161   -9715.6533    3458.5258   -23332.542    78.515043 
   45200    672.11853   -114.36224   0.60814697   -113.75409   -11242.359    4.2840136    4.2840136    4.2840136   -11242.359     11404.05    -18945.03   -26186.095    2601.2276   -254.50064   -16306.819    78.623525 
   45300    884.21585    -114.5502   0.80005708   -113.75015   -2702.2228      4.28341      4.28341      4.28341   -2702.2228    -2787.224    4137.5278   -9456.9721   -2224.0508   -6427.6351    17336.082      78.5903 
   45400    696.28569   -114.38114   0.63001392   -113.75113    4183.7617    4.2797409    4.2797409    4.2797409    4183.7617   -10866.814    21131.699    2286.3999   -13003.807    -3841.444   -8621.4224    78.388513 
   45500    432.38411   -114.14808   0.39123023   -113.75685   -2764.5218     4.283417     4.283417     4.283417   -2764.5218    8230.7516    385.17714   -16909.494   -6186.7235     3007.882   -31613.869    78.590681 
   45600    830.72796   -114.50291   0.75166012   -113.75125    195.55989    4.2815533    4.2815533    4.2815533    195.55989    2123.9423   -1521.6946   -15.568013    7653.3798    -2721.334    3458.3381    78.488147 
   45700    864.70763   -114.53309   0.78240564   -113.75069   -4206.8753    4.2829939    4.2829939    4.2829939   -4206.8753   -15239.162   -3271.6137    5890.1495   -6628.1257   -4890.3311    6958.2809    78.567398 
   45800    347.80274   -114.07221   0.31469923   -113.75751   -506.91305    4.2805727    4.2805727    4.2805727   -506.91305    4215.9257   -1853.9895   -3882.6754   -8692.2319    2631.1345   -26580.479    78.434227 
   45900    569.08413   -114.27143   0.51491928   -113.75651    2552.9013    4.2823998    4.2823998    4.2823998    2552.9013   -7578.9264    13481.313    1756.3178    3694.3597    214.09008   -13736.639    78.534705 
   46000     967.1253    -114.6235    0.8750753   -113.74842    40.629205    4.2852223    4.2852223    4.2852223    40.629205   -13101.478     9943.789    3279.5766    1594.7372    -93.10105    9246.8968    78.690095 
   46100    497.89445   -114.20557   0.45050536   -113.75507    3672.4553    4.2777831    4.2777831    4.2777831    3672.4553    3314.6356   -1545.6001    9248.3302   -13582.258   -1120.4038   -19281.304    78.280985 
   46200    346.65932   -114.07267   0.31366464   -113.75901   -7821.0171    4.2868715    4.2868715    4.2868715   -7821.0171   -15073.248   -6681.9615   -1707.8418   -1533.0277    2085.5669   -23321.986    78.780985 
   46300    816.46998   -114.49136    0.7387592    -113.7526    13078.497    4.2788901    4.2788901    4.2788901    13078.497    1502.2023    30956.246     6777.042    11149.296   -5114.9518    8665.9646    78.341773 
   46400    806.19386    -114.4846   0.72946115   -113.75514    9681.8012    4.2764945    4.2764945    4.2764945    9681.8012    263.00023    18678.111    10104.293    -6849.648   -384.37877   -6101.4824    78.210262 
   46500     363.8386    -114.0897   0.32920881    -113.7605   -28646.484    4.2923732    4.2923732    4.2923732   -28646.484   -22945.736   -40009.752   -22983.965   -13726.571    3965.0976   -32398.219    79.084691 
   46600    665.90401   -114.35893   0.60252394    -113.7564    11816.416    4.2724519    4.2724519    4.2724519    11816.416    4663.9849    16622.052    14163.211    2615.0525   -933.12502   -6408.7846    77.988676 
   46700    1016.4244   -114.67152   0.91968212   -113.75184    4724.3108    4.2838551    4.2838551    4.2838551    4724.3108    -15319.31    23641.967    5850.2758    6635.7713   -289.88965    9220.9215      78.6148 
   46800    455.86794   -114.17177   0.41247889   -113.75929   -10242.267    4.2870249    4.2870249    4.2870249   -10242.267   -13238.785    -13065.59   -4422.4274   -12816.089    25.055049   -22313.207    78.789438 
   46900    561.24871   -114.26635   0.50782963   -113.75852   -1216.4531    4.2731444    4.2731444    4.2731444   -1216.4531    1307.1571   -19111.753    14155.237   -6085.3872     4815.149   -22164.166    78.026605 
   47000    1122.8965   -114.76725    1.0160204   -113.75123    -1106.792    4.2869869    4.2869869    4.2869869    -1106.792   -11109.192    3523.8336    4264.9822    7800.9242   -239.86485    9666.9836    78.787344 
   47100    636.91251   -114.33226   0.57629182   -113.75597    1665.7399    4.2852999    4.2852999    4.2852999    1665.7399   -3264.8414    9385.8997   -1123.8387   -10686.042   -2691.6583   -11390.623    78.694368 
   47200    381.52977   -114.10315   0.34521615   -113.75793   -1990.4834    4.2764726    4.2764726    4.2764726   -1990.4834    5716.6596   -5355.9277   -6332.1821   -18503.795    1782.7096   -26124.918    78.209063 
   47300     1023.365   -114.67735   0.92596215   -113.75139   -3616.0925    4.2868584    4.2868584    4.2868584   -3616.0925   -5885.0942   -5028.0191    64.835889    1620.2245     406.4206    994.51835    78.780259 
   47400    979.93077   -114.63972   0.88666195   -113.75306    2736.6194    4.2823626    4.2823626    4.2823626    2736.6194    7053.6491   -78.879747    1235.0887    5697.0813    3096.6805     2811.583    78.532661 
   47500    333.15661   -114.06212    0.3014471   -113.76068    937.54636    4.2761203    4.2761203    4.2761203    937.54636    16271.991    3304.9349   -16764.287   -9119.5915    173.34232     -23577.1    78.189738 
   47600    625.68586   -114.32639   0.56613371   -113.76026   -3620.6343    4.2882363    4.2882363    4.2882363   -3620.6343   -6109.3533    7883.4213   -12635.971   -12309.509     3515.973   -7824.0178    78.856249 
   47700    1079.9101   -114.72707   0.97712539   -113.74995    5028.8403    4.2828639    4.2828639    4.2828639    5028.8403   -1882.9501    8677.8902    8291.5807    3199.1028   -2702.4594    5320.4258    78.560244 
   47800    622.17477   -114.31881   0.56295681   -113.75585   -3773.1882    4.2758333    4.2758333    4.2758333   -3773.1882    18607.164   -15805.928     -14120.8   -4984.9559   -2668.4067   -20912.211    78.173995 
   47900    378.88908   -114.10339    0.3428268   -113.76056   -12366.977    4.2876972    4.2876972    4.2876972   -12366.977    272.96193   -18581.067   -18792.827   -15885.687    4639.0847   -13760.655    78.826516 
   48000    854.92573   -114.52525   0.77355477   -113.75169    9824.0861    4.2836655    4.2836655    4.2836655    9824.0861   -8073.0056    21948.334     15596.93   -4258.3743   -3788.2942       5467.5    78.604365 
   48100    767.88569   -114.44609   0.69479911   -113.75129    3903.8943    4.2798602    4.2798602    4.2798602    3903.8943    13763.311    7400.2711   -9451.8988    10111.901   -189.41461   -10682.442    78.395069 
   48200    426.18781   -114.14218   0.38562369   -113.75656   -7658.2613    4.2822352    4.2822352    4.2822352   -7658.2613     16470.59    -30076.15   -9369.2237   -10869.124   -216.01376   -20796.769     78.52565 
   48300     779.1417   -114.45842   0.70498378   -113.75343   -7338.9849    4.2857042    4.2857042    4.2857042   -7338.9849    -10219.81   -20329.343    8532.1981   -17017.311    4526.4552    5626.7127    78.716647 
   48400    909.51737   -114.57325   0.82295043    -113.7503    3425.4467    4.2811636    4.2811636    4.2811636    3425.4467   -4384.2007    10249.605    4410.9356    6354.9834   -2148.2862   -985.73999    78.466718 
   48500    594.62113   -114.29318    0.5380257   -113.75515    5430.4503    4.2762866    4.2762866    4.2762866    5430.4503    9910.6728    14905.708   -8525.0299   -3015.0174   -7642.5237   -21603.113    78.198858 
   48600     641.5076   -114.33712   0.58044956   -113.75667   -15867.822    4.2899513    4.2899513    4.2899513   -15867.822   -21133.523   -22598.976   -3870.9655   -19892.252    3811.3246   -5176.2608    78.950902 
   48700    959.19514   -114.61978   0.86789992   -113.75188   -1521.7907    4.2783042    4.2783042    4.2783042   -1521.7907   -14033.542   -7722.9493    17191.119   -1180.8001   -7244.4831     2839.773    78.309598 
   48800    859.28447   -114.52972   0.77749864   -113.75222    3243.2181    4.2780206    4.2780206    4.2780206    3243.2181    4643.2073    753.02945    4333.4177    13146.809    1016.6854   -9966.4421    78.294027 
   48900    571.56726   -114.27189   0.51716606   -113.75472   -8981.5812    4.2916357    4.2916357    4.2916357   -8981.5812   -16687.589   -11226.584    969.42942   -21082.972    2566.9572   -10909.159    79.043934 
   49000    733.04135   -114.41427   0.66327122     -113.751    13988.102    4.2749761    4.2749761    4.2749761    13988.102    101.38124    21260.147    20602.777   -15447.557   -2780.6525    7158.1356    78.126984 
   49100    882.43916   -114.54915    0.7984495    -113.7507   -469.07021    4.2831603    4.2831603    4.2831603   -469.07021   -4084.6613    -5371.928    8049.3786    16470.385   -2085.3358   -5492.5089    78.576554 
   49200    775.69307   -114.45387   0.70186339   -113.75201   -9379.7198    4.2865407    4.2865407    4.2865407   -9379.7198   -1986.6582   -29989.228    3836.7262   -241.07423    -2183.807   -13435.532    78.762746 
   49300    674.76906   -114.36254   0.61054523     -113.752    10868.105    4.2760058    4.2760058    4.2760058    10868.105    3023.1384    13645.144    15936.031   -21305.624    535.55962   -2832.2164    78.183455 
   49400    797.60648   -114.47397   0.72169111   -113.75228    1165.2605    4.2833963    4.2833963    4.2833963    1165.2605   -19812.817     13736.32    9572.2778    7568.9282    -9658.856    404.00129    78.589546 
   49500    718.91417    -114.4035   0.65048865   -113.75301    7188.4235    4.2809868    4.2809868    4.2809868    7188.4235    1351.0853    18000.791    2213.3937    13574.498    241.50861   -5425.6566    78.456996 
   49600    696.00856   -114.38403   0.62976318   -113.75426   -9146.3063     4.283925     4.283925     4.283925   -9146.3063   -3995.3248   -23564.571     120.9775   -23793.141    6081.5431   -10739.079    78.618648 
   49700    700.55404    -114.3865   0.63387602   -113.75262    6231.8305    4.2779427    4.2779427    4.2779427    6231.8305   -723.20014    3997.3926    15421.299   -11502.789   -4772.2105    1761.6545    78.289746 
   49800    675.27115   -114.36379   0.61099953   -113.75279    785.77826     4.285351     4.285351     4.285351    785.77826   -4322.8022    20117.149   -13437.012    25166.718   -3273.7596   -3442.4841    78.697184 
   49900     520.8003   -114.22433   0.47123105    -113.7531   -3730.0008    4.2847599    4.2847599    4.2847599   -3730.0008   -4937.0348    7263.9771   -13516.945   -1322.5338    214.89755   -11955.794    78.664625 
   50000    620.25914   -114.31266    0.5612235   -113.75144    6331.4122    4.2746906    4.2746906    4.2746906    6331.4122   -2593.5822    10094.766    11493.053   -25121.657   -320.45778   -358.00113    78.111337 
   50100    770.14161   -114.44643   0.69684031   -113.74958   -18831.915     4.290727     4.290727     4.290727   -18831.915   -26364.499   -10505.648   -19625.596    8795.8149   -12052.399    2392.6035    78.993738 
   50200    685.18705   -114.37159   0.61997164   -113.75162   -2493.2271    4.2768013    4.2768013    4.2768013   -2493.2271   -293.56154    5648.1504    -12834.27    10381.003   -166.27896     -8041.55    78.227101 
   50300    469.73725      -114.18   0.42502814   -113.75497     2423.108    4.2787234    4.2787234    4.2787234     2423.108   -6829.6609    26215.238   -12116.253   -19138.299    6957.6501   -14105.002    78.332616 
   50400    537.50573   -114.23904   0.48634648    -113.7527   -9783.8259    4.2908318    4.2908318    4.2908318   -9783.8259   -22888.808    12488.219   -18950.888   -8517.8477   -14027.681    432.79153    78.999524 
   50500    735.45826   -114.41399   0.66545809   -113.74853    11009.458     4.270663     4.270663     4.270663    11009.458     15041.31    22867.791    -4880.727    16083.988    -2367.998   -1329.6354    77.890752 
   50600    618.30632    -114.3132   0.55945655   -113.75375   -17614.579    4.2865517    4.2865517    4.2865517   -17614.579   -5988.7047   -19583.495   -27271.537   -5354.4028    12207.834   -12241.128    78.763353 
   50700    547.22705   -114.24975   0.49514253    -113.7546   -9715.4033    4.2829598    4.2829598    4.2829598   -9715.4033   -13391.994   -3828.2497   -11925.966   -20665.164   -7697.1549   -225.40993    78.565523 
   50800    713.79968   -114.39666   0.64586095    -113.7508    8157.7355    4.2789239    4.2789239    4.2789239    8157.7355   -6721.8225    30576.644    618.38472   -960.05045   -15310.832    5208.6608    78.343628 
   50900    801.95759   -114.47514   0.72562808   -113.74951   -3092.6374    4.2848946    4.2848946    4.2848946   -3092.6374   -7127.4288    16985.652   -19136.136    6751.6407    9284.8807   -8262.7792    78.672046 
   51000     525.0309   -114.22967   0.47505899   -113.75461    10023.716    4.2745439    4.2745439    4.2745439    10023.716    1392.3487    24234.585    4444.2149    -10907.89    3712.7837   -12429.945    78.103292 
   51100    637.97327   -114.33409   0.57725162   -113.75684   -10632.681    4.2879529    4.2879529    4.2879529   -10632.681   -23868.268   -8208.8219    179.04859   -12441.468   -22354.177     2427.828    78.840617 
   51200    994.85853    -114.6511    0.9001689   -113.75093    11304.826    4.2770826    4.2770826    4.2770826    11304.826    6559.1003      12135.9    15219.479    2569.1242    1568.0297    1646.8017    78.242533 
   51300     785.4203    -114.4641   0.71066479   -113.75344    1888.9013    4.2819657    4.2819657    4.2819657    1888.9013   -6573.6038    7525.1363    4715.1714    -2998.659     11309.45   -5565.9675    78.510824 
   51400    474.60746   -114.18592   0.42943481   -113.75648   -12811.237     4.287093     4.287093     4.287093   -12811.237   -36446.323    3333.5798   -5320.9668   -17876.226   -17527.182   -4143.9886    78.793195 
   51500    776.33874   -114.45501   0.70244761   -113.75256    19801.773     4.271212     4.271212     4.271212    19801.773    2678.9032    35803.033    20923.383   -3411.2105   -13567.523    3782.3138    77.920794 
   51600    1019.6205   -114.67275   0.92257407   -113.75018   -2297.4837    4.2888976    4.2888976    4.2888976   -2297.4837   -12108.888    7308.4639   -2092.0269     5100.372    12427.323   -11074.884     78.89274 
   51700    518.75979   -114.22636   0.46938476   -113.75697   -5268.3764    4.2827214    4.2827214    4.2827214   -5268.3764   -18503.391   -5550.6785    8248.9402   -12384.345   -7573.4834   -10394.778    78.552402 
   51800    610.41116   -114.30739   0.55231284   -113.75507   -2191.8356     4.274915     4.274915     4.274915   -2191.8356   -20470.566    -342.6814    14237.741   -16231.339   -24571.495    2057.1344    78.123634 
   51900    980.81246   -114.63718   0.88745973   -113.74972   -3440.7902    4.2880638    4.2880638    4.2880638   -3440.7902   -15985.035    3351.3866    2311.2782    6473.7248    6144.2522    5400.3428    78.846736 
   52000     811.9513   -114.48784    0.7346706   -113.75317    5607.2228    4.2765187    4.2765187    4.2765187    5607.2228   -5133.3889    19658.481    2296.5767    925.83841   -1923.3772   -2066.7065    78.211592 
   52100    342.11434   -114.07033   0.30955225   -113.76077   -5209.3824     4.280656     4.280656     4.280656   -5209.3824   -31502.484    19765.233   -3890.8958   -16353.683   -25627.559    -6903.308     78.43881 
   52200    629.25098   -114.32532   0.56935951   -113.75596   -4296.5956    4.2864529    4.2864529    4.2864529   -4296.5956   -17976.875   -1820.9523    6908.0408    3738.6149    -3181.463    1150.9773    78.757909 
   52300    955.60848   -114.61288   0.86465463   -113.74822    12331.182    4.2747645    4.2747645    4.2747645    12331.182    7291.1142    5118.5581    24583.874    9761.1983    6597.1034    -7370.775    78.115386 
   52400    543.89164   -114.24868   0.49212458   -113.75655   -13808.428    4.2858441    4.2858441    4.2858441   -13808.428   -32067.341   -5748.0833    -3609.859   -14648.053   -22292.012   -1447.1849    78.724352 
   52500    508.65111   -114.21784   0.46023821    -113.7576   -8317.5617    4.2799721    4.2799721    4.2799721   -8317.5617   -29041.903    -919.1474    5008.3658   -13616.281   -19774.176   -80.285752    78.401217 
   52600    879.20603   -114.54886   0.79552409   -113.75334    4869.8454    4.2801071    4.2801071    4.2801071    4869.8454   -2015.6713    5545.9574     11079.25    17599.296    6090.0013    6353.6705    78.408638 
   52700    827.78603    -114.5019   0.74899819    -113.7529    1035.2211     4.282778     4.282778     4.282778    1035.2211     1653.744    13111.434   -11659.514    3793.0703    -9548.462    905.44463    78.555516 
   52800    486.12332   -114.19719    0.4398546   -113.75733    2447.7817    4.2793427    4.2793427    4.2793427    2447.7817   -1189.7996    10867.049   -2333.9039   -14136.759   -19681.691   -7714.4679    78.366634 
   52900    699.59117   -114.38829   0.63300479   -113.75528   -6298.1646    4.2847624    4.2847624    4.2847624   -6298.1646   -19792.735   -8416.2272    9314.4688    2673.1633    2305.4588   -1464.4128    78.664762 
   53000    1060.0615   -114.70855   0.95916593   -113.74939    6913.9164    4.2758001    4.2758001    4.2758001    6913.9164    3478.5702    11750.231    5512.9481    8214.4644    2209.7951    737.44071    78.172173 
   53100    739.91409   -114.42383   0.66948981   -113.75434   -6033.0886    4.2861295    4.2861295    4.2861295   -6033.0886   -15697.861    5476.5166   -7877.9214   -12140.743   -19098.197    642.75141    78.740081 
   53200     644.8729   -114.33849   0.58349455     -113.755   -4811.9843    4.2825572    4.2825572    4.2825572   -4811.9843   -9303.9773   -8140.6548    3008.6793   -15788.207   -13286.602   -2894.0007     78.54337 
   53300    813.42753   -114.48711   0.73600632   -113.75111    13870.052    4.2751424    4.2751424    4.2751424    13870.052    19514.457    14953.572     7142.126    16149.374    5739.4372    4882.4561    78.136105 
   53400    811.90223   -114.48731    0.7346262   -113.75269   -3774.2362    4.2868958    4.2868958    4.2868958   -3774.2362   -8077.2317    19757.421   -23002.898    7261.9218   -6630.3476    10171.225    78.782324 
   53500    721.43044   -114.40699   0.65276542   -113.75422   -1564.3434    4.2778821    4.2778821    4.2778821   -1564.3434   -16996.268    19046.276   -6743.0384   -19280.234   -16888.032   -167.54369    78.286419 
   53600    771.00911   -114.45126   0.69762524   -113.75364   -4809.0754    4.2811851    4.2811851    4.2811851   -4809.0754   -10710.999    -8363.799    4647.5722   -10663.411    3506.8224    256.01252    78.467895 
   53700    906.70986   -114.57175   0.82041014   -113.75134    -3976.807    4.2816839    4.2816839    4.2816839    -3976.807    8107.8358   -3448.9322   -16589.325    8116.0015    4100.9879    3305.9066     78.49533 
   53800     526.1288   -114.23153   0.47605239   -113.75548    6676.2521    4.2784284    4.2784284    4.2784284    6676.2521    5400.1527    26309.243    -11680.64   -5208.7506   -14154.726    1199.3363    78.316418 
   53900    561.94642   -114.26445   0.50846093   -113.75599   -11049.088     4.283369     4.283369     4.283369   -11049.088   -18647.907   -12318.775   -2180.5826   -28569.063   -11630.063   -397.97515     78.58804 
   54000    887.68471   -114.55454   0.80319578   -113.75135    5408.7706    4.2750265    4.2750265    4.2750265    5408.7706    9650.1034   -3724.6956    10300.904    5419.7707    2633.0577    7052.1096    78.129749 
   54100    653.18607   -114.34625   0.59101648   -113.75523   -1254.9626     4.284174     4.284174     4.284174   -1254.9626   -7644.7975    14017.381   -10137.472    3275.6896   -5490.3604    5943.6727     78.63236 
   54200    322.68023   -114.05216   0.29196785   -113.76019   -9564.7527    4.2804803    4.2804803    4.2804803   -9564.7527    -17982.58   -5809.3602   -4902.3173   -27740.441   -8686.1319   -2770.4949    78.429151 
   54300    583.47707   -114.28511   0.52794231   -113.75717    6355.9097    4.2760278    4.2760278    4.2760278    6355.9097    18225.939   -15996.096    16837.886   -14426.762    1753.3628   -532.34178    78.184661 
   54400    987.44478   -114.64421   0.89346079   -113.75075   -603.22868    4.2851114    4.2851114    4.2851114   -603.22868     13806.59    -5228.446    -10387.83    6430.7986    1556.9286    5482.3211    78.683986 
   54500    440.93876   -114.15925   0.39897065   -113.76027   -1296.0298    4.2786898    4.2786898    4.2786898   -1296.0298   -5619.5074    6850.3536   -5118.9355   -16318.295   -10079.481    543.52972    78.330773 
   54600    358.07025   -114.08563   0.32398949   -113.76164   -11412.699    4.2796798    4.2796798    4.2796798   -11412.699   -12237.654   -25481.257    3480.8133   -34467.197   -5228.9362   -2124.8655    78.385159 
   54700    926.21689   -114.59214   0.83806051   -113.75408   -1574.4628     4.283774     4.283774     4.283774   -1574.4628     21892.05   -18241.629   -8373.8095    8846.3151    2706.8243    2309.3515    78.610337 
   54800    764.80393   -114.44635   0.69201067   -113.75434    2913.0825    4.2799233    4.2799233    4.2799233    2913.0825    14686.145   -5656.4902   -290.40695    3597.0815   -2776.8383     6293.031    78.398536 
   54900    390.54766   -114.11379   0.35337573   -113.76042   -7977.3512    4.2773294    4.2773294    4.2773294   -7977.3512   -22472.459   -6450.4059    4990.8113   -34559.431   -4829.3609   -3220.3647    78.256078 
   55000     716.4899   -114.40666   0.64829512   -113.75837   -5394.1884    4.2831302    4.2831302    4.2831302   -5394.1884   -6441.6756   -4297.2403   -5443.6492   -6326.7355   -981.30677   -6467.7763    78.574896 
   55100    978.70189   -114.63713   0.88555004   -113.75158    1586.4723    4.2836578    4.2836578    4.2836578    1586.4723    15919.431   -9940.4111   -1219.6028    11722.007    2852.6314    3345.1458    78.603939 
   55200    607.88742    -114.3071   0.55002931   -113.75707    11754.736    4.2721641    4.2721641    4.2721641    11754.736     12172.66    10662.667    12428.882   -16267.283   -10739.534    3878.6658    77.972916 
   55300    630.86585   -114.33127   0.57082068   -113.76045    -7617.586    4.2833288    4.2833288    4.2833288    -7617.586   -3044.5986    -7605.288   -12202.871   -21250.848   -9821.1625   -4780.7946    78.585828 
   55400    924.86383    -114.5906   0.83683623   -113.75376   -3768.8416    4.2834655    4.2834655    4.2834655   -3768.8416   -883.24922    270.40718   -10693.683    15337.826    2742.0264   -6820.7245    78.593353 
   55500    895.51022   -114.56171   0.81027647   -113.75144    2765.7758    4.2751319    4.2751319    4.2751319    2765.7758   -6099.6696    5641.5264    8755.4705     8292.349    873.34872    2951.3855    78.135528 
   55600    612.59419   -114.30872   0.55428809   -113.75443   -15951.022    4.2871168    4.2871168    4.2871168   -15951.022   -20671.645   -12888.913    -14292.51   -28506.859   -9919.3725    -3337.722    78.794509 
   55700     735.8264   -114.41969   0.66579119    -113.7539    4251.0183    4.2751455    4.2751455    4.2751455    4251.0183    14199.088    9659.3232   -11105.356   -1511.2071    -4831.738   -13195.412    78.136273 
   55800    915.21752   -114.58185   0.82810805   -113.75374    2050.9444    4.2792801    4.2792801    4.2792801    2050.9444    4915.0001   -2296.6613    3534.4945    21580.854    3242.7268   -1392.8417    78.363194 
   55900    710.68911   -114.39928   0.64304644   -113.75623   -6627.3128    4.2844034    4.2844034    4.2844034   -6627.3128   -23146.287    2970.9606    293.38768   -8512.3001   -5867.2648    2704.7699    78.644989 
   56000    630.95702   -114.32671   0.57090317    -113.7558    3432.3175    4.2756132    4.2756132    4.2756132    3432.3175   -379.13197    10151.536    524.54854   -19489.293    -11445.12   -12614.754    78.161922 
   56100    724.67339   -114.41032   0.65569971   -113.75462    6454.5784    4.2818691    4.2818691    4.2818691    6454.5784    8719.5681     10314.87    329.29736    9730.4629    2350.7464   -8943.4826    78.505512 
   56200    810.82086   -114.48647   0.73364776   -113.75282    6959.2095    4.2787494    4.2787494    4.2787494    6959.2095    474.57121    9245.8304    11157.227    12928.544    4004.9058    5857.8381    78.334045 
   56300    485.18931   -114.19695   0.43900949   -113.75794   -4019.8407     4.280228     4.280228     4.280228   -4019.8407   -754.18022   -14531.511    3226.1693   -18627.529   -7199.2089    -4825.546    78.415281 
   56400    477.77335   -114.19006   0.43229937   -113.75776   -5263.4694    4.2813789    4.2813789    4.2813789   -5263.4694   -1261.6976    257.48297   -14786.194   -8933.5473   -10239.241   -20602.855    78.478555 
   56500    888.98595   -114.55574   0.80437317   -113.75137    3904.4247     4.276106     4.276106     4.276106    3904.4247   -3648.7765    7661.5965    7700.4541    14754.719    2052.9057    -4102.619    78.188951 
   56600    650.90042   -114.34359   0.58894837   -113.75464   -13307.997    4.2848283    4.2848283    4.2848283   -13307.997   -22794.472   -21511.643    4382.1247   -8112.1925     1358.755    5775.5825    78.668394 
   56700    295.38105   -114.02703   0.26726698   -113.75976   -6492.3089    4.2772824    4.2772824    4.2772824   -6492.3089    2476.8202   -8570.1799   -13383.567    -17842.82   -13245.689    -20657.83    78.253498 
   56800    609.64301   -114.31088   0.55161781   -113.75926    4718.3945    4.2802858    4.2802858    4.2802858    4718.3945      16565.4    10693.484   -13103.701    2921.9943   -2964.3557   -10079.871    78.418461 
   56900    957.49767   -114.61866   0.86636401   -113.75229    5561.8531    4.2804804    4.2804804    4.2804804    5561.8531    1394.0863    5832.0257    9459.4472    7233.4936    5935.5443    6697.5838    78.429155 
   57000    478.45383   -114.19426   0.43291508   -113.76135   -4709.3847    4.2784544    4.2784544    4.2784544   -4709.3847   -9471.2938    4069.4574   -8726.3177   -14126.266   -7002.8845   -12050.403    78.317846 
   57100    392.21653    -114.1175   0.35488576   -113.76261    -16829.82    4.2860581    4.2860581    4.2860581    -16829.82   -5951.5564   -13842.731   -30695.172   -13714.197   -13653.517   -22413.108    78.736148 
   57200    1121.8619   -114.76807    1.0150842   -113.75298    13095.116    4.2714202    4.2714202    4.2714202    13095.116    14612.457     18358.21    6314.6821    6121.6997    1365.9651   -939.74091    77.932192 
   57300    912.71792   -114.58326   0.82584635   -113.75741   -5661.6968    4.2857881    4.2857881    4.2857881   -5661.6968   -6643.6807    28.992786   -10370.403   -735.37187    4197.0996   -197.22092    78.721266 
   57400    299.17459   -114.03569   0.27069945   -113.76499   -8824.0859    4.2820082    4.2820082    4.2820082   -8824.0859    10917.455   -21054.879   -16334.833   -12168.739   -8185.2187   -27357.983    78.513164 
   57500    765.77531   -114.45281   0.69288959   -113.75992    11746.189    4.2719645    4.2719645    4.2719645    11746.189     15183.73    11464.725    8590.1108   -7228.4967   -4693.4974   -4449.2704     77.96199 
   57600    1148.8118   -114.79068    1.0394691   -113.75121    -48.74181    4.2888106    4.2888106    4.2888106    -48.74181   -4475.3232    5242.0841   -912.98629     4751.193    6636.2963    9195.8388    78.887939 
   57700    722.13147   -114.41361   0.65339973   -113.76021   -1883.2846    4.2752924    4.2752924    4.2752924   -1883.2846   -468.75004    2105.8053    -7286.909   -6858.6732    -4731.016   -23590.195     78.14433 
   57800    486.80416   -114.20366   0.44047063   -113.76319   -6176.5595    4.2777917    4.2777917    4.2777917   -6176.5595   -9261.6987    702.85635   -9970.8363   -13092.659   -15797.198   -17162.878    78.281457 
   57900    1034.5819   -114.68977   0.93611148   -113.75366    -7351.544    4.2876438    4.2876438    4.2876438    -7351.544   -14031.692   -6537.0517    -1485.888     6953.499   -860.70109    2676.8342    78.823568 
   58000    873.80054   -114.54392    0.7906331   -113.75328    11663.306     4.274859     4.274859     4.274859    11663.306    21360.784    4963.0244    8666.1096    4132.3431    7089.2545   -4889.7692    78.120565 
   58100     386.4675   -114.10931   0.34968392   -113.75963    -6346.821    4.2823636    4.2823636    4.2823636    -6346.821    9875.0154   -18985.155   -9930.3232   -14650.733   -8800.1507    -21876.64    78.532716 
   58200    648.58865   -114.34319   0.58685664   -113.75633   -5826.3893    4.2829032    4.2829032    4.2829032   -5826.3893   -6112.4622   -18903.326    7536.6206   -3361.3835   -6254.6806   -975.19539    78.562408 
   58300    949.00872   -114.60916   0.85868304   -113.75048    10196.944    4.2769194    4.2769194    4.2769194    10196.944    4432.0021    5861.8836    20296.948     13364.92    556.41043     5600.014    78.233581 
   58400    700.39119   -114.38915   0.63372866   -113.75543   -6734.8551    4.2824089    4.2824089    4.2824089   -6734.8551    252.12664    -15818.29   -4638.4024   -6482.1625   -2411.0663   -22622.173    78.535207 
   58500    444.90274   -114.15996   0.40255735    -113.7574   -835.56242    4.2806682    4.2806682    4.2806682   -835.56242    2709.9898   -15516.747     10300.07   -15133.312   -14772.087   -9044.1098     78.43948 
   58600    743.88553   -114.42559   0.67308326    -113.7525    1326.7329    4.2821992    4.2821992    4.2821992    1326.7329   -4546.8161   -4301.4505    12828.465    10588.139   -3880.2034     2625.043    78.523671 
   58700    722.19023   -114.40504    0.6534529   -113.75159    13504.104    4.2765712    4.2765712    4.2765712    13504.104    25607.475   -5952.6164    20857.454    10437.507     8301.779   -5866.5748    78.214471 
   58800    461.27848   -114.17414   0.41737447   -113.75676    -7649.884    4.2830298    4.2830298    4.2830298    -7649.884   -2660.6988   -25474.643    5185.6899   -15500.767   -7268.1502   -16717.151    78.569374 
   58900    589.44934   -114.28963   0.53334615   -113.75628   -6870.7189    4.2781055    4.2781055    4.2781055   -6870.7189   -21229.697   -3579.8428    4197.3829   -6465.2278   -13753.561    1150.7766    78.298684 
   59000    839.29367   -114.51259   0.75941055   -113.75318    380.04897    4.2775218    4.2775218    4.2775218    380.04897   -5936.1423   -6140.0316    13216.321     13906.82   -1591.5711   -1122.2536    78.266642 
   59100    636.23164    -114.3313   0.57567576   -113.75562   -11821.252    4.2853923    4.2853923    4.2853923   -11821.252   -4437.3348   -25611.681   -5414.7391   -1077.5678    4124.5504   -25572.618    78.699459 
   59200     546.0846   -114.25008   0.49410883   -113.75597    3913.7101    4.2733464    4.2733464    4.2733464    3913.7101     -3335.05   -2352.4268    17428.607   -16420.207   -16178.655   -3151.2375    78.037673 
   59300    713.39337   -114.40017   0.64549331   -113.75468   -3488.4579     4.284489     4.284489     4.284489   -3488.4579   -14087.882   -12366.046    15988.555    6511.7211   -6744.4057    3982.4966    78.649705 
   59400    792.52527   -114.47125   0.71709352   -113.75415    2856.7827    4.2776595    4.2776595    4.2776595    2856.7827    13154.657    -9385.261    4800.9521     8324.357    12472.338   -12056.895    78.274199 
   59500    633.75736   -114.32959   0.57343698   -113.75616    312.87209    4.2760442    4.2760442    4.2760442    312.87209    6211.9841   -6564.2761    1290.9083   -10686.291    -2863.538   -17182.341    78.185561 
   59600    762.28548   -114.44326   0.68973192   -113.75353   -12351.628    4.2888934    4.2888934    4.2888934   -12351.628   -25148.445   -12861.437    954.99878   -12769.592   -14011.068    7542.6986    78.892509 
   59700    880.66001   -114.54696   0.79683969   -113.75012    9273.7871    4.2731131    4.2731131    4.2731131    9273.7871    6368.6659    6848.7639    14603.932    3869.2108   -1131.4408   -5450.9341     78.02489 
   59800    594.80877   -114.29364   0.53819547   -113.75544    1498.9657    4.2784829    4.2784829    4.2784829    1498.9657    15835.517   -3822.3664   -7516.2534    586.31487    16718.085   -21152.419    78.319406 
   59900    669.01216   -114.36198   0.60533626   -113.75665   -10864.306    4.2841439    4.2841439    4.2841439   -10864.306   -15480.643   -14160.997   -2951.2786   -18383.841   -11175.109   -450.93939    78.630704 
   60000    876.86877    -114.5468   0.79340929    -113.7534    4983.4545    4.2752152    4.2752152    4.2752152    4983.4545   -2740.0696    12267.815    5422.6175   -2371.7894   -9919.9689    2794.4345    78.140097 
   60100    809.09476   -114.48616   0.73208594   -113.75408   -3135.0204    4.2809287    4.2809287    4.2809287   -3135.0204    12532.659   -2348.6219   -19589.098    3443.1366    12388.724   -16460.451      78.4538 
   60200    674.21176   -114.36558   0.61004097   -113.75553   -5981.6208    4.2809158    4.2809158    4.2809158   -5981.6208   -6174.6475   -15801.015    4030.7998    -7673.793    2937.6765   -8905.3955    78.453091 
   60300    657.13437   -114.35114   0.59458898   -113.75655    5520.2712    4.2761767    4.2761767    4.2761767    5520.2712    4406.1245    1678.1269    10476.562   -14754.243   -13301.324    9336.8536    78.192828 
   60400    824.16219   -114.50114   0.74571927   -113.75542     7305.016    4.2783243    4.2783243    4.2783243     7305.016    18221.518   -5676.2015    9369.7311    2696.3611   -5844.5701   -11952.567    78.310702 
   60500    813.07336   -114.49022   0.73568586   -113.75453   -1928.1381    4.2839681    4.2839681    4.2839681   -1928.1381    14948.632   -15062.833   -5670.2139    -1381.609    10965.403   -16929.187    78.621022 
   60600    639.39214   -114.33376   0.57853545   -113.75522   -4490.9257    4.2781035    4.2781035    4.2781035   -4490.9257    2817.1818   -14675.176   -1614.7828   -18424.268   -7673.8678    12513.047    78.298576 
   60700    688.45303   -114.37831   0.62292677   -113.75539   -1791.7625    4.2757321    4.2757321    4.2757321   -1791.7625   -986.55757   -17757.907    13369.177   -4989.9602   -9462.1095    5488.8078    78.168442 
   60800    851.61409   -114.52361   0.77055833   -113.75305   -3612.6719    4.2859616    4.2859616    4.2859616   -3612.6719    18148.572   -19690.796   -9295.7914    6451.5829    -102.9649   -19792.452    78.730832 
   60900    738.20769   -114.42181   0.66794583   -113.75386    4999.1687    4.2774833    4.2774833    4.2774833    4999.1687    26599.126   -19061.819    7460.1991   -7932.2421    7373.4427    2816.8095    78.264528 
   61000    457.04283   -114.17186   0.41354196   -113.75832   -5084.9677    4.2783332    4.2783332    4.2783332   -5084.9677    5878.7795   -30320.151    9186.4686   -13352.612   -6790.3939    13037.107    78.311186 
   61100    699.98312   -114.38827   0.63335944   -113.75491   -9177.1066    4.2845989    4.2845989    4.2845989   -9177.1066    198.17853   -16315.153   -11414.346     9372.353    -13278.09   -10570.959    78.655755 
   61200    999.20625   -114.65413   0.90410281   -113.75003    4348.1173    4.2767709    4.2767709    4.2767709    4348.1173    17582.468   -5891.2638    1353.1474    -4720.101    233.03084   -6348.6529    78.225428 
   61300    611.97272   -114.30998   0.55372577   -113.75626   -2401.6835    4.2802812    4.2802812    4.2802812   -2401.6835    8730.2964   -28873.774    12938.427   -17365.709   -821.14994    16085.476    78.418205 
   61400    462.66497   -114.17668   0.41862899   -113.75805   -4574.7547    4.2821467    4.2821467    4.2821467   -4574.7547    8622.7719   -22240.461    -106.5749    3384.3567   -6303.0354    4781.1135    78.520782 
   61500    753.03884   -114.43478   0.68136537   -113.75342    5319.0021    4.2787433    4.2787433    4.2787433    5319.0021    11449.287    -7689.787    12197.507    12269.477   -4983.5674   -7956.0196    78.333713 
   61600    735.84933   -114.41871   0.66581194    -113.7529    2786.4506    4.2795153    4.2795153    4.2795153    2786.4506    9319.3698   -10289.456    9329.4384   -12400.017    10178.734    5111.1285    78.376119 
   61700     545.8685   -114.24937   0.49391329   -113.75546   -12570.764    4.2828416    4.2828416    4.2828416   -12570.764    -11734.62    -24337.69   -1639.9812   -1528.0973   -9469.6428    8627.3167    78.559015 
   61800    565.79493   -114.26653   0.51194314   -113.75459   -3391.2838    4.2780334    4.2780334    4.2780334   -3391.2838   -3453.3746   -7663.9757      943.499    15543.677   -13832.141   -2853.5115    78.294726 
   61900    722.19752    -114.4066   0.65345949   -113.75314    1899.4516    4.2795002    4.2795002    4.2795002    1899.4516     17457.37    2317.3564   -14076.371   -6019.9074    11554.499    1119.1924    78.375287 
   62000    633.35522   -114.32614   0.57307312   -113.75307   -2487.2688    4.2831685    4.2831685    4.2831685   -2487.2688    16888.611   -17848.457   -6501.9604   -3844.8941    8788.3372    13440.854    78.577004 
   62100    578.27384   -114.27628   0.52323432   -113.75304   -5810.5035    4.2809063    4.2809063    4.2809063   -5810.5035   -14519.829   -19434.607    16522.926    16159.636   -11864.996    340.25245     78.45257 
   62200    637.94247   -114.33002   0.57722375   -113.75279    475.73195     4.276679     4.276679     4.276679    475.73195   -3477.6179    2946.4791    1958.3346    8190.1803   -2888.7444   -249.92268    78.220387 
   62300    621.24076   -114.31633   0.56211169   -113.75422    6005.0028    4.2821332    4.2821332    4.2821332    6005.0028    18789.403    796.17746   -1570.5718   -5302.6503    15624.784    7790.5415    78.520043 
   62400    707.09757   -114.39199   0.63979674   -113.75219   -2954.9986    4.2838494    4.2838494    4.2838494   -2954.9986    11904.981   -20342.692   -427.28483    9411.4419    -6622.868    2502.0329    78.614489 
   62500    727.99883   -114.40991   0.65870864    -113.7512   -526.38275    4.2747275    4.2747275    4.2747275   -526.38275   -6785.2236     5882.099   -676.02366    11751.788   -9003.4885   -3481.0282    78.113359 
   62600    670.65825   -114.36145   0.60682568   -113.75462   -8322.5801    4.2823489    4.2823489    4.2823489   -8322.5801   -12993.864     7532.394   -19506.271   -4363.6459    21056.363    4480.5167    78.531907 
   62700    746.88001   -114.42974   0.67579273   -113.75395   -1914.2832    4.2823818    4.2823818    4.2823818   -1914.2832    9617.1859    -4914.898   -10445.137    4005.9522    12600.447    9475.4498    78.533717 
   62800    766.69488   -114.44634   0.69372164   -113.75261    12434.088    4.2763999    4.2763999    4.2763999    12434.088    23752.143    2356.4179    11193.704    19131.027   -19596.421   -2469.4287    78.205073 
   62900    741.87076   -114.42559   0.67126025   -113.75433   -1369.8457    4.2824089    4.2824089    4.2824089   -1369.8457     2526.686    7835.5359   -14471.759    3468.2802    8246.0037   -573.42132    78.535208 
   63000    733.74994   -114.41897   0.66391237   -113.75506   -3651.5338     4.280529     4.280529     4.280529   -3651.5338    6513.4612    13340.813   -30808.875   -2045.9729    29168.461    8381.7926    78.431828 
   63100    901.36192   -114.56825   0.81557121   -113.75268    6496.5144    4.2766906    4.2766906    4.2766906    6496.5144    21375.129     1232.848   -3118.4343    13324.385   -483.52606    3462.9278    78.221026 
   63200    828.02572   -114.50227   0.74921508   -113.75305    435.07449    4.2836183    4.2836183    4.2836183    435.07449    19970.727   -8046.2041   -10619.299    7140.0113    -5143.219   -1493.7376    78.601763 
   63300    639.58051   -114.33459   0.57870589   -113.75588   -2187.3142    4.2790299    4.2790299    4.2790299   -2187.3142    3656.6298      20589.5   -30808.072   -3789.8019    26283.784    1556.2266    78.349453 
   63400       795.55   -114.47438   0.71983036   -113.75455    -214.2308    4.2751369    4.2751369    4.2751369    -214.2308    2873.5756   -817.75568   -2698.5124    4166.1958    12831.356    6210.1643    78.135805 
   63500    858.31229   -114.53032   0.77661899    -113.7537   -8204.2286    4.2849713    4.2849713    4.2849713   -8204.2286    2723.9535   -27730.956    394.31715    20070.494   -6203.5893   -5953.9328    78.676267 
   63600    596.20367   -114.29665   0.53945761   -113.75719    962.74654    4.2771247    4.2771247    4.2771247    962.74654    8894.8286    12614.571    -18621.16   -382.01439    21044.064   -1493.2558    78.244847 
   63700    641.07041   -114.33622   0.58005398   -113.75616    3887.2536    4.2787265    4.2787265    4.2787265    3887.2536    19951.109    10199.054   -18488.402   -4343.8094    19664.201    6544.9626    78.332789 
   63800    878.73802   -114.54527   0.79510063   -113.75017   -10405.345    4.2875682    4.2875682    4.2875682   -10405.345    8175.1844   -29718.802   -9672.4166     14322.44   -6699.7088   -2579.6545    78.819402 
   63900    679.12956    -114.3674    0.6144907   -113.75291    4816.4018    4.2711635    4.2711635    4.2711635    4816.4018    7275.9413    9802.1112    -2628.847    7130.4991    8712.6632   -5470.1141    77.918144 
   64000    529.59432   -114.23619   0.47918807     -113.757   -519.17967    4.2839499    4.2839499    4.2839499   -519.17967    13207.533    15331.496   -30096.568   -1508.5615    26593.503    -746.2006    78.620019 
   64100    795.70065    -114.4721   0.71996667   -113.75213    751.00697    4.2834018    4.2834018    4.2834018    751.00697    11963.133   -4057.1533   -5652.9583   -1253.3777   -331.56967     3785.033    78.589848 
   64200    674.92514   -114.36185   0.61068645   -113.75116    12763.663    4.2693721    4.2693721    4.2693721    12763.663    15055.504    3434.9093    19800.577    12766.072    3174.9529   -6131.6172    77.820144 
   64300    427.06546   -114.14388    0.3864178   -113.75746   -20908.871    4.2884049    4.2884049    4.2884049   -20908.871   -31228.154   -3904.2084   -27594.252    3353.4061    30525.232   -4947.1202    78.865552 
   64400    652.41671   -114.34413   0.59032035   -113.75381    8423.8901    4.2757377    4.2757377    4.2757377    8423.8901    6987.7462    22331.061   -4047.1368   -3761.2464    5856.7456    2356.1593    78.168751 
   64500    833.32536   -114.50488   0.75401029   -113.75087   -330.15915     4.279339     4.279339     4.279339   -330.15915    8967.0732   -17151.222    7193.6716    9681.0974   -11476.102   -670.76284    78.366432 
   64600    445.04641   -114.15877   0.40268735   -113.75608   -18464.434    4.2848565    4.2848565    4.2848565   -18464.434   -18662.744   -12727.944   -24002.614    2521.5884    31590.955   -6182.8412    78.669947 
   64700    548.30263   -114.25127   0.49611574   -113.75515    3324.1947    4.2720667    4.2720667    4.2720667    3324.1947    -3758.193    21929.051   -8198.2736    721.71421    29384.222   -6079.3276    77.967585 
   64800    892.94197   -114.55832   0.80795266   -113.75036   -4712.4826    4.2873585    4.2873585    4.2873585   -4712.4826   -8884.5589   -16375.158    11122.269   -2445.8674   -16228.585    2735.1811    78.807836 
   64900    467.95688   -114.17961   0.42341722   -113.75619    1257.0291    4.2774943    4.2774943    4.2774943    1257.0291    -5568.463   -9378.1184    18717.669    2553.9666    11446.045   -2984.9307    78.265129 
   65000    339.27427   -114.06691   0.30698249   -113.75993   -4132.0862    4.2742764    4.2742764    4.2742764   -4132.0862   -6297.7007    13781.986   -19880.544    2413.1724    42944.784   -5229.4204    78.088628 
   65100    898.95451   -114.56492   0.81339293   -113.75153   -9879.0482     4.287798     4.287798     4.287798   -9879.0482   -13576.451   -4807.1655   -11253.528   -3562.5944    1903.1953    974.80261    78.832075 
   65200    820.87041   -114.49591    0.7427408   -113.75317     146.2015    4.2762422    4.2762422    4.2762422     146.2015   -10914.206   -5911.1828    17263.993    6530.0124   -1382.6634    1244.4555     78.19642 
   65300    188.62352    -113.9327   0.17067052   -113.76203   -7231.4422    4.2768439    4.2768439    4.2768439   -7231.4422   -27328.657    11158.834   -5524.5037     3062.796    43123.695   -3202.9168    78.229436 
   65400    584.21773   -114.28734   0.52861248   -113.75873   -1961.6505    4.2860753    4.2860753    4.2860753   -1961.6505    -3507.984    1182.6518   -3559.6194    712.84258    13202.033    -7052.055    78.737094 
   65500    1020.9393    -114.6733   0.92376731   -113.74953    5220.9357    4.2796989    4.2796989    4.2796989    5220.9357    9608.6408   -5765.8714    11820.038    80.947854    -12565.84    1029.2658    78.386208 
   65600    456.66194   -114.17233   0.41319732   -113.75913   -7537.9253    4.2741606    4.2741606    4.2741606   -7537.9253   -26491.417    18602.276   -14724.635     2216.832    40194.925    1250.5136    78.082284 
   65700    359.61743   -114.08785   0.32538941   -113.76246   -7408.0197    4.2848384    4.2848384    4.2848384   -7408.0197   -18176.634    7627.2789   -11674.704    1831.0574    30011.502   -8702.5215    78.668949 
   65800    957.03337   -114.61794    0.8659439   -113.75199    4643.7571    4.2835658    4.2835658    4.2835658    4643.7571    9975.7993   -12257.828      16213.3    -2237.802   -16143.233   -4533.3695    78.598873 
   65900    658.35879   -114.35045   0.59569687   -113.75475    15042.051    4.2687072    4.2687072    4.2687072    15042.051    9269.3511    21801.331    14055.472    2350.7826    17719.182    3954.2903    77.783791 
   66000     373.7902    -114.1006   0.33821323   -113.76238    -19214.11    4.2866534    4.2866534    4.2866534    -19214.11    -26764.82    3342.2672   -34219.777     2623.403    40919.026   -3220.0381    78.768957 
   66100    772.24094   -114.45392   0.69873983   -113.75519   -5815.7357    4.2831639    4.2831639    4.2831639   -5815.7357     4024.511   -16553.473   -4918.2453    2238.9954   -4793.5831    -11491.88    78.576752 
   66200    818.79711   -114.49137   0.74086483   -113.75051    15453.535    4.2696969    4.2696969    4.2696969    15453.535     9783.514    10216.161     26360.93     -1186.12   -3932.3514   -3032.9997    77.837907 
   66300    478.83831   -114.19106   0.43326297    -113.7578   -5987.8731    4.2849223    4.2849223    4.2849223   -5987.8731   -15219.274    3422.7164   -6167.0611    1827.6425    34924.238    2489.7425    78.673572 
   66400    601.83911   -114.30045   0.54455667    -113.7559   -7689.0878    4.2829277    4.2829277    4.2829277   -7689.0878    8324.2144   -17631.958    -13759.52    4081.8236    8226.5104   -12038.221    78.563755 
   66500    825.20196   -114.49827   0.74666008   -113.75161     4925.632    4.2727185    4.2727185    4.2727185     4925.632    20560.783   -5961.0763    177.18931   -1844.6722   -13353.431   -8506.4937    78.003274 
   66600    628.39945   -114.32355   0.56858903   -113.75496   -4428.3948    4.2837752    4.2837752    4.2837752   -4428.3948   -15264.694    1658.3227    321.18679    1376.8178    20961.362    7007.9127    78.610403 
   66700    549.28795   -114.25168   0.49700728   -113.75467    -6401.962    4.2842136    4.2842136    4.2842136    -6401.962   -7150.2992   -13032.389     976.8027    3139.2285    22554.258   -6833.1093    78.634537 
   66800    702.00608   -114.38746   0.63518985   -113.75227    2101.7673    4.2725056    4.2725056    4.2725056    2101.7673     24961.21   -14947.991   -3707.9175    227.24662   -14736.415    -17766.47    77.991614 
   66900    756.04505   -114.43742   0.68408545   -113.75333   -4108.5808    4.2818848    4.2818848    4.2818848   -4108.5808    7967.0014   -4126.5593   -16166.185   -919.47747    -2846.197   -42.582971    78.506375 
   67000    627.02142    -114.3219   0.56734216   -113.75456   -7898.3848    4.2866267    4.2866267    4.2866267   -7898.3848   -8632.7151   -7391.0858   -7671.3534    479.76566    28317.422    2326.2274    78.767486 
   67100    592.80924   -114.28994   0.53638626   -113.75356    15346.484    4.2670045    4.2670045    4.2670045    15346.484    20299.099    -7085.246    32825.598    5817.3511    5315.6422   -18958.898    77.690747 
   67200    698.22728    -114.3888   0.63177072   -113.75703   -7434.3376    4.2840376    4.2840376    4.2840376   -7434.3376    2457.3168   -17670.055   -7090.2749     760.5903   -15513.966   -11326.427    78.624847 
   67300    775.23912    -114.4535   0.70145265   -113.75204   -12257.245    4.2870328    4.2870328    4.2870328   -12257.245   -13590.113   -2635.0544   -20546.569   -640.66528    5909.0748    7485.9566    78.789878 
   67400    685.32629   -114.37081   0.62009763   -113.75071    5984.9166    4.2699316    4.2699316    4.2699316    5984.9166    9803.8576   -350.47808    8501.3703    6642.0451     14899.43   -13763.853    77.850741 
   67500    619.37436   -114.31517   0.56042294   -113.75475   -1611.5364    4.2812747    4.2812747    4.2812747   -1611.5364    10406.255   -23931.544    8690.6802    885.65178   -5959.1514   -22427.594    78.472822 
   67600     736.5324   -114.41923   0.66642999    -113.7528   -811.09841    4.2850449    4.2850449    4.2850449   -811.09841   -3388.3178   -4010.2038    4965.2264   -3028.4338   -8702.2677    4010.2294    78.680324 
   67700    758.26419   -114.43906   0.68609338   -113.75297   -777.47051    4.2755209    4.2755209    4.2755209   -777.47051   -2253.7016    5830.2547   -5908.9646    3070.2617    14472.638    -3042.051    78.156861 
   67800    707.05588   -114.39503   0.63975902   -113.75527   -3706.1829    4.2774425    4.2774425    4.2774425   -3706.1829    16520.973   -17711.405   -9928.1168    3664.2709    4698.6776   -29575.227     78.26229 
   67900     825.9806   -114.50159    0.7473646   -113.75423   -1437.3789    4.2845578    4.2845578    4.2845578   -1437.3789    1566.3241    -11955.45    6076.9897    3209.3385   -11819.572   -7825.8174    78.653493 
   68000    821.49453    -114.4977   0.74330552    -113.7544    6741.8175    4.2762046    4.2762046    4.2762046    6741.8175   -11052.809    14200.936    17077.325   -2067.9233   -5000.0225    8788.0651    78.194358 
   68100    638.96237   -114.33631   0.57814658   -113.75816   -1652.5038    4.2760876    4.2760876    4.2760876   -1652.5038    16382.071   -10864.855   -10474.727    3795.8631    13322.478   -26540.955    78.187942 
   68200    858.39768   -114.53183   0.77669626   -113.75513   -14384.627    4.2875464    4.2875464    4.2875464   -14384.627    5225.6342   -20960.047   -27419.468    234.23454   -1544.9757   -23472.867    78.818196 
   68300    1032.5241   -114.68562   0.93424948   -113.75137    11015.866    4.2736199    4.2736199    4.2736199    11015.866   -122.10712    21401.834     11767.87   -2451.1355   -15192.063    10191.406    78.052657 
   68400     620.0365   -114.31969   0.56102206   -113.75867    4456.8295    4.2767773    4.2767773    4.2767773    4456.8295    3128.8901    1565.4719    8676.1265    3257.8769    2689.7089   -13235.071    78.225779 
   68500    564.68571   -114.27094    0.5109395      -113.76   -9848.8839    4.2865481    4.2865481    4.2865481   -9848.8839    4280.5394   -20262.959   -13564.232    3605.8382     7902.904   -30595.929    78.763153 
   68600    1103.7353   -114.75021   0.99868294   -113.75152    5209.2727    4.2771649    4.2771649    4.2771649    5209.2727    2722.8686    11111.101    1793.8485    2929.8517   -5651.1942    2060.8503    78.247052 
   68700    983.60558   -114.64399     0.889987     -113.754    4776.9424    4.2752414    4.2752414    4.2752414    4776.9424    1540.7731    15626.456   -2836.4022   -2834.8664   -1530.4786   -1293.5277    78.141532 
   68800    332.00901   -114.06301   0.30040873    -113.7626   -5453.0885    4.2844042    4.2844042    4.2844042   -5453.0885    2165.4068   -14205.466   -4319.2058    3279.4422    12297.617   -32748.038    78.645036 
   68900    665.70925   -114.36153   0.60234772   -113.75918   -857.84004    4.2816089    4.2816089    4.2816089   -857.84004    1504.1131   -9322.9297    5245.2965    5523.1108    2841.6035   -7454.0975    78.491201 
   69000    1113.0202   -114.75786     1.007084   -113.75077    14436.382    4.2702916    4.2702916    4.2702916    14436.382    9751.1082     17288.39    16269.648   -3733.1314   -10534.001    11753.061    77.870435 
   69100    589.68264   -114.29503   0.53355724   -113.76147   -12262.954    4.2848917    4.2848917    4.2848917   -12262.954    901.46559   -12561.925   -25128.402    586.23174    4534.0285   -26883.824    78.671882 
   69200    342.93328   -114.07409   0.31029323   -113.76379   -11399.255    4.2821319    4.2821319    4.2821319   -11399.255     1454.229   -20800.774   -14851.221    4099.6721    14066.846   -21731.609    78.519968 
   69300    821.00471   -114.49709   0.74286231   -113.75423    17881.075    4.2705679    4.2705679    4.2705679    17881.075    13454.172    6086.8832     34102.17    2920.3886     3874.083    17939.065     77.88555 
   69400     811.6246   -114.48923     0.734375   -113.75486   -4562.3262    4.2858093    4.2858093    4.2858093   -4562.3262   -2747.6649   -8613.1366   -2326.1771   -3530.3762   -2529.6883   -9110.8837    78.722434 
   69500    461.29127   -114.17782   0.41738603   -113.76043   -9808.9385    4.2779465    4.2779465    4.2779465   -9808.9385     7121.369   -17391.609   -19156.575    2166.9973    7717.6081   -32964.718    78.289956 
   69600    597.54649   -114.29954   0.54067262   -113.75887    1473.0269    4.2746707    4.2746707    4.2746707    1473.0269    9119.8851   -3922.9337   -777.87081    8005.7956    8666.3608    6275.4118    78.110244 
   69700    860.66888   -114.53144   0.77875129   -113.75268    1562.0731    4.2844477    4.2844477    4.2844477    1562.0731   -3287.7278   -6881.0453    14854.992   -6266.5549   -3367.2724    12667.883    78.647433 
   69800    638.55689    -114.3338    0.5777797   -113.75602    1142.0587     4.277151     4.277151     4.277151    1142.0587    15655.131   -16380.768    4151.8124   -2792.4061    357.48525     -27858.3     78.24629 
   69900    511.57911   -114.22172   0.46288753   -113.75883   -6017.9318    4.2757755    4.2757755    4.2757755   -6017.9318    7569.6398   -8540.2927   -17083.143    8193.1256    15522.625   -15618.601    78.170822 
   70000    878.89988   -114.55038   0.79524708   -113.75514   -6050.6777    4.2808976    4.2808976    4.2808976   -6050.6777   -4408.1475   -5298.3545   -8445.5312    5642.5957    7632.3472    14587.031    78.452088 
   70100    840.25289    -114.5144   0.76027847   -113.75412      431.127    4.2817098    4.2817098    4.2817098      431.127    16511.207   -14944.233   -273.59325    -7374.503   -6375.4779   -7462.9701     78.49675 
   70200    585.53339   -114.28611   0.52980291    -113.7563    3820.6703    4.2743232    4.2743232    4.2743232    3820.6703    12197.929   -8592.5008    7856.5824    3574.8171    8869.1278   -22634.254    78.091197 
   70300     602.9159   -114.30343   0.54553097    -113.7579   -4595.9954    4.2810921    4.2810921    4.2810921   -4595.9954   -14456.648   -3029.9547    3698.6161    13361.986    13669.113     4470.192    78.462782 
   70400    957.26221   -114.61887   0.86615096   -113.75272   -1207.1778    4.2808275    4.2808275    4.2808275   -1207.1778    7762.2964   -6793.4394   -4590.3905   -5415.9308   -3278.7527    10454.432    78.448239 
   70500    845.10324   -114.51825   0.76466718   -113.75358    301.78562    4.2762322    4.2762322    4.2762322    301.78562    10597.637   -10177.664    485.38463   -950.69643   -234.36176    -16554.95    78.195876 
   70600    461.40004   -114.17637   0.41748446   -113.75888   -7710.0415    4.2820618    4.2820618    4.2820618   -7710.0415    -17945.28    -11935.94    6751.0947    16716.722    18544.649   -12095.485    78.516115 
   70700     655.4493   -114.35025    0.5930643   -113.75718    6112.4865     4.276402     4.276402     4.276402    6112.4865   -3737.1229   -147.66339    22222.246    5539.2092    7858.2846    5827.6729    78.205187 
   70800    943.43488    -114.6069   0.85363971   -113.75326    3422.9083    4.2785536    4.2785536    4.2785536    3422.9083    4180.5731   -6496.8959    12585.048   -6387.4364   -10642.674    4344.2751    78.323291 
   70900    491.84883   -114.20462   0.44503516   -113.75959   -14883.303    4.2822142    4.2822142    4.2822142   -14883.303     -13975.8   -17238.163   -13435.945    13625.902    12653.675   -11755.308    78.524498 
   71000    445.69961   -114.16306   0.40327837   -113.75978   -5330.2863    4.2756073    4.2756073    4.2756073   -5330.2863   -18007.167     428.3702    1587.9381    15403.414    23294.144   -5413.3712      78.1616 
   71100    850.91423   -114.52445   0.76992508   -113.75452    1662.5779    4.2808871    4.2808871    4.2808871    1662.5779   -11572.827    1619.8053    14940.755    -6186.557   -4907.0257    7126.4158     78.45151 
   71200    661.91028   -114.35586   0.59891033   -113.75695    8936.7798    4.2747218    4.2747218    4.2747218    8936.7798   -1401.3218   -5019.2208    33230.882    3691.9695    -3621.191   -3892.9597    78.113043 
   71300    229.45342    -113.9723   0.20761427   -113.76468   -17886.221    4.2831343    4.2831343    4.2831343   -17886.221    -39881.93   -11426.251   -2350.4808    17903.065    27663.928   -12187.657    78.575126 
   71400    683.32897   -114.37712   0.61829041   -113.75882   -5928.3106    4.2791495    4.2791495    4.2791495   -5928.3106   -24619.542    9658.9918   -2824.3818    1981.2662    17154.903   -1440.9391    78.356025 
   71500    1023.6589   -114.67826   0.92622806   -113.75204    10296.103    4.2742458    4.2742458    4.2742458    10296.103    2156.9827    1755.0353    26976.292   -616.80767   -12004.156    5192.8364    78.086955 
   71600    330.11307   -114.06224   0.29869324   -113.76354   -8464.6288    4.2839199    4.2839199    4.2839199   -8464.6288   -25958.366   -13218.184    13782.663     12578.78    15598.062   -5329.0197     78.61837 
   71700    267.42886   -114.00668   0.24197525   -113.76471   -508.72358    4.2777477    4.2777477    4.2777477   -508.72358    -20112.67    6232.5777    12353.922    10281.518    29228.198   -10715.675    78.279043 
   71800    1100.0391   -114.74853   0.99533848   -113.75319    3721.8605    4.2799176    4.2799176    4.2799176    3721.8605   -1936.2302    1999.0319     11102.78   -7187.7134   -2644.1477    933.12174    78.398223 
   71900    909.43295   -114.57988   0.82287404     -113.757    904.21038    4.2785632    4.2785632    4.2785632    904.21038   -5670.5635   -367.51607    8750.7107    4482.0589    2843.2576    1758.0916    78.323821 
   72000    259.44944   -114.00012    0.2347553   -113.76537   -2344.9801    4.2774158    4.2774158    4.2774158   -2344.9801   -20900.605    7951.5444    5914.1203    13851.581    32389.187   -10435.712    78.260822 
   72100     688.2645   -114.38382   0.62275618   -113.76107   -2219.2548    4.2857048    4.2857048    4.2857048   -2219.2548   -12485.908   -7609.0435    13437.187   -1702.7283     8992.953    -3837.886    78.716678 
   72200     1152.126   -114.79362    1.0424678   -113.75115    19666.401    4.2712638    4.2712638    4.2712638    19666.401    13872.616     11878.64    33247.948    1093.7532   -12063.397    2846.6217     77.92363 
   72300    643.66794   -114.34462   0.58240428   -113.76222   -7393.5408    4.2806852    4.2806852    4.2806852   -7393.5408   -17876.983    4590.7303   -8894.3697    12130.956    21956.225   -3503.1085    78.440412 
   72400    543.97049   -114.25412   0.49219593   -113.76192   -13603.141    4.2842013    4.2842013    4.2842013   -13603.141   -15253.302   -13499.453   -12056.667     8744.453    26113.884   -13642.189    78.633861 
   72500    968.62918   -114.62952   0.87643603   -113.75309    19293.487    4.2716536    4.2716536    4.2716536    19293.487     17189.92    4710.4542    35980.088   -7834.9451   -9397.9235    -3857.202    77.944968 
   72600    859.26844   -114.53244   0.77748414   -113.75496   -1472.8709    4.2828883    4.2828883    4.2828883   -1472.8709   -12199.682   -9664.4389    17445.508    7586.5432    634.64991     7837.378    78.561587 
   72700    554.34781   -114.26078   0.50158554    -113.7592   -4157.3465    4.2774388    4.2774388    4.2774388   -4157.3465   -5073.8983   -4357.1921   -3040.9492    12903.612    28578.393   -8311.2378    78.262085 
   72800    767.27014   -114.45197   0.69424215   -113.75773   -5005.8637    4.2773128    4.2773128    4.2773128   -5005.8637     7274.698   -10717.645   -11574.645   -5646.8384    4976.3317   -12257.674     78.25517 
   72900    850.17887   -114.52294   0.76925971   -113.75368   -1581.0948    4.2824357    4.2824357    4.2824357   -1581.0948    874.71838   -20202.738    14584.736   -662.86865   -9923.8467    3548.6855    78.536682 
   73000     565.3964   -114.26795   0.51158254   -113.75637    4829.7609    4.2772205    4.2772205    4.2772205    4829.7609   -9820.2353   -4056.2414    28365.759    10817.242    14311.928    3761.6407    78.250105 
   73100    568.24516   -114.27105   0.51416017   -113.75689   -3954.6986    4.2781298    4.2781298    4.2781298   -3954.6986   -7235.0231    -9294.074    4665.0012    1656.1391    16317.995   -19632.719    78.300021 
   73200    742.24309   -114.42568   0.67159715   -113.75408   -7600.3118    4.2811665    4.2811665    4.2811665   -7600.3118    2483.0954   -22699.804   -2584.2272   -9774.2676   -5848.5567   -8933.9627    78.466876 
   73300     744.8193   -114.42655   0.67392816   -113.75262   -6282.2346    4.2809104    4.2809104    4.2809104   -6282.2346   -12752.883   -11952.431    5858.6104    7171.5879   -2072.7313    16706.256    78.452792 
   73400    493.33561   -114.20129   0.44638043   -113.75491    1526.1842    4.2768356    4.2768356    4.2768356    1526.1842   -14722.889   -1278.2245    20579.666    5540.3615    16809.293   -3555.6973    78.228982 
   73500    521.97672   -114.22862    0.4722955   -113.75632   -1259.4783    4.2782329    4.2782329    4.2782329   -1259.4783    1367.9598   -19411.635    14265.241   -11232.655    4844.9612   -22769.097    78.305683 
   73600    771.52452   -114.45189    0.6980916    -113.7538   -8688.6515    4.2817466    4.2817466    4.2817466   -8688.6515   -3647.2309   -18843.991   -3574.7322    142.07475   -4378.1728    6736.3176    78.498775 
   73700     750.9793   -114.43357   0.67950185   -113.75407   -756.27808    4.2762738    4.2762738    4.2762738   -756.27808    -8304.425    4589.9826    1445.6082    7176.5915    5589.9515    12264.549    78.198157 
   73800    565.34428   -114.26872   0.51153538   -113.75719   -2388.7317    4.2791468    4.2791468    4.2791468   -2388.7317   -3727.4394   -8110.7729    4672.0172   -5345.7724    9370.2693   -21509.675    78.355876 
   73900    621.79766   -114.31893   0.56261559   -113.75632    6123.0699    4.2802177    4.2802177    4.2802177    6123.0699    4695.0802   -9332.5679    23006.697   -5570.1912   -825.93256   -9442.0586    78.414716 
   74000    896.73671    -114.5645   0.81138622   -113.75312    4970.5597    4.2782133    4.2782133    4.2782133    4970.5597    452.38849   -4105.1909    18564.482    5247.3654   -6078.0369    21547.337    78.304607 
   74100    785.89505   -114.46685   0.71109436   -113.75576    1529.7652    4.2767795    4.2767795    4.2767795    1529.7652    1936.6083    3753.1274   -1100.4403   -1294.4597    4694.0584   -5948.5648    78.225902 
   74200    670.93697   -114.36495   0.60707787   -113.75788   -8255.7308    4.2835572    4.2835572    4.2835572   -8255.7308   -6806.9217   -14123.225   -3837.0452    -13105.63    8714.9962    -27164.36      78.5984 
   74300    861.01882   -114.53395   0.77906793   -113.75488    7086.8298    4.2777579    4.2777579    4.2777579    7086.8298    5212.7847   -7941.4339    23989.139    1456.8537    542.83517    11798.653      78.2796 
   74400    922.30318   -114.58848    0.8345193   -113.75396    11262.873     4.274333     4.274333     4.274333    11262.873    6706.3865    3519.8607    23562.373    3758.2579   -3097.4836    16088.174    78.091731 
   74500    610.46811   -114.31181   0.55236438   -113.75944   -15281.653    4.2852212    4.2852212    4.2852212   -15281.653   -13461.231    -20686.57   -11697.158   -12929.933    3242.8984   -22659.989    78.690034 
   74600    739.99398   -114.42774    0.6695621   -113.75818   -7122.7825    4.2769228    4.2769228    4.2769228   -7122.7825    2666.3963   -13292.465   -10742.279   -5964.5602    4395.6619   -16622.362    78.233765 
   74700    1063.0122   -114.71395   0.96183577   -113.75211    8346.3064    4.2761762    4.2761762    4.2761762    8346.3064    9296.3555   -1384.8351    17127.399    2631.0455   -2250.6594    17974.268    78.192804 
   74800    599.97497   -114.30108   0.54286996   -113.75821    -6397.925    4.2854296    4.2854296    4.2854296    -6397.925   -8808.6765   -23090.699      12705.6   -6967.3029   -3339.3946   -3952.3294    78.701518 
   74900    325.83452   -114.05547   0.29482192   -113.76065   -381.42399    4.2747887    4.2747887    4.2747887   -381.42399    5356.0497   -12850.065    6349.7431   -13058.199    7959.0899   -24053.604    78.116713 
   75000    919.61619   -114.58753   0.83208805   -113.75544   -1662.5935      4.28049      4.28049      4.28049   -1662.5935    4585.2291   -1619.5125   -7953.4971    2388.3317    4520.7092    -1424.944    78.429685 
   75100    968.13182   -114.63092   0.87598601   -113.75493    4416.3796    4.2784536    4.2784536    4.2784536    4416.3796    9250.1325   -1125.0151    5124.0215    472.98602   -3884.5735    5475.2598    78.317798 
   75200    208.44437   -113.95391   0.18860484   -113.76531   -3734.3488    4.2784935    4.2784935    4.2784935   -3734.3488    88.340643   -17026.286    5734.8986   -15975.176   -3395.7766   -22045.139    78.319991 
   75300    394.40855   -114.11988   0.35686914   -113.76301   -5746.0055    4.2841962    4.2841962    4.2841962   -5746.0055   -8426.7134   -16049.759    7238.4558   -735.04838    8225.0896   -19109.467    78.633582 
   75400    1046.7304    -114.6981   0.94710363   -113.75099    12547.772    4.2738748    4.2738748    4.2738748    12547.772    9926.2867    5385.3674    22331.661    1081.6869   -39.937911    7722.4816    78.066621 
   75500    662.16925   -114.35956   0.59914465   -113.76041   -9489.9707    4.2799896    4.2799896    4.2799896   -9489.9707   -4577.0003   -17936.251   -5956.6609   -9252.4107   -4419.2624   -7025.9853    78.402179 
   75600    289.68587   -114.02696   0.26211386   -113.76485   -16406.277    4.2824196    4.2824196    4.2824196   -16406.277   -5683.5496    -19865.91    -23669.37   -8137.9368    2951.4404   -27787.137    78.535795 
   75700    766.31379    -114.4509   0.69337682   -113.75752    10020.651    4.2779006    4.2779006    4.2779006    10020.651    11095.746    1926.7147    17039.491    2818.3806    6065.5805   -1210.6995    78.287433 
   75800     896.3057   -114.56323   0.81099623   -113.75223    1937.9541    4.2824251    4.2824251    4.2824251    1937.9541   -3047.5292   -11940.397    20801.789    1568.1838   -3985.7978     6635.003      78.5361 
   75900    498.00835   -114.20973   0.45060842   -113.75912   -2776.9424    4.2750566    4.2750566    4.2750566   -2776.9424    6816.3321   -6305.6722   -8841.4871   -12845.879   -4969.4227   -25307.103    78.131399 
   76000    671.01685   -114.36691   0.60715015   -113.75976    -4987.009    4.2792076    4.2792076    4.2792076    -4987.009    7715.9651      190.049   -22867.041    -837.8139    8071.0369   -15818.604    78.359213 
   76100    954.27736   -114.61698   0.86345021   -113.75353   -2627.0572    4.2833585    4.2833585    4.2833585   -2627.0572    368.21347   -4870.7342    -3378.651    2919.8714    4174.0755     19521.71    78.587463 
   76200    687.05703   -114.37626   0.62166364    -113.7546    10255.847    4.2743551    4.2743551    4.2743551    10255.847    8163.6465    -3676.599    26280.494   -7245.1398   -1648.8852   -3475.3885    78.092942 
   76300     624.4773    -114.3214   0.56504019   -113.75636   -7745.7902    4.2822561    4.2822561    4.2822561   -7745.7902   -6892.5418   -13597.546   -2747.2826   -4297.1293   -2029.5686   -27598.102    78.526801 
   76400    779.66729   -114.45946   0.70545935     -113.754    2575.1427    4.2761322    4.2761322    4.2761322    2575.1427    4327.3423    8182.4095   -4784.3237     5657.916    529.17886    6021.4187    78.190389 
   76500    783.76745   -114.46378   0.70916926   -113.75461   -6898.3649    4.2810297    4.2810297    4.2810297   -6898.3649   -3770.7198   -11052.014   -5872.3611    1996.6799    1290.3655    17463.851    78.459352 
   76600    697.56515     -114.385    0.6311716   -113.75382   -3209.6738    4.2813104    4.2813104    4.2813104   -3209.6738   -10001.077   -8227.5568    8599.6128   -12631.346   -1818.0143   -13710.223    78.474788 
   76700    614.18681   -114.30894   0.55572913   -113.75321    7862.0202    4.2745511    4.2745511    4.2745511    7862.0202   -4773.5819    6003.1517    22356.491    3523.9139    1060.0584    -8777.472    78.103686 
   76800    492.92639   -114.20264   0.44601016   -113.75663   -7676.0716    4.2826003    4.2826003    4.2826003   -7676.0716    -15279.61   -20417.308    12668.703    8170.1217    3733.1554     19477.87    78.545739 
   76900    661.99427   -114.35395   0.59898632   -113.75497   -5808.4299    4.2786164    4.2786164    4.2786164   -5808.4299   -10611.674   -10643.074    3829.4583   -13212.618    710.78671    7347.4165    78.326738 
   77000    850.81056   -114.52162   0.76983127   -113.75179   -602.73733    4.2769316    4.2769316    4.2769316   -602.73733   -10782.534    7770.9202    1203.4023    -1467.385   -4184.3903   -13114.703    78.234246 
   77100    473.45551    -114.1853    0.4283925   -113.75691   -10964.245    4.2833625    4.2833625    4.2833625   -10964.245   -22792.793   -8499.0031   -1600.9382     11065.44   -2084.9702    7953.0758    78.587683 
   77200    337.86054   -114.06439   0.30570332   -113.75869    3762.8245    4.2766395    4.2766395    4.2766395    3762.8245   -9969.8095   -8599.2007    29857.484   -2081.4971    2735.1138    21031.945    78.218218 
   77300    770.37619   -114.45037   0.69705256   -113.75332     4840.111    4.2802077    4.2802077    4.2802077     4840.111   -14677.708    4427.0433    24770.997   -12210.201   -2195.0397    1171.7717    78.414165 
   77400    797.40758   -114.47548   0.72151113   -113.75396    1348.8528    4.2779663    4.2779663    4.2779663    1348.8528    -16189.54    15508.669    4727.4293     6234.392   -6162.3307   -2781.2073    78.291041 
   77500    437.30712   -114.15583   0.39568468   -113.76014   -12557.322    4.2806231    4.2806231    4.2806231   -12557.322   -17315.586   -6476.7393   -13879.641    5958.1202     2962.246    16598.785    78.436998 
   77600    682.22303   -114.37532   0.61728973   -113.75803   -6197.4781    4.2801304    4.2801304    4.2801304   -6197.4781   -5337.1316   -14982.747    1727.4441    -11074.87    2401.9331    13263.836    78.409919 
   77700    904.62715   -114.57094   0.81852565   -113.75242    9925.6157    4.2762394    4.2762394    4.2762394    9925.6157   -2932.7409    14026.559    18683.029   -722.15656   -7775.4628   -7047.7434    78.196267 
   77800    614.39331   -114.31295   0.55591598   -113.75704   -5109.9606     4.282984     4.282984     4.282984   -5109.9606   -24579.952    1304.2641    7945.8058    7452.8067   -4391.4396    5301.9805    78.566853 
   77900    621.58452   -114.32033   0.56242273   -113.75791   -862.43607    4.2751347    4.2751347    4.2751347   -862.43607    3121.9821    -9652.501    3943.2107    1338.4415    5244.0571    25001.934    78.135685 
   78000    924.33241   -114.59083   0.83635539   -113.75448   -672.71997    4.2801101    4.2801101    4.2801101   -672.71997    5453.0187    3360.2837   -10831.462   -7039.4644   -3471.8917   -2030.8705    78.408803 
   78100    844.44169    -114.5187   0.76406859   -113.75463   -10342.298    4.2837193    4.2837193    4.2837193   -10342.298   -14426.105    5975.5351   -22576.324    3597.4934   -7902.8259   -12675.575    78.607322 
   78200    700.27461   -114.38887   0.63362319   -113.75525    12051.527    4.2706232    4.2706232    4.2706232    12051.527     10088.56    13021.242     13044.78    6460.6419    5335.7964    12065.714    77.888576 
   78300     857.5908   -114.53008   0.77596617   -113.75411   -893.66478    4.2851909    4.2851909    4.2851909   -893.66478    5595.5067   -17928.318     9651.817   -5285.2135    1949.7145    9060.7099    78.688365 
   78400    788.73814    -114.4678   0.71366685   -113.75413    23.738597    4.2803501    4.2803501    4.2803501    23.738597    8366.0427    -1048.194   -7246.6329   -1499.9806   -10618.889   -17393.323    78.421993 
   78500    735.01904   -114.41979   0.66506067   -113.75473    2558.9306    4.2737153    4.2737153    4.2737153    2558.9306    10648.231    14248.969   -17220.407    5595.6421   -1028.3527   -2412.8934    78.057881 
   78600    967.60813    -114.6284   0.87551217   -113.75289   -3260.2897    4.2830748    4.2830748    4.2830748   -3260.2897    892.38854   -699.38748   -9973.8702    4895.1619    10578.258    12071.068    78.571849 
   78700    843.63803   -114.51769   0.76334141   -113.75435    12707.965    4.2755637    4.2755637    4.2755637    12707.965    25608.369    704.02111    11811.505   -1642.8395   -4916.5623   -14115.278    78.159205 
   78800    496.62102   -114.20945   0.44935313    -113.7601   -3646.7839    4.2814415    4.2814415    4.2814415   -3646.7839   -952.67365   -3162.0521   -6825.6259   -513.26419   -6557.2601   -19510.917    78.481998 
   78900    741.68687   -114.42705   0.67109387   -113.75596    -2182.281    4.2798604    4.2798604    4.2798604    -2182.281   -9833.1421    12313.963   -9027.6636    5429.2336    6876.9792    5006.2975     78.39508 
   79000    1068.0671    -114.7176   0.96640953   -113.75119    4122.3835    4.2756367    4.2756367    4.2756367    4122.3835    18123.046   -1479.9022   -4275.9934   -856.76608    4233.0159    -2804.503     78.16321 
   79100    651.37677   -114.34701   0.58937939   -113.75763   -10584.903    4.2832186    4.2832186    4.2832186   -10584.903    6730.2571   -15440.293   -23044.674   -1361.4396   -10056.178   -20155.343    78.579762 
   79200    398.73426   -114.12072   0.36078313   -113.75994    1310.4516    4.2762985    4.2762985    4.2762985    1310.4516   -5706.1593     11365.42   -1727.9057    1463.9256    3740.6187   -3481.0496    78.199513 
   79300    805.49022   -114.48333   0.72882448   -113.75451     1953.647    4.2809158    4.2809158    4.2809158     1953.647   -6756.3396    4075.9592    8541.3215    3442.7646    11480.307    3177.6816    78.453092 
   79400    857.49357   -114.52936    0.7758782   -113.75349   -5360.9325    4.2797313    4.2797313    4.2797313   -5360.9325    11940.365   -16916.751   -11106.412    456.53446   -4271.9803     -18466.2    78.387989 
   79500    474.17482   -114.18745   0.42904334    -113.7584    -4949.657    4.2751083    4.2751083    4.2751083    -4949.657   -76.379469    8755.4536   -23528.045   -643.64331   -1900.2402   -14944.764    78.134236 
   79600    537.04566   -114.24407    0.4859302   -113.75814   -8368.2929    4.2846277    4.2846277    4.2846277   -8368.2929   -26038.443    10763.312   -9829.7478    4918.8851    5352.7159      5530.65    78.657343 
   79700    788.47694   -114.46596    0.7134305   -113.75253    9813.8984    4.2742161    4.2742161    4.2742161    9813.8984    6195.4227   -1156.2633    24402.536   -1640.0384    2305.5899    1516.1887    78.085327 
   79800    540.94094   -114.24743   0.48945473   -113.75798   -2909.1958     4.278419     4.278419     4.278419   -2909.1958    1435.0337   -7184.5396   -2978.0817   -6309.4512   -4706.0008   -10772.553    78.315901 
   79900    460.09606   -114.17419   0.41630458   -113.75788   -8221.5738    4.2828687    4.2828687    4.2828687   -8221.5738   -8918.6695    7596.5138   -23342.566    1372.1059    358.66371   -6199.9969    78.560509 
   80000    801.90759   -114.47824   0.72558284   -113.75266     4075.301    4.2739725    4.2739725    4.2739725     4075.301    5295.4932    6175.2741    755.13563   -456.91282    6113.3536    6669.0898    78.071978 
   80100    636.54204   -114.33082   0.57595661   -113.75487   -2990.0191    4.2808677    4.2808677    4.2808677   -2990.0191     5916.775   -20778.618    5891.7857   -5594.2619   -4272.4672    -1426.165    78.450444 
   80200    428.44644   -114.14468   0.38766734   -113.75702   -169.45017    4.2799166    4.2799166    4.2799166   -169.45017   -97.420994   -9044.7805     8633.851   -2411.3779   -761.50978   -11688.706    78.398168 
   80300    684.37874   -114.37244   0.61924027    -113.7532    -43.93841     4.277828     4.277828     4.277828    -43.93841    56.393384    3393.7105   -3581.9191    1855.6293    977.41786    3022.5609    78.283452 
   80400    780.17469    -114.4587   0.70591845   -113.75279    -6365.844    4.2786805    4.2786805    4.2786805    -6365.844    8913.7951   -19649.183   -8362.1436   -571.99921    3672.7089    15624.887    78.330261 
   80500    534.74599   -114.24039   0.48384941   -113.75654    3356.2035    4.2766776    4.2766776    4.2766776    3356.2035    11727.685   -11844.593    10185.519   -7009.4572   -5185.2935   -3788.9168    78.220312 
   80600    531.07319   -114.23701   0.48052619   -113.75648   -2153.5522    4.2825542    4.2825542    4.2825542   -2153.5522   -9867.1087   -1231.2171    4637.6692    595.02511   -4180.3813   -10115.023    78.543202 
   80700    654.64288   -114.34552   0.59233463   -113.75319    2814.0094    4.2757949    4.2757949    4.2757949    2814.0094    3827.5233   -8156.6408    12771.146    3676.3105    3703.5604    10748.709    78.171886 
   80800     659.6627   -114.35138   0.59687667   -113.75451   -2898.0415    4.2775823    4.2775823    4.2775823   -2898.0415    16423.766   -18077.573   -7040.3172   -4052.5829    1043.9785     15150.05    78.269963 
   80900     667.4041   -114.35836   0.60388126   -113.75448   -6129.4437    4.2812822    4.2812822    4.2812822   -6129.4437   -499.30581   -6663.1675   -11225.858   -1599.0727   -7848.7952   -8197.8734    78.473236 
   81000    571.22407   -114.27137   0.51685554   -113.75452    1121.5614    4.2773244    4.2773244    4.2773244    1121.5614   -4167.9933   -6299.2827     13831.96    4399.0206   -5274.9836    1659.3002    78.255806 
   81100    556.34534   -114.25871   0.50339296   -113.75532   -1885.3178    4.2789149    4.2789149    4.2789149   -1885.3178      11829.9   -28488.275    11002.422    7575.5226    3644.3103     24005.79    78.343133 
   81200    708.18931   -114.39404   0.64078457   -113.75326    1309.2953    4.2787106    4.2787106    4.2787106    1309.2953    14188.554    -9094.068   -1166.6004    -2501.855   -6636.7348    4442.6127    78.331913 
   81300    715.93526    -114.4006   0.64779327    -113.7528   -5459.3441    4.2804828    4.2804828    4.2804828   -5459.3441   -8646.7818   -521.97273   -7209.2777    2583.5927   -13094.042   -10001.488    78.429285 
   81400    494.24077    -114.2035   0.44719943    -113.7563   -5969.0768    4.2771324    4.2771324    4.2771324   -5969.0768    4529.4794   -24312.516    1875.8061    8798.8106    780.39742    22584.803    78.245266 
   81500     599.4075   -114.29956    0.5423565    -113.7572    5907.2949    4.2760201    4.2760201    4.2760201    5907.2949    19628.385   -23472.595    21566.095   -681.95679    4676.6836    24657.423    78.184242 
   81600    841.95908   -114.51455   0.76182227   -113.75272    -2521.086    4.2837356    4.2837356    4.2837356    -2521.086   -9839.8831   -1845.7725    4122.3976    214.93163   -10792.527   -9838.4433    78.608223 
   81700    598.88434   -114.29796   0.54188313   -113.75608   -6472.5473    4.2754479    4.2754479    4.2754479   -6472.5473   -4880.6623   -9716.9975   -4819.9822    7559.8582   -11548.227    5417.2593    78.152857 
   81800    529.67017   -114.23864    0.4792567   -113.75938   -9153.5865    4.2777721    4.2777721    4.2777721   -9153.5865    11767.193   -31511.175   -7716.7781      7806.32    5341.2037    34429.565     78.28038 
   81900    898.44943   -114.56807   0.81293592   -113.75513    3449.6438    4.2804531    4.2804531    4.2804531    3449.6438    373.14269   -2178.8589    12154.648   -3734.0364   -1802.3245    6496.9905    78.427652 
   82000    792.30301   -114.47297   0.71689242   -113.75608    9061.0847    4.2763275    4.2763275    4.2763275    9061.0847   -8220.3237    12073.327    23330.251    872.30517   -12845.238   -4791.4903    78.201103 
   82100    418.58952   -114.14022   0.37874859   -113.76147   -10813.794    4.2811712    4.2811712    4.2811712   -10813.794    4282.5208   -21848.347   -14875.556    10787.619   -3957.2235    32954.018    78.467133 
   82200    814.36879   -114.49441   0.73685799   -113.75755   -2970.4495    4.2795738    4.2795738    4.2795738   -2970.4495    8971.5896   -5355.6879    -12527.25    423.83446    9096.8092    17063.184    78.379334 
   82300    1094.1402   -114.74197     0.990001   -113.75197    9992.1444    4.2762961    4.2762961    4.2762961    9992.1444   -6453.9315    22714.286    13716.079   -2037.1041   -6958.5612    -10753.38    78.199379 
   82400      634.007   -114.33399   0.57366286   -113.76032    802.15932    4.2777076    4.2777076    4.2777076    802.15932    4617.4845   -7561.2775     5350.271    4088.2565   -11729.078    15818.416    78.276838 
   82500    528.21836   -114.23972   0.47794307   -113.76178   -6074.9238     4.282336     4.282336     4.282336   -6074.9238    6491.5597   -14862.624   -9853.7075    6906.5495    3738.2194    30797.237    78.531196 
   82600     1030.594   -114.68592   0.93250313   -113.75342    4798.6793      4.27848      4.27848      4.27848    4798.6793   -7345.0134    22699.285   -958.23406   -787.95587    11150.065   -1960.3826    78.319247 
   82700    953.75714   -114.61666   0.86297951   -113.75368     8136.221    4.2735664    4.2735664    4.2735664     8136.221    240.71964    25648.795   -1480.8519   -4119.5442   -4866.7667    3064.1049    78.049724 
   82800    538.82769   -114.24822   0.48754261   -113.76068   -10541.685    4.2834578    4.2834578    4.2834578   -10541.685   -51.437307   -11475.188   -20098.431    5389.5462   -6714.6525    32123.914    78.592932 
   82900    749.80815   -114.43637   0.67844217   -113.75793    -1211.045    4.2787604    4.2787604    4.2787604    -1211.045   -6558.3519    2480.6858    444.53123   -727.10307    17354.016    5417.3889     78.33465 
   83000    1032.9857   -114.68625   0.93466721   -113.75158    8641.0476    4.2739543    4.2739543    4.2739543    8641.0476   -5132.0922    19391.225     11664.01   -1766.0299    5741.7927   -5824.9338    78.070981 
   83100    702.03358   -114.39226   0.63521474   -113.75705   -12726.732    4.2842449    4.2842449    4.2842449   -12726.732   -4279.4719   -10566.459   -23334.265    3087.4578   -10027.265    26492.054    78.636263 
   83200    583.33028   -114.28625    0.5278095   -113.75844   -1071.6903    4.2757536    4.2757536    4.2757536   -1071.6903   -1358.0834    13444.671   -15301.659    5869.1949     1304.157    24473.474     78.16962 
   83300    883.34488   -114.55434   0.79926901   -113.75507    7671.2133    4.2773051    4.2773051    4.2773051    7671.2133   -5457.6131     24592.98    3878.2728    1797.5361    18123.388   -12164.328    78.254745 
   83400    845.04764   -114.51966   0.76461686   -113.75504    289.51359     4.280401     4.280401     4.280401    289.51359    858.81625   -892.82928     902.5538   -7385.3344    833.78439    4862.8075    78.424792 
   83500    536.01847   -114.24402   0.48500077   -113.75902    -8134.626    4.2798021    4.2798021    4.2798021    -8134.626    5726.0835   -15431.847   -14698.114    4236.4139    -8483.669    31557.603    78.391877 
   83600    757.22663   -114.44193   0.68515457   -113.75678   -1782.5275    4.2767085    4.2767085    4.2767085   -1782.5275    -4801.853    5368.2178   -5913.9473    3826.5214    13932.117     6035.682    78.222005 
   83700    948.20098   -114.61104   0.85795217   -113.75309    6509.8048    4.2778893    4.2778893    4.2778893    6509.8048    3814.7233    14245.998    1468.6935    2504.2458    4846.4787    -6896.087    78.286814 
   83800    533.30793   -114.24092   0.48254823   -113.75837   -7237.3583    4.2834486    4.2834486    4.2834486   -7237.3583    8975.1172   -4503.6734   -26183.519   -1092.3738   -8040.6225    18870.636    78.592423 
   83900    532.83897   -114.24034    0.4821239   -113.75822    -572.3131    4.2740849    4.2740849    4.2740849    -572.3131    4145.2515   -1424.9901   -4437.2007    6903.3065   -4028.6648    16749.416    78.078138 
   84000     945.2107   -114.60853    0.8552465   -113.75328    1262.2412     4.279334     4.279334     4.279334    1262.2412   -2089.7466   -4111.2187     9987.689    5978.5882    8967.3704    -8292.662    78.366157 
   84100     799.4283   -114.47858   0.72333952   -113.75525   -7879.2304    4.2825011    4.2825011    4.2825011   -7879.2304      11164.2   -19125.068   -15676.823   -4393.3018    4067.9478    11195.433    78.540282 
   84200    465.63495   -114.18053   0.42131629   -113.75922   -2636.7836    4.2737181    4.2737181    4.2737181   -2636.7836     19899.33   -12208.813   -15600.868    2490.9685   -12158.387    24489.976    78.058034 
   84300    743.68286    -114.4302   0.67289988    -113.7573    2193.7044    4.2807834    4.2807834    4.2807834    2193.7044   -6943.2492    4110.1516    9414.2108    6008.6145    -330.2949   -1989.5919    78.445812 
   84400    889.88732   -114.55854   0.80518875   -113.75335     5549.139    4.2805033    4.2805033    4.2805033     5549.139    3706.8527   -1455.3624    14395.927    1901.3768    1493.6614   -2456.3308    78.430414 
   84500    539.79823   -114.24774   0.48842078   -113.75932    -3669.173    4.2746514    4.2746514    4.2746514    -3669.173    23321.844   -21900.506   -12428.857   -4827.8657   -5767.2038    20582.807    78.109186 
   84600    642.47052   -114.34094   0.58132082   -113.75962   -11254.566    4.2812805    4.2812805    4.2812805   -11254.566    4364.3633   -25540.605   -12587.457    5832.2312   -9812.5431     11573.11    78.473146 
   84700    1066.8153   -114.71781   0.96527692   -113.75254    3547.3165    4.2796799    4.2796799    4.2796799    3547.3165   -3191.1795   -5679.9657    19513.095    4201.8322   -1651.3597   -6698.7816    78.385165 
   84800    686.56347   -114.37841   0.62121706   -113.75719    4406.9135    4.2769727    4.2769727    4.2769727    4406.9135    13767.271   -6664.2924    6117.7621   -4399.2854    5313.8297    13200.185    78.236503 
   84900    415.55836   -114.13784   0.37600594   -113.76184   -2719.1139    4.2785246    4.2785246    4.2785246   -2719.1139    15719.444   -14894.405   -8982.3808   -2171.4699   -14886.349    13569.306    78.321697 
   85000     875.2835   -114.54845   0.79197491   -113.75648    1407.5834    4.2796237    4.2796237    4.2796237    1407.5834    987.11048   -7815.9751    11051.615    3377.3193   -7218.1907   -6276.0565    78.382072 
   85100    989.15732   -114.64847   0.89501033   -113.75346    3033.6076    4.2784984    4.2784984    4.2784984    3033.6076    2752.8443   -8408.6462    14756.625   -2895.7293    8392.3467     6156.955    78.320262 
   85200    593.53383   -114.29557   0.53704189   -113.75853   -8430.7985    4.2788614    4.2788614    4.2788614   -8430.7985    8067.0008   -29416.265   -3943.1315   -5178.0129   -3416.4735    18782.874    78.340199 
   85300     575.5922   -114.27959   0.52080791   -113.75878   -1099.1418    4.2788947    4.2788947    4.2788947   -1099.1418    9853.9945   -8603.3393   -4548.0807    2331.2731   -11900.342    402.04071    78.342027 
   85400    835.02318   -114.50925   0.75554652    -113.7537    6140.2494    4.2786466    4.2786466    4.2786466    6140.2494   -11579.671    15206.931    14793.488    833.63017    4041.1866   -11689.346    78.328401 
   85500    651.75872   -114.34546   0.58972499   -113.75573   -1228.9584    4.2791843    4.2791843    4.2791843   -1228.9584   -11897.466    2065.6293    6144.9612   -6180.0094    13418.596    11741.385    78.357932 
   85600    578.98757   -114.28043   0.52388012   -113.75655   -6212.0562    4.2788164    4.2788164    4.2788164   -6212.0562    3584.3032   -9766.5213   -12453.951     -2179.21   -16400.378     11273.59    78.337724 
   85700    666.31327   -114.35716   0.60289425   -113.75426   -2761.3008    4.2794347    4.2794347    4.2794347   -2761.3008   -4441.1745    158.80372   -4001.5315    1031.2568   -2544.9357   -3655.3163    78.371692 
   85800    658.89809   -114.35074   0.59618484   -113.75456   -3340.6594    4.2787645    4.2787645    4.2787645   -3340.6594    -20491.82    693.56217    9776.2798   -5199.0898    28701.564   -1364.8592    78.334875 
   85900    654.06538   -114.34555    0.5918121   -113.75373    602.72055    4.2786028    4.2786028    4.2786028    602.72055   -7910.9715   -3577.2849    13296.418   -2807.4988   -1773.4466    8050.2918    78.325994 
   86000    585.75754   -114.28398   0.53000574   -113.75397   -4179.8558     4.281287     4.281287     4.281287   -4179.8558   -6962.8803    4574.1981   -10150.885    1581.1866   -13819.516    711.13923    78.473499 
   86100    416.92233   -114.13462   0.37724009   -113.75738   -569.80136    4.2745929    4.2745929    4.2745929   -569.80136   -20746.315    30790.934   -11754.023    1973.8206    21353.673   -6569.5871    78.105977 
   86200    579.90779   -114.28207   0.52471275   -113.75736   -2236.9655     4.281303     4.281303     4.281303   -2236.9655   -31264.101    16374.927    8178.2772   -7183.6585    19265.322    2385.7618    78.474381 
   86300    840.10699   -114.51238   0.76014646   -113.75223    3803.9438    4.2801832    4.2801832    4.2801832    3803.9438   -14293.767    6305.2917    19400.307   -2731.7708   -13449.945    7314.0404     78.41282 
   86400    380.67683   -114.10363   0.34444439   -113.75919     2642.224    4.2747943    4.2747943    4.2747943     2642.224    -12622.94    23261.683   -2712.0715   -1358.9641    15065.216    2252.2775    78.117018 
   86500    346.95692   -114.07519   0.31393391   -113.76125   -16055.097    4.2829407    4.2829407    4.2829407   -16055.097   -35677.858    2998.3672   -15485.801   -4138.7902    32254.619   -9048.6904    78.564467 
   86600    957.33245   -114.61979   0.86621452   -113.75358    2114.1299    4.2766336    4.2766336    4.2766336    2114.1299   -9640.2855   -5873.1158    21855.791   -5852.9915   -5753.7719   -2830.8892    78.217897 
   86700    840.67003   -114.51612   0.76065591   -113.75546    461.30626    4.2777091    4.2777091    4.2777091    461.30626   -16671.622    8202.8248    9852.7164    2021.5621    3335.9948    388.97097    78.276924 
   86800    355.11441    -114.0844   0.32131498   -113.76309   -8153.4166    4.2785524    4.2785524    4.2785524   -8153.4166   -32118.476    14036.654   -6378.4277    2486.7035    31782.852   -1498.7822    78.323228 
   86900    589.13353   -114.29494    0.5330604   -113.76188    -4366.027    4.2787784    4.2787784    4.2787784    -4366.027   -17496.541   -4396.1548    8794.6146   -6267.1792    2929.8767   -10474.748     78.33564 
   87000    936.62851    -114.6012   0.84748116   -113.75371    2101.7845    4.2798053    4.2798053    4.2798053    2101.7845   -6182.3369    1075.3209     11412.37   -4254.5617   -2130.3703   -2691.5569    78.392053 
   87100    692.04615   -114.38232    0.6261779   -113.75614    5221.7575    4.2759085    4.2759085    4.2759085    5221.7575   -10188.453    20961.548    4892.1772    604.31367      25928.9    4747.0579    78.178119 
   87200    523.05825    -114.2319    0.4732741   -113.75863   -5769.6577    4.2795713    4.2795713    4.2795713   -5769.6577   -15567.844     3149.919   -4891.0478   -3478.2382    4409.3243   -12498.827    78.379195 
   87300    706.38447   -114.39681   0.63915152   -113.75766   -1259.3997    4.2769039    4.2769039    4.2769039   -1259.3997    1847.1199   -15098.756    9473.4366   -7129.4178    -9572.413   -6012.5727    78.232728 
   87400    902.34792   -114.57159   0.81646336   -113.75512    562.88767    4.2781175    4.2781175    4.2781175    562.88767   -2356.7859    -1390.046    5435.4948    88.589568    10093.813    6596.1922    78.299344 
   87500    857.35205   -114.53049   0.77575016   -113.75474   -812.45007     4.280143     4.280143     4.280143   -812.45007     -7073.11    3071.7308     1564.029     1200.202    17238.175   -131.34309    78.410611 
   87600    659.22812   -114.35317   0.59648345   -113.75668   -3769.4128    4.2766735    4.2766735    4.2766735   -3769.4128   -2631.5147   -11929.024    3252.3001   -4015.6673   -9459.0142   -14556.423    78.220086 
   87700    657.63759   -114.35447   0.59504432   -113.75943   -2444.0437    4.2776807    4.2776807    4.2776807   -2444.0437     9470.273   -16422.636   -379.76849   -4134.4365   -4025.3809    3827.4191    78.275364 
   87800    974.13679    -114.6372   0.88141944   -113.75578    8835.8265    4.2765315    4.2765315    4.2765315    8835.8265    10286.544    6340.5534     9880.382    179.95865    13029.608    13938.737    78.212296 
   87900    897.66675   -114.56875   0.81222774   -113.75652   -756.02521    4.2804098    4.2804098    4.2804098   -756.02521   -7005.6319    5519.6031   -782.04679   -226.95394   -10935.571   -13204.749    78.425275 
   88000    521.43395   -114.23287    0.4718044   -113.76107   -5944.3472     4.278186     4.278186     4.278186   -5944.3472    8639.9675   -18029.778   -8443.2314   -4986.8569   -8123.6325    -210.8243    78.303103 
   88100    840.09523   -114.51878   0.76013582   -113.75865    1280.7748    4.2762644    4.2762644    4.2762644    1280.7748     11537.93   -17305.262    9609.6571   -3102.6397    743.56533    18847.107    78.197638 
   88200    1146.5501   -114.79155    1.0374226   -113.75412    6894.5719    4.2786148    4.2786148    4.2786148    6894.5719    6616.3324   -3778.3081    17845.691    4790.0966    1435.9937    345.94125    78.326651 
   88300    746.05865   -114.43568   0.67504955   -113.76063    3557.4303    4.2768456    4.2768456    4.2768456    3557.4303    3434.8063     -3317.26    10554.745   -1660.1147   -7860.1299   -10909.488    78.229531 
   88400    524.34344   -114.23713   0.47443696   -113.76269   -6315.4511    4.2818292    4.2818292    4.2818292   -6315.4511    12914.276   -18114.221   -13746.408   -8330.9891    -7410.972    13826.068    78.503318 
   88500    953.91706   -114.61833   0.86312421   -113.75521    9210.8916    4.2762237    4.2762237    4.2762237    9210.8916    18487.819   -999.25032    10144.106    2321.2445    7824.4644    15070.256    78.195406 
   88600    987.68466   -114.64765   0.89367783   -113.75398    7327.1817    4.2776149    4.2776149    4.2776149    7327.1817    639.86332   -3705.2618    25046.944    9442.1296   -4479.0534   -5078.1572    78.271752 
   88700    681.04234    -114.3753   0.61622143   -113.75908   -7559.6572    4.2808353    4.2808353    4.2808353   -7559.6572    6243.7741   -25765.908   -3156.8381   -969.15836   -8284.3055    2953.1075    78.448667 
   88800    725.15609   -114.41437   0.65613647   -113.75824   -1897.3945    4.2748345    4.2748345    4.2748345   -1897.3945    18361.333   -16285.425   -7768.0912   -2239.7368   -1035.7319    12568.659    78.119222 
   88900    902.90673   -114.57232   0.81696899   -113.75535   -5148.9843    4.2819763    4.2819763    4.2819763   -5148.9843   -15490.779    -8659.698    8703.5242    15279.502    8487.8983   -879.44565    78.511411 
   89000      866.126   -114.53722   0.78368901   -113.75353      1924.91    4.2797071    4.2797071    4.2797071      1924.91   -8499.1719   -1450.1557    15724.057    6684.6614    330.21132    1137.1752    78.386654 
   89100     698.9988     -114.387    0.6324688   -113.75453    7957.2414    4.2750944    4.2750944    4.2750944    7957.2414     21927.74   -6180.0908    8124.0748   -8920.4096   -5755.8308    19076.448    78.133472 
   89200     550.1541   -114.25553   0.49779099   -113.75774   -6339.7768    4.2824563    4.2824563    4.2824563   -6339.7768   -6306.2036   -13171.469    458.34242    8520.1045    14069.142    5691.2558    78.537816 
   89300    700.42156    -114.3898   0.63375615   -113.75605    1446.4664    4.2765812    4.2765812    4.2765812    1446.4664   -12927.227    -2598.891    19865.517    18109.735    12535.789   -3861.6714    78.215019 
   89400    962.57024   -114.62396   0.87095378   -113.75301   -631.83671    4.2786101    4.2786101    4.2786101   -631.83671    8580.5992   -12395.392    1919.2822   -731.15776   -3406.5176     6869.999    78.326396 
   89500    684.18352   -114.37519   0.61906363   -113.75613   -11660.508    4.2829151    4.2829151    4.2829151   -11660.508   -896.45481   -19865.982   -14219.087    1166.2111    1257.0482    11688.156     78.56306 
   89600    453.13208   -114.16814   0.41000343   -113.75814   -2890.6964    4.2752134    4.2752134    4.2752134   -2890.6964   -25115.243     2064.401    14378.752    24073.691     15127.14   -3999.6016    78.139997 
   89700    743.53735   -114.42838   0.67276822   -113.75562   -2064.4505    4.2820891    4.2820891    4.2820891   -2064.4505   -24009.508    1421.3937    16394.762    9258.1153    3675.1852    2678.2007    78.517614 
   89800    863.99341   -114.53511   0.78175939   -113.75335    11714.477    4.2753709    4.2753709    4.2753709    11714.477    9237.5288    7034.7047    18871.197   -9017.2521   -3246.0165    17814.898    78.148636 
   89900    383.50628   -114.10922   0.34700454   -113.76222    41.392434    4.2790991    4.2790991    4.2790991    41.392434   -5480.0413   -6061.8685    11666.087    12472.995     15153.92     2231.935    78.353254 
   90000    392.70456   -114.11614   0.35532733   -113.76081   -14450.532    4.2842977    4.2842977    4.2842977   -14450.532   -29067.689   -17658.302    3374.3956    21691.991    14960.236   -8558.9671    78.639169 
   90100    981.54257   -114.63952   0.88812035    -113.7514    10449.728    4.2703945    4.2703945    4.2703945    10449.728    4012.3691    8801.6204    18535.195   -1807.8345   -3725.1609    1030.1899    77.876065 
   90200      816.981   -114.49527   0.73922158   -113.75605   -10971.565    4.2847828    4.2847828    4.2847828   -10971.565   -16925.631   -12837.262   -3151.8016    2332.3744   -640.30165    8757.4276    78.665887 
   90300    263.89228   -114.00316   0.23877528   -113.76438   -3689.5279    4.2751104    4.2751104    4.2751104   -3689.5279   -15581.371   -6176.5991    10689.386    25471.355    17785.421   -3679.7982    78.134353 
   90400    560.54461   -114.27067   0.50719254   -113.76348    5326.6676    4.2774131    4.2774131    4.2774131    5326.6676   -4670.5043    6258.3935    14392.113    6587.0887    5264.0716   -7776.8346    78.260675 
   90500    1033.1482   -114.68722   0.93481421   -113.75241    2522.7742    4.2835232    4.2835232    4.2835232    2522.7742    2114.1941    998.57309    4455.5554   -8463.9445   -3920.0044     5651.419    78.596527 
   90600    529.92494   -114.24038   0.47948722    -113.7609    12965.956    4.2688021    4.2688021    4.2688021    12965.956    7481.2494    7873.0506    23543.568    15193.573    12099.071    3631.4408    77.788979 
   90700    328.64843    -114.0624     0.297368   -113.76503    -24330.24    4.2854377    4.2854377    4.2854377    -24330.24    -34957.56   -26797.947   -11235.213    21781.802    14093.616   -11920.035    78.701959 
   90800    922.19719   -114.59154    0.8344234   -113.75712    1268.2893    4.2757451    4.2757451    4.2757451    1268.2893     7584.385   -5522.6155    1743.0982   -2111.9476   -2990.0816   -11240.375    78.169153 
   90900    952.81186   -114.61656   0.86212419   -113.75443    4788.2413    4.2767769    4.2767769    4.2767769    4788.2413    6038.3661    1139.5675    7186.7904    572.68029    -840.0396    3087.5927     78.22576 
   91000    339.63478   -114.07096   0.30730868   -113.76365   -11509.163    4.2817129    4.2817129    4.2817129   -11509.163   -16616.858   -8668.5345   -9242.0959    20701.164    19700.079   -3630.2886    78.496921 
   91100    412.69443   -114.13647   0.37341459   -113.76306    5341.7173    4.2737041    4.2737041    4.2737041    5341.7173    12492.747    936.09389    2596.3108    6210.6178     7280.842   -15231.944    78.057266 
   91200    987.17781   -114.64703   0.89321923   -113.75381   -1578.0736    4.2832195    4.2832195    4.2832195   -1578.0736    4872.9279   -5874.2088     -3732.94   -5077.7637   -3928.6747   -73.859048    78.579812 
   91300    725.94172   -114.41399   0.65684733   -113.75715    6241.7415    4.2747326    4.2747326    4.2747326    6241.7415    9116.8246    1294.4314    8313.9685    14048.542    8178.4139    4077.6018    78.113636 
   91400    358.88186   -114.08602   0.32472385   -113.76129   -14931.726    4.2800624    4.2800624    4.2800624   -14931.726    -9355.188   -20395.783   -15044.206    18400.378    11338.724   -16286.217    78.406179 
   91500    608.45796   -114.30958   0.55054555   -113.75903    -4779.682    4.2792689    4.2792689    4.2792689    -4779.682    17774.219    -13803.61   -18309.656   -2871.8323   -429.09617   -12335.716    78.362578 
   91600    882.48677   -114.55206   0.79849257   -113.75357    10614.212    4.2732611    4.2732611    4.2732611    10614.212    21211.393    9040.1302    1591.1121   -3556.2898   -2826.9399    8844.0541    78.032995 
   91700    501.13889   -114.21245     0.453441   -113.75901   -8822.1741    4.2841568    4.2841568    4.2841568   -8822.1741   -11949.326    -5049.511   -9467.6852    13980.376    16794.797    -2694.431    78.631413 
   91800    357.20759   -114.08307   0.32320893   -113.75986   -877.78346    4.2749591    4.2749591    4.2749591   -877.78346    11853.815   -7105.6021   -7381.5636    6673.4178    8924.5299   -19141.739    78.126055 
   91900    728.19283    -114.4147   0.65888417   -113.75582    426.77573     4.277051     4.277051     4.277051    426.77573    18878.746   -10418.117   -7180.3018   -4770.4199   -4733.4162    6271.6724    78.240801 
   92000    837.99646    -114.5122    0.7582368   -113.75397   -5605.9414    4.2807619    4.2807619    4.2807619   -5605.9414   -2459.2008   -7039.6655   -7318.9579    4811.2752    3627.0774    9968.6952    78.444631 
   92100    559.22788   -114.26394   0.50600114   -113.75794   -610.71575    4.2734342    4.2734342    4.2734342   -610.71575    8017.9043    -2873.741   -6976.3106    12324.203    7630.0761   -19463.264     78.04248 
   92200    443.70691   -114.16137   0.40147534    -113.7599   -7138.2264    4.2819568    4.2819568    4.2819568   -7138.2264    15119.541    -17855.39    -18678.83     982.4307    3616.8589   -10903.023     78.51034 
   92300    753.76434   -114.43745   0.68202182   -113.75543    2629.0291    4.2766015    4.2766015    4.2766015    2629.0291    8801.2694   -4256.2211    3342.0392   -10571.544   -6299.7786    17416.566    78.216136 
   92400    737.72704   -114.42211   0.66751093    -113.7546     3250.393    4.2756331    4.2756331    4.2756331     3250.393    9350.8516   -2166.5444    2566.8719    1550.0095    6339.3469   -584.37997    78.163014 
   92500    605.33481   -114.30607   0.54771965   -113.75835    -9519.397    4.2794325    4.2794325    4.2794325    -9519.397    4988.6788   -20185.949    -13360.92    7100.3079    10365.477   -27934.989    78.371567 
   92600    607.59918   -114.30831    0.5497685   -113.75854   -1011.0683    4.2755116    4.2755116    4.2755116   -1011.0683    13650.427   -21040.957    4357.3252   -3784.1972   -2749.0313    2507.5424     78.15635 
   92700    817.85887   -114.49595   0.74001589   -113.75594   -4502.2191    4.2795643    4.2795643    4.2795643   -4502.2191   -4063.4913   -13179.955     3736.789   -6369.3478   -2382.8694    18458.695    78.378808 
   92800    727.72684   -114.41456   0.65846254    -113.7561    3766.9435    4.2757452    4.2757452    4.2757452    3766.9435     8867.298   -472.73352    2906.2661    1442.0978   -1651.6811   -18735.721    78.169163 
   92900    637.57184   -114.33459    0.5768884    -113.7577   -2787.7907    4.2773194    4.2773194    4.2773194   -2787.7907    6914.5332   -12851.223   -2426.6826    6918.1823    6758.3645   -17208.011    78.255529 
   93000    730.13672   -114.41767   0.66064305   -113.75702   -3893.3256    4.2780005    4.2780005    4.2780005   -3893.3256   -548.74757   -15724.306    4593.0769   -11187.467   -5063.9448    16304.216     78.29292 
   93100    754.79344   -114.43958   0.68295297   -113.75663    3914.2043    4.2754478    4.2754478    4.2754478    3914.2043     13541.74   -6547.5629    4748.4357   -8276.4337   -7486.5384    3835.2278    78.152851 
   93200    704.62927   -114.39502   0.63756337   -113.75746   -3343.7746    4.2793597    4.2793597    4.2793597   -3343.7746    7599.1538     -11904.5   -5725.9777    4104.7348    6163.7214   -27133.386    78.367571 
   93300    682.00101   -114.37407   0.61708884   -113.75698    2024.0549    4.2748938    4.2748938    4.2748938    2024.0549    11864.394   -8355.0844    2562.8552    619.75673    1159.3876   -5175.7773    78.122473 
   93400    728.04878   -114.41573   0.65875383   -113.75698   -345.35489    4.2772614    4.2772614    4.2772614   -345.35489   -2894.4842   -5672.9288    7531.3484    -8253.417   -3286.6389    19640.037     78.25235 
   93500    579.17197   -114.28203   0.52404697   -113.75798   -353.70817    4.2791344    4.2791344    4.2791344   -353.70817    8631.8885   -5154.7643   -4538.2487     -7896.44   -6950.5117   -12089.406    78.355191 
   93600    668.78984   -114.36236    0.6051351   -113.75722   -939.28915    4.2735526    4.2735526    4.2735526   -939.28915    9724.9023   -5278.6012   -7264.1685    8639.7676    10330.587   -23638.054    78.048965 
   93700    713.82008   -114.40197   0.64587941   -113.75609   -6262.7264    4.2794041    4.2794041    4.2794041   -6262.7264     -9159.28   -10222.481    593.58144   -8143.9156     341.9514    5816.4112     78.37001 
   93800    652.93791   -114.34756   0.59079194   -113.75677   -1279.0195    4.2773964    4.2773964    4.2773964   -1279.0195    973.10779   -3142.9301   -1667.2362   -12255.151    -12600.01    6022.8089    78.259759 
   93900    475.76254   -114.18951   0.43047995   -113.75903    1117.8839     4.273936     4.273936     4.273936    1117.8839    10169.521    612.01072   -7427.8801    1495.7956    4246.2929    -20754.39    78.069976 
   94000    574.11216   -114.27793   0.51946874   -113.75846   -10243.772    4.2796851    4.2796851    4.2796851   -10243.772   -11412.761   -4207.7068   -15110.847    4305.9304    12007.213   -13002.004    78.385445 
   94100    739.60432   -114.42453   0.66920953   -113.75532   -1401.4592    4.2769981    4.2769981    4.2769981   -1401.4592   -8198.1608    1681.6777    2312.1053   -7112.2594   -909.27076     8307.037    78.237895 
   94200    597.92184    -114.2979   0.54101225   -113.75689    1348.6209    4.2755201    4.2755201    4.2755201    1348.6209    15198.078   -3229.2995   -7922.9156    -11169.73   -10472.555   -7101.8701    78.156816 
   94300    393.81099   -114.11672   0.35632846    -113.7604   -8164.8521    4.2772935    4.2772935    4.2772935   -8164.8521    2238.3245   -4668.4156   -22064.465    8906.4532    17716.758   -20535.236    78.254109 
   94400    578.54359   -114.28291    0.5234784   -113.75943   -4285.1962    4.2779408    4.2779408    4.2779408   -4285.1962    -8231.067    2892.6886   -7517.2102    -2982.934    11468.452   -60.487977    78.289644 
   94500    807.10511   -114.48515   0.73028567   -113.75487     4908.378       4.2763       4.2763       4.2763     4908.378    7234.5402    4143.2534    3347.3406     -11526.8   -5860.7307    2222.7229    78.199593 
   94600    530.19613   -114.23861    0.4797326   -113.75888    1646.2896    4.2753344    4.2753344    4.2753344    1646.2896    14158.712   -1530.6722    -7689.171   -341.44961     7440.436   -15960.849    78.146635 
   94700    404.17299   -114.12677   0.36570422   -113.76107   -13594.458    4.2801269    4.2801269    4.2801269   -13594.458   -5775.2291    -3085.651   -31922.495    4828.5323    18407.476   -13931.007    78.409727 
   94800    675.41719   -114.36825   0.61113167   -113.75712    1261.0735    4.2762896    4.2762896    4.2762896    1261.0735   -2288.9233    4665.7011    1406.4427   -3666.8288    3454.4951    4579.6885    78.199024 
   94900    777.80597   -114.45897   0.70377519    -113.7552    3703.9817    4.2747426    4.2747426    4.2747426    3703.9817    14024.595   -7265.3362    4352.6864   -13207.337   -7702.4711   -5323.6717    78.114185 
   95000    482.02188   -114.19525   0.43614353   -113.75911   -8566.8899    4.2801807    4.2801807    4.2801807   -8566.8899    4997.9967   -7420.1129   -23278.553    6009.7602      17745.6    -19829.85    78.412685 
   95100    542.52371   -114.24988   0.49088686     -113.759   -3437.0393    4.2757601    4.2757601    4.2757601   -3437.0393   -4365.5755    1550.2231   -7495.7654   -1309.8356    12746.363    1860.0866    78.169976 
   95200    689.04099   -114.37934   0.62345877   -113.75588    2054.0273     4.276444     4.276444     4.276444    2054.0273    3987.1952   -3014.2072    5189.0938   -9597.1683   -5892.1164    808.15192    78.207492 
   95300    635.48012   -114.33213   0.57499577   -113.75714   -4566.5269    4.2794523    4.2794523    4.2794523   -4566.5269    16097.086   -19260.153   -10536.514   -1872.3153    1051.4399   -19207.046    78.372655 
   95400    709.28578   -114.39776   0.64177668   -113.75598   -169.43253    4.2748271    4.2748271    4.2748271   -169.43253    19147.151   -9382.6518   -10272.797    2581.8531    10845.519   -15532.126    78.118817 
   95500    679.24827   -114.37115   0.61459811   -113.75655    1372.3754    4.2779588    4.2779588    4.2779588    1372.3754   -3706.3762    264.85991    7558.6425   -2173.0772    2839.1762    5733.8868    78.290631 
   95600    581.09105   -114.28422    0.5257834   -113.75843   -3994.0833    4.2780959    4.2780959    4.2780959   -3994.0833   -351.19038   -17448.953    5817.8931   -10556.079   -13282.719   -8056.6464    78.298158 
   95700    690.44105   -114.38218   0.62472557   -113.75745    1454.4164    4.2770495    4.2770495    4.2770495    1454.4164    19455.241   -13106.315   -1985.6766    705.82658    2314.7181   -21105.632    78.240717 
   95800    957.54907   -114.62066   0.86641052   -113.75425    2707.0334    4.2767387    4.2767387    4.2767387    2707.0334    10505.065   -3676.1964    1292.2315    -31.79263    12234.449    4036.8651    78.223666 
   95900     630.4695   -114.32957   0.57046205    -113.7591    1521.2984    4.2763575    4.2763575    4.2763575    1521.2984    5055.2706   -8176.5495    7685.1742   -9458.5622   -4430.5936   -550.54136    78.202749 
   96000    548.26717   -114.25883   0.49608366   -113.76275   -10611.555    4.2801711    4.2801711    4.2801711   -10611.555    6418.1763   -25611.992    -12640.85   -1756.5542   -11796.208   -22903.995    78.412154 
   96100     1012.261   -114.67189   0.91591503   -113.75597    6562.5617      4.27413      4.27413      4.27413    6562.5617    22802.227   -1928.6012   -1185.9405    2696.4128   -3952.4782   -8275.5786    78.080605 
   96200    987.17936   -114.64921   0.89322063   -113.75599    3868.8683    4.2785759    4.2785759    4.2785759    3868.8683    5665.6001   -3640.0227    9581.0274   -5538.3854    5005.6659    11305.985    78.324514 
   96300    562.03759   -114.27116   0.50854342   -113.76262   -7744.7658    4.2789339    4.2789339    4.2789339   -7744.7658   -4484.8946   -14045.776   -4703.6272   -7926.3458    -10196.59   -10820.837     78.34418 
   96400    663.79689    -114.3627   0.60061738   -113.76208    5982.0262    4.2735884    4.2735884    4.2735884    5982.0262     21331.56   -1795.1804   -1590.3007    1059.0555   -11437.855   -19586.824    78.050927 
   96500    1150.3389   -114.79643    1.0408508   -113.75558    2827.9241     4.279549     4.279549     4.279549    2827.9241    17466.109   -7155.7337   -1826.6031    2315.2842    3907.8555    11150.615    78.377973 
   96600    891.43459   -114.56516   0.80658875   -113.75857    5670.6776    4.2761904    4.2761904    4.2761904    5670.6776    13133.564   -1656.6975     5535.166   -7405.5676   -668.74086    2908.9069    78.193579 
   96700    532.99713   -114.24539     0.482267   -113.76312   -8625.6224    4.2771934    4.2771934    4.2771934   -8625.6224   -6580.9185   -9879.5079   -9416.4407   -3394.8788   -10558.921   -22612.638    78.248615 
   96800    766.09384   -114.45373   0.69317781   -113.76055    11.841858    4.2777584    4.2777584    4.2777584    11.841858    5594.0796    2243.8745   -7802.4285    4040.9991   -9405.9916   -2841.8556    78.279631 
   96900    1141.1785   -114.78704    1.0325622   -113.75448    6677.9236    4.2765188    4.2765188    4.2765188    6677.9236     17657.59   -4258.1399    6634.3209   -3076.4223    5081.3521    14014.063    78.211595 
   97000    783.18343   -114.46986   0.70864083   -113.76122   -2624.3726    4.2769235    4.2769235    4.2769235   -2624.3726    12119.552    -12246.72   -7745.9498   -2933.6116    -4394.171   -15560.151    78.233803 
   97100    445.74656   -114.16836   0.40332085   -113.76504   -3466.0681    4.2764393    4.2764393    4.2764393   -3466.0681    14956.018   -3568.7964   -21785.426    1488.3518   -12582.349   -19474.222    78.207233 
   97200     867.5513    -114.5443   0.78497865   -113.75932   -1192.3136    4.2800242    4.2800242    4.2800242   -1192.3136    7334.1952   -4223.7302   -6687.4059    5592.3143   -405.05252    13091.966     78.40408 
   97300    972.20559    -114.6348   0.87967205   -113.75513    7305.9605    4.2747889    4.2747889    4.2747889    7305.9605    21563.251   -6271.1492    6625.7793    3130.8131   -50.483319   -2158.2525    78.116725 
   97400    616.79393   -114.31879   0.55808811   -113.76071   -6663.9521    4.2770782    4.2770782    4.2770782   -6663.9521    7728.3733   -6914.8534   -20805.376   -6034.7113    -10760.33   -22614.304    78.242292 
   97500    522.35624    -114.2329   0.47263891   -113.76026   -7159.3739    4.2802827    4.2802827    4.2802827   -7159.3739   -8833.4188    1186.2325   -13830.936    2743.5046    -3010.223    1512.0301     78.41829 
   97600    787.71343   -114.46868   0.71273967   -113.75594    3352.5559     4.274118     4.274118     4.274118    3352.5559     11101.61   -8608.3482    7564.4058     4760.572    6332.6173    5304.2196    78.079948 
   97700    735.78639   -114.42184   0.66575499   -113.75608    -1568.044    4.2783872    4.2783872    4.2783872    -1568.044     24128.45   -16967.266   -11865.316   -410.32105   -3051.3065   -20148.039    78.314154 
   97800    702.63863   -114.39188    0.6357622   -113.75612   -1004.3206    4.2780621    4.2780621    4.2780621   -1004.3206    15189.329   -5730.7027   -12471.588     2305.168   -6225.2333   -11449.749    78.296301 
   97900    534.36748   -114.24152   0.48350693   -113.75801    1548.4255    4.2758415    4.2758415    4.2758415    1548.4255     3149.515   -651.65685    2147.4184    5108.4284   -720.76628    11846.656    78.174442 
   98000    470.83283   -114.18511   0.42601944   -113.75909   -4172.5338    4.2777404    4.2777404    4.2777404   -4172.5338    4559.5742   -20082.668    3005.4926    6756.9918    5278.0793   -9251.5048     78.27864 
   98100    793.92879   -114.47364   0.71836346   -113.75527     434.7531    4.2775901    4.2775901    4.2775901     434.7531     25069.55   -10754.179   -13011.112    -6329.745   -3284.7701   -17126.156     78.27039 
   98200    743.44299   -114.42854   0.67268284   -113.75586    2351.8716    4.2771198    4.2771198    4.2771198    2351.8716    20000.944   -1281.6883   -11663.641    2569.0547    252.10636     8182.143    78.244576 
   98300    307.96752    -114.0419   0.27865548   -113.76324   -8494.9577    4.2756251    4.2756251    4.2756251   -8494.9577   -1597.1006   -22448.871   -1438.9018    7865.9897    4100.3502    2553.4135    78.162573 
   98400    446.56434   -114.16715    0.4040608   -113.76309   -8421.4101    4.2792794    4.2792794    4.2792794   -8421.4101    8741.0473   -21624.836   -12380.442   -1043.1706    2200.8687   -19711.883    78.363156 
   98500    920.24773   -114.58693   0.83265949   -113.75427    1657.1598    4.2781663    4.2781663    4.2781663    1657.1598    25239.983    -1561.639   -18706.864    2450.6597    1860.0582   -273.46068    78.302025 
   98600    583.41085   -114.28699    0.5278824   -113.75911      3440.24     4.273127     4.273127     4.273127      3440.24    16245.958    -2969.261   -2955.9772      2846.41   -3203.3231    13516.216    78.025652 
   98700    239.72651   -113.98039   0.21690958   -113.76348    -8226.404    4.2802358    4.2802358    4.2802358    -8226.404       5179.5   -22300.048   -7558.6644    1995.6197    7322.8543   -11890.194    78.415709 
   98800    611.20521   -114.31234   0.55303132   -113.75931   -4194.3564    4.2781747    4.2781747    4.2781747   -4194.3564    15256.258   -5544.7468   -22294.581   -6313.0209    -725.9718   -8859.1488    78.302485 
   98900    788.41931   -114.46833   0.71337836   -113.75495    10729.111    4.2714258    4.2714258    4.2714258    10729.111    33191.148    9872.1553    -10875.97    2318.5516   -4241.9051    11746.442    77.932497 
   99000    622.85105    -114.3215   0.56356872   -113.75793   -10521.684     4.282239     4.282239     4.282239   -10521.684    4024.6278   -21747.924   -13841.757    6647.3836    3890.0059   -1622.0444    78.525858 
   99100    419.51733   -114.13973   0.37958809   -113.76014   -6166.4139     4.275641     4.275641     4.275641   -6166.4139     -2673.84   -7088.9484   -8736.4532    359.73511    1186.2734   -15107.837    78.163445 
   99200    570.30893   -114.27557    0.5160275   -113.75954    3389.9312    4.2733022    4.2733022    4.2733022    3389.9312    16269.087    12179.596   -18278.889   -1900.9743   -4194.8868    7079.6274    78.035247 
   99300    856.47047   -114.52975   0.77495248   -113.75479   -3713.3577    4.2820842    4.2820842    4.2820842   -3713.3577    13478.157   -3301.8521   -21316.379    151.96123   -7077.1847    8348.1896    78.517344 
   99400    730.34799   -114.41783   0.66083421   -113.75699    5163.2421    4.2731497    4.2731497    4.2731497    5163.2421    21251.726   -5374.8657   -387.13439   -2672.8009    5830.3174   -16876.476    78.026897 
   99500    512.08879   -114.22489    0.4633487   -113.76154   -5639.4818    4.2760354    4.2760354    4.2760354   -5639.4818    2967.9157    2906.3773   -22792.738   -3066.6745   -7658.5837   -5520.4113    78.185076 
   99600    751.93831   -114.43972   0.68036958   -113.75935   -5014.9707    4.2798721    4.2798721    4.2798721   -5014.9707     5056.484    5104.3013   -25205.697    725.25525   -7846.3292    12107.325    78.395721 
   99700    959.70026   -114.62321   0.86835696   -113.75485    8054.2121    4.2748438    4.2748438    4.2748438    8054.2121    32880.159   -3065.8137   -5651.7089    1879.2985     3679.018   -12888.334    78.119735 
   99800    810.78106   -114.49089   0.73361174   -113.75728   -2669.2799    4.2769239    4.2769239    4.2769239   -2669.2799    18225.624   -9649.6052   -16583.859    2437.0415   -850.56241   -20136.667    78.233824 
   99900    676.53007   -114.37159   0.61213862   -113.75945   -1218.2987    4.2761897    4.2761897    4.2761897   -1218.2987    1102.7859    10903.133   -15660.815   -5019.1471   -10311.873    8951.1026    78.193541 
  100000    790.25007   -114.47383   0.71503487    -113.7588   -3568.4402    4.2776606    4.2776606    4.2776606   -3568.4402    5954.5228    1762.6281   -18422.471     316.6832   -5764.2187   -3640.1828    78.274262 
Loop time of 24.0075 on 1 procs for 100000 steps with 8 atoms

Pair  time (%) = 7.82948 (32.6126)
Kspce time (%) = 5.85002 (24.3674)
Neigh time (%) = 0 (0)
Comm  time (%) = 1.2274 (5.11258)
Outpt time (%) = 0.0280282 (0.116748)
Other time (%) = 9.0726 (37.7906)

Nlocal:    8 ave 8 max 8 min
Histogram: 1 0 0 0 0 0 0 0 0 0
Nghost:    2189 ave 2189 max 2189 min
Histogram: 1 0 0 0 0 0 0 0 0 0
Neighs:    2344 ave 2344 max 2344 min
Histogram: 1 0 0 0 0 0 0 0 0 0

Total # of neighbors = 2344
Ave neighs/atom = 293
Neighbor list builds = 0
Dangerous builds = 0
unfix 20
unfix 21
print "seeds:3642063"
seeds:3642063
