LAMMPS (16 Mar 2018)
# ---- initialize simulations
clear
units metal
dimension 3
boundary p p p
atom_style charge
atom_modify map array
# ---- create atoms
read_data /home/manuelesp/repos/pypospack/dev/MgO_iterative_sampler/rank_0/MgO_NaCl_sch.lmps_min_pos/lammps.structure
  triclinic box = (0 0 0) to (11.0731 11.0731 11.0731) with tilt (0 0 0)
  1 by 1 by 1 MPI processor grid
  reading atoms ...
  214 atoms
# ---- define interatomic potential
include potential.mod
mass 1 24.305
mass 2 15.999

group Mg type 1
107 atoms in group Mg
group O type 2
107 atoms in group O

set group Mg charge 2.467095066210368
  107 settings made for charge
set group O charge -2.467095066210368
  107 settings made for charge

variable R_cut equal 10.0

pair_style buck/coul/long ${R_cut}
pair_style buck/coul/long 10
pair_coeff 1 1 0.0 0.5 0.0 ${R_cut}
pair_coeff 1 1 0.0 0.5 0.0 10
pair_coeff 1 2 935.4807786808233 0.3084619384680258 0.0 ${R_cut}
pair_coeff 1 2 935.4807786808233 0.3084619384680258 0.0 10
pair_coeff 2 2 12266.368986574063 0.11126335340408924 33.77611037763418 ${R_cut}
pair_coeff 2 2 12266.368986574063 0.11126335340408924 33.77611037763418 10

kspace_style pppm 1.0e-5

neighbor 1.0 bin
neigh_modify every 1 delay 0 check yes
# ---- define settings
compute eng all pe/atom
compute eatoms all reduce sum c_eng

# ---- run minimization
reset_timestep 0
thermo 1
thermo_style custom step pe lx ly lz xy xz yz press pxx pyy pzz pxy pxz pyz c_eatoms
min_style cg
minimize 1e-20 1e-20 1000 100000
PPPM initialization ...
  using 12-bit tables for long-range coulomb (../kspace.cpp:321)
  G vector (1/distance) = 0.354117
  grid = 20 20 20
  stencil order = 5
  estimated absolute RMS force accuracy = 0.00011271
  estimated relative force accuracy = 7.82726e-06
  using double precision FFTs
  3d grid and FFT values/proc = 19683 8000
Neighbor list info ...
  update every 1 steps, delay 0 steps, check yes
  max neighbors/atom: 2000, page size: 100000
  master list distance cutoff = 11
  ghost atom cutoff = 11
  binsize = 5.5, bins = 3 3 3
  1 neighbor lists, perpetual/occasional/extra = 1 0 0
  (1) pair buck/coul/long, perpetual
      attributes: half, newton on
      pair build: half/bin/newton/tri
      stencil: half/bin/3d/newton/tri
      bin: standard
Per MPI rank memory allocation (min/avg/max) = 7.314 | 7.314 | 7.314 Mbytes
Step PotEng Lx Ly Lz Xy Xz Yz Press Pxx Pyy Pzz Pxy Pxz Pyz c_eatoms 
       0   -7366.6182      11.0731      11.0731      11.0731            0            0            0   -6743.2283   -5492.0004   -5492.0004    -9245.684   -1139.3731  0.052980461   0.05298046   -7366.6182 
       1   -7405.8391      11.0731      11.0731      11.0731            0            0            0   -3492.1712   -3787.6606   -3787.6606   -2901.1924    154.28454  0.025251879  0.025251879   -7405.8391 
       2   -7409.5802      11.0731      11.0731      11.0731            0            0            0    4539.7092    4176.6136    4176.6136    5265.9004    197.49084  0.034026695  0.034026695   -7409.5802 
       3   -7410.3354      11.0731      11.0731      11.0731            0            0            0    4309.2306     4100.652     4100.652    4726.3879    71.592849  0.016479796  0.016479796   -7410.3354 
       4   -7410.8762      11.0731      11.0731      11.0731            0            0            0      7345.68    7035.5931    7035.5931    7965.8539     208.1293  0.027846225  0.027846225   -7410.8762 
       5   -7411.1079      11.0731      11.0731      11.0731            0            0            0    8721.6696     8400.064     8400.064    9364.8808    94.524691  0.012831594  0.012831595   -7411.1079 
       6   -7411.1902      11.0731      11.0731      11.0731            0            0            0    9175.5489    8772.0665    8772.0665    9982.5138   -28.863934  0.011671452  0.011671451   -7411.1902 
       7   -7411.2209      11.0731      11.0731      11.0731            0            0            0    9565.5453    9186.6309    9186.6309    10323.374    54.292812  0.025662276  0.025662275   -7411.2209 
       8   -7411.2398      11.0731      11.0731      11.0731            0            0            0    9690.4133    9260.1297    9260.1297     10550.98   -54.358981 -0.0021452939 -0.0021452933   -7411.2398 
       9   -7411.2451      11.0731      11.0731      11.0731            0            0            0    9786.0212    9372.0872    9372.0872    10613.889   -126.55662 0.0030291742 0.0030291746   -7411.2451 
      10   -7411.2472      11.0731      11.0731      11.0731            0            0            0    9858.9192    9435.4802    9435.4802    10705.797   -149.60326 0.0065398606 0.0065398601   -7411.2472 
      11    -7411.248      11.0731      11.0731      11.0731            0            0            0     9947.382    9519.8301    9519.8301    10802.486    -132.6169  -0.02195581  -0.02195581    -7411.248 
      12   -7411.2486      11.0731      11.0731      11.0731            0            0            0    9967.9354    9531.4454    9531.4454    10840.915   -100.65059 -0.010915986 -0.010915986   -7411.2486 
      13   -7411.2489      11.0731      11.0731      11.0731            0            0            0    9994.6368    9557.2496    9557.2496    10869.411   -109.91569 -0.011916047 -0.011916047   -7411.2489 
      14   -7411.2491      11.0731      11.0731      11.0731            0            0            0    9988.6075    9549.9173    9549.9173    10865.988   -112.67948 -0.0048321117 -0.0048321123   -7411.2491 
      15   -7411.2493      11.0731      11.0731      11.0731            0            0            0    9985.5978    9544.1424    9544.1424    10868.508   -104.69086 -0.0033431899 -0.0033431893   -7411.2493 
      16   -7411.2494      11.0731      11.0731      11.0731            0            0            0    9966.1723    9525.6226    9525.6226    10847.272   -98.648289 -0.0080248826 -0.0080248825   -7411.2494 
      17   -7411.2494      11.0731      11.0731      11.0731            0            0            0    9968.5848    9527.9038    9527.9038    10849.947   -101.37673 -0.005020351 -0.0050203502   -7411.2494 
      18   -7411.2494      11.0731      11.0731      11.0731            0            0            0    9967.2684     9526.862     9526.862    10848.081   -104.77028  0.020297414  0.020297412   -7411.2494 
      19   -7411.2494      11.0731      11.0731      11.0731            0            0            0    9975.3031    9535.8527    9535.8527    10854.204   -105.45978 -0.0016201723 -0.0016201744   -7411.2494 
      20   -7411.2494      11.0731      11.0731      11.0731            0            0            0    9975.3031    9535.8527    9535.8527    10854.204   -105.45978 -0.0016201736 -0.001620175   -7411.2494 
Loop time of 0.986331 on 1 procs for 20 steps with 214 atoms

86.4% CPU use with 1 MPI tasks x no OpenMP threads

Minimization stats:
  Stopping criterion = linesearch alpha is zero
  Energy initial, next-to-last, final = 
        -7366.61823276     -7411.24941564     -7411.24941564
  Force two-norm initial, final = 108.551 0.0186415
  Force max component initial, final = 18.2547 0.0026191
  Final line search alpha, max atom move = 3.05176e-05 7.99286e-08
  Iterations, force evaluations = 20 96

MPI task timing breakdown:
Section |  min time  |  avg time  |  max time  |%varavg| %total
---------------------------------------------------------------
Pair    | 0.74535    | 0.74535    | 0.74535    |   0.0 | 75.57
Kspace  | 0.23733    | 0.23733    | 0.23733    |   0.0 | 24.06
Neigh   | 0          | 0          | 0          |   0.0 |  0.00
Comm    | 0.0022297  | 0.0022297  | 0.0022297  |   0.0 |  0.23
Output  | 0.00054693 | 0.00054693 | 0.00054693 |   0.0 |  0.06
Modify  | 0          | 0          | 0          |   0.0 |  0.00
Other   |            | 0.0008831  |            |       |  0.09

Nlocal:    214 ave 214 max 214 min
Histogram: 1 0 0 0 0 0 0 0 0 0
Nghost:    4645 ave 4645 max 4645 min
Histogram: 1 0 0 0 0 0 0 0 0 0
Neighs:    94770 ave 94770 max 94770 min
Histogram: 1 0 0 0 0 0 0 0 0 0

Total # of neighbors = 94770
Ave neighs/atom = 442.85
Neighbor list builds = 0
Dangerous builds = 0

# ---- define output variables ----
variable natoms equal "count(all)"
variable tot_energy equal "c_eatoms"
variable a11 equal "xhi-xlo"
variable a22 equal "yhi-ylo"
variable a33 equal "zhi-zlo"
variable tilt_xy equal "xy"
variable tilt_xz equal "xz"
variable tilt_yz equal "yz"
variable tot_press equal "press"
variable press_xx equal "pxx"
variable press_yy equal "pyy"
variable press_zz equal "pzz"
variable press_xy equal "pxy"
variable press_xz equal "pxz"
variable press_yz equal "pyz"

# ---- output ----
print "pypospack:output_section:begin"
pypospack:output_section:begin
print "tot_energy = ${tot_energy}"
tot_energy = -7411.24941563537
print "num_atoms = ${natoms}"
num_atoms = 214
print "a11 = ${a11}"
a11 = 11.0731
print "a22 = ${a22}"
a22 = 11.0731
print "a33 = ${a33}"
a33 = 11.0731
print "a12 = ${tilt_xy}"
a12 = 0
print "a13 = ${tilt_xz}"
a13 = 0
print "a23 = ${tilt_yz}"
a23 = 0
print "tot_press = ${tot_press}"
tot_press = 9975.30306645611
print "pxx = ${press_xx}"
pxx = 9535.85266383481
print "pyy = ${press_yy}"
pyy = 9535.85266596036
print "pzz = ${press_zz}"
pzz = 10854.2038695732
print "pxy = ${press_xy}"
pxy = -105.459780619403
print "pxz = ${press_xz}"
pxz = -0.00162017355202659
print "pyz = ${press_yz}"
pyz = -0.00162017498508378
print "pypospack:output_section:done"
pypospack:output_section:done
print "pypospack:lammps_sim:done"
pypospack:lammps_sim:done
Total wall time: 0:00:01
