LAMMPS (10 Feb 2015)
# ---- initialize simulations
clear
units metal
dimension 3
boundary p p p
atom_style charge
atom_modify map array
# ---- create atoms
read_data /Users/eugeneragasa/pyflamestk_git/pypospack/tests/tests_integration/workflow/WorkflowLammpsThermalExpansion/MgO_NaCl_unit.npt.T600/lammps.structure
  triclinic box = (0 0 0) to (4.2565 4.2565 4.2565) with tilt (0 0 0)
  1 by 1 by 1 MPI processor grid
  reading atoms ...
  8 atoms
# ---- define interatomic potential
include potential.mod
mass 1 24.305
mass 2 15.999

group Mg type 1
4 atoms in group Mg
group O type 2
4 atoms in group O

set group Mg charge 2.0
  4 settings made for charge
set group O charge -2.0
  4 settings made for charge

variable R_cut equal 10.0

pair_style buck/coul/long ${R_cut}
pair_style buck/coul/long 10
pair_coeff 1 1 0.0 0.5 0.0 ${R_cut}
pair_coeff 1 1 0.0 0.5 0.0 10
pair_coeff 1 2 821.6 0.3242 0.0 ${R_cut}
pair_coeff 1 2 821.6 0.3242 0.0 10
pair_coeff 2 2 2274.0 0.149 27.88 ${R_cut}
pair_coeff 2 2 2274.0 0.149 27.88 10

kspace_style pppm 1.0e-5

neighbor 1.0 bin
neigh_modify every 1 delay 0 check yes
# ---- define settings
compute eng all pe/atom
compute eatoms all reduce sum c_eng
# ---- run minimization
reset_timestep 0
fix 1 all box/relax iso 0.0 vmax 0.001
thermo 10
thermo_style custom step pe lx ly lz xy xz yz press pxx pyy pzz pxy pxz pyz c_eatoms
min_style cg
minimize 1e-25 1e-25 5000 10000
PPPM initialization ...
  G vector (1/distance) = 0.354854
  grid = 8 8 8
  stencil order = 5
  estimated absolute RMS force accuracy = 5.34408e-05
  estimated relative force accuracy = 3.71126e-06
  using double precision FFTs
  3d grid and FFT values/proc = 3375 512
Neighbor list info ...
  1 neighbor list requests
  update every 1 steps, delay 0 steps, check yes
  master list distance cutoff = 11
Memory usage per processor = 4.06549 Mbytes
Step PotEng Lx Ly Lz Xy Xz Yz Press Pxx Pyy Pzz Pxy Pxz Pyz eatoms 
       0   -162.12848       4.2565       4.2565       4.2565            0            0            0    -64012.53    -64012.53    -64012.53    -64012.53 -3.8759874e-11 -1.4292379e-10 -3.6687737e-10   -162.12848 
      10   -162.17871     4.213935     4.213935     4.213935            0            0            0   -4821.7526   -4821.7526   -4821.7526   -4821.7526 8.9106085e-11 8.5332225e-11 -4.2335946e-10   -162.17871 
      14   -162.17896    4.2106915    4.2106915    4.2106915            0            0            0    -1.347652    -1.347652    -1.347652    -1.347652 2.5597609e-11 1.0162971e-11 2.8091283e-10   -162.17896 
Loop time of 0.0127809 on 1 procs for 14 steps with 8 atoms

Minimization stats:
  Stopping criterion = linesearch alpha is zero
  Energy initial, next-to-last, final = 
        -162.128476026     -162.178964554     -162.178964554
  Force two-norm initial, final = 9.24344 0.000276677
  Force max component initial, final = 9.24344 0.000190436
  Final line search alpha, max atom move = 0.125 2.38044e-05
  Iterations, force evaluations = 14 33

Pair  time (%) = 0.00349927 (27.3789)
Kspce time (%) = 0.00204539 (16.0035)
Neigh time (%) = 0 (0)
Comm  time (%) = 0.00038147 (2.98468)
Outpt time (%) = 1.09673e-05 (0.0858097)
Other time (%) = 0.00684381 (53.5471)

Nlocal:    8 ave 8 max 8 min
Histogram: 1 0 0 0 0 0 0 0 0 0
Nghost:    2189 ave 2189 max 2189 min
Histogram: 1 0 0 0 0 0 0 0 0 0
Neighs:    2344 ave 2344 max 2344 min
Histogram: 1 0 0 0 0 0 0 0 0 0

Total # of neighbors = 2344
Ave neighs/atom = 293
Neighbor list builds = 0
Dangerous builds = 0
unfix 1
# ---- define output variables ----
variable natoms equal "count(all)"
variable tot_energy equal "c_eatoms"
variable length_x equal "lx"
variable length_y equal "ly"
variable length_z equal "lz"
variable tilt_xy equal "xy"
variable tilt_xz equal "xz"
variable tilt_yz equal "yz"
variable tot_press equal "press"
variable press_xx equal "pxx"
variable press_yy equal "pyy"
variable press_zz equal "pzz"
variable press_xy equal "pxy"
variable press_xz equal "pxz"
variable press_yz equal "pyz"

# ---- output ----
print "pypospack:output_section:begin"
pypospack:output_section:begin
print "tot_energy = ${tot_energy}"
tot_energy = -162.17896455406
print "num_atoms = ${natoms}"
num_atoms = 8
print "xx = ${length_x}"
xx = 4.21069146013408
print "yy = ${length_y}"
yy = 4.21069146013408
print "zz = ${length_z}"
zz = 4.21069146013408
print "xy = ${tilt_xy}"
xy = 0
print "xz = ${tilt_xz}"
xz = 0
print "yz = ${tilt_yz}"
yz = 0
print "tot_press = ${tot_press}"
tot_press = -1.34765197939399
print "pxx = ${press_xx}"
pxx = -1.34765197919426
print "pyy = ${press_yy}"
pyy = -1.3476519793348
print "pzz = ${press_zz}"
pzz = -1.34765197965291
print "pxy = ${press_xy}"
pxy = 2.55976090046832e-11
print "pxz = ${press_xz}"
pxz = 1.01629705561986e-11
print "pyz = ${press_yz}"
pyz = 2.80912827691917e-10
print "pypospack:output_section:done"
pypospack:output_section:done
print "pypospack:lammps_sim:done"
pypospack:lammps_sim:done
#------------------------------------------------------------------------------
# RUN THERMOSTAT
# running using an NPT Nose-Hoover style thermostat
#------------------------------------------------------------------------------
variable tempdamp equal 0.1
variable pressdamp equal 1.0
# set initial velocities
velocity all create 600 7830352 mom yes dist gaussian loop all
# fix for Nose-Hoover style thermostat
fix 20 all npt temp 600 600 0.1 aniso 0.0 0.0 1.0 drag 1.0 couple xyz
variable boxx equal lx
variable boxy equal ly
variable boxz equal lz
variable boxp equal press
variable boxt equal temp
# calculate averages every 10000 steps
reset_timestep 0
fix 21 all ave/time 10 10 100 v_boxx v_boxy v_boxz v_boxp v_boxt file lattice.out
thermo_style custom step temp pe ke etotal press lx ly lz press pxx pyy pzz pxy pxz pyz vol
thermo_modify flush yes
thermo 100
run 100000
PPPM initialization ...
  G vector (1/distance) = 0.355384
  grid = 8 8 8
  stencil order = 5
  estimated absolute RMS force accuracy = 5.2136e-05
  estimated relative force accuracy = 3.62065e-06
  using double precision FFTs
  3d grid and FFT values/proc = 3375 512
Memory usage per processor = 3.06549 Mbytes
Step Temp PotEng KinEng TotEng Press Lx Ly Lz Press Pxx Pyy Pzz Pxy Pxz Pyz Volume 
       0          600   -162.17896   0.54289261   -161.63607    7766.8546    4.2106915    4.2106915    4.2106915    7766.8546    7278.4379    12831.746    3190.3795    1670.6618   -3804.0227   -3006.6108    74.655234 
     100    149.34544   -161.69063   0.13513089   -161.55549    2395.4226    4.2285335    4.2285335    4.2285335    2395.4226    3881.4518    16850.667    -13545.85    9504.7196    3859.1421    5782.1555    75.608275 
     200     596.4355   -161.95446   0.53966738    -161.4148   -9680.4383     4.232301     4.232301     4.232301   -9680.4383   -10089.981   -5548.6897   -13402.644   -3507.6703    1620.0184   -199.19122    75.810549 
     300    458.66568   -161.70014   0.41501035   -161.28513    410.95499    4.2393545    4.2393545    4.2393545    410.95499   -11557.807    37826.163   -25035.491    6742.4917    1767.6856    2062.4239    76.190217 
     400    609.75566   -161.73844   0.55171974   -161.18672   -797.34902    4.2328086    4.2328086    4.2328086   -797.34902    9048.6281   -2233.1449   -9207.5303   -3924.0193    8384.5862   -813.25808    75.837828 
     500    533.24622   -161.60804   0.48249238   -161.12555    8756.1872    4.2227795    4.2227795    4.2227795    8756.1872    8646.0925    24897.638   -7275.1687    248.78723     -6330.89   -11523.681    75.300039 
     600    718.39366   -161.74947   0.65001768   -161.09946   -24076.839    4.2514546    4.2514546    4.2514546   -24076.839   -9686.8073   -23471.556   -39072.153    2003.9807    4931.9747     2360.706    76.844475 
     700    481.76158    -161.5297     0.435908   -161.09379    9536.5813    4.2408357    4.2408357    4.2408357    9536.5813   -21585.614    61030.264   -10834.906    1896.8451   -3993.2873   -6768.1674    76.270106 
     800    679.23664   -161.71459   0.61458759       -161.1    -2816.224    4.2338026    4.2338026    4.2338026    -2816.224   -16459.987    18814.886   -10803.571    4122.9693    -5119.317    6718.4436    75.891269 
     900    367.16933   -161.43369   0.33222252   -161.10147   -1802.7491    4.2394152    4.2394152    4.2394152   -1802.7491    -19742.29    23904.737    -9570.694   -14959.232    8010.6807   -409.95158    76.193487 
    1000    722.21512   -161.75306   0.65347542   -161.09959    6451.5449    4.2351281    4.2351281    4.2351281    6451.5449   -14280.929    49087.315   -15451.751    4338.1042   -4414.0754     4811.713    75.962568 
    1100    718.80084   -161.76157   0.65038611   -161.11119   -19059.939    4.2523217    4.2523217    4.2523217   -19059.939   -3864.2957   -5905.8982   -47409.624    1990.0483    -2590.132   -4424.4287    76.891503 
    1200    625.96644   -161.67854   0.56638759   -161.11215   -3914.1509     4.234067     4.234067     4.234067   -3914.1509   -2115.3219     13149.61   -22776.741    12111.629    6684.4204     2683.271    75.905486 
    1300    576.07971   -161.62057   0.52124903   -161.09932    21832.454    4.2215455    4.2215455    4.2215455    21832.454    18844.136    40181.888    6471.3373    632.37936   -11818.812    1778.8784    75.234049 
    1400    638.63837    -161.6708   0.57785342   -161.09295   -12761.133    4.2427735    4.2427735    4.2427735   -12761.133   -10574.587    10446.313   -38155.126   -5038.2982    1333.6033   -3112.1804    76.374706 
    1500    783.26976   -161.79508   0.70871894   -161.08637   -9503.3991    4.2453295    4.2453295    4.2453295   -9503.3991   -8202.9011    4036.5034     -24343.8   -3872.8116    2594.5067    2651.4897    76.512819 
    1600    220.23236   -161.29564   0.19927086   -161.09637    13360.038    4.2476882    4.2476882    4.2476882    13360.038    46974.425    36899.508   -43793.819    4310.1866   -11995.611   -3019.3761    76.640421 
    1700    945.31928   -161.95623   0.85534475   -161.10089    5618.9266    4.2270731    4.2270731    4.2270731    5618.9266    10369.421    20338.663   -13851.304   -7592.5544    4721.3918    1518.0209    75.529964 
    1800    407.84796   -161.47538   0.36902941   -161.10635    5980.9155    4.2315784    4.2315784    4.2315784    5980.9155    10982.641    31979.689   -25019.584    563.94566   -3693.9627    2330.4098    75.771726 
    1900    578.50578   -161.62217   0.52344418   -161.09872   -6707.4749    4.2459211    4.2459211    4.2459211   -6707.4749   -7859.9435     7406.807   -19669.288     6659.637   -7017.7254    2932.4984     76.54481 
    2000    629.17233   -161.66505   0.56928834   -161.09576   -1686.0324    4.2475991    4.2475991    4.2475991   -1686.0324   -6353.6605    39527.713    -38232.15   -336.10527    8180.8781    3578.8941    76.635599 
    2100    604.57886   -161.64192   0.54703565   -161.09488    1715.7847    4.2440674    4.2440674    4.2440674    1715.7847    17736.354        25681       -38270    3468.4895   -2692.8511   -2590.4467    76.444603 
    2200    439.37595   -161.49408   0.39755659   -161.09652     11620.79    4.2252591    4.2252591    4.2252591     11620.79    12869.792    44504.704   -22512.124    8863.3423    5946.1501    946.51696    75.432765 
    2300    665.16037   -161.70182   0.60185108   -161.09997    -12520.93    4.2350524    4.2350524    4.2350524    -12520.93   -9806.6074    4642.7741   -32398.958   -234.15906    12697.452    3829.7908    75.958499 
    2400    649.82916   -161.68642   0.58797908   -161.09844   -4980.1223    4.2474744    4.2474744    4.2474744   -4980.1223   -17054.734    39585.618   -37471.251    1059.6862   -1921.7174    1881.5001    76.628851 
    2500    461.41854    -161.5115   0.41750119   -161.09399    9958.8094    4.2411314    4.2411314    4.2411314    9958.8094    -7134.346    58072.904    -21062.13   -4038.9781    1199.2884    3614.8983     76.28606 
    2600    478.57996   -161.53051    0.4330292   -161.09748   -3390.0621    4.2378603    4.2378603    4.2378603   -3390.0621   -250.28454    13899.097   -23818.999    2764.2514    5735.6795    -3809.865     76.10968 
    2700    842.68861   -161.86566   0.76248236   -161.10317   -5807.7534    4.2261091    4.2261091    4.2261091   -5807.7534   -7863.1378    1357.4475    -10917.57    9367.0917   -3558.1377    2006.2453    75.478298 
    2800    415.17518   -161.48716   0.37565923    -161.1115    1483.4187    4.2435814    4.2435814    4.2435814    1483.4187   -9064.0806    38924.286    -25409.95    5812.5632    6335.7496   -430.36856    76.418345 
    2900    476.91521   -161.53346   0.43152291   -161.10194    6027.0855    4.2449259    4.2449259    4.2449259    6027.0855   -15812.856    57826.763    -23932.65    2077.3132    1292.2419     1990.162    76.491003 
    3000    658.66744   -161.69219   0.59597614   -161.09621   -8827.7349    4.2342264    4.2342264    4.2342264   -8827.7349    3757.0155   -402.12655   -29838.094      1834.52   -10364.633    3111.0105     75.91406 
    3100    616.99798   -161.65328   0.55827273   -161.09501   -4540.8716    4.2345927    4.2345927    4.2345927   -4540.8716    8425.7577    7005.5404   -29053.913   -11138.224    5077.0181   -4945.2541    75.933766 
    3200    461.56035   -161.51435    0.4176295   -161.09672    18786.777    4.2357117    4.2357117    4.2357117    18786.777    3517.6568    64134.453   -11291.778    -1210.274    -6543.384   -2428.1512    75.993978 
    3300     435.1989   -161.49413   0.39377711   -161.10036   -3035.1893    4.2501373    4.2501373    4.2501373   -3035.1893   -8355.3549    32837.078   -33587.291    -3066.688   -4748.7574   -2526.2151    76.773067 
    3400    833.49283   -161.85356   0.75416182    -161.0994   -19655.408     4.236514     4.236514     4.236514   -19655.408   -11944.204    -17552.82   -29469.201    837.61001    5740.5373    5893.4105    76.037166 
    3500    450.23214   -161.51274    0.4073795   -161.10536    4572.5601    4.2294681    4.2294681    4.2294681    4572.5601    16169.061    20615.705   -23067.086   -4351.9119   -9189.8592    10395.481    75.658419 
    3600    552.34399   -161.60331   0.49977245   -161.10354    1803.9077    4.2414487    4.2414487    4.2414487    1803.9077   -8681.1274    42593.415   -28500.564    1298.0424   -4072.2556   -2383.4404    76.303185 
    3700     803.7167   -161.82914   0.72721976   -161.10192   -2918.1619    4.2392829    4.2392829    4.2392829   -2918.1619   -9821.9312    22849.875    -21782.43   -5920.7503    4158.6019    3512.6323    76.186355 
    3800    595.66192   -161.64712   0.53896743   -161.10815   -9669.5619    4.2473913    4.2473913    4.2473913   -9669.5619   -16106.412    14065.937    -26968.21   -2197.0496   -7437.3251   -5423.3779    76.624355 
    3900    535.78473    -161.5904   0.48478928   -161.10561    11234.466    4.2362017    4.2362017    4.2362017    11234.466   -12636.766     61009.68   -14669.517   -3965.4327   -4519.0584    1223.4206    76.020354 
    4000    398.00898   -161.46477   0.36012689   -161.10465    12318.149    4.2412103    4.2412103    4.2412103    12318.149   -4616.7125    70979.578   -29408.418   -146.04408    3631.9206    2098.8152    76.290317 
    4100      702.722   -161.74108   0.63583763   -161.10525   -14737.783    4.2473036    4.2473036    4.2473036   -14737.783   -33816.517    17081.005   -27477.837   -1371.7918   -2955.5672   -3116.4229    76.619607 
    4200    820.61519   -161.84584   0.74250987   -161.10333    5815.4651    4.2326791    4.2326791    4.2326791    5815.4651    1354.6655    20065.911    -3974.181   -1286.4788    1243.3172    -4980.036    75.830867 
    4300    493.27769   -161.54882   0.44632802   -161.10249    13580.514    4.2331355    4.2331355    4.2331355    13580.514   -7962.5994    46999.936    1704.2057   -1954.7117    859.04731   -2554.0609    75.855402 
    4400    729.97147   -161.75829   0.66049353   -161.09779   -19393.822    4.2468003    4.2468003    4.2468003   -19393.822   -20225.262   -3919.8073   -34036.396   -1190.5187    19.152033    5528.3898    76.592372 
    4500    780.40446   -161.79953   0.70612636    -161.0934   -15789.823    4.2476105    4.2476105    4.2476105   -15789.823   -30086.238    18639.025   -35922.255     8973.965    3482.6743    1954.8872    76.636219 
    4600    536.51239   -161.58012   0.48544768   -161.09467    13660.676    4.2359597    4.2359597    4.2359597    13660.676    3714.9739    48920.298   -11653.244    7798.5557   -1539.1207    1689.0349    76.007329 
    4700    501.14802   -161.54892   0.45344926   -161.09547    -4254.431    4.2337196    4.2337196    4.2337196    -4254.431    -2517.075   -4486.8558   -5759.3623    10233.771    -2139.341   -5314.5759    75.886805 
    4800    734.61543    -161.7576   0.66469548    -161.0929    -6496.594    4.2367989    4.2367989    4.2367989    -6496.594   -5124.2326   -3906.0726   -10459.477     3305.791    5354.4844     2299.789    76.052512 
    4900    374.30461   -161.44313   0.33867867   -161.10445    13162.879    4.2458366    4.2458366    4.2458366    13162.879    13331.749    58725.995   -32569.106    9181.0078   -4349.1819    3726.6173    76.540242 
    5000    553.58751   -161.61321   0.50089761   -161.11231   -7074.4826    4.2403365    4.2403365    4.2403365   -7074.4826   -4489.6235    12227.961   -28961.786   -3754.5218    1843.4237    11381.048    76.243176 
    5100    516.51128   -161.57462   0.46735026   -161.10727   -4921.7952    4.2331735    4.2331735    4.2331735   -4921.7952    10799.299    2400.3047   -27964.989   -1525.6747    6955.0627    10035.583    75.857445 
    5200    745.23869   -161.77256   0.67430763   -161.09826   -634.19387    4.2358156    4.2358156    4.2358156   -634.19387   -14786.372    24672.899   -11789.108    6603.3754   -4625.5415     1230.996    75.999573 
    5300    270.24171   -161.34001   0.24452038   -161.09549    20075.848     4.238886     4.238886     4.238886    20075.848   -4363.4418    75878.476   -11287.489    11072.835     1089.989    6608.4485    76.164961 
    5400     716.8306   -161.74452   0.64860339   -161.09592   -17475.147      4.24374      4.24374      4.24374   -17475.147   -21309.725   -9947.0895   -21168.625    5813.8454    4928.0651    1178.7334    76.426909 
    5500    689.99497   -161.72126   0.62432195   -161.09693   -4799.6084    4.2352154    4.2352154    4.2352154   -4799.6084   -914.10523    14756.043   -28240.763   -2774.6267   -1967.2225    3474.0733    75.967269 
    5600    530.70069   -161.57751   0.48018914   -161.09733    13247.503      4.23426      4.23426      4.23426    13247.503    782.35895    54579.979   -15619.831    2611.8496    6220.6388    5699.0078    75.915869 
    5700    490.28075   -161.54352   0.44361632    -161.0999    4657.3749     4.241235     4.241235     4.241235    4657.3749   -13682.599     62581.71   -34926.986    4744.6667    4324.8809   -1188.1701    76.291653 
    5800     827.1853   -161.84923   0.74845464   -161.10077   -18782.491    4.2440173    4.2440173    4.2440173   -18782.491   -12433.123   -7710.0728   -36204.278    6096.5207   -4004.6118    2831.2987    76.441896 
    5900    374.32291    -161.4408   0.33869524   -161.10211   -1371.3734    4.2394994    4.2394994    4.2394994   -1371.3734    14329.161    20325.445   -38768.726    8188.3481    6456.3655   -477.98481    76.198027 
    6000    611.05416   -161.64901   0.55289465   -161.09611     8300.724    4.2314304    4.2314304    4.2314304     8300.724    8368.9616    33876.285   -17343.074    12410.266   -1214.9762   -4059.3443    75.763774 
    6100    503.22199   -161.55074   0.45532583   -161.09542    4141.3955    4.2388263    4.2388263    4.2388263    4141.3955    8303.1748    38133.256   -34012.244     2348.745   -5942.7687    7320.3373    76.161742 
    6200     783.6764   -161.80418   0.70908687   -161.09509   -9650.1769    4.2421827    4.2421827    4.2421827   -9650.1769   -17653.153    22768.457   -34065.835    282.06206    2394.9095   -3654.3787    76.342804 
    6300    256.73567    -161.3375   0.23229983    -161.1052    14116.066    4.2422266    4.2422266    4.2422266    14116.066    2800.1475    59460.036   -19911.985    4791.5992   -3546.4685    -1409.589    76.345175 
    6400    541.30922   -161.59814   0.48978795   -161.10836    128.41416    4.2400968    4.2400968    4.2400968    128.41416   -678.36757    16607.223   -15543.613    4583.5824   -2599.9546   -2805.6071    76.230244 
    6500    695.34155   -161.73115   0.62915964   -161.10199   -11198.806    4.2379515    4.2379515    4.2379515   -11198.806   -25317.097    8807.4533   -17086.773   -1251.8849    1059.4005    1088.8372    76.114595 
    6600    425.69646   -161.48258    0.3851791    -161.0974    3437.0826    4.2385958    4.2385958    4.2385958    3437.0826   -11519.418    47997.901   -26167.236    4521.7012   -8988.0837    1631.2897    76.149317 
    6700     415.4753   -161.47166   0.37593078   -161.09573    5079.2222    4.2350583    4.2350583    4.2350583    5079.2222   -924.81853    41799.448   -25636.962    1037.2859   -4120.7632   -7281.5661    75.958817 
    6800    871.94186   -161.88615   0.78895132    -161.0972    -13813.91    4.2380978    4.2380978    4.2380978    -13813.91   -4820.3905   -3234.0091    -33387.33   -1775.8036    518.13317   -2341.5309    76.122479 
    6900    682.89257   -161.72893   0.61789555   -161.11104   -8070.5091    4.2468797    4.2468797    4.2468797   -8070.5091   -7144.2985    14289.328   -31356.557   -6999.7389   -4763.9828    1252.1215    76.596669 
    7000    364.78555     -161.443   0.33006563   -161.11293    6567.2099    4.2417296    4.2417296    4.2417296    6567.2099   -12794.407    42834.639   -10338.602    10563.142    1546.9292    1546.6889    76.318347 
    7100    592.86037   -161.64019   0.53643253   -161.10376    4038.3474    4.2303394    4.2303394    4.2303394    4038.3474    2327.3529    23491.361   -13703.672    6131.8656    -1939.807    2649.2621    75.705184 
    7200    636.21588   -161.67394    0.5756615   -161.09828   -4556.4175    4.2388567    4.2388567    4.2388567   -4556.4175   -17768.531    28585.891   -24486.612   -3509.8541   -9009.0981    1710.8583    76.163382 
    7300    844.05739    -161.8571   0.76372087   -161.09338   -16822.714     4.246485     4.246485     4.246485   -16822.714   -25967.827    11632.022   -36132.338    4079.5785     2061.593   -2825.7785    76.575315 
    7400    267.62154   -161.34373    0.2421496   -161.10158    11834.312    4.2423638    4.2423638    4.2423638    11834.312   -19437.031    65440.816   -10500.848   -10737.293   -977.18506   -4564.9266    76.352583 
    7500    747.78309   -161.77539   0.67660986   -161.09878    11687.301    4.2302461    4.2302461    4.2302461    11687.301   -3890.2046    34729.578    4222.5285    5000.2113   -2914.8705    1308.8965     75.70018 
    7600    691.84863   -161.72518   0.62599918   -161.09918   -2175.0673    4.2354826    4.2354826    4.2354826   -2175.0673   -15096.274    19719.163   -11148.091   -1241.8977    6321.5274    6092.1396    75.981645 
    7700      490.932   -161.54038   0.44420559   -161.09617   -5417.6197    4.2459051    4.2459051    4.2459051   -5417.6197    4671.7251    6807.5929   -27732.177   -9800.6192   -161.94514    6915.7983    76.543948 
    7800    559.87026   -161.60467   0.50658237   -161.09809    2928.5554    4.2408386    4.2408386    4.2408386    2928.5554   -13208.942    54242.292   -32247.684   -368.98027    887.99221   -3256.4454    76.270259 
    7900    619.72414   -161.66535   0.56073942   -161.10461    -2237.382    4.2374715    4.2374715    4.2374715    -2237.382   -5108.5092    23707.767   -25311.404   -3860.8469    5001.4984    625.72995    76.088735 
    8000      565.029   -161.61339   0.51125011   -161.10214   -2292.5838    4.2336288    4.2336288    4.2336288   -2292.5838   -10574.291    26562.983   -22866.443    5425.3972   -6931.6438    4939.4621    75.881925 
    8100    723.97821   -161.75863    0.6550707   -161.10356   -2298.1323    4.2394697    4.2394697    4.2394697   -2298.1323   -3978.8826     25779.13   -28694.645   -736.55131    6280.8408   -1318.1564    76.196425 
    8200     583.7634   -161.63553    0.5282014   -161.10732   -3674.9523    4.2473587    4.2473587    4.2473587   -3674.9523   -3902.1434    38443.332   -45566.045    5818.6078    5842.9063    1110.6701    76.622586 
    8300    703.27092   -161.74302   0.63633431   -161.10669   -4178.8584    4.2333441    4.2333441    4.2333441   -4178.8584   -1054.8475    10082.991   -21564.718   -1652.7096   -1676.5313   -10410.461    75.866618 
    8400    442.63758   -161.50884   0.40050779   -161.10834    2330.1273    4.2356587    4.2356587    4.2356587    2330.1273    8620.5847    27477.542   -29107.745    3258.5374    10415.706   -838.72198    75.991124 
    8500    602.95475   -161.64867   0.54556613    -161.1031    320.12621    4.2405088    4.2405088    4.2405088    320.12621    -26009.66    48208.675   -21238.637   -7302.4044   -2664.7927    -197.4936    76.252468 
    8600    572.30715   -161.62278   0.51783553   -161.10495    3903.0868    4.2339406    4.2339406    4.2339406    3903.0868   -1648.1873    42060.934   -28703.486   -485.13089   -6436.6795    -8950.252    75.898691 
    8700    522.65768   -161.57895   0.47291165   -161.10604   -11739.308    4.2429952    4.2429952    4.2429952   -11739.308   -17639.126    20902.902   -38481.699   -3738.0251    8130.7477    934.52296    76.386679 
    8800    612.16397   -161.65486   0.55389883   -161.10096    9106.7538    4.2313832    4.2313832    4.2313832    9106.7538    4797.5399    40501.939   -17979.217     2976.481    817.51942    2261.1548    75.761239 
    8900    530.43846   -161.58268   0.47995187   -161.10273    5130.6717     4.241945     4.241945     4.241945    5130.6717   -1284.5894    45791.438   -29114.834      1149.11   -7402.3754    3330.5043    76.329971 
    9000    699.15968   -161.73047   0.63261437   -161.09786   -14045.559    4.2433768    4.2433768    4.2433768   -14045.559   -23002.819    6288.3928   -25422.249    1503.7101    3609.1455    5973.8571     76.40729 
    9100    438.20175   -161.49556   0.39649415   -161.09906    8335.1812    4.2293085    4.2293085    4.2293085    8335.1812   -4354.8851    24844.229    4516.1997    17505.342   -3699.0957   -3443.5492    75.649852 
    9200    580.46821   -161.62756   0.52521984   -161.10235   -1047.3611    4.2386015    4.2386015    4.2386015   -1047.3611   -10088.588    41971.879   -35025.374   -2642.4729   -2203.2053    4765.3877    76.149626 
    9300     550.5459   -161.60089    0.4981455   -161.10274    6649.5351    4.2376283    4.2376283    4.2376283    6649.5351    189.99028    47311.894   -27553.279    3469.8352   -311.56077   -3851.6826    76.097184 
    9400    542.63078   -161.59833   0.49098374   -161.10734   -11873.319    4.2417542    4.2417542    4.2417542   -11873.319   -12014.233    8162.4006   -31768.123   -7764.6522   -6246.4272   -5693.9581    76.319674 
    9500    764.00498   -161.79568   0.69128776   -161.10439   -7734.1507    4.2407851    4.2407851    4.2407851   -7734.1507    2666.8561    3040.4525   -28909.761    1720.5936    491.29195    758.54723    76.267377 
    9600    655.87906   -161.69396   0.59345316   -161.10051    5446.3289    4.2377265    4.2377265    4.2377265    5446.3289    218.17747     39294.77   -23173.961   -4154.9868   -1431.5886   -3331.3744    76.102472 
    9700    556.41111    -161.6015   0.50345246   -161.09805   -826.63056    4.2416592    4.2416592    4.2416592   -826.63056   -1102.4261    24272.539   -25650.005    243.64599    1752.5303    8546.3944    76.314543 
    9800     597.3972   -161.63747   0.54053754   -161.09693    1541.3045    4.2385849    4.2385849    4.2385849    1541.3045    24443.139    6265.6459   -26084.872    5100.5549    4312.7242    4642.3535    76.148728 
    9900    662.16236   -161.69804   0.59913842    -161.0989    2036.9396    4.2396381    4.2396381    4.2396381    2036.9396   -15328.058    39739.212   -18300.335    2819.7129   -3470.0531   -197.92376     76.20551 
   10000     352.5074   -161.42063   0.31895611   -161.10167    23275.064    4.2376141    4.2376141    4.2376141    23275.064    17204.087    61028.188   -8407.0836    1471.6175      3162.63    1842.5046    76.096419 
   10100    748.03435   -161.78277    0.6768372   -161.10593   -17981.531     4.244145     4.244145     4.244145   -17981.531   -16986.435    2152.6697   -39110.827    1973.3408   -424.07171    2252.4424    76.448792 
   10200    891.12859   -161.90995   0.80631188   -161.10364   -8480.2375    4.2353404    4.2353404    4.2353404   -8480.2375     2802.676   -1160.3446   -27083.044     3887.848   -5863.7042    5756.3509    75.973994 
   10300    459.85695   -161.51966   0.41608824   -161.10357    17199.391    4.2331317    4.2331317    4.2331317    17199.391    28291.633    45657.575   -22351.035     4991.198    6251.0652   -2968.0791    75.855198 
   10400    816.09002   -161.83731    0.7384154    -161.0989    -16641.54    4.2395735    4.2395735    4.2395735    -16641.54   -24170.055    6906.1018   -32660.666   -7305.7123   -3124.6284     508.9494    76.202021 
   10500    569.06154   -161.61476   0.51489884   -161.09986     1114.861    4.2350697    4.2350697    4.2350697     1114.861    2120.5127    22782.534   -21558.464   -4791.6226   -4029.8483   -7703.1649    75.959427 
   10600    576.21426   -161.62083   0.52137077   -161.09946    3898.9009    4.2420799    4.2420799    4.2420799    3898.9009   -16529.837    40798.832   -12572.292    4579.1966    3323.0276   -2675.0635    76.337253 
   10700     704.2038   -161.73473    0.6371784   -161.09755   -418.17533    4.2402019    4.2402019    4.2402019   -418.17533    13312.393    6400.1682   -20967.087    103.77713   -6266.2929    5224.0931    76.235911 
   10800    589.85638   -161.62966   0.53371445   -161.09595    5104.0907    4.2387707    4.2387707    4.2387707    5104.0907    10680.688    22118.833   -17487.249   -1612.5723   -4420.2265   -7558.4755    76.158744 
   10900    565.50763   -161.60435   0.51168319   -161.09267   -843.31375    4.2399343    4.2399343    4.2399343   -843.31375   -15501.143    30621.748   -17650.547    2173.8604   -6027.1108    7655.5715    76.221482 
   11000    649.58261   -161.67695     0.587756   -161.08919   -6855.1085    4.2404665    4.2404665    4.2404665   -6855.1085   -2096.6967    14115.828   -32584.456     224.2288   -9130.5335    3090.0686    76.250187 
   11100    743.75991   -161.76274   0.67296959   -161.08977   -10588.712    4.2408008    4.2408008    4.2408008   -10588.712   -11437.797    10883.074   -31211.414   -7384.3864   -744.08449    -2061.077    76.268224 
   11200    346.90869   -161.41161   0.31389027   -161.09771     10725.26    4.2326684    4.2326684    4.2326684     10725.26    36848.066    18354.327   -23026.612   -6014.2095     -2652.45    17906.954    75.830292 
   11300    579.16633   -161.62865   0.52404187   -161.10461   -1617.1112    4.2345647    4.2345647    4.2345647   -1617.1112    7962.1992   -7274.0377    -5539.495   -6403.3307     -413.997    2795.9714    75.932257 
   11400    485.25882    -161.5427   0.43907238   -161.10363   -1854.4989    4.2437767    4.2437767    4.2437767   -1854.4989     -18416.6     41641.93   -28788.827   -5721.9325   -1071.8748       2615.3    76.428892 
   11500     500.3075   -161.55059   0.45268874    -161.0979     9205.073    4.2406028    4.2406028    4.2406028     9205.073    18097.321    24372.841   -14854.943    2714.4767   -3011.5339    8742.6389    76.257539 
   11600    582.12904    -161.6237   0.52672259   -161.09698   -1956.9397    4.2404275    4.2404275    4.2404275   -1956.9397   -166.17959    24354.145   -30058.785     2251.284    976.08816   -13948.651    76.248082 
   11700    513.01362   -161.56037   0.46418551   -161.09618    3679.3634    4.2425178    4.2425178    4.2425178    3679.3634    9224.0587     25786.69   -23972.659    3841.2362   -2020.4825   -1330.7389    76.360896 
   11800    506.88892    -161.5518   0.45864375   -161.09316    3891.6759    4.2383093    4.2383093    4.2383093    3891.6759    14220.579    21826.355   -24371.906   -1166.5615    1885.0678   -491.78191    76.133877 
   11900    815.20956   -161.83142   0.73761874    -161.0938   -18028.014    4.2428464    4.2428464    4.2428464   -18028.014   -21114.357   -1094.8277   -31874.857    2453.5889    1266.9671   -6692.0508    76.378644 
   12000    381.80092   -161.44617    0.3454615   -161.10071    9914.2277     4.246194     4.246194     4.246194    9914.2277    26249.014    32707.776   -29214.107    3673.6864   -3751.5207    8022.4449    76.559574 
   12100    702.77097   -161.73276   0.63588194   -161.09688   -1438.5627    4.2400332    4.2400332    4.2400332   -1438.5627   -11050.371    25667.854   -18933.171    4659.5326    430.48096   -2617.9268    76.226816 
   12200    581.08026   -161.62226   0.52577363   -161.09649     4307.134    4.2343296    4.2343296    4.2343296     4307.134    15465.194      3746.39   -6290.1817   -4148.5077   -4627.6127    6247.9386    75.919614 
   12300    400.39227   -161.45779   0.36228334   -161.09551    1069.8378    4.2419463    4.2419463    4.2419463    1069.8378    6636.1835    19797.459   -23224.129    2157.8131    660.44254     5651.565    76.330039 
   12400    852.29935   -161.86069   0.77117836   -161.08951   -10852.781    4.2414497    4.2414497    4.2414497   -10852.781   -16056.106     14477.36   -30979.598    -6104.772    1650.6927   -3430.5097    76.303239 
   12500    581.39335   -161.62345   0.52605692   -161.09739    2864.0216    4.2413593    4.2413593    4.2413593    2864.0216    14415.047    22048.239   -27871.221   -3572.3011   -5351.0689    3545.9286     76.29836 
   12600    682.11813   -161.71843   0.61719482   -161.10123   -8030.7037    4.2431619    4.2431619    4.2431619   -8030.7037   -15602.422    9555.2046   -18044.894     1985.878   -439.19861   -2404.6744    76.395683 
   12700    371.75788   -161.43394   0.33637434   -161.09757    17223.715    4.2374457    4.2374457    4.2374457    17223.715    23347.286    37028.636   -8704.7773   -2073.1342    5290.1478   -3251.7617    76.087346 
   12800    799.81713   -161.81888   0.72369135   -161.09519   -7935.3098    4.2410916    4.2410916    4.2410916   -7935.3098   -4265.5495    1408.2838   -20948.664   -6989.9023    1484.1739   -4024.1002     76.28391 
   12900    519.37853   -161.56981   0.46994461   -161.09987     2618.951    4.2474248    4.2474248    4.2474248     2618.951    445.88044    30273.206   -22862.234    -1508.952    4149.3302   -3161.3928    76.626168 
   13000    504.86402    -161.5516   0.45681157   -161.09479    3286.6076    4.2453889    4.2453889    4.2453889    3286.6076    23922.348    5437.5064   -19500.031    796.34663    5713.9617   -571.22782     76.51603 
   13100    628.37582   -161.65954   0.56856765   -161.09097   -6982.2136    4.2365437    4.2365437    4.2365437   -6982.2136   -5086.3003    2041.4641   -17901.805   -6403.8384    8729.2717   -1127.3219    76.038765 
   13200    553.76575   -161.59361   0.50105889   -161.09255    3414.9747    4.2401032    4.2401032    4.2401032    3414.9747    800.98934    25948.885    -16504.95   -701.75602     6843.762    5042.5266    76.230588 
   13300    472.03413   -161.52265    0.4271064   -161.09554    3568.5042    4.2461589    4.2461589    4.2461589    3568.5042     32194.82    6699.0807   -28188.388    5028.6054     904.5398   -1136.3199    76.557671 
   13400     777.1445   -161.80378   0.70317668    -161.1006   -9953.0326    4.2409362    4.2409362    4.2409362   -9953.0326    -12299.44    4870.7955   -22430.454    587.70982   -2770.8483    -4005.216    76.275525 
   13500    560.15077   -161.61491   0.50683619   -161.10807   -4536.1381    4.2427948    4.2427948    4.2427948   -4536.1381    7611.5521   -8246.4394   -12973.527   -7146.8407   -4137.1765    7591.4616    76.375857 
   13600    636.12413   -161.67471   0.57557848   -161.09914   -4585.8341    4.2379613    4.2379613    4.2379613   -4585.8341    14046.663   -5641.8269   -22162.338    4074.8951   -2841.6149     -9909.07    76.115126 
   13700    626.90808   -161.65848   0.56723961   -161.09124    8545.2842    4.2287267    4.2287267    4.2287267    8545.2842    10036.193    16922.223   -1322.5631   -10216.159    2701.7432   -4008.9049     75.61864 
   13800    624.74871   -161.65861   0.56528576   -161.09333   -4389.3834    4.2468966    4.2468966    4.2468966   -4389.3834    10304.896    6431.3042   -29904.351    794.25904    4854.0947    4548.9729     76.59758 
   13900    740.64017   -161.75736   0.67014679   -161.08721   -12083.777    4.2469724    4.2469724    4.2469724   -12083.777   -501.90669   -13249.746   -22499.679    2342.5135   -306.23017   -7468.4085    76.601686 
   14000    566.55751   -161.60418   0.51263314   -161.09154    458.43554    4.2394799    4.2394799    4.2394799    458.43554    -4691.593    16765.438   -10698.538   -1052.5815    111.39516    8083.5842    76.196978 
   14100     570.2972   -161.61672   0.51601689    -161.1007    11781.694    4.2368187    4.2368187    4.2368187    11781.694    39589.186    2894.2191   -7138.3228   -2398.9101   -5160.2382   -1750.5666    76.053576 
   14200     643.6561   -161.68366   0.58239356   -161.10127   -3294.8292    4.2371785    4.2371785    4.2371785   -3294.8292   -11922.241     19465.78   -17428.026    1870.7868   -11303.659    1609.4882    76.072953 
   14300    573.03047   -161.61708   0.51849001   -161.09859   -3324.4822    4.2384701    4.2384701    4.2384701   -3324.4822    1126.4947   -2891.4523   -8208.4891    10728.779   -6033.5049    6029.7075    76.142545 
   14400    564.35162    -161.6114    0.5106372   -161.10076   -3036.7363    4.2491794    4.2491794    4.2491794   -3036.7363    15938.359    7784.6519    -32833.22    647.19294   -439.53152   -3706.7392    76.721169 
   14500    682.06007   -161.71081   0.61714229   -161.09367    -6987.686    4.2468872    4.2468872    4.2468872    -6987.686    -2294.313    4977.2821   -23646.027    9224.8247    491.77073    676.08898    76.597074 
   14600    569.07216   -161.60442   0.51490845   -161.08951    7214.5399    4.2360273    4.2360273    4.2360273    7214.5399    27355.226   -2218.4267   -3493.1797    6156.7566    2760.2408   -11107.808    76.010963 
   14700    723.79399   -161.74655   0.65490402   -161.09165   -13059.453    4.2408644    4.2408644    4.2408644   -13059.453   -6335.5857    -12152.38   -20690.394    5057.7932    2650.0221   -4660.7144    76.271655 
   14800    690.26196   -161.71386   0.62456353   -161.08929   -5919.1265     4.242404     4.242404     4.242404   -5919.1265    2707.7515   -1818.7556   -18646.375   -3246.5776   -5762.8902   -6226.3916    76.354753 
   14900    411.41753   -161.46239   0.37225923   -161.09013    10432.845    4.2420225    4.2420225    4.2420225    10432.845    39127.752     1337.818   -9167.0343    1685.2608    1851.5548   -10548.469    76.334154 
   15000    934.77153   -161.94038   0.84580092   -161.09458   -17628.032    4.2421877    4.2421877    4.2421877   -17628.032   -13378.122   -19172.281   -20333.693   -7125.8098    -3434.761    7146.1414    76.343076 
   15100    565.91606   -161.61089   0.51205274   -161.09884   -1269.5831    4.2387847    4.2387847    4.2387847   -1269.5831    13986.759     100.9382   -17896.446    1351.3145    5781.5966   -7694.1417    76.159496 
   15200    677.75675    -161.7087   0.61324855   -161.09545    -5850.503    4.2399333    4.2399333    4.2399333    -5850.503    8820.1515   -13305.351    -13066.31    4421.3352    4892.1763   -1892.8067    76.221425 
   15300    773.37945   -161.79292   0.69976998   -161.09315   -3546.7048    4.2413697    4.2413697    4.2413697   -3546.7048   -1614.3575    18477.834   -27503.591   -1969.8336     2921.322    1462.3073    76.298921 
   15400    504.94894   -161.54824   0.45688841   -161.09135    16488.971    4.2408625    4.2408625    4.2408625    16488.971    29928.105    13935.315    5603.4935   -31.563617    4005.4441   -7691.5493    76.271549 
   15500    767.91052   -161.78339   0.69482157   -161.08857   -12028.573      4.23927      4.23927      4.23927   -12028.573   -8133.5941   -12745.821   -15206.306    9385.7999   -305.41278    12670.724    76.185661 
   15600    447.94528   -161.49566    0.4053103   -161.09035    6432.5105    4.2401648    4.2401648    4.2401648    6432.5105    25596.018    10606.454   -16904.941    10010.356    567.84302   -2551.2097    76.233912 
   15700    707.48695   -161.73037   0.64014906   -161.09022   -7635.5326    4.2407439    4.2407439    4.2407439   -7635.5326   -4984.7088     14493.23   -32415.119    1598.4917   -12501.803   -1739.5959    76.265154 
   15800    614.78968   -161.65205   0.55627462   -161.09578    2646.8428    4.2422363    4.2422363    4.2422363    2646.8428    452.25033    30783.179   -23294.901    1849.8227   -5872.5754    5802.9752    76.345695 
   15900    460.56075   -161.51643   0.41672504   -161.09971    13990.594    4.2410701    4.2410701    4.2410701    13990.594    27544.652      20915.4   -6488.2701    2832.9816   -1913.3199   -6322.9818    76.282752 
   16000     561.8197    -161.6055   0.50834627   -161.09715      5175.05    4.2389434    4.2389434    4.2389434      5175.05   -3527.2947    22916.662    -3864.217    -6819.091    510.09205      7797.18    76.168054 
   16100    493.76724   -161.54026   0.44677097   -161.09349    1949.8455    4.2475206    4.2475206    4.2475206    1949.8455    24432.377    4546.7436   -23129.584   -1447.4147    377.52325   -1622.8932    76.631349 
   16200    575.55367   -161.60728   0.52077306   -161.08651   -2223.1852     4.243714     4.243714     4.243714   -2223.1852   -5436.6904    30401.001   -31633.867   -1956.6352   -6483.1591   -5410.9583    76.425506 
   16300    570.81251   -161.60183   0.51648315   -161.08534    1171.5437    4.2362102    4.2362102    4.2362102    1171.5437     3903.395     27139.74   -27528.504   -7213.3103    2291.1887    7579.0437    76.020813 
   16400    518.81194   -161.55794   0.46943194   -161.08851    4379.9567    4.2374229    4.2374229    4.2374229    4379.9567    16659.159    9545.7366   -13065.025    3287.8878   -3353.8206   -2775.7949     76.08612 
   16500     691.6765   -161.71343   0.62584343   -161.08759   -5983.4417     4.240478     4.240478     4.240478   -5983.4417   -10485.451    1092.5435   -8557.4171   -176.41302    -7315.827    1650.6718    76.250809 
   16600    520.49413   -161.56179   0.47095403   -161.09084    3481.1061    4.2459565    4.2459565    4.2459565    3481.1061     13744.72    5911.6757   -9213.0777    2271.7409    9075.2451    3538.1745    76.546728 
   16700    780.39657   -161.80597   0.70611922   -161.09985   -5887.5333    4.2420016    4.2420016    4.2420016   -5887.5333   -19877.039    15762.011   -13547.571   -1864.9163   -2892.5119    32.959814    76.333025 
   16800    494.12126   -161.55089    0.4470913    -161.1038   -4136.0034    4.2382139    4.2382139    4.2382139   -4136.0034    4831.9086   -8592.2882   -8647.6307    9084.0257   -3168.1206    -2043.828    76.128736 
   16900    471.44695   -161.52346   0.42657511   -161.09688    1626.0409    4.2303557    4.2303557    4.2303557    1626.0409     12744.92   -14143.175    6276.3778    10927.456   -543.11371   -11058.656    75.706062 
   17000    808.02068   -161.82415   0.73111409   -161.09303   -13529.348    4.2419371    4.2419371    4.2419371   -13529.348    -16986.18    2968.7006   -26570.565    9040.6349    6894.7166   -2139.1489    76.329547 
   17100      287.195   -161.34964   0.25986007   -161.08978    14183.375    4.2476977    4.2476977    4.2476977    14183.375    10258.514    44760.737   -12469.126    5800.8731    7149.5915   -264.30208    76.640935 
   17200    975.95959   -161.96993   0.88306875   -161.08686   -21674.532    4.2395224    4.2395224    4.2395224   -21674.532   -16162.588   -19820.198    -29040.81    1723.9147   -1203.8154    716.46903    76.199271 
   17300    456.55028   -161.51306   0.41309629   -161.09996    12378.795    4.2372435    4.2372435    4.2372435    12378.795    24031.868     5676.228    7428.2891    11742.223    6750.6914   -8623.6425    76.076457 
   17400    650.20546   -161.68738   0.58831956   -161.09906   -893.57259    4.2408432    4.2408432    4.2408432   -893.57259    6634.4663    -6414.835   -2900.3491   -3766.9874    -1329.314   -2494.5481    76.270509 
   17500    583.40076   -161.62267   0.52787327   -161.09479   -8342.5799    4.2421842    4.2421842    4.2421842   -8342.5799   -8732.0691    6735.5483   -23031.219    4701.4393     4495.576    992.25447    76.342883 
   17600    465.51688   -161.51237   0.42120945   -161.09117    2113.7622    4.2424297    4.2424297    4.2424297    2113.7622     10621.51    13722.515   -18002.738   -718.78392     12258.95   -5681.9446    76.356139 
   17700    715.59788    -161.7344     0.647488   -161.08692   -17701.455    4.2420693    4.2420693    4.2420693   -17701.455   -13957.958   -4693.3778   -34453.028    5210.0495    5712.4545    4888.4786    76.336682 
   17800     489.3482   -161.53161   0.44277254   -161.08884    8975.9837    4.2368509    4.2368509    4.2368509    8975.9837    25725.703    12196.449   -10994.201    1887.5253    7366.0624    4566.3592    76.055312 
   17900    473.46669   -161.52446   0.42840261   -161.09606    8822.9644    4.2380985    4.2380985    4.2380985    8822.9644    -4034.387    32758.428    -2255.148    1396.6768    4374.1962    1529.8443    76.122519 
   18000    544.06344   -161.58723   0.49228004   -161.09495   -4927.3763    4.2467642    4.2467642    4.2467642   -4927.3763   -8239.6308    6127.1199   -12669.618     3129.916    4124.8502    1728.4518    76.590421 
   18100    557.36015   -161.59511   0.50431117    -161.0908    2077.8677    4.2418153    4.2418153    4.2418153    2077.8677    19658.488    463.36544   -13888.251   -592.96806     8748.736   -276.79939    76.322968 
   18200    636.61986    -161.6676   0.57602703   -161.09158   -17294.621    4.2367021    4.2367021    4.2367021   -17294.621   -10553.895   -10573.924   -30756.044    7632.7585    833.87113    2876.9479    76.047297 
   18300    605.46813    -161.6399   0.54784029   -161.09206    4495.4397    4.2298563    4.2298563    4.2298563    4495.4397    16886.374    8867.1404   -12267.195    9312.4889    1248.8781    1120.2689    75.679255 
   18400    534.06467   -161.57786   0.48323294   -161.09463     8041.257    4.2409062    4.2409062    4.2409062     8041.257     2930.409    40690.159   -19496.797    8208.3673    -802.8358   -1288.8581    76.273908 
   18500    755.55816   -161.77949    0.6836449   -161.09585    -15318.99    4.2508504    4.2508504    4.2508504    -15318.99     499.0815   -20852.359   -25603.691    -6318.666   -263.97763    -600.8184    76.811718 
   18600    576.79526    -161.6176   0.52189647    -161.0957   -487.68639    4.2421866    4.2421866    4.2421866   -487.68639    25222.256   -10743.929   -15941.386    4830.9653    1428.1716    3123.4328    76.343016 
   18700    828.38037   -161.84439   0.74953597   -161.09485   -6981.7095    4.2338227    4.2338227    4.2338227   -6981.7095   -5164.9385    5918.1078   -21698.298    10110.356     -1254.72    138.89309    75.892348 
   18800    450.47822   -161.50399   0.40760216   -161.09639    22136.605    4.2308311    4.2308311    4.2308311    22136.605     35907.84    30207.945    294.02914    2037.4925    5307.1161   -5499.9154    75.731587 
   18900    740.11436    -161.7667   0.66967102   -161.09703   -13869.587    4.2455311    4.2455311    4.2455311   -13869.587    3623.9753   -14487.986   -30744.751   -1213.2851    -3339.204   -2295.4541     76.52372 
   19000    655.83318   -161.68796   0.59341165   -161.09455   -15807.303     4.248046     4.248046     4.248046   -15807.303   -5030.2512   -21618.811   -20772.845    1885.1231   -7447.4503    1799.1539    76.659793 
   19100    401.82756   -161.45614   0.36358202   -161.09256     6251.602    4.2349435    4.2349435    4.2349435     6251.602    30447.968   -758.40816   -10934.754    5678.1509   -536.76647    -493.9674     75.95264 
   19200     721.0326   -161.74257   0.65240545   -161.09016   -13563.717    4.2357027    4.2357027    4.2357027   -13563.717   -19178.909   -4770.7394   -16741.504   -6966.0602   -394.03154    573.35109    75.993493 
   19300    458.09102   -161.50531   0.41449038   -161.09082    17322.207    4.2363663    4.2363663    4.2363663    17322.207    30390.983    31262.527   -9686.8875    7895.9184   -1398.8489    1334.5505    76.029219 
   19400     389.8777   -161.44849   0.35276954   -161.09572    7263.3322    4.2472797    4.2472797    4.2472797    7263.3322    49269.024   -10384.173   -17094.855    6881.3666   -1499.3524   -1455.0811    76.618313 
   19500    633.86038   -161.67584   0.57353019   -161.10231   -16649.015    4.2406715    4.2406715    4.2406715   -16649.015   -18569.621   -16014.644   -15362.781    9219.6811    1484.4255     1590.357    76.261243 
   19600    445.86839   -161.50661   0.40343109   -161.10317    7606.1031    4.2277214    4.2277214    4.2277214    7606.1031    10479.918    8904.8895    3433.5015    9029.1949   -263.75872    608.98418    75.564719 
   19700    637.05348   -161.67544   0.57641938   -161.09902    5234.9647    4.2359219    4.2359219    4.2359219    5234.9647    28178.661   -2807.5095   -9666.2574   -1756.7092    -3288.888    1880.0346    76.005291 
   19800    594.79754   -161.63691   0.53818531   -161.09873    1236.3972    4.2399091    4.2399091    4.2399091    1236.3972    6489.9889    24124.147   -26904.945   -2790.6589    4132.6985    7548.2153    76.220121 
   19900    799.68428   -161.82445   0.72357114   -161.10088   -20844.397    4.2450868    4.2450868    4.2450868   -20844.397   -5268.5896   -18311.521    -38953.08    10398.871   -3519.8652   -1750.7024    76.499698 
   20000    572.12058      -161.62   0.51766672   -161.10233   -677.96758    4.2405152    4.2405152    4.2405152   -677.96758    35460.581   -12465.993    -25028.49   -2010.3475    5028.8067    2379.0152    76.252811 
   20100    595.80843   -161.64413   0.53909999   -161.10503    525.69395    4.2355572    4.2355572    4.2355572    525.69395   -3389.4393    10844.097   -5877.5763   -1508.3248   -7267.5552    3856.2501    75.985662 
   20200    762.90715   -161.79131   0.69029442   -161.10102    -7888.708    4.2349417    4.2349417    4.2349417    -7888.708     2420.402   -3021.2201   -23065.306    11590.038   -9930.5578   -4564.2276    75.952541 
   20300     537.3271   -161.58434   0.48618485   -161.09815    12580.206    4.2396404    4.2396404    4.2396404    12580.206    37571.928    6077.7264    -5909.035    4152.3902    1851.6553    909.04565    76.205634 
   20400    625.81837    -161.6622   0.56625361   -161.09595   -7611.8921    4.2457933    4.2457933    4.2457933   -7611.8921    17971.771    -10925.48   -29881.967    6138.7484   -9345.4283    4208.9596    76.537901 
   20500    703.60857   -161.73032   0.63663982   -161.09368   -9384.8846    4.2393607    4.2393607    4.2393607   -9384.8846   -8546.4788   -9074.2661   -10533.909    17365.277    963.07754    2131.9762    76.190552 
   20600    369.91346   -161.42938   0.33470547   -161.09467    13447.596     4.235465     4.235465     4.235465    13447.596    34558.934     20794.55   -15010.697    14489.798   -264.15956   -811.22863    75.980699 
   20700    692.00062   -161.72322    0.6261367   -161.09708   -4313.5446    4.2436672    4.2436672    4.2436672   -4313.5446     29530.14   -18205.991   -24264.783    3143.9177   -2241.3039   -1420.7957    76.422977 
   20800    480.10223   -161.53214   0.43440659   -161.09773    4118.0615    4.2485933    4.2485933    4.2485933    4118.0615    25313.365    13635.684   -26594.864    8947.8163    5006.2931    29.398881    76.689423 
   20900     579.6028   -161.62032    0.5244368   -161.09588   -1089.7597    4.2352653    4.2352653    4.2352653   -1089.7597    4748.7136    2273.0281   -10291.021    14452.622   -7344.3006    -381.3335    75.969951 
   21000    472.35467   -161.52286   0.42739643   -161.09546   -3659.2258    4.2332889    4.2332889    4.2332889   -3659.2258   -9553.1397    467.91168   -1892.4495    15460.765    1126.4564    3114.0047    75.863649 
   21100    562.67821   -161.60126   0.50912307   -161.09213    9987.2573    4.2395829    4.2395829    4.2395829    9987.2573    5615.0202    27467.582   -3120.8299    8711.4575    2550.1673    518.55054    76.202533 
   21200    427.89158   -161.48206   0.38716529    -161.0949    14352.291    4.2463183    4.2463183    4.2463183    14352.291    69452.922   -9518.8586   -16877.191    9536.8365    561.99912       769.92    76.566293 
   21300    421.82897   -161.48481   0.38167971   -161.10313    2687.4973    4.2472916    4.2472916    4.2472916    2687.4973    7241.2657    32466.596    -31645.37    8430.8296   -3530.8241   -301.31722    76.618954 
   21400    579.43012   -161.62799   0.52428055   -161.10371   -2147.8074    4.2342328    4.2342328    4.2342328   -2147.8074   -2579.5436    8972.9087   -12836.787      5919.64   -3714.8318   -4750.7391    75.914407 
   21500    787.32814   -161.81544   0.71239104   -161.10305   -7747.6824    4.2379369    4.2379369    4.2379369   -7747.6824    4597.3498    965.19802   -28805.595   -827.11986     6562.209   -3287.4002    76.113809 
   21600    434.55001   -161.49433   0.39318998   -161.10114    8035.7187     4.245433     4.245433     4.245433    8035.7187     36563.98    1570.4444   -14027.268    1712.2131   -3408.2862    2297.9031    76.518418 
   21700    675.51733   -161.70831   0.61122227   -161.09709   -16400.102    4.2431164    4.2431164    4.2431164   -16400.102   -7540.3913   -18774.433   -22885.482   -794.99796    2805.5199    2218.8045    76.393225 
   21800    575.48966    -161.6148   0.52071514   -161.09409   -1952.0677    4.2371914    4.2371914    4.2371914   -1952.0677    -5328.663    6441.8404   -6969.3805   -6883.7095    2577.6448   -530.96233     76.07365 
   21900    589.85038    -161.6249   0.53370902   -161.09119    13520.157    4.2349952    4.2349952    4.2349952    13520.157    43329.857   -139.76045   -2629.6248   -4378.2341   -6952.1897    3111.8665     75.95542 
   22000    637.99967    -161.6725   0.57727551   -161.09522   -4620.4045    4.2427793    4.2427793    4.2427793   -4620.4045    5889.9205   -4185.0396   -15566.094    3616.9086   -350.72207    2170.4426     76.37502 
   22100    691.79766   -161.72032   0.62595306   -161.09437   -11960.083    4.2417621    4.2417621    4.2417621   -11960.083   -14305.649    1776.9313    -23351.53   -5644.8859    -4444.212   -4685.5718    76.320097 
   22200    558.16783   -161.60659   0.50504199   -161.10155     3892.646    4.2385748    4.2385748    4.2385748     3892.646    35986.688   -12888.684   -11420.067    -4759.011    773.74664   -2341.7647    76.148185 
   22300    474.20531   -161.53079   0.42907093   -161.10171    5108.1962    4.2416512    4.2416512    4.2416512    5108.1962    22980.973    12570.656   -20227.039   -952.00448   -4028.4551   -1942.8199    76.314114 
   22400    628.79979   -161.66573   0.56895126   -161.09678   -11470.986    4.2414918    4.2414918    4.2414918   -11470.986   -18007.426   -885.83981   -15519.694   -3547.5813   -3539.0843     1876.835    76.305509 
   22500    595.31083   -161.63429   0.53864975   -161.09564    2615.5565    4.2367799    4.2367799    4.2367799    2615.5565    10714.364     13344.38   -16212.074   -5891.9951    3133.5619    5987.0108    76.051489 
   22600    526.80688   -161.57211   0.47666593   -161.09544    15724.305    4.2359641    4.2359641    4.2359641    15724.305    23351.959    32998.783   -9177.8275   -1207.5303   -9758.9513   -1242.5572    76.007564 
   22700    723.39421   -161.75161   0.65454229   -161.09706   -2393.0781     4.242845     4.242845     4.242845   -2393.0781    862.44206    5885.3944   -13927.071    3107.2358   -501.01291   -3484.2494    76.378566 
   22800    411.06737   -161.47269   0.37194239   -161.10074    6456.8122     4.247697     4.247697     4.247697    6456.8122    16617.391    31087.229   -28334.184   -506.96037    8733.5568    -597.4238    76.640901 
   22900    474.96015   -161.53066   0.42975393    -161.1009    7511.1561    4.2412837    4.2412837    4.2412837    7511.1561     16657.59    29761.497   -23885.619    4080.0655    1339.6575   -2824.9989     76.29428 
   23000    702.47895   -161.73618   0.63561771   -161.10056   -1437.6294    4.2342917    4.2342917    4.2342917   -1437.6294    14084.677    10333.353   -28730.918    3129.1732    9963.9396     997.2022    75.917571 
   23100    629.01667   -161.67226   0.56914751   -161.10311   -10914.222    4.2420974    4.2420974    4.2420974   -10914.222   -9188.8265    6523.5262   -30077.366    9719.7631   -6242.0299    3248.9445    76.338199 
   23200    539.82345   -161.58793    0.4884436   -161.09948   -4680.0998    4.2415833    4.2415833    4.2415833   -4680.0998    13790.601   -237.19658   -27593.704   -3534.8683   -2683.2142    2738.1756    76.310448 
   23300    757.77096   -161.77901   0.68564709   -161.09336   -3644.1123    4.2364145    4.2364145    4.2364145   -3644.1123   -8797.1706    5618.1569   -7753.3233   -8067.3923    7754.2137    3805.7772    76.031813 
   23400    472.31372   -161.51952   0.42735938   -161.09216    11100.059    4.2374035    4.2374035    4.2374035    11100.059    14566.189    23055.129   -4321.1407   -8484.1128   -11009.559   -1910.3807    76.085073 
   23500    728.62562   -161.74896   0.65927577   -161.08969   -7415.6869    4.2346662    4.2346662    4.2346662   -7415.6869    16158.119    -14473.64    -23931.54   -344.46064    769.58704   -3595.5713    75.937717 
   23600    494.47212   -161.54458   0.44740877   -161.09718   -1164.8624    4.2424106    4.2424106    4.2424106   -1164.8624    12213.794    11385.661   -27094.042    -3247.764   -4587.2407   -2437.5364    76.355106 
   23700    681.91291     -161.716   0.61700913   -161.09899    1203.7686    4.2369927    4.2369927    4.2369927    1203.7686    31876.343    2489.7428    -30754.78   -4256.7053    -6683.069    2948.2916    76.062945 
   23800     707.0739   -161.73415   0.63977532   -161.09438    2193.7892    4.2346304    4.2346304    4.2346304    2193.7892   -4365.7583    24397.441   -13450.315    2625.1286    8027.3183    165.32434    75.935792 
   23900    377.95712   -161.43393   0.34198355   -161.09194   -2912.4781    4.2368137    4.2368137    4.2368137   -2912.4781   -4225.7386    23463.212   -27974.908    12086.716   -7706.4081   -309.97095    76.053306 
   24000    727.74297   -161.74588   0.65847713    -161.0874   -16940.192    4.2369855    4.2369855    4.2369855   -16940.192   -28271.584   -4924.5837   -17624.409    2421.6261    -7938.302    5741.5435    76.062561 
   24100    356.25294   -161.41364   0.32234514   -161.09129     15413.48    4.2411441    4.2411441    4.2411441     15413.48    41481.224    24344.624   -19585.409   -5841.3008     5878.563   -297.08783    76.286744 
   24200    746.76221   -161.76746   0.67568614   -161.09177   -2053.3287    4.2368188    4.2368188    4.2368188   -2053.3287    16865.279   -7004.6522   -16020.613    5707.6789    -6043.741   -7090.5363    76.053581 
   24300     407.1551   -161.46455   0.36840249   -161.09615    4586.6692    4.2370345    4.2370345    4.2370345    4586.6692   -10480.085    37320.653    -13080.56    7275.2962    8939.1349   -896.30828      76.0652 
   24400     701.9441   -161.72842   0.63513377   -161.09329   -19129.705    4.2425583    4.2425583    4.2425583   -19129.705   -23069.561   -699.05745   -33620.497   -4362.0694    2321.9987    52.740115    76.363085 
   24500    473.80267   -161.52413   0.42870661   -161.09543    8125.9878    4.2429984    4.2429984    4.2429984    8125.9878    34444.643    11621.382   -21688.062   -497.72004   -3411.9913    -528.9709    76.386851 
   24600     519.4032   -161.56538   0.46996693   -161.09541     2387.854    4.2402695    4.2402695    4.2402695     2387.854      19200.1    16931.834   -28968.372    9884.3026    1922.7103    2982.3536    76.239558 
   24700    620.89078   -161.65597   0.56179502   -161.09417   -12782.813    4.2294213    4.2294213    4.2294213   -12782.813   -13863.151   -8038.3555   -16446.932    11464.767    -13662.21    3724.4086    75.655906 
   24800    310.74892   -161.37738   0.28117215   -161.09621    3344.3235    4.2331195    4.2331195    4.2331195    3344.3235   -8215.2761    35025.482   -16777.235   -129.97999   -9547.6921    3725.4467    75.854542 
   24900     713.9077   -161.73729   0.64595869   -161.09133   -12171.376    4.2409308    4.2409308    4.2409308   -12171.376    1289.5828   -17715.147   -20088.565   -1077.6552   -3592.4491   -3282.5668    76.275234 
   25000    492.69031   -161.54075   0.44579655   -161.09496    9471.7444    4.2410289    4.2410289    4.2410289    9471.7444    14750.111    25222.166   -11557.043    4515.1242   -4078.9118   -245.71508    76.280532 
   25100    543.18641   -161.59189   0.49148648    -161.1004   -2517.4942    4.2382643    4.2382643    4.2382643   -2517.4942    8128.7598   -522.88811   -15158.354    8168.0816   -3529.2358   -3597.2076    76.131452 
   25200    635.97531    -161.6747   0.57544382   -161.09925   -8901.9684    4.2372097    4.2372097    4.2372097   -8901.9684    1398.7268   -1571.2638   -26533.368    645.85927   -9408.4531    1630.9618    76.074636 
   25300    586.45922   -161.63031   0.53064063   -161.09967    2579.3623    4.2423291    4.2423291    4.2423291    2579.3623    10839.647    27116.877   -30218.436    7152.4479   -2374.5538    6926.2038    76.350709 
   25400    633.29244   -161.67418   0.57301631   -161.10116   -14165.952    4.2447918    4.2447918    4.2447918   -14165.952    14487.322   -18955.808    -38029.37   -2597.3019   -7221.4867    -8153.598    76.483751 
   25500    388.42964    -161.4492    0.3514593   -161.09774   -4178.8549    4.2316881    4.2316881    4.2316881   -4178.8549   -3926.7205    21767.152   -30376.997   -563.25577   -181.60233    -1937.873    75.777617 
   25600    546.08228    -161.5882   0.49410673    -161.0941    112.54167    4.2306283    4.2306283    4.2306283    112.54167   -7508.8682    18587.229   -10740.736    12073.305     11064.55   -681.27438    75.720697 
   25700      506.881   -161.55352   0.45863658   -161.09489     5074.644    4.2446168    4.2446168    4.2446168     5074.644    35430.843    12550.543   -32757.455     8401.521   -4407.4368   -8190.8517    76.474294 
   25800    489.67852   -161.53749   0.44307142   -161.09442    8729.1624    4.2417368    4.2417368    4.2417368    8729.1624    36963.712    9252.0694   -20028.294   -4100.1716    3195.8421   -269.32026    76.318735 
   25900    561.05007   -161.60499    0.5076499   -161.09734   -17029.829    4.2362743    4.2362743    4.2362743   -17029.829   -25946.998    11769.055   -36911.545    1406.7426   -8152.9721   -2114.7298    76.024264 
   26000    489.44807   -161.54459    0.4428629   -161.10173    2097.5197    4.2265513    4.2265513    4.2265513    2097.5197   -6021.1754    20631.299   -8317.5649    8948.1675   -11471.653   -1591.7681    75.501996 
   26100    568.23643   -161.61439   0.51415226   -161.10023    6417.4947    4.2344386    4.2344386    4.2344386    6417.4947    16895.456     24983.49   -22626.462    598.73524    7641.9353    4915.8999    75.925478 
   26200    495.19932   -161.54501   0.44806675   -161.09695   -1506.9458    4.2418089    4.2418089    4.2418089   -1506.9458    35091.578   -5115.2196   -34497.196   -7964.0358   -6179.2241   -6354.6287    76.322626 
   26300    604.08405   -161.64065   0.54658795   -161.09406   -6126.4818    4.2357732    4.2357732    4.2357732   -6126.4818   -7191.7049     17309.55   -28497.291   -603.37879     9392.401   -845.27082    75.997286 
   26400    444.89645   -161.49929   0.40255166   -161.09673   -3074.7972    4.2330592    4.2330592    4.2330592   -3074.7972   -7025.4084    30671.907    -32870.89   -5914.3066    11031.643    2418.9615    75.851299 
   26500    797.10399   -161.81648   0.72123644   -161.09524   -4112.5483    4.2333131    4.2333131    4.2333131   -4112.5483   -6331.2291    10203.178   -16209.594   -6046.3926   -5690.9886     73.58219    75.864947 
   26600    309.98535   -161.37654   0.28048126   -161.09606    16157.816    4.2392601    4.2392601    4.2392601    16157.816    29325.951    38487.357    -19339.86   -7606.8237    4677.9872     4003.815    76.185126 
   26700    810.38592   -161.82426   0.73325421   -161.09101   -8100.6169    4.2372715    4.2372715    4.2372715   -8100.6169   -192.89601   -7772.1057   -16336.849   -4611.5957    4558.9583   -2536.9494    76.077964 
   26800    390.13446   -161.44894   0.35300186   -161.09594    7399.0499     4.233047     4.233047     4.233047    7399.0499    28752.184    19939.803   -26494.837    1422.6086   -1337.0587   -2225.1833    75.850646 
   26900    660.84013    -161.6947   0.59794204   -161.09675   -4291.4616    4.2379338    4.2379338    4.2379338   -4291.4616    5552.8834    8264.8017    -26692.07   -276.30383    4545.3606    3222.0238    76.113643 
   27000    575.04025   -161.61592    0.5203085   -161.09562   -2270.1232     4.242652     4.242652     4.242652   -2270.1232    6642.9685    18295.259   -31748.597   -1985.9592    -2952.152   -4125.0043    76.368145 
   27100    498.07212   -161.54582   0.45066612   -161.09515    2332.2045    4.2407659    4.2407659    4.2407659    2332.2045    21607.085    13257.897   -27868.368   -7691.9585    1600.0397    879.18519    76.266341 
   27200    655.36085    -161.6917   0.59298427   -161.09872   -10981.864    4.2384153    4.2384153    4.2384153   -10981.864   -1879.9781   -9537.3525    -21528.26    1013.7491   -6180.9634    4713.6609    76.139587 
   27300    560.85377   -161.60532   0.50747227   -161.09785    2830.1202     4.233124     4.233124     4.233124    2830.1202    16657.922    11462.012   -19629.574   -4225.3463   -7180.9258   -2563.1686    75.854784 
   27400    597.57819    -161.6372   0.54070131    -161.0965    8631.1711    4.2358785    4.2358785    4.2358785    8631.1711    22621.012    18478.505   -15206.004     963.3715    6136.6856    873.46042    76.002957 
   27500    609.50769   -161.64786   0.55149536   -161.09637    -7093.876    4.2449059    4.2449059    4.2449059    -7093.876   -9434.2321    29000.571   -40847.967   -131.94941   -1219.0848   -908.25183    76.489921 
   27600    598.14394   -161.63756   0.54121321   -161.09634   -6090.5067    4.2373124    4.2373124    4.2373124   -6090.5067    5277.7954   -9574.7157     -13974.6    3017.1118    8362.3611   -2728.6353    76.080167 
   27700    456.49727   -161.50982   0.41304832   -161.09677    4124.7135    4.2290274    4.2290274    4.2290274    4124.7135    25199.104   -6126.3751   -6698.5884    6384.7638    2163.5032    6899.4236    75.634769 
   27800     736.4044   -161.75862   0.66631417   -161.09231   -5359.3516    4.2309388    4.2309388    4.2309388   -5359.3516   -4285.1291    7102.6896   -18895.615   -7820.0239   -4051.2961   -179.18806    75.737373 
   27900    404.82139   -161.45867    0.3662909   -161.09238    12979.387    4.2359328    4.2359328    4.2359328    12979.387    210.03687    56108.526   -17380.402     3792.832    16252.745    1018.0368     76.00588 
   28000    593.05468   -161.63081   0.53660834    -161.0942   -3963.4013    4.2472696    4.2472696    4.2472696   -3963.4013   -13195.497    28824.169   -27518.876   -10194.315    1359.3154    5950.9527    76.617767 
   28100    737.05963   -161.76547   0.66690705   -161.09856   -17983.221    4.2386718    4.2386718    4.2386718   -17983.221    -3576.675   -28156.628   -22216.359    5289.7247    3339.0213   -2305.5285    76.153413 
   28200    313.01592   -161.38197   0.28322339   -161.09874    13218.676    4.2267517    4.2267517    4.2267517    13218.676      16760.3    5659.4426    17236.285   -12174.018    1297.5409   -3398.9646    75.512734 
   28300    735.26342   -161.76066    0.6652818   -161.09537   -5643.9858    4.2352142    4.2352142    4.2352142   -5643.9858    -14853.12    14566.149   -16644.986   -3540.0874   -6173.3623   -5728.9749    75.967201 
   28400    372.04701   -161.42965   0.33663595   -161.09302    11613.014    4.2439802    4.2439802    4.2439802    11613.014   -20353.514    74295.512   -19102.956    1626.8831    7210.0801   -662.10004    76.439891 
   28500    838.35721    -161.8477   0.75856322   -161.08914   -20055.662    4.2464326    4.2464326    4.2464326   -20055.662   -20005.269    443.25479   -40604.972   -1321.0674   -253.86365    3111.1182    76.572479 
   28600    447.39759   -161.49895   0.40481474   -161.09414    4690.0888    4.2360624    4.2360624    4.2360624    4690.0888    5281.1726    29655.957   -20866.863   -3519.9186   -3002.2508   -5042.5886    76.012854 
   28700    725.40785   -161.75101   0.65636427   -161.09465    7206.1241    4.2308189    4.2308189    4.2308189    7206.1241    24360.706    8241.7899   -10984.123   -5002.3435    5182.6727    5752.3545    75.730933 
   28800    508.69517   -161.55713   0.46027808   -161.09685   -6651.5136    4.2421902    4.2421902    4.2421902   -6651.5136    -16734.13    29375.618   -32596.029    4480.6299   -8244.5309    1386.1844    76.343207 
   28900    786.68865   -161.80827   0.71181242   -161.09645   -11184.989    4.2426019    4.2426019    4.2426019   -11184.989   -2916.2945   -1692.0317    -28946.64    1526.0856   -3785.6769    1465.1073    76.365438 
   29000      543.059   -161.59154   0.49137119   -161.10017     11728.65    4.2393263    4.2393263    4.2393263     11728.65    25172.998    37707.404   -27694.452    4206.0098    3221.2011    3955.5345    76.188693 
   29100    967.95967    -161.9708   0.87583025   -161.09497    328.05787    4.2304429    4.2304429    4.2304429    328.05787    8349.4858    3981.8834   -11347.196    10420.454   -5226.3338   -3205.9449    75.710745 
   29200    378.15158    -161.4402   0.34215949   -161.09804    16137.454    4.2313839    4.2313839    4.2313839    16137.454    28831.872    33108.702   -13528.213    9777.3552    4713.0958    2908.7921     75.76128 
   29300    870.95755   -161.87961   0.78806069   -161.09154   -32486.317    4.2458488    4.2458488    4.2458488   -32486.317   -27215.066   -19668.276   -50575.609   -2140.9277   -2875.0585    1253.0377    76.540904 
   29400    522.98764   -161.56661   0.47321021    -161.0934    893.14953    4.2438565    4.2438565    4.2438565    893.14953    10511.923    29777.737   -37610.212     3943.828   -4790.0797   -7187.8677    76.433206 
   29500    672.83747   -161.70139   0.60879748   -161.09259    -1484.325    4.2404194    4.2404194    4.2404194    -1484.325    14125.406    18232.681   -36811.062    4525.1101    628.28001    5468.7278    76.247646 
   29600    729.06571   -161.75127   0.65967398    -161.0916   -2932.4425    4.2275053    4.2275053    4.2275053   -2932.4425     3406.334    1933.2666   -14136.928   -826.41875   -2750.9014   -8605.2256    75.553136 
   29700    354.07898   -161.41599    0.3203781   -161.09561    6647.8083    4.2322735    4.2322735    4.2322735    6647.8083    22171.796    17671.588    -19899.96   -1395.7597    1206.8101   -8696.5461    75.809072 
   29800    757.84519   -161.77796   0.68571425   -161.09225   -13419.735    4.2460241    4.2460241    4.2460241   -13419.735   -32587.481    13632.619   -21304.344   -1197.5676    1718.6816   -1391.2438    76.550382 
   29900    408.51662   -161.46308   0.36963442   -161.09344    16209.253    4.2435507    4.2435507    4.2435507    16209.253    29932.796    39421.034    -20726.07    2271.6805   -3098.0509   -7593.0825    76.416684 
   30000    619.95122   -161.65285    0.5609449   -161.09191   -6797.0263    4.2406179    4.2406179    4.2406179   -6797.0263    10877.874   -13402.492   -17866.461   -7730.1208   -3197.4427   -551.46212    76.258353 
   30100    581.64192   -161.62318   0.52628183    -161.0969   -12637.863    4.2334978    4.2334978    4.2334978   -12637.863   -20774.481    5250.4175   -22389.524   -1908.8831   -11478.978    193.33382    75.874881 
   30200    625.56127   -161.66813   0.56602098   -161.10211   -1164.7378    4.2374577    4.2374577    4.2374577   -1164.7378    8467.4469    12888.614   -24850.274    3902.4446    3885.1313    2584.7886    76.087995 
   30300     581.3119   -161.62512   0.52598323   -161.09914    6939.0073    4.2388571    4.2388571    4.2388571    6939.0073   -7610.6946    50683.522   -22255.805    1167.3494    1787.1118    8389.5549    76.163401 
   30400    656.42815   -161.69004   0.59394999   -161.09609   -3550.1116    4.2373495    4.2373495    4.2373495   -3550.1116    13590.585   -5230.1882   -19010.731    7977.7317    -8565.478   -2519.8218    76.082164 
   30500    397.30023   -161.46019    0.3594856    -161.1007    2268.9685    4.2368373    4.2368373    4.2368373    2268.9685     18610.03   -10887.127   -915.99761     2985.827   -192.44507    807.99486     76.05458 
   30600    696.45832   -161.72753   0.63017012   -161.09736   -4536.5556    4.2351398    4.2351398    4.2351398   -4536.5556   -2437.9275   -8593.7741   -2577.9651    10312.908   -5184.5627    3146.0245    75.963198 
   30700    565.29817   -161.60651   0.51149367   -161.09502    10900.028    4.2391745    4.2391745    4.2391745    10900.028    11581.451    30233.482   -9114.8478    3294.3342    2515.5076    486.08014    76.180511 
   30800    621.53216   -161.65473   0.56237536   -161.09235   -2450.4711    4.2425205    4.2425205    4.2425205   -2450.4711   -10467.452    24603.099    -21487.06   -6720.0291     7088.555    5507.1782    76.361044 
   30900    723.26934   -161.74573    0.6544293    -161.0913   -14493.774    4.2403066    4.2403066    4.2403066   -14493.774   -5558.0133     -9537.78   -28385.528    10268.809   -2649.5565    1258.1465    76.241559 
   31000    364.44866   -161.42423    0.3297608   -161.09447    9082.0115    4.2350079    4.2350079    4.2350079    9082.0115     30009.34    1720.2453    -4483.551   -5950.8899   -2381.3539    487.82329    75.956104 
   31100    942.11753   -161.94484   0.85244774   -161.09239   -10090.369    4.2354127    4.2354127    4.2354127   -10090.369   -5218.2526   -7659.8392   -17393.017   -877.98593    5089.3431   -6275.8937    75.977885 
   31200     394.0741   -161.45012   0.35656653   -161.09355    14818.359    4.2399344    4.2399344    4.2399344    14818.359    4470.4554    46287.107   -6302.4848   -8233.6779   -5152.8067    -5670.532    76.221487 
   31300    796.25179   -161.81074   0.72046535   -161.09027   -11177.649    4.2402965    4.2402965    4.2402965   -11177.649   -12676.481    215.09169   -21071.557   -1902.2405   -2227.2776   -451.55111    76.241015 
   31400    654.45416   -161.68622   0.59216387   -161.09405   -2444.7157    4.2363763    4.2363763    4.2363763   -2444.7157    4970.4526     10802.76    -23107.36   -5003.6504     1419.632    -3532.361    76.029755 
   31500     388.6184   -161.45223   0.35163009    -161.1006     19715.57     4.236257     4.236257     4.236257     19715.57    50977.041    20951.748   -12782.078   -3765.3903    5848.7022    654.81898     76.02333 
   31600    627.73101   -161.67135   0.56798421   -161.10337   -5798.7378    4.2437169    4.2437169    4.2437169   -5798.7378    1611.4765    8614.9052   -27622.595    2397.9162    1102.9575   -1335.8531    76.425662 
   31700    691.69599   -161.72644   0.62586106   -161.10058   -14988.941    4.2438071    4.2438071    4.2438071   -14988.941   -7601.4436   -8145.1731   -29220.206   -10860.989    2375.8881   -1671.8555    76.430538 
   31800    479.90138   -161.53144   0.43422485   -161.09722     3495.481    4.2397052    4.2397052    4.2397052     3495.481    30131.358    642.53293   -20287.448    7435.1055   -6846.3266    3100.4653    76.209127 
   31900    707.05993   -161.73078   0.63976269   -161.09101   -511.25612    4.2343747    4.2343747    4.2343747   -511.25612    15642.708   -1080.8608   -16095.616    5606.9357   -6880.0932   -2264.0105    75.922038 
   32000    637.37591   -161.66756   0.57671112   -161.09085    9406.8156    4.2376881    4.2376881    4.2376881    9406.8156     34113.91    5800.9207   -11694.384   -5168.4027    1404.0226    1462.9319    76.100406 
   32100    447.92626   -161.49843    0.4052931   -161.09314    4369.4013     4.243541     4.243541     4.243541    4369.4013    9489.0278    21165.625   -17546.449   -9722.1957   -4644.7013   -595.89092    76.416161 
   32200    826.34628   -161.84064   0.74769548   -161.09295   -19558.308    4.2432829    4.2432829    4.2432829   -19558.308    -14108.15   -24226.658   -20340.115   -4783.6736   -5643.5107    2304.7639    76.402214 
   32300     432.7245   -161.49227   0.39153822   -161.10073    10717.935    4.2433909    4.2433909    4.2433909    10717.935    41542.564    11658.765   -21047.524   -12664.739    802.87166    3090.4872    76.408052 
   32400     688.0839   -161.72078   0.62259277   -161.09818   -2767.7366    4.2425957    4.2425957    4.2425957   -2767.7366    18419.197   -5845.8593   -20876.547    -12380.45   -2365.8454    558.56743    76.365103 
   32500    772.50014   -161.79627   0.69897436   -161.09729   -9203.5129    4.2406076    4.2406076    4.2406076   -9203.5129    4659.7189   -7912.7613   -24357.496   -8130.4779   -210.89332    1457.0965      76.2578 
   32600    508.16827   -161.56276   0.45980133   -161.10296    1392.6109    4.2461939    4.2461939    4.2461939    1392.6109    37010.437   -8207.1072   -24625.497    2516.5748   -1621.5178   -3138.7206    76.559568 
   32700    856.03143   -161.86942   0.77455523   -161.09486   -13053.933    4.2389766    4.2389766    4.2389766   -13053.933   -4594.7611   -4477.7647   -30089.274   -4658.9813   -6681.9905    1123.8932    76.169842 
   32800    570.23988   -161.60705   0.51596503   -161.09108   -2606.9838    4.2343612    4.2343612    4.2343612   -2606.9838     8878.581     11657.35   -28356.882   -3822.9024    5011.1484   -2242.9867    75.921312 
   32900    600.90922   -161.63855   0.54371529   -161.09484   -2008.7625    4.2451466    4.2451466    4.2451466   -2008.7625    8639.4849    8286.0109   -22951.783    4647.8158    6354.6256   -4189.4212    76.502931 
   33000    608.52407   -161.64545   0.55060537   -161.09485   -5971.6435    4.2473315    4.2473315    4.2473315   -5971.6435    27359.628   -8627.6168   -36646.941   -5153.3662   -4530.9441    4010.8724    76.621116 
   33100    867.57451   -161.87937   0.78499965   -161.09437   -14501.069    4.2377904    4.2377904    4.2377904   -14501.069   -1635.3343   -10335.532    -31532.34   -5251.5603    853.97141    4778.4537    76.105915 
   33200    266.26204   -161.34574   0.24091949   -161.10482    11235.867    4.2317103    4.2317103    4.2317103    11235.867    3316.8046    48087.257    -17696.46   -4905.6793   -8911.8861    2326.3935    75.778809 
   33300    855.06074   -161.87264   0.77367692   -161.09896   -17548.054    4.2387461    4.2387461    4.2387461   -17548.054   -16808.137   -11169.775    -24666.25    7742.3265   -2112.5077    1435.0097    76.157419 
   33400    337.59907   -161.40509   0.30546674   -161.09962    11897.597    4.2372337    4.2372337    4.2372337    11897.597    70141.848   -9488.1669   -24960.891   -2148.5672    3825.0983    2740.7762    76.075927 
   33500    539.46779   -161.59643   0.48812179   -161.10831   -6677.4295    4.2412251    4.2412251    4.2412251   -6677.4295    18657.702   -12529.755   -26160.236    9495.1424    2230.0565    3555.2977    76.291119 
   33600    590.55222    -161.6422   0.53434406   -161.10785   -10846.225    4.2445589    4.2445589    4.2445589   -10846.225   -8098.6353    14935.909    -39375.95     306.8312    10992.656    2871.0696    76.471161 
   33700    733.15155   -161.76268   0.66337093   -161.09931   -2521.6838     4.239618     4.239618     4.239618   -2521.6838   -4.8836569    18021.227   -25581.395   -1625.3445    732.86382    5495.2768    76.204423 
   33800    375.63714   -161.43839   0.33988438    -161.0985    6710.6131    4.2374962    4.2374962    4.2374962    6710.6131    47218.999   -12368.755   -14718.404    2315.8315    2798.3778    4780.1336    76.090069 
   33900    530.93232   -161.57648   0.48039872   -161.09608   -13100.536    4.2370528    4.2370528    4.2370528   -13100.536   -2992.9675   -14058.516   -22250.125    12885.698    2918.1187    8914.1015    76.066186 
   34000    615.60412   -161.65001   0.55701154     -161.093    487.59635    4.2353225    4.2353225    4.2353225    487.59635    5712.7523    16565.427    -20815.39   -2920.5482   -559.09638    5211.8797     75.97303 
   34100    635.82507   -161.67212   0.57530789   -161.09681    2692.9532    4.2383127    4.2383127    4.2383127    2692.9532    7391.7002    24571.914   -23884.755    3608.1953    2169.5298    1181.4498    76.134057 
   34200    677.78851   -161.71179   0.61327729   -161.09851   -3863.1132    4.2425289    4.2425289    4.2425289   -3863.1132    16226.557    890.20585   -28706.103    6165.1803   -302.89665    2667.5572    76.361494 
   34300    567.44914   -161.60957    0.5134399   -161.09613   -4061.5278    4.2467043    4.2467043    4.2467043   -4061.5278    14050.842    8873.5859   -35109.012   -1927.3687    -318.4383    591.69393     76.58718 
   34400    422.38762   -161.48806   0.38218519   -161.10587    9422.9119    4.2375087    4.2375087    4.2375087    9422.9119    44477.807    1994.6193   -18203.691   -3612.9241   -7195.8953    416.65685    76.090742 
   34500    653.39866   -161.69748   0.59120884   -161.10627    13777.753    4.2326176    4.2326176    4.2326176    13777.753     13186.81    41645.236   -13498.788   -8852.2457    5247.2545   -180.44342    75.827562 
   34600    464.04548   -161.52055   0.41987811   -161.10067    2772.0491    4.2407068    4.2407068    4.2407068    2772.0491    16448.551    15417.688   -23550.091    764.47395    1231.3901    604.96634    76.263149 
   34700    654.06862   -161.68937   0.59181503   -161.09756   -10256.965    4.2417954    4.2417954    4.2417954   -10256.965    6396.0095   -13589.569   -23577.336   -13365.842    2111.6547    679.76631    76.321895 
   34800    514.66815   -161.56644   0.46568256   -161.10075   -5666.7217    4.2410046    4.2410046    4.2410046   -5666.7217     30588.22   -26287.921   -21300.464   -231.54541    6045.8774   -1815.9456     76.27922 
   34900     708.6162   -161.74162   0.64117083   -161.10045   -246.09141    4.2356018    4.2356018    4.2356018   -246.09141    38885.724   -22161.692   -17462.306   -11601.505   -3788.9116   -6953.2789    75.988062 
   35000    285.13648   -161.35981   0.25799748   -161.10181    21279.663    4.2382215    4.2382215    4.2382215    21279.663    47935.473    24707.063   -8803.5452    2870.1964    3084.1456   -5989.0133    76.129146 
   35100    664.56296   -161.69813   0.60131053   -161.09682   -9440.8865    4.2418897    4.2418897    4.2418897   -9440.8865   -9437.6435    4395.5393   -23280.555   -2359.5779    3210.2947   -4872.8365    76.326986 
   35200    564.22697    -161.6045   0.51052442   -161.09398   -1250.3039    4.2398848    4.2398848    4.2398848   -1250.3039    31873.057   -19291.594   -16332.375   -11741.449   -71.206551    -6774.408    76.218809 
   35300     392.3465   -161.44882   0.35500336   -161.09381    4874.3258    4.2337566    4.2337566    4.2337566    4874.3258    39465.073   -22748.197   -2093.8981    10212.269    965.01169   -5563.3565    75.888797 
   35400    810.20779   -161.82838   0.73309304   -161.09528   -7566.9235    4.2306781    4.2306781    4.2306781   -7566.9235   -6271.0897   -4794.9307    -11634.75   -2326.2079   -7559.6938   -5957.9008    75.723374 
   35500    365.27788    -161.4305   0.33051111   -161.09998    8451.5701    4.2444359    4.2444359    4.2444359    8451.5701    17879.413    27999.847   -20524.549    3426.5135   -1597.6499   -1817.4878    76.464517 
   35600    841.72771    -161.8568   0.76161292   -161.09519   -18871.378    4.2444814    4.2444814    4.2444814   -18871.378    6364.7921   -23528.211   -39450.716   -658.10809    3549.3083   -6061.5917    76.466972 
   35700    750.06877   -161.77395   0.67867798   -161.09528   -7824.0419    4.2327249    4.2327249    4.2327249   -7824.0419    17538.126   -13283.485   -27726.767     5431.883   -4389.2094   -6015.8797    75.833332 
   35800    531.60125   -161.57809   0.48100398   -161.09709    7445.7773    4.2380834    4.2380834    4.2380834    7445.7773    38789.909    523.07217   -16975.649   -7162.3693    2126.7265   -450.45027    76.121706 
   35900    745.99552   -161.77359   0.67499242    -161.0986     1673.063    4.2409647    4.2409647    4.2409647     1673.063    24667.249    783.43545   -20431.496   -2158.6099    5740.5477   -3569.6247    76.277067 
   36000    764.92775   -161.79474    0.6921227   -161.10262   -5143.8796    4.2407839    4.2407839    4.2407839   -5143.8796   -7732.1233    14994.362   -22693.878    7273.6907   -2784.3678   -3575.9602    76.267311 
   36100     452.8629   -161.50979   0.40975987   -161.10003   -65.930095    4.2372907    4.2372907    4.2372907   -65.930095    20652.123   -4859.9938   -15989.919   -7469.0758   -58.348482   -2997.3991    76.078998 
   36200    722.95781     -161.749   0.65414742   -161.09485    -15205.63    4.2385934    4.2385934    4.2385934    -15205.63    9304.4868   -19754.217   -35167.161    1169.6736    6258.5904   -1787.4634    76.149189 
   36300     779.8972   -161.80728   0.70566738   -161.10162   -10935.719    4.2368054    4.2368054    4.2368054   -10935.719     3874.679   -10170.336   -26511.501    14677.456    207.76954    3201.7837    76.052861 
   36400    503.94036   -161.56234   0.45597582   -161.10636    11032.537    4.2333147    4.2333147    4.2333147    11032.537    31322.336     21836.77   -20061.495   -2004.6145     12497.65    1198.5878    75.865036 
   36500    653.80692   -161.69415   0.59157824   -161.10257   -3252.7712    4.2437041    4.2437041    4.2437041   -3252.7712    16973.318    7118.2854   -33849.917   -1433.5414    534.83209    3331.8666    76.424971 
   36600    814.17608   -161.83335   0.73668363   -161.09666   -16963.915    4.2429719    4.2429719    4.2429719   -16963.915    9783.9333   -29267.392   -31408.286    479.37907    -993.6797    3353.9368    76.385421 
   36700    446.38997    -161.5021   0.40390302    -161.0982    9245.7522    4.2355458    4.2355458    4.2355458    9245.7522    44560.773   -12582.333   -4241.1833   -9920.1872    4831.2457    1799.7974    75.985047 
   36800    684.19935   -161.71648   0.61907795   -161.09741   -2377.3856    4.2381758    4.2381758    4.2381758   -2377.3856     20106.65    -11527.57   -15711.237   -1553.8676   -2375.8548     7556.802    76.126684 
   36900    772.08138   -161.79785   0.69859546   -161.09925   -7050.7552    4.2352701    4.2352701    4.2352701   -7050.7552    1872.6832     1445.139   -24470.088    3767.9202     4442.041    2719.8247    75.970212 
   37000    295.26785   -161.36761   0.26716456   -161.10045    9799.4906    4.2405032    4.2405032    4.2405032    9799.4906    43497.831    8741.1965   -22840.555   -6497.2407    3772.4505    4838.3638    76.252168 
   37100    802.01424   -161.82214   0.72567934   -161.09646   -20326.232    4.2403382    4.2403382    4.2403382   -20326.232   -3760.6196   -30722.403   -26495.675    3895.7768   -2082.8483    7834.7524    76.243265 
   37200     750.5952   -161.77536   0.67915431   -161.09621   -5478.5693    4.2357443    4.2357443    4.2357443   -5478.5693    16656.667   -18346.781   -14745.594    8639.8013   -6.9794979    2304.6811    75.995733 
   37300    429.22738   -161.48889   0.38837395   -161.10052    20635.199    4.2346796    4.2346796    4.2346796    20635.199    56970.995    6834.1417   -1899.5401    -7786.987    2682.4939    4081.0195    75.938441 
   37400    858.86478    -161.8736    0.7771189   -161.09649   -10647.742    4.2409494    4.2409494    4.2409494   -10647.742    2435.0431   -7.0306667   -34371.237   -2985.8823   -7163.4189    3490.3166    76.276237 
   37500     633.3065   -161.66929   0.57302903   -161.09626   -3274.7365    4.2452775    4.2452775    4.2452775   -3274.7365    31481.836    -11959.14   -29346.906   -278.09445   -1539.3312    3333.2794    76.510011 
   37600    553.56584    -161.5957   0.50087801   -161.09482    560.51514      4.24112      4.24112      4.24112    560.51514    41426.314   -22838.176   -16906.592   -1758.0465    4862.3955    3437.3678    76.285447 
   37700    785.19667   -161.80294   0.71046245   -161.09248    -9400.605    4.2390852    4.2390852    4.2390852    -9400.605    1258.2872   -9328.9051   -20131.197   -807.72713     -2542.96   -1156.7162    76.175697 
   37800    643.42996   -161.67422   0.58218895   -161.09203    1297.3781    4.2405172    4.2405172    4.2405172    1297.3781    34209.834   -10064.553   -20253.146    3974.9923   -105.95961   -4893.4332    76.252919 
   37900    614.21781   -161.65347   0.55575719   -161.09772    11309.786    4.2355063    4.2355063    4.2355063    11309.786    31649.846    18736.308   -16456.796    -4368.054   -6829.9254     1804.148    75.982924 
   38000    887.87204   -161.90042   0.80336528   -161.09706   -8842.0517    4.2369005    4.2369005    4.2369005   -8842.0517   -5869.7111    3035.8185   -23692.262   -8078.2815    -8436.574    3822.2499    76.057981 
   38100    562.98042   -161.60588   0.50939652   -161.09649   -3054.8499    4.2396951    4.2396951    4.2396951   -3054.8499    28298.118   -18851.415   -18611.253    -6735.406    2666.4284   -395.82848     76.20858 
   38200    538.06102   -161.59128   0.48684892   -161.10443     8069.986      4.23735      4.23735      4.23735     8069.986    45634.924    -7881.139   -13543.826    -4598.658   -2027.9249    4323.3921    76.082193 
   38300    862.71162   -161.89274   0.78059961   -161.11214   -5272.0974    4.2331869    4.2331869    4.2331869   -5272.0974   -365.49663    3337.4061   -18788.202   -12272.464   -6414.6126    1579.1666    75.858165 
   38400    464.85918   -161.53031   0.42061435   -161.10969    3617.3526    4.2355877    4.2355877    4.2355877    3617.3526    16249.642    8214.9912   -13612.575    2874.4415    -3218.481   -3454.7145    75.987304 
   38500    584.84188   -161.63087   0.52917723   -161.10169   -4012.8236    4.2417879    4.2417879    4.2417879   -4012.8236      28074.3   -13036.732   -27076.039    -2956.215   -185.11924   -2705.4272    76.321492 
   38600    887.14046   -161.90214   0.80270333   -161.09944   -16355.997    4.2402076    4.2402076    4.2402076   -16355.997   -1639.1825   -25760.696   -21668.112   -6536.8416   -3921.6563    4963.8795    76.236223 
   38700    612.07972    -161.6541   0.55382259   -161.10028     4554.087    4.2387543    4.2387543    4.2387543     4554.087    24866.087   -3354.7086   -7849.1173   -428.29823    1034.6192    1662.2011     76.15786 
   38800    577.67543   -161.62303   0.52269287   -161.10034      7904.03    4.2393925    4.2393925    4.2393925      7904.03    34405.629   -4155.8803   -6537.6584   -4451.9917   -3805.0562   -940.34758    76.192267 
   38900    813.55823   -161.83299   0.73612458   -161.09686   -14222.736    4.2425808    4.2425808    4.2425808   -14222.736   -15299.058   -2883.0929   -24486.058   -6660.7403    3143.3468    2745.1218    76.364298 
   39000    561.53577   -161.60431   0.50808936   -161.09622   -2736.3953    4.2411231    4.2411231    4.2411231   -2736.3953    28586.783   -14020.706   -22775.263    3055.2009     8457.416   -978.81428     76.28561 
   39100    448.65245   -161.50615   0.40595016    -161.1002    12816.678    4.2400801    4.2400801    4.2400801    12816.678    54595.397   -8942.1631   -7203.1999   -1986.8531     3724.688   -3390.4513    76.229341 
   39200    723.47619   -161.75895   0.65461646   -161.10433   -13063.046    4.2424029    4.2424029    4.2424029   -13063.046   -13079.618   -14361.881   -11747.639   -13684.139    -6167.347   -2331.9089    76.354695 
   39300    564.16581   -161.61093   0.51046908   -161.10047   -2353.0698    4.2364954    4.2364954    4.2364954   -2353.0698    9812.4223   -16312.886   -558.74556   -2983.4074    6017.4208   -1919.6903    76.036169 
   39400    521.16447   -161.56854   0.47156057   -161.09697    7608.7588    4.2368045    4.2368045    4.2368045    7608.7588    28467.999   -2112.9312   -3528.7919    35.658735    6303.2376    1548.3948    76.052813 
   39500    917.28924   -161.92636   0.82998258   -161.09638   -20377.195    4.2403713    4.2403713    4.2403713   -20377.195   -19783.836   -19993.764   -21353.986   -3604.1557    2510.5486    3902.1321    76.245052 
   39600    631.08458   -161.67066   0.57101859   -161.09964    3489.3356     4.238337     4.238337     4.238337    3489.3356    32482.508   -3229.2471   -18785.254    1104.5859    2171.8593    3287.7819    76.135368 
   39700    688.30546   -161.72097   0.62279324   -161.09818   -3580.9861    4.2433512    4.2433512    4.2433512   -3580.9861    15670.465   -9256.2103   -17157.213    6318.8323    1556.1475    1220.7679    76.405908 
   39800    942.79311   -161.94612   0.85305902   -161.09306   -16339.237    4.2411372    4.2411372    4.2411372   -16339.237   -2657.4969   -19233.318   -27126.898   -3407.4418    3164.2765    3794.0577    76.286371 
   39900    461.75527   -161.51775   0.41780587   -161.09994    23324.127    4.2362964    4.2362964    4.2362964    23324.127    60072.835    12132.372   -2232.8271    9446.2424    1216.7707   -3547.0505    76.025452 
   40000     672.6044   -161.71004    0.6085866   -161.10146    3877.6701    4.2409195    4.2409195    4.2409195    3877.6701    46192.043   -13301.622   -21257.411    4677.2104   -2015.9486   -4787.5667    76.274625 
   40100    650.04086    -161.6881   0.58817063   -161.09993   -2715.3335    4.2466501    4.2466501    4.2466501   -2715.3335    23293.701   -7747.4261   -23692.275   -5759.7735   -2253.7815   -239.14659    76.584243 
   40200    592.95831   -161.63325   0.53652114   -161.09673    2596.9237    4.2443316    4.2443316    4.2443316    2596.9237    49333.014   -19514.024   -22028.218    6099.8988     4745.957   -2253.1121    76.458876 
   40300    465.81592   -161.52035   0.42148003   -161.09887    15884.095    4.2385083    4.2385083    4.2385083    15884.095    65405.907    121.73229   -17875.354    2942.5753   -4547.3864   -1893.0337      76.1446 
   40400    834.41475   -161.85408     0.754996   -161.09909   -13798.368    4.2397076    4.2397076    4.2397076   -13798.368    1349.7011   -4380.9069   -38363.899    883.25038   -66.196154    2601.5066    76.209256 
   40500    772.20377   -161.79893    0.6987062   -161.10023   -9263.1514    4.2385574    4.2385574    4.2385574   -9263.1514    17017.753   -17277.913   -27529.294    6737.8215    -190.5694    3039.7261    76.147246 
   40600    525.59696   -161.58019   0.47557118   -161.10462    7623.0947    4.2399687    4.2399687    4.2399687    7623.0947    44484.319   -2076.3828   -19538.652    2437.5949    4199.0787    827.01045    76.223335 
   40700    848.56559   -161.87155   0.76779998   -161.10375   -6683.8703    4.2387956    4.2387956    4.2387956   -6683.8703    5831.4051   -13854.406    -12028.61    1151.6748    1599.3161   -2459.0538    76.160088 
   40800    715.80133   -161.75222   0.64767209   -161.10454   -2500.7273    4.2384254    4.2384254    4.2384254   -2500.7273    3149.8476   -3926.0197   -6726.0098    7394.5168   -5325.1626    859.86406    76.140131 
   40900    366.70896   -161.43496   0.33180597   -161.10315    11348.052    4.2382351    4.2382351    4.2382351    11348.052    34688.743    889.09965   -1533.6869    2274.2924   -288.55198   -42.427194    76.129875 
   41000     740.4138   -161.76717   0.66994196   -161.09723   -14438.301     4.236069     4.236069     4.236069   -14438.301   -4114.4879   -19993.948   -19206.468   -2764.9417   -214.23052    7002.7418     76.01321 
   41100     485.5725   -161.53963    0.4393562   -161.10027   -3035.5341    4.2405279    4.2405279    4.2405279   -3035.5341     24100.42   -7466.9364   -25740.086    9345.7827    2525.6088    5654.6711    76.253498 
   41200    361.37287   -161.42905   0.32697776   -161.10207    9588.0781    4.2396375    4.2396375    4.2396375    9588.0781    57700.014   -8737.2135   -20198.566    9266.0002    2857.4805    2732.0476    76.205477 
   41300    605.98139   -161.65213   0.54830469   -161.10383   -2058.3522    4.2402896    4.2402896    4.2402896   -2058.3522    7298.5772    -4581.285   -8892.3487    5387.8149   -5629.9841    5276.1745    76.240646 
   41400     784.1691   -161.80909   0.70953268   -161.09956   -17931.651    4.2462284    4.2462284    4.2462284   -17931.651   -13996.442    -22535.54    -17262.97    7305.8228    -623.9528    4017.7201    76.561434 
   41500    522.97004   -161.57129   0.47319428    -161.0981    9325.4312    4.2421047    4.2421047    4.2421047    9325.4312    46388.283   -9508.8721   -8903.1176   -328.84915    2771.1619    1159.6316    76.338593 
   41600    618.16249   -161.65746   0.55932641   -161.09814   -3617.1239    4.2444593    4.2444593    4.2444593   -3617.1239    36184.356   -18495.416   -28540.311    9062.5607   -6653.9883    2342.3456     76.46578 
   41700    769.82927   -161.79733    0.6965577   -161.10077   -18134.569    4.2409239    4.2409239    4.2409239   -18134.569    3617.1539   -29196.373   -28824.488    12243.383    4576.9504       5268.7    76.274863 
   41800    339.81656   -161.41092   0.30747316   -161.10345    13171.348    4.2378559    4.2378559    4.2378559    13171.348     54636.22    -3219.311   -11902.865    9951.6448    902.28482    2958.2698    76.109448 
   41900    426.70766   -161.48588   0.38609406   -161.09979    12172.186    4.2425005    4.2425005    4.2425005    12172.186    67417.643   -9470.0904   -21430.995    6949.6118    1236.6219    318.83264    76.359962 
   42000    739.91148   -161.77156   0.66948745   -161.10208   -7864.3924     4.243687     4.243687     4.243687   -7864.3924    16270.838   -9044.0286   -30819.986    5164.5727      1607.18    659.37277    76.424046 
   42100    712.70071     -161.748   0.64486658   -161.10314   -2061.1624    4.2404756    4.2404756    4.2404756   -2061.1624    21499.427   -9927.0212   -17755.893   -3144.0921   -7212.7602   -2469.2098    76.250675 
   42200     509.3573   -161.56128   0.46087719    -161.1004    13728.209    4.2353867    4.2353867    4.2353867    13728.209    59132.389   -11448.077    -6499.685    7161.4998    -6492.448    215.14343    75.976488 
   42300    770.80977   -161.79662   0.69744487   -161.09918   -10347.139    4.2391451    4.2391451    4.2391451   -10347.139    8834.5418   -24760.908    -15115.05    3243.5172    9860.1104     3782.489    76.178926 
   42400    765.91391   -161.79196     0.693015   -161.09895    4465.4759    4.2299998    4.2299998    4.2299998    4465.4759    19273.791   -4824.1743   -1053.1889   -8525.5454    4159.3775    2382.0539    75.686959 
   42500     469.0098   -161.52223   0.42436992   -161.09786    6815.5262    4.2363364    4.2363364    4.2363364    6815.5262    22746.103    1691.8863    -3991.411    5734.3831    1602.7484     3407.594    76.027607 
   42600    749.88591    -161.7706   0.67851253   -161.09208   -17334.759    4.2486561    4.2486561    4.2486561   -17334.759   -7635.2162   -17871.316   -26497.745    549.92563    650.39825    791.12481    76.692825 
   42700    642.52596   -161.67894   0.58137099   -161.09757    1351.0086    4.2402696    4.2402696    4.2402696    1351.0086    38755.565   -6526.8587    -28175.68    -854.6346    1991.3594   -2118.2061    76.239567 
   42800    426.95006   -161.48784   0.38631338   -161.10153    6929.9428     4.237274     4.237274     4.237274    6929.9428     34094.26   -14959.801    1655.3699    3097.2806   -374.98515    312.39644    76.078097 
   42900     535.5777   -161.58282   0.48460196   -161.09822   -2637.1169    4.2384845    4.2384845    4.2384845   -2637.1169    22639.287   -29200.441   -1350.1962   -10677.274    2524.2332   -104.14358     76.14332 
   43000    581.61796   -161.61899   0.52626015   -161.09273   -1762.8367    4.2464307    4.2464307    4.2464307   -1762.8367    29596.271    -19547.62   -15337.161    953.24877    1051.7348   -1078.4635    76.572376 
   43100    525.65633   -161.56408    0.4756249   -161.08845    3395.1501    4.2462479    4.2462479    4.2462479    3395.1501    52427.561   -15960.751    -26281.36   -729.57501    7451.6409    -1977.454    76.562485 
   43200    684.13608   -161.70613    0.6190207   -161.08711    2725.1545    4.2366961    4.2366961    4.2366961    2725.1545    11812.329   -1294.8403    -2342.025   -8902.3579     8208.359   -6037.2551    76.046972 
   43300    645.98256   -161.67497    0.5844986   -161.09047   -12543.183    4.2424742    4.2424742    4.2424742   -12543.183   -3902.5992   -20288.624   -13438.326     8710.601   -4143.6981    199.60772    76.358545 
   43400     497.7848   -161.54375   0.45040615   -161.09335    5017.5352    4.2420871    4.2420871    4.2420871    5017.5352    27138.889   -19679.652    7593.3685   -5752.9154   -586.78408    468.11751     76.33764 
   43500    705.87885   -161.73369   0.63869402     -161.095   -12554.107    4.2425992    4.2425992    4.2425992   -12554.107    19173.248   -31817.359   -25018.211   -6497.9195   -5662.0057    2376.3154    76.365294 
   43600    655.64086    -161.6895   0.59323763   -161.09626   -9315.1511    4.2354915    4.2354915    4.2354915   -9315.1511    10344.417   -21844.132   -16445.738    1733.6345    2289.4038     9032.228    75.982124 
   43700    608.68075   -161.64892   0.55074714   -161.09817    2149.0929    4.2327928    4.2327928    4.2327928    2149.0929    17298.658   -15323.198    4471.8191   -5204.7658     2503.213    2957.5505    75.836981 
   43800    654.54031   -161.68699   0.59224183   -161.09474   -11710.453    4.2453605    4.2453605    4.2453605   -11710.453   -5218.4884    -17737.98   -12174.891    6512.5435   -5136.9347    4265.8632    76.514496 
   43900    594.76203   -161.62824   0.53815318   -161.09008    4270.5778    4.2440097    4.2440097    4.2440097    4270.5778    33059.888   -13175.678   -7072.4769   -2515.4121     6422.355     5009.653    76.441484 
   44000    641.06188   -161.67133   0.58004626   -161.09128   -1580.7662    4.2436309    4.2436309    4.2436309   -1580.7662    35923.001    -21937.34   -18727.959    1913.3586   -710.03367    5870.2105    76.421016 
   44100    479.95689   -161.52792   0.43427508   -161.09365   -4270.9715    4.2350278    4.2350278    4.2350278   -4270.9715    15615.372   -15417.179   -13011.107   -4452.6755   -7714.9425    8965.9019    75.957176 
   44200    545.21803    -161.5835   0.49332473   -161.09017    1536.9589    4.2313177    4.2313177    4.2313177    1536.9589    19728.444   -15266.079    148.51185   -4686.8675   -1296.8418    4604.4542     75.75772 
   44300    404.14263   -161.45795   0.36567674   -161.09227    12976.437    4.2430686    4.2430686    4.2430686    12976.437     49467.59   -18201.701    7663.4206    1175.7182    416.62324    1071.4902    76.390645 
   44400    752.16214   -161.77603   0.68057211   -161.09546   -9186.4395    4.2445758    4.2445758    4.2445758   -9186.4395    3857.1087   -12318.156   -19098.272    6674.5997   -401.91331    3944.9151    76.472077 
   44500    560.04236   -161.60274    0.5067381     -161.096   -5564.9262    4.2422137    4.2422137    4.2422137   -5564.9262    -3576.061   -3997.9034   -9120.8143    5953.1145   -5145.2258     2489.805    76.344478 
   44600    638.43813   -161.66863   0.57767224   -161.09096    9162.2437    4.2281682    4.2281682    4.2281682    9162.2437    30798.073    11752.557   -15063.898    -8581.206   -8398.4562    2692.3762    75.588683 
   44700    736.34851   -161.75605   0.66626361   -161.08978   -254.38624     4.234868     4.234868     4.234868   -254.38624     22573.79   -14283.034   -9053.9146    295.06722   -513.23022    6170.1875    75.948576 
   44800    523.60752   -161.56391   0.47377109   -161.09014    1646.4239    4.2467763    4.2467763    4.2467763    1646.4239     27670.63   -22566.523   -164.83556    3588.1347   -7634.8413       241.82    76.591074 
   44900    593.42531   -161.63576   0.53694369   -161.09881    5616.3182    4.2430914    4.2430914    4.2430914    5616.3182    48661.275   -19931.826   -11880.495   -3664.3363    2700.2289   -1194.6463    76.391872 
   45000    578.10045   -161.62913   0.52307743   -161.10605    6198.7682    4.2374254    4.2374254    4.2374254    6198.7682    38251.602   -4985.5364   -14669.761   -3174.6244   -9517.2752   -1380.0701     76.08625 
   45100    586.22444   -161.63369    0.5304282   -161.10326    556.33325    4.2351845    4.2351845    4.2351845    556.33325     29552.88   -6105.9126   -21777.968    -13319.01    8501.5015     4323.806    75.965606 
   45200    642.86951   -161.68494   0.58168184   -161.10325   -2474.3003    4.2444234    4.2444234    4.2444234   -2474.3003     19735.93    -22658.36   -4500.4703   -545.72277    1424.7883    443.74177    76.463838 
   45300    384.04156    -161.4505   0.34748887   -161.10301    10266.203    4.2500843    4.2500843    4.2500843    10266.203    65697.861   -22592.636   -12306.615   -1122.1633   -696.16383   -2345.3401    76.770192 
   45400    793.13656   -161.80983   0.71764662   -161.09218   -1748.8966    4.2393605    4.2393605    4.2393605   -1748.8966    16889.003   -22343.584    207.89202   -3818.0165    1075.6112    3897.2686    76.190538 
   45500    434.99579   -161.48534   0.39359333   -161.09174    9766.1766    4.2298605    4.2298605    4.2298605    9766.1766    27694.701   -7234.4718    8838.3003    925.76805    7708.2293    1325.2625    75.679479 
   45600    696.72276   -161.72334   0.63040939   -161.09294   -10479.202    4.2389169    4.2389169    4.2389169   -10479.202    2986.1888   -23843.281   -10580.514   -4785.3633     5559.715   -3452.2902    76.166625 
   45700    530.11339   -161.57389   0.47965773   -161.09423    7640.5981    4.2466628    4.2466628    4.2466628    7640.5981    51666.155   -22008.292   -6736.0683    1003.4211   -1899.3892   -1731.2656    76.584931 
   45800    808.78328   -161.82803   0.73180411   -161.09623   -8298.6757    4.2366777    4.2366777    4.2366777   -8298.6757    13396.716   -22134.515   -16158.229   -5770.0733   -215.77554   -1373.5783    76.045982 
   45900    309.83442   -161.38273    0.2803447   -161.10239    2958.3097    4.2296097    4.2296097    4.2296097    2958.3097   -3737.9608   -680.38531    13293.275    1793.3409   -238.57267    1733.3082    75.666019 
   46000    817.78299   -161.83578   0.73994723   -161.09583   -16806.424    4.2357961    4.2357961    4.2357961   -16806.424   -22723.507   -27177.265   -518.50096    8990.0916    1450.2648   -3547.5334    75.998523 
   46100    472.88999   -161.52159    0.4278808   -161.09371    12260.145    4.2380789    4.2380789    4.2380789    12260.145    66932.215   -16958.238   -13193.544   -2010.8003   -5197.7629    1589.8859     76.12146 
   46200    742.30677   -161.76814   0.67165477   -161.09648   -16050.262    4.2408806    4.2408806    4.2408806   -16050.262    3628.6245   -28816.637   -22962.775   -3651.9728   -596.31271    3564.9618    76.272526 
   46300    657.95339   -161.69248   0.59533006   -161.09715   -10332.165    4.2355358    4.2355358    4.2355358   -10332.165   -1095.3128   -10711.843   -19189.339   -13586.207    18901.605   -198.73591     75.98451 
   46400     677.3044   -161.70882   0.61283925   -161.09598    9571.8255    4.2336178    4.2336178    4.2336178    9571.8255    18746.123    3644.1536    6325.1999   -194.87652   -10076.083   -184.57591     75.88133 
   46500    594.76367   -161.63139   0.53815466   -161.09324    6669.9369    4.2415317    4.2415317    4.2415317    6669.9369    49198.296   -15863.722   -13324.762   -4798.4599    5663.1687    974.37059    76.307661 
   46600    648.49277   -161.67668   0.58676989   -161.08991    -7153.115    4.2437789    4.2437789    4.2437789    -7153.115      5008.71   -18371.778   -8096.2768    836.59749    7292.1582    298.08543    76.429015 
   46700    543.21912   -161.58729   0.49151607   -161.09578   -552.37168    4.2356933    4.2356933    4.2356933   -552.37168    33752.405   -34110.668   -1298.8519   -899.84244    2066.7353   -435.34188    75.992987 
   46800    433.85391   -161.49161   0.39256013   -161.09905    18005.756    4.2361839    4.2361839    4.2361839    18005.756    58332.203   -10197.095     5882.161   -7482.5698   -230.91567   -2831.4765    76.019394 
   46900    582.52869   -161.62571    0.5270842   -161.09863   -1288.7499    4.2437143    4.2437143    4.2437143   -1288.7499    29723.422    -21563.01   -12026.662    3659.9787    3866.8192    3066.0023     76.42552 
   47000    752.68383   -161.78042   0.68104415   -161.09937   -12515.485    4.2430386    4.2430386    4.2430386   -12515.485    -4387.279   -11365.875     -21793.3   -1644.4893    7312.0793    3158.6579    76.389023 
   47100    619.72306    -161.6645   0.56073845   -161.10376    6655.0423    4.2391047    4.2391047    4.2391047    6655.0423    36042.586   -5693.2349   -10384.224    593.18472    1613.1217   -3521.6806    76.176746 
   47200    683.72686   -161.71579   0.61865043   -161.09714     10738.83    4.2278123    4.2278123    4.2278123     10738.83    30937.787    1209.6375     69.06547    1105.4781   -283.71277    6285.6229    75.569596 
   47300    641.59062   -161.67493   0.58052467    -161.0944   -10884.694     4.236872     4.236872     4.236872   -10884.694    -5788.797   -19931.034   -6934.2499   -418.43947   -2071.3573    7630.7974    76.056448 
   47400    530.19677   -161.57413   0.47973318    -161.0944   -4922.6003    4.2468981    4.2468981    4.2468981   -4922.6003    28336.866   -22090.929   -21013.738   -237.21754    10843.123   -4702.4243    76.597662 
   47500    552.74904   -161.59472   0.50013895   -161.09458    4270.7354    4.2384678    4.2384678    4.2384678    4270.7354     32221.62   -13314.985   -6094.4289   -3086.9888    8687.1532    4367.6862    76.142416 
   47600     664.1876   -161.69452    0.6009709   -161.09355   -10982.559    4.2368577    4.2368577    4.2368577   -10982.559   -2623.1339   -358.67034   -29965.874   -4456.4365    14252.567    3020.4157    76.055679 
   47700    373.36782   -161.42995   0.33783105   -161.09212    11851.985    4.2287478    4.2287478    4.2287478    11851.985    33092.177    6905.8135   -4442.0342    844.44182    14087.903   -643.25518    75.619773 
   47800    713.13403   -161.73656   0.64525865    -161.0913   -10626.622    4.2412482    4.2412482    4.2412482   -10626.622   -5888.5409   -16551.807   -9439.5172    6881.1742    7179.8717    3351.7889    76.292363 
   47900    681.64367   -161.70902   0.61676552   -161.09226   -9845.4363    4.2462393    4.2462393    4.2462393   -9845.4363    12364.029   -21731.847   -20168.491   -4891.0174    3865.8684   -1423.9236    76.562024 
   48000    365.38966   -161.42883   0.33061225   -161.09822    12147.382    4.2354048    4.2354048    4.2354048    12147.382    34113.561    -5021.071    7349.6547    -2462.922    5971.1359    2154.5509    75.977461 
   48100    693.80096   -161.72654   0.62776569   -161.09877   -23347.902    4.2434726    4.2434726    4.2434726   -23347.902   -17621.902   -14553.247   -37868.557    1266.5909    12993.469    -248.5675    76.412464 
   48200    590.29147   -161.63169   0.53410812   -161.09758    488.64847    4.2388132    4.2388132    4.2388132    488.64847    30822.922   -15300.581   -14056.396   -8931.5164    2297.8092   -5506.6936    76.161033 
   48300     689.7267   -161.72455   0.62407921   -161.10047   -6460.7654    4.2438868    4.2438868    4.2438868   -6460.7654    16970.884   -24933.689   -11419.491     4103.101     10506.87    121.53947    76.434842 
   48400    381.72636   -161.44553   0.34539403   -161.10013     2880.915    4.2402898    4.2402898    4.2402898     2880.915     32994.14   -19119.556    -5231.839   -5708.5787    2111.6529    -841.7301    76.240657 
   48500    616.67216    -161.6537   0.55797793   -161.09572   -1051.5753    4.2300455    4.2300455    4.2300455   -1051.5753    2179.8144    7926.7022   -13261.243    4530.5376    339.36814   -1676.8522    75.689407 
   48600    521.98818    -161.5668   0.47230587   -161.09449    1203.7566    4.2331711    4.2331711    4.2331711    1203.7566    22911.429   -8929.0442   -10371.115     5585.798    6982.3397    6058.2282    75.857313 
   48700    558.95018   -161.60059   0.50574987   -161.09484    3429.6212    4.2360797    4.2360797    4.2360797    3429.6212    19483.281    2204.0053   -11398.422   -6721.0763    5425.0062   -1175.2466    76.013788 
   48800    710.08007   -161.73549   0.64249537   -161.09299   -13625.958    4.2436698    4.2436698    4.2436698   -13625.958    10137.023   -25740.581   -25274.317   -521.52037     4761.385   -4404.2682    76.423119 
   48900     502.6286    -161.5463   0.45478892   -161.09151    12971.406     4.237641     4.237641     4.237641    12971.406    44219.626   -9035.5751    3730.1669    4912.2615    3793.6719    5552.1612     76.09787 
   49000    690.48726   -161.71444   0.62476738   -161.08968   -1701.7181    4.2349588    4.2349588    4.2349588   -1701.7181    12157.125   -10147.185   -7115.0946     6950.322    4498.4392   -3423.5819    75.953461 
   49100    674.79244   -161.70193   0.61056638   -161.09137   -2531.5522     4.238554     4.238554     4.238554   -2531.5522    17823.054   -17044.639   -8373.0718     76.43688    6876.9001   -6321.4725    76.147066 
   49200    578.77637   -161.61511   0.52368902   -161.09142    2893.2694    4.2418236    4.2418236    4.2418236    2893.2694    26768.996   -8441.3903   -9647.7974    1339.9058    2971.9931    1312.3821    76.323417 
   49300    621.71763   -161.65408   0.56254318   -161.09154   -9077.5132    4.2414174    4.2414174    4.2414174   -9077.5132    16863.018   -31759.026   -12336.531    7545.6278     345.3981   -8857.2402    76.301492 
   49400    859.74984   -161.87027   0.77791972   -161.09235   -1049.4859    4.2306155    4.2306155    4.2306155   -1049.4859     6192.309   -4613.5591   -4727.2076   -9236.8134   -9285.0475   -4112.6922    75.720012 
   49500    645.93744   -161.68407   0.58445777   -161.09961    7223.1832    4.2324623    4.2324623    4.2324623    7223.1832    24568.221   -14721.329    11822.658    1949.5067   -5395.7706     3986.275    75.819216 
   49600    756.01627   -161.78024   0.68405941   -161.09618   -5701.7145    4.2416494    4.2416494    4.2416494   -5701.7145    6621.9376   -10299.893   -13427.188    3524.5331   -2611.0158    -1491.604    76.314016 
   49700    734.53124   -161.75756   0.66461931   -161.09294    -13801.22    4.2448226    4.2448226    4.2448226    -13801.22    3153.1505    -25783.54    -18773.27   -4597.8262   -7406.8581    3654.5955    76.485419 
   49800    518.89169   -161.55942    0.4695041   -161.08992   -7859.0477    4.2447807    4.2447807    4.2447807   -7859.0477    14591.057   -33169.226   -4998.9743    6573.5862    2997.6497    2668.1426    76.483152 
   49900     815.3896   -161.82336   0.73778164   -161.08558   -6502.5367    4.2333226    4.2333226    4.2333226   -6502.5367    5435.8502   -14512.583   -10430.877   -1282.5187   -2765.0204   -1375.9453    75.865458 
   50000    526.49029   -161.56584   0.47637948   -161.08946    13424.315     4.234447     4.234447     4.234447    13424.315    32081.427   -8969.5358    17161.056    -4656.117   -6938.4321   -2779.2776    75.925927 
   50100     605.8883   -161.63928   0.54822047   -161.09106     3603.858    4.2464833    4.2464833    4.2464833     3603.858    16761.187   -2144.8284    -3804.785    1739.1073    3544.2846   -2930.5526    76.575221 
   50200    781.14181   -161.79788   0.70679352   -161.09109   -14882.921    4.2470684    4.2470684    4.2470684   -14882.921    5264.4322   -24336.817   -25576.379   -4226.3619    -5444.291    2212.6305     76.60688 
   50300    637.42445   -161.67687   0.57675504   -161.10012    229.69112     4.238794     4.238794     4.238794    229.69112    25187.008   -18042.824   -6455.1109   -1456.6647   -1247.7351   -1839.2854    76.159998 
   50400    536.42956   -161.58635   0.48537274   -161.10097    3957.5649     4.235591     4.235591     4.235591    3957.5649    39442.545   -25490.435   -2079.4159   -2907.9344   -192.92172   -920.23567    75.987484 
   50500    532.47235   -161.57828   0.48179217   -161.09649     5875.966     4.235515     4.235515     4.235515     5875.966    21250.182    -4574.005    951.72084    1814.5441    13475.142   -189.59853     75.98339 
   50600    504.94753   -161.55249   0.45688713   -161.09561    7128.2525    4.2443495    4.2443495    4.2443495    7128.2525    52943.961    -19089.76   -12469.444    5756.1019    5011.5848   -4089.4378    76.459845 
   50700    602.59054   -161.64135   0.54523658   -161.09611   -2645.6516    4.2485884    4.2485884    4.2485884   -2645.6516    31526.447   -9292.4352   -30170.967    3936.0343    766.43385   -4170.9665    76.689161 
   50800     532.7817   -161.57988   0.48207208    -161.0978   -5436.6286    4.2441577    4.2441577    4.2441577   -5436.6286    14109.595   -16242.161    -14177.32    2511.3722    7689.5467   -485.45912    76.449482 
   50900    612.25227   -161.64922   0.55397872   -161.09524    5573.5139    4.2355454    4.2355454    4.2355454    5573.5139    15375.816     3754.145   -2409.4192   -2641.5965   -1456.2501   -1057.8619    75.985025 
   51000    610.60797   -161.64329   0.55249093    -161.0908    6960.5115    4.2297057    4.2297057    4.2297057    6960.5115    29841.597   -8172.5896     -787.473   -3002.1086   -747.93502    5775.6312    75.671169 
   51100    589.47197   -161.62663   0.53336663   -161.09326   -3679.1003    4.2385059    4.2385059    4.2385059   -3679.1003    2334.8788   -19680.199     6308.019   -1341.0995    181.94486    5509.4511    76.144474 
   51200    670.50325   -161.70346   0.60668543   -161.09677   -10350.781     4.251121     4.251121     4.251121   -10350.781    8586.2593    -15755.58   -23883.023   -3583.7482   -1707.3567   -3579.5993    76.826383 
   51300    570.36252   -161.61036     0.516076   -161.09429    4812.2895    4.2399907    4.2399907    4.2399907    4812.2895    24682.771    5674.3679   -15920.271   -2066.6849    2873.4485    -645.8167    76.224521 
   51400    626.40957   -161.65632   0.56678854   -161.08953    2144.2327    4.2292971    4.2292971    4.2292971    2144.2327   -82.260765    25788.417   -19273.458   -10233.914   -15736.468   -5739.4397    75.649244 
   51500    575.62569   -161.61121   0.52083822   -161.09037   -6859.6839    4.2373706    4.2373706    4.2373706   -6859.6839    9624.1284   -17631.675   -12571.506   -1118.2205   -12638.947   -240.96709      76.0833 
   51600    554.99823   -161.59119   0.50217406   -161.08902   -2662.1358    4.2457812    4.2457812    4.2457812   -2662.1358    13906.956   -15530.455   -6362.9078    1555.4499   -3440.9897    4761.4202    76.537248 
   51700    679.65014   -161.70336   0.61496173    -161.0884   -6620.3715    4.2459837    4.2459837    4.2459837   -6620.3715    14299.965   -27213.695   -6947.3847   -4143.1626   -15297.064   -6172.4466    76.548198 
   51800     530.8399   -161.56965    0.4803151   -161.08934    11284.369    4.2373216    4.2373216    4.2373216    11284.369    12945.816    16696.544    4210.7462   -5736.3796   -3266.7343    -6725.271    76.080662 
   51900    544.42383   -161.58716   0.49260612   -161.09455   -2984.2632    4.2355687    4.2355687    4.2355687   -2984.2632    12795.639     8667.128   -30415.557    5660.7161   -11426.334    262.83428     75.98628 
   52000    683.18755   -161.71006   0.61816245   -161.09189   -6999.7567    4.2349639    4.2349639    4.2349639   -6999.7567   -13151.318    13496.116   -21344.068    2156.0549   -13230.468    47.631364    75.953734 
   52100     633.5854    -161.6646   0.57328139   -161.09132   -3136.1254    4.2407831    4.2407831    4.2407831   -3136.1254    15008.664   -1443.6548   -22973.385   -770.61688    3447.3017    1900.3703    76.267268 
   52200    569.92032   -161.60246   0.51567588   -161.08679   -1770.4298    4.2460492    4.2460492    4.2460492   -1770.4298    11419.329   -6034.6474   -10695.971    4922.8251   -6095.5485     2308.929    76.551741 
   52300    757.04079    -161.7677   0.68498642   -161.08272   -449.71768    4.2407507    4.2407507    4.2407507   -449.71768   -8440.0549    4688.9433    2401.9585    1285.6369    3839.7921    3313.1802     76.26552 
   52400    591.31765   -161.61943   0.53503664   -161.08439    -921.4438    4.2390702    4.2390702    4.2390702    -921.4438     14194.53   -6693.9111    -10264.95   -2233.4051    -5677.452    3211.2559    76.174888 
   52500    671.93536   -161.69623   0.60798123   -161.08825    975.22543    4.2390963    4.2390963    4.2390963    975.22543    665.66413   -333.04827    2593.0604   -884.92573     1561.886   -3070.0715    76.176298 
   52600    685.63663   -161.71005   0.62037843   -161.08967   -15367.074     4.250515     4.250515     4.250515   -15367.074    1434.8841   -34608.496   -12927.608     2100.351    4645.2101    4636.6137    76.793533 
   52700    400.52649   -161.44928   0.36240479   -161.08688    14692.352    4.2412324    4.2412324    4.2412324    14692.352    17499.387    14352.883    12224.787   -3603.0312   -5624.9576    999.71548    76.291508 
   52800    975.95121   -161.96567   0.88306117   -161.08261   -4310.4883    4.2311128    4.2311128    4.2311128   -4310.4883   -8204.8255   -10378.308     5651.669   -5699.4249    9789.7093   -6263.9826    75.746717 
   52900    495.51098   -161.53602   0.44834875   -161.08767    12433.864    4.2310571    4.2310571    4.2310571    12433.864    28936.727    9230.3327   -865.46756    7466.9026    5319.8038    4252.9625    75.743726 
   53000    671.36671   -161.69415   0.60746671   -161.08669     452.3982    4.2338344    4.2338344    4.2338344     452.3982     12450.39   -8187.4648    -2905.731    628.43602   -5613.3081   -1330.5268    75.892981 
   53100    791.90157   -161.80306   0.71652919   -161.08653   -18495.461    4.2485923    4.2485923    4.2485923   -18495.461    -356.3993   -28578.853   -26551.131   -1243.9094    5205.0468    3709.8094     76.68937 
   53200    515.02773   -161.55446   0.46600791   -161.08845   -21.670043    4.2435042    4.2435042    4.2435042   -21.670043    10381.751   -4794.5002   -5652.2607    8406.8468   -3622.4968   -255.70027    76.414172 
   53300    776.73895   -161.78706   0.70280973   -161.08425   -3958.2859    4.2352886    4.2352886    4.2352886   -3958.2859    -6945.834   -2961.2607   -1967.7631    1758.2121   -5481.9922    775.32564    75.971207 
   53400    481.25683    -161.5235   0.43545129   -161.08804    14817.463    4.2328554    4.2328554    4.2328554    14817.463    32255.348    15685.261    -3488.219    10336.806   -3274.5219    5178.8667    75.840344 
   53500    621.75907   -161.65559   0.56258067   -161.09301   -2367.4461    4.2457709    4.2457709    4.2457709   -2367.4461     11655.74    -7835.126   -10922.952    2343.9996    3614.7692   -3126.3691     76.53669 
   53600    681.15426   -161.70452   0.61632269    -161.0882   -15976.639     4.250629     4.250629     4.250629   -15976.639   -15896.424   -12356.476   -19677.018    3691.8603    2330.7101     5367.865    76.799713 
   53700    467.79383   -161.50956   0.42326969   -161.08629   -6296.4736     4.235661     4.235661     4.235661   -6296.4736   -14106.978   -1345.4724   -3436.9706    1353.5949   -4891.2332   -340.11594    75.991247 
   53800    508.76125   -161.54591   0.46033787   -161.08558    4273.8368    4.2292428    4.2292428    4.2292428    4273.8368   -16152.151    8655.6495    20318.011    -16230.65   -1418.2431   -2185.5145    75.646331 
   53900    700.65097   -161.71957   0.63396372   -161.08561    12425.561    4.2309695    4.2309695    4.2309695    12425.561    24944.197    5066.6428    7265.8435     -1469.75   -351.66586    4522.7849     75.73902 
   54000    408.45221   -161.45837   0.36957614   -161.08879    11801.295    4.2461871    4.2461871    4.2461871    11801.295    25249.192    3382.9904    6771.7018    4165.6475   -6774.9251    963.11253    76.559199 
   54100    614.13349   -161.63867   0.55568089   -161.08299    -9754.432    4.2497233    4.2497233    4.2497233    -9754.432   -6172.7667    3364.5066   -26455.036   -8068.2248    459.23949    1457.1983     76.75063 
   54200     590.1247   -161.61713   0.53395723   -161.08318   -13119.635    4.2357568    4.2357568    4.2357568   -13119.635    -13980.59   -6085.7087   -19292.607    1455.0991   -7817.2921   -2567.5506    75.996403 
   54300    447.99788    -161.4945   0.40535789   -161.08914   -1162.4985     4.225441     4.225441     4.225441   -1162.4985   -19916.431    19991.618   -3562.6829   -3303.9752   -12445.828   -3458.7385    75.442512 
   54400    662.83997   -161.69036   0.59975154   -161.09061    3362.6885    4.2312175    4.2312175    4.2312175    3362.6885    7192.8367    16268.769    -13373.54   -8558.1856    2051.4718    998.09854     75.75234 
   54500    426.57569    -161.4754   0.38597465   -161.08942    10000.318     4.243399     4.243399     4.243399    10000.318     18083.94    9493.6293    2423.3839    5943.0552    310.41463   -12320.968    76.408487 
   54600    620.20339   -161.64701   0.56117306   -161.08584   -1114.4949    4.2450206    4.2450206    4.2450206   -1114.4949    22742.773   -8014.3235   -18071.934    1552.7238    2990.3381    2154.0619    76.496121 
   54700    576.96174   -161.61049   0.52204711   -161.08845   -3912.3527    4.2353511    4.2353511    4.2353511   -3912.3527    9947.8624   -5787.5031   -15897.417   -1984.2717   -3728.8729   -1591.9861     75.97457 
   54800    443.49168   -161.49282   0.40128059   -161.09154    6481.7613    4.2252184    4.2252184    4.2252184    6481.7613   -5119.3001    15506.376    9058.2084   -1020.5951   -1785.8139   -5659.2086    75.430589 
   54900    700.75026   -161.72661   0.63405357   -161.09255   -8934.3618    4.2347644    4.2347644    4.2347644   -8934.3618   -21339.775    16951.421   -22414.732     1437.312   -1683.4351    7099.9598    75.943002 
   55000    541.54694   -161.57984   0.49000305   -161.08984    475.94514      4.24896      4.24896      4.24896    475.94514    -8041.181    12232.586   -2763.5696   -220.60871   -11574.344   -9386.5327    76.709281 
   55100    586.80405   -161.61443   0.53095264   -161.08347    1311.6387    4.2456715    4.2456715    4.2456715    1311.6387    14641.471   -5463.5662   -5242.9889    299.52436   -3876.3468   -2603.8096    76.531311 
   55200    533.40188   -161.56558   0.48263323   -161.08295    2003.1452    4.2325002    4.2325002    4.2325002    2003.1452    16205.735   -3025.9279   -7170.3717    2816.9206    -921.6458    3896.9665    75.821252 
   55300    618.71415    -161.6449   0.55982557   -161.08507    -6005.544    4.2278675    4.2278675    4.2278675    -6005.544   -4072.1235   -3782.4251   -10162.083   -2733.7582   -14869.262   -18189.318    75.572553 
   55400    667.42924    -161.6929     0.603904     -161.089   -3922.0593    4.2358144    4.2358144    4.2358144   -3922.0593   -13148.816    4055.4997   -2672.8614    425.91175   -5276.2766    8933.1324    75.999508 
   55500    568.95707   -161.60454   0.51480431   -161.08973    -2889.074    4.2462344    4.2462344    4.2462344    -2889.074   -20071.492    15580.543   -4176.2739    3597.6655    1272.9643   -8525.3983    76.561758 
   55600     753.8893   -161.76945   0.68213488   -161.08731   -8304.9772    4.2434382    4.2434382    4.2434382   -8304.9772   -2929.2028   -9924.4234   -12061.305      1534.11    -2875.811    -3512.459    76.410608 
   55700    599.43664   -161.63058   0.54238287    -161.0882    6867.7198    4.2314225    4.2314225    4.2314225    6867.7198    8661.4859    1780.5698    10161.104     1890.329    1519.0892    4765.4043    75.763349 
   55800    724.28703   -161.74445   0.65535013    -161.0891   -2660.4946    4.2288677    4.2288677    4.2288677   -2660.4946    496.79546   -4951.7838   -3526.4954    6076.5073     191.6615   -17627.112    75.626203 
   55900    566.92054   -161.60685   0.51296162   -161.09388    4087.5481    4.2410324    4.2410324    4.2410324    4087.5481   -3392.2399    14367.676    1287.2084    4116.0811    4345.6864    3710.2116    76.280717 
   56000    627.68004   -161.65666   0.56793809   -161.08872   -3213.5307    4.2502096    4.2502096    4.2502096   -3213.5307   -11746.153    18125.647   -16020.086   -3880.9131   -617.06776   -3800.8956    76.776986 
   56100    683.70793   -161.70211   0.61863331   -161.08348    5104.0304    4.2367004    4.2367004    4.2367004    5104.0304    11709.087   -184.06302    3787.0671    6140.3259    3685.0998   -3037.3981    76.047207 
   56200    606.66865   -161.63366   0.54892655   -161.08474    8073.2388    4.2277532    4.2277532    4.2277532    8073.2388     660.9539    9621.6469    13937.116   -7217.2873    9468.9783    9255.3416    75.566426 
   56300    696.00491   -161.71896   0.62975987    -161.0892   -2871.7636    4.2296525    4.2296525    4.2296525   -2871.7636   -5436.8413    -8405.612    5227.1626   -7360.4753   -5251.9656   -7800.0514    75.668317 
   56400     548.2714   -161.59276   0.49608749   -161.09668    -2883.076     4.242691     4.242691     4.242691    -2883.076   -18898.209    18495.616   -8246.6351     11101.85   -1272.5744    3013.2393    76.370249 
   56500    578.65391   -161.61879   0.52357822   -161.09521   -3541.0294     4.245361     4.245361     4.245361   -3541.0294     -15481.3     30646.64   -25788.429   -2758.6859   -2380.5528    247.83157    76.514525 
   56600    555.47235   -161.59518   0.50260306   -161.09258   -791.29301     4.237504     4.237504     4.237504   -791.29301    1752.0978    13737.377   -17863.354    3490.2856   -1120.9407    2222.5868    76.090486 
   56700     528.5332   -161.56971   0.47822795   -161.09148    9773.9903    4.2348654    4.2348654    4.2348654    9773.9903   -586.77369    35212.723   -5303.9782   -781.77104   -570.04588   -1913.3641    75.948437 
   56800    644.19743   -161.67701   0.58288337   -161.09413    3623.8004    4.2377853    4.2377853    4.2377853    3623.8004   -12069.061    16780.636    6159.8261    183.67103    4602.6438    887.75012    76.105644 
   56900    458.03194   -161.50849   0.41443693   -161.09405    5413.2633    4.2454395    4.2454395    4.2454395    5413.2633   -13592.973    30928.886   -1096.1234    3409.4962    1554.9031    1467.7172     76.51877 
   57000     838.1645   -161.84991   0.75838886   -161.09152   -13693.902    4.2368517    4.2368517    4.2368517   -13693.902   -25531.017    14078.163   -29628.852     -10087.2   -629.84775   -8915.7883    76.055354 
   57100    347.85621   -161.40879   0.31474761   -161.09405   -2623.7358    4.2346096    4.2346096    4.2346096   -2623.7358   -7492.9175   -3677.3014    3299.0115    17015.017    4835.8168    3752.9384    75.934676 
   57200    574.92506   -161.60928   0.52020428   -161.08907    441.40344    4.2314958    4.2314958    4.2314958    441.40344   -5844.4931   -3090.3054    10259.009    11703.818   -3387.2428    -1310.342    75.767289 
   57300    697.21628   -161.72221   0.63085594   -161.09135    15878.668    4.2325895    4.2325895    4.2325895    15878.668   -16513.213    39912.391    24236.827   -5878.4082   -7354.8225    2044.9294    75.826054 
   57400    365.86663   -161.43151   0.33104382   -161.10046    13251.071    4.2437876    4.2437876    4.2437876    13251.071    -6917.489    31313.148    15357.555    6600.7513   -10222.865    -312.8042    76.429481 
   57500     651.6354   -161.68385    0.5896134   -161.09423     -16975.2    4.2424644    4.2424644    4.2424644     -16975.2   -17365.615   -21379.881   -12180.104   -10087.987    -210.5526    1708.8129    76.358013 
   57600    409.10199   -161.46071   0.37016408   -161.09055   -903.33451    4.2364127    4.2364127    4.2364127   -903.33451   -10218.413   -8419.0979    15927.507    12006.049    1924.3205    7240.9558    76.031714 
   57700    679.13133   -161.70144    0.6144923   -161.08694   -6431.9118    4.2363007    4.2363007    4.2363007   -6431.9118   -16463.924   -22935.294    20103.482    16491.443   -2040.1193    -887.3956    76.025682 
   57800    650.03743   -161.67357   0.58816753    -161.0854    9541.6978     4.236767     4.236767     4.236767    9541.6978   -22649.495    34711.729    16562.859   -2023.3532    9374.0292   -3382.5499    76.050793 
   57900    548.07443   -161.58453   0.49590926   -161.08862    2063.7657    4.2429271    4.2429271    4.2429271    2063.7657   -14833.215    21973.669   -949.15624    2418.1242   -2891.9384    2809.4315    76.383001 
   58000    800.83647   -161.81172   0.72461366    -161.0871    -26585.13    4.2431441    4.2431441    4.2431441    -26585.13   -24297.839   -31491.107   -23966.444   -6037.5667   -3869.4522    7308.7749    76.394717 
   58100    609.41956    -161.6394   0.55141562   -161.08799   -11658.087    4.2439215    4.2439215    4.2439215   -11658.087   -22384.173   -9407.4109   -3182.6763   -4994.7674    6986.9946    1079.5909    76.436716 
   58200    596.76428   -161.63003   0.53996486   -161.09007   -1095.0162    4.2438983    4.2438983    4.2438983   -1095.0162   -830.09672    4882.3797   -7337.3318     2412.484   -5775.6559    2199.9274    76.435464 
   58300    614.19711   -161.64825   0.55573845   -161.09251      6128.89    4.2428505    4.2428505    4.2428505      6128.89   -12577.682    24769.637    6194.7152   -4250.7251    1051.3377    2593.7586    76.378861 
   58400    681.51912   -161.70569   0.61665282   -161.08904   -1874.6172    4.2406079    4.2406079    4.2406079   -1874.6172    6355.3023    2984.0298   -14963.184   -2394.0254    961.00011    680.31029    76.257812 
   58500     488.8275   -161.53429   0.44230139   -161.09199   -2104.3462    4.2330341    4.2330341    4.2330341   -2104.3462     8100.238   -4973.6596    -9439.617   -15444.314   -5394.5114    1255.8167    75.849952 
   58600    758.79939   -161.77825   0.68657764   -161.09167   -20926.024    4.2417703    4.2417703    4.2417703   -20926.024   -28477.051   -19150.965   -15150.056   -254.33478    7693.4498    1159.3742    76.320542 
   58700    620.43169     -161.651   0.56137963   -161.08962   -4628.4043    4.2402984    4.2402984    4.2402984   -4628.4043   -26493.943    14570.024   -1961.2936    -1881.035    -744.1961    6489.5439    76.241119 
   58800    581.15107   -161.61656    0.5258377   -161.09072    2681.9879    4.2423376    4.2423376    4.2423376    2681.9879   -21202.747    5686.9482    23561.762   -6306.2296   -107.52179   -1200.5201    76.351168 
   58900    755.60072   -161.77621   0.68368341   -161.09253   -6389.9831     4.242912     4.242912     4.242912   -6389.9831    12644.082   -1548.9126   -30265.118    2512.5799   -722.94314    3845.2097    76.382186 
   59000    356.49139   -161.41738    0.3225609   -161.09482    15270.618    4.2371264    4.2371264    4.2371264    15270.618    24486.358    22090.709   -765.21253   -6484.1513   -3530.8303    5029.6758     76.07015 
   59100    800.22418   -161.81561   0.72405965   -161.09155   -15112.155    4.2428669    4.2428669    4.2428669   -15112.155   -7070.1227   -5037.5804   -33228.762    4028.0176    5753.8156    326.31046     76.37975 
   59200    444.15638   -161.49114   0.40188203   -161.08926    2088.8084     4.242594     4.242594     4.242594    2088.8084   -27026.157    21835.225    11457.357    4638.5564   -1121.6967    5078.3894    76.365014 
   59300    562.75107   -161.59627     0.509189   -161.08708   -7147.7713    4.2388425    4.2388425    4.2388425   -7147.7713   -26665.351    2763.8422    2458.1946   -2840.2234     710.3381   -1279.5079    76.162611 
   59400    632.00935   -161.65865   0.57185534    -161.0868   -1404.5157     4.238929     4.238929     4.238929   -1404.5157   -12365.383    9490.5615    -1338.726    4654.4932   -223.55311   -2076.4228    76.167278 
   59500    442.33158   -161.48783   0.40023091    -161.0876    21004.846    4.2395734    4.2395734    4.2395734    21004.846     13131.51    30181.207    19701.823    -3065.715   -8213.4231   -8659.4355    76.202018 
   59600    748.26399   -161.76669   0.67704499   -161.08964   -6243.9225      4.24614      4.24614      4.24614   -6243.9225   -4268.2054    10199.549   -24663.111   -1513.3434     137.2435    -9301.577     76.55665 
   59700    732.10777   -161.75765   0.66242649   -161.09523   -11208.042    4.2427024    4.2427024    4.2427024   -11208.042   -19437.817   -3276.0114   -10910.299    393.26056   -11409.064   -3442.3483    76.370865 
   59800    516.46626   -161.56819   0.46730952   -161.10088    1328.1452    4.2359582    4.2359582    4.2359582    1328.1452   -3903.8749    33098.286   -25209.976     3028.039   -5226.0657   -2684.4718    76.007249 
   59900    839.13738   -161.85412   0.75926914   -161.09485   -723.98904    4.2337331    4.2337331    4.2337331   -723.98904    -4502.372    8293.8817   -5963.4768   -2378.4505    8157.8828    6757.3602    75.887532 
   60000    613.72454   -161.64663   0.55531086   -161.09132    3152.3304    4.2393022    4.2393022    4.2393022    3152.3304    12266.356    8136.2545    -10945.62   -1672.4668   -1385.5163   -555.08049    76.187394 
   60100    703.70336   -161.72383   0.63672559    -161.0871   -10555.474     4.248468     4.248468     4.248468   -10555.474   -7639.3846    3029.9492   -27056.988    1163.9089    4383.3934   -573.19034     76.68264 
   60200    795.27488   -161.80694   0.71958142   -161.08736    -15770.88    4.2429862    4.2429862    4.2429862    -15770.88   -31117.697   -10395.868    -5799.074   -5871.0398    107.47702    1958.0776     76.38619 
   60300    556.22133   -161.59526   0.50328075   -161.09198    7151.4409    4.2324709    4.2324709    4.2324709    7151.4409   -5170.0871    29448.433   -2824.0231   -3590.0921    2505.0602   -7040.3538    75.819679 
   60400    818.28967   -161.83176   0.74040569   -161.09135     85.88589    4.2337708    4.2337708    4.2337708     85.88589   -18488.185    17595.283    1150.5603     6271.359    1934.7534    4109.5326    75.889558 
   60500    693.24909   -161.71613   0.62726635   -161.08887   -2197.4896    4.2392761    4.2392761    4.2392761   -2197.4896   -5361.1128    4498.7223   -5730.0783   -4117.5836   -6677.6935     1793.537    76.185986 
   60600    566.01444   -161.60335   0.51214176   -161.09121    2479.7655    4.2425913    4.2425913    4.2425913    2479.7655   -9224.2806    18881.166    -2217.589    1947.6952   -640.70781   -977.43811    76.364866 
   60700    493.55246   -161.54422   0.44657664   -161.09765    11531.638    4.2440697    4.2440697    4.2440697    11531.638   -21305.869    52474.003    3426.7796    3592.0657    1768.7682    473.54842    76.444726 
   60800    822.77732   -161.84627   0.74446621    -161.1018   -9425.8593     4.235991     4.235991     4.235991   -9425.8593   -11612.993    3020.3567   -19684.942   -1624.0653    125.86011    6462.8601    76.009012 
   60900    427.77783   -161.48852   0.38706237   -161.10146   -1178.5543    4.2365922    4.2365922    4.2365922   -1178.5543    4303.3184    5686.3393    -13525.32    3979.9557    1553.6511    16266.579    76.041378 
   61000    660.79886     -161.692    0.5979047   -161.09409   -7198.0571    4.2414948    4.2414948    4.2414948   -7198.0571    -18094.52    8584.1945   -12083.846    -633.0105   -900.75585    2301.0608     76.30567 
   61100    752.48431   -161.77171   0.68086362   -161.09084   -15148.532     4.243575     4.243575     4.243575   -15148.532   -34331.055    2870.7095   -13985.249   -2226.1111    570.06807     3613.541    76.417998 
   61200    381.75892   -161.43641   0.34542349   -161.09098    16642.806    4.2364968    4.2364968    4.2364968    16642.806   -17595.123    47866.457    19657.084    11832.027    1462.1569    4272.0602    76.036245 
   61300    584.63439   -161.61965   0.52898948   -161.09066    360.33143    4.2365302    4.2365302    4.2365302    360.33143   -17007.181    31926.263   -13838.087    2666.0064    551.87623    8427.1413    76.038043 
   61400    551.19903   -161.59274   0.49873647     -161.094   -9783.9642    4.2394042    4.2394042    4.2394042   -9783.9642    7500.8136    -7749.078   -29103.628    67.580234   -158.31559    22071.521    76.192893 
   61500    455.51065   -161.50608   0.41215561   -161.09392    8021.0066    4.2306364    4.2306364    4.2306364    8021.0066    6698.4041    11361.801    6002.8143   -1824.4909    3178.5441     7832.969    75.721134 
   61600    638.17066   -161.66914   0.57743023   -161.09171   -1781.2272    4.2359204    4.2359204    4.2359204   -1781.2272   -18664.669    12880.899    440.08798   -9725.1634    -1637.367    4339.9287    76.005211 
   61700    609.71748   -161.64449   0.55168519   -161.09281   -1479.9609    4.2389006    4.2389006    4.2389006   -1479.9609   -32251.781    3392.6663    24419.232   -821.26808    6439.6023    6537.1128    76.165745 
   61800    483.87062   -161.53991   0.43781631   -161.10209    6987.4761    4.2387502    4.2387502    4.2387502    6987.4761   -15180.829    28418.063    7725.1936    4714.9076    1362.4892   -4954.4472    76.157638 
   61900    687.19226   -161.72216     0.621786   -161.10038   -7939.3104    4.2382825    4.2382825    4.2382825   -7939.3104   -253.30938   -6485.0032   -17079.618    -2017.652   -898.43463    9106.9231    76.132431 
   62000     632.2485   -161.66831   0.57207173   -161.09624   -7729.1643    4.2387991    4.2387991    4.2387991   -7729.1643    9428.8904   -2721.8794   -29894.504    564.64215   -1766.1353   -4253.5733    76.160275 
   62100     491.5876   -161.53798   0.44479879   -161.09318    2404.8741    4.2429423    4.2429423    4.2429423    2404.8741   -9115.1006    32710.562    -16380.84    2535.2578   -1798.5493   -1821.0796    76.383822 
   62200    731.30341   -161.75063    0.6616987   -161.08893   -7475.8751    4.2409186    4.2409186    4.2409186   -7475.8751   -24718.105    -7504.473    9794.9526   -5599.2372    4867.5631    6320.9053    76.274575 
   62300    606.19527   -161.63773   0.54849822   -161.08923    1392.2868    4.2429622    4.2429622    4.2429622    1392.2868   -9929.5838    12152.137    1954.3071   -3597.8947    5962.0451    2395.7055    76.384897 
   62400    520.13994   -161.56266   0.47063355   -161.09203    16327.423    4.2394469    4.2394469    4.2394469    16327.423    10217.903    33028.886    5735.4787    5750.8811    4809.3704    5218.9031    76.195198 
   62500    532.42849    -161.5757   0.48175249   -161.09395    3889.1046    4.2360881    4.2360881    4.2360881    3889.1046    14090.653    6852.6582   -9275.9971   -366.56177    5046.5683   -13969.371     76.01424 
   62600    496.68657   -161.54076   0.44941245   -161.09135   -2486.0103    4.2411988    4.2411988    4.2411988   -2486.0103   -13456.942    18191.158   -12192.247    6808.4521    49.349195   -7849.5558    76.289699 
   62700    445.81063   -161.49609   0.40337883   -161.09271    11936.996    4.2419587    4.2419587    4.2419587    11936.996    -15346.54    58505.226    -7347.697    9917.9841   -4781.2098    4930.3294    76.330712 
   62800    592.90551   -161.64021   0.53647337   -161.10374   -4993.9373    4.2444387    4.2444387    4.2444387   -4993.9373   -20792.027    9686.2441    -3876.029    6549.2628   -2063.7518    295.05321    76.464667 
   62900    553.00393   -161.60294   0.50036958   -161.10257   -6076.3538    4.2424415    4.2424415    4.2424415   -6076.3538    6608.8191    -9769.515   -15068.365    11299.173    1951.6764    6011.9836    76.356777 
   63000    544.56819   -161.58669   0.49273674   -161.09395    15433.141    4.2309765    4.2309765    4.2309765    15433.141    31469.825    29318.233   -14488.634    6748.0115   -3132.7341   -15078.268    75.739397 
   63100    738.72943   -161.75703   0.66841791   -161.08861   -1869.4827     4.236363     4.236363     4.236363   -1869.4827    2646.8677    4708.9635   -12964.279   -4592.4124    448.70228   -1987.5117    76.029041 
   63200    496.01611   -161.53678    0.4488058   -161.08797    4329.8413    4.2376076    4.2376076    4.2376076    4329.8413    682.56051    34383.611   -22076.648    1097.0836    6820.4433    3507.0812    76.096069 
   63300     676.0141   -161.70251   0.61167177   -161.09084   -10709.871    4.2450572    4.2450572    4.2450572   -10709.871   -33234.238    7964.4489   -6859.8249    935.71243    1152.9063   -8283.2499    76.498097 
   63400    483.99007   -161.53461   0.43792438   -161.09668    1526.3558     4.244238     4.244238     4.244238    1526.3558   -10486.407    33330.343   -18264.869   -10415.133     -375.554    3692.2189     76.45382 
   63500    878.90545   -161.89511   0.79525212   -161.09986   -1529.3064    4.2366361    4.2366361    4.2366361   -1529.3064    3717.7392    5820.4906   -14126.149    1039.2061   -1134.2946   -7638.6011    76.043744 
   63600    466.24874   -161.52182   0.42187166   -161.09995    -1351.557    4.2441625    4.2441625    4.2441625    -1351.557   -3517.7422    34586.451    -35123.38   -6104.1038   -2153.8295    4975.9671    76.449741 
   63700    649.71382    -161.6777   0.58787472   -161.08982    9458.2468    4.2314926    4.2314926    4.2314926    9458.2468    10466.099    24241.618    -6332.977   -1019.5155     1109.978     10113.36    75.767118 
   63800    608.55948   -161.64267   0.55063741   -161.09203   -1277.0208    4.2438233    4.2438233    4.2438233   -1277.0208   -14905.833    35177.381    -24102.61   -2273.5667    279.67262   -5541.2531    76.431409 
   63900    445.48016   -161.49429   0.40307981   -161.09121    4305.1051     4.249193     4.249193     4.249193    4305.1051    725.94507    37194.531    -25005.16    -5112.793    940.99121    11525.224    76.721902 
   64000     581.4326   -161.61772   0.52609243   -161.09163   -770.63301    4.2433387    4.2433387    4.2433387   -770.63301    -11934.33    21829.694   -12207.263    375.98336     2506.991   -6859.1931     76.40523 
   64100    734.93204   -161.75998   0.66498195     -161.095   -5640.8865    4.2432798    4.2432798    4.2432798   -5640.8865   -1296.5656    15390.609   -31016.703    986.81671    4156.5026   -319.74097     76.40205 
   64200    619.73243   -161.65766   0.56074693   -161.09691    9012.8098    4.2364683    4.2364683    4.2364683    9012.8098    7722.0697     35277.02    -15960.66   -2513.9942    -869.2699    5975.5799    76.034708 
   64300    519.70093   -161.56528   0.47023632   -161.09504   -4347.3727    4.2382082    4.2382082    4.2382082   -4347.3727   -17262.549    25583.281    -21362.85    323.88763    3246.1252   -17054.871    76.128425 
   64400    594.33957   -161.62902   0.53777093   -161.09125   -3887.1691    4.2398197    4.2398197    4.2398197   -3887.1691   -19421.932    14043.787   -6283.3629    10313.475   -125.20794   -2542.6282      76.2153 
   64500    568.14375   -161.60357   0.51406841    -161.0895    1569.9931     4.243389     4.243389     4.243389    1569.9931   -1544.8485    24919.414   -18664.586   -3335.7159   -987.40254   -2550.9234     76.40795 
   64600    498.61329   -161.54027   0.45115578   -161.08912     2548.245    4.2427476    4.2427476    4.2427476     2548.245    12418.635    13826.926   -18600.826    1535.6652    1997.8953   -21043.505    76.373308 
   64700    493.99932   -161.53422   0.44698096   -161.08724    18553.879    4.2322628    4.2322628    4.2322628    18553.879    9193.3859    48875.754   -2407.5029    8523.3611    8759.9353    2575.2524    75.808496 
   64800    575.14515   -161.61179   0.52040342   -161.09138    4862.9148    4.2351455    4.2351455    4.2351455    4862.9148   -22152.795    49389.254   -12647.715    3040.2177    7808.8163    1931.8351    75.963508 
   64900    610.98831   -161.64577   0.55283507   -161.09294   -9751.3546    4.2445163    4.2445163    4.2445163   -9751.3546   -16753.398   -5905.4473   -6595.2181    1288.8641   -4760.9422    5002.2028    76.468858 
   65000    559.93926   -161.59621   0.50664481   -161.08956   -6244.8335    4.2476791    4.2476791    4.2476791   -6244.8335    219.31066    11366.387   -30320.198   -488.27015   -3921.2721    12071.453    76.639928 
   65100    557.90129   -161.59353   0.50480082   -161.08873    10318.616    4.2369918    4.2369918    4.2369918    10318.616    12545.954     21574.37   -3164.4757    4268.9048   -5763.0309   -2896.0118    76.062898 
   65200    606.52612   -161.63731   0.54879758   -161.08851    11201.346    4.2305609    4.2305609    4.2305609    11201.346    617.15701    38377.376   -5390.4949    2080.2226   -13820.955    5980.2868    75.717078 
   65300    494.81147   -161.53882   0.44771582    -161.0911   -1137.8672    4.2434383    4.2434383    4.2434383   -1137.8672   -30132.735    38674.428   -11955.295    4863.8074   -951.58296    2567.1242    76.410611 
   65400    693.60406   -161.71572   0.62758753   -161.08813   -15354.577    4.2471301    4.2471301    4.2471301   -15354.577   -15716.035   -5151.4128   -25196.282    2397.6326   -3694.3358    659.91121    76.610219 
   65500    561.91253   -161.59438   0.50843027   -161.08595   -7308.9403    4.2424279    4.2424279    4.2424279   -7308.9403    10893.567   -4500.4255   -28319.963    511.98808   -1236.5577     11619.87    76.356042 
   65600    689.33482    -161.7079   0.62372463   -161.08417    385.18122    4.2358977    4.2358977    4.2358977    385.18122    11703.629    10755.151   -21303.236   -5848.5224    4989.6114    127.73679    76.003991 
   65700    603.20296   -161.63294   0.54579071   -161.08715    10144.244    4.2339583    4.2339583    4.2339583    10144.244    4021.1504    29621.259   -3209.6769    -11427.91   -4436.2072    94.477148     75.89964 
   65800    642.28866   -161.67153   0.58115627   -161.09038   -8577.7091    4.2462192    4.2462192    4.2462192   -8577.7091   -20632.248   -7244.3878    2143.5087    -1469.978   -2234.6699    2869.6149    76.560936 
   65900    562.93639   -161.60166   0.50935667   -161.09231   -1906.7858     4.246481     4.246481     4.246481   -1906.7858    12129.778   -10223.094   -7627.0409   -1654.6689   -2168.5718   -4720.7286    76.575095 
   66000    793.02539   -161.80569   0.71754604   -161.08814   -16913.446    4.2415813    4.2415813    4.2415813   -16913.446    6101.9205   -22075.108   -34767.152   -6208.2199   -3024.4707    12382.648    76.310339 
   66100    632.49647   -161.66077    0.5722961   -161.08848   -2716.6725    4.2321598    4.2321598    4.2321598   -2716.6725    9856.9682    8819.8762   -26826.862    4639.4255   -6156.6329   -1465.8964    75.802963 
   66200    495.78033   -161.54177   0.44859246   -161.09317     1323.138    4.2344024    4.2344024    4.2344024     1323.138   -680.77324    19871.213   -15221.025    11639.018   -926.16844    3575.3868    75.923529 
   66300    871.95472   -161.88089   0.78896295   -161.09193   -21708.854    4.2444978    4.2444978    4.2444978   -21708.854   -25829.465   -27330.662   -11966.433   -3862.4637    3575.4085    5731.0359     76.46786 
   66400    356.14205   -161.41873   0.32224482   -161.09648    19524.259    4.2411417    4.2411417    4.2411417    19524.259    40682.174    4427.5281    13463.074    3125.5758    3779.4205   -5664.0581    76.286617 
   66500     713.6365    -161.7404    0.6457133   -161.09469   -3739.1162    4.2421094    4.2421094    4.2421094   -3739.1162    13465.391   -20816.548   -3866.1918    7015.6824    5194.5724    6360.8729    76.338848 
   66600    708.35118   -161.73213   0.64093104    -161.0912   -8121.2678    4.2345437    4.2345437    4.2345437   -8121.2678    15.757374   -9689.7084   -14689.853   -10389.459     1261.899   -7648.2462    75.931129 
   66700    477.92402   -161.52317    0.4324357   -161.09074   -726.44226    4.2343848    4.2343848    4.2343848   -726.44226    15456.991   -207.65921   -17428.658    1585.6608   -2877.4755   -15116.826    75.922584 
   66800    997.04235   -161.99246   0.90214487   -161.09031   -15775.905    4.2382559    4.2382559    4.2382559   -15775.905   -14659.645   -18942.211   -13725.858    4704.6837    361.91666   -2621.5153       76.131 
   66900    386.93928   -161.44802   0.35011079   -161.09791    17508.808    4.2456005    4.2456005    4.2456005    17508.808    35508.179     11259.09    5759.1542   -121.95506    3844.2802   -12134.745    76.527473 
   67000    789.08196   -161.80425   0.71397794   -161.09027   -5877.0254    4.2439919    4.2439919    4.2439919   -5877.0254    3842.9977   -7453.2796   -14020.794   -6246.7617   -615.19055   -1776.9367    76.440519 
   67100    697.65934   -161.71927   0.63125684   -161.08801    4168.9463    4.2268175    4.2268175    4.2268175    4168.9463    27928.646   -10242.364   -5179.4428    8522.2914    6761.7006   -8890.3112    75.516261 
   67200    421.75187   -161.47251   0.38160996    -161.0909    4266.1331    4.2345649    4.2345649    4.2345649    4266.1331     31321.84   -4455.7283   -14067.712    6521.2678    6251.4191   -13282.073     75.93227 
   67300    922.12391   -161.92131   0.83435709   -161.08695   -20152.434    4.2431481    4.2431481    4.2431481   -20152.434   -15981.523   -14412.513   -30063.265   -7997.0189   -1557.0813    7010.7587    76.394936 
   67400    653.74282   -161.67936   0.59152024   -161.08784   -9522.5293    4.2511414    4.2511414    4.2511414   -9522.5293    1434.9493    7594.2376   -37596.775    1063.3135    2523.9449    1298.0888    76.827492 
   67500    632.13703   -161.65911   0.57197087   -161.08714   -2990.3533    4.2440395    4.2440395    4.2440395   -2990.3533    -2265.304     18757.53   -25463.286    3932.7389    324.56873    1084.3799    76.443093 
   67600     771.6101   -161.78538   0.69816904   -161.08721    1624.6264    4.2284634    4.2284634    4.2284634    1624.6264    2666.0832    19262.327   -17054.531   -4033.4034   -5104.5886     9415.525    75.604516 
   67700    633.09536   -161.66498   0.57283799   -161.09214    2217.1812    4.2365779    4.2365779    4.2365779    2217.1812   -3135.2529      1325.28    8461.5164    2420.9686   -2497.4125   -2468.4673     76.04061 
   67800     647.2844   -161.67729   0.58567653   -161.09161    1976.0724    4.2441394    4.2441394    4.2441394    1976.0724   -9916.3832    12307.591     3537.009    4736.2386   -2290.7206    4224.8326    76.448493 
   67900    534.40186   -161.57311   0.48353803   -161.08957    1537.9352    4.2477621    4.2477621    4.2477621    1537.9352    15149.323    5636.9732   -16172.491   -8294.0316   -343.49623   -469.50022    76.644422 
   68000    705.76891   -161.72513   0.63859454   -161.08654   -10849.984    4.2393392    4.2393392    4.2393392   -10849.984   -5050.3877   -515.31054   -26984.253    -6818.988     1734.695    5711.4165    76.189389 
   68100    429.14919   -161.47898   0.38830321   -161.09068    6184.9348    4.2320047    4.2320047    4.2320047    6184.9348    21901.412    22336.455   -25683.063   -5443.7754    2737.4555    16721.778     75.79463 
   68200    778.81082   -161.79964    0.7046844   -161.09496   -9280.9616    4.2406515    4.2406515    4.2406515   -9280.9616    513.42829   -2640.5918   -25715.721   -1157.7142    1114.3176    3507.0433    76.260165 
   68300    669.14513   -161.69981   0.60545657   -161.09435    914.42824    4.2445701    4.2445701    4.2445701    914.42824   -1810.2217    21104.762   -16551.255    -3521.759   -2927.3243    6784.9476    76.471766 
   68400    549.97249   -161.58649   0.49762667   -161.08886    10454.911    4.2426818    4.2426818    4.2426818    10454.911    15839.274    11376.389    4149.0707   -3247.0537   -4332.4301    2631.8625    76.369754 
   68500    822.00243   -161.83123   0.74376507   -161.08746    -8173.467    4.2344948    4.2344948    4.2344948    -8173.467    -4743.391   -915.11599   -18861.894    3185.5783   -3151.9325   -2638.4134    75.928499 
   68600     625.6794   -161.65714   0.56612787   -161.09101   -3271.1308     4.229722     4.229722     4.229722   -3271.1308   -476.09499    17320.722   -26658.019   -1341.6693   -10455.209     9394.611    75.672044 
   68700    619.96854   -161.65345   0.56096056   -161.09249   -3073.1756    4.2357498    4.2357498    4.2357498   -3073.1756    -6668.207    17890.901    -20442.22     8173.512     4137.711   -5172.2837    75.996031 
   68800    802.58903    -161.8201   0.72619942    -161.0939   -2247.9791    4.2392399    4.2392399    4.2392399   -2247.9791   -11188.035    7275.4282   -2831.3309   -454.13579   -3373.1744   -1959.9646    76.184039 
   68900    459.94979   -161.51067   0.41617223    -161.0945    9656.5533    4.2445807    4.2445807    4.2445807    9656.5533    4571.5085    11332.901    13065.251    5244.4407   -1504.8933   -4942.9147    76.472343 
   69000    735.86371   -161.75504   0.66582495   -161.08921   -4080.9704       4.2395       4.2395       4.2395   -4080.9704   -11392.428    7400.2165   -8250.6999   -3808.9021    1149.5876   -6485.1711     76.19806 
   69100    681.22272   -161.70838   0.61638463   -161.09199   -6092.2736    4.2389855    4.2389855    4.2389855   -6092.2736   -17298.285    24911.412   -25889.948    1831.0675   -13931.324    -1929.057     76.17032 
   69200    432.40863   -161.48534   0.39125242   -161.09409    10602.241    4.2427262    4.2427262    4.2427262    10602.241   -702.33499     41175.34   -8666.2829    3989.7084    -2172.521   -359.48243    76.372151 
   69300    891.70386   -161.89538   0.80683239   -161.08855    -9376.999    4.2407559    4.2407559    4.2407559    -9376.999   -14342.714    3620.3028   -17408.586    6280.2566    3962.6064    2360.4981    76.265801 
   69400     585.0076   -161.62037   0.52932717   -161.09105    30.393383     4.245943     4.245943     4.245943    30.393383   -2199.2684    5724.0154   -3433.5669    8260.7792   -6697.1891   -3276.9792    76.545995 
   69500    722.02371   -161.74464   0.65330222   -161.09134   -5577.7613    4.2453509    4.2453509    4.2453509   -5577.7613   -7502.5295    -767.9477   -8462.8066    6891.9689     3015.705     1639.962    76.513977 
   69600    841.68764   -161.85301   0.76157666   -161.09143   -7416.5245    4.2359867    4.2359867    4.2359867   -7416.5245   -9752.9752    11497.778   -23994.376    6489.6251    -3585.597    1091.3543    76.008781 
   69700    658.58449   -161.69146   0.59590109   -161.09556    5834.4176    4.2331299    4.2331299    4.2331299    5834.4176    6171.8706    16984.873   -5653.4908    429.30228   -4079.9331    6022.0761      75.8551 
   69800    842.53985   -161.85506   0.76234777   -161.09272   -22395.668    4.2413644    4.2413644    4.2413644   -22395.668   -23476.402   -15097.318   -28613.284     36.29636   -855.42973    5295.9661    76.298636 
   69900    662.45686   -161.68928   0.59940489   -161.08988   -9726.0559    4.2421012    4.2421012    4.2421012   -9726.0559   -5033.8475   -20666.683   -3477.6368    13874.045   -1148.8632   -4733.2396    76.338405 
   70000    680.13223   -161.70671   0.61539793   -161.09131   -4080.3596    4.2434495    4.2434495    4.2434495   -4080.3596   -12500.194    11624.288   -11365.173   -6039.0045    137.37888    3359.3019    76.411219 
   70100    681.08879   -161.70715   0.61626345   -161.09088    9413.8881    4.2377631    4.2377631    4.2377631    9413.8881    2858.8234    28086.889   -2704.0486    2019.2781   -4752.1091   -2645.1704    76.104447 
   70200    651.21757   -161.68297   0.58923535   -161.09374     2537.885    4.2350787    4.2350787    4.2350787     2537.885    13953.703    -578.0928   -5761.9552   -24.400289   -6046.6696   -4318.0018    75.959912 
   70300    840.94621    -161.8551   0.76090581    -161.0942   -24220.517    4.2481659    4.2481659    4.2481659   -24220.517   -20654.356   -29234.376   -22772.817   -4207.2896    1532.8385   -3067.8503    76.666281 
   70400    702.04906   -161.72551   0.63522875   -161.09028   -10600.142    4.2476903    4.2476903    4.2476903   -10600.142   -9318.3082    -5447.123   -17034.994    -4840.274    4197.3979   -5302.6385    76.640538 
   70500    755.45771   -161.77109   0.68355402   -161.08754   -13216.213    4.2393794    4.2393794    4.2393794   -13216.213   -25610.265   -927.41975   -13110.956   -7209.0085   -4781.4559    2730.1174    76.191556 
   70600    688.06274   -161.71448   0.62257363   -161.09191   -11025.616    4.2433785    4.2433785    4.2433785   -11025.616   -13913.318   -9375.0452   -9788.4854   -5209.8874   -41.267393    3761.2876     76.40738 
   70700    687.26015   -161.71379   0.62184743   -161.09195   -2487.6339    4.2410997    4.2410997    4.2410997   -2487.6339   -3921.7982    3177.8409   -6718.9445   -5774.0181    1513.0425    133.00263    76.284347 
   70800    740.27705    -161.7637   0.66981823   -161.09388   -2042.5915    4.2418409    4.2418409    4.2418409   -2042.5915    -21014.67    51.073627    14835.822   -1444.8596   -8686.5506    941.30619     76.32435 
   70900    532.56431   -161.57794   0.48187538   -161.09607   -1176.1925    4.2516165    4.2516165    4.2516165   -1176.1925    581.92517    15213.247    -19323.75    2560.8675    1170.3871    1567.1951    76.853255 
   71000    704.39287   -161.72646   0.63734948   -161.08911   -6434.7692    4.2413025    4.2413025    4.2413025   -6434.7692   -9742.7095    17283.813   -26845.411   -3442.8041    3202.2649   -5523.9688    76.295293 
   71100    464.45952   -161.51041   0.42025274   -161.09016    329.72253    4.2362003    4.2362003    4.2362003    329.72253   -1139.5006    22508.641   -20379.973    7461.2709   -1202.9482   -4172.3464    76.020281 
   71200    549.51259   -161.58668   0.49721054   -161.08947    14895.593    4.2345576    4.2345576    4.2345576    14895.593    18216.079    31315.942   -4845.2426    9217.9563   -1095.3974    1052.0995    75.931875 
   71300    513.10471   -161.55593   0.46426792   -161.09166    14869.513    4.2433756    4.2433756    4.2433756    14869.513   -13218.037    47905.405    9921.1717    4669.7695    3425.9929   -1237.6393    76.407224 
   71400    520.44099   -161.56433   0.47090595   -161.09342    7325.2076    4.2494831    4.2494831    4.2494831    7325.2076    8923.3475    21060.038   -8007.7631    7574.9693    3086.8386    2868.4718    76.737619 
   71500    757.16677   -161.77513    0.6851004   -161.09003   -15070.386    4.2451022    4.2451022    4.2451022   -15070.386   -14080.362    2453.5552   -33584.352   -60.776909   -1751.2362   -2893.5485    76.500533 
   71600    301.52038   -161.36552   0.27282198    -161.0927    10563.561    4.2350727    4.2350727    4.2350727    10563.561    19310.724      31269.3   -18889.339    11875.082    4242.4131   -5770.6722    75.959592 
   71700    612.81537   -161.64735   0.55448823   -161.09286    6554.2652    4.2341647    4.2341647    4.2341647    6554.2652    18097.627    23509.797   -21944.628    4755.5151   -1758.5853   -1438.3623    75.910741 
   71800    671.65283   -161.70093   0.60772559    -161.0932   -1269.5235     4.248538     4.248538     4.248538   -1269.5235    -13856.68    25242.107   -15193.997    3992.9981   -681.43445   -1747.4431    76.686432 
   71900    405.98707   -161.45524   0.36734563   -161.08789    10084.138    4.2475045    4.2475045    4.2475045    10084.138    13434.449    8259.6642    8558.3005    3734.3103   -807.25558    2538.5839    76.630477 
   72000    784.07295   -161.79196   0.70944568   -161.08251   -17791.757     4.242456     4.242456     4.242456   -17791.757   -13616.519   -26141.804   -13616.948   -5521.9097    -4349.848    4532.5602    76.357561 
   72100    582.28096   -161.61278   0.52686005   -161.08592   -3906.8132    4.2347217    4.2347217    4.2347217   -3906.8132    14394.002    -9519.205   -16595.237    4521.3609   -656.46174    1900.3316    75.940705 
   72200    522.47236   -161.56455   0.47274397   -161.09181   -1715.9702     4.236307     4.236307     4.236307   -1715.9702    15647.448   -8172.3905   -12622.968   -1358.5133    9423.7308   -8329.8003    76.026026 
   72300     879.9569   -161.88723   0.79620349   -161.09103   -22148.113    4.2471389    4.2471389    4.2471389   -22148.113   -22399.781   -16874.155   -27170.404   -3850.1722    743.77558   -2062.1595    76.610693 
   72400    447.97903   -161.49842   0.40534084   -161.09308    8723.5369    4.2451362    4.2451362    4.2451362    8723.5369    25032.936    2412.7783   -1275.1039   -6550.6851   -509.86406   -2814.8864    76.502372 
   72500     698.5163   -161.72311   0.63203223   -161.09108   -4872.1893     4.242935     4.242935     4.242935   -4872.1893   -11241.957    8400.7781   -11775.389   -1340.7073    4276.3944    1787.9869    76.383427 
   72600    682.01333   -161.70705   0.61709999   -161.08995   -4054.6684    4.2349442    4.2349442    4.2349442   -4054.6684   -13652.627    11574.738   -10086.116    7247.4034    845.02809   -2637.7568    75.952673 
   72700    438.66709   -161.49194    0.3969152   -161.09503    8175.8429    4.2397545    4.2397545    4.2397545    8175.8429    5240.8204    29810.597   -10523.889    3725.7516   -3415.0995    2847.8768    76.211787 
   72800    679.26497   -161.70706   0.61461322   -161.09245   -6557.9561    4.2492237    4.2492237    4.2492237   -6557.9561   -12766.329    21504.376   -28411.916    954.17736    655.98103    2150.8033    76.723566 
   72900    555.52515   -161.59419   0.50265083   -161.09154    5463.8439     4.245276     4.245276     4.245276    5463.8439    24530.299    15805.036   -23943.804    777.90429    856.45968    490.99683    76.509929 
   73000    524.09754   -161.56439   0.47421447   -161.09017    3831.6669    4.2374198    4.2374198    4.2374198    3831.6669    7647.9704    27153.741   -23306.711    5125.7863     1580.133   -2620.4211    76.085953 
   73100    569.98022   -161.60379   0.51573008   -161.08806    5704.8436    4.2253251    4.2253251    4.2253251    5704.8436   -5728.1901    23757.154   -914.43334    21381.071   -2158.8129    5873.1861    75.436301 
   73200    538.49034   -161.57821   0.48723737   -161.09097    5793.6201    4.2371052    4.2371052    4.2371052    5793.6201    7952.4046     13153.98   -3725.5248    16262.461   -1323.2035    2490.4199    76.069006 
   73300    663.63012   -161.68817   0.60046648    -161.0877   -4764.5736     4.249707     4.249707     4.249707   -4764.5736   -4059.0488   -3242.5791   -6992.0927    3427.4253    1921.1089    2238.5141    76.749749 
   73400    589.54524    -161.6204   0.53343292   -161.08696    2705.7106    4.2439742    4.2439742    4.2439742    2705.7106    17714.743    248.35014   -9845.9613    8612.5012    911.71886   -1261.3405    76.439565 
   73500    595.85209   -161.62767   0.53913949   -161.08853    4234.8981    4.2310625    4.2310625    4.2310625    4234.8981    1462.5078    26649.839   -15407.652    13034.781   -920.72295   -2493.7698    75.744016 
   73600    615.62673   -161.64618     0.557032   -161.08915   -1125.2683    4.2287239    4.2287239    4.2287239   -1125.2683   -161.21593    12124.149   -15338.738    8071.4659   -259.69454    7872.0977     75.61849 
   73700    606.31597   -161.63945   0.54860743   -161.09085   -4024.8411    4.2440789    4.2440789    4.2440789   -4024.8411   -146.87842   -6890.0106   -5037.6343    1699.3593    5026.4892    1219.2626    76.445223 
   73800     750.0364    -161.7655    0.6786487   -161.08685   -10582.752    4.2495956    4.2495956    4.2495956   -10582.752   -13388.877   -9883.4121   -8475.9684    4255.2233    5529.0043   -4218.7709    76.743711 
   73900     463.0999   -161.50421   0.41902252   -161.08519    13692.005    4.2462468    4.2462468    4.2462468    13692.005    12258.553    6601.1649    22216.296    3032.4399    3668.1786    4141.2213    76.562428 
   74000    869.08515   -161.87067   0.78636651    -161.0843   -14703.399    4.2376509    4.2376509    4.2376509   -14703.399   -23796.269   -13816.254   -6497.6742   -3952.9793    13648.753   -1296.4037    76.098399 
   74100    557.17316   -161.59302   0.50414198   -161.08888   -523.91193    4.2311578    4.2311578    4.2311578   -523.91193    6578.6984   -9572.6297    1422.1955    7243.5688    9784.0112    1364.8495    75.749135 
   74200    737.62914   -161.75759   0.66742235   -161.09017   -14495.124     4.244729     4.244729     4.244729   -14495.124   -19284.485   -23288.901   -911.98702    5428.1005   -6300.0944     9086.241    76.480358 
   74300    668.88188   -161.69396   0.60521838   -161.08874   -6404.9942    4.2498173    4.2498173    4.2498173   -6404.9942    -8779.208   -6932.5364   -3503.2384    2306.1086     4426.056     6981.288    76.755725 
   74400    679.47196   -161.70493   0.61480051   -161.09013    2538.9626    4.2437563    4.2437563    4.2437563    2538.9626   -2160.9299    5951.3306    3826.4871   -1674.0394   -421.45169    6736.9182    76.427792 
   74500    626.27617    -161.6574   0.56666784   -161.09073    855.15898    4.2316561    4.2316561    4.2316561    855.15898   -4348.3121    20986.514   -14072.725    5694.0072   -135.39245    4871.3333    75.775898 
   74600    429.03197   -161.47887   0.38819714   -161.09068    9521.0721    4.2269284    4.2269284    4.2269284    9521.0721    19954.604    28579.651   -19971.039    11930.116    9399.9252    10530.769    75.522209 
   74700    763.02266    -161.7818   0.69039894    -161.0914   -14690.326    4.2454876    4.2454876    4.2454876   -14690.326   -30395.223    7314.2628   -20990.018    1665.3579   -1570.9102   -341.94988    76.521367 
   74800    498.50826   -161.54234   0.45106075   -161.09128    9994.1705    4.2491013    4.2491013    4.2491013    9994.1705   -660.00193    21779.678    8862.8356    1476.3411    4182.7765   -2230.9523    76.716938 
   74900    696.62622   -161.71594   0.63032204   -161.08561    935.84071    4.2440783    4.2440783    4.2440783    935.84071   -22016.555    17197.894    7626.1832     5150.434    1981.0048    1136.5275    76.445191 
   75000    579.91669    -161.6119   0.52472081   -161.08717    6448.7604    4.2351633    4.2351633    4.2351633    6448.7604    7943.2605    19372.259   -7969.2384    1205.1003    951.07975   -5150.9164    75.964462 
   75100    757.06605   -161.77301   0.68500927     -161.088   -15686.387     4.238649     4.238649     4.238649   -15686.387   -21303.624   -5661.2904   -20094.247   -7792.5466     9774.816   -3511.8514    76.152183 
   75200    809.85717    -161.8182   0.73277578   -161.08542   -20854.039    4.2492351    4.2492351    4.2492351   -20854.039   -26763.778   -26183.306   -9615.0319   -933.24648   -814.07341   -6916.2937    76.724186 
   75300    617.48223   -161.64615    0.5587109   -161.08744   -5379.9528    4.2459078    4.2459078    4.2459078   -5379.9528   -29433.147    -10253.46    23546.749    3162.1666     6636.016   -2590.3072     76.54409 
   75400    710.32426   -161.73286   0.64271631   -161.09014   -3422.6987    4.2413634    4.2413634    4.2413634   -3422.6987   -11133.619    130.58076    734.94247   -8435.2543   -1186.1556   -5284.5275    76.298579 
   75500    655.25236   -161.68137    0.5928861   -161.08849    11934.706    4.2296682    4.2296682    4.2296682    11934.706   -2612.1745    5197.0172    33219.277   -1169.6728   -4754.0068   -469.57915     75.66916 
   75600    666.95817   -161.69566   0.60347776   -161.09218    2250.3746    4.2372214    4.2372214    4.2372214    2250.3746    1310.5085    4891.9157     548.6996    1592.9589    3133.8982    1111.1811    76.075266 
   75700    582.97973   -161.61901   0.52749231   -161.09151   -4145.3065    4.2501049    4.2501049    4.2501049   -4145.3065   -20104.473   -2771.2352    10439.789   -199.62087   -4626.9412    2860.5379     76.77131 
   75800    593.42014   -161.62285   0.53693901   -161.08591   -1110.3362      4.24627      4.24627      4.24627   -1110.3362    -34569.76    7378.6758    23860.075    491.96965    2832.4028    2314.6213    76.563682 
   75900    439.93745    -161.4864   0.39806465   -161.08834    15658.658    4.2360706    4.2360706    4.2360706    15658.658   -14392.294    49278.908    12089.361   -3258.5748    6.6856799    4271.7508    76.013296 
   76000    541.69239   -161.58072   0.49013465   -161.09058    14753.569    4.2340009    4.2340009    4.2340009    14753.569   -20390.103     37625.34    27025.471    3655.6199    -12127.45     9883.508    75.901933 
   76100    516.45416   -161.55966   0.46729857   -161.09236    1323.7663    4.2479911    4.2479911    4.2479911    1323.7663   -3729.3724    17746.598   -10045.926    3543.1154   -2636.8451     3241.896    76.656821 
   76200    654.71217   -161.68031   0.59239733   -161.08791   -6144.5641    4.2496689    4.2496689    4.2496689   -6144.5641   -13112.602   -7828.4488    2507.3585    468.64307   -3315.5064    6425.6758    76.747686 
   76300    598.26959   -161.63118    0.5413269   -161.08985    10222.619    4.2402539    4.2402539    4.2402539    10222.619   -447.19666     16139.79    14975.264      -402.56   -1947.1266   -1728.6114    76.238721 
   76400     875.6349   -161.88163   0.79229286   -161.08933   -16944.705     4.238481     4.238481     4.238481   -16944.705   -25015.326   -13715.688   -12103.101   -2659.0169    6563.5528    697.12231    76.143129 
   76500    483.43966   -161.52607   0.43742637   -161.08864   -2029.3651    4.2364046    4.2364046    4.2364046   -2029.3651    3319.4869   -1027.1418   -8380.4404   -5111.4468   -1250.9692   -17454.753     76.03128 
   76600    885.57611   -161.88822   0.80128788   -161.08693   -25810.486    4.2465776    4.2465776    4.2465776   -25810.486   -25291.491   -29426.877   -22713.091   -3779.6387    -2127.414   -4136.5346    76.580321 
   76700    622.41952    -161.6516   0.56317826   -161.08842   -6797.7615    4.2519046    4.2519046    4.2519046   -6797.7615   -3284.0368   -22100.046    4990.7987    2323.9674    3741.8456   -7137.5219    76.868876 
   76800    715.45265   -161.73348   0.64735659   -161.08613   -4574.6657    4.2388763    4.2388763    4.2388763   -4574.6657   -10916.308    7943.9646   -10751.654    6158.6729   -6169.5659    1410.4445    76.164434 
   76900    444.42882   -161.49371   0.40212853   -161.09158    16050.658    4.2347311    4.2347311    4.2347311    16050.658      11380.5    21227.696    15543.776   -536.31863    6297.0888   -1998.7616    75.941208 
   77000    636.99662   -161.66547   0.57636793    -161.0891   -1697.4019    4.2437046    4.2437046    4.2437046   -1697.4019   -21376.523     22628.23   -6343.9128    -4079.321   -737.79682    368.72993    76.424997 
   77100    428.57171    -161.4757   0.38778069   -161.08792    12456.337    4.2435139    4.2435139    4.2435139    12456.337    1520.5239    16657.092    19191.395   -1686.3582   -1548.2563    10938.025    76.414698 
   77200    489.77591   -161.53402   0.44315953   -161.09087    2030.6374    4.2481329    4.2481329    4.2481329    2030.6374    7387.4944   -6550.0381    5254.4558    -3574.301   -6192.5629    817.39139    76.664494 
   77300     778.6661   -161.79476   0.70455345    -161.0902   -14440.363    4.2473188    4.2473188    4.2473188   -14440.363   -19263.234   -18908.038   -5149.8157   -6530.0283   -1758.5179    1725.1799    76.620431 
   77400    492.76523   -161.53332   0.44586433   -161.08746    -339.7237    4.2387403    4.2387403    4.2387403    -339.7237    4099.1323   -25604.432    20486.129   -10473.931    959.03753    1351.7598    76.157105 
   77500     765.4906   -161.77768   0.69263198   -161.08504   -16868.109    4.2379438    4.2379438    4.2379438   -16868.109   -23896.153   -24528.371   -2179.8049   -11050.769    826.61081   -1713.3834    76.114183 
   77600    512.98561   -161.55001   0.46416016   -161.08585    2196.9802    4.2445098    4.2445098    4.2445098    2196.9802   -5497.5571   -4311.7679    16400.265   -228.30895    2467.2274   -3270.3105    76.468507 
   77700    540.26151   -161.57574   0.48883997    -161.0869   -1260.2064    4.2457941    4.2457941    4.2457941   -1260.2064   -2253.6152   -2155.0331    628.02908    711.53717    2885.3107   -10373.631    76.537941 
   77800    661.82719   -161.68857   0.59883515   -161.08973    86.858769    4.2405643    4.2405643    4.2405643    86.858769   -8833.2278    21721.373   -12627.569     5983.822     3754.154    1426.4303     76.25546 
   77900    297.50844   -161.36213   0.26919189   -161.09294    17360.795    4.2330491    4.2330491    4.2330491    17360.795    16654.241    23389.572    12038.572   -129.51031     5916.065    794.94852    75.850758 
   78000    601.40654   -161.63482   0.54416528   -161.09065   -1662.0725    4.2369175    4.2369175    4.2369175   -1662.0725   -17246.608    25631.366   -13370.975     1878.403   -207.98349   -8589.1532    76.058896 
   78100    436.06503   -161.48725    0.3945608   -161.09269    16666.638    4.2426906    4.2426906    4.2426906    16666.638    3880.8751    25637.499    20481.539    1662.1093   -213.39721     7645.843    76.370226 
   78200    637.36293   -161.66775   0.57669938   -161.09105   -11975.802    4.2500862    4.2500862    4.2500862   -11975.802    -12592.71   -15595.445   -7739.2506    1374.4132   -1546.9536    -6426.017    76.770296 
   78300    576.77994   -161.60903   0.52188261   -161.08715   -4806.8181     4.242241     4.242241     4.242241   -4806.8181    10315.329   -8721.3303   -16014.453   -3593.5432   -1083.7162    3109.6935    76.345949 
   78400    696.10681   -161.71502   0.62985207   -161.08517   -8936.1169    4.2400003    4.2400003    4.2400003   -8936.1169   -7839.5585   -15630.275   -3338.5175   -7952.3014   -4153.7527    9813.3764    76.225042 
   78500    611.66574   -161.63759   0.55344802   -161.08414   -13150.778    4.2467758    4.2467758    4.2467758   -13150.778   -14619.341     3943.178    -28776.17    2126.3681    391.17031   -5496.0524    76.591048 
   78600    597.58285   -161.62231   0.54070552   -161.08161   -1122.7212    4.2424025    4.2424025    4.2424025   -1122.7212    2821.4061   -4545.1366   -1644.4331    3387.1435    11350.438    34.610454    76.354671 
   78700    564.18059   -161.59851   0.51048245   -161.08802   -3755.3963    4.2475239    4.2475239    4.2475239   -3755.3963    15477.799   -7742.4282    -19001.56    1136.4942    8675.2412   -7826.8552     76.63153 
   78800    260.64032   -161.32659   0.23583284   -161.09076    21091.024     4.243487     4.243487     4.243487    21091.024    38819.498    7802.5048    16651.069    9389.4898    12003.023   -16089.448    76.413243 
   78900    619.26206   -161.65061   0.56032133   -161.09029    6842.4601     4.234363     4.234363     4.234363    6842.4601    7911.2591    10665.469    1950.6527    9099.9705      14347.3   -169.11656    75.921409 
   79000    510.12934   -161.55377   0.46157575   -161.09219    -3178.472    4.2380638    4.2380638    4.2380638    -3178.472   -9906.9698    16903.978   -16532.425   -4179.8202    18783.449   -9353.7011    76.120644 
   79100    444.17396    -161.4912   0.40189794    -161.0893    5533.8935    4.2405762    4.2405762    4.2405762    5533.8935    14041.734    9056.3241   -6496.3776   -4068.6879    12636.739    1585.7935    76.256107 
   79200    802.50036   -161.81143   0.72611919   -161.08531   -22408.633    4.2475674    4.2475674    4.2475674   -22408.633   -5343.8573   -21749.982   -40132.059   -567.38466    5352.3143    639.88935    76.633882 
   79300    404.83821   -161.45218   0.36630612   -161.08587    6958.2025    4.2399522    4.2399522    4.2399522    6958.2025    9305.9946    1022.3032     10546.31   -8243.9051    6792.8243   -8346.5512    76.222447 
   79400    640.70711   -161.66555   0.57972526   -161.08583   -3255.1293    4.2359553    4.2359553    4.2359553   -3255.1293    -2274.668    -2751.766   -4738.9539   -1907.2003    5124.9712    2098.7175    76.007091 
   79500     708.9339   -161.72987   0.64145829   -161.08841   -8904.5693    4.2368178    4.2368178    4.2368178   -8904.5693   -14903.244    1475.2635   -13285.728    7072.2479    4785.5453   -2173.0366    76.053528 
   79600     323.2278   -161.38523   0.29246331   -161.09276    12845.288    4.2396074    4.2396074    4.2396074    12845.288    24911.176    10555.509    3069.1793    3158.4287    5935.3823   -3477.8527     76.20385 
   79700    672.33429   -161.70124    0.6083422    -161.0929   -13448.026    4.2479033    4.2479033    4.2479033   -13448.026   -3281.0219   -13369.118   -23693.937    1495.5043    8458.1585    2383.8595    76.652068 
   79800    326.35414   -161.38779   0.29529208   -161.09249    13418.372    4.2438928    4.2438928    4.2438928    13418.372     16513.75    11509.379    12231.986    5072.3746    5498.9494   -11129.713    76.435168 
   79900    394.02966   -161.44937   0.35652631   -161.09285    17397.408    4.2407017    4.2407017    4.2407017    17397.408    42430.561    5528.1768    4233.4855    4541.3246     7992.141   -10183.036    76.262875 
   80000    618.11003   -161.65062   0.55927894   -161.09134   -3457.6709    4.2411212    4.2411212    4.2411212   -3457.6709    2430.4954   -14488.069    1684.5609    2168.7226    9903.1691   -133.48743    76.285507 
   80100    500.81168   -161.54284   0.45314494   -161.08969   -1337.1332    4.2393273    4.2393273    4.2393273   -1337.1332    3725.1775   -5179.0373   -2557.5397   -2111.2328    7269.2009    1680.1571    76.188749 
   80200    667.83483    -161.6911   0.60427099   -161.08683   -20607.584    4.2467396    4.2467396    4.2467396   -20607.584    -18375.61   -10742.818   -32704.324    2226.6148   -61.883734    1132.7964    76.589089 
   80300    655.07796   -161.67888    0.5927283   -161.08615   -484.64686    4.2444613    4.2444613    4.2444613   -484.64686   -4561.4926    6871.8455   -3764.2935   -4091.1894   -1846.6769    5187.4351    76.465885 
   80400    691.41461   -161.71275   0.62560647   -161.08714   -11739.316    4.2503324    4.2503324    4.2503324   -11739.316    520.85276    5756.7122   -41495.513   -125.82097   -1697.5987    4760.1074     76.78364 
   80500    657.59113    -161.6829   0.59500228    -161.0879   -1458.0665    4.2417038    4.2417038    4.2417038   -1458.0665   -3744.2337   -2049.1148    1419.1492     4128.598   -2933.8656    6080.7711     76.31695 
   80600    511.12313   -161.55732   0.46247495   -161.09484    6317.4459    4.2398953    4.2398953    4.2398953    6317.4459    10718.981    18355.091   -10121.734   -1779.2178    1890.7893   -1178.6386    76.219377 
   80700    663.43442    -161.6941   0.60028941   -161.09381   -6502.1592    4.2454836    4.2454836    4.2454836   -6502.1592   -6872.5512   -9134.6774   -3499.2489    7985.6186    6659.8576   -158.53118    76.521155 
   80800    544.94804   -161.58486   0.49308044   -161.09178    7504.2184    4.2373325    4.2373325    4.2373325    7504.2184    12581.643    23326.473   -13395.461     2565.817    -2858.634    9485.8598    76.081248 
   80900    622.69023   -161.65323   0.56342321   -161.08981   -5565.0295    4.2424252    4.2424252    4.2424252   -5565.0295    7533.6801    1993.3889   -26222.158     1302.895   -4656.8992   -6848.2055    76.355896 
   81000    711.54908   -161.73281   0.64382457   -161.08898   -2705.4813     4.235364     4.235364     4.235364   -2705.4813   -1242.5597    11637.231   -18511.116    3020.9603   -4697.2875    -5604.088    75.975267 
   81100    752.83149   -161.77091   0.68117775   -161.08973   -13747.158     4.243228     4.243228     4.243228   -13747.158    -19487.06   -199.65792   -21554.755    4588.1461   -8151.5441    5939.7675    76.399253 
   81200     573.3637   -161.61115   0.51879153   -161.09236   -4419.1456    4.2449675    4.2449675    4.2449675   -4419.1456    -22259.43    13033.705   -4031.7126   -38.133586   -1710.3735   -4169.9597    76.493247 
   81300    685.78345   -161.71338   0.62051127   -161.09287   -12875.928    4.2468098    4.2468098    4.2468098   -12875.928   -13143.292    12211.536    -37696.03    143.79358   -1682.5776    3494.0864    76.592884 
   81400    638.33314   -161.66978   0.57757724    -161.0922    8296.3993    4.2333149    4.2333149    4.2333149    8296.3993    28377.761   -113.27077   -3375.2923   -1189.7852   -4456.1205   -9118.9444    75.865043 
   81500    600.09419   -161.63283   0.54297783   -161.08985    6109.2674    4.2291302    4.2291302    4.2291302    6109.2674    27402.526    9902.5625   -18977.286    1684.8462   -6129.0491   -5754.5977    75.640288 
   81600    514.64161   -161.55563   0.46565854   -161.08997   -1726.2028     4.243442     4.243442     4.243442   -1726.2028    11513.092   -26030.989    9339.2886    5507.2124   -2408.2207    3331.9027    76.410814 
   81700     541.2056   -161.58008    0.4896942   -161.09039    3492.7783    4.2441314    4.2441314    4.2441314    3492.7783    4138.5484    1125.0744     5214.712     1565.184    273.09983   -9864.5154    76.448062 
   81800    582.48175   -161.61443   0.52704173   -161.08739   -957.81889    4.2463492    4.2463492    4.2463492   -957.81889    4779.8932     5548.237   -13201.587     2501.286    3324.5399    6220.0172    76.567968 
   81900    570.50345   -161.60414   0.51620351   -161.08794    14059.888     4.230481     4.230481     4.230481    14059.888    39317.068   -5682.9854    8545.5811   -2939.0029    -2102.972    3716.8623    75.712788 
   82000    548.01078   -161.58644   0.49585167   -161.09059   -2272.7571    4.2278908    4.2278908    4.2278908   -2272.7571    9150.4913    693.28962   -16662.052    3875.2655   -3873.9611   -13738.454    75.573807 
   82100    445.41665   -161.49483   0.40302235   -161.09181   -7502.9501    4.2380094    4.2380094    4.2380094   -7502.9501    -24921.87   -9122.7487    11535.769    4767.4516   -3417.5446    -2088.754    76.117715 
   82200    734.79658   -161.75532   0.66485938   -161.09046   -14437.189     4.246661     4.246661     4.246661   -14437.189   -25837.318   -7209.3948   -10264.854    3146.2022    3448.0952    733.09725    76.584836 
   82300    405.30071   -161.45593    0.3667246    -161.0892     5931.324    4.2452805    4.2452805    4.2452805     5931.324    15158.496    9489.7126   -6854.2364     6566.944   -3940.1317    5771.8971    76.510172 
   82400    697.24882    -161.7174   0.63088539   -161.08651   -3605.8718    4.2338237    4.2338237    4.2338237   -3605.8718    10374.901    -2991.073   -18201.444    9921.3327    4328.8058    1326.9333    75.892405 
   82500    611.06649   -161.64302    0.5529058   -161.09011   -4195.1027    4.2362665    4.2362665    4.2362665   -4195.1027   -2555.0126   -7788.9885    -2241.307    9354.5291    8354.8313   -3879.4707    76.023843 
   82600    483.49537   -161.52629   0.43747677   -161.08881    687.41432    4.2427436    4.2427436    4.2427436    687.41432    -1229.212   -6605.9502    9897.4052    1915.7492   -4539.7371    4430.3065    76.373088 
   82700    708.05925   -161.72565   0.64066689   -161.08498   -4094.0331    4.2460236    4.2460236    4.2460236   -4094.0331    12836.252    -26086.63    968.27908    2087.9908   -2176.5736   -3252.5918    76.550355 
   82800    487.67146   -161.52673   0.44125538   -161.08548    9366.6695    4.2430907    4.2430907    4.2430907    9366.6695    44541.373   -19606.143    3164.7782    29.271473   -393.82602      864.042    76.391838 
   82900    686.74572    -161.7052   0.62138196   -161.08382   -6340.4071    4.2356537    4.2356537    4.2356537   -6340.4071    24425.889   -16494.745   -26952.365   -5502.1684      4248.27    15635.482    75.990855 
   83000    440.46217   -161.48615   0.39853943   -161.08761    10489.901     4.238133     4.238133     4.238133    10489.901    24266.283    112.20457    7091.2164    3663.4966   -2037.3837    4144.4426    76.124374 
   83100    520.41477   -161.55962   0.47088222   -161.08874    2191.4248    4.2456983    4.2456983    4.2456983    2191.4248    -3223.682   -1357.2885    11155.245   -1255.0253   -590.40988    937.39097    76.532762 
   83200      696.103   -161.72112   0.62984862   -161.09127   -5093.3022     4.246471     4.246471     4.246471   -5093.3022    1768.0418   -3535.4672   -13512.481   -6014.5705    4176.6287    1262.9747    76.574558 
   83300    498.48895   -161.54718   0.45104327   -161.09613    2012.1584    4.2416799    4.2416799    4.2416799    2012.1584     19843.17   -12187.606   -1619.0884    800.36268   -2889.5787   -2359.8546     76.31566 
   83400    604.87888   -161.64027   0.54730712   -161.09296   -23936.366    4.2358088    4.2358088    4.2358088   -23936.366   -17041.128   -25288.707   -29479.263    753.44125    13004.476    3329.9186    75.999205 
   83500    537.90085   -161.57646   0.48670399   -161.08975   -5695.2521    4.2324489    4.2324489    4.2324489   -5695.2521   -16783.364   -8904.6247    8602.2321     2286.238    4461.2831    1007.9513    75.818496 
   83600    578.95028   -161.61485   0.52384638     -161.091    5233.2888    4.2445281    4.2445281    4.2445281    5233.2888    2860.0866   -6531.9781    19371.758   -2160.2825    919.75545    3240.2494    76.469497 
   83700    343.34555   -161.39915   0.31066627   -161.08849    10918.845    4.2503851    4.2503851    4.2503851    10918.845    26305.039    9946.3778   -3494.8825   -7860.0923    3884.7903    1199.1273    76.786493 
   83800     592.8558   -161.62171   0.53642839   -161.08528   -5106.8542    4.2359608    4.2359608    4.2359608   -5106.8542   -19586.933    5025.4704   -759.10031   -14844.993     10107.51    5185.1217    76.007388 
   83900    474.49396   -161.52138   0.42933211   -161.09205   -10595.223    4.2333327    4.2333327    4.2333327   -10595.223   -17197.185    2963.6606   -17552.145   -8133.2705    21513.476      8391.03    75.866004 
   84000    554.73311   -161.59401   0.50193418   -161.09207    8446.1164    4.2347101    4.2347101    4.2347101    8446.1164    13115.322     7370.519    4852.5081   -8807.7815    1755.9456   -4051.1276    75.940082 
   84100    611.89938   -161.64336   0.55365942    -161.0897    4261.0685    4.2438521    4.2438521    4.2438521    4261.0685    28673.631   -17809.456     1919.031   -7027.7103    8425.3532    2178.4378    76.432967 
   84200    500.58747   -161.54335   0.45294206   -161.09041    5169.0973    4.2442381    4.2442381    4.2442381    5169.0973    14925.795    4931.7377   -4350.2405   -6713.3036    3141.5075    2668.5083    76.453825 
   84300     640.7873   -161.66785   0.57979782   -161.08805   -11700.155    4.2351391    4.2351391    4.2351391   -11700.155    -3828.149   -10590.006   -20682.311   -10345.184    2590.9459   -7787.2591     75.96316 
   84400    617.78697   -161.64822   0.55898663   -161.08923   -2605.1464    4.2295898    4.2295898    4.2295898   -2605.1464    9418.7037   -5054.3261   -12179.817    -1026.367    6143.6117    10365.721    75.664951 
   84500    494.36253   -161.54003    0.4473096   -161.09272    6834.0314    4.2402794    4.2402794    4.2402794    6834.0314    19106.188   -3589.8263    4985.7319    3309.1735    324.83988   -3984.4981    76.240092 
   84600    589.34737   -161.62295   0.53325389   -161.08969    1193.2848      4.24699      4.24699      4.24699    1193.2848    16270.274   -19139.466    6449.0465    4778.9284    4471.5378    2212.8292    76.602636 
   84700    618.04202   -161.64755   0.55921741   -161.08834     2227.629    4.2401596    4.2401596    4.2401596     2227.629    -507.1702    13844.915   -6654.8581    1559.1694    1940.5446   -1453.7041     76.23363 
   84800    570.72105   -161.60526    0.5164004   -161.08886   -3245.7514    4.2319797    4.2319797    4.2319797   -3245.7514    2773.6085    4312.9352   -16823.798   -5336.4428   -2721.2593   -7359.3143    75.793283 
   84900    726.24478   -161.74652   0.65712154   -161.08939   -5141.1973    4.2340751    4.2340751    4.2340751   -5141.1973   -1949.7479    679.99631    -14153.84   -5083.5187    347.04682     9269.662    75.905926 
   85000    507.97636   -161.55069   0.45962768   -161.09106    2047.6629    4.2460117    4.2460117    4.2460117    2047.6629    30590.313   -4598.7005   -19848.624   -6720.5431    6147.0088   -2968.7622    76.549714 
   85100    766.59148   -161.78208   0.69362808   -161.08845   -12334.357    4.2463663    4.2463663    4.2463663   -12334.357   -13684.633   -24746.633    1428.1956   -4071.3448   -1020.8913   -2131.0692    76.568893 
   85200    655.86188   -161.68258   0.59343761   -161.08914   -5480.6007    4.2305436    4.2305436    4.2305436   -5480.6007    -5093.897   -7246.2642   -4101.6407   -8803.5451    15257.531    4860.3849     75.71615 
   85300    639.78475    -161.6668   0.57889068   -161.08791    9599.9499     4.221706     4.221706     4.221706    9599.9499    19634.894    6713.0799    2451.8759   -4390.2132    14702.109   -13906.425     75.24263 
   85400     718.7707   -161.74061   0.65035883   -161.09025    1129.5128    4.2384904    4.2384904    4.2384904    1129.5128    36249.178   -21786.471   -11074.168    -1084.493    4146.0763   -2355.7121    76.143638 
   85500    839.15176   -161.84854   0.75928215   -161.08926    -18755.31    4.2479986    4.2479986    4.2479986    -18755.31   -4865.1639   -25505.169   -25895.596   -4659.9713    8645.8197    3529.7418    76.657223 
   85600     579.3455   -161.61771   0.52420398    -161.0935   -8449.1894    4.2424632    4.2424632    4.2424632   -8449.1894   -5634.5436   -841.67077   -18871.354   -3102.8423    5424.9897   -3319.4285     76.35795 
   85700    898.94536   -161.90283   0.81338465   -161.08944   -3809.7682    4.2282657    4.2282657    4.2282657   -3809.7682   -3761.1661      1239.08   -8907.2186    4782.7861    3276.0224    2080.5634    75.593912 
   85800     692.2015   -161.71468   0.62631847   -161.08836    18489.944    4.2253447    4.2253447    4.2253447    18489.944    35956.393    16780.096    2733.3434    3358.5021    7013.1406    5306.7791     75.43735 
   85900    703.64786   -161.72627   0.63667538   -161.08959   -2149.8375    4.2424165    4.2424165    4.2424165   -2149.8375    19291.496   -12044.261   -13696.747    2039.4589   -1222.3932   -2349.1837    76.355427 
   86000    795.69298   -161.80697   0.71995973   -161.08701   -21667.036    4.2500017    4.2500017    4.2500017   -21667.036   -31933.297   -11222.645   -21845.166    3195.4571    4787.9374    6373.1113     76.76572 
   86100    616.10764    -161.6461   0.55746714   -161.08864    -13406.82     4.241788     4.241788     4.241788    -13406.82   -17042.806    2990.4334   -26168.088    6047.3933   -2271.5479   -4837.8917    76.321496 
   86200    779.83828   -161.79289   0.70561406   -161.08727   -1164.3793     4.227385     4.227385     4.227385   -1164.3793   -2701.1911   -336.39988   -455.54677    1535.0498   -4305.2148    2164.4592    75.546682 
   86300    665.56716   -161.68987   0.60221915   -161.08765    16390.703     4.226867     4.226867     4.226867    16390.703    39733.981    13316.287   -3878.1592   -332.04358    188.82454   -937.70388    75.518917 
   86400    699.30424   -161.72333   0.63274517   -161.09058   -6007.0193    4.2446467    4.2446467    4.2446467   -6007.0193    11699.235   -17112.639   -12607.654    7043.5937   -2530.6888   -3856.7357     76.47591 
   86500    543.07154   -161.58307   0.49138254   -161.09168    -9403.718    4.2488457    4.2488457    4.2488457    -9403.718   -29289.215    17180.659   -16102.599   -7188.8209     1668.706    5878.6714    76.703095 
   86600    590.52034   -161.62773   0.53431521   -161.09342   -7887.1916    4.2327093    4.2327093    4.2327093   -7887.1916   -19162.166    14077.926   -18577.335    2290.7078   -10793.238   -8166.7894     75.83249 
   86700    545.98832   -161.58722   0.49402171    -161.0932    9072.4571    4.2199669    4.2199669    4.2199669    9072.4571    10780.322     6286.384    10150.665    6441.7705   -1516.4574    9401.9917    75.149678 
   86800    589.68587   -161.62702   0.53356017   -161.09346    7345.8861    4.2280382    4.2280382    4.2280382    7345.8861    24517.812    2966.1405   -5446.2942   -5658.8064      5108.28    1255.5276    75.581711 
   86900    513.04468   -161.55713   0.46421361   -161.09292   -2592.1008    4.2425459    4.2425459    4.2425459   -2592.1008   -7922.3116    3371.1908   -3225.1817    3192.4064     7311.985   -525.37288    76.362414 
   87000    602.73721   -161.63585    0.5453693   -161.09048   -7668.6713    4.2468766    4.2468766    4.2468766   -7668.6713   -25804.058    26261.413   -23463.369   -1304.3978    2177.6491    2347.0514    76.596501 
   87100    483.52637   -161.52895   0.43750482   -161.09145    1572.7807     4.238455     4.238455     4.238455    1572.7807     -14589.2    5203.7419      14103.8    1789.5381   -934.92569    634.46241     76.14173 
   87200    638.57013   -161.66993   0.57779167   -161.09214    5111.5344    4.2282146    4.2282146    4.2282146    5111.5344    5204.4043     7662.022     2468.177     8504.071   -836.73198   -2497.7042    75.591169 
   87300    408.10438    -161.4652   0.36926142   -161.09594    9175.8486    4.2363768    4.2363768    4.2363768    9175.8486    3579.9073    6845.8222    17101.816    4551.3367    3746.0312    -9835.224    76.029783 
   87400    672.40156   -161.69905   0.60840306   -161.09065   -7984.1931    4.2448305    4.2448305    4.2448305   -7984.1931   -17329.568    7712.4334   -14335.445    7053.9526    8324.1569    2718.7872    76.485841 
   87500    446.08813   -161.49342   0.40362991   -161.08979    6565.4977    4.2426416    4.2426416    4.2426416    6565.4977   -17644.048     34586.94    2753.6016    1534.9533    -3797.355   -354.56171    76.367579 
   87600    587.50899   -161.61859   0.53159048     -161.087   -2274.9887    4.2392367    4.2392367    4.2392367   -2274.9887   -11944.597   -7629.4092     12749.04    9318.8784      1980.07   -4852.1899    76.183866 
   87700    720.37474   -161.73752   0.65181021   -161.08571   -3755.2933    4.2312068    4.2312068    4.2312068   -3755.2933   -10680.261    -8019.697    7434.0782    15904.579    4855.6342   -451.91084    75.751764 
   87800    598.15754   -161.63369   0.54122551   -161.09247   -349.98931    4.2390637    4.2390637    4.2390637   -349.98931   -5313.7422   -12038.046    16301.821    1743.0139   -3468.7741   -2254.2277    76.174536 
   87900    779.21738   -161.79756   0.70505226   -161.09251   -14076.854    4.2475129    4.2475129    4.2475129   -14076.854   -14306.615   -16098.047   -11825.899    7650.1367    -92.82276   -1153.5982    76.630932 
   88000    514.56766   -161.55672   0.46559163   -161.09113    6952.8614    4.2408258    4.2408258    4.2408258    6952.8614   -2533.9645    6004.2862    17388.263    4673.6916   -1899.4716   -2945.6087    76.269572 
   88100    874.61984   -161.87921   0.79137441   -161.08783   -5723.6873    4.2315638    4.2315638    4.2315638   -5723.6873   -12193.605   -8705.6028     3728.146     1228.975   -1207.3527    6417.3972    75.770939 
   88200    553.85835    -161.5905   0.50114267   -161.08936    1017.9686    4.2220056    4.2220056    4.2220056    1017.9686   -19596.611   -1970.0447    24620.561    16845.056   -2731.2332   -5815.2778    75.258649 
   88300    773.20558    -161.7905   0.69961266   -161.09089   -17469.213    4.2385344    4.2385344    4.2385344   -17469.213   -29362.995   -20338.673   -2705.9709     5852.178    642.35746   -3650.7069    76.146005 
   88400     575.8215   -161.61416   0.52101539   -161.09315    4184.8043    4.2464192    4.2464192    4.2464192    4184.8043   -25892.726   -7601.1837    46048.322   -2177.2591   -6602.4813   -4533.5396    76.571755 
   88500    521.20998   -161.56388   0.47160174   -161.09228    13010.893    4.2408047    4.2408047    4.2408047    13010.893    2113.0014    10367.219    26552.459    7397.7345   -6891.5523   -2581.7343    76.268433 
   88600    700.15039    -161.7226   0.63351078   -161.08909   -10102.621    4.2304133    4.2304133    4.2304133   -10102.621    -16088.29    7779.6758   -21999.247   -2799.5072   -12989.433    721.03993    75.709156 
   88700    374.20843   -161.42825   0.33859165   -161.08966   -533.00081    4.2246669    4.2246669    4.2246669   -533.00081   -16830.437    19644.582   -4413.1478    3626.6212   -31450.574    2850.9185    75.401054 
   88800    727.08604    -161.7464   0.65788273   -161.08852   -11789.127     4.238144     4.238144     4.238144   -11789.127   -24514.302    -16005.35    5152.2709    3596.4783   -10000.049    1645.0495    76.124967 
   88900    611.98839   -161.64305   0.55373996   -161.08931    3308.7024    4.2464397    4.2464397    4.2464397    3308.7024   -13380.025   -19009.349    42315.481   -3620.4826   -8626.2764    -1945.626    76.572864 
   89000    448.96984   -161.49257   0.40623734   -161.08633    16046.427     4.239308     4.239308     4.239308    16046.427    29494.751    3438.5143    15206.017    2994.0292   -9327.9833   -6022.6593    76.187707 
   89100    590.48746   -161.61903   0.53428547   -161.08474    -3823.548      4.23293      4.23293      4.23293    -3823.548   -5342.8338    8843.6903     -14971.5     3334.351   -10789.489    2614.1045    75.844353 
   89200    366.27651   -161.41964   0.33141469   -161.08823    289.91096    4.2322828    4.2322828    4.2322828    289.91096   -16414.312    16832.492    451.55282    326.08358   -35054.068    5556.0259    75.809574 
   89300    485.28943   -161.52759   0.43910007   -161.08849    -3851.748    4.2391756    4.2391756    4.2391756    -3851.748   -18504.729    -6146.201    13095.686    740.50184   -9235.4029    9015.3179    76.180573 
   89400    587.76576   -161.61988   0.53182281   -161.08806    496.95657    4.2447923    4.2447923    4.2447923    496.95657   -3725.4832   -20782.391    25998.743    1732.1948   -13109.663    3185.3122     76.48378 
   89500    482.83183   -161.52858   0.43687639   -161.09171    8088.8255    4.2404482    4.2404482    4.2404482    8088.8255    23013.918   -8222.1124    9474.6706    5942.0653    -4313.677    3790.6154    76.249202 
   89600    357.68425   -161.41885   0.32364023   -161.09521    5817.1064     4.233921     4.233921     4.233921    5817.1064   -5110.2954    1940.5402    20621.074    8659.5679    4737.8203   -3791.8088    75.897635 
   89700    561.89308   -161.60039   0.50841267   -161.09198    424.85915    4.2306185    4.2306185    4.2306185    424.85915   -11589.274    2198.9681    10664.883    2195.3416   -20176.201    1105.3627     75.72017 
   89800    382.07901   -161.43848   0.34571312   -161.09277    1308.3467    4.2427571    4.2427571    4.2427571    1308.3467   -28111.276   -6864.4558    38900.772    500.54015    6227.3172   -732.46041    76.373821 
   89900    582.07969   -161.61999   0.52667794   -161.09332    2898.1676    4.2424751    4.2424751    4.2424751    2898.1676   -6692.6212   -15165.558    30552.683   -1072.7569   -702.63493   -3484.9911    76.358589 
   90000    652.12856   -161.68602   0.59005962   -161.09596   -140.84223    4.2398904    4.2398904    4.2398904   -140.84223    933.70222   -11357.455    10001.226   -3149.8925    1522.0659     5197.435    76.219115 
   90100    532.35947   -161.57748   0.48169003   -161.09579   -3804.4671    4.2427966    4.2427966    4.2427966   -3804.4671   -3276.9152   -7287.4679   -849.01799   -2919.1422    5309.1503    4190.9554    76.375951 
   90200    646.81312   -161.67446    0.5852501   -161.08921    5732.7079     4.232913     4.232913     4.232913    5732.7079    3890.3531    3836.1249    9471.6455   -8074.1531   -3184.4599     2113.407     75.84344 
   90300    591.84903   -161.62365   0.53551744   -161.08814   -165.38477    4.2365309    4.2365309    4.2365309   -165.38477   -16188.623   -8400.1241    24092.593    627.45948    8423.6481    11275.154    76.038077 
   90400    822.53233   -161.83252   0.74424454   -161.08827   -18101.774    4.2421597    4.2421597    4.2421597   -18101.774   -18233.027   -27034.758   -9037.5369    3804.8125    956.24501    6848.9785    76.341564 
   90500    746.33109    -161.7723   0.67529605     -161.097   -12585.348    4.2410444    4.2410444    4.2410444   -12585.348   -2853.9677   -23250.184   -11651.893   -495.89855    3097.5244    6591.2158    76.281364 
   90600    678.23455   -161.70952   0.61368087   -161.09584    909.24109    4.2376954    4.2376954    4.2376954    909.24109    11276.675   -2889.7564   -5659.1953     2394.423    9016.8335    3555.3375    76.100797 
   90700    844.62507   -161.85698   0.76423451   -161.09275    10773.124    4.2309186    4.2309186    4.2309186    10773.124    13790.194    8053.8471     10475.33    828.13188   -2980.7465    1414.5287    75.736287 
   90800    708.13145   -161.73465   0.64073222   -161.09392   -2869.8824    4.2390627    4.2390627    4.2390627   -2869.8824    981.41587   -11538.524    1947.4608   -5202.4768    11330.541     2624.749    76.174482 
   90900    875.28068   -161.87917   0.79197235   -161.08719    -21252.06    4.2414195    4.2414195    4.2414195    -21252.06    -17951.38   -26102.354   -19702.445   -2678.4865    1109.7073    7872.8841    76.301608 
   91000    659.91878   -161.68556   0.59710838   -161.08845   -8403.7433     4.245442     4.245442     4.245442   -8403.7433    10925.346   -33690.766   -2445.8104   -2543.3528   -3341.0989    85.845697    76.518905 
   91100    764.57642   -161.77972   0.69180482   -161.08792   -14162.166    4.2436054    4.2436054    4.2436054   -14162.166    -12844.63   -20737.346   -8904.5236   -1161.2478    2411.2354   -1771.8521    76.419639 
   91200    759.47763   -161.77222   0.68719132   -161.08503    11637.737    4.2246697    4.2246697    4.2246697    11637.737    1801.7116   -3402.5754    36514.076    97.904048   -8507.2758    4836.5352    75.401202 
   91300    660.44413   -161.68565   0.59758373   -161.08807    5694.6823    4.2313867    4.2313867    4.2313867    5694.6823   -6067.4638   -2292.5503    25444.061    670.77383    3951.8828   -3297.8269    75.761425 
   91400    811.61726   -161.82157   0.73436835    -161.0872   -11946.127     4.238713     4.238713     4.238713   -11946.127   -12949.568   -17199.363   -5689.4504    1005.3819    6439.4081   -5918.1438    76.155633 
   91500    612.21792    -161.6475   0.55394764   -161.09355   -1154.4777    4.2424684    4.2424684    4.2424684   -1154.4777    2366.8448   -24434.049    18603.771    554.00673    6799.0935    6377.3624    76.358232 
   91600     565.4367   -161.61219   0.51161901   -161.10057    6926.0354    4.2410122    4.2410122    4.2410122    6926.0354   -15567.106   -19523.789    55869.001    3433.6583    5771.7429   -1208.8235    76.279629 
   91700    535.32987   -161.58791   0.48437772   -161.10353   -1086.8692    4.2372007    4.2372007    4.2372007   -1086.8692   -10410.258   -22194.017    29343.667     3878.849   -7877.3732    2356.4782    76.074149 
   91800     452.8933   -161.51181   0.40978737   -161.10203    -6184.948    4.2357415    4.2357415    4.2357415    -6184.948    3395.8686    -21772.52   -178.19253    3107.5307    6452.5088   -13297.698     75.99558 
   91900    671.78386   -161.70315   0.60784415    -161.0953    7761.5447    4.2326195    4.2326195    4.2326195    7761.5447    5424.4975    479.64277    17380.494    664.07565    4587.1159   -2176.7064    75.827665 
   92000    462.14868   -161.51146   0.41816184    -161.0933    18325.172    4.2405481    4.2405481    4.2405481    18325.172    1823.1706   -131.50709    53283.852   -2225.8322    3729.2111    1205.6644    76.254589 
   92100    595.27322   -161.62806   0.53861572   -161.08945   -152.23252    4.2381538    4.2381538    4.2381538   -152.23252   -20703.026   -1918.2579    22164.586   -4109.9364   -3562.1718   -4166.1052    76.125498 
   92200    543.90623    -161.5797   0.49213779   -161.08756   -9772.3461    4.2334954    4.2334954    4.2334954   -9772.3461   -22655.561   -7937.0663    1275.5888    9158.1828   -13178.206   -4748.8108     75.87475 
   92300    397.50952   -161.45042   0.35967497   -161.09074    1896.2688    4.2316911    4.2316911    4.2316911    1896.2688   -6426.4647   -13562.066    25677.338    8406.9737   -6326.7992   -5691.3216    75.777781 
   92400    551.79727   -161.59532   0.49927777   -161.09605    14750.997    4.2331834    4.2331834    4.2331834    14750.997    4221.5988   -564.02596    40595.418    2105.0465   -10149.821   -4621.9446    75.857974 
   92500    363.65292   -161.43115   0.32904081   -161.10211    7979.1165      4.24556      4.24556      4.24556    7979.1165    4094.0376   -11664.185    31507.497    2048.3338   -161.47278   -2970.9981    76.525283 
   92600    677.91484   -161.71178   0.61339159   -161.09839   -14654.683    4.2388596    4.2388596    4.2388596   -14654.683   -30135.341   -8009.6519   -5819.0542    2166.1864   -8576.6342   -7664.6632    76.163535 
   92700    174.72196    -161.2547    0.1580921   -161.09661    11299.918    4.2277946    4.2277946    4.2277946    11299.918   -7045.5063    16258.616    24686.645    10566.014   -6909.3889   -9026.4477    75.568645 
   92800    566.48503   -161.60404   0.51256756   -161.09147   -2522.0967      4.23143      4.23143      4.23143   -2522.0967   -21109.507    6462.6026    7080.6137    4113.3684   -6840.8719    -12050.41    75.763752 
   92900    438.05641   -161.48891   0.39636265   -161.09255    17083.432     4.234345     4.234345     4.234345    17083.432    11332.035    442.89355    39475.367    105.93789   -4699.2193   -997.99174    75.920442 
   93000    373.62705   -161.43244   0.33806561   -161.09438    2519.7688    4.2462195    4.2462195    4.2462195    2519.7688    8657.2394    -16404.78    15306.847   -436.46325     690.4544   -2575.1128    76.560949 
   93100    675.45034   -161.70134   0.61116166   -161.09018   -13506.266    4.2395107    4.2395107    4.2395107   -13506.266   -18598.406   -7964.5503   -13955.843    2539.2342    -4649.587   -11383.127    76.198638 
   93200    234.43329   -161.30932   0.21212017    -161.0972    13286.434    4.2273557    4.2273557    4.2273557    13286.434   -4907.9771    24840.596    19926.683    7165.6134   -5805.1633    -2375.574    75.545112 
   93300    519.20356   -161.56903   0.46978629   -161.09925   -5790.5365    4.2314227    4.2314227    4.2314227   -5790.5365   -23834.872    -3435.761    9899.0236    6911.3009    -10440.11   -12144.298    75.763359 
   93400    350.77747   -161.41601   0.31739082   -161.09862    2601.3977    4.2319692    4.2319692    4.2319692    2601.3977    1394.2634   -25140.435    31550.364   -6023.9443   -6024.8893    4801.0857    75.792721 
   93500    568.47788   -161.61222   0.51437073   -161.09785   -8266.8548    4.2392157    4.2392157    4.2392157   -8266.8548    -666.8198   -13957.269   -10176.476    3606.5319    297.78006   -10280.603    76.182734 
   93600    271.15151   -161.34064   0.24534358   -161.09529    11765.341    4.2411934    4.2411934    4.2411934    11765.341   -2350.2365    12809.867    24836.392    2576.2486   -210.99496   -13524.788    76.289406 
   93700    538.00275   -161.57789   0.48679619    -161.0911    5187.6296    4.2341478    4.2341478    4.2341478    5187.6296   -14290.161    12862.114    16990.936    342.91649    1034.1002   -6044.7935    75.909835 
   93800    477.85437   -161.52403   0.43237267   -161.09166    388.34429    4.2299603    4.2299603    4.2299603    388.34429   -16536.333   -4534.9366    22236.302    6233.7183   -8628.6889   -2997.8148    75.684837 
   93900    439.72928   -161.49121    0.3978763   -161.09333    -4210.741    4.2316729    4.2316729    4.2316729    -4210.741    -15780.37   -16616.198    19764.345   -1002.9688   -6220.9537    592.62745    75.776802 
   94000    617.65197    -161.6538   0.55886448   -161.09493   -11238.991    4.2432378    4.2432378    4.2432378   -11238.991   -13452.576    -20530.17    265.77266    3352.0583    1917.3939    -7358.327    76.399783 
   94100    501.11614   -161.54746   0.45342042   -161.09404    1379.6978     4.243166     4.243166     4.243166    1379.6978   -13166.118    8676.8882     8628.323    2221.8944   -3818.4596   -4436.6266    76.395902 
   94200    546.42383   -161.58797   0.49441576   -161.09355    6420.5013    4.2363123    4.2363123    4.2363123    6420.5013    -7394.417     20219.17     6436.751   -78.457843    4836.1776   -7635.4118     76.02631 
   94300     649.7483   -161.68145   0.58790591   -161.09354   -13705.859     4.243135     4.243135     4.243135   -13705.859   -17350.982   -31161.812    7395.2171    9498.8155   -2543.4238      3848.69    76.394231 
   94400    723.97473   -161.74554   0.65506755   -161.09048   -11605.851    4.2373534    4.2373534    4.2373534   -11605.851   -20678.655   -19147.251    5008.3513   -1465.7046   -421.28775     625.1318    76.082375 
   94500    490.22682   -161.53728   0.44356753   -161.09371   -2576.4814    4.2433479    4.2433479    4.2433479   -2576.4814   -1655.9942   -20142.729     14069.28   -10444.745   -154.11186    1918.8598    76.405728 
   94600    821.95686    -161.8331   0.74372384   -161.08937   -18528.987    4.2463443    4.2463443    4.2463443   -18528.987   -25334.329   -6742.7115   -23509.919    1311.2403   -5719.7002   -4453.5054    76.567704 
   94700    425.30824   -161.47657   0.38482784   -161.09174    11332.947    4.2381405    4.2381405    4.2381405    11332.947   -514.03607    21832.969    12679.909   -1750.4309    11399.657     1740.401    76.124781 
   94800    759.81984   -161.78089   0.68750096   -161.09339   -19305.775    4.2457571    4.2457571    4.2457571   -19305.775   -34439.415   -12585.419   -10892.492   -4863.7132    4519.7618    -4310.535    76.535943 
   94900    672.82212   -161.70187    0.6087836   -161.09308   -9933.6194    4.2441597    4.2441597    4.2441597   -9933.6194   -15313.165   -21799.344    7311.6517   -1666.3846    7992.9175    1516.1231    76.449587 
   95000    707.93348   -161.73166   0.64055309   -161.09111   -23750.765    4.2411267    4.2411267    4.2411267   -23750.765   -19585.329   -37797.887   -13869.079   -13510.681    2355.4937   -5342.9144    76.285806 
   95100    657.87523   -161.68717   0.59525933   -161.09191   -2995.4506    4.2362255    4.2362255    4.2362255   -2995.4506    4178.4148   -14632.409    1467.6427    -6954.022   -2865.3427   -3445.8059    76.021635 
   95200    871.88422   -161.88009   0.78889916   -161.09119   -13021.034    4.2434728    4.2434728    4.2434728   -13021.034   -9248.3665   -18228.457   -11586.278    1863.5987    945.81839    416.63077    76.412473 
   95300    617.84552   -161.64774   0.55903961    -161.0887   -1964.5533    4.2409018    4.2409018    4.2409018   -1964.5533   -2834.4519    4177.3643   -7236.5723    -1946.988   -3202.7729   -2458.9477    76.273672 
   95400    798.95786   -161.81537   0.72291386   -161.09246   -9416.5551    4.2408384    4.2408384    4.2408384   -9416.5551   -10768.617   -13229.008   -4252.0399    1475.1236     9278.017    4888.1838    76.270253 
   95500     721.5114   -161.74424   0.65283867    -161.0914    -13816.07    4.2466948    4.2466948    4.2466948    -13816.07   -17975.686   -18451.584   -5020.9388   -4773.9987    1184.6271    5281.1608    76.586661 
   95600    698.12605   -161.72115   0.63167912   -161.08947   -6473.2182    4.2392632    4.2392632    4.2392632   -6473.2182    2804.4953   -18309.612   -3914.5375    3423.1316     1269.708    9423.0975    76.185293 
   95700    826.33511   -161.83799   0.74768537    -161.0903    -18798.08    4.2436747    4.2436747    4.2436747    -18798.08   -21109.432   -19740.732   -15544.077     3665.981   -685.80623    7592.0852     76.42338 
   95800    743.60331   -161.76425    0.6728279   -161.09142   -7414.1523    4.2388456    4.2388456    4.2388456   -7414.1523   -4775.6713   -14949.089   -2517.6965   -9566.5912   -2036.9337    3436.8708    76.162778 
   95900    657.03687   -161.68697   0.59450076   -161.09247    -2601.802    4.2376939    4.2376939    4.2376939    -2601.802   -10553.548    2082.7324    665.40939   -3486.3973     2879.135    8038.8788    76.100716 
   96000    691.64455   -161.71536   0.62581453   -161.08954   -8945.7657    4.2436754    4.2436754    4.2436754   -8945.7657   -4565.5199   -4233.0148   -18038.762    5791.6922   -6501.8864    7238.4897    76.423419 
   96100    666.26673   -161.69108   0.60285214   -161.08823   -18420.368    4.2423039    4.2423039    4.2423039   -18420.368    -24953.41   -21850.754   -8456.9383   -1731.2272     5046.209    12026.336    76.349349 
   96200    520.28682    -161.5644   0.47076645   -161.09363   -538.07863    4.2369665    4.2369665    4.2369665   -538.07863    -8825.266    7240.8605   -29.830421    99.159176   -1460.1438    509.52931    76.061533 
   96300    561.86212   -161.60287   0.50838465   -161.09449    8150.0378    4.2384988    4.2384988    4.2384988    8150.0378   -13347.303    10000.266     27797.15    6244.5289    801.62878    4568.1049    76.144091 
   96400    644.03077   -161.67769   0.58273258   -161.09496    1700.8418    4.2406976    4.2406976    4.2406976    1700.8418    74.887665     13590.51   -8562.8721    3677.7989    3667.8802    152.58461    76.262654 
   96500    319.12951   -161.38654   0.28875508   -161.09779    5182.1599    4.2360098    4.2360098    4.2360098    5182.1599    12847.785   -12512.056     15210.75    2306.1194    2157.9552    5266.7905    76.010022 
   96600      636.268   -161.67004   0.57570866   -161.09433   -4862.3277    4.2346688    4.2346688    4.2346688   -4862.3277     -9812.09   -10348.438    5573.5449    1843.4994    10281.173    6762.5954     75.93786 
   96700    249.34457   -161.31862   0.22561221     -161.093    17414.347    4.2405211    4.2405211    4.2405211    17414.347    -15207.99    16851.398    50599.632    537.18799    799.20031   -5010.4267    76.253132 
   96800    548.33166   -161.59233   0.49614201   -161.09619   -1171.0834     4.239791     4.239791     4.239791   -1171.0834   -28777.815    12094.934    13169.631    7044.6556    7576.8559   -2001.4311    76.213754 
   96900    412.28031   -161.46907   0.37303989   -161.09603    4217.0436    4.2344237    4.2344237    4.2344237    4217.0436   -2155.6701   -1075.0728    15881.874   -2034.4593    12559.019    1512.7603    75.924671 
   97000    550.28034   -161.59357   0.49790521   -161.09567    974.03115    4.2357761    4.2357761    4.2357761    974.03115     517.1515   -9229.3422    11634.284   -7516.5961    6049.2904    2971.7895    75.997442 
   97100    310.58762   -161.37632    0.2810262   -161.09529     14083.31    4.2457636    4.2457636    4.2457636     14083.31    10544.511   -12862.424    44567.843    4750.8856    9233.8042    6178.8971    76.536293 
   97200    480.12074   -161.52486   0.43442333   -161.09044     8508.643    4.2428039    4.2428039    4.2428039     8508.643   -21567.752    10268.404    36825.277    1859.6624    2502.0282    7650.2155    76.376349 
   97300    421.72647   -161.46974   0.38158697   -161.08815    4826.5599    4.2320173    4.2320173    4.2320173    4826.5599    -8065.941    7619.9827    14925.638   -5312.5602    17747.628    11494.912    75.795307 
   97400    500.30814   -161.54297   0.45268932   -161.09028   -7679.4525    4.2358883    4.2358883    4.2358883   -7679.4525   -15458.512   -7006.2962   -573.54918   -5918.3695    6378.3331    17509.488    76.003486 
   97500    531.67726    -161.5714   0.48107276   -161.09033   -3282.4984    4.2484843    4.2484843    4.2484843   -3282.4984   -11567.903   -21988.533    23708.941    4455.6478   -4621.6322    8645.6781     76.68352 
   97600    426.25241   -161.47906   0.38568214   -161.09338    17313.298    4.2440888    4.2440888    4.2440888    17313.298    2308.4273     3554.298    46077.168    2906.0948    3315.3556    16691.422    76.445758 
   97700    565.64775   -161.60484   0.51180998   -161.09303   -905.48246    4.2377085    4.2377085    4.2377085   -905.48246   -5037.5278    2907.1407    -586.0603    1558.0446   -4760.2484    13096.304    76.101506 
   97800     387.5163   -161.44446   0.35063289   -161.09383    1803.9527    4.2377165    4.2377165    4.2377165    1803.9527    16921.338   -3611.3342   -7898.1462    5741.9358    755.61367    10473.942    76.101935 
   97900     704.1344   -161.72718    0.6371156   -161.09007   -17940.643     4.247358     4.247358     4.247358   -17940.643   -16314.994   -26407.489   -11099.445    2818.1837   -2071.6858    8851.2167    76.622549 
   98000    439.16535   -161.48514   0.39736604   -161.08777    15662.291    4.2417975    4.2417975    4.2417975    15662.291    20744.181   -19243.804    45486.496   -4309.6353   -1424.9679    1360.2833     76.32201 
   98100    776.92182    -161.7893   0.70297519   -161.08633    -6661.696    4.2403466    4.2403466    4.2403466    -6661.696   -1951.4393   -10825.981   -7207.6677   -1048.9651   -3293.8529    2647.0625    76.243716 
   98200     505.4138   -161.54635   0.45730903   -161.08904   -503.10027    4.2408293    4.2408293    4.2408293   -503.10027    22353.428   -2179.1773   -21683.552   -4036.5112   -9261.1268   -2078.3291    76.269761 
   98300    766.83641   -161.78099    0.6938497   -161.08714   -13562.451    4.2442535    4.2442535    4.2442535   -13562.451   -7410.0227   -11584.459   -21692.873   -6845.2868     7419.322   -1918.4851    76.454658 
   98400    529.18208   -161.56903   0.47881507   -161.09022    -2047.678    4.2447568    4.2447568    4.2447568    -2047.678   -16774.909   -20719.678    31351.554    776.78198   -824.77204    547.94805    76.481859 
   98500    628.36266   -161.65887   0.56855574   -161.09032   -3941.8486    4.2326554    4.2326554    4.2326554   -3941.8486    1242.5355   -17221.776    4153.6944    9287.9224   -1286.3199    8284.4543    75.829594 
   98600    627.58319   -161.65706   0.56785046   -161.08921    -15234.88    4.2314516    4.2314516    4.2314516    -15234.88   -1065.8922   -20417.783   -24220.966     2927.016    5298.2897    12739.896    75.764914 
   98700    444.69208   -161.49278   0.40236674   -161.09041    1079.5802    4.2418043    4.2418043    4.2418043    1079.5802    24804.993    914.02921   -22480.282    1044.0748    10148.283    374.40269    76.322374 
   98800    667.80116   -161.69156   0.60424052   -161.08732   -6092.9046     4.248104     4.248104     4.248104   -6092.9046   -15791.732   -8737.4957    6250.5143    6374.2717    3009.1542    3800.3036    76.662933 
   98900    405.20901    -161.4529   0.36664163   -161.08626    8023.8126    4.2416463    4.2416463    4.2416463    8023.8126    4819.9362   -15185.066    34436.567    5053.0162   -3333.5882    -2397.076     76.31385 
   99000    555.20374   -161.59182   0.50236001   -161.08946   -7737.9706    4.2310175    4.2310175    4.2310175   -7737.9706   -17481.463   -4674.0693   -1058.3792     5157.472        13757    4177.9405    75.741596 
   99100    416.08179   -161.46762   0.37647955   -161.09114    3888.7767    4.2339288    4.2339288    4.2339288    3888.7767    12188.928   -302.21002   -220.38735    2185.9298    6995.7488   -659.00092    75.898058 
   99200    421.30652   -161.47034   0.38120699   -161.08913    15929.479    4.2408939    4.2408939    4.2408939    15929.479    32198.143    20721.372    -5131.076   -1828.5527   -4298.2828   -8053.6237    76.273243 
   99300    620.95413   -161.65671   0.56185234   -161.09486    249.19643    4.2472262    4.2472262    4.2472262    249.19643   -25652.598     10717.57    15682.617   -4005.4462   -705.60407   -2785.9939    76.615416 
   99400    507.69681   -161.55686   0.45937475   -161.09749    9332.6902       4.2388       4.2388       4.2388    9332.6902   -4173.9435   -6146.1993    38318.213    4542.0748   -6703.2593   -3890.6081    76.160323 
   99500    627.55488   -161.66084   0.56782484   -161.09301   -545.94543    4.2316452    4.2316452    4.2316452   -545.94543   -4512.6456   -12395.335    15270.144    5052.6196   -796.18834    2768.8217    75.775312 
   99600    647.42577   -161.67655   0.58580444   -161.09074   -8622.8504    4.2369654    4.2369654    4.2369654   -8622.8504    -1239.509   -27299.147    2670.1052   -1319.0176   -2517.7608     7011.736    76.061478 
   99700    686.88561   -161.71218   0.62150853   -161.09067   -4924.3678     4.245298     4.245298     4.245298   -4924.3678   -37.594675   -19200.497    4464.9883    5607.9095     1972.462    4541.3863    76.511115 
   99800    599.53706   -161.63357   0.54247373   -161.09109   -2576.4843     4.247433     4.247433     4.247433   -2576.4843   -24347.983   -7655.7257    24274.256    7215.2663   -180.24893    3892.2845    76.626609 
   99900    557.02955   -161.59556   0.50401205   -161.09155     1521.209    4.2357144    4.2357144    4.2357144     1521.209    13270.502   -5564.6867   -3142.1882    8416.8663   -8720.1868    3034.5438    75.994125 
  100000    725.42632   -161.74424   0.65638098   -161.08785   -5592.3461    4.2266043    4.2266043    4.2266043   -5592.3461   -2639.0975   -4153.7878   -9984.1532    6347.9077   -2801.4122    5345.1206    75.504838 
Loop time of 43.0643 on 1 procs for 100000 steps with 8 atoms

Pair  time (%) = 14.1416 (32.8384)
Kspce time (%) = 10.8792 (25.2627)
Neigh time (%) = 0 (0)
Comm  time (%) = 2.06643 (4.79847)
Outpt time (%) = 0.0550523 (0.127837)
Other time (%) = 15.922 (36.9726)

Nlocal:    8 ave 8 max 8 min
Histogram: 1 0 0 0 0 0 0 0 0 0
Nghost:    2189 ave 2189 max 2189 min
Histogram: 1 0 0 0 0 0 0 0 0 0
Neighs:    2472 ave 2472 max 2472 min
Histogram: 1 0 0 0 0 0 0 0 0 0

Total # of neighbors = 2472
Ave neighs/atom = 309
Neighbor list builds = 0
Dangerous builds = 0
unfix 20
unfix 21
print "seeds:7830352"
seeds:7830352
