LAMMPS (10 Feb 2015)
# ---- initialize simulations
clear
units metal
dimension 3
boundary p p p
atom_style charge
atom_modify map array
# ---- create atoms
read_data /Users/eugeneragasa/pyflamestk_git/pypospack/tests/tests_integration/workflow/WorkflowLammpsThermalExpansion/param_9544/MgO_NaCl_unit.npt.T200/lammps.structure
  triclinic box = (0 0 0) to (4.2565 4.2565 4.2565) with tilt (0 0 0)
  1 by 1 by 1 MPI processor grid
  reading atoms ...
  8 atoms
# ---- define interatomic potential
include potential.mod
mass 1 24.305
mass 2 15.999

group Mg type 1
4 atoms in group Mg
group O type 2
4 atoms in group O

set group Mg charge 1.64252902328
  4 settings made for charge
set group O charge -1.64252902328
  4 settings made for charge

variable R_cut equal 10.0

pair_style buck/coul/long ${R_cut}
pair_style buck/coul/long 10
pair_coeff 1 1 0.0 0.5 0.0 ${R_cut}
pair_coeff 1 1 0.0 0.5 0.0 10
pair_coeff 1 2 1425.65456865 0.277130619093 0.0 ${R_cut}
pair_coeff 1 2 1425.65456865 0.277130619093 0.0 10
pair_coeff 2 2 8710.58674493 0.211543782712 -4.62088168449 ${R_cut}
pair_coeff 2 2 8710.58674493 0.211543782712 -4.62088168449 10

kspace_style pppm 1.0e-5

neighbor 1.0 bin
neigh_modify every 1 delay 0 check yes
# ---- define settings
compute eng all pe/atom
compute eatoms all reduce sum c_eng
# ---- run minimization
reset_timestep 0
fix 1 all box/relax iso 0.0 vmax 0.001
thermo 10
thermo_style custom step pe lx ly lz xy xz yz press pxx pyy pzz pxy pxz pyz c_eatoms
min_style cg
minimize 1e-25 1e-25 5000 10000
PPPM initialization ...
  G vector (1/distance) = 0.352708
  grid = 8 8 8
  stencil order = 5
  estimated absolute RMS force accuracy = 3.89813e-05
  estimated relative force accuracy = 2.7071e-06
  using double precision FFTs
  3d grid and FFT values/proc = 3375 512
Neighbor list info ...
  1 neighbor list requests
  update every 1 steps, delay 0 steps, check yes
  master list distance cutoff = 11
Memory usage per processor = 4.06549 Mbytes
Step PotEng Lx Ly Lz Xy Xz Yz Press Pxx Pyy Pzz Pxy Pxz Pyz eatoms 
       0   -111.38871       4.2565       4.2565       4.2565            0            0            0   -14022.103   -14022.103   -14022.103   -14022.103 -1.0617953e-11 -7.0203049e-11 5.2505523e-12   -111.38871 
       6    -111.3915    4.2448057    4.2448057    4.2448057            0            0            0    11.870105    11.870105    11.870105    11.870105 -3.2023954e-10 4.899455e-11 2.2757866e-10    -111.3915 
Loop time of 0.017735 on 1 procs for 6 steps with 8 atoms

Minimization stats:
  Stopping criterion = linesearch alpha is zero
  Energy initial, next-to-last, final = 
        -111.388714234     -111.391500014     -111.391500014
  Force two-norm initial, final = 2.0248 0.00171153
  Force max component initial, final = 2.0248 0.00170464
  Final line search alpha, max atom move = 0.00229153 3.90625e-06
  Iterations, force evaluations = 6 44

Pair  time (%) = 0.00487304 (27.4769)
Kspce time (%) = 0.00275302 (15.5231)
Neigh time (%) = 0 (0)
Comm  time (%) = 0.000535727 (3.02073)
Outpt time (%) = 0 (0)
Other time (%) = 0.00957322 (53.9792)

Nlocal:    8 ave 8 max 8 min
Histogram: 1 0 0 0 0 0 0 0 0 0
Nghost:    2189 ave 2189 max 2189 min
Histogram: 1 0 0 0 0 0 0 0 0 0
Neighs:    2344 ave 2344 max 2344 min
Histogram: 1 0 0 0 0 0 0 0 0 0

Total # of neighbors = 2344
Ave neighs/atom = 293
Neighbor list builds = 0
Dangerous builds = 0
unfix 1
# ---- define output variables ----
variable natoms equal "count(all)"
variable tot_energy equal "c_eatoms"
variable length_x equal "lx"
variable length_y equal "ly"
variable length_z equal "lz"
variable tilt_xy equal "xy"
variable tilt_xz equal "xz"
variable tilt_yz equal "yz"
variable tot_press equal "press"
variable press_xx equal "pxx"
variable press_yy equal "pyy"
variable press_zz equal "pzz"
variable press_xy equal "pxy"
variable press_xz equal "pxz"
variable press_yz equal "pyz"

# ---- output ----
print "pypospack:output_section:begin"
pypospack:output_section:begin
print "tot_energy = ${tot_energy}"
tot_energy = -111.391500014071
print "num_atoms = ${natoms}"
num_atoms = 8
print "xx = ${length_x}"
xx = 4.24480566540602
print "yy = ${length_y}"
yy = 4.24480566540602
print "zz = ${length_z}"
zz = 4.24480566540602
print "xy = ${tilt_xy}"
xy = 0
print "xz = ${tilt_xz}"
xz = 0
print "yz = ${tilt_yz}"
yz = 0
print "tot_press = ${tot_press}"
tot_press = 11.8701047091937
print "pxx = ${press_xx}"
pxx = 11.8701047092997
print "pyy = ${press_yy}"
pyy = 11.8701047087814
print "pzz = ${press_zz}"
pzz = 11.8701047094999
print "pxy = ${press_xy}"
pxy = -3.20239539923879e-10
print "pxz = ${press_xz}"
pxz = 4.8994550277695e-11
print "pyz = ${press_yz}"
pyz = 2.27578662531736e-10
print "pypospack:output_section:done"
pypospack:output_section:done
print "pypospack:lammps_sim:done"
pypospack:lammps_sim:done
#------------------------------------------------------------------------------
# RUN THERMOSTAT
# running using an NPT Nose-Hoover style thermostat
#------------------------------------------------------------------------------
variable tempdamp equal 0.1
variable pressdamp equal 1.0
# set initial velocities
velocity all create 200 193193 mom yes dist gaussian loop all
# fix for Nose-Hoover style thermostat
fix 20 all npt temp 200 200 0.1 aniso 0.0 0.0 1.0 drag 1.0 couple xyz
variable boxx equal lx
variable boxy equal ly
variable boxz equal lz
variable boxp equal press
variable boxt equal temp
# calculate averages every 10000 steps
reset_timestep 0
fix 21 all ave/time 10 10 100 v_boxx v_boxy v_boxz v_boxp v_boxt file lattice.out
thermo_style custom step temp pe ke etotal press lx ly lz press pxx pyy pzz pxy pxz pyz vol
thermo_modify flush yes
thermo 100
run 100000
PPPM initialization ...
  G vector (1/distance) = 0.352825
  grid = 8 8 8
  stencil order = 5
  estimated absolute RMS force accuracy = 3.87738e-05
  estimated relative force accuracy = 2.69269e-06
  using double precision FFTs
  3d grid and FFT values/proc = 3375 512
Memory usage per processor = 3.06549 Mbytes
Step Temp PotEng KinEng TotEng Press Lx Ly Lz Press Pxx Pyy Pzz Pxy Pxz Pyz Volume 
       0          200    -111.3915    0.1809642   -111.21054    2539.1826    4.2448057    4.2448057    4.2448057    2539.1826    4236.7545    1545.9226    1834.8706    132.94074     1892.449    473.62632    76.484501 
     100      122.814   -111.29585   0.11112469   -111.18473    2434.1312    4.2488765    4.2488765    4.2488765    2434.1312    6737.5754   -1242.5858    1807.4039   -1013.5848   -423.70458    374.35182     76.70476 
     200    151.35129   -111.27293   0.13694583   -111.13598   -5245.4373     4.252413     4.252413     4.252413   -5245.4373   -3446.8893   -10558.192    -1731.231   -620.11532   -429.42054    90.312386    76.896454 
     300    180.16358   -111.25572   0.16301579   -111.09271    441.08769     4.250467     4.250467     4.250467    441.08769   -1216.8632   -1479.3344    4019.4607   -538.50644   -944.75698   -658.24719    76.790931 
     400    267.35858   -111.30152   0.24191166   -111.05961    4920.6148    4.2490019    4.2490019    4.2490019    4920.6148    6531.5601    2006.7772     6223.507   -749.75579   -1205.1842   -1191.6871    76.711556 
     500    146.29757   -111.17306   0.13237312   -111.04068    4313.0932    4.2486217    4.2486217    4.2486217    4313.0932   -166.84362    386.71256    12719.411   -3388.5231    1797.1792   -319.03312    76.690964 
     600    122.36438   -111.14082   0.11071786    -111.0301   -9686.1989    4.2561433    4.2561433    4.2561433   -9686.1989   -13703.162   -14016.191   -1339.2444   -2938.9855   -1849.7122   -397.04486    77.098994 
     700    268.52378   -111.26979   0.24296596   -111.02683   -8246.4539    4.2562455    4.2562455    4.2562455   -8246.4539   -4370.4462   -11067.022   -9301.8934    2221.5358    621.33192    636.06138    77.104548 
     800     201.8818   -111.20851   0.18266689   -111.02584    11662.107    4.2439733    4.2439733    4.2439733    11662.107     11821.24    10255.082        12910   -1169.8293   -74.065582    605.03745    76.439517 
     900    158.74658   -111.17252   0.14363725   -111.02888   -3906.1759    4.2510605    4.2510605    4.2510605   -3906.1759   -3533.8855   -8268.3793    83.737189   -2882.4295   -257.81813    890.76955    76.823104 
    1000    87.210642   -111.10835  0.078910022   -111.02944   -9769.9268    4.2603131    4.2603131    4.2603131   -9769.9268    -2281.909   -15699.577   -11328.294   -629.46899    1080.2555    637.48626    77.325824 
    1100    251.85992   -111.25566   0.22788815   -111.02777    1326.4672    4.2493239    4.2493239    4.2493239    1326.4672    3051.9574   -390.92969    1318.3738    586.53771   -2109.6661   -965.95075    76.728997 
    1200    105.71172   -111.12416  0.095650182   -111.02851    14522.442    4.2462929    4.2462929    4.2462929    14522.442    17824.175    10173.422     15569.73   -1270.6818   -552.16802   -441.72206    76.564924 
    1300    83.984358   -111.10642  0.075990812   -111.03043   -3796.0876    4.2542608    4.2542608    4.2542608   -3796.0876   -2955.5723   -10476.484    2043.7932   -1993.7748   -1035.1809   -1383.7359    76.996739 
    1400    130.12652   -111.14693   0.11774121   -111.02919   -5710.9376    4.2544999    4.2544999    4.2544999   -5710.9376   -9328.1096   -8023.2517     218.5486     599.5831   -267.91382   -571.99585    77.009721 
    1500    242.05283   -111.24749   0.21901449   -111.02848    1275.5658    4.2525469    4.2525469    4.2525469    1275.5658    3254.1978   -1738.3037    2310.8033    -322.8534    2277.3411   -190.48879     76.90372 
    1600    182.45213   -111.19407   0.16508652   -111.02898    3027.4787    4.2485134    4.2485134    4.2485134    3027.4787   -15.565241    1243.6725    7854.3288   -1729.2712   -477.68047    931.90997    76.685096 
    1700    138.87511    -111.1556   0.12565712   -111.02995   -5186.6994    4.2507523    4.2507523    4.2507523   -5186.6994   -9777.9618   -8289.7734     2507.637   -1063.9489    455.24347    1146.3446      76.8064 
    1800    273.39004    -111.2756   0.24736906   -111.02823   -10472.737    4.2583792    4.2583792    4.2583792   -10472.737   -8566.3682   -12613.884    -10237.96    1701.2647   -1380.7009    36.950945    77.220568 
    1900    249.72483    -111.2542   0.22595627   -111.02824    3475.7712    4.2516611    4.2516611    4.2516611    3475.7712    5772.5059    843.13338    3811.6742   -2472.2829   -704.34717   -43.319253    76.855671 
    2000    201.19053   -111.21126   0.18204142   -111.02921    5225.0773    4.2460983    4.2460983    4.2460983    5225.0773    2154.0967    1474.8687    12046.266   -4445.7601    1456.6961   -712.61078    76.554398 
    2100    146.67474   -111.16335   0.13271438   -111.03064    1391.4831    4.2540208    4.2540208    4.2540208    1391.4831    4398.1684   -6777.2607    6553.5415   -94.607867   -1853.3997   -806.21463    76.983709 
    2200    295.04465   -111.29516    0.2669626   -111.02819   -3363.0429    4.2563296    4.2563296    4.2563296   -3363.0429   -3408.8685   -7234.3401    554.07997    2433.8569    786.26817   -1336.7462    77.109121 
    2300    259.53601   -111.26424   0.23483363   -111.02941    4862.9597    4.2503075    4.2503075    4.2503075    4862.9597    7658.2376   -18.188507    6948.8299   -1109.8768   -427.48941   -102.91843    76.782288 
    2400    206.86462    -111.2165   0.18717545   -111.02933    3969.1749     4.248946     4.248946     4.248946    3969.1749    7924.9244   -4842.8493    8825.4496   -1775.1811    1770.3735    32.736134    76.708523 
    2500    244.38437   -111.25037   0.22112411   -111.02924   -2877.1796    4.2529428    4.2529428    4.2529428   -2877.1796   -3019.8439   -6621.9358    1010.2408    1671.5439    1495.3198    369.42891    76.925197 
    2600    314.36295   -111.31247    0.2844422   -111.02803   -6329.5377    4.2567283    4.2567283    4.2567283   -6329.5377   -384.61409   -9253.9896   -9350.0093    647.11116   -1873.4213    841.70831    77.130795 
    2700    254.06539   -111.25839    0.2298837   -111.02851   -933.46794    4.2514612    4.2514612    4.2514612   -933.46794    1561.0533   -3792.0714   -569.38573    -871.4867    67.288257    837.50871    76.844833 
    2800    144.77603   -111.16078    0.1309964   -111.02979    4927.4046    4.2471727    4.2471727    4.2471727    4927.4046    1668.2084   -1400.0352    14514.041    -1785.528   -2110.4125   -523.07744    76.612525 
    2900    213.52803   -111.22246   0.19320465   -111.02926   -2500.7847    4.2551026    4.2551026    4.2551026   -2500.7847   -5564.7836   -3917.9477    1980.3773    328.08122    1127.6615   -1509.5598    77.042454 
    3000     220.9357   -111.22804   0.19990727   -111.02814   -3274.4007    4.2558837    4.2558837    4.2558837   -3274.4007   -2096.3689   -6757.3533   -969.48003   -399.16415   -529.69391   -1048.1751    77.084888 
    3100    158.35715   -111.17263   0.14328487   -111.02934    2195.0298    4.2490748    4.2490748    4.2490748    2195.0298    413.96916   -4226.1661    10397.286   -1895.8178   -164.87348   -12.919726    76.715501 
    3200    116.91819   -111.13555   0.10579004   -111.02976    5536.3932    4.2498791    4.2498791    4.2498791    5536.3932    11889.443   -4169.3976    8889.1344     1715.983    1305.8003    385.49809    76.759076 
    3300    213.58638   -111.22236   0.19325745   -111.02911    -3507.657     4.253878     4.253878     4.253878    -3507.657    1251.6844   -6084.1486   -5690.5066    991.41781   -220.37469   -7.6079909    76.975954 
    3400     231.0696   -111.23745   0.20907663   -111.02837    -7258.769    4.2549948    4.2549948    4.2549948    -7258.769    208.64964   -11701.289   -10283.667   -1337.9214    840.02201    1275.7563    77.036602 
    3500    129.60529   -111.14654   0.11726959   -111.02927    1954.6941    4.2512663    4.2512663    4.2512663    1954.6941     9773.489   -9517.4547     5608.048   -2197.2381   -1355.9225    414.39456    76.834262 
    3600    133.10452   -111.14979   0.12043577   -111.02936    3449.0771     4.248139     4.248139     4.248139    3449.0771    2691.5404   -1588.8088    9244.4999    3247.0286    -509.7692    158.06151    76.664824 
    3700    190.04456   -111.20025   0.17195631   -111.02829   -4221.9493    4.2548414    4.2548414    4.2548414   -4221.9493   -5162.8358   -7195.0295   -307.98251    1863.0789    -172.0674   -489.61572    77.028269 
    3800    175.49443   -111.18754   0.15879105   -111.02875   -4665.4808    4.2561405    4.2561405    4.2561405   -4665.4808   -5309.9178   -10528.596    1842.0717    -1377.976   -532.76395   -298.51358    77.098844 
    3900     79.95407   -111.10237  0.072344123   -111.03002    5972.5063    4.2474962    4.2474962    4.2474962    5972.5063    4846.9781   -4563.5838    17634.125    856.00575    2011.5001   -1209.2409    76.630032 
    4000    164.46983   -111.17808   0.14881576   -111.02927    1196.8693    4.2505547    4.2505547    4.2505547    1196.8693    -735.6145   -1935.3965    6261.6189    1621.7222    745.85275   -1532.4891    76.795685 
    4100    247.75087   -111.25228    0.2241702   -111.02811   -5648.6693    4.2559869    4.2559869    4.2559869   -5648.6693   -1871.8159   -8418.4796   -6655.7122    1322.7753     731.7331    813.98982    77.090495 
    4200    211.84835   -111.22086   0.19168484   -111.02917   -3177.3502    4.2527858    4.2527858    4.2527858   -3177.3502   -1118.5549   -9911.2168     1497.721   -2186.0927     113.5902    1514.2332    76.916678 
    4300    171.67901   -111.18504   0.15533877    -111.0297    1911.3657    4.2503088    4.2503088    4.2503088    1911.3657    8464.7448   -7476.4512    4745.8037    5.6274099   -1575.5703    1415.0713    76.782357 
    4400    223.99656   -111.23208   0.20267679    -111.0294    2310.1423    4.2506093    4.2506093    4.2506093    2310.1423    2739.9878   -2468.3337    6658.7729    1352.8891    1094.3854   -1150.8157    76.798644 
    4500    286.27687    -111.2871   0.25902932   -111.02807   -2695.1596    4.2537447    4.2537447    4.2537447   -2695.1596   -173.46759   -7415.4245    -496.5867   -534.03657   -1013.6936   -162.71789    76.968721 
    4600    162.06085   -111.17635   0.14663607   -111.02972    1357.1733    4.2546308    4.2546308    4.2546308    1357.1733    7085.8391   -10086.363    7072.0436    518.35136    542.21435    165.24959    77.016829 
    4700    182.83718   -111.19526   0.16543492   -111.02983    3421.1074    4.2482826    4.2482826    4.2482826    3421.1074    2949.7604   -3794.2125    11107.774     2647.248    192.41498    -748.6241      76.6726 
    4800    236.45371   -111.24274   0.21394829    -111.0288    3619.2124    4.2503201    4.2503201    4.2503201    3619.2124    1441.4346   -60.643562    9476.8462    2128.2505    342.75789   -651.49023    76.782969 
    4900    307.87822   -111.30674   0.27857468   -111.02816   -7027.7935    4.2569943    4.2569943    4.2569943   -7027.7935   -4178.9878   -9359.7791   -7544.6136   -1461.9216    2523.9518   -1041.6507    77.145254 
    5000    184.08361   -111.19625   0.16656272   -111.02969   -2781.2881    4.2517331    4.2517331    4.2517331   -2781.2881   -1705.6575   -7087.2597    449.05298    1760.1424   -1884.6458    989.41314    76.859574 
    5100    225.91805   -111.23379    0.2044154   -111.02937    210.00334    4.2493813    4.2493813    4.2493813    210.00334   -103.23218   -5137.9015    5871.1437    3059.8526    527.40847      761.489    76.732107 
    5200    286.47475   -111.28787   0.25920837   -111.02866    913.93278    4.2525959    4.2525959    4.2525959    913.93278    6514.5127   -3667.2916   -105.42272   -774.18994   -999.29428    1689.2959    76.906376 
    5300    247.25292    -111.2525   0.22371964   -111.02878   -2843.8457    4.2535321    4.2535321    4.2535321   -2843.8457    1145.9988   -6216.9559   -3460.5799   -951.11419    5.5934324    1365.1878    76.957181 
    5400    157.23148   -111.17251   0.14226635   -111.03024   -654.35998    4.2530573    4.2530573    4.2530573   -654.35998    5359.7103    -7625.359     302.5688    1870.4342    1236.9587   -1146.9472    76.931413 
    5500    167.55868   -111.18124   0.15161061   -111.02963     7659.884    4.2493281    4.2493281    4.2493281     7659.884    9902.0717    35.368903    13042.211    2455.6248   -1129.1271   -1381.6833     76.72922 
    5600    271.80025   -111.27387   0.24593058   -111.02794    2322.3568    4.2505238    4.2505238    4.2505238    2322.3568    6344.9875    1264.8545   -642.77151    -237.7064    1990.4258   -1008.0998     76.79401 
    5700    168.20942   -111.18127   0.15219941   -111.02907   -2966.4244    4.2561279    4.2561279    4.2561279   -2966.4244    1703.9569    -3811.109    -6792.121    -872.9042   -384.52318    580.60552     77.09816 
    5800    159.69292   -111.17419   0.14449351   -111.02969    -3159.673    4.2517389    4.2517389    4.2517389    -3159.673   -1815.1962   -6729.5791   -934.24376     2223.386    271.99028   -207.75945    76.859892 
    5900    179.95564   -111.19178   0.16282765   -111.02895    5061.1121    4.2482668    4.2482668    4.2482668    5061.1121    7054.9573   -1126.8478    9255.2267    2340.8652    549.51619   -104.26556    76.671747 
    6000    273.81777   -111.27574   0.24775607   -111.02799   -5091.3356     4.254143     4.254143     4.254143   -5091.3356    377.45367   -8003.5538   -7647.9067   -895.11477   -1135.5864    1272.7375     76.99034 
    6100    141.96146   -111.15777   0.12844972   -111.02932   -5579.1553    4.2538713    4.2538713    4.2538713   -5579.1553   -4942.0504   -9334.3174   -2461.0981    2191.2199    1506.6201    1180.6818    76.975594 
    6200    137.38969   -111.15426   0.12431308   -111.02994   -1484.2807    4.2515469    4.2515469    4.2515469   -1484.2807   -1601.9726   -11060.444    8209.5747    2367.5831   -434.42619    357.76411     76.84948 
    6300      189.381   -111.20007   0.17135591   -111.02871    4848.9327    4.2505102    4.2505102    4.2505102    4848.9327    10316.391   -4388.5478    8618.9552    606.87535    257.29541   -628.27737    76.793273 
    6400    212.14998   -111.22063   0.19195776   -111.02867    -181.5161    4.2511715    4.2511715    4.2511715    -181.5161    333.06574   -2161.0576    1283.4436    362.33333    1280.1658   -341.34142    76.829125 
    6500    125.25438   -111.14328   0.11333279   -111.02995   -3217.9502    4.2549711    4.2549711    4.2549711   -3217.9502   -1892.7746   -6207.7987   -1553.2773     2304.129   -1151.4096   -1227.0784     77.03531 
    6600    138.28721   -111.15487   0.12512517   -111.02974    2524.3603    4.2518476    4.2518476    4.2518476    2524.3603    6080.6249   -5516.9846    7009.4406    1543.8276    1216.7848   -598.57423    76.865786 
    6700    253.24084   -111.25715   0.22913763   -111.02801    3305.1018    4.2482721    4.2482721    4.2482721    3305.1018     7905.185   -36.780678    2046.9011   -1651.3719    -1134.983    1558.8101     76.67203 
    6800    211.33409      -111.22   0.19121953   -111.02878   -1550.7402    4.2537209    4.2537209    4.2537209   -1550.7402    460.62214   -4606.2161   -506.62678    654.92834   -17.160239     2164.626    76.967427 
    6900     169.9524   -111.18332    0.1537765   -111.02954   -5882.8356    4.2548187    4.2548187    4.2548187   -5882.8356   -5467.3417   -13103.273    922.10851    1373.7433    1963.2174    8.4724182    77.027033 
    7000    173.27473   -111.18627   0.15678262   -111.02949    1772.2304    4.2500755    4.2500755    4.2500755    1772.2304    3268.1383   -8228.3421    10276.895    1341.6155   -1538.9695   -419.51601    76.769714 
    7100    277.46087   -111.27898   0.25105242   -111.02793    153.77341     4.251297     4.251297     4.251297    153.77341    1900.8778   -5103.8877    3664.3301   -622.11385    1411.8643    140.65865     76.83593 
    7200    174.32149   -111.18696   0.15772975   -111.02923    641.98517    4.2524326    4.2524326    4.2524326    641.98517   -1714.8235   -3969.4888    7610.2678    278.78634   -1305.4702    793.19115    76.897514 
    7300    163.23769   -111.17739   0.14770089   -111.02969   -3932.2494    4.2534012    4.2534012    4.2534012   -3932.2494   -5518.9194   -8153.9113    1876.0826    3103.3627     152.4328   -1166.2887    76.950075 
    7400    195.17164   -111.20603    0.1765954   -111.02944     1351.445    4.2524135    4.2524135    4.2524135     1351.445    6814.0829   -2752.4926    -7.255134    97.576938    364.60805   -1680.7616    76.896478 
    7500    278.16381   -111.28008   0.25168847   -111.02839    2346.6884    4.2494021    4.2494021    4.2494021    2346.6884    4359.6955    2113.2735    567.09631    821.57567    -1675.617    1196.2225    76.733229 
    7600     193.3955   -111.20459   0.17498831    -111.0296   -329.53776    4.2528461    4.2528461    4.2528461   -329.53776    3014.7581   -3078.1688   -925.20251    775.50951    1673.2202    1351.1577    76.919953 
    7700    188.07103   -111.19971   0.17017062   -111.02954   -5086.0219    4.2552279    4.2552279    4.2552279   -5086.0219    939.77082   -10992.443   -5205.3936   -647.80989   -526.30329     1521.463    77.049259 
    7800    250.78888   -111.25547   0.22691905   -111.02855     910.0665    4.2498883    4.2498883    4.2498883     910.0665    5646.6292   -1867.1941   -1049.2356   -912.43767    1285.7287    578.82705    76.759572 
    7900    253.48863   -111.25765   0.22936184   -111.02829     3990.141    4.2507572    4.2507572    4.2507572     3990.141    6981.4284    428.25234    4560.7424    1045.3163    390.08918    355.15523    76.806662 
    8000    180.98795   -111.19332    0.1637617   -111.02956   -1731.4807    4.2538996    4.2538996    4.2538996   -1731.4807   -768.64658   -5249.2186    823.42298    1860.2803   -1301.0529   -1033.0752     76.97713 
    8100    141.36334   -111.15766   0.12790853   -111.02975   -1012.4813    4.2521346    4.2521346    4.2521346   -1012.4813   -727.19419    -1909.714   -400.53561   -451.89098    1411.4818    -1615.475     76.88135 
    8200    254.16168   -111.25846   0.22997083   -111.02848    215.89872    4.2522526    4.2522526    4.2522526    215.89872    2237.8024    3388.1264   -4978.2327     -684.897   -976.54727    570.21296     76.88775 
    8300    200.55247   -111.21012   0.18146409   -111.02866    4988.8827    4.2507598    4.2507598    4.2507598    4988.8827    7773.1926    3129.2742    4064.1812    2360.1226    612.54542    220.53943    76.806804 
    8400    191.06957   -111.20227   0.17288376   -111.02939   -4961.0343    4.2523441    4.2523441    4.2523441   -4961.0343    -3501.942   -5732.7163   -5648.4445    2441.4777    687.84266    593.20151    76.892714 
    8500    169.74896   -111.18312   0.15359243   -111.02953    -3904.543    4.2546624    4.2546624    4.2546624    -3904.543    1998.7982   -6339.1813   -7373.2458   -973.56028    -246.1499   -196.73132    77.018546 
    8600    282.38988   -111.28378    0.2555123   -111.02826    -261.0309    4.2508628    4.2508628    4.2508628    -261.0309    5897.2484   -3541.5561    -3138.785   -1953.5334    1730.0154    2396.2478    76.812385 
    8700    191.67505    -111.2025   0.17343162   -111.02907    3186.8345    4.2505587    4.2505587    4.2505587    3186.8345       8901.5   -3368.9513    4027.9549    2309.7108   -353.06269    1683.8863    76.795905 
    8800    150.83047   -111.16619   0.13647458   -111.02972   -3817.7971    4.2543037    4.2543037    4.2543037   -3817.7971    -816.4549   -8649.3903   -1987.5461     2608.635   -29.747662   -1147.0264    76.999071 
    8900    169.12518   -111.18232   0.15302802   -111.02929    532.09579    4.2519707    4.2519707    4.2519707    532.09579    806.19888    650.91343    139.17507   -1216.0456    637.99329   -1250.8623     76.87246 
    9000    213.28118   -111.22139    0.1929813   -111.02841    4650.3351    4.2515172    4.2515172    4.2515172    4650.3351    7002.3578     4128.604    2820.0435   -432.07456   -1847.7626   -1003.5272    76.847866 
    9100    183.86967   -111.19542   0.16636915   -111.02905    297.91604    4.2520824    4.2520824    4.2520824    297.91604    1212.0506   -2471.1982    2152.8957    261.57952     1277.123    97.835199    76.878519 
    9200    130.12296   -111.14726   0.11773798   -111.02953   -1629.5385    4.2519367    4.2519367    4.2519367   -1629.5385   -3594.0958   -4296.4951    3001.9753   -180.63852   -727.65181    99.168162    76.870619 
    9300    251.51454   -111.25604   0.22757564   -111.02847   -3947.5717    4.2537368    4.2537368    4.2537368   -3947.5717   -1723.3857   -5388.3879   -4730.9415   -358.24507    596.86542    1187.0213    76.968291 
    9400    228.77564   -111.23545     0.207001   -111.02845    1492.3204    4.2519571    4.2519571    4.2519571    1492.3204    9476.2119   -7159.3646     2160.114   -152.77125    1232.4114    1337.4869    76.871722 
    9500     214.2173   -111.22291   0.19382831   -111.02908   -3812.3605    4.2512807    4.2512807    4.2512807   -3812.3605   -2335.2487   -10112.543      1010.71    2376.8024   -1698.9962    345.72151    76.835045 
    9600    128.34763     -111.146   0.11613163   -111.02987    316.52003    4.2533071    4.2533071    4.2533071    316.52003    872.91216    -4074.031     4150.679   -327.69448    1820.2849   -593.03267    76.944969 
    9700    235.99254   -111.24223   0.21353101    -111.0287    -88.96835    4.2527509    4.2527509    4.2527509    -88.96835    980.81083   -1723.9635    476.24767   -442.37706    -1575.534    470.52376    76.914787 
    9800    183.15951   -111.19459   0.16572657   -111.02886    3551.5458    4.2513978    4.2513978    4.2513978    3551.5458    5979.3494    1704.4066    2970.8813    1268.0731    396.32541   -757.71967    76.841393 
    9900    156.32414   -111.17105   0.14144536   -111.02961   -88.107649    4.2523562    4.2523562    4.2523562   -88.107649   -1337.7945   -2826.1849    3899.6565    520.79291     89.31506    -2554.151    76.893371 
   10000    167.68732   -111.18108   0.15172701   -111.02935     1097.028    4.2521405    4.2521405    4.2521405     1097.028    130.39717   -1696.0298    4856.7165   -2014.9813   -1910.0946    -1146.196    76.881674 
   10100    259.70367   -111.26314   0.23498534   -111.02816   -1382.6404    4.2529146    4.2529146    4.2529146   -1382.6404    4177.8369   -4245.0548   -4080.7033   -1903.8151    1836.3401    1409.2455    76.923669 
   10200    249.98417   -111.25455   0.22619093   -111.02836   -3608.7425    4.2533335    4.2533335    4.2533335   -3608.7425     2542.925   -7526.6881   -5842.4645    1750.1864   -785.82844    2335.5293    76.946401 
   10300    172.08732   -111.18499   0.15570822   -111.02928   -251.70829    4.2512572    4.2512572    4.2512572   -251.70829   -493.97364   -4412.0656    4150.9144     1689.604    1581.2301   -191.03453    76.833769 
   10400    229.89526   -111.23698   0.20801406   -111.02897   -1366.6044    4.2523828    4.2523828    4.2523828   -1366.6044   -1808.8776   -483.62077   -1807.3147   -505.05879    111.31771    127.48779    76.894814 
   10500    220.56659   -111.22829   0.19957329   -111.02872    998.84982    4.2533858    4.2533858    4.2533858    998.84982    7574.1088    2088.6357   -6666.1951   -1174.7686   -1346.3923    506.54142    76.949241 
   10600    211.85095   -111.22073   0.19168719   -111.02904   -745.52117    4.2519643    4.2519643    4.2519643   -745.52117   -1529.4354     1251.234   -1958.3621    89.402126    987.19649   -545.08428    76.872113 
   10700    117.33138   -111.13611    0.1061639   -111.02995    4923.2781    4.2516708    4.2516708    4.2516708    4923.2781     6697.992    1966.7089    6105.1332    869.47948   -1314.2685   -1180.2496    76.856198 
   10800    229.91569   -111.23684   0.20803254   -111.02881    75.903431    4.2522083    4.2522083    4.2522083    75.903431     2639.612   -2383.6473   -28.254438   -741.56806   -29.481432   -1363.6265    76.885347 
   10900    228.10632   -111.23469   0.20639539   -111.02829   -347.48753     4.252456     4.252456     4.252456   -347.48753    6026.7519   -1148.2092   -5921.0053   -25.539115   -617.09631    1074.1376    76.898788 
   11000    226.38814    -111.2338   0.20484075   -111.02896   -3883.1577    4.2534118    4.2534118    4.2534118   -3883.1577    571.17685   -7226.6069   -4994.0431    561.91485   -1457.2743   -642.90702    76.950648 
   11100    171.48243   -111.18454   0.15516091   -111.02938    984.02028    4.2514143    4.2514143    4.2514143    984.02028    3520.2499   -4466.0395    3897.8504   -1150.2574     2158.557    1141.5398    76.842285 
   11200    248.74775   -111.25374   0.22507219   -111.02867   -1681.5309    4.2514917    4.2514917    4.2514917   -1681.5309    2107.4429    223.95203   -7375.9877   -203.00304   -662.03973    1976.5738    76.846483 
   11300    228.35379    -111.2352    0.2066193   -111.02858     -2034.23    4.2538652    4.2538652    4.2538652     -2034.23    3275.7765    1590.5366   -10969.003    635.46118     442.6933    478.38107    76.975263 
   11400    157.52322     -111.172   0.14253032   -111.02947    709.46434    4.2521683    4.2521683    4.2521683    709.46434    2887.6167   -2218.7052    1459.4815   -1063.9755   -299.26937   -1127.0842     76.88318 
   11500    164.10675   -111.17806   0.14848723   -111.02958    1751.4961     4.251267     4.251267     4.251267    1751.4961    869.65977   -1776.4339    6161.2624   -1993.8572   -2406.2258    -2137.208    76.834299 
   11600    203.18571   -111.21245    0.1838467    -111.0286    2250.3901    4.2518596    4.2518596    4.2518596    2250.3901    7446.4468    169.85792   -865.13425   -728.57629     1138.661    1009.8286    76.866435 
   11700    231.08005   -111.23759   0.20908608   -111.02851   -1917.0838    4.2526123    4.2526123    4.2526123   -1917.0838   -1696.6892   -5878.8328    1824.2707    3181.2608   -1806.2681    58.407933    76.907269 
   11800    141.79088   -111.15801   0.12829537   -111.02971    83.687977    4.2530693    4.2530693    4.2530693    83.687977    5231.8114   -11309.814    6329.0663    546.44889    1043.6672   -316.15014    76.932062 
   11900    214.00786   -111.22266   0.19363881   -111.02902   -2311.3294    4.2516674    4.2516674    4.2516674   -2311.3294   -157.86544   -9794.1715    3018.0488   -2274.4869     452.8142     334.9697    76.856014 
   12000    213.00009   -111.22113   0.19272695    -111.0284    1773.5406     4.250887     4.250887     4.250887    1773.5406     5221.045    65.981877    33.594976   -943.34095    -1261.464    1819.1906    76.813702 
   12100    228.16414   -111.23511   0.20644771   -111.02866   -3817.2633    4.2539242    4.2539242    4.2539242   -3817.2633     416.0231   -6884.7279   -4983.0852    1067.9677    2647.7853     937.7568    76.978466 
   12200    119.11851   -111.13754   0.10778093   -111.02975   -444.94163    4.2529419    4.2529419    4.2529419   -444.94163     2307.311   -8486.2335    4844.0976   -424.76417   -1950.3654   -1190.6358    76.925152 
   12300    199.52976   -111.20959   0.18053872   -111.02905   -326.97388    4.2508266    4.2508266    4.2508266   -326.97388   -1555.3869   -2651.7222    3226.1875   -2069.8277    599.29328   -998.75237    76.810427 
   12400    206.97001   -111.21566   0.18727081   -111.02839    3034.1447     4.251925     4.251925     4.251925    3034.1447    3134.0866     935.5704    5032.7771    415.23024    -1223.131   -1238.4883    76.869986 
   12500     181.5784   -111.19329   0.16429595   -111.02899   -1395.0277    4.2531493    4.2531493    4.2531493   -1395.0277    1939.8495   -11401.452    5276.5199    46.278702   -1547.3828   -897.50372    76.936402 
   12600    153.37104   -111.16832   0.13877334   -111.02955   -2638.1269    4.2529523    4.2529523    4.2529523   -2638.1269   -3539.3552   -11930.215    7555.1892    -1264.088    2182.6406    84.821412    76.925715 
   12700    207.39365   -111.21621   0.18765414   -111.02855     2000.598    4.2514849    4.2514849    4.2514849     2000.598    5924.0379   -4102.4738    4180.2297    146.14196   -1164.4313    2124.1477    76.846116 
   12800    260.42446   -111.26357   0.23563752   -111.02793     508.8226    4.2512435    4.2512435    4.2512435     508.8226    88.248034   -1977.3921    3415.6118     684.2921    1976.5604     1559.754    76.833026 
   12900    156.03425   -111.17035   0.14118307   -111.02917    -2036.189    4.2536907    4.2536907    4.2536907    -2036.189    3757.4379   -7927.0838   -1938.9209   -839.52839   -555.07824    314.79756    76.965787 
   13000    203.84399   -111.21364   0.18444233    -111.0292    -5118.256    4.2534835    4.2534835    4.2534835    -5118.256    -4772.544   -7186.7038   -3395.5201   -2950.4994   -753.60744   -556.70075    76.954544 
   13100    196.59135    -111.2067   0.17787999   -111.02882    5654.7076    4.2503271    4.2503271    4.2503271    5654.7076    5149.4874    4753.3085     7061.327    188.11746    556.87577    427.33012    76.783351 
   13200    255.32667    -111.2594   0.23102493   -111.02838   -487.69786    4.2520739    4.2520739    4.2520739   -487.69786    491.25707   -1777.4269   -176.92374    2623.4032   -2174.3085   -1167.5115    76.878059 
   13300    122.23528   -111.14031   0.11060105   -111.02971   -835.16361    4.2537111    4.2537111    4.2537111   -835.16361    2471.7727   -7446.6075    2469.3439   -1290.2365    551.66225   -2483.0015    76.966895 
   13400    217.61148   -111.22595   0.19689944   -111.02905   -2855.0627    4.2523346    4.2523346    4.2523346   -2855.0627   -3670.5816   -7389.1147     2494.508   -3492.5162   -1366.0415   -74.799228    76.892201 
   13500    235.33461    -111.2412    0.2129357   -111.02826    4298.1222    4.2512135    4.2512135    4.2512135    4298.1222    5293.1329    1502.1262    6099.1076   -711.52062   -443.22482    406.54572    76.831402 
   13600    244.00418   -111.24938   0.22078011    -111.0286   -1991.1282    4.2521982    4.2521982    4.2521982   -1991.1282    3548.6132   -5055.7547   -4466.2431    708.72736     2321.933    1738.3044      76.8848 
   13700    184.74494   -111.19651   0.16716111   -111.02935   -4525.4114     4.253216     4.253216     4.253216   -4525.4114    -5236.925   -4742.7423   -3596.5668   -770.91393   -1235.6651    8.6747054    76.940026 
   13800    217.08211   -111.22553   0.19642046   -111.02911    650.97491    4.2529647    4.2529647    4.2529647    650.97491    5230.7753   -1062.1636    -2215.687   -1878.7653    1297.4093    636.27717    76.926386 
   13900    277.01257   -111.27875   0.25064679   -111.02811    2195.9492    4.2506752    4.2506752    4.2506752    2195.9492    1550.6491    2024.7463     3012.452   -785.05347   -1801.4827   -432.28279    76.802217 
   14000    162.03001   -111.17592   0.14660816   -111.02931    2084.8308    4.2516013    4.2516013    4.2516013    2084.8308    3477.3224    -190.5443    2967.7144   -623.36465    -792.1779   -1754.4808    76.852429 
   14100    196.31442   -111.20718   0.17762941   -111.02955   -3371.3916    4.2538736    4.2538736    4.2538736   -3371.3916   -4461.3665   -7339.6735    1686.8654    -97.89163    1252.9431   -595.39611    76.975718 
   14200    181.92743   -111.19373   0.16461177   -111.02912    4763.3909    4.2515736    4.2515736    4.2515736    4763.3909    6453.3647   -3468.1159    11304.924    723.96041   -2105.3734   -272.35239    76.850929 
   14300    282.90063   -111.28423   0.25597444   -111.02826    -1867.949    4.2512405    4.2512405    4.2512405    -1867.949    309.59111   -6399.0339    485.59596   -1051.9022    1670.8224    1108.1334    76.832864 
   14400    150.41581   -111.16551   0.13609939   -111.02941   -784.30786    4.2528074    4.2528074    4.2528074   -784.30786    3121.1802   -6734.1073    1260.0036   -2089.6623   -1118.2056   -1638.7528    76.917852 
   14500    221.61974   -111.22956   0.20052619   -111.02903   -4868.7887    4.2527366    4.2527366    4.2527366   -4868.7887   -3225.4561   -9989.6688   -1391.2413    -1825.457    419.37331     1182.133    76.914012 
   14600    223.09221   -111.23056   0.20185852    -111.0287    625.21489    4.2521321    4.2521321    4.2521321    625.21489    4914.4626    -5702.538      2663.72     1350.113    983.81465    723.36911    76.881218 
   14700    216.56633   -111.22453   0.19595376   -111.02858    -911.8615    4.2517188    4.2517188    4.2517188    -911.8615    3550.1438   -6212.7673   -72.961004     158.7401   -1434.5824   -708.04269    76.858799 
   14800    133.65569   -111.15058   0.12093447   -111.02965    375.08842    4.2518978    4.2518978    4.2518978    375.08842   -5174.5488   -5520.2124    11820.027    -3266.874    1406.8519   -1844.2981    76.868506 
   14900    144.77571   -111.16054    0.1309961   -111.02954    2221.0104    4.2530572    4.2530572    4.2530572    2221.0104     3990.379   -6269.6251    8942.2774   -1120.4938   -1927.7475   -1802.5004    76.931404 
   15000    231.68955   -111.23787   0.20963757   -111.02823     236.7999    4.2518406    4.2518406    4.2518406     236.7999    1643.5597     -9413.79      8480.63    254.20961    654.69036    491.51762    76.865403 
   15100    150.98463   -111.16575   0.13661407   -111.02913    1941.7297    4.2509299    4.2509299    4.2509299    1941.7297    1938.6374   -5721.8295    9608.3811   -1.2007183    390.90663    279.49007    76.816023 
   15200    181.09904   -111.19323   0.16386222   -111.02936   -4010.7457    4.2534843    4.2534843    4.2534843   -4010.7457   -3626.8393    -9960.409    1555.0112   -413.84984   -752.22629    671.94799    76.954583 
   15300    183.41564   -111.19487   0.16595833   -111.02891   -893.97819    4.2526827    4.2526827    4.2526827   -893.97819    5362.5734   -9035.8651     991.3571   -627.18076    589.75335     498.2242    76.911087 
   15400    258.83369   -111.26217   0.23419816   -111.02797   -3361.3986    4.2513564    4.2513564    4.2513564   -3361.3986    572.33593   -8036.6297    -2619.902   -280.69878   -1528.5915    1024.3917    76.839146 
   15500    137.27152   -111.15362   0.12420616   -111.02942    788.51072    4.2528001    4.2528001    4.2528001    788.51072    2323.5771   -7291.4743    7333.4295   -1666.3408    725.28235   -1316.5554    76.917454 
   15600    141.14933   -111.15739   0.12771488   -111.02968   -802.96396    4.2526536    4.2526536    4.2526536   -802.96396   -2368.1002   -5782.4402    5741.6485    140.95854    337.04878   -1045.4742    76.909507 
   15700    189.28773   -111.20019   0.17127152   -111.02892    1438.3141    4.2518248    4.2518248    4.2518248    1438.3141    2942.8394   -5291.4363    6663.5391    1129.0075   -629.91973    -842.7548     76.86455 
   15800    200.44421      -111.21   0.18136613   -111.02864    2198.2031    4.2521309    4.2521309    4.2521309    2198.2031    4616.3046   -2912.4607    4890.7653   -940.96936    657.29158    -1616.869    76.881152 
   15900    169.58612    -111.1829   0.15344509   -111.02946   -602.41006    4.2520126    4.2520126    4.2520126   -602.41006   -3747.3836   -6261.7944    8201.9478   -2922.7137   -1292.9251   -919.89901    76.874733 
   16000    186.87712   -111.19836   0.16909035   -111.02927   -2498.8209    4.2533938    4.2533938    4.2533938   -2498.8209     249.9563   -4136.6077   -3609.8113   -376.18569    726.94507    508.03705    76.949675 
   16100    295.86328   -111.29552   0.26770332   -111.02781   -3253.0359    4.2527639    4.2527639    4.2527639   -3253.0359    2259.8342   -4802.7737   -7216.1681    2640.1979   -513.75929    1435.5777    76.915489 
   16200    227.56934   -111.23466   0.20590952   -111.02875    1880.7564    4.2506021    4.2506021    4.2506021    1880.7564    2720.4114   -1537.2246    4459.0824    36.563033   -189.60613    727.10703    76.798254 
   16300    186.56083   -111.19839   0.16880416   -111.02959   -2268.5114    4.2535728    4.2535728    4.2535728   -2268.5114   -2331.8992   -4803.8639    330.22901   -2841.7512    992.11051   -558.54268     76.95939 
   16400    190.33789   -111.20175   0.17222172   -111.02953    -241.7784     4.253619     4.253619     4.253619    -241.7784    1257.1424   -4222.6848    2240.2072    -961.1491   -889.69588    -1131.609    76.961896 
   16500    254.65249   -111.25882   0.23041493    -111.0284    3708.1488    4.2504559    4.2504559    4.2504559    3708.1488    1904.0923    4880.4418    4339.9124    790.71572    1190.8278   -670.88401     76.79033 
   16600    194.67065   -111.20536   0.17614209   -111.02921    3980.5437    4.2519822    4.2519822    4.2519822    3980.5437    4910.4006   -2326.0675    9357.2979     1064.634   -84.016504   -1589.5417    76.873084 
   16700    173.55418   -111.18683   0.15703547    -111.0298   -2510.6702    4.2535875    4.2535875    4.2535875   -2510.6702   -1880.5218   -4696.6663   -954.82266   -643.91339    70.667764   -1290.4948    76.960189 
   16800    265.77568   -111.26916   0.24047942   -111.02868   -3444.6911    4.2527664    4.2527664    4.2527664   -3444.6911   -2712.0006   -4563.5111   -3058.5615   -1648.4431    -335.8142    547.54498    76.915627 
   16900    283.87458   -111.28504   0.25685569   -111.02818    1225.0761     4.252221     4.252221     4.252221    1225.0761    5509.3579    1225.5355   -3059.6652    -438.3719    -1458.258     77.01032    76.886041 
   17000    221.36685   -111.22932   0.20029738   -111.02902   -1455.4897    4.2513712    4.2513712    4.2513712   -1455.4897    981.08976   -7767.0307    2419.4717   -923.21836     921.8965    272.53901    76.839949 
   17100    176.30674   -111.18926   0.15952604   -111.02973   -4044.4028    4.2535323    4.2535323    4.2535323   -4044.4028   -5350.6616   -9427.7032    2645.1564    34.293009    -252.8618    91.573868    76.957189 
   17200    244.19538   -111.24954   0.22095312   -111.02858   -967.56472    4.2541255    4.2541255    4.2541255   -967.56472   -1630.2941   -3067.2617    1794.8617   -106.84634     1187.498   -215.78178    76.989394 
   17300    202.65572   -111.21191   0.18336715   -111.02855    5914.2292    4.2499281    4.2499281    4.2499281    5914.2292    2643.9643    2005.3354    13093.388   -2552.3095    55.185335   -1670.6874    76.761732 
   17400    128.84973    -111.1464   0.11658594   -111.02981    1505.3381    4.2516212    4.2516212    4.2516212    1505.3381    1505.0981    -5225.561    8236.4773   -944.26474   -253.46443   -1717.6947    76.853506 
   17500    159.15102   -111.17358   0.14400319   -111.02958    -3167.923    4.2549237    4.2549237    4.2549237    -3167.923   -2728.2289   -11567.429    4791.8892    1006.7601    192.17726   -1173.5679    77.032735 
   17600     243.1303   -111.24833   0.21998941   -111.02834     536.3083    4.2519821    4.2519821    4.2519821     536.3083    506.87839    2050.7956   -948.74912    1691.1883   -940.57083      396.115    76.873082 
   17700    218.21015   -111.22615   0.19744113   -111.02871    1339.4362    4.2512746    4.2512746    4.2512746    1339.4362    8163.5892   -5166.9923    1021.7117   -1303.3448     229.7053    612.92011    76.834712 
   17800    144.19599   -111.16006   0.13047156   -111.02959   -3398.4534    4.2525944    4.2525944    4.2525944   -3398.4534    2591.7499   -13001.344    214.23397   -1649.5548   -1104.1155   -386.63649    76.906294 
   17900    196.98996   -111.20718   0.17824065   -111.02894   -5142.0633    4.2535693    4.2535693    4.2535693   -5142.0633   -6137.5214   -11940.807    2652.1389    262.94582   -228.26812    495.80795      76.9592 
   18000    215.46293   -111.22341   0.19495539   -111.02845    966.92659    4.2537312    4.2537312    4.2537312    966.92659    2542.2185    -384.7378    743.29904    527.27503    940.40065   -450.87595    76.967986 
   18100    148.19237   -111.16307   0.13408757   -111.02899    2540.4151    4.2503905    4.2503905    4.2503905    2540.4151    5147.8404   -5395.3003    7868.7054    274.25161    604.48626   -1413.7183    76.786787 
   18200    88.821323   -111.11037    0.0803674      -111.03    146.92503    4.2509903    4.2509903    4.2509903    146.92503   -3394.8372   -9528.2571    13363.869   -550.04483    870.99615   -1591.8882    76.819301 
   18300    184.72902   -111.19613    0.1671467   -111.02898   -2749.9054    4.2558859    4.2558859    4.2558859   -2749.9054   -2207.4639   -6053.6537    11.401392    518.35071   -510.95445    -1303.124    77.085009 
   18400    226.14789   -111.23282   0.20462336    -111.0282    678.20915    4.2523134    4.2523134    4.2523134    678.20915    1937.9223    620.60405   -523.89894    -1009.998   -489.68612   -416.41768     76.89105 
   18500      173.551   -111.18629    0.1570326   -111.02926    534.12004    4.2496729    4.2496729    4.2496729    534.12004    5575.1615   -4466.2363    493.43491   -1225.5376   -7.0084358     436.3624    76.747904 
   18600    174.81256   -111.18768   0.15817408    -111.0295   -2964.0436    4.2538024    4.2538024    4.2538024   -2964.0436    2869.6312   -11889.093    127.33073    1729.3866   -761.74117    973.73408    76.971851 
   18700    261.75709   -111.26544   0.23684332    -111.0286   -2655.5677     4.253602     4.253602     4.253602   -2655.5677    1710.9253   -1857.8021   -7819.8262    799.18224    436.12325    841.74585    76.960972 
   18800    247.84512    -111.2532   0.22425548   -111.02894     941.5911    4.2524715    4.2524715    4.2524715     941.5911    7037.7027   -700.76842   -3512.1609   -2138.9473   -422.22082   -323.32783    76.899626 
   18900    154.62666   -111.16949   0.13990946   -111.02958    2956.2802    4.2510028    4.2510028    4.2510028    2956.2802    7190.2316   -3331.3817    5009.9906   -817.16275    169.87298   -786.28196    76.819976 
   19000    171.38263    -111.1847    0.1550706   -111.02963    1611.3628     4.250856     4.250856     4.250856    1611.3628   -851.79407   -2923.6821    8609.5645     2811.504    487.67002   -1807.3524    76.812017 
   19100    246.19381   -111.25122   0.22276133   -111.02846   -1610.3006    4.2558899    4.2558899    4.2558899   -1610.3006   -1687.0334   -675.51186   -2468.3565    1261.7482   -181.63609   -1216.1511    77.085225 
   19200    240.20144   -111.24625   0.21733931   -111.02891   -1480.8091    4.2527237    4.2527237    4.2527237   -1480.8091   -704.67965   -3233.9312   -503.81661   -2918.6118    912.43585   -1802.8104    76.913308 
   19300     161.1058   -111.17568   0.14577191   -111.02991    2589.8927    4.2480913    4.2480913    4.2480913    2589.8927   -274.32959   -879.53567    8923.5432    -2912.325   -1564.4807   -336.64366    76.662243 
   19400     239.7436   -111.24614   0.21692505   -111.02921   -3330.9627    4.2545816    4.2545816    4.2545816   -3330.9627    2383.5974   -7341.9665   -5034.5188     2148.865   -552.30815    1163.8599    77.014157 
   19500    286.82588   -111.28765   0.25952608   -111.02813   -4624.0859    4.2551726    4.2551726    4.2551726   -4624.0859   -849.42846   -4257.5952   -8765.2341     904.5804   -883.26485    280.95072    77.046255 
   19600    249.76379   -111.25493   0.22599153   -111.02894   -1270.4233     4.250856     4.250856     4.250856   -1270.4233     171.9248   -1126.4927    -2856.702   -1021.1245    1011.7713     762.3948    76.812021 
   19700    147.89463   -111.16357   0.13381817   -111.02976    5647.0862    4.2511375    4.2511375    4.2511375    5647.0862    10579.955    685.66467    5675.6392   -480.16008    934.20649   -798.67202    76.827279 
   19800    227.83036   -111.23561   0.20614569   -111.02947    751.94541    4.2518028    4.2518028    4.2518028    751.94541    2471.2431   -2200.2778    1984.8709    1787.9612   -1287.6503   -473.79533    76.863356 
   19900     230.1121    -111.2367   0.20821026   -111.02849   -1824.5397    4.2549238    4.2549238    4.2549238   -1824.5397   -2463.6532   -3788.8427    778.87689    295.39769    118.42502   -1661.8461    77.032745 
   20000    171.19199   -111.18436   0.15489811   -111.02946    834.19202    4.2533782    4.2533782    4.2533782    834.19202    1271.7407   -3949.7204    5180.5557   -849.13079   -56.419317   -1598.8201    76.948828 
   20100    118.94676   -111.13734   0.10762553   -111.02971    6429.3287    4.2470307    4.2470307    4.2470307    6429.3287    4813.4858    1020.2589    13454.242    1552.4976   -12.417882   -599.31287    76.604836 
   20200    213.22228   -111.22161     0.192928   -111.02868   -4410.7875    4.2543886    4.2543886    4.2543886   -4410.7875    -3209.293   -9881.3274   -141.74198    162.46375   -745.67945    745.12922    77.003677 
   20300    248.30976   -111.25283   0.22467589   -111.02815   -9712.9744    4.2574251    4.2574251    4.2574251   -9712.9744   -9235.7585    -12933.92   -6969.2449    27.835111   -1320.6833    413.80738    77.168675 
   20400    142.29147   -111.15822   0.12874832   -111.02947    1245.9883    4.2491348    4.2491348    4.2491348    1245.9883    -666.5743    343.32958    4061.2097   -73.099716    378.15217    235.37091    76.718753 
   20500    163.58493   -111.17726   0.14801508   -111.02924    1750.1279    4.2504261    4.2504261    4.2504261    1750.1279    7071.5762   -2969.7466    1148.5542    2538.2035    554.91511    620.26958    76.788716 
   20600    202.18166   -111.21238   0.18293822   -111.02945    -1611.421    4.2540159    4.2540159    4.2540159    -1611.421    3074.4184   -6658.8594   -1249.8219    318.78122    267.97413    329.15001    76.983443 
   20700    245.74715   -111.25072   0.22235719   -111.02837   -4554.5369    4.2540281    4.2540281    4.2540281   -4554.5369   -3736.2229   -7018.5889   -2908.7991   -1947.9125   -245.59528   -1223.5964    76.984105 
   20800    80.593764   -111.10325  0.072922931   -111.03032    8193.0846    4.2523304    4.2523304    4.2523304    8193.0846    16795.254    1102.3467    6681.6536    855.68471   -757.57374   -1678.3594    76.891971 
   20900    187.10097   -111.19857   0.16929289   -111.02927    4230.8478    4.2477148    4.2477148    4.2477148    4230.8478    7427.7204   -4444.0523    9708.8754    2215.3661   -271.60993   -563.47613    76.641863 
   21000     209.0821    -111.2176   0.18918187   -111.02842   -117.43517    4.2529857    4.2529857    4.2529857   -117.43517    3420.9527   -6713.2416    2939.9833    1209.1382   -153.64589    22.327002    76.927526 
   21100    255.48696   -111.26015   0.23116997   -111.02898   -8447.4098    4.2586801    4.2586801    4.2586801   -8447.4098   -4168.6173   -14075.072     -7098.54   -883.14403    121.24478    955.32329    77.236939 
   21200    123.75371   -111.14228   0.11197496    -111.0303    3044.0804    4.2481002    4.2481002    4.2481002    3044.0804    3222.4701    634.36995     5275.401    2646.3283    537.87788   -269.87607    76.662723 
   21300    231.43235   -111.23851   0.20940486   -111.02911   -633.13831    4.2489281    4.2489281    4.2489281   -633.13831    3137.6525   -4832.9087   -204.15868    899.40383   -625.39218    1199.7791    76.707558 
   21400    278.70545   -111.28092   0.25217855   -111.02874   -5239.9346    4.2569653    4.2569653    4.2569653   -5239.9346    942.24129    -6798.412   -9863.6332   -403.61467    -343.2345    28.375384    77.143678 
   21500    223.25473    -111.2309   0.20200557   -111.02889   -4241.7165    4.2539998    4.2539998    4.2539998   -4241.7165   -1312.2518   -6033.3754   -5379.5223   -379.05563   -57.817376   -911.17969    76.982566 
   21600    183.52925   -111.19624   0.16606112   -111.03018    2199.4391    4.2505761    4.2505761    4.2505761    2199.4391    7403.4583    -2042.443    1237.3021    1650.0075    291.23791   -538.83121    76.796848 
   21700    210.50547   -111.22025   0.19046978   -111.02978    8511.3035    4.2492559    4.2492559    4.2492559    8511.3035    18920.415   -463.94508    7077.4406    548.96172    132.86914   -647.99069    76.725313 
   21800    319.89691   -111.31737   0.28944944   -111.02792   -1541.2844    4.2530622    4.2530622    4.2530622   -1541.2844    727.26619   -4657.9329   -693.18645   -164.42209   -742.10203    226.32527     76.93168 
   21900    148.76361   -111.16466   0.13460444   -111.03005   -274.61092    4.2576064    4.2576064    4.2576064   -274.61092    8607.4605   -7803.4219   -1627.8714    1026.3356    347.49531   -122.87872    77.178533 
   22000    205.77983   -111.21574   0.18619391   -111.02954    1161.2363    4.2486516    4.2486516    4.2486516    1161.2363    2099.6355   -4243.9785     5628.052    2070.2605      1092.89    1215.4693    76.692583 
   22100    183.36591   -111.19519   0.16591332   -111.02928    8771.4482    4.2473107    4.2473107    4.2473107    8771.4482    13874.958    6981.5479    5457.8387    205.23972    706.06314    1503.2214    76.619993 
   22200    300.08047   -111.29983   0.27151912   -111.02831   -11224.173    4.2591127    4.2591127    4.2591127   -11224.173   -10217.799   -10955.673   -12499.047   -1056.8421   -1245.5785    261.75731    77.260481 
   22300    126.04986   -111.14381   0.11405256   -111.02976    -6875.143    4.2540323    4.2540323    4.2540323    -6875.143   -11751.135   -6656.5637   -2217.7301    3557.0877   -687.21299   -757.38697    76.984333 
   22400    185.08987   -111.19714    0.1674732   -111.02967    128.50646    4.2481872    4.2481872    4.2481872    128.50646    2230.3658   -4431.4338    2586.5874    1473.6032    244.03545   -574.29461    76.667433 
   22500    205.00085   -111.21459   0.18548908   -111.02911    4735.7136    4.2517044    4.2517044    4.2517044    4735.7136    8742.4868    3750.4922    1714.1617    122.90714    1158.6285    328.82528    76.858022 
   22600    216.53277   -111.22445    0.1959234   -111.02853   -6015.3033      4.25438      4.25438      4.25438   -6015.3033   -8176.8818   -10002.608    133.58011    698.98639   -184.70985    -88.10415    77.003209 
   22700    111.12915   -111.13068   0.10055199   -111.03013   -2433.5006    4.2552846    4.2552846    4.2552846   -2433.5006   -513.31755   -9316.9449    2529.7606    2091.3247   -477.87376    139.21376    77.052342 
   22800    116.42102   -111.13465   0.10534018   -111.02931    9883.3529    4.2494001    4.2494001    4.2494001    9883.3529    19534.918   -832.50895    10947.649    684.13928    387.45129    1524.2455    76.733121 
   22900    220.42452   -111.22761   0.19944474   -111.02817    5803.3303    4.2477545    4.2477545    4.2477545    5803.3303    2003.6414    8542.3236    6864.0258   -1656.2046    168.18109     1410.372     76.64401 
   23000    156.62774   -111.17043   0.14172007   -111.02871   -5134.3844    4.2581264    4.2581264    4.2581264   -5134.3844   -463.08207    -10338.74   -4601.3311    1536.8247    361.05363    363.96419    77.206819 
   23100    151.71306   -111.16694   0.13727317   -111.02967   -5804.9653    4.2544767    4.2544767    4.2544767   -5804.9653   -4666.7477   -10949.645    -1798.503    2504.0753    -1308.962     232.0386    77.008462 
   23200    150.48582   -111.16574   0.13616273   -111.02958    5470.7233    4.2467744    4.2467744    4.2467744    5470.7233     9601.604    2807.2445    4003.3214    1636.7075    181.13411   -321.64646    76.590972 
   23300    258.02179   -111.26189   0.23346354   -111.02842    -4357.134    4.2540807    4.2540807    4.2540807    -4357.134   -3073.9089   -3907.6358   -6089.8573   -850.40987     313.9412   -128.09967    76.986958 
   23400    180.65788   -111.19254   0.16346305   -111.02907   -7789.2299    4.2558456    4.2558456    4.2558456   -7789.2299   -8147.1857   -14074.543   -1145.9609    2766.4306    3.5023842   -1272.7616    77.082817 
   23500    173.82301   -111.18718   0.15727871    -111.0299    -2824.321    4.2524151    4.2524151    4.2524151    -2824.321    250.37123   -11593.717     2870.383    2120.8682    1034.6019    549.22124    76.896568 
   23600    181.48561   -111.19326     0.164212   -111.02905    7187.9162    4.2507155    4.2507155    4.2507155    7187.9162    13165.354    1725.3741    6673.0207   -309.74402   -262.47667    1888.1742    76.804404 
   23700     261.8419   -111.26568   0.23692006   -111.02876    2073.6221    4.2503551    4.2503551    4.2503551    2073.6221    2871.2779    -1709.773    5059.3614    690.49127    57.408117    1175.9603    76.784868 
   23800    183.97565   -111.19569   0.16646503   -111.02922    -405.6784    4.2558183    4.2558183    4.2558183    -405.6784     6315.147   -7385.8597   -146.32248    1899.8923   -159.69948    614.98535    77.081337 
   23900    204.11454   -111.21436   0.18468712   -111.02967   0.57748143    4.2543136    4.2543136    4.2543136   0.57748143    10910.075   -9264.9888   -1643.3534    1008.3186    -15.74706    714.02975    76.999606 
   24000    246.85005   -111.25192   0.22335511   -111.02856    6017.7371    4.2471567    4.2471567    4.2471567    6017.7371    10685.432     6610.318    757.46133   -1007.3298    349.68013    1086.1786    76.611659 
   24100     309.8666    -111.3086   0.28037381   -111.02823    -2480.925    4.2539967    4.2539967    4.2539967    -2480.925    6892.4727    -7454.553   -6880.6947    1686.1356   -1315.8662   -660.49835      76.9824 
   24200    221.80638   -111.23029   0.20069508   -111.02959   -5332.2519    4.2561138    4.2561138    4.2561138   -5332.2519   -2357.7631   -9317.1971   -4321.7955    708.92059    169.90002   -806.64056    77.097393 
   24300    234.66777   -111.24219   0.21233233   -111.02986   -2530.7953     4.250478     4.250478     4.250478   -2530.7953   -132.13037    -7985.576    525.32052    -119.8086    134.02886    627.85874     76.79153 
   24400    235.59637   -111.24222   0.21317254   -111.02905    4244.0955    4.2518278    4.2518278    4.2518278    4244.0955    10342.684    1135.7863     1253.816   -867.31374   -21.944642     1065.987     76.86471 
   24500    245.94101   -111.25152    0.2225326   -111.02899    234.18202    4.2529627    4.2529627    4.2529627    234.18202    862.40219    -5413.063    5253.2068    2641.4242    247.64475    909.79088    76.926278 
   24600    192.95928   -111.20392   0.17459361   -111.02933   -1815.1079    4.2535442    4.2535442    4.2535442   -1815.1079   -4916.6922   -3681.9289    3153.2975    2833.4827   -1949.8328    1421.0856    76.957836 
   24700     179.1272   -111.19154   0.16207805   -111.02946    2448.6358    4.2536683    4.2536683    4.2536683    2448.6358    9832.4144   -4451.3399    1964.8329   -2061.1955    252.24153    1876.2587    76.964571 
   24800    257.46434   -111.26132   0.23295915   -111.02837    3144.7432    4.2494454    4.2494454    4.2494454    3144.7432     7312.899    1125.8389    995.49165   -328.08573   -28.137552    839.06356    76.735576 
   24900    219.98671   -111.22757    0.1990486   -111.02852   -88.318587    4.2529846    4.2529846    4.2529846   -88.318587    2112.4458   -1259.0121   -1118.3894    816.57708   -326.60154   -1396.5417    76.927467 
   25000    220.19132   -111.22804   0.19923373   -111.02881   -6983.6782    4.2562013    4.2562013    4.2562013   -6983.6782   -4985.0424   -9941.1656   -6024.8267    1235.3755    509.07836    195.96385     77.10215 
   25100    148.72775   -111.16402   0.13457199   -111.02945    2025.9694    4.2500984    4.2500984    4.2500984    2025.9694    8157.0359   -2559.6619    480.53423   -2291.5086   -1239.5903    480.82126    76.770958 
   25200     235.4362   -111.24156   0.21302763   -111.02853   -1757.7634    4.2523679    4.2523679    4.2523679   -1757.7634   -301.92773   -5435.9899    464.62744   -446.27989    1004.4478   -174.71971    76.894008 
   25300    134.61321   -111.15132   0.12180086   -111.02951    192.36232    4.2540962    4.2540962    4.2540962    192.36232   -7193.7837    1522.5756     6248.295     804.5355   -930.41102     201.9653    76.987802 
   25400    148.73896   -111.16407   0.13458213   -111.02949   -2338.0887    4.2518292    4.2518292    4.2518292   -2338.0887   -7775.8041    -6117.042    6878.5801   -503.51654   -83.731057    1993.3196    76.864785 
   25500    112.61413   -111.13137   0.10189563   -111.02947    3346.3942    4.2527653    4.2527653    4.2527653    3346.3942    7081.0313   -1332.6905    4290.8418   -825.77641    14.816933    2597.1908    76.915568 
   25600     189.6979   -111.20005   0.17164265   -111.02841    29.478554    4.2520732    4.2520732    4.2520732    29.478554   -2197.5597   -2860.4111    5146.4065    603.90275   -1017.7986     119.8654    76.878019 
   25700    178.46825    -111.1898   0.16148183   -111.02832   -1887.4347    4.2522462    4.2522462    4.2522462   -1887.4347      -8626.9    1564.2684    1400.3275    685.53639    1675.2203   -41.633667    76.887408 
   25800    142.88582   -111.15834   0.12928609   -111.02906   -1710.8077    4.2547075    4.2547075    4.2547075   -1710.8077    6240.1857   -10377.114   -995.49483    -847.1126   -140.17831    656.06776    77.020995 
   25900    188.56755   -111.19914   0.17061988   -111.02852    -1357.133    4.2512703    4.2512703    4.2512703    -1357.133    3529.9592   -7070.6369   -530.72134   -391.56285    661.79238   -5.6984025    76.834479 
   26000     177.3901    -111.1891   0.16050629   -111.02859    863.32837    4.2514816    4.2514816    4.2514816    863.32837    671.87946   -2163.9924     4082.098    1713.6365   -502.95527   -642.37361    76.845937 
   26100    192.00573   -111.20252   0.17373082   -111.02879   -2686.3807    4.2547627    4.2547627    4.2547627   -2686.3807   -6937.7297    -3802.495    2681.0826    709.35055   -1469.6314    938.26381    77.023992 
   26200     107.4457   -111.12687  0.097219128   -111.02965     1768.746    4.2513568    4.2513568    4.2513568     1768.746    6149.5034   -6387.1348    5543.8695   -3381.4547     910.4358    2978.4916    76.839171 
   26300    194.52073   -111.20518   0.17600645   -111.02917   -1851.2031    4.2521234    4.2521234    4.2521234   -1851.2031   -795.69623   -6547.1852    1789.2721   -46.845557   -885.67999    993.27491    76.880742 
   26400    203.53789     -111.213   0.18416536   -111.02883     441.8079     4.253766     4.253766     4.253766     441.8079   -907.75054   -318.75861    2551.9328    673.68255    1075.6643    16.404079    76.969878 
   26500    219.87604    -111.2279   0.19894846   -111.02895     -1049.76    4.2518785    4.2518785    4.2518785     -1049.76   -947.51608   -3665.5387    1463.7747    175.26708    646.37926    1199.5585    76.867463 
   26600     206.8151   -111.21622   0.18713065   -111.02909   -1418.9582    4.2527073    4.2527073    4.2527073   -1418.9582    7879.9758   -8780.1201   -3356.7303   -876.59714   -476.55224    825.77228    76.912423 
   26700    240.13598   -111.24594   0.21728008   -111.02866    415.84523    4.2526637    4.2526637    4.2526637    415.84523    6965.8437   -7012.8185    1294.5105   -614.82108    664.99189   -1453.7059    76.910052 
   26800    286.29705   -111.28728   0.25904758   -111.02823    1195.5909     4.251375     4.251375     4.251375    1195.5909    1481.1461    617.75872    1487.8678    1180.8023   -1495.5189   -1283.2137    76.840155 
   26900    202.03089   -111.21203    0.1828018   -111.02923    2196.1868      4.25388      4.25388      4.25388    2196.1868    8317.5346   -6268.4922    4539.5179   -1550.4735   -528.85125    1864.5895    76.976065 
   27000    216.72851   -111.22529   0.19610051   -111.02919   -101.39856    4.2520286    4.2520286    4.2520286   -101.39856    2216.9087   -4514.6657    1993.5614    290.81164   -938.07899    1950.7904    76.875604 
   27100     226.9891   -111.23434    0.2053845   -111.02896    3298.9746    4.2506364    4.2506364    4.2506364    3298.9746    7624.8588   -1107.3867    3379.4515   -28.027596   -1410.9984   -291.26109    76.800113 
   27200    279.08303     -111.281   0.25252019   -111.02848   -1680.1781     4.254593     4.254593     4.254593   -1680.1781   -3162.2997   -217.31971   -1660.9148   -882.64959    1856.3365    712.67684    77.014777 
   27300    216.40653   -111.22516   0.19580917   -111.02935   -2871.0379     4.252154     4.252154     4.252154   -2871.0379   -585.58005   -6377.4555   -1650.0782   -2050.1014   -10.501845    1250.7139    76.882406 
   27400    218.05361   -111.22685   0.19729949   -111.02955   -2391.7629     4.251173     4.251173     4.251173   -2391.7629    663.39053   -3007.7229   -4830.9564   -1009.7092    981.62273   -326.31168    76.829206 
   27500    276.55806   -111.27912   0.25023554   -111.02888   -1537.5543    4.2538874    4.2538874    4.2538874   -1537.5543    2961.5419   -6215.5007    -1358.704    1757.7944   -1455.7709   -2057.4056    76.976464 
   27600    236.13842   -111.24224     0.213663   -111.02858    229.74392     4.251965     4.251965     4.251965    229.74392   -1374.4686   -1058.2204    3121.9207   -2318.2822   -1547.3663    372.19606     76.87215 
   27700    196.76996   -111.20719   0.17804159   -111.02915   -1929.2764    4.2528185    4.2528185    4.2528185   -1929.2764   -1667.3066   -5902.5949    1782.0722   -2390.0324    659.48302      1941.06    76.918454 
   27800    143.58106   -111.15957   0.12991516   -111.02965    5470.5556    4.2520885    4.2520885    4.2520885    5470.5556    7696.0823    1681.7088    7033.8758   -48.072952   -1501.1652    20.739208    76.878853 
   27900    245.39155   -111.25061   0.22203543   -111.02857    2771.2622    4.2504695    4.2504695    4.2504695    2771.2622    3192.7014    1922.0099    3199.0755    707.44918    907.22428    282.96925     76.79107 
   28000    174.91013    -111.1872   0.15826236   -111.02893     130.0674    4.2542939    4.2542939    4.2542939     130.0674   -1024.1296   -2270.6652     3684.997   -291.14699     307.6763    1639.4956    76.998536 
   28100    163.51149   -111.17719   0.14794863   -111.02924    -3137.888    4.2529022    4.2529022    4.2529022    -3137.888    -5267.396   -730.80443   -3415.4636   -1425.1047    375.76917    1021.3093    76.922995 
   28200    158.59722   -111.17256    0.1435021   -111.02906    1387.1914    4.2499949    4.2499949    4.2499949    1387.1914    4546.1198   -1219.1865     834.6408   -869.81006    1116.1441   -3072.2541    76.765346 
   28300    223.49033    -111.2304   0.20221874   -111.02818   -3655.9341     4.254075     4.254075     4.254075   -3655.9341   -5290.9759   -4143.7952   -1533.0311    992.06629   -1496.3234   -1549.9664    76.986651 
   28400    164.34908    -111.1777    0.1487065   -111.02899   -4837.6087    4.2532886    4.2532886    4.2532886   -4837.6087    -10680.74   -8996.4422    5164.3559   -2122.3257    667.92751    1828.6278    76.943965 
   28500    97.362399   -111.11791  0.088095544   -111.02982   -251.39812    4.2517314    4.2517314    4.2517314   -251.39812   -4103.4857    1368.6796    1980.6118   -42.125291   -1813.6635    187.34512    76.859482 
   28600    168.74754   -111.18173   0.15268632   -111.02905    607.60343     4.252498     4.252498     4.252498    607.60343    2034.5412   -4707.1958    4495.4649    330.40751   -1005.1439   -826.90218    76.901067 
   28700     173.3847    -111.1854   0.15688212   -111.02852    1406.8369    4.2516192    4.2516192    4.2516192    1406.8369   -2500.4186    195.07215     6525.857   -1205.3735    1102.6648    725.62935    76.853399 
   28800    189.28441   -111.20025   0.17126851   -111.02898   -4209.8412     4.253779     4.253779     4.253779   -4209.8412   -5859.3161   -6279.3095     -490.898    -79.70229    99.688617     2207.568    76.970583 
   28900    108.60591     -111.128  0.098268906   -111.02973    2983.7797    4.2531044    4.2531044    4.2531044    2983.7797    7372.5124    2002.4169   -423.59027   -1250.5939    853.40158   -877.20925    76.933966 
   29000    245.88325   -111.25071   0.22248034   -111.02823    166.47742    4.2500594    4.2500594    4.2500594    166.47742    4636.0563   -3958.1685   -178.45547    1479.1498   -1276.8887   -3186.5899    76.768844 
   29100     204.3749   -111.21329    0.1849227   -111.02836    1227.8026    4.2531339    4.2531339    4.2531339    1227.8026    2472.1735   -5895.8606     7107.095   -1852.5849   -462.31745    217.47609    76.935569 
   29200    192.80513   -111.20353   0.17445413   -111.02908   -3086.8363    4.2546694    4.2546694    4.2546694   -3086.8363   -893.35923   -6126.1278    -2241.022   -1153.8236    617.44336    713.06936    77.018926 
   29300    138.59211   -111.15512   0.12540106   -111.02972    2881.7046    4.2505345    4.2505345    4.2505345    2881.7046    6981.8726   -1336.3587    2999.5998    569.28807   -1867.0163   -1003.8701    76.794594 
   29400    250.07271   -111.25492   0.22627104   -111.02865   -193.64107    4.2522005    4.2522005    4.2522005   -193.64107    1397.1051   -2614.8879    636.85963    -724.8691   -435.89855   -195.66217    76.884928 
   29500    238.98056   -111.24503   0.21623464    -111.0288   -1217.9686    4.2531676    4.2531676    4.2531676   -1217.9686   -1914.8815   -5127.4797    3388.4553    511.13367    -1003.551    1985.6282      76.9374 
   29600        181.2    -111.1935   0.16395356   -111.02955   -2957.0531    4.2529927    4.2529927    4.2529927   -2957.0531   -1495.0014   -1152.0708   -6224.0871   -2688.2042    333.22435    1041.9257    76.927909 
   29700    235.17069   -111.24215   0.21278739   -111.02937   -3458.8161    4.2536343    4.2536343    4.2536343   -3458.8161    204.58781   -5672.4565   -4908.5796    771.61568   -234.02541   -3258.4461    76.962725 
   29800    254.00668   -111.25856   0.22983058   -111.02873    4405.5107    4.2498956    4.2498956    4.2498956    4405.5107    5222.5198    348.10001    7645.9125   -2029.5766   -532.27782   -992.27507    76.759969 
   29900    286.02247    -111.2876   0.25879914    -111.0288   -1883.4114    4.2523404    4.2523404    4.2523404   -1883.4114   -1770.2173   -7191.0592    3311.0423     -1683.27    1517.7509    1222.9657    76.892514 
   30000    134.89582   -111.15217   0.12205657   -111.03011      532.796    4.2557882    4.2557882    4.2557882      532.796    5364.0672   -4005.1635    239.48427    396.34464   -531.00756   -157.29333    77.079699 
   30100    257.50241   -111.26194   0.23299359   -111.02894    156.19436    4.2502658    4.2502658    4.2502658    156.19436    3889.5796   -3304.5708   -116.42574    -199.1165   -443.98846   -701.47552    76.780027 
   30200    232.10632   -111.23829   0.21001468   -111.02827    7332.2558     4.250146     4.250146     4.250146    7332.2558    6847.7695    5217.3332    9931.6647    487.30291    301.02569   -199.32145    76.773537 
   30300    256.85985   -111.26118   0.23241219   -111.02877   -4186.8033    4.2549038    4.2549038    4.2549038   -4186.8033    48.726791   -5324.2185   -7284.9183   -855.21081   -297.85425    2178.7498    77.031657 
   30400    142.56246   -111.15887   0.12899351   -111.02987   -2308.1182    4.2525629    4.2525629    4.2525629   -2308.1182   -820.91468    -1649.732   -4453.7081    347.90476    889.90695    -1921.492    76.904586 
   30500    247.48977   -111.25313   0.22393395    -111.0292   -1514.5454    4.2522803    4.2522803    4.2522803   -1514.5454   -1895.0414   -2997.4371    348.84237    528.19481   -1593.2441   -2776.1981    76.889255 
   30600    239.63102   -111.24521   0.21682318   -111.02839    4247.1301    4.2509744    4.2509744    4.2509744    4247.1301   -353.91916    4301.8772    8793.4324   -1104.6935    175.77769    202.09325    76.818436 
   30700    170.64343   -111.18386   0.15440176   -111.02945   -1817.9517    4.2520151    4.2520151    4.2520151   -1817.9517   -3320.9303   -5731.5427    3598.6178   -2167.5737    119.78106   -750.97107    76.874868 
   30800    148.69533   -111.16441   0.13454266   -111.02987   -5527.2725    4.2558544    4.2558544    4.2558544   -5527.2725   -10216.486   -7651.4868    1286.1556    607.59076   -689.05037   -356.55256    77.083298 
   30900     195.6403   -111.20606   0.17701945   -111.02904    3684.0356    4.2510856    4.2510856    4.2510856    3684.0356    2197.8068    2437.4504    6416.8496   -648.45055    798.94175   -120.05482    76.824468 
   31000    240.77676   -111.24599   0.21785987   -111.02813    2786.8879    4.2492085    4.2492085    4.2492085    2786.8879   -2301.5075    4169.9715    6492.1996     6.451701   -1124.3909    1340.3782    76.722741 
   31100    129.72475   -111.14695   0.11737768   -111.02957   -3358.3824    4.2551787    4.2551787    4.2551787   -3358.3824   -5528.4213    -4727.825    181.09912   -530.38381   -581.94457   -674.18596    77.046586 
   31200    175.71388   -111.18819   0.15898961    -111.0292   -5899.2985    4.2543237    4.2543237    4.2543237   -5899.2985   -2878.1749   -9197.7707   -5621.9501    34.346103   -662.35656   -3848.7638    77.000153 
   31300    192.05732   -111.20251    0.1737775   -111.02873    5237.0567    4.2501036    4.2501036    4.2501036    5237.0567   -153.15079    7133.2028    8731.1182    532.51516    242.15384   -346.69691    76.771237 
   31400     219.1843   -111.22675   0.19832256   -111.02842    945.90102    4.2515161    4.2515161    4.2515161    945.90102    1411.3804   -2952.7691    4379.0918   -2051.0832    1481.6327    413.54334    76.847808 
   31500    102.88185   -111.12283  0.093089658   -111.02974   -1427.1085    4.2533413    4.2533413    4.2533413   -1427.1085   -2861.7112   -4931.9901    3512.3758    837.71161   -1747.0865     -928.544    76.946824 
   31600    191.71224   -111.20261   0.17346527   -111.02914   -5017.1952    4.2547534    4.2547534    4.2547534   -5017.1952   -2771.3739   -9913.3072   -2366.9045   -739.02338    28.207906   -1002.8765    77.023486 
   31700    210.14061   -111.21847   0.19013964   -111.02833    4221.9397    4.2514671    4.2514671    4.2514671    4221.9397    1213.9487    9154.6413     2297.229    724.17254    201.48772    275.89341    76.845152 
   31800      223.042   -111.23057   0.20181309   -111.02876    1375.4962     4.248976     4.248976     4.248976    1375.4962    1932.3955   -2095.3666    4289.4597   -591.06581    1039.8568    1641.5686    76.710149 
   31900    126.45756   -111.14429   0.11442146   -111.02987   -2606.7125    4.2545436    4.2545436    4.2545436   -2606.7125   -3669.5178   -5426.6316    1276.0121   -826.79607    182.44772   -2615.6711    77.012092 
   32000    223.10491   -111.23097   0.20187001    -111.0291   -5501.8631    4.2557745    4.2557745    4.2557745   -5501.8631   -3198.5333   -8515.0404   -4792.0154    1636.9938   -1141.4427   -2043.4987    77.078958 
   32100    226.07986   -111.23295   0.20456181   -111.02839    5497.9161    4.2490889    4.2490889    4.2490889    5497.9161    5006.6265    5457.6627    6029.4591    -2760.144    1544.2813   -6.8610922    76.716263 
   32200    197.07504    -111.2072   0.17831763   -111.02889    2692.8171    4.2503652    4.2503652    4.2503652    2692.8171    635.89136   -3063.6355    10506.196    309.66202   -645.59397    -1018.983    76.785417 
   32300    158.43566   -111.17292   0.14335591   -111.02957   -4252.9198    4.2548028    4.2548028    4.2548028   -4252.9198    5510.4585    -10082.58   -8186.6382   -1051.6957   -605.80199   -229.84705    77.026169 
   32400    230.19018   -111.23694   0.20828091   -111.02866   -3834.1205    4.2542989    4.2542989    4.2542989   -3834.1205   -1074.3424   -3864.7495   -6563.2694    113.43462     1180.893   -655.92364    76.998806 
   32500    270.29401   -111.27272    0.2445677   -111.02815    1897.5009    4.2507483    4.2507483    4.2507483    1897.5009    4109.4525     2299.765   -716.71476    611.03517    296.48684    1269.6437    76.806178 
   32600    163.23274   -111.17721   0.14769641   -111.02951    4992.5949    4.2490538    4.2490538    4.2490538    4992.5949    10827.585    1077.9329    3072.2665   -518.26496      236.748    -1622.361    76.714362 
   32700    213.29783   -111.22238   0.19299636   -111.02938   -6552.1879    4.2547702    4.2547702    4.2547702   -6552.1879   -2991.7473   -10244.454    -6420.362    1923.6079   -2073.6128   -3382.7323      77.0244 
   32800    207.83638   -111.21686   0.18805472    -111.0288   -989.26766    4.2555485    4.2555485    4.2555485   -989.26766   -2939.5713   -392.92051    364.68877   -162.94298    1424.9101    468.94186    77.066677 
   32900    278.52474   -111.28015   0.25201504   -111.02813      2709.14    4.2492764    4.2492764    4.2492764      2709.14    1516.0851   -598.64493    7209.9799   -644.12882    2747.3336   -217.55922    76.726423 
   33000    135.55654   -111.15215    0.1226544    -111.0295    6700.1205    4.2494039    4.2494039    4.2494039    6700.1205    7062.5451    2214.5797    10823.237   -624.95868    -1947.575   -881.61195     76.73333 
   33100    235.69712   -111.24227   0.21326371   -111.02901   -7549.4753    4.2554128    4.2554128    4.2554128   -7549.4753   -7696.6614   -10677.317   -4274.4475    455.02941   -1344.5856    -1377.951    77.059304 
   33200    231.27468   -111.23785   0.20926219   -111.02858   -2195.3313    4.2548103    4.2548103    4.2548103   -2195.3313   -3043.8716   -1472.2645   -2069.8577    -895.5534   -1017.9683    444.76617    77.026581 
   33300    238.61827    -111.2445   0.21590683   -111.02859    2958.6786    4.2499919    4.2499919    4.2499919    2958.6786     1058.509   -1420.6449    9238.1717   -470.99322     2726.331    1005.0442    76.765185 
   33400    154.65501   -111.16938    0.1399351   -111.02944    3558.4175    4.2493001    4.2493001    4.2493001    3558.4175    5986.2795       2416.5     2272.473   -217.37691    1953.5194   -1933.6665    76.727704 
   33500    193.09525   -111.20357   0.17471664   -111.02886   -4724.7805    4.2552757    4.2552757    4.2552757   -4724.7805     -4991.04   -11151.801    1968.4991    1350.1309   -1205.4346   -1372.6587    77.051856 
   33600    245.85701   -111.25054   0.22245659   -111.02808   -4480.2935    4.2557118    4.2557118    4.2557118   -4480.2935   -11329.897   -2275.9786    164.99543   -187.88717     1369.566   -413.52563    77.075552 
   33700    174.70471   -111.18696   0.15807649   -111.02888    4779.9559    4.2489793    4.2489793    4.2489793    4779.9559    9917.3248    -413.7941     4836.337   -868.48473   -406.48309    -1096.857    76.710329 
   33800    174.47201     -111.187   0.15786594   -111.02914    1742.5766    4.2494873    4.2494873    4.2494873    1742.5766   -1070.9938    1361.2453    4937.4783    937.10546    961.53782   -611.49399    76.737846 
   33900    200.79181   -111.21048   0.18168065    -111.0288   -4520.7228     4.255816     4.255816     4.255816   -4520.7228   -8199.9677   -7404.4065    2042.2057   -834.18864    838.14811    316.20456    77.081213 
   34000    238.69519    -111.2441   0.21597642   -111.02812   -4554.2359    4.2551629    4.2551629    4.2551629   -4554.2359   -6613.4566   -3264.7912   -3784.4599    935.18861    -861.6752     151.0384    77.045731 
   34100    162.15654   -111.17551   0.14672264   -111.02879    4539.0512     4.249273     4.249273     4.249273    4539.0512    5462.7474    1767.2044    6387.2017   -1297.0328    415.70102   -2026.1404    76.726237 
   34200    137.39597   -111.15354   0.12431876   -111.02922    4893.0085    4.2492151    4.2492151    4.2492151    4893.0085    552.93785    1437.7869    12688.301    1773.6468   -1270.0942   -1621.0981      76.7231 
   34300    218.80947   -111.22651   0.19798341   -111.02853   -5220.8949    4.2552608    4.2552608    4.2552608   -5220.8949   -7100.8099   -5791.6583   -2770.2165    796.82494    3116.1639    914.24955    77.051045 
   34400    189.77878   -111.20042   0.17171583   -111.02871   -4100.7732    4.2560072    4.2560072    4.2560072   -4100.7732   -1033.2982   -6898.5246   -4370.4967   -1803.2847    2032.3108   -616.28484      77.0916 
   34500     171.1454   -111.18378   0.15485596   -111.02893    2260.2197    4.2487525    4.2487525    4.2487525    2260.2197    4768.3953    3368.2155   -1355.9518    1568.5714   -1784.3919   -1832.7627    76.698047 
   34600    150.06179   -111.16482   0.13577906   -111.02905    4188.5601    4.2491049    4.2491049    4.2491049    4188.5601     11444.43   -3402.6427    4523.8934   -1303.4706   -796.06983   -979.23953     76.71713 
   34700    240.05584   -111.24552   0.21720757   -111.02831   -7202.3839    4.2564769    4.2564769    4.2564769   -7202.3839   -8073.5355   -3017.0907   -10516.525    911.36278   -975.92822    569.95907    77.117128 
   34800    197.75972   -111.20754   0.17893715    -111.0286   -4544.1024      4.25465      4.25465      4.25465   -4544.1024    3662.7077   -7375.0118   -9920.0029   -1538.3199    2485.9481   -355.84668    77.017872 
   34900    142.24436   -111.15792   0.12870569   -111.02922    5473.1039    4.2492942    4.2492942    4.2492942    5473.1039     7587.837    3408.6896     5422.785    117.57282    832.96809   -1919.8813    76.727384 
   35000    206.84077   -111.21594   0.18715387   -111.02878    3126.3453    4.2496791    4.2496791    4.2496791    3126.3453     3301.194   -2080.3634    8158.2053    2431.7106   -48.740695   -713.01043     76.74824 
   35100    203.97073   -111.21286     0.184557   -111.02831   -1910.5369    4.2547649    4.2547649    4.2547649   -1910.5369   -2016.0472    1455.5484    -5171.112   -581.43358    1969.0046   -159.42726    77.024112 
   35200    250.17145   -111.25506   0.22636038    -111.0287   -7475.7261    4.2563159    4.2563159    4.2563159   -7475.7261   -4825.5347   -9973.3881   -7628.2557     424.8872   -1612.0754   -1258.6026    77.108376 
   35300    129.75045   -111.14679   0.11740093   -111.02939    7637.2312    4.2488591    4.2488591    4.2488591    7637.2312    8574.7917    3892.6978    10444.204   -7.9570977    1603.9604   -653.82628    76.703816 
   35400    281.51948   -111.28296   0.25472474   -111.02823    131.20749     4.249012     4.249012     4.249012    131.20749    2583.6266   -1722.1114   -467.89274    525.87299    1739.6219    1523.6555    76.712101 
   35500     201.3377   -111.21074   0.18217459   -111.02857   -1868.5734     4.256454     4.256454     4.256454   -1868.5734   -955.01117   -1057.0747   -3593.6342   -625.25087    186.26047   -354.99311     77.11588 
   35600    240.83452   -111.24651   0.21791214   -111.02859   -6773.5844    4.2550678    4.2550678    4.2550678   -6773.5844   -5975.7057   -9867.4943   -4477.5531    -222.9172   -523.35267   -1858.6218    77.040567 
   35700    153.11723   -111.16818   0.13854369   -111.02964    6484.4663    4.2486673    4.2486673    4.2486673    6484.4663    12915.469   -2013.6209    8551.5508    491.50833   -2010.3229   -955.44269    76.693429 
   35800     253.8924    -111.2583   0.22972718   -111.02858     2747.851    4.2504228    4.2504228    4.2504228     2747.851    3005.0113    1337.2707    3901.2709    868.79668    4461.2724    977.76077    76.788538 
   35900     245.9649   -111.25082   0.22255421   -111.02826   -4152.8012     4.255221     4.255221     4.255221   -4152.8012   -6987.9233   -2481.4116   -2989.0686   -1133.1573    2370.0242    251.31802    77.048885 
   36000    181.73841   -111.19364   0.16444073    -111.0292   -4113.2883    4.2552866    4.2552866    4.2552866   -4113.2883    572.67664   -10454.941   -2457.6003     1036.562   -2096.5254   -3033.1658    77.052447 
   36100    226.80468   -111.23386   0.20521764   -111.02865    1307.6358     4.249894     4.249894     4.249894    1307.6358    2906.7247   -3702.7075    4718.8902     379.9748   -817.54077   -108.15294     76.75988 
   36200    203.67694   -111.21309   0.18429118    -111.0288    7357.9186    4.2486413    4.2486413    4.2486413    7357.9186    2254.8113    8648.7734    11170.171   -741.00991   -567.00083    780.02513    76.692024 
   36300     262.1173   -111.26535   0.23716924   -111.02818   -6982.9785    4.2561969    4.2561969    4.2561969   -6982.9785   -10243.396   -8330.5861   -2374.9532   -22.017937    3337.6258   -506.01576    77.101912 
   36400    113.04146   -111.13186   0.10228229   -111.02958   -1808.0942     4.255457     4.255457     4.255457   -1808.0942   -1633.1586   -7281.0793    3489.9554    -727.4302   -382.67997   -1461.7161    77.061705 
   36500      223.899   -111.23134   0.20258852   -111.02875    1983.2627    4.2482349    4.2482349    4.2482349    1983.2627    3359.8602   -3656.3723    6246.3002    3291.7169   -721.45486   -1201.5774    76.670019 
   36600    181.76583   -111.19295   0.16446554   -111.02849    7301.5279    4.2505867    4.2505867    4.2505867    7301.5279    1881.2683    9861.8348     10161.48   -1420.8853    1078.4993    501.89534    76.797421 
   36700    221.86284   -111.22929   0.20074616   -111.02855   -8088.3262    4.2557506    4.2557506    4.2557506   -8088.3262   -5479.7646   -10463.309    -8321.905    889.66988   -871.74443   -1239.8958    77.077656 
   36800    127.50466    -111.1449   0.11536889   -111.02953   -4180.2704    4.2537388    4.2537388    4.2537388   -4180.2704    2083.1621   -7242.8321   -7381.1411    762.70218    2106.2277   -306.71416    76.968399 
   36900    198.82936   -111.20859   0.17990498   -111.02869    2963.8902     4.250779     4.250779     4.250779    2963.8902     8305.928   -3282.1381    3867.8807   -923.17397    858.88925    1203.0365    76.807846 
   37000    199.25682   -111.20869   0.18029176    -111.0284    4905.4253    4.2495197    4.2495197    4.2495197    4905.4253   -1107.7809    10327.588    5496.4685     681.9621    926.20538   -1367.0178    76.739599 
   37100    159.13805   -111.17289   0.14399146    -111.0289   -5578.9308    4.2548602    4.2548602    4.2548602   -5578.9308    700.35118   -11359.667   -6077.4766   -2187.5848   -220.12273   -1435.5325    77.029288 
   37200    148.95834   -111.16414   0.13478063   -111.02936   -4417.9627    4.2559988    4.2559988    4.2559988   -4417.9627   -692.91299   -7491.3464   -5069.6286    2044.8045   -1082.4094   -1246.2636    77.091142 
   37300    193.36971   -111.20337   0.17496498   -111.02841    6373.0527    4.2485041    4.2485041    4.2485041    6373.0527    2180.3948    4326.6306    12612.133    -216.6582    4328.3455    1000.4882    76.684594 
   37400    219.44529   -111.22673   0.19855871   -111.02817    2058.0282    4.2504337    4.2504337    4.2504337    2058.0282    2181.4726    4278.9181   -286.30612   -842.76873    961.11475   -174.53043    76.789128 
   37500    176.37776   -111.18866    0.1595903   -111.02907   -6728.8969    4.2564712    4.2564712    4.2564712   -6728.8969   -3591.1267   -7763.4186   -8832.1455     1746.004   -784.58574   -2762.0231    77.116816 
   37600    186.01604    -111.1973   0.16831122   -111.02899   -2076.6179    4.2529816    4.2529816    4.2529816   -2076.6179    1767.4695   -5461.1998   -2536.1233    285.33328   -435.32489    1536.8516    76.927306 
   37700     223.8996   -111.23116   0.20258906   -111.02857    5175.8231    4.2502486    4.2502486    4.2502486    5175.8231     2169.998    4425.4411    8932.0302    -48.07936   -9.4857302    929.64607    76.779099 
   37800    215.30989    -111.2235   0.19481691   -111.02869    1398.9657     4.251712     4.251712     4.251712    1398.9657    6069.3714   -1216.6271   -655.84724   -1435.1355    2778.7178   -624.83215    76.858432 
   37900    191.52292   -111.20229   0.17329397     -111.029   -3692.5207    4.2537979    4.2537979    4.2537979   -3692.5207   -1826.6028   -4788.0263   -4462.9331    438.34162   -639.85216   -925.29806    76.971606 
   38000    212.65673   -111.22151   0.19241628   -111.02909   -979.51086    4.2548043    4.2548043    4.2548043   -979.51086    4060.7361   -7652.0864    652.81772    1510.0285    931.62518   -1481.4382    77.026254 
   38100    250.15266   -111.25451   0.22634338   -111.02817    3415.0955      4.25016      4.25016      4.25016    3415.0955     2313.724    4557.6224    3373.9401   -401.81988    1429.5627    1110.7552    76.774296 
   38200    246.59222   -111.25179   0.22312182   -111.02866    -75.13199    4.2501431    4.2501431    4.2501431    -75.13199    2535.6551   -3775.7117    1014.6607   -839.87187   -2030.0323   -2175.9462     76.77338 
   38300    197.58619     -111.208   0.17878014   -111.02922   -2697.5202    4.2563119    4.2563119    4.2563119   -2697.5202    788.78129   -4781.1212   -4100.2207    898.12154    1905.6508    29.742292    77.108158 
   38400    242.06363   -111.24779   0.21902426   -111.02876   -1147.4524    4.2530645    4.2530645    4.2530645   -1147.4524   -5860.0938   -5307.5053    7725.2418   -1005.5736    881.37274    1424.8784    76.931802 
   38500    220.95224   -111.22841   0.19992223   -111.02849    4398.6618     4.249276     4.249276     4.249276    4398.6618    4920.2897    354.38824    7921.3075   -357.19545    1104.3104   -1438.6405    76.726401 
   38600    236.86011   -111.24295   0.21431601   -111.02863   -1069.3572     4.253467     4.253467     4.253467   -1069.3572   -2353.4018   -7549.9159    6695.2462   -749.05145   -1654.4268   -802.49865    76.953646 
   38700    178.05598   -111.19023    0.1611088   -111.02912   -176.01936    4.2533544    4.2533544    4.2533544   -176.01936   -498.13626   -576.02296    546.10114    480.30459   -950.92054   -817.31755    76.947537 
   38800    246.84717   -111.25209   0.22335251   -111.02874   -3201.5148    4.2527556    4.2527556    4.2527556   -3201.5148   -3335.3971   -7060.6098    791.46249    867.16989    5074.1728    1690.9137    76.915039 
   38900     200.2195   -111.20983   0.18116281   -111.02867    2501.1217     4.251948     4.251948     4.251948    2501.1217    6827.3005   -1651.7487    2327.8134   -1750.1237     928.0553   -640.78307    76.871231 
   39000    211.34262   -111.22017   0.19122725   -111.02894   -33.748589    4.2509466    4.2509466    4.2509466   -33.748589    633.71173   -4674.9643    3940.0068    3121.4114   -560.25809   -2494.9413    76.816928 
   39100    152.96115   -111.16764   0.13840247   -111.02924   -657.31679    4.2545331    4.2545331    4.2545331   -657.31679    1190.3148    -2014.557   -1147.7081   -436.25676   -1067.2423    2247.0441    77.011526 
   39200    196.28075    -111.2063   0.17759895    -111.0287   -1991.4147    4.2536338    4.2536338    4.2536338   -1991.4147    1858.0213   -7330.4758   -501.78963   -347.11571    2207.3723    646.75934    76.962703 
   39300    172.66081    -111.1847   0.15622713   -111.02848     3503.872    4.2492496    4.2492496    4.2492496     3503.872    901.78844    -2792.262     12402.09   -1445.5916    3216.7886   -274.38801     76.72497 
   39400    169.46767   -111.18219   0.15333791   -111.02886   -844.32051    4.2534072    4.2534072    4.2534072   -844.32051    2965.9853   -5618.0845    119.13763   -1444.3786   -1376.0125   -1376.6082    76.950401 
   39500    162.48637   -111.17586   0.14702108   -111.02884   -4641.2238    4.2549906    4.2549906    4.2549906   -4641.2238   -6596.2549   -2798.9746   -4528.4419    2338.8892     1415.911   -627.28615    77.036371 
   39600    179.25445   -111.19079   0.16219319    -111.0286   -1448.1142     4.250627     4.250627     4.250627   -1448.1142   -737.36832   -3590.5811   -16.393009   -2540.7878    1705.5968    1294.3895    76.799603 
   39700    174.23055   -111.18616   0.15764746   -111.02852    861.39117    4.2525873    4.2525873    4.2525873    861.39117    99.856084   -6139.6332    8623.9506    653.40928   -499.80073    -2097.554     76.90591 
   39800     143.8227   -111.15913    0.1301338     -111.029   -945.88358    4.2533584    4.2533584    4.2533584   -945.88358    705.37685    153.89189   -3696.9195    200.17346    771.16827    15.323377    76.947754 
   39900    167.90222   -111.18071   0.15192146   -111.02878   -2921.9558    4.2524225    4.2524225    4.2524225   -2921.9558   -2100.1393   -3692.5565   -2973.1715   -1174.1524    438.59213    1563.9303    76.896972 
   40000    156.45829    -111.1704   0.14156675   -111.02884    2666.2115    4.2531451    4.2531451    4.2531451    2666.2115    6854.6645   -703.40378    1847.3739   -83.342728    1787.4552   -1047.6581    76.936176 
   40100    207.94915   -111.21679   0.18815676   -111.02864    1172.0441    4.2506219    4.2506219    4.2506219    1172.0441    3985.8079   -4793.7275    4324.0519    -849.6927   -1131.4374   -349.14314    76.799329 
   40200    161.31423   -111.17507    0.1459605   -111.02911   -599.12316    4.2529313    4.2529313    4.2529313   -599.12316    3490.8141    2051.9855   -7340.1691    306.51077   -1178.2296   -715.87329    76.924575 
   40300    227.02185   -111.23413   0.20541414   -111.02872   -5338.9625    4.2556359    4.2556359    4.2556359   -5338.9625    531.77252   -7041.7342   -9506.9259   -1244.0387    4566.2624    908.84397    77.071427 
   40400    180.55886   -111.19213   0.16337345   -111.02875     5084.433    4.2495413    4.2495413    4.2495413     5084.433    495.17285    4927.4753    9830.6508   -1728.6655      658.915    -754.0896     76.74077 
   40500     236.1429   -111.24222   0.21366706   -111.02855   -751.66023    4.2517788    4.2517788    4.2517788   -751.66023    2987.0962   -6087.4615    845.38462     1827.554   -458.38204   -1857.8017    76.862055 
   40600    172.73581   -111.18535   0.15629499   -111.02906   -1987.7438    4.2555203    4.2555203    4.2555203   -1987.7438   -3376.5464   -830.61682   -1756.0683    744.69216   -944.73285     1172.329    77.065143 
   40700    241.56868   -111.24739   0.21857642   -111.02881   -2970.8853    4.2517154    4.2517154    4.2517154   -2970.8853   -5372.2166   -1940.3131   -1600.1262   -2166.7979    2599.8695    -7.201496    76.858618 
   40800    217.08063   -111.22528   0.19641912   -111.02886    3442.5635    4.2515035    4.2515035    4.2515035    3442.5635   -91.521383     1755.346    8663.8659   -1851.9996    2930.2861    -494.9417    76.847125 
   40900    260.63847   -111.26466   0.23583117   -111.02882   -2014.3167    4.2528698    4.2528698    4.2528698   -2014.3167     4227.668   -5326.5952   -4944.0229   -1015.0692   -2152.2902   -268.84332    76.921237 
   41000    230.50839   -111.23736   0.20856884   -111.02879   -2896.5666    4.2530637    4.2530637    4.2530637   -2896.5666   -4093.8186   -2713.4177   -1882.4634    1708.4966     3308.377    460.19748    76.931757 
   41100    247.80549   -111.25322   0.22421961     -111.029   -779.47715    4.2544812    4.2544812    4.2544812   -779.47715    1475.5103   -1410.5113   -2403.4304   -1079.4298    1363.6078    520.49911    77.008707 
   41200    239.24733    -111.2452   0.21647601   -111.02872    5295.3429     4.250174     4.250174     4.250174    5295.3429    5574.6055    3279.8252     7031.598   -785.84216    711.53211   -1212.1874    76.775053 
   41300    230.99166   -111.23801   0.20900611     -111.029    2735.5155    4.2504549    4.2504549    4.2504549    2735.5155    5242.3136   -2020.8211     4985.054    1086.4002     212.6869    1098.1454    76.790279 
   41400    223.43093   -111.23113   0.20216501   -111.02896    -3011.551    4.2566723    4.2566723    4.2566723    -3011.551     145.6361   -7205.8354   -1974.4536   -719.68281    391.23273    1621.0835    77.127748 
   41500    216.70603     -111.225   0.19608017   -111.02892    709.34125    4.2525298    4.2525298    4.2525298    709.34125   -5575.0747    3545.3219    4157.7765    1427.9949    2407.3555   -1115.1484    76.902791 
   41600    241.27311    -111.2468   0.21830898   -111.02849    2676.5833    4.2488519    4.2488519    4.2488519    2676.5833    6152.3735   -130.75921    2008.1357   -1717.8024   -1586.6402   -978.16074    76.703427 
   41700    199.92396   -111.20971    0.1808954   -111.02882   -1059.6581     4.254443     4.254443     4.254443   -1059.6581   -1600.9625   -6789.6596    5211.6479   -412.16254     727.6245    332.38015    77.006634 
   41800    221.05384   -111.22856   0.20001416   -111.02855   -7502.5222    4.2544527    4.2544527    4.2544527   -7502.5222   -10061.468    -7299.124   -5146.9745   -1449.3925    4961.4515    1365.0594    77.007159 
   41900    159.33259   -111.17347   0.14416747    -111.0293    531.51076     4.252281     4.252281     4.252281    531.51076   -6329.8581    5544.0445    2380.3458   -2101.1453    1611.4607   -137.18508    76.889291 
   42000    211.11696   -111.21958   0.19102306   -111.02856    1044.1923    4.2515053    4.2515053    4.2515053    1044.1923    6412.6829   -4825.7142    1545.6082    2228.9268   -959.48509   -1636.6635    76.847221 
   42100    131.53156   -111.14821   0.11901252   -111.02919    2659.8628    4.2506337    4.2506337    4.2506337    2659.8628    109.15239    40.634175    7829.8018   -691.43152    643.83183      1250.39    76.799971 
   42200    196.70901   -111.20666   0.17798644   -111.02867   -7850.8791    4.2566161    4.2566161    4.2566161   -7850.8791   -5115.7877   -7562.3457   -10874.504   -844.01731    2600.9507    499.57136    77.124696 
   42300    131.62687   -111.14803   0.11909875   -111.02894      2429.08    4.2535031    4.2535031    4.2535031      2429.08     7487.283     5959.077     -6159.12   -1274.6929    1348.2756   -1451.6337    76.955603 
   42400    209.56156   -111.21788    0.1896157   -111.02827    3834.5063    4.2473069    4.2473069    4.2473069    3834.5063    7985.2142   -2254.9929    5773.2975   -1014.1216   -2669.0934   -47.739431    76.619784 
   42500    134.89073   -111.15102   0.12205197   -111.02896    1365.4647    4.2538805    4.2538805    4.2538805    1365.4647     6615.939   -2905.5363    385.99152    556.69381    2695.3497    173.09707     76.97609 
   42600     175.7716   -111.18773   0.15904184   -111.02868    -6347.383    4.2564522    4.2564522    4.2564522    -6347.383   -9384.8651   -3675.5303   -5981.7536   -1461.6961    2440.2601    363.75164    77.115786 
   42700    162.49497   -111.17612   0.14702886   -111.02909    1835.2386    4.2506172    4.2506172    4.2506172    1835.2386    1978.6423    4570.9394   -1043.8659   -1034.9783    494.13376   -638.60755    76.799074 
   42800    163.14177    -111.1761    0.1476141   -111.02848    4968.1435    4.2510081    4.2510081    4.2510081    4968.1435    4545.9205   -904.61908    11263.129    624.98005    141.45469    393.97081    76.820267 
   42900    186.36445   -111.19755   0.16862647   -111.02892   -3250.3068    4.2526593    4.2526593    4.2526593   -3250.3068   -5182.5944   -1663.9585   -2904.3675   -1538.8674    297.46852    1627.1589    76.909816 
   43000     160.0697   -111.17359   0.14483443   -111.02876   -5067.4163    4.2550466    4.2550466    4.2550466   -5067.4163   -7549.7503     1632.601   -9285.0994    968.96727    4814.2499   -1668.0647    77.039412 
   43100    241.64929   -111.24728   0.21864936   -111.02863   -3991.9413    4.2547751    4.2547751    4.2547751   -3991.9413    1537.7228   -6520.7015   -6992.8453   -496.25805   -1845.5481   -1841.0344    77.024669 
   43200    164.01807   -111.17714     0.148407   -111.02873    7286.1839    4.2476697    4.2476697    4.2476697    7286.1839    6550.5592    5480.4348    9827.5577   -434.31189    3094.3515    680.98167    76.639419 
   43300    246.59039   -111.25172   0.22312017    -111.0286   -3985.9249      4.25273      4.25273      4.25273   -3985.9249   -3584.5389    -3781.978   -4591.2579     -1007.12    4482.7417       1241.2    76.913651 
   43400    180.17293   -111.19187   0.16302425   -111.02885    -2529.252    4.2584729    4.2584729    4.2584729    -2529.252    -2039.528   -783.78327   -4764.4448   -1755.3558   -207.78733    665.74787    77.225669 
   43500    259.69194   -111.26344   0.23497472   -111.02846    1002.9162    4.2505661    4.2505661    4.2505661    1002.9162    1029.0183   -3005.1297    4984.8599    2648.7366    86.505002   -1365.5719    76.796307 
   43600    200.69528   -111.21023   0.18159331   -111.02864    8519.4514    4.2488784    4.2488784    4.2488784    8519.4514      7982.15    9875.8839    7700.3203   -460.34419    5.7709812    980.26479    76.704867 
   43700    256.19104   -111.26069   0.23180704   -111.02888   -1614.4159    4.2548335    4.2548335    4.2548335   -1614.4159   -2176.8341   -2811.2338    144.82021   -281.73282    4305.7886    659.69052    77.027837 
   43800    249.48381   -111.25413    0.2257382   -111.02839   -4018.8786     4.254708     4.254708     4.254708   -4018.8786   -6638.5008   -2469.7973   -2948.3378   -1372.3828    232.89992   -817.49301     77.02102 
   43900    234.81328   -111.24185   0.21246399   -111.02939    488.00842    4.2533766    4.2533766    4.2533766    488.00842    641.22385   -5312.0621    6134.8635     -333.193   -1268.2055    16.861106    76.948738 
   44000    230.07798   -111.23664   0.20817939   -111.02846    4593.7166    4.2496908    4.2496908    4.2496908    4593.7166    1239.0368    5062.3108    7479.8022    650.12791    3056.9835   -912.35627    76.748869 
   44100    210.78166    -111.2196   0.19071967   -111.02888    157.93798    4.2517594    4.2517594    4.2517594    157.93798   -6531.4323   -178.62913    7183.8754   -2943.9641    4082.1568    658.05897    76.861003 
   44200    232.46149   -111.23892   0.21033605   -111.02859   -8435.2462    4.2589043    4.2589043    4.2589043   -8435.2462    -9997.098   -9511.6557   -5796.9849    8.6766308    1078.0539    657.39249    77.249138 
   44300    177.69414   -111.18965   0.16078139   -111.02887    1008.6071    4.2518821    4.2518821    4.2518821    1008.6071   -1122.2095    3985.0967    162.93409    -924.1447   -262.15947    758.42202    76.867658 
   44400    222.33709   -111.22951   0.20117527   -111.02833    4074.8401    4.2473946    4.2473946    4.2473946    4074.8401    338.92395    9005.0529    2880.5436   -544.64188    2195.8878    1121.4757     76.62453 
   44500    202.58248   -111.21214   0.18330088   -111.02884   -1857.0162    4.2559848    4.2559848    4.2559848   -1857.0162   -4491.9087   -1519.1244    439.98451    69.467109    1634.8851     -2644.62    77.090381 
   44600    218.33889   -111.22572   0.19755762   -111.02816   -8044.6951    4.2564999    4.2564999    4.2564999   -8044.6951   -6987.5342   -10970.435   -6176.1158   -359.98852   -359.10205    395.48895    77.118375 
   44700    151.43264   -111.16631   0.13701944   -111.02929    3615.0264    4.2506952    4.2506952    4.2506952    3615.0264     664.4264    8010.5191    2170.1337    375.98803    2412.7534    1235.4375    76.803304 
   44800    176.04686   -111.18781    0.1592909   -111.02852    6836.9141    4.2506972    4.2506972    4.2506972    6836.9141    5552.7156    2433.8984    12524.128   -1261.8673    3347.5072    590.71546    76.803413 
   44900    165.85487    -111.1788   0.15006897   -111.02873     902.1927    4.2527413    4.2527413    4.2527413     902.1927   -3586.0465    2951.0737    3341.5509   -1247.9912   -860.40706    514.03706    76.914264 
   45000    158.92833   -111.17253   0.14380169   -111.02873   -5836.7935    4.2564338    4.2564338    4.2564338   -5836.7935   -5088.5737   -4930.0117   -7491.7952    277.23723    98.623439   -1083.5252    77.114783 
   45100    144.81354   -111.16028   0.13103033   -111.02925    917.91373    4.2534896    4.2534896    4.2534896    917.91373    1641.6758    7976.1343   -6864.0689   -745.51629    951.52799    1180.7732    76.954873 
   45200    184.24267   -111.19499   0.16670664   -111.02828    4476.5931    4.2477613    4.2477613    4.2477613    4476.5931    1560.8949    5550.8395     6318.045   -1155.7104    3858.6379    -419.5859    76.644382 
   45300    205.74182    -111.2143   0.18615952   -111.02814   -5852.0998    4.2549591    4.2549591    4.2549591   -5852.0998   -5998.8631   -3314.8527   -8242.5837   -257.36554    333.51153   -1547.8618    77.034658 
   45400    160.73405   -111.17426   0.14543555   -111.02882   -8372.7199    4.2584607    4.2584607    4.2584607   -8372.7199   -5540.2533   -7295.4817   -12282.425    -482.6123   -1250.7831    802.96523    77.225001 
   45500    171.85443   -111.18461    0.1554975   -111.02911     1472.692    4.2500215    4.2500215    4.2500215     1472.692   -794.10407     4620.091    592.08891    49.930658    4959.5775    66.019132     76.76679 
   45600    179.36261   -111.19085   0.16229106   -111.02856     6566.407    4.2501031    4.2501031    4.2501031     6566.407    794.33186    10929.111    7975.7786   -2023.3472    1326.9359    1752.8027    76.771211 
   45700    203.71191   -111.21334   0.18432282   -111.02902   -2666.3031    4.2552907    4.2552907    4.2552907   -2666.3031      532.717   -2433.9399   -6097.6865    352.56289    997.80515    504.54644    77.052672 
   45800    168.22906   -111.18131   0.15221719   -111.02909   -3064.7135     4.255078     4.255078     4.255078   -3064.7135   -3572.3741    4683.9538    -10305.72   -842.89941    1133.2301    1323.9182    77.041116 
   45900    222.50663   -111.23049   0.20132867   -111.02917    1613.6958    4.2531211    4.2531211    4.2531211    1613.6958    3392.7401   -381.50172    1829.8491   -1075.6026    1354.1682    69.221423    76.934873 
   46000    244.41592   -111.24919   0.22115266   -111.02804    5629.5571    4.2497391    4.2497391    4.2497391    5629.5571    4353.0788    7999.1037    4536.4889   -245.40051   -117.23567   -2295.2007    76.751489 
   46100    256.65702   -111.26073   0.23222867    -111.0285   -3803.8624    4.2536825    4.2536825    4.2536825   -3803.8624   -1104.7311   -7307.1336   -2999.7225   -1030.9569   -3147.7296    791.51102    76.965345 
   46200    192.66634   -111.20369   0.17432855   -111.02937   -4623.3506    4.2583147    4.2583147    4.2583147   -4623.3506   -4371.0697   -4269.5794   -5229.4027    1814.3716    3583.1999    951.49833    77.217058 
   46300    230.93531   -111.23778   0.20895512   -111.02882    3105.6784    4.2509066    4.2509066    4.2509066    3105.6784   -1235.4816    4461.7397    6090.7771   -2176.2366    2341.8715    1490.6065    76.814759 
   46400    237.64872   -111.24334   0.21502955   -111.02831    6085.2173    4.2490455    4.2490455    4.2490455    6085.2173    2354.5012    10333.047    5568.1035   -235.94595    -317.7443    232.46543    76.713913 
   46500    202.32145   -111.21221    0.1830647   -111.02914   -2609.3045    4.2566583    4.2566583    4.2566583   -2609.3045   -67.802198   -2874.1813     -4885.93   -710.49735   -451.61844   -293.47742    77.126987 
   46600    209.47381    -111.2185   0.18953631   -111.02896   -5860.9597    4.2556469    4.2556469    4.2556469   -5860.9597   -4024.1465   -5492.5828   -8066.1499   -1594.4472     2353.809    2557.5101    77.072023 
   46700    244.06208   -111.24959    0.2208325   -111.02876    1557.1353    4.2515098    4.2515098    4.2515098    1557.1353   -2832.6305    7286.1027    217.93371    914.08048    4504.6043   -1286.5846    76.847469 
   46800    271.50032   -111.27373    0.2456592   -111.02807    2126.8534    4.2515289    4.2515289    4.2515289    2126.8534    7158.0894   -2978.7221     2201.193   -971.55209   -1890.9875   -137.75977    76.848501 
   46900    185.69521    -111.1975   0.16802093   -111.02948   -1806.5497    4.2535238    4.2535238    4.2535238   -1806.5497   -3983.9896    208.36847   -1644.0279    1960.2465   -372.57126    716.34999    76.956728 
   47000    207.78807   -111.21733   0.18801101   -111.02932   -6537.6934      4.25702      4.25702      4.25702   -6537.6934   -10099.914   -4967.7135   -4545.4526   -973.98154    2115.3179    593.32519    77.146651 
   47100    188.36274    -111.1992   0.17043457   -111.02877    5914.0715    4.2521484    4.2521484    4.2521484    5914.0715     1148.518    12368.288    4225.4091   -54.501886    1040.5086    1841.2606    76.882103 
   47200    216.55613   -111.22438   0.19594454   -111.02844    5492.3833    4.2484697    4.2484697    4.2484697    5492.3833    6233.6398    4600.9069    5642.6031    152.36776    1133.7695   -593.99159    76.682734 
   47300    131.11268    -111.1478   0.11863351   -111.02917   -1733.3065     4.256023     4.256023     4.256023   -1733.3065   -491.56902   -1838.8297   -2869.5208   -834.41287    1416.2238    996.68788    77.092459 
   47400    202.13325   -111.21165   0.18289441   -111.02876   -6861.6085    4.2569609    4.2569609    4.2569609   -6861.6085   -5534.2036   -5030.4665   -10020.155   -259.10034    1832.1083   -313.83231    77.143437 
   47500    217.16209   -111.22469   0.19649282   -111.02819    2832.0451    4.2498783    4.2498783    4.2498783    2832.0451    4752.6184    5257.2095   -1513.6925   -1087.3119   -604.07044   -1015.2796    76.759033 
   47600    186.67056   -111.19743   0.16890344   -111.02852    2337.2301    4.2516342    4.2516342    4.2516342    2337.2301    5738.8825    248.65711    1024.1508    729.15898   -1555.7573    1693.2533    76.854214 
   47700    152.79617   -111.16765   0.13825318    -111.0294   -4844.6807    4.2551013    4.2551013    4.2551013   -4844.6807   -3469.7071   -3038.6422   -8025.6927    24.364843     3547.805    72.967673    77.042383 
   47800    166.36447   -111.17947   0.15053007   -111.02894   -3463.6786    4.2550814    4.2550814    4.2550814   -3463.6786   -8885.8465    7848.8161   -9354.0054   -1122.6831    1593.5809     1418.649    77.041303 
   47900    201.20825   -111.21086   0.18205745   -111.02881    2238.8262    4.2528476    4.2528476    4.2528476    2238.8262    7341.9855    1418.6374   -2044.1444   -399.86186   -1137.7778    314.87179    76.920035 
   48000    121.70062   -111.13947   0.11011728   -111.02935    6367.4719    4.2494482    4.2494482    4.2494482    6367.4719    7147.0173    8450.4067    3504.9916   -1207.8687    940.10532    1461.4346    76.735727 
   48100    193.24226   -111.20381   0.17484966   -111.02896   -6508.1856    4.2546588    4.2546588    4.2546588   -6508.1856   -2832.3138   -5010.7361   -11681.507   -244.70675    3730.8593    980.22931    77.018348 
   48200    186.69477   -111.19762   0.16892535    -111.0287    -3836.936     4.257865     4.257865     4.257865    -3836.936   -1089.2123   -660.64827   -9760.9475    1028.7533    2922.9643   -1672.2783    77.192599 
   48300    245.14048   -111.24975   0.22180826   -111.02794    628.82653     4.250092     4.250092     4.250092    628.82653     5582.273   -428.50947    -3267.284   -213.62895   -2667.8202    1122.3738     76.77061 
   48400    144.10675   -111.15938   0.13039081   -111.02899    4589.1935    4.2500675    4.2500675    4.2500675    4589.1935    6650.6344    7418.1654   -301.21923    1805.0289    74.099663    157.31914    76.769283 
   48500    213.56228   -111.22207   0.19323564   -111.02883   -5286.3937    4.2569014    4.2569014    4.2569014   -5286.3937   -2875.0589   -2374.0476   -10610.075   -1509.7963    1082.7291    543.36969      77.1402 
   48600    203.77901   -111.21275   0.18438353   -111.02837   -676.57222    4.2543463    4.2543463    4.2543463   -676.57222    937.86139    4371.3834   -7338.9614    28.707535   -1238.0597    765.35738    77.001382 
   48700    206.29947   -111.21559   0.18666409   -111.02893     2776.968    4.2515318    4.2515318    4.2515318     2776.968    6705.7077    1133.1046    492.09166    275.60951    1640.3015    252.29747    76.848659 
   48800    172.80529   -111.18561   0.15635786   -111.02925    4242.3538    4.2513812    4.2513812    4.2513812    4242.3538    11676.448    99.517955     951.0953    -724.2528     2067.882    2345.5047    76.840492 
   48900     233.5263   -111.24033    0.2112995   -111.02903   -2679.5915    4.2535042    4.2535042    4.2535042   -2679.5915   -2946.7421    1257.2856   -6349.3179    982.62309    3778.6605   -1033.2146    76.955667 
   49000    256.03383   -111.26056   0.23166479   -111.02889   -6160.0954    4.2572645    4.2572645    4.2572645   -6160.0954   -1957.7228     -7692.08   -8830.4836   -500.69491    -1630.202    185.00221    77.159941 
   49100    189.17337   -111.20007   0.17116804   -111.02891    2818.0662    4.2514971    4.2514971    4.2514971    2818.0662    3012.7552    5327.6502    113.79325    1480.9893    657.33179    1101.0959     76.84678 
   49200    224.09949   -111.23145   0.20276993   -111.02868    1501.7564    4.2493354    4.2493354    4.2493354    1501.7564    3521.8809    4665.0084   -3681.6201   -386.88895    5400.5961    -1236.056    76.729616 
   49300    203.97577   -111.21312   0.18456156   -111.02856   -2256.5077    4.2567316    4.2567316    4.2567316   -2256.5077   -4576.4211    3553.7339    -5746.836   -544.31237   -923.38071    772.19824    77.130973 
   49400     250.1949   -111.25455    0.2263816   -111.02817   -5709.8151    4.2556341    4.2556341    4.2556341   -5709.8151   -3800.4027   -6420.0478   -6908.9949    -294.3201   -1453.2489    181.59481    77.071326 
   49500    154.33771   -111.16887     0.139648   -111.02922    5579.0459    4.2498859    4.2498859    4.2498859    5579.0459    9237.5285    5380.2373    2119.3718   -673.82996    763.00733    2185.9013    76.759441 
   49600    250.00719   -111.25473   0.22621176   -111.02852    331.36983    4.2523764    4.2523764    4.2523764    331.36983    3829.3478   -3296.5259     461.2876    903.09881    5364.8582    452.08299    76.894469 
   49700    202.20992    -111.2117   0.18296378   -111.02874   -201.18874    4.2546186    4.2546186    4.2546186   -201.18874   -3269.0758    1764.9953    900.51426     81.74289    1450.5685   -1169.9744    77.016168 
   49800    244.04953   -111.24949   0.22082114   -111.02867   -5255.1768    4.2550088    4.2550088    4.2550088   -5255.1768   -5257.3908   -4578.7984   -5929.3412   0.87125593   -3298.5036    2281.2983    77.037358 
   49900    149.77063   -111.16516   0.13551561   -111.02964    5352.5526     4.252342     4.252342     4.252342    5352.5526    11096.735    4479.9704    480.95223   -476.76651    1706.2591   -235.51212    76.892601 
   50000    226.02312   -111.23363   0.20451047   -111.02912    2837.6877    4.2497344    4.2497344    4.2497344    2837.6877     -2297.97    9745.5237    1065.5093   -2051.0206    1599.2052   -128.79421    76.751236 
   50100    203.39718   -111.21265   0.18403804   -111.02861   -2517.6133    4.2553563    4.2553563    4.2553563   -2517.6133   -284.15425   -1048.5793   -6220.1065    7.8807471    1516.6827   -220.29328    77.056237 
   50200    185.35638   -111.19664   0.16771435   -111.02893   -4072.6171    4.2565318    4.2565318    4.2565318   -4072.6171   -754.34091    -3790.983   -7672.5272   -196.29586   -1157.9664    1313.5264    77.120114 
   50300    200.37773   -111.20984   0.18130598   -111.02854    698.91579    4.2496533    4.2496533    4.2496533    698.91579    5116.3097    1152.8741   -4172.4364    327.48504    3855.4066    2527.5086    76.746838 
   50400    196.87359    -111.2066   0.17813536   -111.02847    1327.1009    4.2521102    4.2521102    4.2521102    1327.1009   -2390.5502    7230.9651   -859.11218    1441.2268    2572.8493    -1412.779    76.880031 
   50500    238.65976    -111.2444   0.21594437   -111.02846   -6690.4154    4.2562229    4.2562229    4.2562229   -6690.4154   -6840.8031   -5849.5208   -7380.9223    -894.3669   -2613.6324    1420.9406     77.10332 
   50600    123.96048   -111.14145   0.11216204   -111.02929    422.01828    4.2533639    4.2533639    4.2533639    422.01828    2782.1197    6210.7799   -7726.8447    1138.5299    2546.6311    199.13379    76.948049 
   50700    223.94784   -111.23146   0.20263271   -111.02883   -850.36562    4.2522457    4.2522457    4.2522457   -850.36562    3131.8756    1820.4552   -7503.4277   -1475.7702    1124.6253    -654.2928    76.887378 
   50800     150.3927   -111.16514   0.13607848   -111.02907    7511.4393    4.2511357    4.2511357    4.2511357    7511.4393    8071.7297    11742.889    2719.6994   -300.14233   -860.03781   -32.180717    76.827181 
   50900    239.28946   -111.24534   0.21651413   -111.02882   -4642.0249     4.254425     4.254425     4.254425   -4642.0249    2918.7119   -6492.5813   -10352.205    149.19397   -1279.6571   -136.87173    77.005655 
   51000    140.23677   -111.15654   0.12688918   -111.02965   -387.38454    4.2556676    4.2556676    4.2556676   -387.38454    11056.833   -1936.6383   -10282.348    585.13509    1951.1686    2745.3087    77.073146 
   51100      245.831   -111.25075   0.22243306   -111.02832   -47.091832    4.2509113    4.2509113    4.2509113   -47.091832   -1343.1262    3548.3483   -2346.4977    1734.0686    3709.4019   -354.07629    76.815018 
   51200    188.93459   -111.19931   0.17095199   -111.02836    3791.6082    4.2514478    4.2514478    4.2514478    3791.6082    8838.3177    5413.3376   -2876.8308    70.056506   -951.06954    879.02538    76.844103 
   51300    187.47169    -111.1985   0.16962833   -111.02887   -4018.5527    4.2559024    4.2559024    4.2559024   -4018.5527   -2199.2867   -666.99902   -9189.3723    -93.73709   -994.24245    2358.2265    77.085908 
   51400    163.25104   -111.17696   0.14771298   -111.02925   -2594.1264    4.2538278    4.2538278    4.2538278   -2594.1264    864.17425     1868.126   -10514.679   -782.24011    2706.9176   -1450.4612    76.973232 
   51500    172.56523   -111.18499   0.15614064   -111.02885     3570.126    4.2514995    4.2514995    4.2514995     3570.126    5445.0417     10281.89   -5016.5536   -1557.3923    603.38691   -181.74195    76.846907 
   51600    212.50479   -111.22094    0.1922788   -111.02866   -234.62547    4.2531005    4.2531005    4.2531005   -234.62547    5672.3711   -2052.5691   -4323.6784   -125.45406   -1928.0013    -749.8288    76.933753 
   51700    144.62848   -111.15989   0.13086288   -111.02903    -2044.841    4.2544816    4.2544816    4.2544816    -2044.841    2716.2234    374.93457   -9225.6808   -35.501032    403.17385    2192.6286    77.008728 
   51800    245.40063   -111.25046   0.22204365   -111.02842   -6340.3369      4.25454      4.25454      4.25454   -6340.3369   -1084.7005   -5537.5673   -12398.743    1160.1726    2372.2947    1704.0367    77.011898 
   51900    181.47223   -111.19296   0.16419989   -111.02876    4775.3663    4.2519401    4.2519401    4.2519401    4775.3663    5939.8667    8960.0237   -573.79153    412.23051   -265.73866   -936.84348    76.870802 
   52000    248.76679   -111.25369   0.22508942   -111.02861   -2261.3478    4.2526407    4.2526407    4.2526407   -2261.3478    822.19253   -2881.3228   -4724.9131   -1019.8134   -1577.2834    3333.8812    76.908804 
   52100    132.43224   -111.14919   0.11982748   -111.02936    1739.3951    4.2545159    4.2545159    4.2545159    1739.3951      8107.02    5462.9339   -8351.7687   -576.78965    2108.6376    259.49936    77.010591 
   52200      227.048   -111.23409    0.2054378   -111.02865   -749.85103    4.2534521    4.2534521    4.2534521   -749.85103   -1144.6089    1885.2055   -2990.1496   -2339.8405    473.16813    -385.8495     76.95284 
   52300    165.65551   -111.17898   0.14988859   -111.02909    5181.3088    4.2523041    4.2523041    4.2523041    5181.3088    12429.519    4285.9258   -1171.5187   -892.53414   -524.27014   -397.97372    76.890545 
   52400    217.52632   -111.22594   0.19682238   -111.02912   -2211.6529    4.2534111    4.2534111    4.2534111   -2211.6529    -1947.149    -2110.639   -2577.1708    -391.1321   -1352.3599   -778.70179    76.950614 
   52500    203.47458   -111.21326   0.18410807   -111.02916   -2606.2966    4.2538786    4.2538786    4.2538786   -2606.2966   -4916.6997    -650.1614   -2252.0287    404.68507     3234.582    1708.5188    76.975986 
   52600    233.44974   -111.23992   0.21123023   -111.02869   -1163.6787    4.2535724    4.2535724    4.2535724   -1163.6787   -1966.6422    1122.4472    -2646.841    1669.9219    1459.3271   -889.65999    76.959366 
   52700    226.64549    -111.2338    0.2050736   -111.02873   -1070.8347    4.2530084    4.2530084    4.2530084   -1070.8347    -362.4458    -422.2508   -2427.8076   -758.17842   -3963.2824    3086.6222    76.928759 
   52800     188.9681   -111.20015   0.17098231   -111.02917   -212.31167    4.2535553    4.2535553    4.2535553   -212.31167   -2076.8636    4953.9126    -3513.984    -668.5961    2898.6241     2196.912    76.958436 
   52900    213.28162   -111.22205   0.19298169   -111.02907    377.92493    4.2534225    4.2534225    4.2534225    377.92493    5665.0556    1967.2465   -6498.5273   -1530.7452    518.03255   -1455.3925    76.951233 
   53000    182.32614   -111.19391   0.16497252   -111.02894     3930.247    4.2527435    4.2527435    4.2527435     3930.247    6429.1593    8444.9559   -3083.3743   -1149.0353   -1065.3316    615.44263    76.914383 
   53100    253.22746   -111.25763   0.22912553    -111.0285   -3466.7677    4.2541931    4.2541931    4.2541931   -3466.7677    1236.0848   -6528.4838    -5107.904    401.19592   -2210.7745    199.73769    76.993065 
   53200    209.01715   -111.21809   0.18912311   -111.02896    104.18071    4.2533962    4.2533962    4.2533962    104.18071    3063.6659    2360.7221   -5111.8458    324.47658    1196.9547    1978.4635    76.949801 
   53300    261.84064   -111.26601   0.23691891   -111.02909   -1176.9228     4.252892     4.252892     4.252892   -1176.9228   -1007.1416   -3066.3823    542.75543    1819.7107    3743.0992   -1074.3341    76.922442 
   53400    219.25921   -111.22753   0.19839034   -111.02914   -138.28845    4.2537962    4.2537962    4.2537962   -138.28845    1497.2848   -186.04659   -1726.1036    1220.2581   -2499.3299    741.39138    76.971516 
   53500    219.13991    -111.2273   0.19828239   -111.02902    -2489.534    4.2540759    4.2540759    4.2540759    -2489.534    2101.5169   -3708.4689   -5861.6499   -729.86723    595.52163     4925.245    76.986698 
   53600    181.28071   -111.19323    0.1640266   -111.02921    2131.3772    4.2538127    4.2538127    4.2538127    2131.3772    3717.7067    5702.2905   -3025.8654   -581.35232     1669.782     158.7836    76.972413 
   53700     206.7488    -111.2157   0.18707066   -111.02863    3488.9657    4.2524267    4.2524267    4.2524267    3488.9657    5473.4806    6147.0392   -1153.6226   -2432.8218    2248.1607    292.75074    76.897195 
   53800    199.42197   -111.20927   0.18044119   -111.02882    149.81215    4.2529243    4.2529243    4.2529243    149.81215    4299.5031    3885.0979   -7735.1646    29.213201   -2558.0253    145.86183    76.924195 
   53900    208.14309   -111.21691   0.18833224   -111.02858   -3576.1024    4.2556457    4.2556457    4.2556457   -3576.1024   -728.81189   -1595.8447   -8403.6507   -155.08235   -1182.1894    732.52403    77.071959 
   54000    234.86923   -111.24085   0.21251461   -111.02833   -1644.7641    4.2538516    4.2538516    4.2538516   -1644.7641    3173.1779   -1718.5097   -6388.9606    969.28569    1463.9798    672.84224    76.974525 
   54100    218.28561   -111.22589   0.19750941   -111.02838     1032.201    4.2514404    4.2514404    4.2514404     1032.201    926.41234    3293.5382   -1123.3475    1320.3763   -2190.9345    -1661.927    76.843703 
   54200     187.5485   -111.19881   0.16969782   -111.02911   -1350.5555    4.2542007    4.2542007    4.2542007   -1350.5555    10678.487   -6947.4749   -7782.6785   -533.89127    321.56934    4283.6817    76.993475 
   54300    176.28743   -111.18898   0.15950857   -111.02947    -2439.756    4.2554399    4.2554399    4.2554399    -2439.756    3308.7985    540.30933   -11168.376   -568.09368    883.93179    2127.8565    77.060779 
   54400    167.04045   -111.18045   0.15114171    -111.0293    1710.2343    4.2528996    4.2528996    4.2528996    1710.2343    3824.9775    4564.4165   -3258.6912   -1829.7212    1601.4793    -403.1448    76.922853 
   54500    162.24777   -111.17561   0.14680519    -111.0288    3716.4015    4.2518455    4.2518455    4.2518455    3716.4015    4624.6991     10102.43   -3577.9251   -1394.2544   -516.61497    2149.1489    76.865672 
   54600    162.70159   -111.17613   0.14721582   -111.02891   -1247.4392    4.2535194    4.2535194    4.2535194   -1247.4392    6085.6853    1465.7028   -11293.706   -398.38435    -911.2149    737.04454    76.956488 
   54700    192.64919   -111.20258   0.17431304   -111.02827   -5789.2703     4.256169     4.256169     4.256169   -5789.2703   -6154.6163    929.94118   -12143.136    33.193026     3141.252    1234.3626    77.100396 
   54800    197.23708   -111.20701   0.17846426   -111.02854   -1469.1379    4.2540219    4.2540219    4.2540219   -1469.1379   -2094.0694   -1139.5295   -1173.8147    2001.8654   -1031.0552   -2211.6033    76.983768 
   54900    181.34073   -111.19269   0.16408091   -111.02861    2472.2285     4.250348     4.250348     4.250348    2472.2285    9410.0221    1775.7843   -3769.1209   -11.865407   -3255.8319    1410.3351    76.784485 
   55000    165.22286    -111.1785   0.14949712     -111.029   -1064.2143    4.2542689    4.2542689    4.2542689   -1064.2143      5591.05   -3105.5994   -5678.0935   -519.20259    1178.6843    3426.0407    76.997177 
   55100    162.82515   -111.17608   0.14732762   -111.02875   -3063.7927    4.2567936    4.2567936    4.2567936   -3063.7927    545.94642    -1006.553   -8730.7716   -1816.9792    1515.7495   -822.50809    77.134343 
   55200    169.84101   -111.18262   0.15367572   -111.02894    2062.6525    4.2523165    4.2523165    4.2523165    2062.6525   -4803.1098    9939.9871    1051.0804   -1417.4433    629.46555    1936.0957    76.891218 
   55300    138.58851   -111.15471    0.1253978   -111.02931    6070.8951    4.2509804    4.2509804    4.2509804    6070.8951    13368.341    6422.8676   -1578.5231    986.95743    -2167.514    2193.8251    76.818761 
   55400    184.18122   -111.19565   0.16665104   -111.02899   -2176.0671    4.2543206    4.2543206    4.2543206   -2176.0671   -3559.1133    5511.6266   -8480.7147   -90.493757    451.39796    2171.5442    76.999984 
   55500      208.482   -111.21696   0.18863889   -111.02832   -5923.1775     4.256448     4.256448     4.256448   -5923.1775   -5920.4983   -3651.9104   -8197.1239    1860.1543    1598.4838   -762.18213    77.115555 
   55600    219.75685   -111.22751   0.19884062   -111.02867   -840.14603    4.2536044    4.2536044    4.2536044   -840.14603    429.42234   -801.39979   -2148.4607    1231.5893   -1044.6139       127.35    76.961104 
   55700    194.18598   -111.20431   0.17570356    -111.0286    3652.7779    4.2499658    4.2499658    4.2499658    3652.7779    15302.983   -2376.0676   -1968.5812   -253.26928    700.55016    3740.0321     76.76377 
   55800    231.75644   -111.23836    0.2096981   -111.02866   -3472.0374     4.254466     4.254466     4.254466   -3472.0374   -3782.7385   -483.81912   -6149.5547     25.13818   -46.435995   -1070.0645    77.007883 
   55900    222.00984   -111.22933   0.20087917   -111.02845   -4284.2434    4.2577679    4.2577679    4.2577679   -4284.2434   -5955.2688   -1311.5775   -5585.8839   -2142.6149    1212.5446   -166.44829    77.187315 
   56000    187.02262    -111.1984   0.16922199   -111.02918    3405.2918    4.2521117    4.2521117    4.2521117    3405.2918    4717.2278    7175.7526   -1677.1049   -166.52383   -550.31908    2495.0423    76.880109 
   56100    206.63442   -111.21588   0.18696717   -111.02891    5783.5354    4.2493855    4.2493855    4.2493855    5783.5354    5572.0291    9182.4756    2596.1015    1.6883043    826.30163    2821.4158    76.732333 
   56200    235.30242   -111.24185   0.21290657   -111.02895   -222.01077    4.2550234    4.2550234    4.2550234   -222.01077    1587.6245    829.33193   -3082.9888    1319.3955    374.26293    958.40489    77.038155 
   56300    258.33161   -111.26231   0.23374387   -111.02856   -5925.3226    4.2568758    4.2568758    4.2568758   -5925.3226   -7782.9553   -3311.4527   -6681.5597     2190.542   -4150.7209   -586.78539    77.138809 
   56400    219.45074   -111.22798   0.19856364   -111.02942    645.43933    4.2525967    4.2525967    4.2525967    645.43933    11739.911   -7923.0143   -1880.5789    333.02414    455.39424     3978.329    76.906419 
   56500    260.97141   -111.26447   0.23613242   -111.02834    3295.2556    4.2501479    4.2501479    4.2501479    3295.2556    4840.4315    1887.8617    3157.4736   -445.65202    1552.0369    1311.8778    76.773642 
   56600    245.71067   -111.25102   0.22232417   -111.02869    -301.2166     4.253581     4.253581     4.253581    -301.2166    4880.1704    -1299.293   -4484.5272   -2273.7693    1415.9312   -2118.1114    76.959833 
   56700    221.19173   -111.22911   0.20013893   -111.02897   -6012.7023    4.2581526    4.2581526    4.2581526   -6012.7023   -8437.2718     269.2297   -9870.0648    30.068592   -1424.5631    1834.5835    77.208242 
   56800    181.28961    -111.1936   0.16403465   -111.02956    1684.4081    4.2524481    4.2524481    4.2524481    1684.4081    5794.2253    4374.5051   -5115.5062   -47.972285   -1020.5969    2119.7153    76.898359 
   56900    210.86022   -111.21934   0.19079075   -111.02854     7931.403    4.2479633    4.2479633    4.2479633     7931.403    7403.6212    11354.329    5036.2587   -819.69242    3642.9451    1562.7669    76.655314 
   57000    228.48925   -111.23531   0.20674188   -111.02857   -1888.6098     4.255586     4.255586     4.255586   -1888.6098    562.93133    1785.5291   -8014.2898    2017.9474   -2186.4988   -502.58568    77.068713 
   57100    176.96031   -111.18878    0.1601174   -111.02866    -7918.569    4.2580303    4.2580303    4.2580303    -7918.569   -3620.3355    -7703.899   -12431.472    103.58889   -2354.8549    3059.8091     77.20159 
   57200    202.69186   -111.21238   0.18339986   -111.02898   -1313.7787    4.2518411    4.2518411    4.2518411   -1313.7787    3138.7836   -3559.6782   -3520.4415    1377.8152   -871.58324     4044.631    76.865432 
   57300     191.2853   -111.20102   0.17307896   -111.02794    8044.2992    4.2496432    4.2496432    4.2496432    8044.2992    14075.786    2881.1797    7175.9321   -968.68832   -130.48585   -2035.5556    76.746294 
   57400    207.71626   -111.21668   0.18794603   -111.02874    -3388.765    4.2542637    4.2542637    4.2542637    -3388.765   -6373.9233    4516.3945   -8308.7661   -1223.0143    794.79265    117.39299    76.996898 
   57500    114.74301   -111.13278   0.10382188   -111.02896   -6070.2037    4.2575809    4.2575809    4.2575809   -6070.2037   -1571.8461   -4734.4152    -11904.35    328.61862   -1192.2715    2362.1581     77.17715 
   57600    168.74836   -111.18168   0.15268706   -111.02899    1664.5502    4.2531345    4.2531345    4.2531345    1664.5502   -2071.0068    7107.4565   -42.799103   -40.348401    1733.8749    1764.0862      76.9356 
   57700     161.4449   -111.17435   0.14607874   -111.02827    10064.278    4.2480616    4.2480616    4.2480616    10064.278    14037.772    10757.925    5397.1365    2068.1883   -1405.3941   -630.45632    76.660638 
   57800    172.22734   -111.18479   0.15583492   -111.02895   -4098.4388    4.2546335    4.2546335    4.2546335   -4098.4388   -7019.0178    3391.1237   -8667.4223    840.84252   -2904.6849    1343.9699    77.016978 
   57900     152.8079   -111.16715    0.1382638   -111.02889   -9894.6632    4.2592914    4.2592914    4.2592914   -9894.6632   -3680.3703   -12749.461   -13254.158    203.76932    495.47309    4749.6156    77.270206 
   58000    190.28871    -111.2008   0.17217722   -111.02863    2263.9168    4.2513984    4.2513984    4.2513984    2263.9168    6240.0153   -1239.3352    1791.0703   -347.81174    197.29281   -254.81111    76.841424 
   58100    220.77154   -111.22743   0.19975873   -111.02767    5280.5276    4.2489002    4.2489002    4.2489002    5280.5276    6179.2432    7308.9647    2353.3749   -1680.4766   -254.58277   -965.77553    76.706044 
   58200    153.13946   -111.16778    0.1385638   -111.02921   -3577.0225    4.2554988    4.2554988    4.2554988   -3577.0225   -2422.2472   -442.28955   -7866.5308    175.64216   -2597.7791    1671.0098    77.063976 
   58300    191.40197   -111.20163   0.17318453   -111.02845    -8337.616    4.2575035    4.2575035    4.2575035    -8337.616   -6626.9112   -5385.8035   -13000.133   -70.436743    442.86655    2352.7969     77.17294 
   58400    176.94325    -111.1892   0.16010197    -111.0291    5722.3672    4.2527276    4.2527276    4.2527276    5722.3672     8401.398    4121.7948    4643.9089    804.10822    2923.0067   -543.24573    76.913524 
   58500    248.15613   -111.25242   0.22453688   -111.02789    4802.2436    4.2489309    4.2489309    4.2489309    4802.2436     1310.643    11582.031    1514.0569    1294.2319   -1551.1826    307.67446    76.707707 
   58600    171.93368   -111.18513    0.1555692   -111.02956   -406.14021    4.2536322    4.2536322    4.2536322   -406.14021    8550.1904   -6254.7021   -3513.9089    759.98248   -842.25155    5300.6809    76.962613 
   58700    250.00211   -111.25512   0.22620716   -111.02891   -8243.5811    4.2592263    4.2592263    4.2592263   -8243.5811   -7723.9906   -11783.462   -5223.2905    1439.9722   -1634.0357    2014.5422    77.266661 
   58800     247.4776   -111.25285   0.22392293   -111.02892    2993.5503    4.2519528    4.2519528    4.2519528    2993.5503    6703.1803    -2429.527    4706.9976   -1809.9164    1541.8818   -1387.4919    76.871493 
   58900    255.24395   -111.25918   0.23095009   -111.02823    5687.2793    4.2481349    4.2481349    4.2481349    5687.2793    3577.9754    7142.3842    6341.4782   -1071.8715    622.64237    304.62333    76.664603 
   59000    206.18195   -111.21581   0.18655776   -111.02925   -1567.5079    4.2559866    4.2559866    4.2559866   -1567.5079    54.839142   -4234.2544   -523.10838      -1172.9   -934.58893     2197.051    77.090483 
   59100    216.00675   -111.22411   0.19544745   -111.02866   -4809.5962    4.2575451    4.2575451    4.2575451   -4809.5962   -4867.4178   -1101.4715   -8459.8992     553.7444    1155.3559   -214.01448      77.1752 
   59200    244.63329   -111.25025   0.22134934    -111.0289    1291.8601    4.2519551    4.2519551    4.2519551    1291.8601    -1476.194    7809.6788   -2457.9044    2385.4876   -2817.8055   -1067.1195    76.871614 
   59300    186.84752   -111.19764   0.16906356   -111.02858    7663.5019    4.2497073    4.2497073    4.2497073    7663.5019    11683.156    8151.6719    3155.6776    1.2669036   -169.62379    2627.4207    76.749766 
   59400     234.6787    -111.2412   0.21234222   -111.02886   -4365.9079    4.2544161    4.2544161    4.2544161   -4365.9079   -110.65333    -5930.084   -7056.9862    1076.4378    1475.7439    4985.3633    77.005171 
   59500    205.43236   -111.21432   0.18587952   -111.02844   -7516.4874      4.25883      4.25883      4.25883   -7516.4874   -4754.6556   -9831.4497    -7963.357    210.37373   -1239.3355   -512.66981    77.245093 
   59600    249.09214   -111.25393   0.22538381   -111.02855   -1998.2051    4.2532185    4.2532185    4.2532185   -1998.2051   -4001.2672   -1211.2015   -782.14668   -1202.6601   -1313.2488    368.54906     76.94016 
   59700     164.4148   -111.17741   0.14876597   -111.02865    8888.3228    4.2482055    4.2482055    4.2482055    8888.3228     14789.66    1589.1615    10286.147    171.22093   -2201.5315    2387.9896    76.668426 
   59800    206.41907   -111.21576   0.18677231   -111.02899   -3600.6215    4.2559608    4.2559608    4.2559608   -3600.6215   -8823.9635   -360.51284   -1617.3882   -1603.0954    2302.1963    415.41789     77.08908 
   59900    163.70974   -111.17654   0.14812802   -111.02841   -5525.1579    4.2587952    4.2587952    4.2587952   -5525.1579   -6750.9925   -1435.0928   -8389.3882    1390.0498    777.66243   -1542.2901    77.243204 
   60000    173.53821   -111.18579   0.15702102   -111.02877    3724.3168    4.2514128    4.2514128    4.2514128    3724.3168    2767.6916    9199.9988   -794.74006    1574.6074   -2617.4808    321.39694    76.842208 
   60100    154.31648   -111.16799    0.1396288   -111.02836    7781.8303    4.2505034    4.2505034    4.2505034    7781.8303    9263.2671    6818.9451    7263.2787    1443.1474   -843.79753    4698.2428    76.792904 
   60200    168.89253   -111.18148   0.15281751   -111.02867   -3782.3136    4.2558708    4.2558708    4.2558708   -3782.3136   -2580.0396   -45.706012   -8721.1953    1413.0386   -1195.8868    925.08938     77.08419 
   60300    197.89619   -111.20728   0.17906063   -111.02822   -9728.0884    4.2585222    4.2585222    4.2585222   -9728.0884   -10891.765   -9121.4677   -9171.0326   -1190.7895   -536.93047   -160.73054    77.228347 
   60400     161.6995     -111.175   0.14630911   -111.02869      2761.79    4.2532439    4.2532439    4.2532439      2761.79    5267.3177   -3767.8774    6785.9296   -497.71983   -1112.6458    1485.2079    76.941537 
   60500    215.57178   -111.22305   0.19505388     -111.028     2869.993    4.2496052    4.2496052    4.2496052     2869.993     3987.096    7.6795435    4615.2036   -1699.6439   -288.51288    1065.1182    76.744235 
   60600     171.2378   -111.18372   0.15493956   -111.02878   -4255.4977    4.2565359    4.2565359    4.2565359   -4255.4977   -3592.5855   -4134.8194   -5039.0882    618.34024    1011.5884   -1688.1973    77.120332 
   60700    211.50083   -111.21968    0.1913704   -111.02831   -8468.9036    4.2595928    4.2595928    4.2595928   -8468.9036   -10361.345   -4421.5447   -10623.821    1165.2456    -1563.882   -1602.5951    77.286611 
   60800    148.12332   -111.16282   0.13402509    -111.0288    7567.0184    4.2508274    4.2508274    4.2508274    7567.0184    14467.214    4977.5561    3256.2849     613.8525    1414.4536    4145.6972    76.810468 
   60900    209.09816   -111.21728   0.18919641   -111.02808    4944.5127    4.2505864    4.2505864    4.2505864    4944.5127    2642.6925    7622.3526     4568.493    2582.1616     1098.214    2184.2684    76.797406 
   61000    159.52261   -111.17347   0.14433941   -111.02913   -1081.6454    4.2572622    4.2572622    4.2572622   -1081.6454    618.01181    -3692.937     -170.011    360.96339   -1006.8014    72.229088    77.159817 
   61100    200.19408   -111.21034   0.18113981    -111.0292   -4087.7842    4.2568483    4.2568483    4.2568483   -4087.7842    -5844.307   -6652.7712     233.7255    962.69927   -2121.4581    895.34153    77.137313 
   61200    221.96142   -111.23046   0.20083535   -111.02962    2754.2982    4.2518726    4.2518726    4.2518726    2754.2982    1335.9305   -3822.6407    10749.605   -1579.8485   -1935.1618    2490.0985    76.867139 
   61300    244.46303   -111.24987   0.22119528   -111.02868    1643.0197    4.2512096    4.2512096    4.2512096    1643.0197    3290.0459   -795.86668      2434.88   -1381.4439    3354.3026   -1510.0299    76.831187 
   61400    253.95272   -111.25815   0.22978176   -111.02837   -8119.7839    4.2570435    4.2570435    4.2570435   -8119.7839   -7563.0276   -9020.7736   -7775.5506     27.11113   -861.10927   -3279.8705     77.14793 
   61500    214.35849   -111.22303   0.19395607   -111.02907   -5606.7449    4.2582458    4.2582458    4.2582458   -5606.7449   -6947.3882   -3476.1018   -6396.7445    123.34744   -2938.1461    776.83392     77.21331 
   61600    239.31525   -111.24531   0.21653747   -111.02877    3546.9281     4.250568     4.250568     4.250568    3546.9281    3660.7619    5210.2406    1769.7817    1984.1406   -255.82996    3412.4744    76.796405 
   61700    159.60905   -111.17384   0.14441762   -111.02942    9839.0181    4.2504074    4.2504074    4.2504074    9839.0181    9922.3531    7009.0038    12585.697    1971.3591   -1849.6817    1537.9598    76.787704 
   61800    201.68323   -111.21167   0.18248722   -111.02918   -3295.2714    4.2584396    4.2584396    4.2584396   -3295.2714   -11200.032   -1623.8673    2938.0855    450.64146   -160.73278    308.52299    77.223854 
   61900    182.09999   -111.19416   0.16476789   -111.02939   -1088.6952    4.2560897    4.2560897    4.2560897   -1088.6952   -394.93958   -5020.4278    2149.2818    84.086502   -2185.5568    2936.8633    77.096085 
   62000    266.02349   -111.26923   0.24070365   -111.02853     2598.484    4.2511684    4.2511684    4.2511684     2598.484   -1117.3565   -673.13362    9585.9422   -846.39039   -144.96885   -383.37208    76.828953 
   62100    246.92497   -111.25218    0.2234229   -111.02876    408.12927    4.2530364    4.2530364    4.2530364    408.12927    3591.2271   -4315.1871    1948.3478    616.11755    2030.2538   -2142.5447    76.930278 
   62200    223.98125   -111.23172   0.20266294   -111.02905   -8873.5217    4.2579057    4.2579057    4.2579057   -8873.5217   -12343.533   -7521.2015   -6755.8305   -977.40611   -615.39664   -2522.0619    77.194812 
   62300    224.64647   -111.23239   0.20326485   -111.02913   -5994.4617    4.2567439    4.2567439    4.2567439   -5994.4617   -9024.3947   -5883.5841   -3075.4065   -1371.5956    91.778815    2850.9621    77.131641 
   62400    154.16319   -111.16857    0.1394901   -111.02908    9865.7412    4.2501433    4.2501433    4.2501433    9865.7412    6451.4781    7888.9262    15256.819    1948.7984   -1988.9385    428.34372     76.77339 
   62500     167.1312   -111.18066   0.15122382   -111.02944    3283.8482    4.2532487    4.2532487    4.2532487    3283.8482   -1080.0375    4887.1165    6044.4655     1593.233   -2447.4887    688.90604    76.941797 
   62600    106.61609    -111.1258  0.096468477   -111.02934   -2396.3245    4.2583876    4.2583876    4.2583876   -2396.3245   -8674.2978    4091.5468   -2606.2224    1907.8765   -2937.5689    2200.9301    77.221028 
   62700    228.18459   -111.23522   0.20646622   -111.02875   -3259.4513    4.2553803    4.2553803    4.2553803   -3259.4513   -5983.8745    -504.4304   -3290.0491   -399.35781   -1353.2671    2002.2227    77.057541 
   62800    190.61601   -111.20068   0.17247337    -111.0282    6313.3058    4.2511095    4.2511095    4.2511095    6313.3058    8740.9507     1788.341    8410.6256    126.66537    997.00434    -1448.251    76.825764 
   62900    226.38322   -111.23355   0.20483629   -111.02871   -4169.0472    4.2539521    4.2539521    4.2539521   -4169.0472   -7437.3538    179.82698   -5249.6147    359.16933   -638.17665   -2618.9664    76.979977 
   63000    196.58172   -111.20686   0.17787127   -111.02899   -8140.8464    4.2586042    4.2586042    4.2586042   -8140.8464   -8505.3012   -10634.015   -5283.2226   -1633.9652    604.29855    181.03465    77.232811 
   63100    204.41278   -111.21376   0.18495698    -111.0288     7.655584    4.2548911    4.2548911    4.2548911     7.655584   -5701.5281   -5302.6003    11027.095    131.28298    1073.6889    1957.3439    77.030965 
   63200    183.18867   -111.19457   0.16575296   -111.02882    6403.1998    4.2503112    4.2503112    4.2503112    6403.1998    7006.4846    3460.9062    8742.2085    815.86559   -1813.0758    497.83209     76.78249 
   63300    121.21495   -111.13916   0.10967783   -111.02948    1949.5467    4.2548818    4.2548818    4.2548818    1949.5467   -1264.7419    4289.8578    2823.5242    1410.6184   -1446.0837   -325.01048     77.03046 
   63400    206.46501   -111.21508   0.18681388   -111.02826   -6506.0752    4.2581349    4.2581349    4.2581349   -6506.0752   -5335.8892   -3431.9662    -10750.37    852.67777   -3203.0609    3256.0376     77.20728 
   63500    156.62047   -111.17059   0.14171349   -111.02887    4737.4762    4.2538192    4.2538192    4.2538192    4737.4762    7974.0771    2184.8173    4053.5343    1849.0433    389.18671   -912.20969    76.972765 
   63600    231.13909    -111.2374   0.20913951   -111.02826    1614.8776    4.2514277    4.2514277    4.2514277    1614.8776    3653.0081     2427.272   -1235.6474    2990.7332     980.5309   -2093.6635    76.843015 
   63700    168.28422   -111.18169    0.1522671   -111.02942    608.43005    4.2538921    4.2538921    4.2538921    608.43005    -855.5766   -464.20548    3145.0722    -303.8175   -2038.7697   -2186.2586    76.976721 
   63800    276.12076   -111.27798   0.24983987   -111.02814   -8094.2227    4.2587408    4.2587408    4.2587408   -8094.2227   -10144.645   -10963.824   -3174.1993   -1727.8699    2047.8008    951.02664    77.240244 
   63900    209.12361   -111.21807   0.18921944   -111.02885    1730.7663    4.2542864    4.2542864    4.2542864    1730.7663   -87.735648   -5703.9283    10983.963   -291.63747   -2132.6674    61.066235    76.998129 
   64000    224.88729   -111.23204   0.20348275   -111.02855    3289.5762    4.2496984    4.2496984    4.2496984    3289.5762   -987.23172    7080.8188    3775.1417    1344.4876   -1232.4798    -366.9549    76.749283 
   64100    206.46612   -111.21571   0.18681488    -111.0289   -85.379974    4.2552871    4.2552871    4.2552871   -85.379974    1626.7724   -2070.2387    187.32634    1403.2681   -1700.5333    1995.4167    77.052474 
   64200    210.40841   -111.21864   0.19038195   -111.02825   -3107.3346    4.2581681    4.2581681    4.2581681   -3107.3346   -3097.0698   -4743.8158   -1481.1182    830.69614   -1017.0738    1302.9861    77.209087 
   64300    205.38536   -111.21477   0.18583699   -111.02893    616.96409    4.2528012    4.2528012    4.2528012    616.96409    2902.6093   -412.82355    -638.8935    2298.6124    1383.1293   -1680.6277    76.917514 
   64400    146.73826   -111.16177   0.13277186     -111.029    7337.7007    4.2506438    4.2506438    4.2506438    7337.7007    7511.3509    4332.1321    10169.619     1333.095   -1909.6351   -4019.1829    76.800514 
   64500    246.87303   -111.25183   0.22337591   -111.02845   -2437.4243    4.2546059    4.2546059    4.2546059   -2437.4243   -1645.5212   -4251.2595    -1415.492    325.13069    2550.9092    335.57712    77.015477 
   64600    196.75262   -111.20636   0.17802591   -111.02833   -4446.4617    4.2576517    4.2576517    4.2576517   -4446.4617   -6012.0396    -8558.539    1231.1937    872.88187    153.12065   -894.26481    77.180997 
   64700    250.93366   -111.25575   0.22705005    -111.0287   -5918.7691    4.2542983    4.2542983    4.2542983   -5918.7691   -8878.6356   -5118.1316   -3759.5401   -639.71688   -1481.7187   -2306.1521    76.998773 
   64800    163.88267   -111.17754   0.14828448   -111.02926    7134.1954    4.2490704    4.2490704    4.2490704    7134.1954    4683.6604    5157.9214    11561.004   -1013.8374   -2848.1036    128.49602    76.715262 
   64900    253.81106    -111.2585   0.22965358   -111.02884   -3280.3333    4.2553312    4.2553312    4.2553312   -3280.3333   -5108.3268    597.99479   -5330.6678   -884.98069    -2121.282    2473.1963    77.054872 
   65000    171.33289    -111.1836    0.1550256   -111.02858   -3770.0203    4.2577777    4.2577777    4.2577777   -3770.0203   -7725.4696   -7196.1692     3611.578    2437.7389    1195.1554    37.257506    77.187851 
   65100    163.76211   -111.17727    0.1481754   -111.02909    2133.4182    4.2521587    4.2521587    4.2521587    2133.4182   -3262.5662    5753.8675    3908.9533    2902.6224   -1955.7357   -2072.2569     76.88266 
   65200    150.10899   -111.16452   0.13582177   -111.02869     9050.216    4.2502789    4.2502789    4.2502789     9050.216     7087.664    6836.6966    13226.288   -170.35152    -339.1165   -1173.1249     76.78074 
   65300    200.96216   -111.21068   0.18183478   -111.02885   -695.82437    4.2539064    4.2539064    4.2539064   -695.82437   -4163.0302    221.17496    1854.3821    654.08572    2605.8322     813.5554      76.9775 
   65400    204.61005    -111.2139   0.18513547   -111.02876   -8999.3124    4.2579536    4.2579536    4.2579536   -8999.3124   -12438.735   -8490.7212   -6068.4813    1482.4026   -1556.4829   -1047.5313    77.197418 
   65500    160.45884   -111.17425   0.14518653   -111.02906   -153.57506    4.2538251    4.2538251    4.2538251   -153.57506   -2153.6415   -4510.4022    6203.3185    662.79359    592.02937   -3211.5527    76.973083 
   65600    232.49161   -111.23818    0.2103633   -111.02782     2130.117    4.2493198    4.2493198    4.2493198     2130.117    2399.0307    2364.9976    1626.3227   -1331.9688   -1619.7014     2576.894    76.728772 
   65700    200.65067   -111.21003   0.18155294   -111.02848   -1913.2894    4.2544817    4.2544817    4.2544817   -1913.2894   -4672.1077   -5618.1033    4550.3428    8.6704183   -737.62844    318.36418    77.008732 
   65800    207.83455   -111.21667   0.18805307   -111.02861   -8832.9363    4.2582231    4.2582231    4.2582231   -8832.9363   -8360.0716    -10229.65   -7909.0871    2785.5117    943.37499   -1098.8245    77.212079 
   65900    136.44705   -111.15305   0.12346016   -111.02959    4302.0609    4.2519498    4.2519498    4.2519498    4302.0609    2594.6945   -487.12769    10798.616   -171.61706   -2857.3958   -1953.3455     76.87133 
   66000    241.43808   -111.24672   0.21845825   -111.02827    4983.7473    4.2502098    4.2502098    4.2502098    4983.7473     3694.103     9604.593     1652.546     403.3101     2897.015   -444.41986    76.776995 
   66100    180.60715   -111.19254   0.16341714   -111.02912    2926.6937    4.2539503    4.2539503    4.2539503    2926.6937   -1048.8769   -455.52661    10284.485    2654.9571   -956.37085   -497.51958    76.979881 
   66200    216.24176   -111.22441   0.19566008   -111.02875   -6400.1502    4.2567577    4.2567577    4.2567577   -6400.1502    -7557.994   -6290.7868   -5351.6698    2557.0038   -1428.4042   -3009.2145    77.132391 
   66300     190.5725   -111.20195     0.172434   -111.02951      1282.25    4.2544492    4.2544492    4.2544492      1282.25   -2581.7704    553.05243     5875.468   -1392.3627   -638.60187    1280.7243    77.006969 
   66400    265.83461   -111.26873   0.24053274    -111.0282    3789.8762    4.2491789    4.2491789    4.2491789    3789.8762    1530.8683    2935.6341    6903.1263   -2231.0805   -246.36178    719.59178    76.721142 
   66500     218.0471   -111.22604    0.1972936   -111.02875   -812.68439     4.253256     4.253256     4.253256   -812.68439   -815.95667     -5084.67    3462.5735    2535.6976    2349.5236    377.52843    76.942196 
   66600    191.01603   -111.20193   0.17283532   -111.02909    -7523.899    4.2588676    4.2588676    4.2588676    -7523.899   -7049.1655   -12403.783   -3118.7488    2176.0869   -2384.8143   -1816.7605    77.247143 
   66700    216.36175   -111.22471   0.19576866   -111.02895   -1063.1427    4.2526915    4.2526915    4.2526915   -1063.1427   -863.42703    735.45767   -3061.4587   -954.76498    1923.5002   -629.73816    76.911561 
   66800    205.92499   -111.21475   0.18632526   -111.02842    7593.6434    4.2495777    4.2495777    4.2495777    7593.6434    4447.2998    4661.9688    13671.662   -96.374689    1671.9741    635.94753    76.742743 
   66900    210.07183   -111.21903    0.1900774   -111.02895    -1211.446    4.2548679    4.2548679    4.2548679    -1211.446    2198.7863   -2868.7233   -2964.4009    2414.8603   -539.52212   -2916.7401    77.029704 
   67000    144.52666   -111.15959   0.13077076   -111.02882   -2980.5229    4.2561288    4.2561288    4.2561288   -2980.5229    -8258.513   -2825.5313    2142.4756    1767.2565   -643.10098   -1460.5295    77.098208 
   67100    252.18437   -111.25668   0.22818172    -111.0285   -2645.3768    4.2543508    4.2543508    4.2543508   -2645.3768   -7272.9811    1966.1508   -2629.3001   -1148.0868   -2692.9628    1750.1739    77.001625 
   67200    184.31681   -111.19502   0.16677373   -111.02825    8387.5363    4.2502852    4.2502852    4.2502852    8387.5363    1726.4443    4792.3991    18643.765     404.7123     930.9563    634.57043    76.781082 
   67300    237.61093   -111.24395   0.21499536   -111.02896   -3093.4366    4.2521442    4.2521442    4.2521442   -3093.4366   -4803.5127   -4125.7811   -351.01604    1753.8652    455.66325    -570.8696    76.881873 
   67400    156.92368   -111.17111   0.14198784   -111.02912   -5256.2072    4.2588071    4.2588071    4.2588071   -5256.2072   -13082.394   -3906.3973      1220.17   -722.86794   -1646.1201   -1254.5414    77.243848 
   67500    244.41809   -111.24966   0.22115463   -111.02851   -2885.3274    4.2540339    4.2540339    4.2540339   -2885.3274   -8034.2525   -357.26693    -264.4628    329.41718    2262.1138    -605.1201    76.984418 
   67600    165.49018   -111.17845   0.14973899   -111.02871    7810.7412    4.2488726    4.2488726    4.2488726    7810.7412    5568.4523    6827.3088    11036.463    3216.7773   -528.16435   -125.45227    76.704553 
   67700    170.47404   -111.18374    0.1542485   -111.02949   -1060.1202    4.2549616    4.2549616    4.2549616   -1060.1202   -5662.6994    1803.5432     678.7956     2313.794   -232.16177   -2965.5428    77.034798 
   67800    175.21673   -111.18731   0.15853978   -111.02877   -4603.3905    4.2563534    4.2563534    4.2563534   -4603.3905   -8594.8074   -583.85956   -4631.5046   -695.41973    231.93022    1989.2541    77.110414 
   67900    190.31005   -111.20102   0.17219653   -111.02882     1027.952    4.2537192    4.2537192    4.2537192     1027.952    -6867.649    1865.4878    8086.0173   -157.75359   -1223.0091   -400.98204    76.967337 
   68000    214.34705   -111.22227   0.19394571   -111.02833    2403.5373    4.2513334    4.2513334    4.2513334    2403.5373    1848.3913    879.90182    4482.3188    3614.0006    1477.9727   -85.809837      76.8379 
   68100    155.90487   -111.17021     0.141066   -111.02914    1399.1618     4.252323     4.252323     4.252323    1399.1618   -5727.2982    391.77199    9533.0116    234.56174   -2454.9574   -1969.6672     76.89157 
   68200    256.72398   -111.26047   0.23228925   -111.02818   -9534.6355    4.2581171    4.2581171    4.2581171   -9534.6355   -15272.046   -7858.7943   -5473.0667   -1788.9953    1500.2844   -1096.8058    77.206314 
   68300    162.18227   -111.17561   0.14674592   -111.02886    1694.8185    4.2548095    4.2548095    4.2548095    1694.8185   -2175.7068   -107.24061    7367.4029    339.18344    841.19927   -336.85051    77.026534 
   68400    226.13177   -111.23298   0.20460877   -111.02837     2278.072    4.2491171    4.2491171    4.2491171     2278.072    783.96669    3230.9454     2819.304    3145.0295   -672.73359   -4594.2884    76.717791 
   68500     123.8156    -111.1414   0.11203096   -111.02936    4238.4408    4.2538759    4.2538759    4.2538759    4238.4408   -1412.7877    6109.9995    8018.1104    1591.5949   -520.18222   -477.46313    76.975843 
   68600    233.55614   -111.23978    0.2113265   -111.02846   -7759.8981    4.2578193    4.2578193    4.2578193   -7759.8981   -10056.595   -3730.9137   -9492.1855   -26.012849   -2281.4384    1551.7797    77.190112 
   68700    159.32072   -111.17352   0.14415674   -111.02936    1505.8083    4.2532089    4.2532089    4.2532089    1505.8083     420.3655    799.55048    3297.5091     3003.237    1967.2336    983.50134    76.939637 
   68800    210.43374   -111.21895   0.19040487   -111.02855      2295.26     4.251698     4.251698     4.251698      2295.26    -1799.629    3428.2242    5257.1846    1262.7313   -1546.6594   -804.93824     76.85767 
   68900    206.11231   -111.21516   0.18649475   -111.02866   -248.23742    4.2532412    4.2532412    4.2532412   -248.23742   -2588.2564   -3026.9237    4870.4678   -1693.8237    322.83993   -1851.2906     76.94139 
   69000    226.06448   -111.23277   0.20454789   -111.02822   -6160.1449    4.2567412    4.2567412    4.2567412   -6160.1449   -9887.8423   -6854.6988   -1737.8936   -486.29191    1637.9307     -427.364    77.131492 
   69100    238.13069   -111.24422   0.21546566   -111.02875   -3764.3098     4.255905     4.255905     4.255905   -3764.3098   -5671.0385   -3691.4868   -1930.4042    2354.8986    327.71593   -1699.0008    77.086049 
   69200    176.34985   -111.18881   0.15956505   -111.02925    7661.4977    4.2499113    4.2499113    4.2499113    7661.4977    5104.6792    6653.7851    11226.029    908.37884     990.0078   -3441.9446    76.760819 
   69300    245.65507   -111.25103   0.22227387   -111.02875   -234.98161    4.2532187    4.2532187    4.2532187   -234.98161   -2738.2585    2938.4446   -905.13089   -1439.1901    -585.3913    1702.9149    76.940171 
   69400    155.86561   -111.17007   0.14103048   -111.02903   -1451.0059    4.2583386    4.2583386    4.2583386   -1451.0059   -3689.9314    1774.7592   -2437.8454     1801.687     -1062.07    993.29529    77.218358 
   69500    226.72332   -111.23405   0.20514402   -111.02891   -1792.6673    4.2538723    4.2538723    4.2538723   -1792.6673   -3087.9742   -1736.1302   -553.89763     5179.192   -736.95528      658.046    76.975645 
   69600    168.40293   -111.18102   0.15237451   -111.02865    7884.2653    4.2510541    4.2510541    4.2510541    7884.2653    3490.9686    5904.2697    14257.558    1981.5128   -2566.2295    55.470596    76.822756 
   69700    258.70736   -111.26225   0.23408386   -111.02816     -3432.37    4.2547438    4.2547438    4.2547438     -3432.37   -5381.8015   -1692.2724    -3223.036   -1945.0876    464.64279   -848.92787    77.022966 
   69800    212.36833   -111.22039   0.19215533   -111.02824   -6307.6377    4.2568393    4.2568393    4.2568393   -6307.6377   -11539.585   -8754.4433     1371.115    358.32419    739.46445   -303.51941    77.136826 
   69900    234.02981   -111.24034   0.21175509   -111.02859   -3969.5003    4.2557198    4.2557198    4.2557198   -3969.5003    -9793.773    60.134423   -2174.8624    2092.1671   -1214.3132   -4303.9422    77.075983 
   70000    231.45016   -111.23771   0.20942097   -111.02829    3622.7313     4.251212     4.251212     4.251212    3622.7313   -1055.3251    6151.9786    5771.5403    280.27619    1091.6011    322.35962    76.831319 
   70100    211.00963   -111.22009   0.19092595   -111.02916    1202.7996     4.253644     4.253644     4.253644    1202.7996   -6837.9983    7188.3242    3258.0731    134.68014    28.132035    2007.7227    76.963253 
   70200    190.59609   -111.20186   0.17245535    -111.0294   -4698.1803    4.2588231    4.2588231    4.2588231   -4698.1803   -12289.426   -1180.7773   -624.33795    2537.1099    294.46885     1642.686    77.244719 
   70300    146.36524   -111.16206   0.13243435   -111.02962    3744.9371    4.2537383    4.2537383    4.2537383    3744.9371    2790.7218    1218.6217    7225.4678    2447.6167   -3262.9435   -1940.7729     76.96837 
   70400    222.88357   -111.23001   0.20166974   -111.02834    4948.9029    4.2509415    4.2509415    4.2509415    4948.9029    4255.0698    2959.5737    7632.0651    717.60939   -724.69169   -1931.6938    76.816656 
   70500    187.23119   -111.19807   0.16941072   -111.02866    709.32582    4.2551293    4.2551293    4.2551293    709.32582   -2887.0563   -52.078255     5067.112    865.10669    835.15736    450.29065    77.043905 
   70600    209.00709   -111.21744     0.189114   -111.02833   -7872.8034    4.2580368    4.2580368    4.2580368   -7872.8034   -7673.7408   -9723.0297   -6221.6398     769.9978   -1213.1938   -3758.2154    77.201943 
   70700    200.05556   -111.20967   0.18101447   -111.02865   -1154.6912    4.2548732    4.2548732    4.2548732   -1154.6912   -3918.4178    718.78667   -264.44259   -1043.8721    1251.2974   -2350.9465    77.029997 
   70800    230.04065    -111.2361   0.20814561   -111.02796    3687.0472    4.2511343    4.2511343    4.2511343    3687.0472   -2045.5022    12237.581      869.063   -2900.1776   -168.19596     945.9283    76.827107 
   70900    178.09571   -111.18998   0.16114474   -111.02883    336.33758    4.2547584    4.2547584    4.2547584    336.33758   -11288.417    2971.0279    9326.4021    1151.5976    2168.6905    1701.5178    77.023758 
   71000    153.25604   -111.16769   0.13866928   -111.02902   -5029.9695    4.2587147    4.2587147    4.2587147   -5029.9695   -13886.569    182.69894   -1386.0381    4108.7428   -1248.7575     827.3062    77.238821 
   71100     185.3753   -111.19699   0.16773146   -111.02926     244.1361     4.253951     4.253951     4.253951     244.1361    2132.9139   -1654.0685    253.56293    1284.2965   -2544.4556    -1935.654    76.979918 
   71200    174.46805   -111.18664   0.15786235   -111.02878    6818.8183    4.2509067    4.2509067    4.2509067    6818.8183    4643.4674    5200.2472     10612.74    337.50709   -297.73605   -1059.8126     76.81477 
   71300    197.31028   -111.20754   0.17853049   -111.02901   -3768.1656    4.2560663    4.2560663    4.2560663   -3768.1656   -1648.0901   -8814.8524   -841.55424    752.70338    -1532.246   -633.90299     77.09481 
   71400    156.15517   -111.17012   0.14129248   -111.02883   -5748.1378    4.2582467    4.2582467    4.2582467   -5748.1378    1248.0239   -7730.7521   -10761.685    1348.1187    845.06772    -4997.325     77.21336 
   71500    218.59401   -111.22598   0.19778846   -111.02819   -33.680885     4.253899     4.253899     4.253899   -33.680885    2970.0239   -96.372551    -2974.694   -1754.5246    1309.1952    320.31431    76.977093 
   71600    174.35393   -111.18602    0.1577591   -111.02826    6917.2027    4.2517322    4.2517322    4.2517322    6917.2027   -2480.7505    11273.293    11959.065   -1924.0329    2175.9062    1691.8473    76.859529 
   71700     185.2596   -111.19668   0.16762678   -111.02905   -2470.3116    4.2556159    4.2556159    4.2556159   -2470.3116   -7779.7351    712.57578   -343.77533    1461.8882     814.6755    1539.7197    77.070338 
   71800     167.4312    -111.1806   0.15149526    -111.0291   -4134.8599    4.2583062    4.2583062    4.2583062   -4134.8599   -8769.4744   -1485.1195   -2149.9858    2710.3117   -1697.6452   -885.97335    77.216595 
   71900      228.134   -111.23515   0.20642044   -111.02873    392.30524    4.2541373    4.2541373    4.2541373    392.30524   -1605.7346    5292.7807   -2510.1304    1647.7015    -491.5544   -1275.4874    76.990035 
   72000    212.49514   -111.22087   0.19227007    -111.0286    4130.8607    4.2511768    4.2511768    4.2511768    4130.8607    5148.7913   -174.78079    7418.5717    2511.7545   -763.34416    546.14066    76.829413 
   72100    206.10368   -111.21571   0.18648694   -111.02922   -5153.2572    4.2575303    4.2575303    4.2575303   -5153.2572   -2391.4169   -4739.7928   -8328.5619    1767.7774   -1881.1511   -2768.1201    77.174396 
   72200    205.57558   -111.21466   0.18600911   -111.02865   -4945.5915    4.2580843    4.2580843    4.2580843   -4945.5915    2608.7238    -5925.875   -11519.623   -1881.1915    490.13838    -1420.232    77.204529 
   72300     206.4607   -111.21536   0.18680998   -111.02855    4702.1661    4.2529388    4.2529388    4.2529388    4702.1661    935.68806    9236.8149    3933.9954   -3700.4589    1941.6885    202.03214    76.924982 
   72400    187.08565   -111.19786   0.16927903   -111.02858    5749.4322    4.2527751    4.2527751    4.2527751    5749.4322   -1091.0808    8522.2072      9817.17   -69.311037    2389.4648    2277.8243    76.916099 
   72500    180.41273   -111.19235   0.16324123   -111.02911   -1339.4574    4.2559954    4.2559954    4.2559954   -1339.4574    -7990.405    3915.3862    56.646634     2572.442    986.25225    674.09921    77.090959 
   72600    223.57592   -111.23136   0.20229619   -111.02906   -4373.7913    4.2585859    4.2585859    4.2585859   -4373.7913   -9903.0131   -1566.4216   -1651.9391    373.62239   -1141.2199   -1015.5478    77.231814 
   72700     265.3291   -111.26853   0.24007535   -111.02846    201.63613    4.2540524    4.2540524    4.2540524    201.63613   -5482.3711    2565.0277    3522.2519    736.99427    946.76103   -918.28234    76.985422 
   72800    261.22514   -111.26496     0.236362    -111.0286    227.08938    4.2515311    4.2515311    4.2515311    227.08938    2965.8279   -2089.2095   -195.35033    2698.6618   -2630.0972    -2287.595    76.848623 
   72900    215.73637   -111.22461    0.1952028    -111.0294   -5007.0273    4.2586867    4.2586867    4.2586867   -5007.0273   -5873.8958   -3847.0349   -5300.1511    2482.2221    446.77823   -3282.5431    77.237299 
   73000    221.89331   -111.22957   0.20077373    -111.0288   -2667.1714    4.2576358    4.2576358    4.2576358   -2667.1714   -4150.7014     2725.747   -6576.5599   -2899.6799    288.72636    944.34189    77.180134 
   73100    193.93571   -111.20427    0.1754771   -111.02879    7626.4469    4.2518302    4.2518302    4.2518302    7626.4469    3504.0223    11695.453    7679.8652   -3974.9778    1732.8707    1966.8198    76.864843 
   73200    155.07051   -111.16969   0.14031105   -111.02938    6390.9762    4.2535935    4.2535935    4.2535935    6390.9762   -1620.9612    12097.402    8696.4878    1181.4463    2476.1751    1458.0839    76.960514 
   73300     155.6072   -111.17062   0.14079667   -111.02982   -1171.0108    4.2561381    4.2561381    4.2561381   -1171.0108   -5643.3718   -2674.0595    4804.3989    1040.7954    651.05439    -1439.273    77.098713 
   73400    243.63321    -111.2495   0.22044445   -111.02906   -6105.4754    4.2586637    4.2586637    4.2586637   -6105.4754   -12170.664   -5551.5706   -594.19201    95.745131    2229.3027   -1255.9549    77.236046 
   73500    276.68907   -111.27856   0.25035409    -111.0282   -2088.2619    4.2540337    4.2540337    4.2540337   -2088.2619   -5297.6338   -2415.4626    1448.3109    1883.3886    -1347.112   -681.75609     76.98441 
   73600    212.26681   -111.22122   0.19206347   -111.02916    571.36295    4.2509896    4.2509896    4.2509896    571.36295   -1359.4593   -472.84493    3546.3931    2531.0401   -1615.8548   -6020.1637    76.819259 
   73700    217.37416   -111.22612   0.19668471   -111.02944    -7745.244     4.259771     4.259771     4.259771    -7745.244   -13569.634   -3163.2228   -6502.8755    1545.7809   -965.68794   -1864.2655    77.296307 
   73800    184.58247   -111.19631    0.1670141    -111.0293    -654.0626    4.2572767    4.2572767    4.2572767    -654.0626   -11279.812    11424.486    -2106.862   -2351.3361    883.47754    2062.2984    77.160609 
   73900    178.65458   -111.19076   0.16165042   -111.02911    7886.2183    4.2507561    4.2507561    4.2507561    7886.2183    1690.9639    12095.978     9871.713   -613.35385    1540.9656     3887.154    76.806606 
   74000    108.18075   -111.12741   0.09788422   -111.02952    6593.4588    4.2550072    4.2550072    4.2550072    6593.4588   -1784.5558    7608.7525     13956.18    203.39554    1812.3033     97.54686    77.037272 
   74100     204.9687   -111.21408   0.18545999   -111.02862   -6085.1621    4.2574289    4.2574289    4.2574289   -6085.1621   -6776.3661   -8213.9554   -3265.1648    -1704.061    3146.6866   -2191.0743    77.168882 
   74200    215.27242   -111.22345   0.19478301   -111.02866   -4480.5042    4.2573702    4.2573702    4.2573702   -4480.5042   -4730.5437    -2953.237   -5757.7318    1367.0194    2295.1063   -2554.0193    77.165693 
   74300    206.47845   -111.21546   0.18682604   -111.02863    1386.8731    4.2540259    4.2540259    4.2540259    1386.8731    658.20356    1549.2854    1953.1305    4118.9648   -266.09767   -1533.4467    76.983984 
   74400    157.88613   -111.17261   0.14285868   -111.02975    2337.7219    4.2520625    4.2520625    4.2520625    2337.7219   -1592.5756    11220.655   -2614.9137    3501.8487   -1750.8985   -4052.2205    76.877439 
   74500    162.71156   -111.17686   0.14722484   -111.02964   -4236.9659    4.2599389    4.2599389    4.2599389   -4236.9659   -13029.265    5970.6869   -5652.3195    972.56376   -882.42924    1942.0478    77.305447 
   74600    169.19431   -111.18201   0.15309057   -111.02892    127.96365    4.2573491    4.2573491    4.2573491    127.96365   -13039.524    11657.165    1766.2497   -187.15194   -927.64116    2102.7805    77.164542 
   74700    164.39876   -111.17744   0.14875145   -111.02869    6304.4822    4.2508115    4.2508115    4.2508115    6304.4822   -1655.7708    5755.2178    14813.999    2284.8602    102.99053     1222.707    76.809607 
   74800    212.22607   -111.22081   0.19202661   -111.02878   -3382.1324    4.2570522    4.2570522    4.2570522   -3382.1324   -11347.022   -3615.9178    4816.5431    -1303.665    1749.3506   -1974.8862    77.148401 
   74900    224.32935   -111.23169   0.20297791   -111.02871   -7116.1247    4.2579311    4.2579311    4.2579311   -7116.1247   -10950.978   -2865.4376   -7531.9591   -1875.0721    2716.3127   -1832.9081    77.196196 
   75000    254.96662   -111.25933   0.23069915   -111.02863   -4702.3575    4.2560391    4.2560391    4.2560391   -4702.3575    -9580.509    627.12852    -5153.692    1603.7867    2361.7709   -1777.5256    77.093333 
   75100    168.29168   -111.18158   0.15227385    -111.0293    3341.7343    4.2552246    4.2552246    4.2552246    3341.7343   -1851.0758    13124.577   -1248.2981    3498.1156    192.16939   -2678.5125    77.049081 
   75200    165.34323   -111.17987   0.14960603   -111.03026    2422.3215    4.2530913    4.2530913    4.2530913    2422.3215   -3828.6053    12542.044   -1446.4747    3144.3453   -501.55626    85.554448    76.933256 
   75300     160.1767   -111.17483   0.14493124    -111.0299    357.75373    4.2586092    4.2586092    4.2586092    357.75373   -7246.1934    7590.6702    728.78445    1562.7639   -814.87614    4402.3708    77.233083 
   75400    161.99191   -111.17632   0.14657369   -111.02974    3423.3743    4.2568845    4.2568845    4.2568845    3423.3743   -5680.9714   -995.33796    16946.432    2096.7305   -3342.7545    1933.3351    77.139286 
   75500    195.42448   -111.20632   0.17682417    -111.0295    3452.1577    4.2516818    4.2516818    4.2516818    3452.1577    4044.5055   -2743.5791    9055.5468    1791.1005   -1237.2669   -4055.6721    76.856795 
   75600    238.69819   -111.24463   0.21597914   -111.02865    -3557.965    4.2577791    4.2577791    4.2577791    -3557.965   -6542.6207   -8676.3815    4545.1071   -926.95114   -118.48557   -3592.5366    77.187928 
   75700     276.2859   -111.27876   0.24998929   -111.02877   -5574.9535    4.2577411    4.2577411    4.2577411   -5574.9535   -7734.0664   -106.57029   -8884.2239   -1286.2252    1379.4448   -714.96354    77.185863 
   75800    248.88183   -111.25434   0.22519351   -111.02915   -1401.5425    4.2547743    4.2547743    4.2547743   -1401.5425    -7881.007    2236.2696    1440.1101   -387.97585    2716.6905   -260.17374    77.024624 
   75900    211.02849   -111.22026   0.19094301   -111.02931    415.20861    4.2563968    4.2563968    4.2563968    415.20861   -9212.9769    8454.4272    2004.1755   -339.50962    1619.1525     -650.216    77.112772 
   76000    190.85603   -111.20235   0.17269055   -111.02966    1463.7599    4.2556579    4.2556579    4.2556579    1463.7599    -10724.72    4668.8614    10447.138    1169.2432    3631.5547    3366.3961    77.072622 
   76100    196.23334   -111.20698   0.17755605   -111.02942    1565.1035    4.2568708    4.2568708    4.2568708    1565.1035   -11019.435   -973.06677    16687.812    3043.5197   -2060.2649    2704.3772    77.138539 
   76200    223.19594   -111.23103   0.20195238   -111.02908    770.50545    4.2558204    4.2558204    4.2558204    770.50545   -6922.3147    -3321.484    12555.315    2118.3869   -2844.8727    799.93027    77.081449 
   76300    240.87324   -111.24699   0.21794717   -111.02905   -2067.9044    4.2548129    4.2548129    4.2548129   -2067.9044   -1112.9685   -6769.4333    1678.6886     385.7837   -2029.3659   -5927.3144    77.026722 
   76400     276.4236   -111.27883   0.25011388   -111.02871   -6408.1714    4.2588201    4.2588201    4.2588201   -6408.1714   -5309.2487   -10135.554   -3779.7119   -749.65602   -134.84146    -2375.921    77.244559 
   76500    234.03432   -111.24053   0.21175917   -111.02877    660.63778     4.255521     4.255521     4.255521    660.63778   -570.23852    2.9262102    2549.2256    666.75257    1728.8781   -1005.4416    77.065183 
   76600    179.00322    -111.1914   0.16196587   -111.02944    5006.7316    4.2535102    4.2535102    4.2535102    5006.7316   -832.06357    1833.4233    14018.835    -987.5174    1703.8153    823.31664    76.955992 
   76700    147.88654   -111.16386   0.13381085   -111.03005    1538.4056    4.2578541    4.2578541    4.2578541    1538.4056   -6935.9016   -1630.7438    13181.862   -2851.8469     4118.848    914.93353    77.192004 
   76800    134.48941   -111.15213   0.12168884   -111.03044    2279.3597     4.255858     4.255858     4.255858    2279.3597   -6876.9294    3255.8787     10459.13    -881.0611    3082.2092     3480.107    77.083495 
   76900    194.67101    -111.2056   0.17614242   -111.02946    2948.6542    4.2534477    4.2534477    4.2534477    2948.6542   -6140.1899    3773.5234    11212.629    1608.4556    868.91038    1933.1359      76.9526 
   77000    240.90213   -111.24675   0.21797331   -111.02878   -4534.0182    4.2559223    4.2559223    4.2559223   -4534.0182   -9080.1679   -3535.3976     -986.489    812.53871   -2425.8132   -2190.1659    77.086986 
   77100    226.17477   -111.23338   0.20464768   -111.02873   -10305.066    4.2580973    4.2580973    4.2580973   -10305.066   -12855.057   -6657.0395   -11403.101    286.16433   -509.80415   -3088.5967    77.205236 
   77200    215.49452   -111.22422   0.19498397   -111.02924   -3445.6742    4.2556902    4.2556902    4.2556902   -3445.6742   -9977.2003   -6698.5535    6338.7311    2515.4349   -762.66418   -1353.9943    77.074373 
   77300    193.31776   -111.20399   0.17491797   -111.02907    5883.3316    4.2523326    4.2523326    4.2523326    5883.3316   -4142.4453    2008.5211    19783.919    2680.7648    641.98335    781.99353    76.892092 
   77400    173.91492   -111.18663   0.15736188   -111.02927    1641.2273    4.2553216    4.2553216    4.2553216    1641.2273   -7005.0668    2474.3092    9454.4395   -789.01708    2071.9408   -1100.1591     77.05435 
   77500    143.29525   -111.15951   0.12965656   -111.02985   -2698.0737    4.2577926    4.2577926    4.2577926   -2698.0737   -8761.1285   -1581.5584    2248.4657   -1224.7114    2875.7631    2504.6847    77.188662 
   77600     134.4827   -111.15215   0.12168277   -111.03046     4346.683    4.2536206    4.2536206    4.2536206     4346.683    1907.4938    13568.475   -2435.9202    303.91343    1101.1213     416.4287    76.961984 
   77700    211.59969    -111.2204   0.19145985   -111.02894    1969.1184    4.2531736    4.2531736    4.2531736    1969.1184   -1050.3156    4202.3963    2755.2746   -1697.0791   -1286.0276    389.80722    76.937725 
   77800    173.46957   -111.18602   0.15695891   -111.02906    -3970.334     4.256567     4.256567     4.256567    -3970.334   -4347.3599   -1245.5617   -6318.0806   -2020.9345   -1349.1642      -4124.9    77.122026 
   77900    186.18552   -111.19748   0.16846457   -111.02902   -7414.9738    4.2576453    4.2576453    4.2576453   -7414.9738   -9294.9954   -8669.5465   -4280.3796      -317.05    -1640.164   -2858.9382    77.180651 
   78000    154.25513   -111.16926   0.13957329   -111.02969      4279.19    4.2535299    4.2535299    4.2535299      4279.19   -4594.4444    286.45979    17145.555    4573.3299   -2058.7918    2013.9125     76.95706 
   78100    233.39594   -111.24045   0.21118155   -111.02927     2498.792    4.2519708    4.2519708    4.2519708     2498.792   -4968.4008   -1878.2997    14343.076     1910.709   -56.866748    603.79163    76.872468 
   78200    181.58468   -111.19393   0.16430164   -111.02963   -1618.1488     4.257671     4.257671     4.257671   -1618.1488   -11481.889    5295.1432    1332.2994   -900.55802    1533.7601    1310.6951    77.182046 
   78300    235.08166   -111.24156   0.21270683   -111.02885   -5513.1725    4.2581722    4.2581722    4.2581722   -5513.1725   -13764.447   -3135.7485    360.67828    1663.9223     2078.732    766.91191     77.20931 
   78400    226.78332   -111.23393   0.20519832   -111.02874     3604.741    4.2524937    4.2524937    4.2524937     3604.741   -1866.6506    10246.356    2434.5173    453.68579    1425.5101   -195.18055    76.900829 
   78500    229.18675   -111.23641   0.20737299   -111.02904      2418.86    4.2533729    4.2533729    4.2533729      2418.86   -4019.4046    3906.1769    7369.8078   -1270.8251   -1882.8649   -1354.4575    76.948539 
   78600    204.34717   -111.21433   0.18489762   -111.02943   -4072.9856    4.2576808    4.2576808    4.2576808   -4072.9856   -6505.3355   -9296.7281    3583.1069   -1584.6113    306.96117   -4613.0215    77.182583 
   78700    143.94183   -111.16017   0.13024159   -111.02993    635.45212    4.2569088    4.2569088    4.2569088    635.45212   -4851.4742   -4051.5848    10809.415    478.27508   -2908.0617   -249.74464    77.140604 
   78800    233.33382   -111.23996   0.21112535   -111.02884    1604.5538    4.2531728    4.2531728    4.2531728    1604.5538    458.14693   -6108.4243    10463.939    1959.0565   -2418.2123     2423.356    76.937678 
   78900    186.75893   -111.19802   0.16898341   -111.02903    4161.4354    4.2529264    4.2529264    4.2529264    4161.4354    1595.5724    2021.1205    8867.6134   -90.277458   -501.94246   -9.7549252    76.924308 
   79000    280.41035   -111.28236   0.25372118   -111.02864   -9459.8701    4.2591423    4.2591423    4.2591423   -9459.8701   -8763.2442   -8590.8223   -11025.544     2097.543    372.50635    1796.3276     77.26209 
   79100    186.50729   -111.19814   0.16875572   -111.02938    -1290.116    4.2568302    4.2568302    4.2568302    -1290.116   -8019.1385   -226.86664    4375.6572      3052.02    2335.6257   -1445.6491     77.13633 
   79200    270.39022   -111.27339   0.24465475   -111.02873     2308.817    4.2507283    4.2507283    4.2507283     2308.817   -3113.9069   -718.16625    10758.524    -1118.558   -776.64793    773.60413    76.805097 
   79300    178.87226   -111.19106   0.16184738   -111.02921    5482.8411    4.2551625    4.2551625    4.2551625    5482.8411   -2505.8225    5545.4327    13408.913   -2634.5657     1908.978   -3969.4697    77.045707 
   79400    207.98766   -111.21715   0.18819161   -111.02896   -5544.5195    4.2583522    4.2583522    4.2583522   -5544.5195   -12984.008   -10848.171    7198.6203   -317.81587   -1576.4299   -1844.4584    77.219099 
   79500    159.02555   -111.17372   0.14388966   -111.02983    1074.1291     4.252895     4.252895     4.252895    1074.1291   -1187.7015     250.7956    4159.2933    1694.3015    582.43324    1969.4457    76.922606 
   79600    228.57165   -111.23549   0.20681643   -111.02868    828.18646    4.2544879    4.2544879    4.2544879    828.18646   -996.28852    -475.5472    3956.3951   -831.36067   -2325.7374   -604.97683    77.009071 
   79700    223.12027   -111.23064   0.20188391   -111.02876   -2500.9939    4.2549525    4.2549525    4.2549525   -2500.9939   -1514.5827   -1053.6982   -4934.7009   -1177.8755     899.8728    2143.6403    77.034303 
   79800    171.32138   -111.18378   0.15501518   -111.02876   -4210.3214    4.2552208    4.2552208    4.2552208   -4210.3214   -4662.4655   -3399.4844   -4569.0144    3077.3437    2873.3909   -1600.5216    77.048874 
   79900    164.97324   -111.17877   0.14927126    -111.0295   -500.81593    4.2568105    4.2568105    4.2568105   -500.81593   -9747.3566   -5051.8832    13296.792    1151.9816    551.60184    927.90046    77.135262 
   80000    173.00445   -111.18675   0.15653806   -111.03021    6233.3967     4.249952     4.249952     4.249952    6233.3967     893.8556    3353.8524    14452.482   -454.83627    1492.1454   -1128.2075    76.763026 
   80100     182.0689   -111.19469   0.16473977   -111.02995   -400.01873    4.2557025    4.2557025    4.2557025   -400.01873   -7423.9934   -3477.8885    9701.8257    268.44577   -1054.4498   -2709.0301    77.075042 
   80200    204.48945   -111.21427   0.18502635   -111.02925   -5864.4287    4.2583922    4.2583922    4.2583922   -5864.4287   -10365.698   -5176.4873   -2051.1011    1155.6453     570.7635    968.04578    77.221276 
   80300    210.84903   -111.21955   0.19078063   -111.02877   -406.99433    4.2509763    4.2509763    4.2509763   -406.99433   -4212.1705   -1282.1052    4273.2927   -535.47891   -3121.2335    1938.7916    76.818542 
   80400    208.83884   -111.21793   0.18896177   -111.02897   -1237.5307    4.2556646    4.2556646    4.2556646   -1237.5307   -2511.9823   -441.61751   -758.99219   -2485.6297    918.01041    546.76391    77.072986 
   80500    185.18642   -111.19717   0.16756057   -111.02961   -1066.1261    4.2559753    4.2559753    4.2559753   -1066.1261   -4263.5611   -4822.1437    5887.3265    2065.2969    363.06812   -143.29271    77.089867 
   80600    145.31416   -111.16127   0.13148331   -111.02978    4450.0263    4.2525558    4.2525558    4.2525558    4450.0263   -6006.9479    2036.7766     17320.25    2783.4854      1758.72    -831.2777      76.9042 
   80700    185.59699   -111.19743   0.16793206    -111.0295    1369.9533    4.2559931    4.2559931    4.2559931    1369.9533    -3304.215   -1764.2503    9178.3251   -1472.0935    1026.0771    974.03872    77.090836 
   80800    189.37655   -111.20046   0.17135188   -111.02911    713.65099    4.2545238    4.2545238    4.2545238    713.65099    -5110.418     2276.939    4974.4321   -933.48678    34.671897    -2405.361    77.011019 
   80900     279.9734   -111.28212   0.25332582    -111.0288    -4378.536    4.2545507    4.2545507    4.2545507    -4378.536   -7450.9555   -2743.2767   -2941.3758    495.01335    1095.1917   -716.06364    77.012479 
   81000    187.97525   -111.19966   0.17008395   -111.02957    1802.8517    4.2558531    4.2558531    4.2558531    1802.8517   -8252.8907    4034.8275    9626.6182    1036.7105   -938.13185    2430.8705    77.083225 
   81100    239.77164   -111.24656   0.21695042   -111.02961   -2942.2903    4.2525562    4.2525562    4.2525562   -2942.2903   -6652.6315    -6919.093    4744.8537   -1997.5209   -1954.0758    2537.9267    76.904225 
   81200    151.11867   -111.16652   0.13673535   -111.02979    957.22271    4.2560652    4.2560652    4.2560652    957.22271   -6505.4729   -5443.5601    14820.701   -1352.2802   -499.69521   -66.767789    77.094755 
   81300    240.18227   -111.24641   0.21732196   -111.02909   -2792.3101    4.2565139    4.2565139    4.2565139   -2792.3101   -10316.873      -7002.2    8942.1422    954.67234    1761.0887   -2332.4141    77.119137 
   81400    178.09186   -111.19097   0.16114126   -111.02983    3581.2074    4.2502758    4.2502758    4.2502758    3581.2074    253.07364    4278.4727     6212.076   -1587.4521   -224.55621    801.50069    76.780572 
   81500    232.06698   -111.23981   0.20997908   -111.02983   -4155.3838    4.2565431    4.2565431    4.2565431   -4155.3838   -6698.8349   -6285.0066    517.69001   -513.28478   -94.857525    1850.4356    77.120726 
   81600    251.74009   -111.25698   0.22777973    -111.0292   -3773.2575    4.2571228    4.2571228    4.2571228   -3773.2575   -3992.8136   -3208.0515   -4118.9074    1662.3193   -764.45643   -421.47091    77.152237 
   81700    200.33696   -111.21044   0.18126909   -111.02917    5242.1944    4.2516833    4.2516833    4.2516833    5242.1944   -1928.1507    5088.1504    12566.583    533.14145     155.5048   -16.021919    76.856873 
   81800    171.64192   -111.18481   0.15530522    -111.0295    6106.2939    4.2528887    4.2528887    4.2528887    6106.2939   -4002.3076     3027.857    19293.332   -1731.1956   -2184.6903    2947.2736    76.922265 
   81900    163.68625   -111.17813   0.14810676   -111.03002    2074.4646    4.2549936    4.2549936    4.2549936    2074.4646   -1332.0605   -3040.6453      10596.1   -868.85063    1051.5183   -484.04338    77.036531 
   82000    263.48898   -111.26755   0.23841036   -111.02914   -5187.1995    4.2566378    4.2566378    4.2566378   -5187.1995   -11345.366   -9599.7571    5383.5247    1581.5029    136.40008    153.75638    77.125871 
   82100    206.99517   -111.21665   0.18729358   -111.02935    384.40462    4.2535334    4.2535334    4.2535334    384.40462   -3109.2155    9430.9208   -5168.4914    705.43456    3436.2652   -1422.3261    76.957249 
   82200    192.79562   -111.20385   0.17444553    -111.0294   -1698.0245    4.2519537    4.2519537    4.2519537   -1698.0245   -5555.1709    -2743.202    3204.2993   -2987.8251   -300.54768    1463.8102     76.87154 
   82300    179.64324   -111.19211   0.16254497   -111.02957   -5230.6079    4.2567034    4.2567034    4.2567034   -5230.6079   -9199.7225   -6725.4454    233.34422    577.85405   -1924.2337    2420.2605    77.129441 
   82400    201.69636   -111.21212    0.1824991   -111.02963   -3449.2528    4.2570688    4.2570688    4.2570688   -3449.2528   -10702.133   -7395.7603    7750.1347    1158.7023    2039.2345   -155.54536    77.149302 
   82500    131.75235   -111.14941    0.1192123    -111.0302    6380.0641    4.2517579    4.2517579    4.2517579    6380.0641    -3260.609    5421.6521    16979.149    -1526.106   -811.40184    2737.4429    76.860918 
   82600    161.24366   -111.17584   0.14589665   -111.02994    1780.6875    4.2523835    4.2523835    4.2523835    1780.6875   -3608.0108   -5924.6185    14874.692   -877.49168    212.10286    530.12637    76.894853 
   82700    232.98751   -111.23945   0.21081199   -111.02864   -6645.5097    4.2582545    4.2582545    4.2582545   -6645.5097   -7926.8588     -3834.02   -8175.6503    -174.5541   -1868.6571   -1046.2513    77.213786 
   82800     277.9476   -111.27965   0.25149283   -111.02816   -4897.0669    4.2568887    4.2568887    4.2568887   -4897.0669    -5059.237   -4456.8362   -5175.1273     884.1888    2875.4474    17.554168     77.13951 
   82900     159.9326   -111.17412   0.14471038   -111.02941     7248.505    4.2510281    4.2510281    4.2510281     7248.505   -512.64442    9625.5023    12632.657   -2757.9615    78.964199    786.45747    76.821348 
   83000    158.47741   -111.17378   0.14339369   -111.03039    3143.5236    4.2535715    4.2535715    4.2535715    3143.5236   -825.43451    739.79707    9516.2083    -1408.251   -425.12188    4213.2873    76.959319 
   83100    188.76755   -111.19996   0.17080085   -111.02916   -995.25301    4.2584881    4.2584881    4.2584881   -995.25301   -8099.3303   -6151.0211    11264.592    763.64722   -86.135696   -363.78068    77.226496 
   83200    187.55164    -111.1992   0.16970067    -111.0295     2672.092    4.2553312    4.2553312    4.2553312     2672.092   -6972.6532    4518.0575    10470.872    -677.1064    323.08365    1027.7572    77.054872 
   83300    200.32356   -111.21112   0.18125697   -111.02986    2042.2026    4.2517792    4.2517792    4.2517792    2042.2026      140.395    212.33466    5773.8782    5.1825344    258.50917    2620.2953    76.862075 
   83400      217.148   -111.22619   0.19648007   -111.02971   -2347.4711    4.2545479    4.2545479    4.2545479   -2347.4711   -6015.0121   -1846.8203    819.41918   -1507.9026   -3047.7789   -510.78566    77.012327 
   83500    322.20944   -111.31952   0.29154187   -111.02798   -9468.8746    4.2586784    4.2586784    4.2586784   -9468.8746   -11643.469   -10139.245   -6623.9092    1057.0396    2458.2431    698.35575    77.236848 
   83600    164.44852   -111.17837   0.14879648   -111.02958       2119.8    4.2557926    4.2557926    4.2557926       2119.8   -7752.9091    -1049.267    15161.576   -861.37149    1367.7931   -1040.5764    77.079942 
   83700    180.65804   -111.19299    0.1634632   -111.02952     1989.942    4.2505943    4.2505943    4.2505943     1989.942   -5873.2295   -5094.9189    16937.974   -2328.5995    795.83289    4409.5457    76.797834 
   83800    149.01006   -111.16468   0.13482743   -111.02986    4003.8883    4.2544936    4.2544936    4.2544936    4003.8883   -8508.0138    6947.0071    13572.671    1205.8272   -3455.3662    3383.2876    77.009378 
   83900    283.69346   -111.28575    0.2566918   -111.02906   -7854.6468    4.2597433    4.2597433    4.2597433   -7854.6468    -15226.54   -7316.2022   -1021.1985   -1398.3244    518.23613   -830.71095    77.294799 
   84000    181.29734   -111.19441   0.16404164   -111.03037   -1149.2504    4.2526972    4.2526972    4.2526972   -1149.2504   -5598.1738    4666.5207   -2516.0982   -862.43443     84.92798     1504.497    76.911874 
   84100    212.81161   -111.22244   0.19255642   -111.02988   -43.896228    4.2525299    4.2525299    4.2525299   -43.896228   -5853.5085    4057.3546    1664.4652   -548.57859   -2194.2919   -458.91981    76.902797 
   84200    225.54039   -111.23367   0.20407368    -111.0296    644.86913    4.2566648    4.2566648    4.2566648    644.86913   -5341.6094   -521.99569    7798.2124    1005.0292    543.91949   -370.02369     77.12734 
   84300    226.17704    -111.2335   0.20464974   -111.02885   -1010.4008     4.255401     4.255401     4.255401   -1010.4008   -7819.7654   -5820.3728    10608.936    858.85264   -223.00169    253.42484    77.058666 
   84400    137.41247   -111.15435   0.12433369   -111.03002    3453.2897    4.2553563    4.2553563    4.2553563    3453.2897   -3000.2417   -4119.7735    17479.884    -2068.406    470.30793    2504.6923    77.056236 
   84500    165.42911   -111.17901   0.14968373   -111.02932    5941.0676    4.2524564    4.2524564    4.2524564    5941.0676    1369.7887    5770.9289    10682.485   -703.91258   -2177.4395    5160.4508    76.898806 
   84600    244.06839   -111.24934   0.22083821    -111.0285   -1317.5539    4.2549283    4.2549283    4.2549283   -1317.5539   -5822.2683    5017.5986    -3147.992   -252.91532   -56.352336     370.0552    77.032988 
   84700    201.12571   -111.21115   0.18198277   -111.02917   -5411.5927    4.2593473    4.2593473    4.2593473   -5411.5927   -7272.2451   -1940.8649   -7021.6681   -1266.4092    1087.0135   -1509.4283    77.273245 
   84800    140.80397   -111.15755   0.12740239   -111.03015    1841.8168    4.2530939    4.2530939    4.2530939    1841.8168   -2659.9946   -1465.0489     9650.494   -80.743578   -1551.0581   -134.19823    76.933396 
   84900    161.97235   -111.17633   0.14655599   -111.02977    3939.3573    4.2533501    4.2533501    4.2533501    3939.3573   -5535.3121    4788.1401    12565.244     106.4738   -1714.8538   -1796.5952    76.947304 
   85000    196.78464   -111.20698   0.17805487   -111.02893   -3167.8759    4.2585666    4.2585666    4.2585666   -3167.8759   -9720.8631   -11057.333    11274.568    811.59318    1226.1881    516.50348    77.230763 
   85100    182.48326   -111.19438   0.16511469   -111.02926   -3702.6627    4.2555229    4.2555229    4.2555229   -3702.6627   -10486.127   -7992.6129    7370.7517   -457.51415    2057.8227    1100.2052    77.065287 
   85200    197.48938   -111.20779   0.17869255    -111.0291   -1584.6493    4.2547523    4.2547523    4.2547523   -1584.6493   -6149.4055   -2031.5726      3427.03   -1946.9317   -792.50296     4881.836    77.023428 
   85300    223.32971   -111.23116   0.20207341   -111.02909   -1683.9827    4.2556644    4.2556644    4.2556644   -1683.9827   -8573.2905    7090.1505   -3568.8081    959.28001   -725.11321    545.14132    77.072972 
   85400    220.22289    -111.2282    0.1992623   -111.02894   -2386.1673    4.2556615    4.2556615    4.2556615   -2386.1673   -7764.3907   -1926.1952     2532.084   -584.19266    366.57426    -2625.637    77.072816 
   85500    106.21661   -111.12634  0.096107023   -111.03023    3556.6433    4.2565802    4.2565802    4.2565802    3556.6433   -10035.031    968.12196    19736.839    -2479.928   -1228.6773   -2786.6735    77.122742 
   85600    149.30089   -111.16516   0.13509058   -111.03007    2995.9464    4.2541545    4.2541545    4.2541545    2995.9464   -4403.5683    -197.7724     13589.18   -460.34488   -2874.3354   -817.54823    76.990968 
   85700    204.79522   -111.21473   0.18530302   -111.02943    1321.0378    4.2550867    4.2550867    4.2550867    1321.0378   -5325.5709    -1828.166     11116.85   -320.49319   -978.44678   -1031.9641    77.041588 
   85800    246.33771   -111.25263   0.22289154   -111.02974   -2900.0439    4.2561047    4.2561047    4.2561047   -2900.0439   -7738.3376   -7795.9605    6834.1664     1047.917    1511.6023     769.5463    77.096901 
   85900    253.96114   -111.25967   0.22978937   -111.02988    -5279.697    4.2546604    4.2546604    4.2546604    -5279.697   -918.21006   -8883.4072   -6037.4739   -1071.6591    246.42472    3669.8806    77.018436 
   86000    209.50441   -111.21953   0.18956399   -111.02996   -826.70289    4.2569295    4.2569295    4.2569295   -826.70289   -7281.6122   -3660.3817    8461.8852    211.81703   -1685.3401    2816.4888     77.14173 
   86100    249.29334   -111.25445   0.22556585   -111.02889    2230.8388     4.254497     4.254497     4.254497    2230.8388    -4367.903   -2988.8533    14049.273    735.93556    269.61013   -2033.4637    77.009562 
   86200     149.9384   -111.16504   0.13566741   -111.02937    8284.7404    4.2531203    4.2531203    4.2531203    8284.7404    591.31854    1141.9209    23120.982   -2443.0947    358.32754   -5567.3329    76.934833 
   86300    206.88041   -111.21733   0.18718974   -111.03014   -2071.7094    4.2564928    4.2564928    4.2564928   -2071.7094   -9524.3532   -1112.5525    4421.7775    309.00651   -79.409726    769.55662    77.117994 
   86400    195.12211    -111.2068   0.17655058   -111.03025   -276.83203    4.2551355    4.2551355    4.2551355   -276.83203   -2379.4154    3843.5024   -2294.5831   -1412.2159   -3440.2367    1061.6148    77.044239 
   86500    272.57147   -111.27588    0.2466284   -111.02925   -2474.7136    4.2556818    4.2556818    4.2556818   -2474.7136   -7054.9579   -397.90574    28.722693    -690.0334   -211.17556    417.92458    77.073919 
   86600    209.95615   -111.21981   0.18997273   -111.02984    1137.2576    4.2532905    4.2532905    4.2532905    1137.2576   -5422.3836   -1584.4383    10418.595   -2852.3835   -176.42348     1086.169     76.94407 
   86700    195.39459   -111.20712   0.17679713   -111.03032   -1744.5555    4.2552646    4.2552646    4.2552646   -1744.5555   -8158.8326   -7460.6544    10385.821   -1527.1996    162.24404    3769.9743    77.051256 
   86800    201.75298   -111.21254   0.18255034   -111.02999   -2575.1956    4.2588823    4.2588823    4.2588823   -2575.1956   -12645.571   -11565.072    16485.057    2622.3913    1433.6905    1551.5977    77.247941 
   86900    243.20233     -111.249   0.22005457   -111.02894    722.55721     4.252253     4.252253     4.252253    722.55721    -4824.627   -2445.2163     9437.515   -2248.0759   -757.35989   -4273.1346    76.887777 
   87000    229.94675   -111.23703   0.20806065   -111.02897    340.75992    4.2534274    4.2534274    4.2534274    340.75992   -5457.5374    -387.8026    6867.6198   -340.47525   -433.49485   -2884.0911    76.951497 
   87100    226.05072   -111.23397   0.20453544   -111.02943   -6197.4226    4.2588017    4.2588017    4.2588017   -6197.4226   -10897.266   -3936.8428   -3758.1587    763.92877   -3446.4706    1304.2738    77.243554 
   87200    163.05092   -111.17771    0.1475319   -111.03018   -34.156524    4.2548801    4.2548801    4.2548801   -34.156524   -8694.9741   -2472.9663    11065.471   -128.54835   -40.115667     4225.058    77.030367 
   87300     196.2239   -111.20762   0.17754751   -111.03007    4396.6341    4.2544583    4.2544583    4.2544583    4396.6341   -3521.0214    2646.7733    14064.151   -1042.5344    342.92552    2120.4679    77.007462 
   87400    117.47107   -111.13658   0.10629029   -111.03029    8452.7949    4.2530426    4.2530426    4.2530426    8452.7949   -655.82496    3356.7325    22657.477   -1659.3672      295.793    1862.6515    76.930611 
   87500    207.24236   -111.21666   0.18751725   -111.02914   -6373.5358    4.2566943    4.2566943    4.2566943   -6373.5358   -9599.4996   -8506.3854   -1014.7225    1263.8352    195.83415    3085.2318    77.128944 
   87600    230.85446   -111.23801   0.20888197   -111.02913   -6041.4926    4.2596047    4.2596047    4.2596047   -6041.4926   -4719.6069    -12954.56   -450.31112   -1437.2988    526.19102   -2661.3221    77.287258 
   87700    234.97534   -111.24122   0.21261063   -111.02861    4809.6536    4.2503162    4.2503162    4.2503162    4809.6536    2691.0415    2597.3488    9140.5704   -1393.9275    281.69255   -2154.1261    76.782759 
   87800    188.61008   -111.20038   0.17065836   -111.02972    611.72463    4.2535863    4.2535863    4.2535863    611.72463   -2686.0171   -7600.9239    12122.115    508.61365   -3539.9115    -566.5049    76.960122 
   87900    108.93843   -111.12884  0.098569782   -111.03027   -3294.7652    4.2611019    4.2611019    4.2611019   -3294.7652    -9673.521   -10221.781    10011.007    1181.4487   -1348.8858    3060.1929    77.368783 
   88000    197.83854   -111.20813   0.17900847   -111.02912    461.64453    4.2540221    4.2540221    4.2540221    461.64453   -9019.0109   -4398.9493    14802.894   -647.66762   -908.21526    2511.5008     76.98378 
   88100    174.71964   -111.18731      0.15809   -111.02922    7084.2608    4.2515457    4.2515457    4.2515457    7084.2608   -465.69515    9601.9385    12116.539   -1293.6035   -70.940872     918.9794    76.849411 
   88200    182.43012   -111.19552   0.16506661   -111.03045   -3801.4064    4.2562184    4.2562184    4.2562184   -3801.4064   -9416.1145    1988.1603   -3976.2651    1321.2788   -2457.1713    815.55099    77.103075 
   88300    221.03299   -111.22918   0.19999529   -111.02919   -9641.7543     4.258291     4.258291     4.258291   -9641.7543   -14418.315   -7450.0456   -7056.9018   -1325.1149   -58.464879   -283.72616    77.215768 
   88400    195.66497    -111.2064   0.17704178   -111.02935    1892.8434    4.2558365    4.2558365    4.2558365    1892.8434   -9345.9811   -4680.2128    19704.724   -1685.6674    1875.4775    -4180.828    77.082326 
   88500    206.81129   -111.21582    0.1871272   -111.02869    5091.3524    4.2515705    4.2515705    4.2515705    5091.3524   -2389.1211    3207.9235    14455.255   -514.28033   -1808.9513   -564.00728    76.850759 
   88600    146.00116   -111.16144   0.13210492   -111.02934    1008.8473    4.2549418    4.2549418    4.2549418    1008.8473   -6929.6225   -11127.375    21083.539    405.27612   -2451.6515    1365.3719    77.033722 
   88700    246.67219   -111.25251   0.22319418   -111.02931   -8495.4189    4.2601295    4.2601295    4.2601295   -8495.4189   -12125.764   -12393.433   -967.05958   -630.10202   -2859.5188    3640.8096    77.315829 
   88800     228.5097   -111.23598   0.20676038   -111.02922   -376.46563     4.254694     4.254694     4.254694   -376.46563    2222.1696   -3648.5069    296.94042   -13.334135    787.70444   -1187.5478    77.020263 
   88900    219.86985    -111.2279   0.19894286   -111.02896    2820.2281    4.2516748    4.2516748    4.2516748    2820.2281    890.18273    2046.7616    5523.7402    2767.5498    726.03499   -703.07862    76.856414 
   89000    177.58182   -111.19095   0.16067977   -111.03027   -721.18321    4.2574391    4.2574391    4.2574391   -721.18321   -5434.5485   -4942.8225    8213.8214    885.43828    788.52241   -451.28201    77.169439 
   89100    159.83567   -111.17427   0.14462267   -111.02964    96.548886    4.2587255    4.2587255    4.2587255    96.548886   -7187.4566   -7149.0622    14626.165    147.42642    1746.2798   -5349.1683    77.239411 
   89200    176.78313   -111.18962   0.15995709   -111.02966    6290.8701    4.2528498    4.2528498    4.2528498    6290.8701   -4300.0337     1646.371    21526.273   -660.37519   -1637.2281   -4256.0086    76.920153 
   89300    214.60971    -111.2235   0.19418338   -111.02931    2696.8653    4.2540056    4.2540056    4.2540056    2696.8653   -2620.3077    2840.4638    7870.4396    349.94766   -1516.5944    17.606061    76.982885 
   89400    255.96771   -111.26025   0.23160496   -111.02864   -6138.4329    4.2583177    4.2583177    4.2583177   -6138.4329   -11517.717   -4734.9396   -2162.6424   -1336.8705   -1597.7184    3225.1627    77.217225 
   89500    302.64102   -111.30208   0.27383595   -111.02825   -7287.9358    4.2569931    4.2569931    4.2569931   -7287.9358   -10415.385   -8649.8391   -2798.5831   -1945.0658   -255.80047    721.52178    77.145186 
   89600    177.13269   -111.18984   0.16027338   -111.02957    3963.0841    4.2553926    4.2553926    4.2553926    3963.0841   -3899.5051    3296.3717    12492.386    261.63092   -385.80655   -525.26466    77.058209 
   89700    216.36333   -111.22554   0.19577009   -111.02977   -614.35835     4.254722     4.254722     4.254722   -614.35835   -9185.7311   -7406.0517    14748.708   -1367.9268   -696.69962   -373.91511    77.021784 
   89800      137.717   -111.15453   0.12460924   -111.02992    3276.5087    4.2554961    4.2554961    4.2554961    3276.5087   -5693.9912    859.84816    14663.669    357.52624    2270.4422    420.63022    77.063831 
   89900    225.25602   -111.23299   0.20381638   -111.02917   -2351.0866    4.2580579    4.2580579    4.2580579   -2351.0866   -8408.1849   -2845.3304    4200.2554    901.31929    1443.5282   -6511.7104    77.203091 
   90000     178.2194   -111.19056   0.16125666   -111.02931    88.774752    4.2540818    4.2540818    4.2540818    88.774752   -2384.1187    2855.0215   -204.57848    2476.2571   -578.09158   -1425.6761    76.987018 
   90100     231.4437   -111.23867   0.20941512   -111.02925   -3843.1017    4.2550541    4.2550541    4.2550541   -3843.1017    -7569.951    1522.7438   -5482.0979    1354.5478   -1576.2416    2427.6936    77.039821 
   90200     217.7436   -111.22643   0.19701898   -111.02941    -327.3062    4.2573472    4.2573472    4.2573472    -327.3062   -5180.6063   -1853.1824    6051.8701   -638.58561   -899.82474    2863.5003     77.16444 
   90300     155.9419   -111.17065   0.14109951   -111.02955    3653.1475    4.2540367    4.2540367    4.2540367    3653.1475   -3485.9176   -5379.4586    19824.819    1231.2522   -2078.4288   -114.74263     76.98457 
   90400    188.69132   -111.20008   0.17073187   -111.02935   -1226.2884    4.2556449    4.2556449    4.2556449   -1226.2884   -8571.5448   -6117.0223    11009.702    12.835644   -3047.2019   -1962.6038    77.071914 
   90500     221.4926   -111.22971   0.20041116   -111.02929    1.5746524    4.2559605    4.2559605    4.2559605    1.5746524    -5922.932    935.43098    4992.2249    -443.3232    -369.9059     1252.251    77.089062 
   90600    249.15574   -111.25538   0.22544135   -111.02994    951.54833    4.2520804    4.2520804    4.2520804    951.54833   -343.50633    -2045.365    5243.5164   -1672.3464    1950.2913   -4178.1273    76.878411 
   90700    218.85103   -111.22806   0.19802101   -111.03004    -4482.882    4.2573112    4.2573112    4.2573112    -4482.882   -7495.7153      1994.89   -7947.8208     241.4055    705.99175   -2892.9195    77.162481 
   90800    161.49301   -111.17604   0.14612227   -111.02991   -782.71614    4.2566557    4.2566557    4.2566557   -782.71614   -6653.7809   -3266.9157    7572.5481    777.38748   -2624.0073    276.75059    77.126846 
   90900    206.83247   -111.21624   0.18714637    -111.0291    5008.4116    4.2519716    4.2519716    4.2519716    5008.4116   -5556.8601    5750.1916    14831.903    209.11642   -519.25638    3915.4448    76.872511 
   91000    162.91914   -111.17694   0.14741267   -111.02952    5454.8109    4.2553831    4.2553831    4.2553831    5454.8109   -2627.6664   -1877.7541    20869.853    1104.4714   -1146.3405   -1040.1558    77.057689 
   91100    171.16681   -111.18548   0.15487533    -111.0306    -4142.319    4.2552946    4.2552946    4.2552946    -4142.319   -5234.5158   -9132.2897    1939.8484    405.43318   -2551.7122   -3881.5653    77.052886 
   91200    229.29866   -111.23739   0.20747425   -111.02991   -7394.8204    4.2564621    4.2564621    4.2564621   -7394.8204   -8978.4141   -10368.053   -2837.9944    1365.7696   -1834.8579    -1875.777    77.116321 
   91300    250.04585   -111.25526   0.22624674   -111.02901   -655.88997     4.256194     4.256194     4.256194   -655.88997   -5408.0747   -1026.0502    4466.4549   -1439.2618   -630.06429    600.83873     77.10175 
   91400    207.79733   -111.21724   0.18801939   -111.02922    627.95293    4.2515271    4.2515271    4.2515271    627.95293    625.01366   -5478.5549    6737.4001    291.47286    2614.6813   -5592.2833    76.848407 
   91500     103.2356   -111.12379  0.093409742   -111.03038    -1397.018    4.2570164    4.2570164    4.2570164    -1397.018   -10363.789   -9605.1776    15777.913    233.38875   -1194.8687   -119.52418    77.146452 
   91600    183.52974   -111.19595   0.16606156   -111.02989   -2040.5873    4.2584558    4.2584558    4.2584558   -2040.5873    -13035.42   -2283.3798     9197.038   -1052.9571    1151.1366     122.6139    77.224733 
   91700    221.81182   -111.22984   0.20069999   -111.02914    5965.2576     4.251036     4.251036     4.251036    5965.2576    1371.5893    5104.4575    11419.726    549.26049    554.07535    539.79767    76.821777 
   91800    229.97415   -111.23745   0.20808544   -111.02937   -736.77235    4.2538272    4.2538272    4.2538272   -736.77235   -5007.9844   -14.020485    2811.6878    250.27476   -1666.7089   -2414.8476    76.973196 
   91900    203.61521   -111.21386   0.18423532   -111.02962   -6502.1857    4.2583881    4.2583881    4.2583881   -6502.1857   -9698.2419    -3692.567   -6115.7481      1642.53   -2726.9173   -3080.6793    77.221054 
   92000    218.53399   -111.22767   0.19773415   -111.02994     -206.663    4.2560551    4.2560551    4.2560551     -206.663   -6958.8009   -2280.4409    8619.2528   -100.10842   -2383.9516    874.43601    77.094205 
   92100    227.37196   -111.23555   0.20573093   -111.02982    5771.7418    4.2521429    4.2521429    4.2521429    5771.7418   -2041.0859    4802.7533    14553.558   -605.90725    2713.5512   -1580.7677    76.881803 
   92200     113.2045   -111.13324   0.10242981   -111.03081    5471.8037    4.2530026    4.2530026    4.2530026    5471.8037    1670.1749   -4251.0216    18996.258    371.92543    67.691133   -2173.0195    76.928444 
   92300    179.49568   -111.19202   0.16241146   -111.02961    -7046.356    4.2586409    4.2586409    4.2586409    -7046.356   -11252.943   -9000.1124   -886.01275     65.02118   -478.51321   -99.420011    77.234807 
   92400    243.99303   -111.24967   0.22077002    -111.0289   -4273.7534    4.2563612    4.2563612    4.2563612   -4273.7534   -7774.0772    347.39658   -5394.5796   -442.82182   -536.81724    1016.7548    77.110836 
   92500    221.80914   -111.22957   0.20069757   -111.02887    1594.2329    4.2514039    4.2514039    4.2514039    1594.2329    4675.1186   -2430.0831    2537.6632   -653.76469   -195.31586   -5285.6883    76.841725 
   92600    158.63924   -111.17392   0.14354012   -111.03038   -2198.8949     4.254705     4.254705     4.254705   -2198.8949   -7039.7505   -5685.0033     6128.069    386.36202   -2821.7455    -4034.432    77.020859 
   92700    161.90237   -111.17646   0.14649266   -111.02997     -3804.69    4.2581522    4.2581522    4.2581522     -3804.69   -12522.854   -5846.4242     6955.208    148.58219   -3533.9544   -223.70721    77.208221 
   92800    215.25141   -111.22381     0.194764   -111.02905    1896.7649    4.2551588    4.2551588    4.2551588    1896.7649   -6333.4529    237.31922    11786.428   -57.638583   -100.50378    2163.1624    77.045506 
   92900    204.25889    -111.2142   0.18481773   -111.02938    4006.3331    4.2512852    4.2512852    4.2512852    4006.3331   -635.11705   -428.87518    13082.991    127.61223   -473.06123   -3954.1739    76.835289 
   93000    181.20589   -111.19467    0.1639589   -111.03071   -2895.7946    4.2551344    4.2551344    4.2551344   -2895.7946   -7222.0228    3531.4659    -4996.827    778.18358   -1143.1798   -1022.2517    77.044184 
   93100    265.08831   -111.26975   0.23985747    -111.0299   -7795.2415    4.2592239    4.2592239    4.2592239   -7795.2415   -9426.6748   -7468.9681   -6490.0816   -1159.7526   -893.62928    -707.3584    77.266529 
   93200    214.40794   -111.22373   0.19400081   -111.02973    4556.9248    4.2530822    4.2530822    4.2530822    4556.9248   -3704.4376    4732.2784    12642.934    308.73323    1754.2968    1168.7927    76.932764 
   93300    171.37344   -111.18478   0.15506229   -111.02972    4541.7629    4.2522294    4.2522294    4.2522294    4541.7629    1132.7623   -2419.9129    14912.439    1309.9634   -1478.1199   -3959.2629    76.886494 
   93400    132.78988   -111.15019   0.12015108   -111.03004    366.32098    4.2567289    4.2567289    4.2567289    366.32098    -4154.513   -6741.9824    11995.458    435.04847   -3332.7345   -2114.6316    77.130826 
   93500    257.67242   -111.26207   0.23314742   -111.02892   -3182.8302    4.2565624    4.2565624    4.2565624   -3182.8302   -7306.9863   -4224.6644    1983.1602    510.29045   -2529.8045    2133.7213    77.121777 
   93600    260.14876   -111.26461   0.23538807   -111.02922   -275.10611    4.2545765    4.2545765    4.2545765   -275.10611   -169.03933   -3970.8979    3314.6189   -1669.9924    13.503156   -139.40719    77.013879 
   93700    181.49582   -111.19425   0.16422123   -111.03003    798.12295    4.2530235    4.2530235    4.2530235    798.12295    972.40158   -293.36055    1715.3278     3011.885    318.43562    -2713.125    76.929578 
   93800    231.20096   -111.23882   0.20919549   -111.02963   -4607.6857    4.2564972    4.2564972    4.2564972   -4607.6857   -10991.104   -3176.6812    344.72772    257.88612   -2573.1506   -1525.1069    77.118228 
   93900    183.86027   -111.19595   0.16636064   -111.02958     2027.611    4.2572722    4.2572722    4.2572722     2027.611   -7383.8655   -3143.0217     16609.72   -309.60107    617.96295   -1073.3043    77.160363 
   94000    224.81513    -111.2334   0.20341745   -111.02998    1202.0969    4.2520911    4.2520911    4.2520911    1202.0969   -2825.4723    -4625.355    11057.118   -164.95529    776.85982   -3206.4499    76.878994 
   94100    137.92201   -111.15582   0.12479473   -111.03103    2249.2535     4.254475     4.254475     4.254475    2249.2535    -6368.856     4343.646    8772.9704   -214.11338   -2601.3596   -1317.1409    77.008371 
   94200    276.02074    -111.2793   0.24974937   -111.02955   -6897.5556    4.2575039    4.2575039    4.2575039   -6897.5556   -6364.0562   -9495.3064   -4833.3043    2416.4946   -1857.7074    507.72783    77.172959 
   94300    234.61255   -111.24088   0.21228236    -111.0286    38.090907    4.2540737    4.2540737    4.2540737    38.090907   -2036.0248    1705.2656    445.03192   -2268.7054   -538.10278    2064.3825    76.986581 
   94400    214.72991   -111.22357   0.19429213   -111.02928   -153.61388    4.2546119    4.2546119    4.2546119   -153.61388   -4007.4722   -4610.6584     8157.289    1255.8269    1644.5029   -5197.4677    77.015805 
   94500    136.97417   -111.15512   0.12393711   -111.03119    3037.8604    4.2545793    4.2545793    4.2545793    3037.8604    -2978.735   -1630.8747    13723.191    1092.6808   -1236.0128    -2962.523    77.014033 
   94600    181.01198   -111.19422   0.16378345   -111.03044    2242.4183    4.2549351    4.2549351    4.2549351    2242.4183   -2288.8494    -4665.893    13681.997   -589.07168   -2479.1894   -802.37226    77.033358 
   94700    232.18442   -111.23951   0.21008534   -111.02942    151.64154    4.2552047    4.2552047    4.2552047    151.64154      -6353.6   -3733.8276    10542.352    1239.5297    2594.3252   -101.47083    77.048002 
   94800     183.1711   -111.19558   0.16573706   -111.02985     -1299.63    4.2540386    4.2540386    4.2540386     -1299.63    1262.4934    -4528.472   -632.91128    682.29492   -1214.4991   -3169.7751    76.984677 
   94900    205.19696   -111.21522   0.18566652   -111.02955   -6149.9549    4.2561403    4.2561403    4.2561403   -6149.9549   -9707.0748   -4466.0203   -4276.7697    1036.6128   -1083.0915   -1941.9994    77.098833 
   95000    217.47306   -111.22605    0.1967742   -111.02928   -815.80508    4.2554815    4.2554815    4.2554815   -815.80508   -3032.0127   -1997.3776     2581.975   -1000.2438   -2442.0291    2984.0575    77.063038 
   95100    193.90128   -111.20478   0.17544595   -111.02933    2549.1966    4.2527797    4.2527797    4.2527797    2549.1966   -4131.4203   -6921.7148    18700.725   -831.07933    895.75964   -1851.6217    76.916349 
   95200    119.07082   -111.13799   0.10773778   -111.03025     301.0193    4.2562326    4.2562326    4.2562326     301.0193   -9157.5949    866.27077    9194.3821    1657.5084    1740.5298   -4121.6238    77.103848 
   95300      187.388    -111.1991    0.1695526   -111.02955   -2816.8147    4.2564203    4.2564203    4.2564203   -2816.8147   -10499.125   -5285.6279    7334.3084    394.00086   -2724.8056   -2075.7458    77.114049 
   95400    235.48648   -111.24202   0.21307312   -111.02895    2177.3821    4.2533081    4.2533081    4.2533081    2177.3821    1397.8574    3497.0783    1637.2105   -155.34483    37.698608   -905.93074    76.945021 
   95500    222.11605   -111.23058   0.20097527   -111.02961   -1301.6089    4.2548935    4.2548935    4.2548935   -1301.6089   -7925.2251   -3037.8633    7058.2616    1756.1546   -198.81442   -103.96401    77.031097 
   95600    130.86039   -111.14896   0.11840523   -111.03055   -2100.4903    4.2558001    4.2558001    4.2558001   -2100.4903   -5308.9572   -2113.6131    1121.0995    1007.7413   -982.95761   -2089.5633    77.080346 
   95700    178.81664   -111.19167   0.16179705   -111.02987   -128.41698    4.2563162    4.2563162    4.2563162   -128.41698   -4529.2331   -6523.3129    10667.295    1076.3873   -1581.4055    2081.5915    77.108395 
   95800    201.52803   -111.21107   0.18234679   -111.02873    4977.6106    4.2531818    4.2531818    4.2531818    4977.6106   -874.06198   -2203.9255    18010.819   -530.79902    576.71028     1865.011    76.938167 
   95900    168.61877   -111.18231    0.1525698   -111.02974   -945.93104    4.2532851    4.2532851    4.2532851   -945.93104   -1839.4421     -7855.44     6857.089    888.94399    397.84823   -5476.7918    76.943775 
   96000    201.11739   -111.21155   0.18197524   -111.02958   -8798.0256    4.2590049    4.2590049    4.2590049   -8798.0256   -8427.7453   -9564.3989   -8401.9325     1469.303   -1369.7913   -3326.0438    77.254612 
   96100      245.556   -111.25154   0.22218423   -111.02936   -734.08664    4.2548746    4.2548746    4.2548746   -734.08664   -6010.8839   -1796.0737    5604.6976   -2984.6132   -2363.7148   -284.86792    77.030068 
   96200    235.87003   -111.24249   0.21342016   -111.02907    4385.7285    4.2508288    4.2508288    4.2508288    4385.7285    2219.0222    248.34588    10689.817     2416.565    1365.3815    1577.5426    76.810546 
   96300    119.20509   -111.13863   0.10785927   -111.03077     2208.018    4.2559372    4.2559372    4.2559372     2208.018   -8785.8791   -3553.5452    18963.478    1359.8639    695.98766   -355.64264    77.087794 
   96400    200.22367   -111.21211   0.18116659   -111.03094   -3543.9475    4.2564479    4.2564479    4.2564479   -3543.9475   -11676.522   -1971.0935    3015.7728   -18.646481    -2693.533   -675.97007    77.115551 
   96500    221.39995   -111.23064   0.20032733   -111.03031    3448.2339    4.2537998    4.2537998    4.2537998    3448.2339   -1076.8825   -1639.3532    13060.937     554.4423    179.01616    958.62537    76.971709 
   96600    276.66793    -111.2794   0.25033496   -111.02906   -2029.2567    4.2536753    4.2536753    4.2536753   -2029.2567   -6100.7324    2085.6432    -2072.681    -1470.346     1695.162   -1283.5795    76.964952 
   96700    172.56232   -111.18622   0.15613802   -111.03009   -2632.9417    4.2544929    4.2544929    4.2544929   -2632.9417   -3276.6664   -7149.9662    2527.8075    2740.4523    1196.2166   -4639.0747    77.009339 
   96800    230.79167    -111.2383   0.20882516   -111.02947   -5212.1622    4.2581861    4.2581861    4.2581861   -5212.1622   -9274.4197    -8067.172     1705.105   -1897.6464   -2551.7369   -1744.6273    77.210063 
   96900    207.72793   -111.21731   0.18795659   -111.02936    5113.6344    4.2539349    4.2539349    4.2539349    5113.6344   -963.70482   -2297.8772    18602.485   -212.99755   -1675.1215    746.09459    76.979043 
   97000    207.13743   -111.21716    0.1874223   -111.02974    4823.9114    4.2512394    4.2512394    4.2512394    4823.9114   -1392.0821   -2641.1014    18504.918     2731.619    2561.2089   -50.293761    76.832806 
   97100    171.22455   -111.18497   0.15492757   -111.03004   -1581.2681    4.2581549    4.2581549    4.2581549   -1581.2681   -2630.4115    -4867.484    2754.0912   -74.038466   -1437.6818   -137.37054    77.208368 
   97200    278.12947   -111.28049   0.25165739   -111.02884   -6117.2018    4.2571686    4.2571686    4.2571686   -6117.2018   -8642.0419   -5068.2363   -4641.3272    1429.4623   -1688.4866    593.56451    77.154729 
   97300    208.00802   -111.21742   0.18821002   -111.02921    5975.2864    4.2521734    4.2521734    4.2521734    5975.2864    2362.2118    5281.7662    10281.881    384.11381    1819.4255   -528.22593    76.883455 
   97400    217.77185   -111.22663   0.19704455   -111.02959   -357.71971    4.2552172    4.2552172    4.2552172   -357.71971   -7071.8208    -4815.317    10813.979    1013.3201    709.74425   -4461.4648    77.048679 
   97500    87.874957   -111.10986  0.079511107   -111.03034    2248.7398    4.2564386    4.2564386    4.2564386    2248.7398    -4985.819    -713.2256    12445.264    -616.4464    362.14679    -4625.684    77.115048 
   97600    255.26217      -111.26   0.23096658   -111.02903   -4395.4985    4.2562804    4.2562804    4.2562804   -4395.4985   -10999.416   -8472.1269    6285.0476   -1723.1793   -4025.0082     233.3559     77.10645 
   97700    183.93268   -111.19528   0.16642615   -111.02886    3510.5145    4.2542408    4.2542408    4.2542408    3510.5145   -2452.1099    865.49422    12118.159    872.97079     1199.899    686.23112    76.995653 
   97800    255.11871   -111.25998   0.23083677   -111.02914   -7419.8505    4.2545493    4.2545493    4.2545493   -7419.8505   -8108.9816   -5344.2984   -8806.2713    60.195143    318.11602      -356.62    77.012403 
   97900    184.70521   -111.19709   0.16712515   -111.02996   -4107.5235    4.2575572    4.2575572    4.2575572   -4107.5235   -3506.7425   -7313.2287   -1502.5994   -666.48303   -2384.0311   -881.97511    77.175861 
   98000    224.93222     -111.233    0.2035234   -111.02947    1737.1305    4.2553899    4.2553899    4.2553899    1737.1305   -6800.7417    1029.4649    10982.668    1616.9772    1292.4609   -391.50907    77.058061 
   98100     164.0973   -111.17807   0.14847869    -111.0296     6126.484     4.252406     4.252406     4.252406     6126.484   -581.13375   -620.08253    19580.668    619.35392    1954.7187   -2018.7804    76.896072 
   98200    125.22411   -111.14344   0.11330541   -111.03013    1074.8815    4.2566958    4.2566958    4.2566958    1074.8815   -5408.9502    198.26802    8435.3267    585.60602    1798.7851   -5429.1458    77.129025 
   98300     203.8045   -111.21392    0.1844066   -111.02951   -1223.1149    4.2563006    4.2563006    4.2563006   -1223.1149    -1318.674   -1036.8826    -1313.788    97.507033   -1787.3191    165.20332    77.107543 
   98400    231.63544    -111.2382   0.20958861   -111.02861    993.82848    4.2538362    4.2538362    4.2538362    993.82848   -4181.3723    2366.8209    4796.0368   -1001.7051   -1670.1255   -36.404307    76.973686 
   98500    233.53078   -111.24037   0.21130356   -111.02906    -5417.159    4.2563449    4.2563449    4.2563449    -5417.159   -6638.2796   -3721.7469   -5891.4505    1547.3203    233.25318    1177.2246    77.109954 
   98600    177.66489   -111.19065   0.16075493    -111.0299   -2971.7535    4.2562866    4.2562866    4.2562866   -2971.7535   -4597.2782   -5463.9959    1146.0136    -2624.068   -1282.2058   -1461.3907    77.106783 
   98700    181.23002    -111.1936   0.16398073   -111.02962    2858.4922    4.2553012    4.2553012    4.2553012    2858.4922   -4790.9772   -5992.3866     19358.84   -77.086465     180.9514    714.85528     77.05324 
   98800    209.84557   -111.21919   0.18987269   -111.02931    2422.8729     4.254905     4.254905     4.254905    2422.8729   -5352.9077   -3122.3994    15743.926    1207.4514    3757.6045   -317.18003    77.031724 
   98900    148.38797   -111.16409   0.13426456   -111.02983    1009.9529    4.2564019    4.2564019    4.2564019    1009.9529   -5778.3134    374.14729    8434.0248   -386.86305    2016.6332   -4194.1438    77.113053 
   99000    226.36609   -111.23392   0.20482079    -111.0291   -3862.2324    4.2572324    4.2572324    4.2572324   -3862.2324   -2189.3939   -3623.3322    -5773.971    2657.8939   -1388.9398   -2733.8397    77.158199 
   99100      209.223   -111.21825   0.18930937   -111.02894    2120.0754    4.2553439    4.2553439    4.2553439    2120.0754   -738.84664    6204.9862     894.0866   -736.40296   -1328.8739    976.93969    77.055563 
   99200    214.05156   -111.22253   0.19367835   -111.02885    -214.9121    4.2552453    4.2552453    4.2552453    -214.9121   -5878.6453    877.43297    4356.4761    2761.2811   -455.60819    4179.3436    77.050204 
   99300    155.08706   -111.17005   0.14032603   -111.02973   -1442.0321    4.2570693    4.2570693    4.2570693   -1442.0321   -10333.817   -5236.8081    11244.529   -745.28706   -823.31836    1483.5496     77.14933 
   99400    149.50918   -111.16517   0.13527905   -111.02989    1920.1378    4.2577472    4.2577472    4.2577472    1920.1378   -6738.4755   -5027.3786    17526.268   -711.20459   -3453.4937   -210.63119    77.186191 
   99500    255.14066   -111.25943   0.23085663   -111.02857    171.19014    4.2542087    4.2542087    4.2542087    171.19014   -5880.8098   -6456.5945    12850.975    349.19756     1597.594   -874.13028    76.993912 
   99600    204.96943    -111.2147   0.18546065   -111.02924   -1014.3104    4.2551086    4.2551086    4.2551086   -1014.3104   -6616.1073    -3290.048     6863.224   -1850.7773    4197.5719   -2686.1318    77.042782 
   99700    257.75817   -111.26254   0.23322501   -111.02931   -9515.3518    4.2598965    4.2598965    4.2598965   -9515.3518   -8342.5571   -9344.6811   -10858.817    970.30658    475.79766   -2117.2977    77.303143 
   99800    209.71386   -111.21948   0.18975351   -111.02972    1253.5758    4.2553652    4.2553652    4.2553652    1253.5758    1443.3249   -1996.1952    4313.5977    -1191.283   -2331.9123     249.8215    77.056716 
   99900    189.40684   -111.20076   0.17137929   -111.02938    7454.8247    4.2523086    4.2523086    4.2523086    7454.8247   -2204.3811    2870.5737    21698.281    2209.4132   -1983.9157    1786.4903    76.890793 
  100000    114.96401   -111.13444   0.10402185   -111.03042    3151.1529    4.2574884    4.2574884    4.2574884    3151.1529   -6297.5983   -1519.8589    17270.916    929.63364   -529.29596    2133.8571    77.172118 
Loop time of 22.3499 on 1 procs for 100000 steps with 8 atoms

Pair  time (%) = 7.3297 (32.7952)
Kspce time (%) = 5.30233 (23.7242)
Neigh time (%) = 0 (0)
Comm  time (%) = 1.0622 (4.75257)
Outpt time (%) = 0.0265765 (0.118911)
Other time (%) = 8.62913 (38.6092)

Nlocal:    8 ave 8 max 8 min
Histogram: 1 0 0 0 0 0 0 0 0 0
Nghost:    2189 ave 2189 max 2189 min
Histogram: 1 0 0 0 0 0 0 0 0 0
Neighs:    2344 ave 2344 max 2344 min
Histogram: 1 0 0 0 0 0 0 0 0 0

Total # of neighbors = 2344
Ave neighs/atom = 293
Neighbor list builds = 0
Dangerous builds = 0
unfix 20
unfix 21
print "seeds:193193"
seeds:193193
