LAMMPS (10 Feb 2015)
# ---- initialize simulations
clear
units metal
dimension 3
boundary p p p
atom_style charge
atom_modify map array
# ---- create atoms
read_data /Users/eugeneragasa/pyflamestk_git/pypospack/tests/tests_integration/workflow/WorkflowLammpsThermalExpansion/MgO_NaCl_unit.npt.T700/lammps.structure
  triclinic box = (0 0 0) to (4.2565 4.2565 4.2565) with tilt (0 0 0)
  1 by 1 by 1 MPI processor grid
  reading atoms ...
  8 atoms
# ---- define interatomic potential
include potential.mod
mass 1 24.305
mass 2 15.999

group Mg type 1
4 atoms in group Mg
group O type 2
4 atoms in group O

set group Mg charge 2.0
  4 settings made for charge
set group O charge -2.0
  4 settings made for charge

variable R_cut equal 10.0

pair_style buck/coul/long ${R_cut}
pair_style buck/coul/long 10
pair_coeff 1 1 0.0 0.5 0.0 ${R_cut}
pair_coeff 1 1 0.0 0.5 0.0 10
pair_coeff 1 2 1279.69 0.29969 0.0 ${R_cut}
pair_coeff 1 2 1279.69 0.29969 0.0 10
pair_coeff 2 2 9547.96 0.21916 32.0 ${R_cut}
pair_coeff 2 2 9547.96 0.21916 32.0 10

kspace_style pppm 1.0e-5

neighbor 1.0 bin
neigh_modify every 1 delay 0 check yes
# ---- define settings
compute eng all pe/atom
compute eatoms all reduce sum c_eng
# ---- run minimization
reset_timestep 0
fix 1 all box/relax iso 0.0 vmax 0.001
thermo 10
thermo_style custom step pe lx ly lz xy xz yz press pxx pyy pzz pxy pxz pyz c_eatoms
min_style cg
minimize 1e-25 1e-25 5000 10000
PPPM initialization ...
  G vector (1/distance) = 0.354854
  grid = 8 8 8
  stencil order = 5
  estimated absolute RMS force accuracy = 5.34408e-05
  estimated relative force accuracy = 3.71126e-06
  using double precision FFTs
  3d grid and FFT values/proc = 3375 512
Neighbor list info ...
  1 neighbor list requests
  update every 1 steps, delay 0 steps, check yes
  master list distance cutoff = 11
Memory usage per processor = 4.06549 Mbytes
Step PotEng Lx Ly Lz Xy Xz Yz Press Pxx Pyy Pzz Pxy Pxz Pyz eatoms 
       0    -164.6599       4.2565       4.2565       4.2565            0            0            0   -75586.685   -75586.685   -75586.685   -75586.685 9.4798587e-11 1.6226154e-10 -3.4446142e-11    -164.6599 
      10   -164.72135     4.213935     4.213935     4.213935            0            0            0   -8637.4527   -8637.4527   -8637.4527   -8637.4527 -1.5549588e-10 2.0227431e-10 -1.1495762e-10   -164.72135 
      15   -164.72214      4.20883      4.20883      4.20883            0            0            0    5.5876567    5.5876567    5.5876567    5.5876567 2.0554645e-10 4.244052e-10 1.3955449e-10   -164.72214 
Loop time of 0.0665641 on 1 procs for 15 steps with 8 atoms

Minimization stats:
  Stopping criterion = linesearch alpha is zero
  Energy initial, next-to-last, final = 
        -164.659901251     -164.722138416     -164.722138416
  Force two-norm initial, final = 10.9148 0.000791362
  Force max component initial, final = 10.9148 0.000788889
  Final line search alpha, max atom move = 0.015625 1.23264e-05
  Iterations, force evaluations = 15 55

Pair  time (%) = 0.0178382 (26.7986)
Kspce time (%) = 0.01862 (27.9731)
Neigh time (%) = 0 (0)
Comm  time (%) = 0.00128078 (1.92414)
Outpt time (%) = 3.09944e-05 (0.0465633)
Other time (%) = 0.0287941 (43.2576)

Nlocal:    8 ave 8 max 8 min
Histogram: 1 0 0 0 0 0 0 0 0 0
Nghost:    2189 ave 2189 max 2189 min
Histogram: 1 0 0 0 0 0 0 0 0 0
Neighs:    2344 ave 2344 max 2344 min
Histogram: 1 0 0 0 0 0 0 0 0 0

Total # of neighbors = 2344
Ave neighs/atom = 293
Neighbor list builds = 0
Dangerous builds = 0
unfix 1
# ---- define output variables ----
variable natoms equal "count(all)"
variable tot_energy equal "c_eatoms"
variable length_x equal "lx"
variable length_y equal "ly"
variable length_z equal "lz"
variable tilt_xy equal "xy"
variable tilt_xz equal "xz"
variable tilt_yz equal "yz"
variable tot_press equal "press"
variable press_xx equal "pxx"
variable press_yy equal "pyy"
variable press_zz equal "pzz"
variable press_xy equal "pxy"
variable press_xz equal "pxz"
variable press_yz equal "pyz"

# ---- output ----
print "pypospack:output_section:begin"
pypospack:output_section:begin
print "tot_energy = ${tot_energy}"
tot_energy = -164.722138415744
print "num_atoms = ${natoms}"
num_atoms = 8
print "xx = ${length_x}"
xx = 4.20883001371435
print "yy = ${length_y}"
yy = 4.20883001371435
print "zz = ${length_z}"
zz = 4.20883001371435
print "xy = ${tilt_xy}"
xy = 0
print "xz = ${tilt_xz}"
xz = 0
print "yz = ${tilt_yz}"
yz = 0
print "tot_press = ${tot_press}"
tot_press = 5.58765665687492
print "pxx = ${press_xx}"
pxx = 5.58765665651822
print "pyy = ${press_yy}"
pyy = 5.58765665647238
print "pzz = ${press_zz}"
pzz = 5.58765665763416
print "pxy = ${press_xy}"
pxy = 2.0554645346851e-10
print "pxz = ${press_xz}"
pxz = 4.24405202668874e-10
print "pyz = ${press_yz}"
pyz = 1.39554488680613e-10
print "pypospack:output_section:done"
pypospack:output_section:done
print "pypospack:lammps_sim:done"
pypospack:lammps_sim:done
#------------------------------------------------------------------------------
# RUN THERMOSTAT
# running using an NPT Nose-Hoover style thermostat
#------------------------------------------------------------------------------
variable tempdamp equal 0.1
variable pressdamp equal 1.0
# set initial velocities
velocity all create 700 610381 mom yes dist gaussian loop all
# fix for Nose-Hoover style thermostat
fix 20 all npt temp 700 700 0.1 aniso 0.0 0.0 1.0 drag 1.0 couple xyz
variable boxx equal lx
variable boxy equal ly
variable boxz equal lz
variable boxp equal press
variable boxt equal temp
# calculate averages every 10000 steps
reset_timestep 0
fix 21 all ave/time 10 10 100 v_boxx v_boxy v_boxz v_boxp v_boxt file lattice.out
thermo_style custom step temp pe ke etotal press lx ly lz press pxx pyy pzz pxy pxz pyz vol
thermo_modify flush yes
thermo 100
run 100000
PPPM initialization ...
  G vector (1/distance) = 0.355405
  grid = 8 8 8
  stencil order = 5
  estimated absolute RMS force accuracy = 5.20839e-05
  estimated relative force accuracy = 3.61703e-06
  using double precision FFTs
  3d grid and FFT values/proc = 3375 512
Memory usage per processor = 3.06549 Mbytes
Step Temp PotEng KinEng TotEng Press Lx Ly Lz Press Pxx Pyy Pzz Pxy Pxz Pyz Volume 
       0          700   -164.72213   0.63337471   -164.08876    9080.4223      4.20883      4.20883      4.20883    9080.4223    9352.9631    10053.405    7834.8984   -2225.5232   -447.50461    3436.2164    74.556267 
     100    626.15565    -164.5626   0.56655879   -163.99604   -14867.406    4.2276529    4.2276529    4.2276529   -14867.406   -18720.706   -9644.2386   -16237.272   -4360.2004    990.53539    134.58389    75.561046 
     200    461.88116   -164.24641   0.41791978   -163.82849     4951.762    4.2238117    4.2238117    4.2238117     4951.762   -7221.5168     14628.25    7448.5526    1177.4975    5748.3565    6625.5725    75.355271 
     300    551.52597   -164.17352   0.49903229   -163.67449   -7.9092456    4.2256449    4.2256449    4.2256449   -7.9092456   -22272.709    36187.031    -13938.05   -2277.1941   -1537.2601   -3689.1012    75.453432 
     400    567.29374   -164.07067   0.51329929   -163.55737   -17492.752    4.2286624    4.2286624    4.2286624   -17492.752   -40628.311   -1725.9126   -10124.032   -12146.027   -4492.1834    3135.0542    75.615187 
     500    551.91184   -163.98522   0.49938143   -163.48584    6277.0599    4.2326178    4.2326178    4.2326178    6277.0599   -20754.239    8092.9457    31492.473   -9171.3296    3568.2014    4511.8382    75.827574 
     600    776.23624   -164.15338   0.70235486   -163.45103   -17336.223    4.2354106    4.2354106    4.2354106   -17336.223   -24484.072    1999.3188   -29523.917   -11379.502   -4444.2972   -1457.7355    75.977772 
     700    836.01592   -164.20066   0.75644477   -163.44422    9482.8692    4.2206466    4.2206466    4.2206466    9482.8692   -5826.1614    19915.771    14358.998   -11114.386   -9972.7519    4285.0851    75.185998 
     800    547.42997   -163.94766   0.49532614   -163.45234   -16907.179    4.2468479    4.2468479    4.2468479   -16907.179   -46462.007    6407.2051   -10666.736   -11167.169   -2300.9298   -4761.5028     76.59495 
     900    353.47606   -163.77221   0.31983256   -163.45238   -234.72199    4.2253698    4.2253698    4.2253698   -234.72199   -32017.461    35089.223   -3775.9287   -9758.8839    -1720.502    4862.6927    75.438693 
    1000    519.96641   -163.92355   0.47047654   -163.45307    16034.543    4.2202269    4.2202269    4.2202269    16034.543   -26358.137    39014.908    35446.858    330.30853   -4930.3406    2104.8855    75.163571 
    1100    766.89175   -164.14165   0.69389977   -163.44775   -44157.432    4.2531295    4.2531295    4.2531295   -44157.432    -49036.82    -39698.95   -43736.527   -7487.4362   -4034.4815    1226.7393    76.935332 
    1200    839.74351   -164.20305   0.75981758   -163.44324     29571.61    4.2139363    4.2139363    4.2139363     29571.61    23210.569    51493.703    14010.556   -5676.7194    2234.3196   -3976.8397    74.827959 
    1300    868.25962   -164.23873   0.78561955   -163.45311   -5615.1832    4.2323827    4.2323827    4.2323827   -5615.1832   -23671.337    1881.5776    4944.2094    11373.573    8375.8953    7612.9258     75.81494 
    1400    725.26942   -164.10595   0.65623901   -163.44971   -9729.3177    4.2426866    4.2426866    4.2426866   -9729.3177   -33139.024    25630.134   -21679.063    230.35211     -1068.19    912.90826     76.37001 
    1500    703.13128    -164.0822   0.63620796   -163.44599    12278.303    4.2159196    4.2159196    4.2159196    12278.303   -6039.5995    27289.337    15585.171    6583.5761    8390.5196     16105.57     74.93366 
    1600    585.39984   -163.97965   0.52968208   -163.44996   -12429.905    4.2393429    4.2393429    4.2393429   -12429.905   -44642.656    28833.304   -21480.362   -6492.9636    4478.2257    4362.4377    76.189589 
    1700    801.71672   -164.17214   0.72541014   -163.44673   -5010.4181    4.2332311    4.2332311    4.2332311   -5010.4181   -6924.3186   -5162.6045   -2944.3311   -1060.9647   -1167.6733    2665.9722    75.860543 
    1800    1029.2453    -164.3768   0.93128281   -163.44552   -440.98857    4.2242445    4.2242445    4.2242445   -440.98857    2833.7479   -1871.1113   -2285.6023   -3990.2554    3502.0023    7565.8978    75.378438 
    1900    877.90819   -164.24317   0.79434978   -163.44882    -2764.492    4.2328868    4.2328868    4.2328868    -2764.492   -3723.0482    11501.235   -16071.662   -12699.272   -9291.4382    3970.7181    75.842035 
    2000    660.25765   -164.04769     0.597415   -163.45028    9395.0497    4.2335427    4.2335427    4.2335427    9395.0497   -10011.472    24058.415    14138.207   -10264.883   -2565.0393   -9003.5654    75.877294 
    2100     539.2607   -163.93971   0.48793442   -163.45178    5386.3182    4.2258461    4.2258461    4.2258461    5386.3182   -5840.3762      32457.2   -10457.869   -4878.9559   -10177.356    -11561.39    75.464213 
    2200    561.88419   -163.96201   0.50840463    -163.4536    -6017.857    4.2341683    4.2341683    4.2341683    -6017.857    -23226.28    23083.624   -17910.915    909.51699   -12432.738    657.61594    75.910935 
    2300    746.86822   -164.12609   0.67578206   -163.45031   -13009.961    4.2318215    4.2318215    4.2318215   -13009.961   -34635.801   -7781.6998    3387.6173   -5596.1618   -4810.4015   -1516.1839    75.784786 
    2400    746.09634   -164.12578   0.67508365    -163.4507   -4368.3624    4.2256289    4.2256289    4.2256289   -4368.3624    691.42114   -10260.018   -3536.4903   -7497.9802   -11201.406   -9964.5053    75.452572 
    2500     739.3743   -164.12203   0.66900141   -163.45303   -1026.2902    4.2355462    4.2355462    4.2355462   -1026.2902   -8822.6441    15315.385   -9571.6111   -3063.3733   -6616.8789   -5778.9976    75.985073 
    2600    606.99155   -164.00063   0.54921871   -163.45141    4235.0155    4.2258607    4.2258607    4.2258607    4235.0155   -10565.941    15073.595    8197.3925    8035.4647    1144.9948     166.5126     75.46499 
    2700    457.78433   -163.86777   0.41421288   -163.45356    18124.151    4.2310719    4.2310719    4.2310719    18124.151   -4773.6362    40083.012    19063.077   -2185.3789    3472.8692    10954.774    75.744518 
    2800    505.76432   -163.90876   0.45762619   -163.45114   -8802.2882    4.2349915    4.2349915    4.2349915   -8802.2882   -6252.1653   -13514.098   -6640.6016   -377.77001    1836.9415     15352.99     75.95522 
    2900    649.01635   -164.03544   0.58724363    -163.4482    11903.988    4.2248433    4.2248433    4.2248433    11903.988   -1060.9932    6425.2273    30347.729   -389.26764    2601.3008    5427.2878    75.410502 
    3000    692.02855   -164.07604   0.62616198   -163.44988   -5286.8826    4.2341731    4.2341731    4.2341731   -5286.8826   -5928.5411    4462.7698   -14394.877   -4232.8731    10033.828    3727.1865    75.911197 
    3100     739.1145   -164.11979   0.66876633   -163.45103    2316.0512    4.2273177    4.2273177    4.2273177    2316.0512    4514.5308    19003.206   -16569.583   -5158.5146    6950.4955    10978.177    75.543074 
    3200    703.95798   -164.09048   0.63695598   -163.45352    17415.627    4.2284333    4.2284333    4.2284333    17415.627    3183.6613    16161.607    32901.613   -4143.1785    6004.2796     5926.426    75.602898 
    3300    718.55303   -164.10105   0.65016189   -163.45089    -16832.87    4.2349422    4.2349422    4.2349422    -16832.87   -4220.1678   -20131.832   -26146.611   -68.376942    2694.3578   -1305.2538     75.95257 
    3400    705.01241    -164.0859   0.63791005   -163.44799    3283.9343    4.2259106    4.2259106    4.2259106    3283.9343    19220.121   -6172.3464    -3195.972    1663.0525   -1846.3342   -11683.453    75.467667 
    3500    494.62727   -163.89652   0.44754914   -163.44897    7994.5374      4.22934      4.22934      4.22934    7994.5374   -2875.4448    9284.3667     17574.69    7221.5892   -580.78003   -3651.2611    75.651543 
    3600    444.41746   -163.85097   0.40211826   -163.44885    3047.5318    4.2377526    4.2377526    4.2377526    3047.5318   -13100.541    41419.653   -19176.517        424.2   -5614.9173    4557.3951    76.103877 
    3700     604.6976   -163.99645   0.54714309    -163.4493    20301.974    4.2258488    4.2258488    4.2258488    20301.974    28917.228    13051.497    18937.196     7242.527   -470.48047   -13786.733    75.464357 
    3800    925.22017   -164.28879   0.83715865   -163.45163     437.8564     4.227647     4.227647     4.227647     437.8564   -18160.909     21754.61   -2280.1318    1124.6025   -8776.0101   -6723.4908    75.560729 
    3900    882.48145   -164.25094   0.79848776   -163.45246   -20302.893    4.2417996    4.2417996    4.2417996   -20302.893   -35905.742   -15380.094   -9622.8446    10377.828    -5851.929   -5162.8654    76.322122 
    4000    598.76412   -163.98914   0.54177436   -163.44737    24836.847    4.2218644    4.2218644    4.2218644    24836.847    16935.708     25559.79    32015.044    2501.6358    2175.2425    3380.8791    75.251097 
    4100    506.20785   -163.90709    0.4580275   -163.44906   -382.21434    4.2337066    4.2337066    4.2337066   -382.21434   -28520.969    45318.977   -17944.651   -4247.4718   -10134.419    4530.6293    75.886105 
    4200    702.72978   -164.08578   0.63584467   -163.44994   -3506.6937    4.2357788    4.2357788    4.2357788   -3506.6937   -6566.5532    10308.989   -14262.517    9561.2089   -4083.8672   -1787.6343     75.99759 
    4300    844.09147   -164.21031    0.7637517   -163.44656    16208.446    4.2175374    4.2175374    4.2175374    16208.446    25926.069    14093.148    8606.1223    9021.9087    9.5946556   -7957.7991    75.019961 
    4400    870.76842   -164.23843   0.78788956   -163.45054   -21779.305    4.2442318    4.2442318    4.2442318   -21779.305   -10872.879   -36616.328   -17848.707    6292.0147    3027.5428   -1799.5081    76.453484 
    4500    735.06287    -164.1141   0.66510033     -163.449    13015.818    4.2282772    4.2282772    4.2282772    13015.818    22949.121    13796.532    2301.8014    2711.0799    2429.3519   -310.24693    75.594527 
    4600    513.54727   -163.91209   0.46466836   -163.44743    4217.3158    4.2216807    4.2216807    4.2216807    4217.3158    11649.783     15736.48   -14734.315     4432.171    534.91083   -20287.955    75.241274 
    4700     449.1483   -163.85488   0.40639882   -163.44848   -7748.6705    4.2414857    4.2414857    4.2414857   -7748.6705   -19020.739    20955.113   -25180.386    4123.4081    6150.5627    -3481.036    76.305177 
    4800    521.36516   -163.91966   0.47174216   -163.44792   -175.01739     4.224913     4.224913     4.224913   -175.01739    3700.3231   -6830.4455    2605.0702    15754.878    2198.9602   -5761.0507    75.414229 
    4900    661.68977   -164.04966   0.59871081   -163.45095   -12059.725    4.2317381    4.2317381    4.2317381   -12059.725    10942.404   -12157.109   -34964.469    2930.3005   -2452.5929   -14532.796    75.780303 
    5000    865.82229   -164.23272    0.7834142   -163.44931   -10077.064    4.2356949    4.2356949    4.2356949   -10077.064   -20798.305   -5723.8971   -3708.9896    1658.9336    414.52043   -11518.886    75.993071 
    5100    716.09895    -164.0964   0.64794138   -163.44846      1513.38    4.2258722    4.2258722    4.2258722      1513.38    -154.2312     8291.554   -3597.1827    8501.1397   -815.06024   -13560.764    75.465611 
    5200    574.31693   -163.96938   0.51965402   -163.44973    12946.375    4.2340116    4.2340116    4.2340116    12946.375    11596.809    47227.495   -19985.178    4897.7298   -4267.8145    3711.9431     75.90251 
    5300    650.13556   -164.03593   0.58825632   -163.44767   -8448.6902    4.2324921    4.2324921    4.2324921   -8448.6902   -27155.367   -5206.6497    7015.9467   -10326.979    -13664.64    3943.0146    75.820821 
    5400    759.46857   -164.13267   0.68718312   -163.44549   -7204.3203    4.2305655    4.2305655    4.2305655   -7204.3203   -11696.374   -4884.7556   -5031.8312   -1034.7278   -3158.0546   -2856.7459    75.717328 
    5500    744.39579   -164.11978   0.67354496   -163.44623   -5315.9134      4.23196      4.23196      4.23196   -5315.9134    4263.6146    6218.8468   -26430.202    9245.4542   -5292.9286     2630.984    75.792224 
    5600    709.50129   -164.09223   0.64197168   -163.45026   -1001.3798    4.2309547    4.2309547    4.2309547   -1001.3798   -18410.517    26249.413   -10843.035    874.81403   -20424.115    3514.7356    75.738224 
    5700    694.00505   -164.07963   0.62795036   -163.45168    12852.996    4.2278934    4.2278934    4.2278934    12852.996    14475.373    11432.676    12650.938   -2024.3481   -7327.2579    4875.5352    75.573945 
    5800    758.36601   -164.13832    0.6861855   -163.45214   -7999.3311    4.2341887    4.2341887    4.2341887   -7999.3311    -11397.92    5454.9052   -18054.978   -3094.8312    -9413.463     6572.688    75.912035 
    5900     769.4465   -164.14789   0.69621136   -163.45168   -13172.468    4.2318087    4.2318087    4.2318087   -13172.468   -27286.303   -14287.734    2056.6314     1793.413   -2926.3129   -7417.3586    75.784097 
    6000    632.68317   -164.02202   0.57246503   -163.44955    5239.4718    4.2232097    4.2232097    4.2232097    5239.4718    6962.3297    -5106.075    13862.161    408.38932    1415.8225   -9273.5527    75.323056 
    6100    487.79458   -163.89033   0.44136678   -163.44896    -13598.71    4.2419538    4.2419538    4.2419538    -13598.71   -28255.907    29307.193   -41847.417   -1928.1049   -1460.8031     1930.681    76.330446 
    6200    710.13932   -164.08982   0.64254898   -163.44727    359.99027    4.2265993    4.2265993    4.2265993    359.99027   -1805.2007    1884.7605     1000.411   -7107.8589    8991.9572   -5871.1381    75.504571 
    6300    1000.7989   -164.35215   0.90554385   -163.44661    4341.8645    4.2224706    4.2224706    4.2224706    4341.8645    16156.016    -2503.748   -626.67502     2576.879     6808.328   -1937.2323    75.283519 
    6400    1004.8207   -164.35488    0.9091829    -163.4457   -25558.947     4.243445     4.243445     4.243445   -25558.947   -12812.069   -39526.159   -24338.613   -8153.5749    6795.0388    1067.2196    76.410971 
    6500    784.80678   -164.15534   0.71010967   -163.44523    20914.569    4.2219077    4.2219077    4.2219077    20914.569    11890.604    22499.814    28353.289   -7956.9033    7442.3863    7714.8557    75.253413 
    6600    606.10691   -163.99796   0.54841827   -163.44954   -1618.8906      4.22873      4.22873      4.22873   -1618.8906   -17623.717    13244.927   -477.88103   -3985.2973     421.6266    11117.136    75.618815 
    6700    596.28343   -163.98844   0.53952978   -163.44891   -2408.1445    4.2367775    4.2367775    4.2367775   -2408.1445   -11954.945    8799.4675   -4068.9555    1795.6866    2955.0119    6870.5059    76.051358 
    6800    625.37591   -164.01578   0.56585326   -163.44993    7138.6851    4.2215453    4.2215453    4.2215453    7138.6851   -5330.8718    10539.325    16207.602    4951.9999    -7088.956    4237.2126    75.234039 
    6900    767.11759   -164.14684   0.69410412   -163.45274   -8796.4753    4.2325294    4.2325294    4.2325294   -8796.4753    2516.8581   -21072.291   -7833.9934   -4412.4769    -10232.61    4394.3156    75.822822 
    7000    713.24447   -164.09673   0.64535858   -163.45137    2659.2908    4.2349094    4.2349094    4.2349094    2659.2908   -11812.409    34512.926   -14722.644   -163.24469   -13326.813    9994.9084    75.950802 
    7100    590.02176   -163.98328   0.53386408   -163.44941   -1463.1498    4.2251646    4.2251646    4.2251646   -1463.1498    -20707.75    7864.3501    8453.9507    19707.291   -16998.646   -4628.4469    75.427704 
    7200    658.57029   -164.04542   0.59588824   -163.44954    3084.8418    4.2277469    4.2277469    4.2277469    3084.8418    1755.0783    19106.678   -11607.231     4320.206   -12705.452   -9412.0762    75.566087 
    7300    619.19342   -164.00955   0.56025922   -163.44929   -28121.639    4.2370594    4.2370594    4.2370594   -28121.639   -41927.387    -13856.78   -28580.749   -2397.0218   -17922.055   -8884.4976     76.06654 
    7400    490.25204   -163.89178   0.44359035   -163.44819    14346.562    4.2228049    4.2228049    4.2228049    14346.562   -10039.936     12756.33    40323.291    7483.5708   -8746.4545   -4272.8493      75.3014 
    7500    530.90918    -163.9301   0.48037778   -163.44972    13548.628    4.2270137    4.2270137    4.2270137    13548.628   -194.88853    41131.384   -290.61089    6532.1927   -10503.422   -2278.3772    75.526781 
    7600    802.52175   -164.17363   0.72613855   -163.44749   -7254.4126    4.2374455    4.2374455    4.2374455   -7254.4126   -23493.021    -5455.191     7184.974   -1561.5056   -2836.8386   -7077.2303    76.087333 
    7700    938.62317   -164.29435   0.84928597   -163.44506      14690.2    4.2227621    4.2227621    4.2227621      14690.2    16582.963    3181.2347    24306.402   -894.18078   -3835.4886   -1121.2758    75.299111 
    7800    819.23242   -164.19107   0.74125871   -163.44981   -962.94256     4.226723     4.226723     4.226723   -962.94256   -8854.1594   -6191.3575    12156.689    8357.9273   -3170.2057    746.37649      75.5112 
    7900    576.14484   -163.97347   0.52130795   -163.45216    5133.3894    4.2368342    4.2368342    4.2368342    5133.3894   -24799.909    14526.879    25673.198    821.02917    4557.0811     6371.772    76.054412 
    8000    610.52945   -164.00282   0.55241987    -163.4504   -6509.0499     4.228148     4.228148     4.228148   -6509.0499   -5904.7505   -4780.2052    -8842.194   -1154.6177    5979.4313    626.51129    75.587597 
    8100    810.41977    -164.1821   0.73328484   -163.44881    4057.0092    4.2204053    4.2204053    4.2204053    4057.0092    4525.5795    8648.2596   -1002.8114    4008.2078   -1082.9958    -2937.369    75.173101 
    8200    787.52183   -164.16567    0.7125663    -163.4531   -22025.115    4.2400469    4.2400469    4.2400469   -22025.115   -11074.951   -19819.101   -35181.294     4783.221    -7871.213   -3933.8185    76.227554 
    8300    515.95004   -163.92045   0.46684244   -163.45361    9119.0162    4.2266129    4.2266129    4.2266129    9119.0162    8817.3332   -6941.1355    25480.851    5337.6953    5204.3934   -7771.1098      75.5053 
    8400    522.51625   -163.92387   0.47278368   -163.45109    26001.275     4.216866     4.216866     4.216866    26001.275    19323.756    37782.971      20897.1   -5441.7705   -7465.3519   -3087.7293    74.984139 
    8500    733.42624   -164.11151   0.66361947   -163.44789   -31220.467    4.2453771    4.2453771    4.2453771   -31220.467     -31162.7   -34704.255   -27794.446    2656.9622   -7942.7053   -1693.0067    76.515392 
    8600     660.5623   -164.04373   0.59769065   -163.44604     10307.57    4.2225141    4.2225141    4.2225141     10307.57    4473.2603    11927.764    14521.685    2287.9259   -9194.4773   -3019.6649    75.285844 
    8700    561.27359   -163.95547   0.50785214   -163.44762     4071.967    4.2220152    4.2220152    4.2220152     4071.967   -11923.836    18978.458    5161.2791   -10722.494   -7756.9795    3707.1677    75.259163 
    8800    685.93663   -164.06649   0.62064988   -163.44584   -11411.799    4.2420441    4.2420441    4.2420441   -11411.799    -36938.48    -9032.137    11735.221    3098.7676   -5315.8781    3414.3618    76.335319 
    8900    866.71363    -164.2286   0.78422071   -163.44438    1217.0072    4.2224424    4.2224424    4.2224424    1217.0072    5283.3463    4156.6535   -5788.9783   -487.54211   -12942.276    11294.872    75.282008 
    9000    854.06516   -164.22085   0.77277611   -163.44807    2227.9183    4.2223253    4.2223253    4.2223253    2227.9183   -3259.5113    2550.0325    7393.2337   -5174.3425   -768.80924    6967.8537    75.275748 
    9100    801.45224   -164.17338   0.72517083   -163.44821   -5905.5106    4.2402143    4.2402143    4.2402143   -5905.5106   -23404.037   -8747.1652     14434.67    -4545.005   -2547.9062    4946.4518     76.23658 
    9200    703.83291   -164.08287   0.63684281   -163.44603    6066.3251     4.222072     4.222072     4.222072    6066.3251    -223.0221    11232.808    7189.1891    2270.4064   -1910.7016    3735.8595    75.262197 
    9300    699.76056   -164.08096   0.63315806    -163.4478    18933.461    4.2229564    4.2229564    4.2229564    18933.461    13721.904    33585.976     9492.505    4373.3061    4251.7202   -7072.9357    75.309503 
    9400    862.96538   -164.22752   0.78082921   -163.44669    -25889.48    4.2398089    4.2398089    4.2398089    -25889.48   -18036.614   -36762.919   -22868.908   -4213.7674    8487.6811   -4336.4229    76.214718 
    9500    768.96716   -164.14243   0.69577765   -163.44665    4624.4636    4.2214689    4.2214689    4.2214689    4624.4636    8713.8848    9844.5641   -4685.0582   -180.39454    8106.9547   -15616.492    75.229953 
    9600    582.58604   -163.97713   0.52713609   -163.44999    7879.4752    4.2229636    4.2229636    4.2229636    7879.4752    15109.871    4703.0741    3825.4805    8172.1345    4477.3534   -14702.257    75.309892 
    9700    594.68386   -163.98819   0.53808245   -163.45011   -5441.3432    4.2383056    4.2383056    4.2383056   -5441.3432   -23455.606   -7839.2277    14970.804   -2037.5233    5124.5781   -15261.642    76.133678 
    9800    783.01216    -164.1567   0.70848586   -163.44822    453.91942     4.223837     4.223837     4.223837    453.91942    6876.8832    4933.3449    -10448.47    -3082.494    2605.9137   -15590.296    75.356626 
    9900    712.10318   -164.09411   0.64432592   -163.44978   -420.64515    4.2222652    4.2222652    4.2222652   -420.64515    12396.552   -914.17503   -12744.313   -6615.1606   -6549.8346   -16998.158    75.272531 
   10000    483.77704   -163.88869   0.43773163   -163.45095    13917.491    4.2371386    4.2371386    4.2371386    13917.491   -13063.409    29212.873    25603.009    1568.7885   -6627.4877   -11652.462    76.070806 
   10100    649.09649   -164.03442   0.58731615    -163.4471   -6848.3458    4.2275697    4.2275697    4.2275697   -6848.3458    6737.0094   -5771.5554   -21510.491   -8344.0377   -10726.911   -269.10466    75.556585 
   10200    742.75046     -164.117   0.67205623   -163.44494   -2218.2484    4.2230555    4.2230555    4.2230555   -2218.2484    6711.8081   -3932.1375   -9434.4159   -12694.934   -9503.2335    4833.2941    75.314805 
   10300    552.21131   -163.94663    0.4996524   -163.44698   -10574.306    4.2349637    4.2349637    4.2349637   -10574.306   -18583.822   -14746.321    1607.2263    3125.0001   -10624.398    5072.8702    75.953723 
   10400    575.96903   -163.96737   0.52114888   -163.44622   -6600.6774    4.2272459    4.2272459    4.2272459   -6600.6774   -9050.5586    5811.1638   -16562.637   -121.31246   -10000.776    10796.471    75.539225 
   10500    707.23002   -164.08686   0.63991658   -163.44695    9548.6669    4.2232985    4.2232985    4.2232985    9548.6669    -12597.19    28648.052    12595.139   -1876.5325    1121.0379    12532.383    75.327808 
   10600    833.24422   -164.20221   0.75393688   -163.44827    -16435.57    4.2374323    4.2374323    4.2374323    -16435.57   -15336.837   -14474.147   -19495.725   -7785.1082   -2840.9665    12429.561    76.086625 
   10700    985.54952   -164.33851   0.89174592   -163.44677    3357.4559    4.2247745    4.2247745    4.2247745    3357.4559    10423.469     7754.191   -8105.2921   -100.20226    2334.4235    6948.5615    75.406815 
   10800    863.39084   -164.23019   0.78121418   -163.44898    5575.0488    4.2238273    4.2238273    4.2238273    5575.0488    9083.2467    10940.706    -3298.806    5541.1318    5917.6563    4229.3776    75.356109 
   10900    623.84207   -164.01248   0.56446542   -163.44802   -4523.0964    4.2373941    4.2373941    4.2373941   -4523.0964   -7620.2538    5694.7683   -11643.804   -7453.2768    12979.165   -4093.9146    76.084569 
   11000    771.96192   -164.14284   0.69848737   -163.44435   -4163.8788    4.2246736    4.2246736    4.2246736   -4163.8788    -10950.72   -8931.0957    7390.1791    3554.3272     2265.526   -1357.8032    75.401411 
   11100    787.86654   -164.15929    0.7128782   -163.44642   -15578.255    4.2279486    4.2279486    4.2279486   -15578.255   -10844.374   -17307.676   -18582.716   -2990.2606   -2180.0155   -9760.0508    75.576905 
   11200    653.49999   -164.04111   0.59130052   -163.44981   -5659.3142    4.2312555    4.2312555    4.2312555   -5659.3142   -19748.035    6698.2054   -3928.1127   -2648.2012    7845.7313   -10596.507     75.75438 
   11300    731.08874   -164.11331   0.66150445   -163.45181     1526.113    4.2259782    4.2259782    4.2259782     1526.113   -4257.5327    1029.1341    7806.7376   -1277.9402   -3426.1429   -5788.4445    75.471289 
   11400    822.46334   -164.19556   0.74418211   -163.45137    2273.5129    4.2268305    4.2268305    4.2268305    2273.5129    1473.3333    21873.591   -16526.385    -1668.181   -11937.113   -2938.3985    75.516959 
   11500    653.68851   -164.04132    0.5914711   -163.44985   -4318.2226    4.2313433    4.2313433    4.2313433   -4318.2226   -11336.536    15513.733   -17131.864    8371.3055   -11768.346   -3869.8842    75.759099 
   11600     449.1813   -163.85435   0.40642868   -163.44792    13983.232    4.2279805    4.2279805    4.2279805    13983.232    25232.101    16903.237   -185.64135   -5612.8857   -5649.5745   -1382.9455    75.578612 
   11700    421.93119    -163.8291    0.3817722   -163.44733   -781.19368    4.2258872    4.2258872    4.2258872   -781.19368   -15069.142    23148.681    -10423.12     5962.715   -9873.7043    17416.161    75.466412 
   11800    435.79563   -163.84278   0.39431704   -163.44846    556.93891    4.2304331    4.2304331    4.2304331    556.93891   -20898.945    37935.387   -15365.625   -1826.3042   -12779.762    10189.858    75.710217 
   11900    484.93355   -163.88848   0.43877807    -163.4497    9102.9879    4.2285422    4.2285422    4.2285422    9102.9879    26904.325     10925.24   -10520.602    214.42156    3809.7489     10655.95    75.608741 
   12000    728.74697    -164.1085   0.65938558   -163.44911   -6877.9628    4.2318814    4.2318814    4.2318814   -6877.9628   -11932.176    13021.054   -21722.766   -376.62413    -1030.922    12862.643    75.788003 
   12100    920.58794   -164.28139   0.83296731   -163.44842    -6176.758     4.227433     4.227433     4.227433    -6176.758    1315.3498    1532.0058    -21377.63   -3139.3088   -1978.8372    14794.384    75.549257 
   12200    678.99334   -164.06309   0.61436744   -163.44873     5947.501    4.2237646    4.2237646    4.2237646     5947.501    23509.972    10397.688   -16065.158    7566.5053    10490.848    9127.9958    75.352754 
   12300     545.2956   -163.94131   0.49339492   -163.44792   -3484.9873    4.2393291    4.2393291    4.2393291   -3484.9873   -13582.527    26977.818   -23850.253   -9.2388222    6892.3851   -2379.2448    76.188845 
   12400    871.74344   -164.23345   0.78877178   -163.44468   -10215.003    4.2243803    4.2243803    4.2243803   -10215.003   -8805.4989    -11925.32   -9914.1915    2978.5468     2663.959    1214.3281    75.385708 
   12500    947.30519    -164.3024   0.85714164   -163.44526    4233.3256    4.2220741    4.2220741    4.2220741    4233.3256   -2485.5686    19278.067   -4092.5215    3549.7766    3887.2452   -4261.6818    75.262312 
   12600    914.90122   -164.27488   0.82782185   -163.44705   -16185.045    4.2417239    4.2417239    4.2417239   -16185.045   -15270.631   -10995.943   -22288.562    9535.3878    9652.4785   -6014.0481    76.318037 
   12700    1039.6557   -164.38868   0.94070231   -163.44797    6725.3594    4.2195363    4.2195363    4.2195363    6725.3594    2951.1082    18987.575   -1762.6051    4521.3051   -1529.9146   -15263.417    75.126675 
   12800    899.03311   -164.26502   0.81346405   -163.45156    5692.8164    4.2229119    4.2229119    4.2229119    5692.8164    6979.6339    22485.952   -12387.137    6440.4601   -6071.3645   -3702.1727    75.307125 
   12900    618.65883   -164.00621   0.55977551   -163.44643   -14268.337    4.2430348    4.2430348    4.2430348   -14268.337      8633.04   -19249.671   -32188.379    -2721.231    2561.5803   -5735.5988    76.388814 
   13000     616.2724   -164.00168   0.55761622   -163.44406    6926.5664    4.2195697    4.2195697    4.2195697    6926.5664   -761.74934    12424.817    9116.6315   -147.67902   -3838.6045   -262.70953    75.128462 
   13100    570.74285    -163.9658   0.51642012   -163.44938   -2896.7093    4.2225513    4.2225513    4.2225513   -2896.7093    10672.182   -5541.9828   -13820.327   -675.56514   -10756.909    9449.4571    75.287834 
   13200    468.82022   -163.87236   0.42419839   -163.44816   -7694.0314    4.2411772    4.2411772    4.2411772   -7694.0314    7435.1659    3305.7944   -33823.055   -6224.2139   -4698.3794     4413.024    76.288533 
   13300     573.9791   -163.96647   0.51934836   -163.44712    9344.3136    4.2226536    4.2226536    4.2226536    9344.3136    11618.075    9818.0775    6596.7878   -6155.6957    6644.1905    11557.896    75.293305 
   13400    827.56772   -164.19725   0.74880066   -163.44845    5448.7554    4.2212924    4.2212924    4.2212924    5448.7554    34230.451    4436.4646   -22320.649   -4518.3653   -5900.8598    20113.221    75.220517 
   13500    886.37697   -164.24965   0.80201251   -163.44764   -21589.943    4.2396422    4.2396422    4.2396422   -21589.943   -13249.642   -17249.178   -34271.008   -10224.233   -4860.8248    15952.998    76.205727 
   13600     632.5186   -164.01774   0.57231612   -163.44543    11207.404    4.2231574    4.2231574    4.2231574    11207.404    15536.797     8378.713    9706.7019   -3252.0019    8492.1146    14464.418    75.320261 
   13700    660.61699   -164.04301   0.59774014   -163.44527    5001.8302    4.2229931    4.2229931    4.2229931    5001.8302    21459.078   -10.396097   -6443.1912   -1711.3972    4451.8437    12320.591    75.311469 
   13800     799.0415   -164.16726   0.72298954   -163.44427   -18611.572    4.2366823    4.2366823    4.2366823   -18611.572   -15228.634   -34019.812   -6586.2698     2041.311   -1484.4427    10576.267    76.046232 
   13900    689.97394   -164.06882   0.62430292   -163.44451    3809.8923     4.227438     4.227438     4.227438    3809.8923    17813.172   -1042.2239   -5341.2709   -2107.6009   -482.85644    5595.3464    75.549525 
   14000    650.13615   -164.03522   0.58825685   -163.44696    8466.7072    4.2208268    4.2208268    4.2208268    8466.7072    12300.572    13225.255   -125.70506   -1549.9438    6922.3534    1160.9891     75.19563 
   14100    760.75152   -164.13866   0.68834396   -163.45032   -2069.5973    4.2361867    4.2361867    4.2361867   -2069.5973    22201.986   -11767.903   -16642.875    5990.5001   -6293.2466   -3038.2891    76.019547 
   14200      754.676   -164.13237    0.6828467   -163.44952   -11433.602    4.2290654    4.2290654    4.2290654   -11433.602   -18789.645    14497.402   -30008.564   -4475.3805   -12714.207   -7955.8154    75.636811 
   14300    577.97161   -163.97248   0.52296086   -163.44952    6114.1503    4.2194671    4.2194671    4.2194671    6114.1503   -22286.194    34566.078    6062.5672     9562.308   -5561.8813   -4069.4111    75.122979 
   14400    409.58261   -163.82144   0.37059895   -163.45084   -8252.7016    4.2387414    4.2387414    4.2387414   -8252.7016    13997.656   -12963.265   -25792.496    1070.9043   -7212.1198   -3279.9164    76.157162 
   14500     643.9868   -164.03026   0.58269279   -163.44756   -14783.535    4.2282281    4.2282281    4.2282281   -14783.535   -28724.237    6080.9237   -21707.291   -4260.4378   -11875.218    -6518.582    75.591896 
   14600     827.2164    -164.1947   0.74848278   -163.44622    7531.2169    4.2226224    4.2226224    4.2226224    7531.2169    4666.3352        23305    -5377.684    6259.7433   -6267.8541    -2807.697    75.291635 
   14700    834.82462    -164.2024   0.75536686   -163.44703   -15953.225    4.2364353    4.2364353    4.2364353   -15953.225    461.79678   -15051.122   -33270.351    -1768.911   -2011.4536    5684.6898    76.032932 
   14800    910.78944   -164.27065   0.82410143   -163.44654    12485.327     4.224645     4.224645     4.224645    12485.327    5927.7207    20224.612    11303.649    7420.6331    977.49611    4820.6869    75.399879 
   14900    913.41082   -164.27372   0.82647331   -163.44725   -2442.9947    4.2250452    4.2250452    4.2250452   -2442.9947   -2560.3869    4283.7359   -9052.3332   -1208.0431    2706.1775    3107.0912    75.421312 
   15000    696.31117   -164.07719   0.63003698   -163.44715    -7759.968     4.233785     4.233785     4.233785    -7759.968    91.984806   -5364.1544   -18007.734   -5101.5468    1232.0786    8162.2469    75.890322 
   15100    511.90691   -163.91014   0.46318413   -163.44696    13819.956    4.2264473    4.2264473    4.2264473    13819.956   -8390.7242    21640.534    28210.059    -2192.727    5729.0901    7291.2507    75.496425 
   15200    592.54138   -163.98584   0.53614389    -163.4497    2022.5508    4.2222511    4.2222511    4.2222511    2022.5508    -9823.894    4140.4719    11751.074   -3387.9569    5869.1918    10501.312     75.27178 
   15300    756.51962   -164.13631   0.68451485    -163.4518    8305.7898     4.230935     4.230935     4.230935    8305.7898    34658.754    1362.6638   -11104.048   -2399.1766    -2138.285    3079.8673    75.737167 
   15400    715.00094   -164.09646   0.64694787   -163.44951   -6010.1636    4.2283769    4.2283769    4.2283769   -6010.1636   -19801.127    1809.9931   -39.357375   -18253.704    -6215.562    663.84746    75.599877 
   15500    621.71137   -164.01124   0.56253751    -163.4487    17201.905    4.2233649    4.2233649    4.2233649    17201.905    9474.1219     23526.91    18604.684   -4431.1294   -4518.0647    9796.0244    75.331364 
   15600    642.02804   -164.02861   0.58092046   -163.44769   -5887.9901    4.2296658    4.2296658    4.2296658   -5887.9901   -1618.7041   -8120.7799   -7924.4864   -9064.9944   -10413.764   -2855.3997    75.669031 
   15700    702.33362   -164.08193   0.63548622   -163.44644   -14043.342    4.2266275    4.2266275    4.2266275   -14043.342   -16501.788   -19908.129   -5720.1081   -16381.854   -6749.3711   -3531.8416    75.506081 
   15800    722.01825   -164.10165   0.65329729   -163.44835    5392.8205    4.2262641    4.2262641    4.2262641    5392.8205    13192.209   -2569.2027    5555.4549   -297.40764   -6395.4851   -4169.9615    75.486606 
   15900    709.00464   -164.09067    0.6415223   -163.44915   -9343.8308    4.2277387    4.2277387    4.2277387   -9343.8308   -14690.831   -5018.5731   -8322.0883   -4736.1261   -17589.812    1778.2893    75.565646 
   16000    910.23527   -164.27208       0.8236   -163.44848    13705.741    4.2257071    4.2257071    4.2257071    13705.741    12091.778    21235.823    7789.6205    6074.2343    1295.6587   -3446.2075    75.456762 
   16100    1008.1574   -164.35926   0.91220201   -163.44706    -13046.09    4.2311758    4.2311758    4.2311758    -13046.09   -13416.283   -11712.706    -14009.28    6424.2293    3227.2422   -9600.3628    75.750101 
   16200    705.04013   -164.08614   0.63793513    -163.4482    9946.9027    4.2235484    4.2235484    4.2235484    9946.9027    16431.468    12643.996    765.24427     7412.724   -3497.0068    5020.3055    75.341183 
   16300    494.76202    -163.8981   0.44767107   -163.45043    15918.907    4.2265469    4.2265469    4.2265469    15918.907    866.90198    22709.614    24180.207    4918.3826    967.06799    2423.9284    75.501761 
   16400    638.97159   -164.02635   0.57815492    -163.4482   -20928.327     4.233564     4.233564     4.233564   -20928.327   -27088.384   -26417.356   -9279.2402    7351.7106    8582.8086    4118.0564    75.878438 
   16500    604.26764   -163.99437   0.54675406   -163.44762    4506.9265    4.2232543    4.2232543    4.2232543    4506.9265    21237.694   -17776.874     10059.96   -1721.5387    7913.7262   -548.68678    75.325446 
   16600    464.15803   -163.87206   0.41997994   -163.45208   -1291.1332    4.2263492    4.2263492    4.2263492   -1291.1332   -11979.876   -12567.795    20674.271   -10285.135   -4576.6589    2000.2483    75.491168 
   16700     657.5945   -164.04745   0.59500533   -163.45245    575.35157    4.2326141    4.2326141    4.2326141    575.35157    16573.098   -13486.746   -1360.2969   -12064.837    1547.5519    11046.358    75.827377 
   16800    824.98004   -164.19622   0.74645928   -163.44976   -12578.046    4.2253162    4.2253162    4.2253162   -12578.046   -27517.599   -10171.862   -44.675815   -19772.169   -2478.3767   -2246.7328    75.435823 
   16900    697.32913   -164.08112   0.63095805   -163.45016     7673.488    4.2249275    4.2249275    4.2249275     7673.488   -15878.057    29463.287    9435.2343   -14446.653   -7165.3166    3187.1997    75.415006 
   17000    583.35032   -163.97682   0.52782763   -163.44899   -8081.8318    4.2350753    4.2350753    4.2350753   -8081.8318     140.7066   -32673.511    8287.3085   -11318.762   -6593.3723    195.15929    75.959731 
   17100    627.98948   -164.01544   0.56821808   -163.44722   -8667.1411     4.223904     4.223904     4.223904   -8667.1411   -4077.5111   -30469.934    8546.0216   -21461.776   -7430.9943    6896.6309    75.360211 
   17200    781.88769   -164.15583   0.70746841   -163.44836    7827.6592    4.2224827    4.2224827    4.2224827    7827.6592    11392.353    9017.9703    3072.6538   -5104.3889    1695.0929   -2324.8503    75.284167 
   17300    793.52834   -164.16734   0.71800112   -163.44934   -25281.002    4.2357447    4.2357447    4.2357447   -25281.002   -27548.445   -43950.162   -4344.3987     2190.194   -5960.3009   -2817.4594    75.995752 
   17400    748.89627   -164.12624   0.67761708   -163.44863    17197.664    4.2234632    4.2234632    4.2234632    17197.664    15359.908    27701.353    8531.7313    10013.897    6998.4185    2468.1341    75.336623 
   17500    744.30122   -164.12271   0.67345938   -163.44925   -4188.3444    4.2240962    4.2240962    4.2240962   -4188.3444   -14908.125    6355.1005   -4012.0085    23002.458    6612.7615   -7884.0178      75.3705 
   17600    635.29954    -164.0251   0.57483238   -163.45026   -2881.8155    4.2317081    4.2317081    4.2317081   -2881.8155    5769.3004    -4007.023   -10407.724    8495.1829    8526.4107   -27.814204    75.778695 
   17700    463.04648   -163.86907   0.41897419    -163.4501    8271.3148    4.2245257    4.2245257    4.2245257    8271.3148   -19192.279    34815.859    9190.3646    12812.307    15495.215   -6592.6438    75.393493 
   17800     594.7211   -163.98723   0.53811615   -163.44911   -6462.1297    4.2261077    4.2261077    4.2261077   -6462.1297   -16700.788    -418.9975   -2266.6033    18514.411    4287.6169    753.43847    75.478226 
   17900    767.96652   -164.14298   0.69487225   -163.44811   -2393.3867    4.2329156    4.2329156    4.2329156   -2393.3867    33888.645   -20829.788   -20239.017    6613.0574    6998.5372    1859.6661    75.843579 
   18000    743.82595   -164.12176   0.67302936   -163.44874    952.82571    4.2234557    4.2234557    4.2234557    952.82571   -6461.6086    4123.3053    5196.7804   -6375.8754    12352.474   -1875.6399    75.336222 
   18100    846.64963    -164.2157   0.76606638   -163.44963    16776.985    4.2248011    4.2248011    4.2248011    16776.985    25213.937    29079.963   -3962.9452   -12793.441    1836.9772    1650.5916     75.40824 
   18200    1002.9544   -164.35554    0.9074942   -163.44805   -25394.666     4.235683     4.235683     4.235683   -25394.666   -25844.593   -22332.865   -28006.539   -12069.397   -2967.3341    2463.2582    75.992433 
   18300    863.77742   -164.22788   0.78156396   -163.44631    8072.8598    4.2202618    4.2202618    4.2202618    8072.8598    1545.1223    10035.833    12637.624   -13228.907   -4922.1511    8461.6755    75.165438 
   18400    609.86152   -164.00247   0.55181552   -163.45065     6022.743    4.2272592    4.2272592    4.2272592     6022.743     7388.906    15452.047   -4772.7243   -8303.0702   -3072.1593   -2788.2536    75.539942 
   18500    589.83595   -163.98219   0.53369596   -163.44849   -7675.7677     4.236682     4.236682     4.236682   -7675.7677    20947.374   -20189.137    -23785.54   -9632.0976   -9796.9273   -1698.0599    76.046214 
   18600    628.87415   -164.01684   0.56901855   -163.44782     23367.94    4.2148224    4.2148224    4.2148224     23367.94    5103.3675    50115.395    14885.057    2563.8003   -14085.405    3338.3034    74.875174 
   18700    604.29405   -164.00106   0.54677795   -163.45428   -8269.3157    4.2336202    4.2336202    4.2336202   -8269.3157   -21112.849    238.93259   -3934.0312    5926.9048    1456.2316    2483.0728    75.881462 
   18800    700.95467   -164.08692   0.63423852   -163.45268   -2518.9829    4.2298361    4.2298361    4.2298361   -2518.9829    11563.999    311.12899   -19432.076    7877.4535   -1246.4803   -4174.3951    75.678171 
   18900    565.45492   -163.96035    0.5116355   -163.44871    9162.9073    4.2171409    4.2171409    4.2171409    9162.9073   -11743.484    42812.169   -3579.9633    10936.145    1650.6052   -1113.2679    74.998802 
   19000    352.72318   -163.76799   0.31915135   -163.44884   -10016.577    4.2406152    4.2406152    4.2406152   -10016.577    11108.121   -27714.745   -13443.106    2588.5134    6941.5324    3565.5065    76.258208 
   19100    609.21922   -163.99997   0.55123436   -163.44874   -4022.0392    4.2202027    4.2202027    4.2202027   -4022.0392   -186.78692   -12584.256    704.92549    4693.1622    6979.3374     2503.479    75.162277 
   19200    812.70232   -164.18435   0.73535014     -163.449   -1849.6228     4.221359     4.221359     4.221359   -1849.6228    18512.248   -10979.941   -13081.175     2450.981    11093.642    636.56513    75.224075 
   19300    863.40465   -164.22861   0.78122667   -163.44738   -17957.319     4.240798     4.240798     4.240798   -17957.319   -793.03204   -27362.264    -25716.66   -11206.568    7360.2104    3211.9351    76.268069 
   19400    935.57679   -164.29184   0.84652954   -163.44532    13719.428     4.220413     4.220413     4.220413    13719.428    26381.153    10016.213    4760.9168    1.6712165    2082.2482    11481.947    75.173515 
   19500    967.20543   -164.32213   0.87514779   -163.44698    7831.3696     4.222205     4.222205     4.222205    7831.3696    25421.578    5861.1078   -7788.5766   -11628.117   -1165.8248     6084.102    75.269311 
   19600    834.63524   -164.20256    0.7551955   -163.44737   -12304.152    4.2385546    4.2385546    4.2385546   -12304.152    4379.3757   -26519.984   -14771.848    151.12129   -752.32127    5460.6748    76.147098 
   19700    608.96945   -163.99842   0.55100835   -163.44741    4109.9576    4.2212363    4.2212363    4.2212363    4109.9576    7304.6729   -11413.189    16438.389    4630.3648   -432.95086     10862.29    75.217516 
   19800    533.09996   -163.93258   0.48236005   -163.45022    -1958.085    4.2216468    4.2216468    4.2216468    -1958.085   -2589.1031   -10144.336    6859.1844    3712.3651    -14703.58     3514.749     75.23946 
   19900    611.22733   -164.00235   0.55305134    -163.4493   -17953.591    4.2411268    4.2411268    4.2411268   -17953.591    15318.025   -46862.233   -22316.566    9506.6856   -8585.8397    -201.1709     76.28581 
   20000     625.7105   -164.01364   0.56615601   -163.44748     4963.902    4.2173477    4.2173477    4.2173477     4963.902   -14863.109    15879.093    13875.722    14819.163    1092.4653    9180.0015    75.009838 
   20100    642.26286   -164.03251   0.58113294   -163.45137    8928.0422    4.2280029    4.2280029    4.2280029    8928.0422    8047.5125    12089.321    6647.2931    17909.813   -7955.9597    405.06726    75.579816 
   20200    831.26725    -164.2031   0.75214808   -163.45095   -31135.899    4.2360685    4.2360685    4.2360685   -31135.899   -44642.395   -27312.946   -21452.355    14415.508    1217.0926   -6762.9572    76.013185 
   20300    745.45715   -164.12334    0.6745053   -163.44883    11211.726    4.2167548    4.2167548    4.2167548    11211.726    2464.7975    20043.963    11126.416    7800.9511   -3766.5905   -6609.9846    74.978207 
   20400    492.51905   -163.89752   0.44564159   -163.45188   -6298.0879    4.2338175    4.2338175    4.2338175   -6298.0879     1914.336   -29467.317    8658.7169    4005.9924   -2984.6003    1698.8893     75.89207 
   20500    645.98878   -164.03223   0.58450422   -163.44773   -4334.2934    4.2306638    4.2306638    4.2306638   -4334.2934   -10711.344   -19575.938    17284.401     -4176.25     13163.84   -5799.4885    75.722602 
   20600    941.97277   -164.29751   0.85231676   -163.44519    3035.6708    4.2220713    4.2220713    4.2220713    3035.6708    7315.0781    -7382.866    9174.8003   -7234.2249    4638.7091   -9911.3102    75.262163 
   20700    876.56517   -164.24041   0.79313459   -163.44728   -10447.966    4.2314157    4.2314157    4.2314157   -10447.966   -20996.567   -4838.2785   -5509.0524   -6913.6475   -3854.3853    2276.1707    75.762983 
   20800    687.49206   -164.06883   0.62205727   -163.44677    7399.6516    4.2316112    4.2316112    4.2316112    7399.6516   -6118.4202    18293.431    10023.944   -11793.594    4189.7214   -1353.1407    75.773485 
   20900    687.69807   -164.06827   0.62224366   -163.44602   -3009.2823    4.2230409    4.2230409    4.2230409   -3009.2823   -18617.502   -7176.4234    16766.079   -14998.523    10771.068    1097.6243    75.314028 
   21000    576.67112   -163.97068   0.52178415    -163.4489   -5053.6877    4.2313846    4.2313846    4.2313846   -5053.6877    17265.237   -16492.819   -15933.482   -10594.563   -7393.5092    5682.4438    75.761314 
   21100    521.85168   -163.92052   0.47218236   -163.44833    -8657.306     4.231268     4.231268     4.231268    -8657.306   -16244.975   -3773.5843   -5953.3586   -2296.7546   -13577.721    6203.7262    75.755052 
   21200    643.71413   -164.02977   0.58244608   -163.44732    4520.1044    4.2205993    4.2205993    4.2205993    4520.1044   -6190.6531   -7290.2076    27041.174    7.2262179    2269.5553    6049.2748    75.183469 
   21300    746.28916   -164.12479   0.67525811   -163.44954   -11956.281    4.2366851    4.2366851    4.2366851   -11956.281    15220.799   -21972.641   -29117.002    10678.217   -5422.5513    4988.2714    76.046381 
   21400    767.57105   -164.14336   0.69451441   -163.44885   -1665.0507    4.2249709    4.2249709    4.2249709   -1665.0507   -23608.839    23897.015   -5283.3279    9540.1798   -14853.549    10985.704    75.417332 
   21500    811.79064   -164.18245   0.73452523   -163.44792    19809.297    4.2214133    4.2214133    4.2214133    19809.297     15207.66    24390.934    19829.297    6126.9447   -3078.2427    5480.4126    75.226979 
   21600    843.56346    -164.2081   0.76327394   -163.44483   -25387.185    4.2382955    4.2382955    4.2382955   -25387.185   -29490.021   -19658.301   -27013.234    13539.789   -908.75231   -1371.5121    76.133135 
   21700    790.56586   -164.15781   0.71532061   -163.44249    22114.465     4.219369     4.219369     4.219369    22114.465    14342.788    38005.593    13995.013    5098.5945   -1635.9901     719.7448     75.11774 
   21800    703.87238   -164.08452   0.63687852   -163.44764    9493.8991    4.2255128    4.2255128    4.2255128    9493.8991    9147.7663    399.51204    18934.419   -9958.7401    509.46531    1874.3249    75.446356 
   21900    770.67281   -164.14579   0.69732096   -163.44847   -7856.6373    4.2361278    4.2361278    4.2361278   -7856.6373    10022.228   -17340.683   -16251.457   -3609.9778    4347.6533   -3891.6467    76.016377 
   22000    881.99094   -164.24685   0.79804394    -163.4488    14645.166      4.21697      4.21697      4.21697    14645.166    1640.4639    30685.868    11609.167   -16108.701    2484.6076   -7119.5688    74.989686 
   22100    753.70155   -164.13543   0.68196501   -163.45347   -12305.252    4.2293075    4.2293075    4.2293075   -12305.252   -29657.802   -19903.385    12645.431   -23391.033    2713.2607   -4020.7551    75.649803 
   22200    532.31591   -163.93213   0.48165062   -163.45048   -1428.5908    4.2365196    4.2365196    4.2365196   -1428.5908    6971.6253   -10802.858   -454.53936   -17593.464     2588.061   -3600.7841    76.037472 
   22300    548.86713   -163.94349   0.49662651   -163.44687   -1880.9805    4.2168718    4.2168718    4.2168718   -1880.9805   -14676.661   -2178.2799        11212   -22206.188   -8892.4384    2342.9376     74.98445 
   22400    508.77514   -163.91117   0.46035044   -163.45082   -5612.7044    4.2302908    4.2302908    4.2302908   -5612.7044    13091.105   -37443.493    7514.2749   -16410.978    -1841.189   -1782.0998    75.702577 
   22500    478.37895   -163.88202   0.43284733   -163.44918   -3460.5498    4.2358668    4.2358668    4.2358668   -3460.5498   -19217.199   -6852.8719    15688.421    -12508.14    99.766861    25.536737    76.002326 
   22600    674.46785   -164.05542   0.61027268   -163.44515    10811.915     4.217622     4.217622     4.217622    10811.915   -8096.8912    24989.637    15542.999   -10215.887   -12865.379    3232.9273    75.024472 
   22700    816.01354   -164.18638    0.7383462   -163.44803   -2579.6295    4.2332305    4.2332305    4.2332305   -2579.6295    3285.6189   -3672.3431   -7352.1644   -9148.4447   -7545.4626    6469.5927    75.860511 
   22800    783.51369   -164.15679   0.70893966   -163.44785   -3937.5977    4.2327741    4.2327741    4.2327741   -3937.5977   -9076.8193    3552.9612   -6288.9349    6524.6225   -268.72128    2305.9184    75.835976 
   22900    786.65743    -164.1555   0.71178417   -163.44372    12083.415    4.2171403    4.2171403    4.2171403    12083.415     11893.79    16987.893    7368.5603    5408.6842    7504.0105    -1334.826    74.998773 
   23000    787.49887   -164.16108   0.71254553   -163.44853   -16000.136    4.2342321    4.2342321    4.2342321   -16000.136    -13532.72   -20899.018   -13568.669    3020.5927    3495.4658    7496.8884    75.914368 
   23100    705.96698   -164.08869   0.63877376   -163.44992   -2414.3437    4.2298614    4.2298614    4.2298614   -2414.3437    24046.047   -13521.486   -17767.592    11296.012    8528.9813    -1237.958    75.679528 
   23200    687.08558   -164.06981   0.62168948   -163.44812    2218.4743    4.2206658    4.2206658    4.2206658    2218.4743   -8738.7596    15078.346    315.83688    4405.0381    21187.616   -2561.9018    75.187023 
   23300     713.2791   -164.09506   0.64538992   -163.44967   -4466.4324    4.2337732    4.2337732    4.2337732   -4466.4324   -3618.0272     -2939.68   -6841.5899    8452.0957    7640.4582    1504.8068    75.889688 
   23400    725.34687   -164.10496   0.65630909   -163.44865   -9104.5426     4.225241     4.225241     4.225241   -9104.5426   -9941.2009    6395.3508   -23767.778   -2125.2028     11841.99    1854.7724    75.431796 
   23500    604.89997   -163.99772   0.54732621    -163.4504   -962.17552    4.2253413    4.2253413    4.2253413   -962.17552   -17437.457    20711.405   -6160.4743   -4191.0379    9367.4339    -460.9017    75.437169 
   23600    501.69697   -163.90348   0.45394596   -163.44954   -4825.6255    4.2325949    4.2325949    4.2325949   -4825.6255    13774.933   -35498.931     7247.122   -5886.8803    2200.0544   -2144.7783    75.826344 
   23700    482.54479   -163.88434   0.43661667   -163.44772   -12069.203    4.2249825    4.2249825    4.2249825   -12069.203   -15982.149   -21378.264    1152.8039   -14920.472    2120.2154    7502.2093    75.417953 
   23800    666.41327   -164.05083   0.60298473   -163.44784    3226.4663     4.223986     4.223986     4.223986    3226.4663    24035.445   -10995.944   -3360.1016    -7560.277   -4994.4761    -4081.622    75.364599 
   23900     840.9251   -164.20804   0.76088671   -163.44716   -22055.066    4.2329222    4.2329222    4.2329222   -22055.066   -21578.594   -32897.046   -11689.557   -18691.654   -4510.3537    2503.0784    75.843934 
   24000       856.28   -164.22209   0.77478014   -163.44731    12173.484    4.2224049    4.2224049    4.2224049    12173.484   -3370.1665    22162.218    17728.401   -2364.6766   -5714.3761    3569.3634    75.280005 
   24100    862.81525    -164.2312   0.78069337    -163.4505    13682.301    4.2223873    4.2223873    4.2223873    13682.301    20898.116     13545.38    6603.4063    7553.2727   -3633.0443    994.79758     75.27906 
   24200    859.22075   -164.22752   0.77744099   -163.45008   -6658.7397    4.2347451    4.2347451    4.2347451   -6658.7397     334.1501    6936.5197   -27246.889   -851.57542   -479.89215    2289.7318    75.941961 
   24300    739.54598   -164.11734   0.66915674   -163.44818    15291.057    4.2200482    4.2200482    4.2200482    15291.057     8082.991    26592.054    11198.126    5428.3107   -1657.5214    2192.6726    75.154026 
   24400    544.53672   -163.94331   0.49270827    -163.4506   -2000.6881    4.2269287    4.2269287    4.2269287   -2000.6881   -3437.7021   -6046.3026    3481.9404    12735.279    9040.4252    614.62206    75.522224 
   24500    569.15148   -163.96341   0.51498022   -163.44843     720.4397    4.2318721    4.2318721    4.2318721     720.4397    13997.441    11867.514   -23703.635    5613.5555    9485.0131   -2163.4517    75.787504 
   24600    622.68756   -164.01021   0.56342079   -163.44679   -2770.7877    4.2204855    4.2204855    4.2204855   -2770.7877   -24173.716    31305.149   -15443.797   -6313.0691    12876.043    5238.8766    75.177391 
   24700     571.6125   -163.96733     0.517207   -163.45012   -1295.0388    4.2293562    4.2293562    4.2293562   -1295.0388    1229.3653    8969.9652   -14084.447    167.13872    14245.116   -2240.6674    75.652412 
   24800    624.70831    -164.0136   0.56524921   -163.44835   -4018.6495    4.2309957    4.2309957    4.2309957   -4018.6495   -6049.1597   -3905.3787   -2101.4101   -8426.9548    15209.607   -1880.1563    75.740429 
   24900    701.42245   -164.08101   0.63466177   -163.44635   -6557.6918    4.2218947    4.2218947    4.2218947   -6557.6918   -10582.683    7519.0829   -16609.476   -14934.531    20079.919    35.530546    75.252719 
   25000    614.26979   -164.00446   0.55580421   -163.44865    4685.1009    4.2293595    4.2293595    4.2293595    4685.1009    26642.149   -193.19212   -12393.654   -4344.9678    3844.8666     1165.254     75.65259 
   25100    659.47981   -164.04469   0.59671119   -163.44798   -10778.902    4.2311764    4.2311764    4.2311764   -10778.902   -14438.368   -19821.815    1923.4776   -7998.9686    6554.0001    1331.0278    75.750132 
   25200    870.29023    -164.2334   0.78745689   -163.44594    8654.1409    4.2178793    4.2178793    4.2178793    8654.1409    3394.0761    23187.699   -619.35198    411.87935    2022.8989   -3424.6407    75.038207 
   25300    879.80695   -164.24597   0.79606782    -163.4499   -5771.4436    4.2322009    4.2322009    4.2322009   -5771.4436   -9488.1938    2341.1566   -10167.294   -3677.6458    -5093.545    2899.2276    75.805171 
   25400    725.12132    -164.1051   0.65610501   -163.44899   -2933.7921    4.2305678    4.2305678    4.2305678   -2933.7921    1850.6408   -12055.046    1403.0284     17331.08   -7036.8368   -1843.4751    75.717451 
   25500    811.18934   -164.17954   0.73398116   -163.44556    20025.564    4.2156286    4.2156286    4.2156286    20025.564    14079.543    26330.927    19666.222    13465.332   -15835.183    -2153.224    74.918149 
   25600    849.80104   -164.21797   0.76891784   -163.44905   -25343.038    4.2356851    4.2356851    4.2356851   -25343.038   -20884.936   -38666.635   -16477.545    11789.413   -5301.2463   -411.19283    75.992549 
   25700    566.15938    -163.9606   0.51227291   -163.44833   -3296.2903    4.2288468    4.2288468    4.2288468   -3296.2903    21585.625   -35219.507    3745.0107    23198.089   -3791.9698    1292.0129     75.62508 
   25800    423.54728   -163.83041   0.38323448   -163.44717    16334.402    4.2173783    4.2173783    4.2173783    16334.402   -4504.5721    15491.337    38016.441    7216.2034   -1707.2956    1231.8232    75.011469 
   25900    654.09939   -164.04065   0.59184287   -163.44881   -27081.631    4.2361294    4.2361294    4.2361294   -27081.631   -32056.814   -28194.078   -20994.002    12486.455    5788.7344   -3396.7724    76.016461 
   26000    613.27958   -164.00392   0.55490825   -163.44901   -1659.7475    4.2298554    4.2298554    4.2298554   -1659.7475   -4839.6468   -17057.831    16918.235    11528.885    8080.0376    4212.5416    75.679206 
   26100    575.74977   -163.96859   0.52095049   -163.44764    13535.919    4.2132536    4.2132536    4.2132536    13535.919    6845.7641    22123.334     11638.66   -2018.1651    19629.889    8078.1828    74.791595 
   26200    791.58364   -164.16762   0.71624151   -163.45138   -11701.342    4.2355807    4.2355807    4.2355807   -11701.342   -1433.5876   -20658.405   -13012.033   -831.97835    14140.062    4811.9451    75.986929 
   26300    760.71147   -164.13673   0.68830773   -163.44842   -12147.223    4.2331045    4.2331045    4.2331045   -12147.223   -656.87421   -36258.766    473.97067   -7849.7614    12508.673    5442.7522    75.853733 
   26400    575.35807   -163.96329   0.52059607   -163.44269    18905.478    4.2086876    4.2086876    4.2086876    18905.478    31535.108    7653.9257      17527.4   -6163.2916    23211.084    5218.9445    74.548699 
   26500    624.87555    -164.0148   0.56540053    -163.4494   -4585.9532    4.2373788    4.2373788    4.2373788   -4585.9532   -5688.4086   -23548.291     15478.84   -6758.5517    3087.2302    7481.0538    76.083743 
   26600    852.83751   -164.21695    0.7716653   -163.44529   -19947.188    4.2331569    4.2331569    4.2331569   -19947.188   -16275.394   -29195.135   -14371.034   -10743.529    1315.1917     6954.044    75.856554 
   26700     878.5821   -164.23322   0.79495954   -163.43826    21833.321    4.2085876    4.2085876    4.2085876    21833.321    19537.068    13265.405    32697.492    101.07697    3907.9369   -506.17755    74.543387 
   26800    956.29166    -164.3119   0.86527279   -163.44663   -10711.846    4.2351234    4.2351234    4.2351234   -10711.846   -4681.4213   -18921.578   -8532.5386   -2785.8974   -493.73466    3530.5344    75.962317 
   26900    947.49093   -164.30258    0.8573097   -163.44527   -10068.871    4.2326385    4.2326385    4.2326385   -10068.871    10817.182   -40152.996   -870.79798    8135.1852   -8811.1793   -886.87527    75.828688 
   27000    713.59532   -164.08867   0.64567604     -163.443    10767.647    4.2129642    4.2129642    4.2129642    10767.647    4211.4235    -20193.65    48285.167    13023.052   -3562.9478   -2906.5253    74.776187 
   27100    534.15118   -163.93353   0.48331121   -163.45022   -5498.8555    4.2290822    4.2290822    4.2290822   -5498.8555    4537.5018   -24299.005    3264.9367    12136.738    3559.7048   -3091.1087    75.637711 
   27200    446.33008   -163.85291   0.40384884   -163.44906   -15854.206    4.2360603    4.2360603    4.2360603   -15854.206   -12502.926   -36721.505    1661.8121    18142.257   -5206.1743   -5148.3071     76.01274 
   27300    434.00742   -163.84081   0.39269903   -163.44811    11885.518    4.2123412    4.2123412    4.2123412    11885.518   -7322.0628   -6050.7214    49029.338     19478.85     6635.358    1550.4403     74.74302 
   27400    510.05036   -163.91747   0.46150429   -163.45596    1498.9209     4.230651     4.230651     4.230651    1498.9209    15137.464   -15165.434    4524.7327     17695.97    7046.0304   -3342.4431    75.721919 
   27500    733.62143   -164.11418   0.66379608   -163.45038   -23220.631    4.2365404    4.2365404    4.2365404   -23220.631   -18307.066   -31221.469    -20133.36    14371.672    3603.5878   -3527.6705    76.038592 
   27600    782.04839   -164.15123   0.70761381   -163.44361    21102.296    4.2101087    4.2101087    4.2101087    21102.296    27063.457    5295.7847    30947.647    9270.4409    6643.2828    4761.8484    74.624243 
   27700    690.97744   -164.07432   0.62521091   -163.44911   -15557.479    4.2341793    4.2341793    4.2341793   -15557.479   -8800.5136   -23484.258   -14387.666   -834.62254    2957.6588    974.48607    75.911527 
   27800    676.16456   -164.05784   0.61180791   -163.44603   -199.09646    4.2294847    4.2294847    4.2294847   -199.09646   -5608.4505   -2739.5352    7750.6964   -2038.7323    3912.8926    2665.0963    75.659309 
   27900    813.47352    -164.1787   0.73604793   -163.44266    11491.739    4.2167632    4.2167632    4.2167632    11491.739    14538.914    4669.9887    15266.313   -7523.0573    2396.7016    1566.0726    74.978653 
   28000    901.91613   -164.26163   0.81607267   -163.44555   -12143.368    4.2330287    4.2330287    4.2330287   -12143.368   -19278.253   -12763.392   -4388.4579   -10703.581     2620.077    4962.8529     75.84966 
   28100    876.07374   -164.23981   0.79268993   -163.44712    13550.678     4.228397     4.228397     4.228397    13550.678    22376.665   -1253.2093    19528.579   -9364.8569   -5350.0252    6628.9516    75.600953 
   28200    899.26335   -164.26155   0.81367238   -163.44788    3618.4792     4.218148     4.218148     4.218148    3618.4792    4268.4754   -7018.7733    13605.736   -15218.655    3237.6871   -8163.0819     75.05255 
   28300    803.15141   -164.17762   0.72670828   -163.45091   -4003.6541    4.2294241    4.2294241    4.2294241   -4003.6541   -1275.9337   -22621.669     11886.64   -6505.7856    481.15717     3233.801    75.656057 
   28400    573.33542   -163.96789   0.51876593   -163.44912   -13844.862    4.2324376    4.2324376    4.2324376   -13844.862   -7709.5957   -34122.219    297.22818   -1154.3364   -4677.9253   -3208.2094    75.817891 
   28500    430.45094    -163.8372   0.38948105   -163.44772    1857.7599     4.215762     4.215762     4.215762    1857.7599   -23264.032    -14703.65    43540.962    -5199.721     1402.886   -7057.8418     74.92526 
   28600    496.65435   -163.90073   0.44938329   -163.45135   -767.78232    4.2264572    4.2264572    4.2264572   -767.78232    2515.7579   -13257.707    8438.6025    6001.4693    2119.9975   -5815.0235    75.496951 
   28700    667.16732   -164.05205   0.60366701   -163.44838   -17054.757    4.2350369    4.2350369    4.2350369   -17054.757   -26081.735    -16612.09   -8470.4466    8834.6113     2062.182   -8801.6358    75.957666 
   28800    671.69867   -164.05404   0.60776707   -163.44628    14893.183    4.2155128    4.2155128    4.2155128    14893.183   -6263.7554    6628.5676    44314.737    15522.098    405.87456   -4077.7503    74.911974 
   28900    575.69617   -163.97072   0.52090199   -163.44981    2841.9878    4.2247789    4.2247789    4.2247789    2841.9878    7824.2976    5754.6667    -5053.001    11816.956    3556.4561   -8088.3164     75.40705 
   29000    438.46812   -163.84488   0.39673517   -163.44814   -3806.6185    4.2364045    4.2364045    4.2364045   -3806.6185   -41232.471    15267.116    14545.499    7967.2456     1542.756    3828.4555    76.031273 
   29100     505.6851   -163.90359   0.45755451   -163.44603    3615.8849    4.2180755    4.2180755    4.2180755    3615.8849   -13031.083     8105.606    15773.131    20574.378   -1437.1591    2392.0429    75.048675 
   29200    680.90098     -164.064   0.61609352   -163.44791    -64.21887    4.2217066    4.2217066    4.2217066    -64.21887   -3363.5551    7140.1406   -3969.2421     7901.167    1517.1314    2560.2093    75.242661 
   29300     746.2633   -164.12338   0.67523472   -163.44814   -8499.8933    4.2366267    4.2366267    4.2366267   -8499.8933   -28542.065   -4769.9179    7812.3031   -536.95812   -2926.0893    9827.4268    76.043239 
   29400    914.61055   -164.27472   0.82755885   -163.44716    5698.7011    4.2182795    4.2182795    4.2182795    5698.7011    10188.045    2683.5809     4224.478    1969.0395    160.95988    6977.4854    75.059567 
   29500    1134.9226   -164.47421    1.0269018   -163.44731    8967.8333    4.2193414    4.2193414    4.2193414    8967.8333     9683.626    12248.408    4971.4658   -6008.3324    608.27392    14371.546    75.116269 
   29600    1067.0334   -164.41177   0.96547423    -163.4463   -26373.069     4.236401     4.236401     4.236401   -26373.069   -28747.985   -29894.942   -20476.279   -6051.6919   -2197.8857    7962.1621    76.031086 
   29700    808.28732   -164.17711   0.73135535   -163.44576      11122.6    4.2195286    4.2195286    4.2195286      11122.6   -10783.637    17379.428     26772.01   -8744.0627   -1926.4819    10060.902    75.126268 
   29800      725.214   -164.10424   0.65618887   -163.44805    7950.8866    4.2188042    4.2188042    4.2188042    7950.8866   -11240.554    25350.328    9742.8852   -2421.2458    4679.6585   -2773.1705    75.087579 
   29900    801.18147   -164.17245   0.72492583   -163.44752   -16827.489    4.2368578    4.2368578    4.2368578   -16827.489   -33302.005   -8284.6835   -8895.7797   -2602.5221    3336.2553    2186.5352    76.055681 
   30000    852.61834   -164.21856     0.771467   -163.44709    11049.553    4.2203936    4.2203936    4.2203936    11049.553    689.60721    14667.303    17791.747   -1615.2436    5883.9102    -1006.691    75.172476 
   30100    723.68582   -164.10517   0.65480614   -163.45036    3156.0083    4.2197982    4.2197982    4.2197982    3156.0083   -6426.7572    14099.271    1795.5115    15205.866    1403.0584     -2995.75    75.140665 
   30200    546.68041    -163.9469   0.49464792   -163.45225    358.84883    4.2340973    4.2340973    4.2340973    358.84883   -31709.958    15359.544     17426.96    2129.7926    7283.3693    1198.4134    75.907116 
   30300    500.20593    -163.9032   0.45259684    -163.4506   -3488.3255    4.2220161    4.2220161    4.2220161   -3488.3255   -11319.375   -2758.4725    3612.8711    15797.646    2733.5253   -6110.9239    75.259209 
   30400     444.1889   -163.85275   0.40191145   -163.45084   -5775.3138     4.220317     4.220317     4.220317   -5775.3138   -34590.523   -5417.0972    22681.679    18466.179   -1608.2135    3093.7896    75.168384 
   30500    329.99885   -163.75051    0.2985899   -163.45192    -11281.35    4.2307377    4.2307377    4.2307377    -11281.35   -29524.196   -8440.7354    4120.8797    8718.2625    2035.9625    5267.1359     75.72657 
   30600    379.75938   -163.79363   0.34361426   -163.45002   -5005.1116    4.2252001    4.2252001    4.2252001   -5005.1116   -2841.7892    -8940.923   -3232.6226      12230.7   -2108.8041    5038.9596    75.429605 
   30700    600.47054   -163.99281   0.54331837   -163.44949   -495.18325    4.2198981    4.2198981    4.2198981   -495.18325   -5224.0906   -10169.598    13908.139    2357.0885   -2245.3965    2214.6975    75.146002 
   30800    706.74724   -164.09098   0.63947976    -163.4515   -8528.0718     4.229463     4.229463     4.229463   -8528.0718    11754.259   -21894.596   -15443.878    6078.6172    -3401.087   -2540.0314    75.658143 
   30900    691.54829   -164.07538   0.62572743   -163.44965    4705.5021    4.2273053    4.2273053    4.2273053    4705.5021   -1283.2015    4237.6765    11162.031    315.99483   -2266.3836   -430.31988    75.542411 
   31000    764.83947   -164.13931   0.69204282   -163.44727    3074.5507    4.2207671    4.2207671    4.2207671    3074.5507   -3281.5592   -7028.1016    19533.313   -9418.7335   -2825.8873   -10106.143    75.192436 
   31100    829.09953   -164.19713   0.75018667   -163.44694   -3191.6809     4.228513     4.228513     4.228513   -3191.6809    11509.226   -23205.538    2121.2691   -5012.2867   -1660.8658   -6012.3607    75.607176 
   31200    704.59378   -164.08314   0.63753126   -163.44561   -3589.2769    4.2266538    4.2266538    4.2266538   -3589.2769    -5716.741   -4068.4336   -982.65609   -2196.7544    5343.4674   -10387.545    75.507491 
   31300     633.4771   -164.01871   0.57318339   -163.44553    6270.4596    4.2224167    4.2224167    4.2224167    6270.4596    1561.8831   -11543.036    28792.532   -8605.0251   -1410.5496   -7653.2408    75.280632 
   31400    798.87843   -164.16994     0.722842    -163.4471   -5779.9121    4.2255363    4.2255363    4.2255363   -5779.9121     9659.515   -3849.9954   -23149.256   -5165.2063    3462.0873   -8608.4684    75.447614 
   31500    813.07493   -164.18264   0.73568729   -163.44696   -8949.4821     4.230561     4.230561     4.230561   -8949.4821   -5271.8548   -15540.543   -6036.0481    1367.5831    7643.0712   -9020.1216    75.717084 
   31600    805.78501   -164.17458   0.72909121   -163.44549    7152.7581    4.2228718    4.2228718    4.2228718    7152.7581   -4364.8195      221.152    25601.942   -1464.2975    4942.6861    551.59441    75.304978 
   31700    827.30835   -164.19657   0.74856598     -163.448    5928.1905    4.2218531    4.2218531    4.2218531    5928.1905   -7870.0979    17144.287    8510.3823   -4.2302402    2719.3361    3401.6878    75.250495 
   31800    826.99979   -164.19551   0.74828679   -163.44722   -5920.6893    4.2336648    4.2336648    4.2336648   -5920.6893    -18454.06   -23051.826    23743.818    4763.6848    6439.8853    3936.3906    75.883857 
   31900    888.46296   -164.24908   0.80389996   -163.44518     3628.444    4.2213396    4.2213396    4.2213396     3628.444    773.82164      -5623.2     15734.71    4184.5775    6897.7097    3050.9719    75.223041 
   32000    814.90959   -164.18471   0.73734733   -163.44736    4658.6829    4.2208121    4.2208121    4.2208121    4658.6829   -2963.5814    3040.1767    13899.453   -2342.3884   -692.65546   -1395.5251    75.194842 
   32100    690.82286   -164.07262   0.62507104   -163.44755   -5537.8361    4.2340987    4.2340987    4.2340987   -5537.8361    240.30977   -8994.3972   -7859.4209    1274.3242    2955.7893    2820.0054    75.907195 
   32200    660.70814   -164.04477   0.59782261   -163.44695    13674.106    4.2194594    4.2194594    4.2194594    13674.106    16611.338   -6975.7848    31386.766    2852.3954    384.52992   -2576.2594    75.122568 
   32300    616.95801   -164.00716   0.55823657   -163.44892   -222.72541    4.2199628    4.2199628    4.2199628   -222.72541   -1576.9346   -4754.7967    5663.5551   -9140.9656    997.36303   -15785.207    75.149459 
   32400    514.55617   -163.91522   0.46558124   -163.44964    123.87097    4.2329903    4.2329903    4.2329903    123.87097    13940.675   -2905.3963   -10663.666    -6154.212   -3713.6288   -14303.678    75.847597 
   32500     462.4443   -163.86737   0.41842932   -163.44894    -1395.591    4.2219774    4.2219774    4.2219774    -1395.591    11595.576   -32359.274    16576.925    -5516.895    5940.1177   -16660.688    75.257141 
   32600    513.62306   -163.91403   0.46473694   -163.44929    2847.5377     4.219832     4.219832     4.219832    2847.5377    20843.867    2182.7092   -14483.963   -8992.1046   -2218.3695   -17106.301    75.142471 
   32700    550.54135   -163.94795   0.49814139   -163.44981   -4899.4903     4.233183     4.233183     4.233183   -4899.4903    32711.002   -25020.095   -22389.378    1221.0672   -3889.8126   -16772.934    75.857953 
   32800    608.41355   -164.00017   0.55050537   -163.44967   -9545.9354    4.2220205    4.2220205    4.2220205   -9545.9354    17722.035   -24459.686   -21900.155   -7693.7384    1077.6371    -15658.18    75.259443 
   32900    678.08177   -164.06338   0.61354263   -163.44984    10875.825     4.219966     4.219966     4.219966    10875.825     25853.97    26744.893   -19971.388    1121.1161    -1664.366   -7352.1775    75.149634 
   33000    648.55988   -164.03564   0.58683061   -163.44881   -18970.103    4.2339472    4.2339472    4.2339472   -18970.103   -16716.078   -21366.825   -18827.405   -651.57547    1402.7208    2081.8396    75.899047 
   33100    559.94658   -163.95548   0.50665144   -163.44882    7492.9171    4.2212287    4.2212287    4.2212287    7492.9171    19921.742    3855.0517   -1298.0425    1340.3516    2899.3337   -2173.2573    75.217109 
   33200    655.96938    -164.0419   0.59353488   -163.44837    9274.3202    4.2209762    4.2209762    4.2209762    9274.3202    7274.8674    19658.891    889.20196    6053.2449    4368.0028    4415.9281    75.203616 
   33300     874.4864   -164.23899   0.79125367   -163.44773    -19225.27    4.2328442    4.2328442    4.2328442    -19225.27   -12532.367   -18853.613    -26289.83   -1799.1945   -5151.9478    9433.1936    75.839743 
   33400    944.20155   -164.30289   0.85433341   -163.44855    7274.1843    4.2226217    4.2226217    4.2226217    7274.1843    16266.295    3593.1533    1963.1042    -470.5256    4748.3556    4605.2848    75.291601 
   33500    931.67061   -164.29163   0.84299514   -163.44863    2571.0071    4.2197977    4.2197977    4.2197977    2571.0071    378.85092   -1346.8956    8681.0659   -20169.718    691.59304    3590.0062    75.140639 
   33600    852.30714   -164.21912   0.77118541   -163.44794   -9691.6379    4.2344133    4.2344133    4.2344133   -9691.6379    17556.282   -25286.104   -21345.091    1343.4549    48.789068    3886.0811    75.924112 
   33700    766.77483   -164.13957   0.69379398   -163.44577   -1158.8668    4.2232807    4.2232807    4.2232807   -1158.8668    -20484.09    1351.9633    15655.526    -17489.69      -506.72   -689.35604    75.326856 
   33800    639.16363   -164.02372   0.57832868   -163.44539   -3456.4871    4.2180894    4.2180894    4.2180894   -3456.4871   -24249.415   -8940.7085    22820.662   -17328.958   -300.67924   -3935.1646     75.04942 
   33900    552.60635   -163.94657   0.50000984   -163.44656   -6859.7951    4.2355033    4.2355033    4.2355033   -6859.7951    6461.0706   -19655.749   -7384.7066   -9246.2084   -1366.4477   -4922.3926    75.982763 
   34000    637.94095   -164.02227   0.57722238   -163.44505   -613.70113    4.2225418    4.2225418    4.2225418   -613.70113   -5939.3261   -874.32119    4972.5439    -7626.606    637.94864   -6036.7454    75.287325 
   34100     794.7744   -164.16461   0.71912858   -163.44548     2888.835    4.2174063    4.2174063    4.2174063     2888.835    21236.169   -8177.7602   -4391.9037   -7315.3925    2482.0104   -12702.955    75.012964 
   34200    715.46413   -164.09411   0.64736698   -163.44674   -3549.6278    4.2347895    4.2347895    4.2347895   -3549.6278    18234.687   -7995.5473   -20888.023   -6370.5987   -3654.9221   -7586.9246    75.944354 
   34300    564.30762   -163.95663   0.51059739   -163.44603    4877.9538    4.2228205    4.2228205    4.2228205    4877.9538    23289.663   -7298.9849   -1356.8168    6038.5639    -1433.574    -5572.193    75.302236 
   34400    562.98133   -163.95543   0.50939734   -163.44604    13647.186    4.2177746    4.2177746    4.2177746    13647.186    35395.176    11413.813   -5867.4309    3076.5895   -2346.9057   -11905.132    75.032616 
   34500    548.45899   -163.94333   0.49625722   -163.44707   -8028.0821    4.2313308    4.2313308    4.2313308   -8028.0821   -4494.0112    2965.8674   -22556.103    7083.9776    2916.6301   -650.43578    75.758428 
   34600    557.33272   -163.95147   0.50428636   -163.44719    5932.1242    4.2240944    4.2240944    4.2240944    5932.1242    18652.744   -1863.0572    1006.6857    3517.8269   -3471.6965   -3352.1056    75.370406 
   34700    713.20554    -164.0919   0.64532336   -163.44658    11920.812    4.2192789    4.2192789    4.2192789    11920.812    23826.423    20501.455    -8565.441    5012.6364   -1845.0849   -4102.5933    75.112929 
   34800    837.17461   -164.20547   0.75749318   -163.44797   -10173.953    4.2291956    4.2291956    4.2291956   -10173.953   -157.46823   -3594.8942   -26769.497    2629.4222    2545.9098    5475.3295    75.643798 
   34900    814.45427   -164.18532   0.73693534   -163.44838    3833.5866    4.2253484    4.2253484    4.2253484    3833.5866    2972.3963    2969.4833    5558.8801   -7699.7961   -3839.7554   -390.47567     75.43755 
   35000     703.6012   -164.08338   0.63663316   -163.44674   -5068.5321    4.2201796    4.2201796    4.2201796   -5068.5321   -18088.854    4934.0667   -2050.8087    -7428.266   -269.11559    4788.9826    75.161044 
   35100    614.83124    -164.0043   0.55631223   -163.44799   -4221.3693    4.2268631    4.2268631    4.2268631   -4221.3693    1203.4994   -16139.203    2271.5954   -10676.812   -5930.3925    1860.9303    75.518707 
   35200    665.00662   -164.04948   0.60171196   -163.44777   -7072.6817    4.2264806    4.2264806    4.2264806   -7072.6817   -30498.345   -6862.6017    16142.902   -5536.3727   -4319.0119    720.02845    75.498208 
   35300    819.92434   -164.18791   0.74188478   -163.44602   -7644.4965    4.2229961    4.2229961    4.2229961   -7644.4965    -17388.61   -10199.214    4654.3344   -19165.226    -3511.079    4328.6002    75.311628 
   35400     921.1253   -164.28011   0.83345353   -163.44666    9646.3004    4.2236374    4.2236374    4.2236374    9646.3004    31956.702   -9278.5372     6260.736   -2184.5419    1139.7176   -5078.0019    75.345944 
   35500    995.88927   -164.34897   0.90110154   -163.44787   -8418.2207    4.2256402    4.2256402    4.2256402   -8418.2207   -5665.3544   -16481.622   -3107.6859   -3029.7845   -872.00012    5631.5554    75.453178 
   35600    924.33907   -164.28436   0.83636142     -163.448    3789.1794    4.2248865    4.2248865    4.2248865    3789.1794     11182.17    -10377.39    10562.758   -1362.4735    1474.1022   -4983.5194    75.412815 
   35700    713.51375   -164.09323   0.64560223   -163.44763   -4887.1041    4.2248076    4.2248076    4.2248076   -4887.1041    150.78967   -11001.901   -3810.2012    5257.6827    12150.953   -1488.0732    75.408589 
   35800    532.06595   -163.92965   0.48142445   -163.44822   -9335.9164    4.2262451    4.2262451    4.2262451   -9335.9164   -20711.405   -15249.202    7952.8577     7087.856   -1597.3331   -887.52526    75.485586 
   35900    496.66165   -163.89889    0.4493899    -163.4495    2727.1444    4.2247616    4.2247616    4.2247616    2727.1444    1608.6719   -2935.4641    9508.2253    6921.5861    3043.5809   -1221.3385    75.406127 
   36000     563.8858   -163.96098   0.51021572   -163.45076   -12793.483    4.2250561    4.2250561    4.2250561   -12793.483    -6018.074   -12375.141   -19987.235    2496.6756   -1976.5617    3824.5174    75.421892 
   36100    631.10566   -164.02219   0.57103767   -163.45116     6094.635    4.2259619    4.2259619    4.2259619     6094.635   -1881.0742    190.36921     19974.61    5942.4631   -6221.0218   -2612.2166    75.470412 
   36200    633.82182   -164.02423    0.5734953   -163.45073   -65.741413    4.2245278    4.2245278    4.2245278   -65.741413    12424.496    10763.838   -23385.558   -1166.5197   -5840.5846     3670.516    75.393605 
   36300    594.88739   -163.98899   0.53826661   -163.45073   -4564.7575    4.2240075    4.2240075    4.2240075   -4564.7575    15536.267   -9443.8221   -19786.718   -1073.4009    -15850.66   -960.31077    75.365752 
   36400    511.88983   -163.91303   0.46316867   -163.44986    5293.5348    4.2248158    4.2248158    4.2248158    5293.5348   -17830.655    9195.1876    24516.071   -3108.1818   -10191.283     324.5921    75.409028 
   36500    460.99245   -163.86437   0.41711566   -163.44725   -15976.352    4.2268746    4.2268746    4.2268746   -15976.352   -29897.173    3267.9842   -21299.866   -3710.3238   -9701.9446    6719.2763    75.519323 
   36600    593.09983     -163.983   0.53664919   -163.44635    4473.9027    4.2227894    4.2227894    4.2227894    4473.9027    12686.397   -4975.8263    5711.1374   -571.97521   -5674.3176   -1062.0473     75.30057 
   36700    857.05424   -164.22235   0.77548069   -163.44687   -6558.4344    4.2258676    4.2258676    4.2258676   -6558.4344    -17271.88   -6251.7511    3848.3275    235.36808   -9597.5587    2126.2659    75.465364 
   36800    958.36061    -164.3131   0.86714482   -163.44596   -9002.9846    4.2279346    4.2279346    4.2279346   -9002.9846   -4363.7645   -11857.627   -10787.562    4115.6234    566.65706    10.455546    75.576151 
   36900    900.40818   -164.26127   0.81470825   -163.44656    12671.748    4.2220905    4.2220905    4.2220905    12671.748    14492.969    4800.2563    18722.018    3297.5491    2755.3822    3741.1831    75.263187 
   37000    808.57526    -164.1792   0.73161588   -163.44758   -6858.3205    4.2243191    4.2243191    4.2243191   -6858.3205   -18341.272   -10616.031    8382.3411    17822.897   -2216.4482   -559.19264    75.382435 
   37100    660.82466   -164.04543   0.59792804    -163.4475    3726.1993    4.2281178    4.2281178    4.2281178    3726.1993    13841.118   -17393.914    14731.393    11163.388    4934.4341   -3917.6622    75.585976 
   37200    609.60045   -163.99853    0.5515793   -163.44695    2563.8268    4.2237553    4.2237553    4.2237553    2563.8268   -14945.118    278.61996    22357.978    13452.975    1911.3753    1781.5098    75.352256 
   37300    725.72605   -164.10341   0.65665218   -163.44676    4113.7836    4.2209763    4.2209763    4.2209763    4113.7836   -9120.5209   -8762.5177     30224.39    18059.148    2583.9763    14.916028    75.203616 
   37400    808.97812   -164.17963   0.73198041   -163.44765    5853.8572    4.2289503    4.2289503    4.2289503    5853.8572    23320.688   -6792.3106    1033.1945    8047.6235   -2997.6935    650.18564    75.630636 
   37500    795.30661   -164.16589   0.71961014   -163.44628   -2885.8074    4.2253484    4.2253484    4.2253484   -2885.8074   -7382.0506   -2112.5032    837.13155    8031.7252   -3987.4845    3023.6978     75.43755 
   37600    693.18002   -164.07248   0.62720385   -163.44528    8421.3797    4.2192609    4.2192609    4.2192609    8421.3797   -6987.2182    5782.8546    26468.503    338.38622    -3969.671    8278.2015     75.11197 
   37700    541.71823    -163.9375   0.49015804   -163.44734    -7714.795    4.2297301    4.2297301    4.2297301    -7714.795   -19777.572    6523.7127    -9890.526    1726.6277     -10025.7    5630.5488    75.672483 
   37800    525.24922   -163.92218   0.47525653   -163.44692   -7315.6775    4.2259004    4.2259004    4.2259004   -7315.6775     -11464.8   -7507.2654   -2974.9673   -5672.0302   -8343.6428    7153.0048     75.46712 
   37900    624.98983   -164.01253   0.56550394   -163.44702    456.00557    4.2210809    4.2210809    4.2210809    456.00557   -584.16574    3239.6866   -1287.5041    -9102.123   -14507.439    16812.558    75.209211 
   38000    712.35451    -164.0933   0.64455333   -163.44875   -8253.7347    4.2293538    4.2293538    4.2293538   -8253.7347    -13419.09    4355.4048   -15697.519   -1462.4397   -8564.4568    4700.6192    75.652283 
   38100    799.99882   -164.17244   0.72385575   -163.44858    4519.7488     4.225362     4.225362     4.225362    4519.7488    18758.341   -4378.0531   -821.04099   -3533.6963   -3063.9158    10181.963    75.438278 
   38200     815.1173    -164.1842   0.73753526   -163.44666   -1267.1355    4.2218663    4.2218663    4.2218663   -1267.1355    4650.6983   -915.15231   -7536.9526    3530.1736   -4654.7774    7673.9757    75.251201 
   38300    623.73328   -164.01131   0.56436698   -163.44695   -1770.6796    4.2270308    4.2270308    4.2270308   -1770.6796    -12428.01   -4241.1159    11357.087    714.29075    1526.4082    368.14936    75.527698 
   38400    520.80274   -163.91691   0.47123326   -163.44567    3000.1289     4.226694     4.226694     4.226694    3000.1289   -14588.465     3848.373    19740.479    12122.399     3252.804    2323.1868    75.509643 
   38500    672.52001   -164.05374   0.60851024   -163.44523   -6186.4124    4.2237421    4.2237421    4.2237421   -6186.4124   -21884.761   -10492.684    13818.207    12671.569    4397.3921   -3263.6306    75.351549 
   38600    794.30353   -164.16493   0.71870252   -163.44623    3111.0238      4.22346      4.22346      4.22346    3111.0238   -259.75406   -6254.4345     15847.26    7290.0779    3762.2409    -2376.105    75.336451 
   38700    808.74607   -164.17881   0.73177044   -163.44704    149.97363      4.22817      4.22817      4.22817    149.97363   -6846.1048    5767.4185    1528.6072    16749.738    4659.5742   -5311.4802    75.588779 
   38800    871.09305   -164.23485    0.7881833   -163.44666     4527.605    4.2252442    4.2252442    4.2252442     4527.605    7598.8249   -15103.348    21087.338    8942.9275    379.85952   -4628.0778    75.431971 
   38900    899.18601   -164.26062    0.8136024   -163.44702    -4570.588    4.2227101    4.2227101    4.2227101    -4570.588   -6195.8052   -3568.5418   -3947.4171    12340.777   -9591.7402   -3269.7008     75.29633 
   39000    664.60056   -164.05011   0.60134455   -163.44877    -7483.522     4.225704     4.225704     4.225704    -7483.522   -15662.202   -2375.9502    -4412.414    4070.4282   -6073.4698    -4073.906    75.456595 
   39100    520.31031   -163.91887   0.47078771   -163.44808    2313.3796    4.2279653    4.2279653    4.2279653    2313.3796   -8549.0986   -6944.0353    22433.273    6084.4983   -10651.004    4591.2971    75.577799 
   39200    683.71913   -164.06591   0.61864344   -163.44727   -8324.4799    4.2216406    4.2216406    4.2216406   -8324.4799    -25361.87      6645.54   -6257.1102   -3474.0485   -12863.158    2135.1449    75.239133 
   39300    791.58485   -164.16529   0.71624261   -163.44905   -7051.6506    4.2245643    4.2245643    4.2245643   -7051.6506   -7450.8831    3193.3607   -16897.429   -721.00138   -14242.227    12538.127    75.395563 
   39400     658.4629   -164.04556   0.59579107   -163.44977   -1691.1435    4.2301604    4.2301604    4.2301604   -1691.1435    15898.785   -4867.5965   -16104.619    122.48758   -10038.115    14569.564    75.695576 
   39500    551.53985   -163.94739   0.49904485   -163.44835    1657.5909    4.2220674    4.2220674    4.2220674    1657.5909    10983.175   -3272.5646   -2737.8372   -10223.046   -14390.273    15529.764    75.261952 
   39600    489.88227   -163.89172   0.44325577   -163.44846   -1036.8453    4.2253351    4.2253351    4.2253351   -1036.8453    4060.3263    2658.3034   -9829.1654   -737.83656   -2983.9396    21142.492     75.43684 
   39700    429.62763   -163.83652   0.38873611   -163.44778   -8633.5344    4.2277851    4.2277851    4.2277851   -8633.5344    8876.9152   -25453.377   -9324.1412    -1944.569   -106.43059    20522.533    75.568136 
   39800    410.51771   -163.81978   0.37144506   -163.44833    9766.8415    4.2230378    4.2230378    4.2230378    9766.8415      28114.2   -5348.2687    6534.5928    832.96999   -3694.9699    23678.393    75.313857 
   39900    546.49064   -163.94349   0.49447622   -163.44902    3489.9562    4.2267572    4.2267572    4.2267572    3489.9562      8758.88   -1186.8278    2897.8165   -3995.4391    4660.1988    21290.514     75.51303 
   40000    749.45492   -164.12486   0.67812256   -163.44674   -3636.8242    4.2265168    4.2265168    4.2265168   -3636.8242    1246.2934   -23289.631    11132.865    3426.0174    4031.1517    7414.6516    75.500147 
   40100    823.63969   -164.19164    0.7452465    -163.4464     12453.42    4.2232554    4.2232554    4.2232554     12453.42    25591.009    11829.031   -59.780218    6268.1434    5866.7157    8828.5012      75.3255 
   40200    818.80221   -164.18735   0.74086945   -163.44648   -6420.2574     4.226676     4.226676     4.226676   -6420.2574     8924.313   -23246.734    -4938.351    3200.1855   -63.282732    6614.0208    75.508681 
   40300    840.02904    -164.2055   0.76007592   -163.44542    2233.6792     4.224916     4.224916     4.224916    2233.6792   -636.82032   -10946.394    18284.251    1837.2908    3209.5071   -2502.2675    75.414393 
   40400    767.36834    -164.1394     0.694331   -163.44507    1631.8074    4.2237799    4.2237799    4.2237799    1631.8074   -12669.195     11875.25    5689.3664   -2031.2615    196.61819   -7065.6189    75.353569 
   40500    799.00605   -164.16878   0.72295747   -163.44582   -3301.8004    4.2276998    4.2276998    4.2276998   -3301.8004   -12299.315   -4304.7839    6698.6981     3314.567   -4394.3028   -8499.8073    75.563563 
   40600     955.8295   -164.31039   0.86485462   -163.44554    5343.6973    4.2250132    4.2250132    4.2250132    5343.6973    10697.511    4806.7835    526.79767   -4190.9896    1745.0793   -9102.7926    75.419596 
   40700    986.60009   -164.33831    0.8926965   -163.44562   -6953.1424    4.2223069    4.2223069    4.2223069   -6953.1424    -18958.35    4560.8519   -6461.9293    -1358.756   -8193.1831   -8053.4946     75.27476 
   40800    865.29866   -164.22976   0.78294042   -163.44682    5129.9056    4.2286468    4.2286468    4.2286468    5129.9056   -4393.0276    9686.1191    10096.625    226.60786   -1557.1327   -5738.3047    75.614355 
   40900    722.54679   -164.10017   0.65377552   -163.44639    2189.3146    4.2255958    4.2255958    4.2255958    2189.3146     20623.61   -14332.055    276.38937    569.58146    -3592.047   -8354.3208    75.450803 
   41000    672.33777   -164.05439   0.60834535   -163.44605   -1568.3308    4.2234541    4.2234541    4.2234541   -1568.3308   -11318.133    7030.7472   -417.60704   -1884.8877   -5604.0204    2076.9478    75.336133 
   41100    624.71427   -164.01213    0.5652546   -163.44687   -3173.0757    4.2276757    4.2276757    4.2276757   -3173.0757   -13620.718   -1367.5427    5469.0331   -330.86206   -3755.9672    6345.8079    75.562271 
   41200    592.70989   -163.98337   0.53629637   -163.44708    -4572.151    4.2254226    4.2254226    4.2254226    -4572.151   -352.24825   -12230.329   -1133.8754    7939.4782   -3009.2956    7412.6447    75.441523 
   41300    664.96851    -164.0491   0.60167748   -163.44743    5447.8993    4.2239447    4.2239447    4.2239447    5447.8993    10236.668    26113.361   -20006.332   -1319.6334    1832.2598    16408.093    75.362389 
   41400     742.4564    -164.1205   0.67179016   -163.44871    -9702.602    4.2238359    4.2238359    4.2238359    -9702.602    10505.745   -19773.412   -19840.139   -333.81023   -7464.8035    24872.558    75.356569 
   41500    690.40876   -164.07461   0.62469635   -163.44992   -8482.2051    4.2293303    4.2293303    4.2293303   -8482.2051    14321.386   -16058.176   -23709.825   -2194.5187   -565.48715    27028.432    75.651024 
   41600    497.17989   -163.89908   0.44985882   -163.44922   -1087.2782    4.2229699    4.2229699    4.2229699   -1087.2782    31864.178   -7375.9543   -27750.058   -6929.8072   -202.40671    27955.215    75.310227 
   41700    436.19249    -163.8434   0.39467614   -163.44873   -8330.9364    4.2237861    4.2237861    4.2237861   -8330.9364    7128.6165   -34411.679    2290.2538   -4200.6345    2752.2759    31599.162    75.353904 
   41800    472.25788   -163.87674   0.42730885   -163.44943   -10149.908    4.2296246    4.2296246    4.2296246   -10149.908   -9244.1795    1594.0554   -22799.599    -8908.495     543.1521    27774.247    75.666819 
   41900    507.08721   -163.90808   0.45882316   -163.44925   -10743.267    4.2227532    4.2227532    4.2227532   -10743.267   -507.47272   -17981.143   -13741.184   -6519.7696   -4426.8691    26381.921    75.298635 
   42000    512.25338    -163.9135   0.46349762      -163.45    5480.9276    4.2263073    4.2263073    4.2263073    5480.9276   -6020.0953   -1296.8408    23759.719   -12259.109    5755.5941    18177.259     75.48892 
   42100    659.05766   -164.04477   0.59632922   -163.44845   -8107.8068    4.2286111    4.2286111    4.2286111   -8107.8068    2646.5248   -3057.7201   -23912.225   -5391.8697   -1290.0497     5924.669    75.612439 
   42200    830.43207   -164.19771   0.75139239   -163.44632   -2482.9761    4.2214555    4.2214555    4.2214555   -2482.9761    6416.3746   -10880.504   -2984.7984   -1649.6027     609.2116     2201.249    75.229234 
   42300    856.39291   -164.22329    0.7748823   -163.44841    2936.5955    4.2246592    4.2246592    4.2246592    2936.5955    5410.7938    808.93179    2590.0609   -5433.4944    4138.0971   -4691.2199    75.400643 
   42400    876.29998   -164.24032   0.79289464   -163.44743   -5445.6461    4.2276719    4.2276719    4.2276719   -5445.6461   -2870.3132   -11629.311   -1837.3141    9552.1254   -751.25379   -11871.437    75.562066 
   42500    1045.7653   -164.39232   0.94623047   -163.44609    6983.4544    4.2202925    4.2202925    4.2202925    6983.4544    -8910.963    11688.303    18173.023    2074.5305    7127.9824    -14430.27    75.167078 
   42600    1112.3508    -164.4543    1.0064784   -163.44782    -9956.416    4.2266043    4.2266043    4.2266043    -9956.416   -22222.532    -6150.556   -1496.1603    5308.0362   -6307.7795    -16257.48    75.504835 
   42700    1006.1932   -164.35727   0.91042475   -163.44685   -1313.4964    4.2258644    4.2258644    4.2258644   -1313.4964   -17803.126    8081.6313     5781.005    1914.1972    9541.7295   -6116.2185    75.465193 
   42800    862.28955   -164.22873   0.78021771   -163.44852    3308.1012    4.2218905    4.2218905    4.2218905    3308.1012    3577.6761    5605.0107    741.61687    4283.8023    -2175.762   -5567.4392    75.252494 
   42900    781.29741   -164.15662   0.70693432   -163.44969   -7961.7883    4.2262954    4.2262954    4.2262954   -7961.7883    -5767.539    -10995.47   -7122.3563   -1734.7203   -190.28211     7831.012    75.488285 
   43000    618.67942   -164.01047   0.55979414   -163.45067   -2856.6335    4.2242324    4.2242324    4.2242324   -2856.6335    6498.0469    -7406.795   -7661.1525   -11325.812    4263.6373    10992.425    75.377791 
   43100    428.10883   -163.83888   0.38736187   -163.45152    1599.8003    4.2260991    4.2260991    4.2260991    1599.8003    25188.921   -25911.707    5522.1871   -5184.8736   -1026.6458    14964.764    75.477763 
   43200    399.56553   -163.81294   0.36153529   -163.45141    4492.0329    4.2226521    4.2226521    4.2226521    4492.0329    5787.7109    2697.0018    4991.3859   -5726.6361    3888.6325    28492.282    75.293223 
   43300    511.01131   -163.91429   0.46237377   -163.45191    1290.4164    4.2244187    4.2244187    4.2244187    1290.4164    3046.6342   -16882.831    17707.446   -7593.5242   -7358.6265    30013.294    75.387765 
   43400    548.59918   -163.94711   0.49638407   -163.45073    207.57029    4.2251639    4.2251639    4.2251639    207.57029    17729.897   -20719.346    3612.1601   -5590.2652    3241.0959    34104.235     75.42767 
   43500    464.28932   -163.87025   0.42009873   -163.45015    8727.4424    4.2219126    4.2219126    4.2219126    8727.4424    19630.903   -713.33417    7264.7585    7424.8452   -3510.3243    31951.517    75.253676 
   43600    537.87949   -163.93618   0.48668466    -163.4495    7269.5873    4.2255938    4.2255938    4.2255938    7269.5873    12180.996   -9011.2252    18638.991    4167.8657   -1087.9725    28439.867    75.450693 
   43700    696.67668    -164.0786    0.6303677   -163.44823    -3142.065    4.2238719    4.2238719    4.2238719    -3142.065    7566.1539   -6318.4826   -10673.866    1658.1298    2483.0668    22140.873    75.358495 
   43800    695.19522   -164.07698   0.62902724   -163.44795    12036.356    4.2230122    4.2230122    4.2230122    12036.356    15367.655   -2538.0363    23279.448    6194.3732   -5433.1341    10622.196    75.312488 
   43900     767.3306   -164.14237   0.69429685   -163.44807    5361.1587    4.2252153    4.2252153    4.2252153    5361.1587   -5440.6325    14724.501    6799.6071    6075.7588    1417.0834    5828.3474    75.430422 
   44000    887.49107   -164.25008   0.80302057   -163.44706   -5347.3746    4.2248792    4.2248792    4.2248792   -5347.3746   -6729.5177   -4466.7519   -4845.8542    -1448.299   -1568.6462   -2639.9059    75.412424 
   44100    817.33857    -164.1853   0.73954512   -163.44576    2886.6314    4.2246331    4.2246331    4.2246331    2886.6314    6910.0076   -8829.3039    10579.191   -7087.7524    2603.1143    -8515.301    75.399243 
   44200    652.78836   -164.03587   0.59065663   -163.44522   -4061.6018    4.2248008    4.2248008    4.2248008   -4061.6018   -14609.916    4967.1818   -2542.0716   -2176.2756   -5001.2913   -11690.012    75.408225 
   44300    642.90235   -164.02716   0.58171155   -163.44545    -1339.064     4.224298     4.224298     4.224298    -1339.064     6669.431   -17717.668    7031.0452   -11467.273   -3838.2781   -11233.556    75.381304 
   44400     736.2281   -164.11175   0.66615466   -163.44559    -882.2454     4.225839     4.225839     4.225839    -882.2454    5758.6782   -11469.007    3063.5928   -10081.578    1584.6608   -9189.5777    75.463828 
   44500    762.07956   -164.13521    0.6895456   -163.44567   -6984.5036    4.2254366    4.2254366    4.2254366   -6984.5036   -26432.905   -10257.621    15737.015    -9261.916   -8289.5875   -9036.2801    75.442273 
   44600    801.66007   -164.17151   0.72535888   -163.44615    14246.174     4.223258     4.223258     4.223258    14246.174    14273.794    1105.6285    27359.101   -3792.3002   -384.72277   -2614.2194     75.32564 
   44700    872.47148   -164.23607   0.78943053   -163.44664   -8509.1976     4.227016     4.227016     4.227016   -8509.1976   -10116.083   -6594.5514   -8816.9584   -3484.7851   -3582.9207    2775.8649    75.526904 
   44800    800.36766   -164.17071   0.72418948   -163.44652   -5307.8608    4.2243836    4.2243836    4.2243836   -5307.8608   -9338.1015   -2290.0619    -4295.419   -6194.7018    -2001.812    11751.364    75.385885 
   44900    695.57401    -164.0759   0.62936998   -163.44653     5392.465    4.2216276    4.2216276    4.2216276     5392.465    29081.751   -2613.1569   -10291.199    2007.5506   -567.96702     13476.16    75.238434 
   45000    664.88065   -164.04749   0.60159799   -163.44589   -23181.433    4.2306196    4.2306196    4.2306196   -23181.433    10059.519   -35898.785   -43705.034    2974.2043   -2265.0948    16775.305    75.720234 
   45100    705.34584   -164.08345   0.63821174   -163.44524    4329.0804     4.224202     4.224202     4.224202    4329.0804    13192.198    19344.052   -19549.009   -1190.1876    6545.7421    17487.033    75.376165 
   45200     770.0145   -164.14303    0.6967253   -163.44631   -1725.3645     4.219437     4.219437     4.219437   -1725.3645    13711.199   -8987.1433    -9900.149   -1683.7892   -9301.1797    18605.644    75.121374 
   45300    838.68754   -164.20693   0.75886211   -163.44807   -8060.2717    4.2306959    4.2306959    4.2306959   -8060.2717    15916.328   -22867.036   -17230.107    1154.5452    3106.4671    19747.454    75.724326 
   45400    791.84392   -164.16375   0.71647702   -163.44727     2075.352     4.226046     4.226046     4.226046     2075.352    9127.2919    9705.1424   -12606.378   -1360.3149   -796.77998    11483.492    75.474919 
   45500    619.32025   -164.00716   0.56037398   -163.44678    -5632.424     4.218002     4.218002     4.218002    -5632.424    9135.0978    -11471.64    -14560.73   -1039.5139   -3556.0918    15266.144    75.044754 
   45600    451.15375   -163.85755   0.40821339   -163.44934   -297.49346    4.2290279    4.2290279    4.2290279   -297.49346    10665.389   -2350.6692   -9207.2002    465.08701    387.05157   -1003.0373    75.634798 
   45700    462.21139   -163.86641   0.41821858   -163.44819   -15993.051    4.2267718    4.2267718    4.2267718   -15993.051    31.737825   -22472.226   -25538.664   -1407.9089   -6691.4386   -569.08478    75.513813 
   45800    578.86945   -163.97111   0.52377324   -163.44734   -3710.5912    4.2171223    4.2171223    4.2171223   -3710.5912    7034.6443   -16554.956   -1611.4622     2919.142    5912.5086   -972.37545    74.997809 
   45900    637.21891   -164.02635   0.57656906   -163.44978   -5600.3913    4.2294565    4.2294565    4.2294565   -5600.3913   -12713.873   -7983.3714    3896.0708    8866.9338    178.27433   -1459.9663    75.657795 
   46000    671.18114   -164.05587    0.6072988   -163.44857   -5290.5298    4.2272914    4.2272914    4.2272914   -5290.5298   -13309.453    4691.5641   -7253.7006    1704.1685     -207.008   -4643.5314    75.541667 
   46100    739.60965   -164.11646   0.66921435   -163.44724    7437.8045    4.2174238    4.2174238    4.2174238    7437.8045   -10531.864    8938.9238    23906.354    14104.537    9546.5067     -7709.65      75.0139 
   46200    678.36007   -164.06211   0.61379445   -163.44831   -7457.4854    4.2286973    4.2286973    4.2286973   -7457.4854   -8021.4962   -3214.6742   -11136.286    8270.4136   -611.41429   -661.55315    75.617059 
   46300    519.08884   -163.91552    0.4696825   -163.44584   -4989.1397    4.2280733    4.2280733    4.2280733   -4989.1397   -6224.6547     16006.58   -24749.345   -129.04586     8020.184    -3110.126    75.583594 
   46400    524.90988   -163.91942   0.47494949   -163.44447    6556.5394     4.218942     4.218942     4.218942    6556.5394    2205.8836    11305.278    6158.4568    12078.606    4206.3059    1531.6171    75.094937 
   46500     733.9397   -164.11017   0.66408406   -163.44608    119.65389    4.2261819    4.2261819    4.2261819    119.65389   -156.89485    10555.169   -10039.313    801.19609    2551.5566   -1024.3449    75.482202 
   46600    988.96188   -164.34018   0.89483349   -163.44535   -8911.5987    4.2298755    4.2298755    4.2298755   -8911.5987   -12693.386    1317.4533   -15358.863   -4816.4723    4199.8869    -2664.395    75.680284 
   46700    1009.9353   -164.35796   0.91381065   -163.44414    6560.6936    4.2188279    4.2188279    4.2188279    6560.6936    8789.3752    5200.2455    5692.4601   -4183.4949   -4207.6671   -889.44336    75.088848 
   46800    919.35506   -164.27741   0.83185178   -163.44556     5999.569    4.2246345    4.2246345    4.2246345     5999.569   -1556.9458    20599.111   -1043.4587   -2346.3754    3395.5122   -3978.7618    75.399318 
   46900    862.40523   -164.22502   0.78032237    -163.4447   -11712.263    4.2294529    4.2294529    4.2294529   -11712.263   -3435.4299   -11398.738   -20302.621   -9174.7553   -8289.2318    694.76237    75.657604 
   47000    771.52589   -164.14138   0.69809284   -163.44329    1152.6486    4.2207066    4.2207066    4.2207066    1152.6486    23920.727    -2755.294   -17707.487   -5890.4557    570.92227   -6864.5677    75.189204 
   47100     651.2522   -164.03528   0.58926668   -163.44602   -1834.2232    4.2252929    4.2252929    4.2252929   -1834.2232    1013.8121    3060.7328   -9577.2145    2901.1945   -1331.3487    2072.4785    75.434579 
   47200    692.33118   -164.07383    0.6264358    -163.4474   -2655.2303    4.2283961    4.2283961    4.2283961   -2655.2303   -2662.8477    5568.5448   -10871.388   -282.40551   -2805.6929   -12137.929    75.600907 
   47300    821.97511   -164.19141   0.74374035   -163.44767    11512.187    4.2188265    4.2188265    4.2188265    11512.187    6588.9415    9158.4541    18789.166    7411.9105    1936.5392    -540.3762    75.088771 
   47400    732.58751   -164.11252   0.66286057   -163.44966   -7711.9571    4.2260474    4.2260474    4.2260474   -7711.9571   -24492.447   -11514.244    12870.819    17006.281   -221.18081    4483.0725    75.474996 
   47500    485.17286   -163.88818    0.4389946   -163.44919    4362.3481    4.2269953    4.2269953    4.2269953    4362.3481    1202.2591    7885.0031    3999.7821    15714.195    6069.7504   -5450.8656    75.525794 
   47600    368.25166   -163.78186   0.33320184   -163.44866    1114.2677    4.2217548    4.2217548    4.2217548    1114.2677   -9692.4038   -18365.342    31400.549    19566.554    2146.9233    9215.9093    75.245236 
   47700    400.83231   -163.81104   0.36268149   -163.44836    -6568.607    4.2221057    4.2221057    4.2221057    -6568.607   -21822.281   -3679.5834    5796.0438    21675.526    5797.6292    713.93939       75.264 
   47800    509.90988   -163.91099   0.46137717   -163.44961   -6414.8043    4.2285945    4.2285945    4.2285945   -6414.8043   -566.36026   -6975.2978   -11702.755    18451.005    1602.2888    7163.9067    75.611549 
   47900    697.09127   -164.07936   0.63074283   -163.44862   -8351.7542    4.2247915    4.2247915    4.2247915   -8351.7542   -29624.844   -14509.278     19078.86    21871.898    4678.6179    2804.3117    75.407726 
   48000    806.49349   -164.17754   0.72973226   -163.44781    6527.4254    4.2180195    4.2180195    4.2180195    6527.4254   -11518.713    21819.413    9281.5761    10702.622   -1050.3417   -2714.3363    75.045688 
   48100    834.29515   -164.20331   0.75488779   -163.44843   -11708.488    4.2315083    4.2315083    4.2315083   -11708.488   -2432.4487   -22707.688   -9985.3279    3656.7756   -496.31267   -842.50569    75.767959 
   48200    705.38482   -164.08416   0.63824701   -163.44591   -3162.2498    4.2230074    4.2230074    4.2230074   -3162.2498   -5528.0394   -16336.715    12378.005    5476.6215    -720.4766   -13747.142    75.312232 
   48300    601.50078   -163.98976   0.54425054   -163.44551    10356.111    4.2192507    4.2192507    4.2192507    10356.111    20769.804    1190.7196    9107.8081   -2915.3132   -11411.086   -4903.6221    75.111425 
   48400    699.58862   -164.07843   0.63300249   -163.44543   -6048.4089    4.2298583    4.2298583    4.2298583   -6048.4089    14982.558   -17804.831   -15322.954   -6573.1157   -2042.5233   -16981.064    75.679363 
   48500    867.34031   -164.22949   0.78478774    -163.4447    1343.5389      4.22372      4.22372      4.22372    1343.5389    11432.526    -1989.922   -5411.9868   -9471.8767   -2253.0321   -16956.438    75.350365 
   48600    885.39145   -164.24676   0.80112079   -163.44564    10733.036     4.220705     4.220705     4.220705    10733.036    11613.251    8445.2672    12140.589   -5349.4782   -7385.6574   -10785.713     75.18912 
   48700    855.32227   -164.22079   0.77391356   -163.44688    4137.9102    4.2277224    4.2277224    4.2277224    4137.9102    9541.0389     20918.31   -18045.618   -952.92612   -3186.8141   -10831.523    75.564775 
   48800    805.39455   -164.17387   0.72873791   -163.44514   -5034.5561    4.2279194    4.2279194    4.2279194   -5034.5561    3308.4952   -1275.3563   -17136.807   -951.03022    3138.7675    -1500.806    75.575337 
   48900     645.6562   -164.02893   0.58420329   -163.44472    3901.4883     4.217996     4.217996     4.217996    3901.4883    1293.7872   -4111.5811    14522.259    9467.9933    4978.5248   -7826.7161    75.044437 
   49000    514.33048   -163.91319   0.46537703   -163.44781   -26.681048    4.2269719    4.2269719    4.2269719   -26.681048     15127.96    9411.7467    -24619.75    11828.925   -3550.9067    3431.0705    75.524538 
   49100    676.72236   -164.05896   0.61231261   -163.44665   -2783.8468    4.2282151    4.2282151    4.2282151   -2783.8468   -3647.9958   -4070.6662   -632.87847    15803.075    6347.8697    3452.3708    75.591198 
   49200     813.4244   -164.18177   0.73600349   -163.44577    785.47409    4.2184103    4.2184103    4.2184103    785.47409   -20616.911   -9793.4395    32766.773     24490.79    4548.6557    2072.3345    75.066552 
   49300    730.59231   -164.10958   0.66105527   -163.44852    3270.2545    4.2265201    4.2265201    4.2265201    3270.2545    5527.0989    5291.2814   -1007.6169    19606.508    -4534.221    5485.0078    75.500326 
   49400    644.21454   -164.02988   0.58289885   -163.44698   -251.26792    4.2281826    4.2281826    4.2281826   -251.26792   -7869.1471   -3044.1766     10159.52    21513.274    3817.9006   -1333.4166    75.589455 
   49500    579.93103   -163.96867   0.52473378   -163.44394   -5057.0656     4.221438     4.221438     4.221438   -5057.0656   -18875.125   -14551.366    18255.294    20475.675    -2267.822       1058.9    75.228302 
   49600    452.55005   -163.85494    0.4094768   -163.44546    3083.9077    4.2242136    4.2242136    4.2242136    3083.9077    18640.234    5296.0571   -14684.568    12275.458   -4434.0599   -5338.3083    75.376786 
   49700    480.16255   -163.88128   0.43446116   -163.44682   -7061.9449    4.2287067    4.2287067    4.2287067   -7061.9449   -5996.5653   -7094.6682   -8094.6011     13286.53   -3887.1722   -7594.8324    75.617566 
   49800    651.83734   -164.03658   0.58979612   -163.44678     530.7054    4.2225533    4.2225533    4.2225533     530.7054   -5566.4023   -2560.1479    9718.6665    9832.2742   -4952.2672   -9233.8346    75.287942 
   49900    786.31988   -164.15849   0.71147875   -163.44701    4098.9786    4.2224573    4.2224573    4.2224573    4098.9786    11537.444    12099.032   -11339.541    248.84998   -477.32256   -14190.984    75.282809 
   50000    818.56635   -164.18753   0.74065603   -163.44688   -10320.657    4.2290456    4.2290456    4.2290456   -10320.657   -5555.2296   -14604.114   -10802.627    1423.3943   -7994.4352   -8123.9603    75.635746 
   50100    794.42584   -164.16415   0.71881319   -163.44533    7145.3588    4.2234024    4.2234024    4.2234024    7145.3588    17310.753   -4119.1778    8244.5011   -1292.1704    1429.6075   -8559.3743    75.333366 
   50200    778.06511   -164.14834   0.70400966   -163.44433   -7079.0747     4.224893     4.224893     4.224893   -7079.0747    14625.086   -14191.146   -21671.165   -7448.9283    -4560.526   -7489.2783    75.413159 
   50300    734.05246   -164.10821   0.66418609   -163.44402   -7751.8703    4.2266092    4.2266092    4.2266092   -7751.8703    7708.3855   -11321.217   -19642.779   -5350.9393    1362.7532    -9124.153    75.505102 
   50400    791.16324   -164.15959   0.71586112   -163.44373    8260.0702    4.2234118    4.2234118    4.2234118    8260.0702    15837.829    9503.7916   -561.40987   -4561.2001   -1359.6765    851.42487    75.333873 
   50500     894.5402   -164.25349   0.80939877   -163.44409   -8726.0179    4.2271865    4.2271865    4.2271865   -8726.0179     2076.439   -11608.511   -16645.982   -2706.5278   -1904.2199   -2427.1906     75.53604 
   50600    926.06689   -164.28263   0.83792479   -163.44471    3672.5846    4.2237918    4.2237918    4.2237918    3672.5846   -1449.7818    9025.5285     3442.007   -4495.0577    3005.4723   -572.21344     75.35421 
   50700    820.49379   -164.18864   0.74240003   -163.44624   -893.15578    4.2267411    4.2267411    4.2267411   -893.15578   -16410.873   -6599.4346     20330.84    5624.0845   -5670.8862     3683.099    75.512171 
   50800    664.01623   -164.04764   0.60081584   -163.44682   -4321.9086    4.2249557    4.2249557    4.2249557   -4321.9086    4662.1925   -25364.374    7736.4553    12353.051    3771.3025   -6752.6809    75.416518 
   50900    587.40048    -163.9793    0.5314923   -163.44781   -523.84216    4.2213388    4.2213388    4.2213388   -523.84216    4319.1234    -7730.202    1839.5521    13262.617   -9414.4091    4416.3755    75.222998 
   51000    524.69146   -163.92444   0.47475186   -163.44969   -12466.357    4.2275872    4.2275872    4.2275872   -12466.357   -10725.543   -34820.587    8147.0603    27507.189   -250.12284   -3550.6849    75.557526 
   51100    505.28332   -163.90704   0.45719097   -163.44985   -6360.7688    4.2276154    4.2276154    4.2276154   -6360.7688   -1947.0349   -9429.5011   -7705.7705    23964.627   -4338.8544   -3369.9459    75.559037 
   51200    638.20599   -164.02618   0.57746219   -163.44871   -2691.2315    4.2198291    4.2198291    4.2198291   -2691.2315   -7608.8338    869.32745   -1334.1881    28453.678   -5782.1039   -8147.1529    75.142318 
   51300    589.19614   -163.98427   0.53311705   -163.45115   -5948.7849    4.2249603    4.2249603    4.2249603   -5948.7849   -19473.224   -23733.216    25360.085    24544.474   -774.55554   -8824.4308    75.416764 
   51400    482.16265   -163.88534    0.4362709   -163.44907   -7774.3861    4.2323978    4.2323978    4.2323978   -7774.3861   -10126.484   -9938.6827   -3257.9911    23662.868   -3347.6524   -191.84286    75.815752 
   51500    508.38851   -163.90642   0.46000061   -163.44642    1524.1276    4.2166554    4.2166554    4.2166554    1524.1276    13358.572   -16954.169    8167.9802    16190.689    1710.2971    -15375.26    74.972905 
   51600    585.36148   -163.97883   0.52964737   -163.44918   -1685.3217    4.2233538    4.2233538    4.2233538   -1685.3217   -3266.6639   -15634.001    13844.699    7528.4372   -2386.8946    -1758.402    75.330769 
   51700    662.80932   -164.04609    0.5997238   -163.44636   -6598.7576    4.2337543    4.2337543    4.2337543   -6598.7576     3038.009   -12130.998   -10703.284    2234.0125    389.36463   -4658.5441    75.888674 
   51800    847.98137   -164.21179   0.76727137   -163.44452    11173.212    4.2161769    4.2161769    4.2161769    11173.212    27948.002    9750.0372   -4178.4015   -3185.1656   -331.03001   -10838.876    74.947385 
   51900    1018.0561   -164.36781   0.92115854   -163.44666    10549.082    4.2204902    4.2204902    4.2204902    10549.082    1209.1414     29467.71    970.39313   -4483.0381   -3029.3947    3250.1743     75.17764 
   52000    969.40393   -164.32238   0.87713705   -163.44525   -3629.6812    4.2337525    4.2337525    4.2337525   -3629.6812   -4955.5398   -978.56044   -4954.9433   -9398.7775   -732.62507   -3004.2673    75.888578 
   52100     869.5739   -164.23021   0.78680874    -163.4434    9661.9997    4.2200665    4.2200665    4.2200665    9661.9997    22570.707    12090.046   -5674.7533   -7294.3634   -3119.8089    1161.1251    75.155003 
   52200    858.87436   -164.22193   0.77712757   -163.44481    8497.0955    4.2177588    4.2177588    4.2177588    8497.0955    5897.3675    19017.908     576.0112   -4401.0206   -3868.2557   -2849.0553    75.031776 
   52300     849.4192   -164.21585   0.76857235   -163.44728   -14506.764    4.2332341    4.2332341    4.2332341   -14506.764   -13820.086   -16925.143   -12775.062     528.3127   -2746.6736    5794.8112    75.860701 
   52400    823.97443    -164.1927   0.74554938   -163.44715    3067.4903    4.2220216    4.2220216    4.2220216    3067.4903    16436.198   -977.52654   -6256.2006    8288.5997   -967.08652    1615.3589    75.259503 
   52500    840.34735   -164.20871   0.76036394   -163.44834    3694.0885    4.2152513    4.2152513    4.2152513    3694.0885   -8860.2959    12609.499     7333.062    12768.285   -6974.3459   -3309.6723     74.89803 
   52600     674.8204   -164.06092   0.61059168   -163.45033   -14201.778     4.233296     4.233296     4.233296   -14201.778    -21804.85   -14316.634   -6483.8499    21491.084   -1175.5229    3484.2508    75.864029 
   52700    433.02472   -163.84231   0.39180987    -163.4505    5672.2204    4.2219345    4.2219345    4.2219345    5672.2204    4201.4031    739.22505    12076.033    27016.296    -731.5418    -1049.351    75.254845 
   52800    416.15498   -163.82551   0.37654577   -163.44896   -107.99458    4.2173717    4.2173717    4.2173717   -107.99458   -5456.6513   -7470.0083    12602.676    29778.506    564.09174   -3890.1149     75.01112 
   52900    370.00887   -163.78515    0.3347918   -163.45036    -818.9937    4.2302806    4.2302806    4.2302806    -818.9937    6234.9436   -8168.3293   -523.59544    27605.252   -1171.0019   -5491.1499     75.70203 
   53000    412.10928   -163.82297   0.37288514   -163.45008    6111.2504    4.2243101    4.2243101    4.2243101    6111.2504    6384.5446    582.87282    11366.334    20645.135    2106.0613   -640.67542    75.381951 
   53100    647.82114    -164.0338   0.58616219   -163.44764    6611.8074    4.2187251    4.2187251    4.2187251    6611.8074    10941.552    3033.7853    5860.0847    20587.911    2985.0034   -8258.1908    75.083358 
   53200    733.82698   -164.11298   0.66398207     -163.449    -5349.293    4.2288916    4.2288916    4.2288916    -5349.293    2669.0662   -10034.791   -8682.1538    6771.3573    1033.6076   -8065.4744    75.627484 
   53300    586.53313   -163.97936    0.5307075   -163.44865   -3127.4799     4.225765     4.225765     4.225765   -3127.4799   -7451.6867   -11704.284     9773.531    7231.5086    948.41506    239.48474    75.459866 
   53400     625.4635   -164.01195   0.56593252   -163.44602    4795.4622    4.2196346    4.2196346    4.2196346    4795.4622    12918.716   -5478.5389     6946.209    526.21181    179.69329    -5003.925     75.13193 
   53500    771.31168   -164.14373   0.69789902   -163.44584   -17528.719     4.228042     4.228042     4.228042   -17528.719   -9307.9319   -29546.398   -13731.826   -7126.0224   -2431.9359   -190.77181    75.581911 
   53600    856.34164   -164.22099   0.77483591   -163.44615   -2427.6685    4.2258039    4.2258039    4.2258039   -2427.6685    2555.1325   -8505.8747   -1332.2635   -1811.9095    742.05829    305.36095    75.461948 
   53700    1034.9046   -164.38202   0.93640341   -163.44561    6016.9683    4.2224526    4.2224526    4.2224526    6016.9683    11992.036    10794.663   -4735.7951   -9985.4724   -726.16969    6025.3155    75.282554 
   53800    1191.5267   -164.52465    1.0781184   -163.44653   -6256.4451     4.225594     4.225594     4.225594   -6256.4451    -4642.667    11439.972    -25566.64   -4886.9193   -843.08739    202.86536    75.450703 
   53900     1073.104    -164.4185   0.97096704   -163.44754     800.0819    4.2250458    4.2250458    4.2250458     800.0819    3957.5283    8811.4482   -10368.731   -5316.4101   -2925.5852   -2629.2247    75.421341 
   54000    851.92782   -164.21637   0.77084219   -163.44553   -3760.1179    4.2260072    4.2260072    4.2260072   -3760.1179   -454.61088   -12719.123    1893.3804    687.06332    -1163.822    5454.3922    75.472842 
   54100    639.84775   -164.02482   0.57894769   -163.44587   -10703.331    4.2231994    4.2231994    4.2231994   -10703.331   -6321.9994   -14753.479   -11034.515    1118.6383   -280.45812   -3240.3247    75.322508 
   54200    488.72762   -163.89147   0.44221102   -163.44926   -4262.7012    4.2235574    4.2235574    4.2235574   -4262.7012    5934.7772   -22335.809     3612.928    5951.6117    279.24083   -7122.1576    75.341662 
   54300    518.60509    -163.9199   0.46924478   -163.45066   -8099.9476    4.2269807    4.2269807    4.2269807   -8099.9476   -3907.1291   -27503.885    7111.1718     16178.65   -1570.5789   -2366.9669    75.525013 
   54400    633.82428   -164.02357   0.57349753   -163.45007   -6148.4319    4.2236447    4.2236447    4.2236447   -6148.4319   -3880.6167   -14933.012    368.33316    14869.602    1412.8545   -4639.7703    75.346337 
   54500    572.70791   -163.96931   0.51819815   -163.45111    11143.228    4.2225161    4.2225161    4.2225161    11143.228    17865.973    3028.2151    12535.497    24196.183    3204.7148   -7865.3679    75.285953 
   54600    483.57257   -163.88845   0.43754662    -163.4509    428.61401    4.2271397    4.2271397    4.2271397    428.61401    752.17596   -4514.9988    5048.6648    33737.078   -2131.8167   -8033.5531    75.533532 
   54700    463.49184   -163.86747   0.41937716    -163.4481   -2814.3548    4.2241341    4.2241341    4.2241341   -2814.3548   -974.94033   -20606.932    13138.808    26837.821    796.44483   -2642.5993    75.372528 
   54800    352.53734   -163.76672   0.31898319   -163.44774    8871.7434    4.2224186    4.2224186    4.2224186    8871.7434    22934.039   -11913.771    15594.963    25332.928    3837.4013   -2856.5991    75.280734 
   54900    392.00942   -163.80198   0.35469836   -163.44728   -5330.8827    4.2289524    4.2289524    4.2289524   -5330.8827    7446.3875   -20014.981    -3424.055    33613.486   -463.34122    333.25231    75.630746 
   55000    706.57616   -164.08621   0.63932496   -163.44688    2035.6653     4.223174     4.223174     4.223174    2035.6653    6846.4095   -12527.756    11788.342    17615.522   -1992.2484    4261.8978    75.321145 
   55100    885.46349   -164.24787   0.80118598   -163.44668   -2485.0979    4.2228666    4.2228666    4.2228666   -2485.0979   -4405.6881    3976.2947   -7025.9005    11773.434    3986.6958    6956.3419    75.304701 
   55200    890.77885   -164.25321   0.80599542   -163.44721   -1897.6017    4.2278628    4.2278628    4.2278628   -1897.6017    3063.2057    3772.6087    -12528.62     13280.99    4295.9285     9072.962    75.572304 
   55300     801.0345   -164.17032   0.72479285   -163.44553    5438.3077    4.2257239    4.2257239    4.2257239    5438.3077     1447.348    12722.731    2144.8445   -1553.8624   -3293.5555      9805.01    75.457663 
   55400    782.06561   -164.15002    0.7076294   -163.44239   -3417.4935    4.2218219    4.2218219    4.2218219   -3417.4935   -6079.4549    3675.9654   -7848.9909   -6660.4266     1980.717     1718.409    75.248827 
   55500    756.23802   -164.12775   0.68426005   -163.44349   -277.14124    4.2263502    4.2263502    4.2263502   -277.14124    9065.2124   -4249.7611    -5646.875   -8577.5754    1989.6933   -855.00749    75.491219 
   55600    797.11472   -164.16494   0.72124615   -163.44369    6627.1752    4.2275624    4.2275624    4.2275624    6627.1752    9460.0779      15754.9    -5333.452   -7237.4925   -2294.6196     -3018.06    75.556197 
   55700    971.14112   -164.32351   0.87870889    -163.4448     3030.008    4.2216692    4.2216692    4.2216692     3030.008    11101.009    9143.9574   -11154.943   -13117.107    262.96653   -11069.391    75.240663 
   55800    1009.8474   -164.36128   0.91373119   -163.44755    8076.6856    4.2256577    4.2256577    4.2256577    8076.6856    6166.4276    28022.726   -9959.0969   -4528.8856   -1244.3239   -11148.285    75.454119 
   55900    904.60801     -164.266   0.81850834   -163.44749   -2322.0528    4.2258015    4.2258015    4.2258015   -2322.0528     4718.951    1590.7452   -13275.855    3696.0993    2982.3113   -11672.318    75.461823 
   56000    743.14215    -164.1192   0.67241064   -163.44679   -5692.6338    4.2268452    4.2268452    4.2268452   -5692.6338    3940.4386   -16807.505   -4210.8346   -883.82291   -1964.4364   -3704.6944    75.517746 
   56100    539.72778   -163.93617   0.48835704   -163.44781   -1452.0134    4.2212908    4.2212908    4.2212908   -1452.0134   -2692.0769   -7712.1252     6048.162    16451.387   -1115.7373   -729.05399    75.220432 
   56200    406.81712   -163.81854   0.36809668   -163.45044   -10074.475     4.226839     4.226839     4.226839   -10074.475   -2422.8772   -22773.266   -5027.2824    17938.235    2147.1477    177.62538    75.517416 
   56300    513.95692   -163.91366   0.46503902   -163.44862   -4778.4449    4.2289875    4.2289875    4.2289875   -4778.4449    5535.9994   -26874.954    7003.6202     20689.43    285.99372    6845.1707    75.632631 
   56400    630.05859   -164.01863   0.57009026   -163.44854   -4208.1379    4.2176098    4.2176098    4.2176098   -4208.1379   -9608.1014   -8023.2237    5006.9116    34151.234    2178.5288    8675.1896    75.023822 
   56500    553.49917   -163.95349   0.50081768   -163.45267   -1127.7259    4.2304636    4.2304636    4.2304636   -1127.7259    9360.9972   -2160.1262   -10584.049    28368.371   -2591.9944    7097.2276    75.711855 
   56600    592.40812   -163.98562   0.53602332    -163.4496   -7301.2419    4.2292009    4.2292009    4.2292009   -7301.2419   -7667.7822   -21180.319    6944.3755    29316.831    3404.8763    5814.1129    75.644078 
   56700    475.04874   -163.87749   0.42983408   -163.44766   -3537.3777     4.217058     4.217058     4.217058   -3537.3777   -141.46379   -24427.511    13956.842    27291.197   -74.406323    4220.2779     74.99438 
   56800    391.14486   -163.80462   0.35391609   -163.45071    2737.2257     4.231241     4.231241     4.231241    2737.2257     22995.18   -19286.721    4503.2183    25889.178   -2092.5415    -49.82661    75.753601 
   56900    610.52242   -163.99906   0.55241352   -163.44665   -16918.227    4.2291567    4.2291567    4.2291567   -16918.227   -29115.689   -27998.848    6359.8562    17236.057    2100.8919   -5293.1128    75.641707 
   57000    710.04268    -164.0869   0.64246154   -163.44444    701.04708      4.21841      4.21841      4.21841    701.04708    7675.4577   -5480.8777   -91.438791    12146.934     1207.045   -5377.9108    75.066535 
   57100    788.14249   -164.16117   0.71312789   -163.44804    8381.4392    4.2266409    4.2266409    4.2266409    8381.4392    12119.501    23963.765   -10938.948    5147.5265    492.09243   -8326.4052    75.506798 
   57200    950.28353   -164.30581    0.8598365   -163.44597   -16219.975    4.2303927    4.2303927    4.2303927   -16219.975   -17225.349   -8315.0368    -23119.54    2310.9177   -566.44095   -10232.195    75.708049 
   57300    948.31074    -164.3025   0.85805149   -163.44445    13411.862    4.2162394    4.2162394    4.2162394    13411.862    23604.823     14734.73     1896.031   -8285.8976    4783.7824    -9893.896    74.950719 
   57400    770.23443   -164.14396    0.6969243   -163.44703    3344.2393    4.2268505    4.2268505    4.2268505    3344.2393    22247.324   -1558.5926   -10656.014   -7427.7476   -1586.9151    82.884203    75.518032 
   57500    746.62184   -164.11987   0.67555913   -163.44431    717.59638    4.2299273    4.2299273    4.2299273    717.59638   -136.94144    22490.499   -20200.769   -3269.0101   -912.28294   -1833.6005    75.683064 
   57600    894.84218   -164.25318   0.80967201   -163.44351     11728.96    4.2187775    4.2187775    4.2187775     11728.96    16977.559    10225.367    7983.9538   -14967.147    -686.4569   -2839.8965    75.086157 
   57700    799.82478   -164.17117   0.72369827   -163.44747    3760.9941    4.2272598    4.2272598    4.2272598    3760.9941    3324.3979    27943.285   -19984.701   -702.46459   -2675.1866     7436.798    75.539973 
   57800    813.93798   -164.18484   0.73646819   -163.44837   -101.53201    4.2285098    4.2285098    4.2285098   -101.53201    4826.7608    22127.265   -27258.621    1217.4895    946.29881       3877.3    75.607004 
   57900    819.88619    -164.1899   0.74185025   -163.44805    2096.7024    4.2221044    4.2221044    4.2221044    2096.7024   -2720.3768    521.24372    8489.2404    1996.5366   -1218.1572    2191.2069     75.26393 
   58000    640.83823   -164.02952   0.57984389   -163.44967    362.01146    4.2236503    4.2236503    4.2236503    362.01146   -16352.769    21813.949   -4375.1456    17371.509    5101.8215   -5237.0316    75.346636 
   58100    604.63378   -163.99774   0.54708535   -163.45066   -9560.7347    4.2299047    4.2299047    4.2299047   -9560.7347    222.48019    -19485.07   -9419.6147     20293.78    4876.7423    1464.5683    75.681852 
   58200    628.72445   -164.01776   0.56888309   -163.44888   -426.60299    4.2206716    4.2206716    4.2206716   -426.60299    -11889.03   -13891.143    24500.365    27062.546    3753.0723     1026.325    75.187333 
   58300    536.65943     -163.936   0.48558073   -163.45042   -4937.3352    4.2249451    4.2249451    4.2249451   -4937.3352    95.703965   -11269.368    -3638.342    24877.592    4062.6676    -10432.55    75.415953 
   58400    500.47327   -163.90198   0.45283873   -163.44914   -3506.1378    4.2312213    4.2312213    4.2312213   -3506.1378   -2001.8123    8273.5523   -16790.153    32178.912   -1262.4016    687.59996    75.752545 
   58500    614.18349   -164.00132   0.55572613   -163.44559     4989.924    4.2166846    4.2166846    4.2166846     4989.924    10237.671   -11181.053    15913.154    24846.893    3613.5327    -4459.653    74.974459 
   58600     640.7896   -164.02653   0.57979989   -163.44673   -13291.653    4.2311968    4.2311968    4.2311968   -13291.653    1029.1728   -33820.231   -7083.8994    16869.065    -3393.678   -3451.7821    75.751228 
   58700    651.08573    -164.0357   0.58911606   -163.44658    2578.1068    4.2262211    4.2262211    4.2262211    2578.1068    15788.428   -8350.4709    296.36293    17957.655   -2134.8399   -6228.5853    75.484304 
   58800    735.19603    -164.1115   0.66522082   -163.44628   -3947.2269    4.2197336    4.2197336    4.2197336   -3947.2269    10509.437   -27704.552    5353.4351    7213.2583   -1076.7326    2998.3461    75.137218 
   58900    760.41541     -164.135   0.68803984   -163.44696   -1199.3277    4.2274308    4.2274308    4.2274308   -1199.3277    4984.1248   -3713.2663   -4868.8418    -2002.548    2229.5929    233.61528    75.549139 
   59000    719.91732   -164.09827   0.65139632   -163.44688   -5279.5153    4.2273733    4.2273733    4.2273733   -5279.5153     14837.02    -256.6843   -30418.882   -3544.5417    3040.8618    2084.1768    75.546056 
   59100     770.2291   -164.14222   0.69691947    -163.4453    2469.7662    4.2207659    4.2207659    4.2207659    2469.7662    12531.409    14583.107   -19705.218   -6652.9027    920.40681    9871.9591    75.192371 
   59200    780.76544   -164.15335   0.70645298    -163.4469    12421.944     4.221785     4.221785     4.221785    12421.944    18949.255    21358.722    -3042.145   -11845.892     7577.839    1663.7162     75.24685 
   59300    797.33996   -164.16819   0.72144995   -163.44674   -6294.3795    4.2329162    4.2329162    4.2329162   -6294.3795    1931.0924    10756.515   -31570.746     -5977.24    3590.0699    7396.1192    75.843613 
   59400     887.3369   -164.24828   0.80288108    -163.4454    19340.067    4.2168197    4.2168197    4.2168197    19340.067    26914.609     20888.15    10217.442   -3949.1571    7532.9971    2900.9098    74.981668 
   59500    904.38426   -164.26621   0.81830588    -163.4479   -2274.9199    4.2234986    4.2234986    4.2234986   -2274.9199   -4066.9243   -10874.969     8117.134    1458.6509    4768.3875    5519.6331    75.338515 
   59600     749.9639    -164.1254    0.6785831   -163.44682   -8821.8181    4.2316766    4.2316766    4.2316766   -8821.8181   -7938.4353    7204.4529   -25731.472     9662.614    10415.438    1979.7945    75.777003 
   59700     656.0287    -164.0391   0.59358855   -163.44551    11810.605    4.2161737    4.2161737    4.2161737    11810.605    20413.725    12670.221    2347.8682    13619.052    4710.0827   -2224.1047    74.947214 
   59800    623.37049   -164.01258   0.56403872   -163.44854   -14270.616     4.224329     4.224329     4.224329   -14270.616   -18812.019   -13583.661   -10416.167    19197.338    -376.1091   -1112.4904    75.382962 
   59900    543.13371   -163.94017    0.4914388   -163.44873   -5009.2005    4.2314597    4.2314597    4.2314597   -5009.2005    22009.214   -21626.217   -15410.599    18365.724    1481.5612   -3507.9428    75.765351 
   60000     561.7839   -163.95632   0.50831388   -163.44801     2546.753    4.2176056    4.2176056    4.2176056     2546.753   -8890.9495   -6262.1111     22793.32    29450.623   -2324.5845   -1930.2014      75.0236 
   60100    587.67534   -163.98241     0.531741   -163.45067   -678.83624    4.2239725    4.2239725    4.2239725   -678.83624   -6896.1688    -5367.975    10227.635    20376.795   -912.38041   -2843.8358    75.363881 
   60200    612.08526    -164.0023    0.5538276   -163.44847   -9520.2217      4.23306      4.23306      4.23306   -9520.2217    8170.5718   -29417.485   -7313.7523    24147.959     1564.437    207.47756    75.851345 
   60300    506.86783   -163.90548   0.45862466   -163.44686    4040.0304    4.2172121    4.2172121    4.2172121    4040.0304   -2524.2221    6604.5442    8039.7691    28920.168   -1222.9712    3368.9287    75.002601 
   60400    518.64273   -163.91896   0.46927884   -163.44968    6248.0537     4.225277     4.225277     4.225277    6248.0537     31086.72    6203.7519   -18546.311    10196.155    1466.8121    2645.0741    75.433725 
   60500    726.62633   -164.10488   0.65746677   -163.44742    -18168.19    4.2324403    4.2324403    4.2324403    -18168.19   -3371.4179   -22485.003   -28648.148    12729.228    2890.3439     3203.253    75.818034 
   60600    746.46887   -164.12168   0.67542073   -163.44626    12691.869    4.2165433    4.2165433    4.2165433    12691.869    23369.288    20031.013   -5324.6937    1009.2955    4642.7272    5008.1984    74.966922 
   60700    857.69192   -164.22471   0.77605768   -163.44865    2606.4182    4.2266037    4.2266037    4.2266037    2606.4182    18212.193    3004.4061   -13397.345   -4548.1949    4583.6279    2596.1895    75.504803 
   60800    1052.6806   -164.39989   0.95248754    -163.4474   -12227.056    4.2306055    4.2306055    4.2306055   -12227.056   -4631.6976   -20554.078   -11495.392   -5103.5096   -2957.3703    206.99643    75.719472 
   60900    965.27576   -164.32018   0.87340179   -163.44678    15362.139    4.2164631    4.2164631    4.2164631    15362.139    19619.033    29405.405   -2938.0198   -12625.817    6253.2595    1572.2868    74.962649 
   61000    871.32858   -164.23787   0.78839641   -163.44948   -9844.1988    4.2293498    4.2293498    4.2293498   -9844.1988   -16519.022    17646.063   -30659.637   -622.33562    -5379.089    1378.6863    75.652073 
   61100     793.6503   -164.16641   0.71811147    -163.4483   -6486.1742    4.2293587    4.2293587    4.2293587   -6486.1742    19905.541   -6656.8846   -32707.179    1493.4483   -2132.0888    735.63948     75.65255 
   61200    683.43769   -164.06655   0.61838878   -163.44816    1846.3358    4.2189069    4.2189069    4.2189069    1846.3358     6524.538    14570.607   -15556.138    6425.4508    1204.0996    -2192.037    75.093066 
   61300    660.72466    -164.0485   0.59783756   -163.45066   -8156.5062    4.2290347    4.2290347    4.2290347   -8156.5062    595.77491   -10838.338   -14226.955    14425.816   -7184.5086      2822.43    75.635165 
   61400    628.39785   -164.01815   0.56858758   -163.44956   -3454.2332    4.2280129    4.2280129    4.2280129   -3454.2332   -4816.7901   -12217.974    6672.0642    17479.785   -5265.3618    -1929.753    75.580352 
   61500    573.14569   -163.96744   0.51859427   -163.44885   -3322.0882     4.218585     4.218585     4.218585   -3322.0882   -16221.131   -12071.259    18326.125    25823.749   -4876.6819   -3424.7128    75.075879 
   61600    419.88298   -163.83208   0.37991894   -163.45217   -6620.6708    4.2273653    4.2273653    4.2273653   -6620.6708    3341.3835   -19065.169   -4138.2269    30662.062   -5764.3121   -3555.8731    75.545628 
   61700    259.54066   -163.68604   0.23483785    -163.4512   -5916.3777    4.2259627    4.2259627    4.2259627   -5916.3777   -12666.615    4126.1336   -9208.6519    25296.064   -934.06094    1351.9543    75.470459 
   61800     275.1963   -163.69942    0.2490034   -163.45041   -644.59605    4.2188437    4.2188437    4.2188437   -644.59605    9680.6846   -3174.7067    -8439.766    28386.814   -3274.1433    2781.9858    75.089689 
   61900    363.77992   -163.78037   0.32915571   -163.45122   -2591.5036    4.2267773    4.2267773    4.2267773   -2591.5036    12048.808    152.70022   -19976.019    25805.931    528.58621   -3552.0979     75.51411 
   62000    545.84387   -163.94422   0.49389101   -163.45033    816.47186    4.2255531    4.2255531    4.2255531    816.47186    16619.648    -8739.503   -5430.7295    15491.668    2059.9327    1975.4913    75.448512 
   62100     739.1621   -164.11752    0.6688094   -163.44871    5306.3594    4.2210054    4.2210054    4.2210054    5306.3594     12283.08   -1578.1051    5214.1035    11451.387   -4844.4074    3100.1582    75.205176 
   62200    806.73858   -164.17899   0.72995402   -163.44904    12550.631    4.2232327    4.2232327    4.2232327    12550.631    21900.913    17078.611   -1327.6309   -180.88156    4251.1087   -110.87745    75.324286 
   62300     859.9721   -164.22558   0.77812083   -163.44746   -2071.5554    4.2272687    4.2272687    4.2272687   -2071.5554    28883.634    -13599.38   -21498.921   -3310.1205   -3762.8173    8014.3011    75.540452 
   62400    966.53755   -164.31986   0.87454349   -163.44531   -3645.2145    4.2231729    4.2231729    4.2231729   -3645.2145    11408.151    3625.9984   -25969.793   -8259.3278    1710.7923    15.685399     75.32109 
   62500    891.64558   -164.25246   0.80677966   -163.44568    6091.3848    4.2198344    4.2198344    4.2198344    6091.3848    30537.778    15981.421   -28245.045   -5639.0536   -3977.8759    3391.9149    75.142602 
   62600    982.78262   -164.33525   0.88924237   -163.44601    -10223.82    4.2310322    4.2310322    4.2310322    -10223.82    13143.566   -7169.7013   -36645.325   -5213.9968   -3080.6344   -505.81882    75.742389 
   62700    1180.5361    -164.5134    1.0681739   -163.44522   -4099.5152    4.2239587    4.2239587    4.2239587   -4099.5152    4005.0959    -6088.226   -10215.416   -11033.023    3989.1043    -357.2115    75.363139 
   62800    1031.9614   -164.38011   0.93374037   -163.44637     5535.248    4.2200228    4.2200228    4.2200228     5535.248    7062.0839    2829.5074    6714.1526    7225.0172   -4825.4671    3152.9568    75.152666 
   62900    848.54867   -164.21479   0.76778467   -163.44701   -6438.8427     4.232458     4.232458     4.232458   -6438.8427    2804.8232   -7911.3611    -14209.99    3007.5613    6184.9214   -5378.4272    75.818987 
   63000    797.27823   -164.16679   0.72139409   -163.44539   -2592.2818    4.2212922    4.2212922    4.2212922   -2592.2818   -881.74416    3080.6714   -9975.7726     12042.73   -46.927713    2406.1742    75.220504 
   63100    539.90135   -163.93796   0.48851409   -163.44944    -6262.622    4.2197989    4.2197989    4.2197989    -6262.622    96.431372   -7044.8182   -11839.479    21663.186    6130.8224   -280.82175    75.140703 
   63200    386.39636   -163.80071   0.34961955   -163.45109   -7080.9871    4.2311244    4.2311244    4.2311244   -7080.9871    16914.981   -7196.4821   -30961.461    24928.175    3013.4106   -176.04326    75.747337 
   63300    479.39649   -163.88429   0.43376802   -163.45053   -6832.9688    4.2221412    4.2221412    4.2221412   -6832.9688   -15207.445    2196.2857    -7487.747    26507.593   -13.376791    3053.8757    75.265898 
   63400    480.95446   -163.88693    0.4351777   -163.45176   -7086.2959    4.2198196    4.2198196    4.2198196   -7086.2959   -17802.114   -18846.462    15389.689    31095.364    4941.0249    3416.9152    75.141812 
   63500    353.31632   -163.77264   0.31968803   -163.45296   -105.29313    4.2304169    4.2304169    4.2304169   -105.29313   -11933.459    12022.953   -405.37268    31964.085   -53.474875    339.95259    75.709348 
   63600    418.58508    -163.8302   0.37874457   -163.45145   -13245.091    4.2235985    4.2235985    4.2235985   -13245.091   -26029.063   -15746.907    2040.6985    27682.238   -851.98523    7993.6326    75.343863 
   63700    498.62037   -163.90036   0.45116219    -163.4492    5658.2317    4.2158825    4.2158825    4.2158825    5658.2317    522.81686    4461.5826    11990.296    22038.215   -2421.8729    2376.7129    74.931683 
   63800     466.7415   -163.87334   0.42231752   -163.45102   -5886.9855    4.2337333    4.2337333    4.2337333   -5886.9855    7312.9101    3723.6682   -28697.535    16128.179   -2113.6633    281.46817    75.887541 
   63900    673.65968   -164.05733   0.60954143   -163.44779    -5763.518    4.2240072    4.2240072    4.2240072    -5763.518    148.76722    -5352.633   -12086.688    10600.965   -891.28556    2561.0243    75.365736 
   64000    906.90017   -164.26509   0.82058233   -163.44451    15470.925    4.2129293    4.2129293    4.2129293    15470.925    20527.444    13677.813    12207.517   -1653.7564   -1721.8948    145.24401    74.774327 
   64100    877.15885   -164.23961   0.79367176   -163.44594   -10517.158    4.2357995    4.2357995    4.2357995   -10517.158    2160.2155   -10331.665   -23380.026   -5425.6777     1025.115    4523.3308    75.998701 
   64200    931.03092   -164.28592   0.84241635    -163.4435    387.70721    4.2237186    4.2237186    4.2237186    387.70721   -11968.645    14414.688   -1282.9208   -1247.2159     4848.662   -4391.4703    75.350291 
   64300    1080.5472   -164.41927    0.9777018   -163.44157    5725.4101    4.2154299    4.2154299    4.2154299    5725.4101    11868.207    5312.7751   -4.7511829   -13618.706    257.93792     4816.384    74.907554 
   64400    921.02729   -164.27754   0.83336484   -163.44417   -15046.457    4.2343179    4.2343179    4.2343179   -15046.457   -2659.8444    2155.9528   -44635.478   -5250.4798    3500.3427    2536.0652    75.918982 
   64500     867.3261   -164.22952   0.78477488   -163.44474    6632.7268    4.2226862    4.2226862    4.2226862    6632.7268    24948.602    15855.734   -20906.156   -3539.3732    2065.1287    1511.7795    75.295051 
   64600    985.96678   -164.33659   0.89212346   -163.44446    2468.6817    4.2178633    4.2178633    4.2178633    2468.6817    19341.859    641.93572    -12577.75   -3450.0684   -1722.1833    4454.3985    75.037354 
   64700    806.97292   -164.17621   0.73016605   -163.44605   -11362.352    4.2320141    4.2320141    4.2320141   -11362.352    5363.1167   -13795.505   -25654.668    6524.3053    2615.5866    8566.7294    75.795135 
   64800    601.16004   -163.99032   0.54394223   -163.44638    15633.569    4.2237086    4.2237086    4.2237086    15633.569    27716.142     9200.723    9983.8416    8914.9133   -114.01085    6345.4243    75.349754 
   64900    614.67999   -164.00194   0.55617537   -163.44576     3072.609    4.2161451    4.2161451    4.2161451     3072.609    182.66294    -7250.998    16286.162    19155.871    309.21307    4611.8299    74.945687 
   65000    584.40406   -163.97812   0.52878108   -163.44934   -4686.8766    4.2312337    4.2312337    4.2312337   -4686.8766    27830.335   -27865.053   -14025.911    15791.336   -1062.0183    2872.4653    75.753208 
   65100     464.6041   -163.87023   0.42038356   -163.44984     4591.407    4.2262007    4.2262007    4.2262007     4591.407    5355.5092    10381.095   -1962.3834    23985.165   -1421.3498    348.54656    75.483211 
   65200    541.26117   -163.93714   0.48974448   -163.44739    1410.7306     4.216141     4.216141     4.216141    1410.7306   -4467.1023   -5869.6469    14568.941    27798.385    2351.0731    3255.4469    74.945469 
   65300    570.93258   -163.96484    0.5165918   -163.44825   -8431.4818     4.230734     4.230734     4.230734   -8431.4818   -904.27551    -14150.41    -10239.76    16029.625    688.67506   -3540.7705    75.726373 
   65400    486.43883    -163.8877   0.44014007   -163.44756   -6759.7276    4.2249952    4.2249952    4.2249952   -6759.7276   -34062.552    8639.0626    5144.3065    23141.493   -2638.8925    2009.7396    75.418634 
   65500     571.6135   -163.96397   0.51720791   -163.44676    724.76786    4.2199944    4.2199944    4.2199944    724.76786   -21694.646    1054.4991     22814.45    16099.929    1034.5017    1994.8947    75.151149 
   65600    647.37311   -164.03245   0.58575679   -163.44669   -5084.0095    4.2284142    4.2284142    4.2284142   -5084.0095   -9369.7308    2371.4601   -8253.7577    11389.431   -6967.1334    4462.5719    75.601875 
   65700    642.25144   -164.02816    0.5811226   -163.44704   -4875.1534    4.2241172    4.2241172    4.2241172   -4875.1534   -8691.8479    4856.1641   -10789.777    11695.783    3090.9583    1350.7697    75.371627 
   65800     736.5426   -164.11344   0.66643923     -163.447    6791.7619    4.2205174    4.2205174    4.2205174    6791.7619    13687.067    10555.611   -3867.3921    5495.7623   -1953.7385    6046.6846    75.179094 
   65900    760.99731   -164.13541   0.68856636   -163.44685   -12090.882    4.2273737    4.2273737    4.2273737   -12090.882    2003.9694    87.986077     -38364.6   -1931.1757   -5112.5305     7247.992    75.546077 
   66000    669.30619   -164.05266    0.6056023   -163.44706   -4662.7049    4.2268038    4.2268038    4.2268038   -4662.7049    -15946.22    19377.414   -17419.309   -3240.2224    3743.8944    2704.9069     75.51553 
   66100    749.59635   -164.12372   0.67825053   -163.44547    9190.4993    4.2176565    4.2176565    4.2176565    9190.4993    4129.9187    18257.854    5183.7255   -3618.2043   -2033.6231    152.34805    75.026317 
   66200    878.34465    -164.2412    0.7947447   -163.44646   -18634.859    4.2294779    4.2294779    4.2294779   -18634.859   -19292.773    -13099.29   -23512.513   -13155.775    4877.3097   -659.74971    75.658944 
   66300    879.64016   -164.24138    0.7959169   -163.44546    526.89798    4.2275949    4.2275949    4.2275949    526.89798    7168.8095     3163.855   -8751.9706   -7412.3825   -2386.3187    2557.2012    75.557937 
   66400    882.36349   -164.24217   0.79838103   -163.44379    7924.0202    4.2161505    4.2161505    4.2161505    7924.0202    19437.454    8338.6401   -4004.0336    3370.8547    596.36888   -7716.5423    74.945973 
   66500     908.9365   -164.26813   0.82242484    -163.4457   -10901.426    4.2284756    4.2284756    4.2284756   -10901.426    3514.4892   -14045.438    -22173.33    -549.1119    2350.4634   -2418.8922    75.605167 
   66600    808.81223   -164.17743    0.7318303    -163.4456   -1996.4979    4.2263762    4.2263762    4.2263762   -1996.4979    7633.0874   -4886.8242   -8735.7569    10498.605   -5313.4703   -1287.8301    75.492615 
   66700    627.46164   -164.01492   0.56774047   -163.44718    428.66648    4.2186107    4.2186107    4.2186107    428.66648   -8035.4134    367.82636    8953.5865    21470.085    3395.0083   -2464.3099    75.077248 
   66800    613.29657   -164.00385   0.55492362   -163.44892   -5292.4286    4.2277598    4.2277598    4.2277598   -5292.4286   -3408.3759   -19448.422    6979.5118    24054.768   -3952.0828    4823.2246    75.566779 
   66900    622.14139   -164.01168    0.5629266   -163.44875   -8533.3667    4.2257696    4.2257696    4.2257696   -8533.3667   -20934.172   -11013.778    6347.8493     21461.04   -2460.7479    1819.3365    75.460111 
   67000    528.55739   -163.92711   0.47824983   -163.44886   -3031.5594    4.2210011    4.2210011    4.2210011   -3031.5594   -7587.6756   -20911.295    19404.293     38208.24    221.51938    7957.4288    75.204945 
   67100    458.04513   -163.86424   0.41444886   -163.44979    2225.3349     4.226872     4.226872     4.226872    2225.3349    13812.337   -2405.9815   -4730.3512     30812.25    563.62462    5116.5756    75.519187 
   67200    464.34354   -163.86775   0.42014779   -163.44761   -12893.144    4.2267871    4.2267871    4.2267871   -12893.144   -19949.531    5569.4864   -24299.387    22172.841    2404.1377    4211.8578    75.514634 
   67300    424.85748   -163.83203   0.38441997   -163.44761    3406.9823     4.218286     4.218286     4.218286    3406.9823    -1047.896   -3757.8998    15026.743    25071.979   -1390.6037    4299.9552    75.059915 
   67400    415.80818     -163.827   0.37623198   -163.45076    5213.0708    4.2281759    4.2281759    4.2281759    5213.0708    4388.0625    17078.729   -5827.5787    17213.916    3601.7886     -651.941    75.589092 
   67500    619.94452   -164.01019   0.56093883   -163.44925   -3946.5271    4.2239445    4.2239445    4.2239445   -3946.5271   -5793.1721   -3432.1128   -2614.2965    11060.495   -1863.8835   -3449.9675     75.36238 
   67600    805.80653   -164.17673   0.72911068   -163.44762    14327.636    4.2170565    4.2170565    4.2170565    14327.636    10251.407    5478.7143    27252.787     2400.098   -1102.7515   -4048.7165    74.994301 
   67700    836.60339   -164.20447   0.75697633    -163.4475    65.570211    4.2306398    4.2306398    4.2306398    65.570211      14217.5    4714.3423   -18735.132    2985.0665    410.27544   -7432.2334    75.721318 
   67800    1000.8491    -164.3504   0.90558926   -163.44482   -378.34716    4.2243863    4.2243863    4.2243863   -378.34716    10410.299    7793.5004   -19338.841   -4275.7628   -6745.8575   -1298.8337    75.386029 
   67900    1115.4532   -164.45319    1.0092855    -163.4439    2912.7119     4.218155     4.218155     4.218155    2912.7119    3367.0882    12416.264   -7045.2161   -13512.015    2658.8775    -4531.879    75.052924 
   68000    982.54984   -164.33495   0.88903174   -163.44591   -6792.3814    4.2287649    4.2287649    4.2287649   -6792.3814    719.05564   -832.55492   -20263.645    -4827.085   -2391.2559    1561.2068    75.620687 
   68100    875.64072   -164.23717   0.79229812   -163.44487   -3999.7902     4.227818     4.227818     4.227818   -3999.7902     -13669.9    9802.9334   -8132.4044   -9147.4603    188.96277    3627.1344    75.569899 
   68200    871.66817   -164.23259   0.78870368   -163.44389    4383.3718     4.215509     4.215509     4.215509    4383.3718     494.9952    3334.0407    9321.0796   -6167.1581    561.20433    2974.5894     74.91177 
   68300    695.71505   -164.07959    0.6294976   -163.45009   -5665.1284    4.2272876    4.2272876    4.2272876   -5665.1284    -9965.926   -11102.894    4073.4349    4264.8086    112.17522    7808.3968    75.541463 
   68400    610.22864   -164.00192    0.5521477   -163.44977   -2654.6992    4.2278029    4.2278029    4.2278029   -2654.6992    6868.3159   -6549.6864   -8282.7272    8616.1839    7551.6352     4912.921    75.569092 
   68500     676.9523   -164.06061   0.61252067   -163.44809    5179.6943    4.2154159    4.2154159    4.2154159    5179.6943    1717.1966    16244.587   -2422.7007    16020.901   -581.23623    6147.7388    74.906809 
   68600    616.98245   -164.00931   0.55825869   -163.45105   -11506.263     4.227005     4.227005     4.227005   -11506.263   -19583.662   -16152.701    1217.5739    23754.244    5233.6258    2257.8476    75.526313 
   68700    416.40663   -163.82597   0.37677347   -163.44919    1200.9842    4.2294666    4.2294666    4.2294666    1200.9842    7640.2128    1169.2652   -5206.5255    31752.294   -1244.6207    1055.1736    75.658337 
   68800    415.06318   -163.82258   0.37555789   -163.44702   -5156.2102    4.2187854    4.2187854    4.2187854   -5156.2102   -15947.832   -11849.916    12329.117    30643.641    2770.8765    486.30018    75.086579 
   68900    441.88575   -163.84855   0.39982752   -163.44872   -3446.1134    4.2207052    4.2207052    4.2207052   -3446.1134   -44.178417    -35509.82    25215.658    27340.214    819.06263    -1980.779    75.189129 
   69000    409.56824   -163.82026   0.37058595   -163.44968   -3423.0944    4.2328209    4.2328209    4.2328209   -3423.0944    3251.8227    -14223.29    702.18436    24205.837   -5190.1268   -814.34438    75.838488 
   69100    603.55018   -163.99424   0.54610488   -163.44813   -2182.1058    4.2209944    4.2209944    4.2209944   -2182.1058   -5224.4808   -10890.473    9568.6359    22021.479     2293.687   -397.80663    75.204589 
   69200    840.96165   -164.20829   0.76091977   -163.44737     8690.023    4.2148255    4.2148255    4.2148255     8690.023    15387.995   -4596.5199    15278.594    9943.1916   -4534.5962   -600.27543    74.875341 
   69300    795.06949   -164.16795   0.71939558   -163.44856   -10328.999    4.2344148    4.2344148    4.2344148   -10328.999   -3895.8102   -12042.107   -15049.079    1164.0644    1156.0131    3832.0553    75.924196 
   69400    748.21973   -164.12263   0.67700493   -163.44563    1187.0765    4.2231986    4.2231986    4.2231986    1187.0765   -4328.7659    8066.9684   -176.97293    5300.6644   -1303.0251    853.62334    75.322464 
   69500    886.72446   -164.24533   0.80232693     -163.443    2657.2013     4.215633     4.215633     4.215633    2657.2013    13504.479   -7981.7132    2448.8378    -10452.55     2374.314    4047.1212    74.918383 
   69600    869.86775   -164.23156   0.78707462   -163.44449   -13324.599    4.2323373    4.2323373    4.2323373   -13324.599     1911.786   -24751.644   -17133.938    -6314.614     1415.504    2231.0039    75.812497 
   69700    870.62046   -164.23173   0.78775569   -163.44397    5489.1378    4.2254616    4.2254616    4.2254616    5489.1378    11605.071    13423.594   -8561.2512   -5294.0482   -65.895705    4979.1872    75.443613 
   69800    1093.2406   -164.43256   0.98918711   -163.44337    11947.754    4.2146556    4.2146556    4.2146556    11947.754    30599.338    10788.661   -5544.7388   -10560.997    2396.0988    4836.3938    74.866284 
   69900    1019.4368   -164.37148    0.9224078   -163.44907    -5162.398    4.2283709    4.2283709    4.2283709    -5162.398    3855.3477   -1722.9082   -17619.633   -7748.4645   -723.82872    1822.4011    75.599552 
   70000    737.78438   -164.11675   0.66756281   -163.44918     9062.873    4.2286776    4.2286776    4.2286776     9062.873    31661.629    8247.6216   -12720.632   -3694.6588   -1358.4616    6628.6337    75.616003 
   70100    607.05933   -163.99606   0.54928004   -163.44678    9238.5554    4.2139085    4.2139085    4.2139085    9238.5554    20120.014   -3690.6488    11286.301    3312.5406   -2684.6493     8615.627     74.82648 
   70200    507.82954   -163.91005   0.45949484   -163.45055   -3795.0004    4.2257255    4.2257255    4.2257255   -3795.0004    15767.931   -35090.216    7937.2839    5516.7588   -2313.8147    3646.1255    75.457752 
   70300    391.82065   -163.80464   0.35452756   -163.45011   -3775.3476    4.2302786    4.2302786    4.2302786   -3775.3476    8916.5271   -22158.881     1916.311    13848.834   -1807.3004    1172.6529    75.701925 
   70400    506.89397   -163.90646   0.45864831   -163.44781    7336.8666    4.2161513    4.2161513    4.2161513    7336.8666   -874.83113    1741.1945    21144.236    18241.223   -2154.2903    1708.7603    74.946017 
   70500    708.23215   -164.09034   0.64082333   -163.44951    -7826.949    4.2254646    4.2254646    4.2254646    -7826.949    2368.0381   -25971.133    122.24775    18930.383   -309.35626    4.8010854    75.443772 
   70600    670.48516   -164.05666   0.60666906   -163.44999    -5509.631    4.2274361    4.2274361    4.2274361    -5509.631   -22271.912    4306.9433     1436.076    27964.972    213.61704   -5803.9214    75.549423 
   70700    641.44868   -164.02839   0.58039625   -163.44799    3578.3481    4.2213383    4.2213383    4.2213383    3578.3481   -9568.3646     2265.617    18037.792    24821.201    4234.9135   -4716.2411    75.222968 
   70800    675.81649   -164.05813   0.61149296   -163.44664   -8695.2167    4.2229725    4.2229725    4.2229725   -8695.2167    4993.0947   -27988.144   -3090.6005    21132.781    1549.4884   -1410.4057    75.310368 
   70900    576.25514   -163.96937   0.52140776   -163.44796   -3779.5578    4.2249828    4.2249828    4.2249828   -3779.5578    -1249.457   -13696.957    3607.7405    15404.078    4658.6984    -91.46008    75.417968 
   71000    607.98595   -163.99816   0.55011846   -163.44804    2345.6029     4.223241     4.223241     4.223241    2345.6029    11199.644   -10773.727    6610.8919     10227.22    7603.1509   -1793.7663    75.324733 
   71100    802.33239   -164.17337   0.72596721   -163.44741   -1242.9529    4.2231824    4.2231824    4.2231824   -1242.9529    16948.971   -8931.8448   -11745.985   -1143.3481    4183.3661    1776.9174    75.321596 
   71200    848.47959   -164.21509   0.76772217   -163.44737   -864.97025    4.2258696    4.2258696    4.2258696   -864.97025   -9247.7156    9950.7532   -3297.9483   -7356.5233    1277.0141    5826.7357    75.465469 
   71300    759.68045   -164.13378   0.68737484    -163.4464     2903.388    4.2235451    4.2235451    4.2235451     2903.388   -8236.1503    24243.259    -7296.945   -6380.3284    2657.7644    6053.4942    75.341003 
   71400    732.78434   -164.10843   0.66303867   -163.44539   -85.767111    4.2236804    4.2236804    4.2236804   -85.767111    6964.1579    3612.2205    -10833.68   -14198.726    2919.2693    4763.2137    75.348244 
   71500    649.67501    -164.0346    0.5878396   -163.44676   -7849.4309    4.2236078    4.2236078    4.2236078   -7849.4309    -15755.25   -11191.228    3398.1854   -15555.488   -7985.5129    7112.4384    75.344358 
   71600    568.64924   -163.96217   0.51452578   -163.44764    4071.1719    4.2259588    4.2259588    4.2259588    4071.1719     14387.07   -808.61042    -1364.944   -4694.8519   -5422.4093    4405.4203    75.470248 
   71700    766.86737   -164.13917   0.69387771    -163.4453   -8827.4714    4.2270633    4.2270633    4.2270633   -8827.4714    3112.8493   -20450.181   -9145.0827   -2620.4836   -2421.9811    1313.3454    75.529438 
   71800    919.66072   -164.27753   0.83212835    -163.4454    2934.7935    4.2162324    4.2162324    4.2162324    2934.7935   -2462.4846    5523.0814    5743.7836   -1248.3952   -13751.927   -1578.5729    74.950343 
   71900     860.9835   -164.22861   0.77903597   -163.44958    3422.5465    4.2278255    4.2278255    4.2278255    3422.5465   -2665.6928    11923.432       1009.9    10596.713    -2964.577   -2122.3989    75.570301 
   72000    816.01799   -164.18487   0.73835023   -163.44652   -8881.9119    4.2287813    4.2287813    4.2287813   -8881.9119   -25888.611    8195.2797   -8952.4047    12964.124   -4515.2697   -4225.2585    75.621566 
   72100    737.93562   -164.11121   0.66769965   -163.44351     2309.942    4.2162499    4.2162499    4.2162499     2309.942   -1786.9782     7273.867    1442.9371    11627.559    668.39211     -5625.93    74.951276 
   72200    533.11535    -163.9288   0.48237397   -163.44642   -4628.9986    4.2269798    4.2269798    4.2269798   -4628.9986   -15677.557   -16043.758    17834.319    15515.274    6183.0065   -2159.5482    75.524964 
   72300    488.55476   -163.88754   0.44205462   -163.44548   -1834.3653    4.2270698    4.2270698    4.2270698   -1834.3653      -3281.9    2012.8194   -4234.0153    14903.685    9347.6753    1172.2688    75.529788 
   72400    624.75964   -164.01017   0.56529565   -163.44488    2633.3025    4.2193084    4.2193084    4.2193084    2633.3025    11970.106     1330.351   -5400.5494    7575.0553    18098.006    2172.3969    75.114506 
   72500    691.29156     -164.074   0.62549513   -163.44851    1664.5954    4.2228479    4.2228479    4.2228479    1664.5954   -8447.3297    1046.2009    12394.915    617.44905    12225.706    846.08896    75.303698 
   72600    699.83175    -164.0828   0.63322247   -163.44958   -5264.0391    4.2292794    4.2292794    4.2292794   -5264.0391   -10155.067    22278.475   -27915.526    1506.0467    18997.831    10717.302     75.64829 
   72700      749.404   -164.12608   0.67807649     -163.448    2232.9831    4.2182072    4.2182072    4.2182072    2232.9831   -5491.9768    19928.148   -7737.2214   -4292.8342    13801.538    5957.2593    75.055707 
   72800    751.15762   -164.12887    0.6796632    -163.4492   -5983.9568    4.2212839    4.2212839    4.2212839   -5983.9568   -13700.852   -3919.8338    -331.1847   -8570.1492    3309.4761    5020.4381    75.220062 
   72900      635.196   -164.02311   0.57473869   -163.44837   -13847.431     4.231037     4.231037     4.231037   -13847.431   -6557.4146   -11943.802   -23041.076   -2263.1956    714.08859    534.98648    75.742643 
   73000    623.49296   -164.01026   0.56414954   -163.44611    8315.5739    4.2183531    4.2183531    4.2183531    8315.5739    10722.126    9981.5147    4243.0807    -1647.215   -12111.431    5219.2274    75.063499 
   73100    718.61362   -164.09689    0.6502167   -163.44668   -6504.9786    4.2227472    4.2227472    4.2227472   -6504.9786   -173.87835   -9208.8472    -10132.21   -1502.5133   -18054.859    635.34353    75.298314 
   73200    735.71342   -164.11177   0.66568896   -163.44608   -641.98359    4.2279818    4.2279818    4.2279818   -641.98359    5133.7932    -9715.528     2655.784    5643.7085    -20138.77   -4818.3504    75.578684 
   73300    715.31946   -164.09334   0.64723608   -163.44611    11417.276    4.2195994    4.2195994    4.2195994    11417.276    8010.5479    32295.046   -6053.7667    4564.4714   -23564.914   -1519.3773    75.130047 
   73400     715.3676    -164.0947   0.64727964   -163.44742     4918.819     4.222188     4.222188     4.222188     4918.819   -8116.1267    31981.611   -9109.0272    6072.2314   -19435.025   -4006.1741    75.268405 
   73500    720.87869   -164.09944   0.65226619   -163.44717    1571.4498    4.2267881    4.2267881    4.2267881    1571.4498   -7315.4298   -6596.3448    18626.124    1704.8734   -12354.961   -2732.9109    75.514689 
   73600    693.75398    -164.0746   0.62772318   -163.44687   -6749.7987    4.2217071    4.2217071    4.2217071   -6749.7987   -7405.2714   -2431.0516   -10413.073    2720.9623   -7029.7083   -3572.6043    75.242687 
   73700    628.90954   -164.01684   0.56905057   -163.44779    4697.0818    4.2201683    4.2201683    4.2201683    4697.0818   -9581.9367    13463.614    10209.568   -1613.3132    2449.8826    2797.3048    75.160442 
   73800    694.34279   -164.07662   0.62825595   -163.44837   -8025.4516    4.2272406    4.2272406    4.2272406   -8025.4516   -21152.462   -11244.336     8320.443   -6808.7453    13037.694     1699.155    75.538942 
   73900    813.08345   -164.18223     0.735695   -163.44654   -5763.6799    4.2225691    4.2225691    4.2225691   -5763.6799   -9863.7371    627.35032    -8054.653    -4140.545    12857.381    684.56074    75.288789 
   74000    833.69701   -164.20031   0.75434658   -163.44597    13069.792    4.2194672    4.2194672    4.2194672    13069.792     320.4704    23407.564    15481.341   -2608.4577    15603.733    4703.1371    75.122989 
   74100    835.37801   -164.20153   0.75586758   -163.44566   -1055.7573    4.2299662    4.2299662    4.2299662   -1055.7573   -9113.2849    18334.178   -12388.165   -757.07943    17211.232    9771.8902    75.685155 
   74200    878.90072   -164.23997   0.79524784   -163.44472    11342.533      4.22133      4.22133      4.22133    11342.533     18811.99    9945.4602    5270.1471    1274.7913    8437.6677     497.9708    75.222524 
   74300    883.49527   -164.24538   0.79940509   -163.44598    4544.6352    4.2188606    4.2188606    4.2188606    4544.6352    10554.349   -4858.6597    7938.2165     4155.729    4670.6308    4144.7442    75.090593 
   74400    751.38505   -164.12773   0.67986898   -163.44786   -8695.5671    4.2279251    4.2279251    4.2279251   -8695.5671    -16029.74   -5712.0076   -4344.9535    6422.5984   -1248.7299    5390.0756    75.575642 
   74500    626.57169   -164.01453   0.56693523   -163.44759    2499.7141    4.2226979    4.2226979    4.2226979    2499.7141   -9798.3998    3047.7437    14249.798    7399.8379   -6269.0469    365.40628    75.295675 
   74600    612.44731   -164.00257   0.55415519   -163.44842   -9761.9209    4.2200457    4.2200457    4.2200457   -9761.9209   -31500.289    12505.215   -10290.689     4403.947   -16220.357   -1115.8986     75.15389 
   74700    527.52399   -163.92793   0.47731479   -163.45061   -6764.3239    4.2251281    4.2251281    4.2251281   -6764.3239   -32760.466    15850.823   -3383.3283    1639.3409   -17573.155   -2722.8571    75.425752 
   74800     473.9767   -163.87898   0.42886408   -163.45012    1882.4185    4.2268326    4.2268326    4.2268326    1882.4185   -20389.792     33171.29   -7134.2428    -1878.312    -14973.42    1557.2337    75.517073 
   74900     628.1877   -164.01647   0.56839743   -163.44808   -2843.0354    4.2193374    4.2193374    4.2193374   -2843.0354    -19672.71    28925.828   -17782.224   -716.20079   -30799.534   -2840.2256    75.116054 
   75000    689.49337   -164.07382   0.62386809   -163.44996    4078.7917    4.2231395    4.2231395    4.2231395    4078.7917   -4798.6182    18533.517   -1498.5232   -2066.5831   -19278.512   -801.56464    75.319302 
   75100    631.28656   -164.02087   0.57120135   -163.44967    651.82806    4.2293507    4.2293507    4.2293507    651.82806   -19529.151    30992.734   -9508.0985    -4806.061   -19865.293    6378.3647     75.65212 
   75200     673.4129   -164.05598   0.60931814   -163.44667    -5277.346    4.2195369    4.2195369    4.2195369    -5277.346    -27200.88    25287.026   -13918.184    569.02107   -26414.718   -2248.2142    75.126711 
   75300    655.73991   -164.04029   0.59332725   -163.44696    157.25202    4.2203422    4.2203422    4.2203422    157.25202   -5508.0591    13291.809   -7311.9942   -407.62144    -13066.99     4509.044     75.16973 
   75400    585.66789   -163.97738   0.52992461   -163.44746   -10921.681    4.2292852    4.2292852    4.2292852   -10921.681   -30897.202    21842.804   -23710.646    3559.4861   -11828.104    4258.1769    75.648606 
   75500    668.40133   -164.05077   0.60478357   -163.44599   -3530.6352    4.2236762    4.2236762    4.2236762   -3530.6352   -23598.814    32085.663   -19078.755    8949.9235   -9369.4022     1709.448    75.348022 
   75600    755.22783   -164.12927   0.68334601   -163.44592    739.09901    4.2186394    4.2186394    4.2186394    739.09901    5852.8502   -2290.8119   -1344.7413    7767.8235   -3007.0554    3010.7027    75.078781 
   75700    663.19488   -164.04909   0.60007267   -163.44902   -3648.6295    4.2269482    4.2269482    4.2269482   -3648.6295    -22555.77    9850.8134    1759.0675    10766.555    2183.3952   -1382.8589    75.523269 
   75800    670.92322    -164.0562   0.60706543   -163.44913    -3507.308    4.2248046    4.2248046    4.2248046    -3507.308    -23519.89   -705.10541    13703.072    9862.7256    5418.5956    1176.9066    75.408425 
   75900    662.18279   -164.04659   0.59915691   -163.44744    1190.8044    4.2173928    4.2173928    4.2173928    1190.8044   -7345.4953   -3829.0118     14746.92    9833.7641    4654.1639   -1033.3861    75.012243 
   76000     580.8067   -163.97443    0.5255261    -163.4489   -7560.2623    4.2283752    4.2283752    4.2283752   -7560.2623   -31356.022     18236.05    -9560.814     3665.432    10006.321   -6322.2983    75.599783 
   76100    767.67021   -164.14197   0.69460414   -163.44736   -8995.7584    4.2238325    4.2238325    4.2238325   -8995.7584   -20521.485     1278.282   -7744.0719    4282.0078    6880.1003    2135.2537    75.356384 
   76200    940.85674   -164.29687   0.85130695   -163.44556    1743.1002    4.2167011    4.2167011    4.2167011    1743.1002   -1380.3908    19483.772   -12874.081   -667.03271    2978.9982   -8928.8152    74.975343 
   76300    972.54845   -164.32703   0.87998227   -163.44705   -4231.7589    4.2286014    4.2286014    4.2286014   -4231.7589   -15708.489    19314.822   -16301.609   -2752.4211    3117.0082   -3176.6881    75.611919 
   76400    1008.5991   -164.35696   0.91260167   -163.44436   -5190.4567     4.226019     4.226019     4.226019   -5190.4567   -15192.718     4067.179    -4445.831   -5412.1054   -5079.5572   -200.91871    75.473476 
   76500    903.90112   -164.26147   0.81786872    -163.4436    1503.1542     4.217931     4.217931     4.217931    1503.1542   -3443.4979    3938.7012    4014.2593   -1189.4211   -2144.8416    -3903.306    75.040963 
   76600    649.06425   -164.03499   0.58728697    -163.4477    2991.5883    4.2224607    4.2224607    4.2224607    2991.5883     -13333.5     16230.56    6077.7047   -4638.0755   -12552.464    3608.2177    75.282988 
   76700    591.28817   -163.98275   0.53500996   -163.44774   -8271.3081     4.228164     4.228164     4.228164   -8271.3081   -28290.449     14284.42   -10807.895     1658.031   -10334.777   -3328.9967    75.588456 
   76800    679.40824   -164.06152   0.61474285   -163.44677   -3548.8558    4.2211048    4.2211048    4.2211048   -3548.8558   -10748.551    7696.3138   -7594.3298    6551.7968   -12060.421    5229.1439     75.21049 
   76900    626.86495   -164.01656   0.56720058   -163.44936    3557.0394    4.2197424    4.2197424    4.2197424    3557.0394   -16169.581    28655.731   -1815.0317     5530.777   -16996.817    17.246825    75.137685 
   77000    716.67314   -164.09913   0.64846092   -163.45066   -5992.1396     4.227129     4.227129     4.227129   -5992.1396   -23266.847    7296.0898   -2005.6618    12611.003   -5743.9746     487.7989    75.532962 
   77100    802.81152   -164.17463   0.72640073   -163.44823   -2186.9616    4.2229541    4.2229541    4.2229541   -2186.9616     -8775.63   -642.66346    2857.4087    9342.2898   -9218.7823     4838.659    75.309382 
   77200    568.32588   -163.96222    0.5142332   -163.44798   -2427.8918    4.2210216    4.2210216    4.2210216   -2427.8918    -20767.99    12180.113    1304.2017    13090.337   -452.88658   -1571.0325    75.206041 
   77300    403.79953   -163.81416    0.3653663   -163.44879    3575.2451    4.2248484    4.2248484    4.2248484    3575.2451    -16095.53    7864.0093    18957.256    4167.5427    1373.2422   -105.30124    75.410771 
   77400    492.57581   -163.89281   0.44569294   -163.44712   -5056.9247    4.2231753    4.2231753    4.2231753   -5056.9247   -6407.1299    2520.7308   -11284.375    6618.9257    6970.7835   -3457.1876    75.321217 
   77500    511.76502   -163.91075   0.46305574   -163.44769     -3770.28    4.2219878    4.2219878    4.2219878     -3770.28   -11184.273    13959.266   -14085.833    1319.7989      15247.5   -3139.1569    75.257697 
   77600    557.68076   -163.95334   0.50460127   -163.44874    8683.9794     4.224192     4.224192     4.224192    8683.9794   -1922.9738    24238.369    3736.5431   -5996.4428    12639.047   -9950.2142    75.375628 
   77700    816.31075    -164.1866   0.73861512   -163.44799   -7183.6417    4.2234432    4.2234432    4.2234432   -7183.6417      1939.99    242.34924   -23733.264   -3457.9256    15513.795   -5510.4949    75.335552 
   77800    873.38657   -164.23816   0.79025852    -163.4479    3028.5818    4.2197162    4.2197162    4.2197162    3028.5818    1756.4604    2302.5654    5026.7198   -5392.2127    10910.565   -4506.1793    75.136287 
   77900    695.90804   -164.07815   0.62967222   -163.44847    821.22604     4.225322     4.225322     4.225322    821.22604   -5838.9954    14394.405   -6091.7313   -4352.0768    6756.3975   -6722.5416    75.436135 
   78000    685.30187    -164.0655   0.62007553   -163.44542   -6552.8969    4.2263385    4.2263385    4.2263385   -6552.8969   -8620.8471    2851.3492   -13889.193   -3136.9411    10228.862   -4224.1747    75.490593 
   78100    742.04873   -164.11493   0.67142129   -163.44351    675.65852    4.2192709    4.2192709    4.2192709    675.65852   -12682.709    4164.2618    10545.423    7351.6366     350.7924    -600.0255    75.112505 
   78200    710.69018   -164.08888   0.64304741   -163.44583    -2300.014    4.2244558    4.2244558    4.2244558    -2300.014   -12248.978    11302.094   -5953.1585    4076.8398    2917.9152    1447.7316    75.389752 
   78300    823.70206   -164.19125   0.74530294   -163.44594    6102.8314    4.2265291    4.2265291    4.2265291    6102.8314   -6203.0082    14583.647    9927.8553    9759.3853   -5333.3346   -3025.8245    75.500808 
   78400     1015.176   -164.36312    0.9185526   -163.44457   -1465.7322    4.2215624    4.2215624    4.2215624   -1465.7322   -10642.153   -10455.231    16700.187     15891.57   -2591.1208    4745.0797     75.23495 
   78500    894.35437   -164.25581   0.80923063   -163.44658     137.7567    4.2235714    4.2235714    4.2235714     137.7567   -1885.7858   -10829.185     13128.24    15278.716    738.79099      4437.61     75.34241 
   78600    668.50075   -164.05248   0.60487353    -163.4476    4237.4881    4.2243715    4.2243715    4.2243715    4237.4881   -1604.3692    1009.9072    13306.926    11395.947   -7215.1925   -2212.6379    75.385237 
   78700    624.08644    -164.0121   0.56468653   -163.44741   -9086.5856    4.2225132    4.2225132    4.2225132   -9086.5856   -12922.699   -27250.436    12913.378    16708.729    3934.6978   -834.75281    75.285798 
   78800    569.09096   -163.96305   0.51492546   -163.44812   -2222.2227      4.22243      4.22243      4.22243   -2222.2227   -327.38152   -2031.5256    -4307.761    9250.7498    201.40916    1430.0677    75.281348 
   78900    524.79924   -163.92316   0.47484938   -163.44831   -3872.3884    4.2273237    4.2273237    4.2273237   -3872.3884   -7530.9765    5999.4875   -10085.676   -2363.7384    6088.2451   -8046.9108    75.543397 
   79000    648.55293    -164.0349   0.58682432   -163.44808    931.97152    4.2210638    4.2210638    4.2210638    931.97152    700.08224   -4724.1022    6819.9346    2725.4607     4462.032    -7088.696    75.208295 
   79100    794.90924   -164.16783   0.71925058   -163.44858    863.74013    4.2192898    4.2192898    4.2192898    863.74013    9817.9119   -72.997843   -7153.6937   -5336.5413    8517.7868    -7348.877    75.113512 
   79200    652.18551   -164.03952   0.59011116   -163.44941    120.16782    4.2295401    4.2295401    4.2295401    120.16782     7132.687   -4094.3982   -2677.7854    -5836.097    10003.505   -4173.2585    75.662282 
   79300    488.05041   -163.88895   0.44159827   -163.44735    3093.0649    4.2227338    4.2227338    4.2227338    3093.0649    11977.024    6179.3315   -8877.1606   -6655.6938    2670.2541   -12310.028    75.297597 
   79400     500.9211   -163.89859   0.45324393   -163.44534    3168.1455     4.217296     4.217296     4.217296    3168.1455    19588.109    4032.8903   -14116.563   -3036.4354    10305.672   -4201.6669    75.007081 
   79500    466.74739    -163.8689   0.42232285   -163.44658   -10282.608     4.228422     4.228422     4.228422   -10282.608    4610.0637   -10114.393   -25343.496    1447.7436    1727.2603   -602.30691    75.602296 
   79600    533.22583   -163.93012   0.48247393   -163.44765   -2754.9409    4.2220342    4.2220342    4.2220342   -2754.9409   -3736.5244    19478.338   -24006.636    484.84138   -5029.1519   -6111.3335    75.260178 
   79700    824.35844   -164.19346   0.74589684   -163.44756    6662.3874    4.2188407    4.2188407    4.2188407    6662.3874     2999.471    14543.636    2444.0549    7720.6614    -1182.134    2172.5467    75.089527 
   79800    1064.7006   -164.41111   0.96336345   -163.44774   -15458.878    4.2283413    4.2283413    4.2283413   -15458.878   -14137.754   -15978.767   -16260.114    9028.2029   -8245.9774    801.54398    75.597966 
   79900    969.93491   -164.32558   0.87761749   -163.44796    7336.3636    4.2221215    4.2221215    4.2221215    7336.3636   -5888.5851    8319.5774    19578.098     818.7633   -3581.6904    3605.3547    75.264846 
   80000     823.0792   -164.19198   0.74473935   -163.44724    9972.9866    4.2189686    4.2189686    4.2189686    9972.9866    945.09343    7146.9913    21826.875    2269.2674   -7533.8908   -3075.5049    75.096358 
   80100    775.70371   -164.14797   0.70187302    -163.4461   -9930.1671    4.2275709    4.2275709    4.2275709   -9930.1671   -6596.1897   -11683.834   -11510.477   -2035.9038    1901.9433    4366.4003    75.556649 
   80200     689.7056   -164.06815   0.62406012   -163.44409   -726.96413    4.2267293    4.2267293    4.2267293   -726.96413    3237.4265   -2217.2155   -3201.1034    -3004.567   -249.56421    2544.3397    75.511534 
   80300    663.49133   -164.04453    0.6003409   -163.44418     9283.818    4.2157571    4.2157571    4.2157571     9283.818     15713.06    2847.4232    9290.9712   -14601.655    2438.7038   -5516.3393       74.925 
   80400    811.07158   -164.18104   0.73387461   -163.44716    278.62435    4.2277952    4.2277952    4.2277952    278.62435    2643.1434   -3807.3761    2000.1058   -8383.7099     8617.063   -873.93655    75.568679 
   80500    952.93693   -164.30903   0.86223736    -163.4468   -7759.1932    4.2248876    4.2248876    4.2248876   -7759.1932   -579.86583   -14287.361   -8410.3527   -9068.1467    3457.1607    1779.7647    75.412873 
   80600    766.51573   -164.14175   0.69355954   -163.44819    4337.7371    4.2162062    4.2162062    4.2162062    4337.7371   -1553.6664    5661.1421    8905.7357   -11327.581    8473.8726   -4815.7266    74.948947 
   80700    527.92231   -163.92736    0.4776752   -163.44968    2159.7774    4.2284546    4.2284546    4.2284546    2159.7774   -12665.822    19531.667   -386.51242   -2056.0539    526.96973   -6512.7793    75.604041 
   80800    568.72153   -163.96132   0.51459119   -163.44673   -14243.396    4.2254953    4.2254953    4.2254953   -14243.396   -7970.6954   -6487.8818   -28271.609   -2107.8384   -1144.2168   -2332.9709    75.445416 
   80900    608.10539    -163.9956   0.55022654   -163.44537   -88.902461    4.2181613    4.2181613    4.2181613   -88.902461    11817.267    898.50547    -12982.48    4501.0492   -614.70822    260.76524     75.05326 
   81000    563.40444   -163.95733   0.50978018   -163.44755    4478.1921    4.2238171    4.2238171    4.2238171    4478.1921    6467.8257    16544.095   -9577.3444    3052.8142   -14919.187   -3791.6286     75.35556 
   81100    695.06878   -164.07528   0.62891284   -163.44636     -6132.69     4.230319     4.230319     4.230319     -6132.69   -7884.8337    13848.454    -24361.69    4854.7116   -7614.3634   -3698.2989     75.70409 
   81200    851.46452   -164.21464   0.77042299   -163.44421     3779.954    4.2175269    4.2175269    4.2175269     3779.954     3825.472    9749.3505   -2234.9604    3521.4121   -17567.854    2225.7979    75.019401 
   81300    712.64512   -164.09183   0.64481628   -163.44701   -5002.1574    4.2218615    4.2218615    4.2218615   -5002.1574   -23645.125    17442.001   -8803.3488    1139.0108   -19465.847   -1786.7513    75.250944 
   81400    524.95457   -163.92226   0.47498992   -163.44727   -892.93532    4.2310971    4.2310971    4.2310971   -892.93532   -22138.264    27392.613    -7933.155   -4856.0793   -14307.185   -3168.8709    75.745876 
   81500    586.80152    -163.9763   0.53095035   -163.44535    2884.4026    4.2168892    4.2168892    4.2168892    2884.4026   -3195.5365    8080.1968    3768.5475   -9662.1895    -19456.44   -2007.1575    74.985377 
   81600    633.63953   -164.02102   0.57333037   -163.44769   -7435.4292    4.2231822    4.2231822    4.2231822   -7435.4292    -14529.85    2663.2968   -10439.735   -8540.0032   -7588.9956    1220.4441    75.321585 
   81700    613.43519   -164.00297   0.55504905   -163.44792    2605.9795    4.2286976    4.2286976    4.2286976    2605.9795    12848.152   -9955.7759    4925.5628   -12772.346   -8452.4123   -4975.1155     75.61708 
   81800    637.68181   -164.02357    0.5769879   -163.44659    1475.3874    4.2199083    4.2199083    4.2199083    1475.3874    -2350.221   -8947.7308    15724.114   -21438.131    969.84613   -4769.0794    75.146548 
   81900    708.59409   -164.08738   0.64115082   -163.44623   -1510.0356     4.221869     4.221869     4.221869   -1510.0356   -3427.6794   -6168.8452    5066.4178   -11456.643    3611.0771    270.48086    75.251343 
   82000    707.42768   -164.08515   0.64009543   -163.44505    -12410.64    4.2303613    4.2303613    4.2303613    -12410.64   -15247.706   -24324.077    2339.8624   -6863.1029    9587.0382    1097.9448    75.706363 
   82100    620.95268   -164.00707   0.56185104   -163.44522   -3208.7068     4.221157     4.221157     4.221157   -3208.7068   -5734.1649   -5239.9492    1347.9936   -14077.495    12933.102   -3434.3077     75.21328 
   82200    716.78907   -164.09453   0.64856581   -163.44596     18170.43    4.2164738    4.2164738    4.2164738     18170.43    30641.612     9611.386    14258.294   -6467.1513    7689.9028   -4898.2071    74.963215 
   82300    912.45185    -164.2729    0.8256056   -163.44729   -17748.462    4.2327242    4.2327242    4.2327242   -17748.462   -6903.1652   -31368.077   -14974.145    2800.9244    12693.728    1957.9301    75.833294 
   82400    881.84675   -164.24453   0.79791347   -163.44662     6091.881    4.2190932    4.2190932    4.2190932     6091.881    27795.859   -8714.8722   -805.34413    1807.3422    4285.4096     461.4946    75.103012 
   82500    740.25699   -164.11707   0.66980008   -163.44727    16557.396    4.2175857    4.2175857    4.2175857    16557.396    21705.191    16275.261    11691.736     228.3919   -6117.7667   -1278.8087    75.022536 
   82600    684.63549   -164.06577   0.61947258    -163.4463   -6216.5227    4.2324341    4.2324341    4.2324341   -6216.5227    -8758.204    5222.6341   -15113.998    6166.3181   -7998.1578   -5610.0783    75.817699 
   82700    734.13564   -164.10942   0.66426136   -163.44516    9205.5876    4.2183303    4.2183303    4.2183303    9205.5876    1327.3314    21643.547    4645.8843     2793.396   -15734.013    2380.9882    75.062279 
   82800    789.52734   -164.16114   0.71438093   -163.44676    -1450.658    4.2201504    4.2201504    4.2201504    -1450.658   -1289.3787    7079.5846    -10142.18   -2843.0859   -20926.543    3639.5874    75.159483 
   82900    710.22563   -164.09077   0.64262707   -163.44814   -2886.2064    4.2282546    4.2282546    4.2282546   -2886.2064   -2005.4066    7839.6431   -14492.856   -5268.9736    -22641.33   -2205.1601    75.593316 
   83000    601.25025    -163.9921   0.54402386   -163.44807     2268.738    4.2224402    4.2224402    4.2224402     2268.738   -13283.435    9127.2818    10962.367   -4570.8339   -16992.415   -329.54803     75.28189 
   83100    582.52061   -163.97408   0.52707689   -163.44701   -7137.6245     4.218773     4.218773     4.218773   -7137.6245   -4038.6826   -11265.262   -6108.9285   -13059.332   -18745.921    1946.6665    75.085914 
   83200    446.85685   -163.85298   0.40432547   -163.44866   -11167.547    4.2276914    4.2276914    4.2276914   -11167.547   -27416.459   -11742.049    5655.8669   -13372.525   -12682.868    1535.1833    75.563113 
   83300    390.78923   -163.80324   0.35359431   -163.44965    -1627.188    4.2238523    4.2238523    4.2238523    -1627.188   -24098.426    2244.2121     16972.65   -10571.041   -1247.1559   -1796.7189    75.357447 
   83400    643.82428   -164.03034   0.58254574    -163.4478    8035.0326    4.2164781    4.2164781    4.2164781    8035.0326    4319.4893    15861.189    3924.4196   -13466.685    825.63475   -1165.9307    74.963446 
   83500     931.3089   -164.29064   0.84266786   -163.44797   -11572.527    4.2295384    4.2295384    4.2295384   -11572.527   -18546.126   -12705.657   -3465.7995   -5065.6445    11007.991    2427.3808    75.662192 
   83600    973.34529   -164.32838   0.88070327   -163.44767    8709.3459     4.221675     4.221675     4.221675    8709.3459    15295.879    6888.6219    3943.5368   -3637.1071    11290.007   -6436.7939    75.240971 
   83700     915.7653   -164.27507   0.82860369   -163.44647    4402.3981    4.2215607    4.2215607    4.2215607    4402.3981   -533.97984    20128.883   -6387.7093    4765.0891    16275.427   -1314.9922    75.234857 
   83800    872.86023   -164.23491   0.78978228   -163.44512   -10039.262    4.2260834    4.2260834    4.2260834   -10039.262   -11996.173   -11046.559   -7075.0542   -2186.4387    9459.5938   -1323.5006    75.476923 
   83900    726.02224   -164.10258   0.65692018   -163.44566    -3973.066     4.223295     4.223295     4.223295    -3973.066   -9446.7458   -596.90155   -1875.5506    7255.0561    5556.2761    1639.7801    75.327622 
   84000    651.44386   -164.03564    0.5894401    -163.4462   -1794.6552      4.22325      4.22325      4.22325   -1794.6552   -21742.855    19644.758   -3285.8687    5509.1139    7951.8552   -894.56107    75.325214 
   84100    785.80832   -164.15865   0.71101588   -163.44763   -3534.4052    4.2248696    4.2248696    4.2248696   -3534.4052   -5977.6899    9123.8271   -13749.353    -3473.788   -7556.9521    1504.9516    75.411907 
   84200    827.09612   -164.19797   0.74837396   -163.44959   -4313.4692    4.2234522    4.2234522    4.2234522   -4313.4692   -2320.7078   -611.56619   -10008.134   -534.57682   -8185.8889    7290.3535    75.336031 
   84300    637.76997   -164.02851   0.57706767   -163.45144    4183.9255    4.2197724    4.2197724    4.2197724    4183.9255    4850.1975     16497.34   -8795.7614   -4354.9547    -13455.72    1189.5018    75.139289 
   84400    450.98496   -163.86046   0.40806067    -163.4524    -4190.534    4.2255767    4.2255767    4.2255767    -4190.534   -17504.999    19797.482   -14864.085   -7248.6231   -22023.575    2123.1454    75.449777 
   84500    346.40798   -163.76453   0.31343722   -163.45109   -10869.428    4.2227327    4.2227327    4.2227327   -10869.428   -28688.094   -6956.3551    3036.1666   -14154.728   -17519.671    2590.3777    75.297538 
   84600    238.50779   -163.66694   0.21580686   -163.45113   -3443.4295    4.2221841    4.2221841    4.2221841   -3443.4295   -25858.617    21169.116   -5640.7876   -5157.1716   -21792.588   -1555.3973    75.268194 
   84700    372.57894   -163.78882   0.33711725   -163.45171   -4472.2452    4.2254495    4.2254495    4.2254495   -4472.2452   -37079.526    28483.719   -4820.9288   -8420.6043   -16486.726   -3746.3925    75.442966 
   84800    684.81161   -164.06836   0.61963194   -163.44872   -3997.4415    4.2230651    4.2230651    4.2230651   -3997.4415   -7214.2028   -3243.3377   -1534.7839   -6495.9431   -15703.998    544.61756     75.31532 
   84900    846.52275   -164.21278   0.76595157   -163.44683   -1733.2159     4.224994     4.224994     4.224994   -1733.2159   -1916.3051    12595.024   -15878.367    2067.1164   -16640.769   -3458.1306     75.41857 
   85000    944.19242   -164.30073   0.85432514   -163.44641    3610.0007    4.2215519    4.2215519    4.2215519    3610.0007   -6602.8348    23422.096    -5989.259   -1448.0683   -4802.1059    62.225759    75.234388 
   85100    1004.6167   -164.35527   0.90899827   -163.44627    864.20022    4.2212004    4.2212004    4.2212004    864.20022    1404.0723    1454.7353   -266.20699    2552.0443   -9490.8879   -433.97556    75.215599 
   85200    906.43112   -164.26639   0.82015793   -163.44624    179.22196    4.2238985    4.2238985    4.2238985    179.22196   -7407.6717    2219.3351    5726.0025    3524.9421    4922.7531    3458.3533    75.359918 
   85300    850.07087   -164.21507   0.76916199   -163.44591   -1136.1056    4.2237916    4.2237916    4.2237916   -1136.1056     -10726.4    13919.107   -6601.0243    5405.0217    2365.3288    1776.9583    75.354198 
   85400    916.65775   -164.27636    0.8294112   -163.44695   -1017.5354     4.220821     4.220821     4.220821   -1017.5354   -4117.8128    1326.7685   -261.56188   -6310.5827    4887.0576   -1377.1638    75.195319 
   85500    887.46342   -164.25138   0.80299555   -163.44838    -2983.494    4.2253705    4.2253705    4.2253705    -2983.494    13801.921    -12131.36   -10621.043   -2170.2869     4311.833    2435.8309    75.438731 
   85600    791.84054   -164.16535   0.71647396   -163.44888    4299.2583    4.2246998    4.2246998    4.2246998    4299.2583    9803.7999    20975.409   -17881.434   -4444.8367    2028.0619   -83.619361    75.402818 
   85700     760.5376   -164.13701    0.6881504   -163.44886    2816.6683    4.2213259    4.2213259    4.2213259    2816.6683    7135.5892    -50.74568    1365.1613   -16653.805    3292.4387   -2078.7575    75.222304 
   85800    610.76042   -164.00249   0.55262886   -163.44986    130.09322     4.227242     4.227242     4.227242    130.09322    14816.136   -4941.8078   -9484.0487   -8190.6694   -6378.1589   -2814.3536    75.539017 
   85900    467.42059   -163.87243   0.42293197    -163.4495    1363.5393    4.2225326    4.2225326    4.2225326    1363.5393   -2343.3295    3176.4904    3257.4569   -5962.2426   -6662.0473   -1258.6691    75.286836 
   86000    418.80229   -163.82856   0.37894112   -163.44962    1818.1014    4.2188838    4.2188838    4.2188838    1818.1014    2411.7278   -5974.8224    9017.3989   -9483.9845   -10930.772   -1874.8408    75.091829 
   86100    425.03222   -163.83505   0.38457809   -163.45047   -1488.9431    4.2248262    4.2248262    4.2248262   -1488.9431   -159.26056    19452.299   -23759.868   -4773.0886   -14623.352   -4672.4142    75.409583 
   86200    505.75092   -163.90606   0.45761406   -163.44845   -8620.2638    4.2257075    4.2257075    4.2257075   -8620.2638    3408.0581   -739.35021   -28529.499    3967.7572   -13341.016      -223.37    75.456787 
   86300     562.6106   -163.95663    0.5090619   -163.44757    2463.2284    4.2198001    4.2198001    4.2198001    2463.2284    3114.3403    22228.507   -17953.162    1840.4868   -11839.758    3170.0263    75.140767 
   86400    594.31674   -163.98532   0.53775028   -163.44757   -5038.1418    4.2231994    4.2231994    4.2231994   -5038.1418   -12550.677    26894.356   -29458.104    3868.4349    -12048.01     689.0077    75.322508 
   86500     624.6754   -164.01326   0.56521943   -163.44804    -7188.771     4.225437     4.225437     4.225437    -7188.771   -7581.1511    8691.7908   -22676.953    8639.0795   -8773.4563    2124.8346    75.442293 
   86600    636.89437   -164.02453   0.57627541   -163.44826    4546.7746    4.2205129    4.2205129    4.2205129    4546.7746   -11100.059    37620.373    -12879.99    942.49317   -3072.1397    3187.6448    75.178853 
   86700    678.18916   -164.06174    0.6136398    -163.4481   -2330.2429    4.2258278    4.2258278    4.2258278   -2330.2429    7362.4801    3991.7895   -18344.998   -1641.6507   -1394.1095     6425.525    75.463229 
   86800     803.0848    -164.1737     0.726648   -163.44705   -3316.5583    4.2234655    4.2234655    4.2234655   -3316.5583    9788.6723    3287.4343   -23025.782    2323.6273    9670.6613   -1777.6179    75.336746 
   86900    881.87535   -164.24535   0.79793935   -163.44741    7493.7663    4.2179084    4.2179084    4.2179084    7493.7663    23201.666    18910.958   -19631.325   -3527.8971    2857.5098    243.03949    75.039759 
   87000    922.41945   -164.28272    0.8346245    -163.4481    -854.4168    4.2276388    4.2276388    4.2276388    -854.4168    20693.738   -1619.2251   -21637.763   -5778.5377    11013.627    3741.6015    75.560293 
   87100    997.48322   -164.34721   0.90254378   -163.44467    -7032.666    4.2263376    4.2263376    4.2263376    -7032.666   -10523.035   -3013.6178   -7561.3449    1130.3331    7834.2817   -401.80733    75.490543 
   87200    970.98699   -164.32211   0.87856944   -163.44354    8201.5802    4.2157133    4.2157133    4.2157133    8201.5802    2069.5107    4078.3197     18456.91    4347.6991   -1223.4852   -2262.0902    74.922665 
   87300    878.30189   -164.24126   0.79470601   -163.44656   -8962.8524    4.2283242    4.2283242    4.2283242   -8962.8524   -14295.297    930.37895   -13523.639   -2835.3867    1806.1453   -2307.9259    75.597046 
   87400    826.85136   -164.19375   0.74815249    -163.4456   -3675.9944    4.2274059    4.2274059    4.2274059   -3675.9944    3220.6858    -574.6396    -13674.03    6528.8196   -5701.9163    1807.7626    75.547805 
   87500     744.5971   -164.11966    0.6737271   -163.44593    9295.0679    4.2145053    4.2145053    4.2145053    9295.0679     17302.57    1259.8915    9322.7419     7798.711   -8722.3772   -1094.2889    74.858275 
   87600    668.87105   -164.05512   0.60520859   -163.44992   -12166.747    4.2280325    4.2280325    4.2280325   -12166.747    6624.2078   -1816.2618   -41308.186    5213.8095   -16450.792   -1896.4752    75.581402 
   87700    551.12196   -163.94754   0.49866673   -163.44887    -4855.281    4.2274585    4.2274585    4.2274585    -4855.281    8971.3248    7328.9486   -30866.116    5337.6084   -8171.4564    1049.6596    75.550625 
   87800    390.50363   -163.80146   0.35333589   -163.44812    3845.5434    4.2133489    4.2133489    4.2133489    3845.5434   -13929.192    23081.379    2384.4435    8028.1725   -12117.199    3521.1164    74.796673 
   87900    436.27711   -163.84634    0.3947527   -163.45159   -9886.0976    4.2256652    4.2256652    4.2256652   -9886.0976   -10829.264    7279.4043   -26108.433    3637.7188   -9787.4691    2786.2896    75.454521 
   88000    536.85062   -163.93514   0.48575373   -163.44939   -12018.085    4.2281311    4.2281311    4.2281311   -12018.085   -12341.012    2225.5303   -25938.772   -1045.9787   -4378.5811    655.75064    75.586689 
   88100    483.66482   -163.88554   0.43763009   -163.44791    1210.8539    4.2150097    4.2150097    4.2150097    1210.8539    5705.1967    17365.906   -19438.541   -965.88081   -1761.1409    1006.7841    74.885155 
   88200    525.91362   -163.92592    0.4758577   -163.45007    2038.6418    4.2247716    4.2247716    4.2247716    2038.6418    21539.951    11073.346   -26497.372    -4300.845   -2010.0341    4271.6023     75.40666 
   88300    649.78273   -164.03548   0.58793707   -163.44754   -7188.2356    4.2271034    4.2271034    4.2271034   -7188.2356    2854.6672   -8305.2129   -16114.161   -8215.7256     4140.063    -804.9001    75.531589 
   88400    689.85663   -164.06937   0.62419677   -163.44517   -1220.5138    4.2187228    4.2187228    4.2187228   -1220.5138    19944.416   -9568.8105   -14037.147   -7493.9072    3142.9916   -3284.0053    75.083237 
   88500    706.10929    -164.0849   0.63890252     -163.446    7957.3658    4.2246182    4.2246182    4.2246182    7957.3658    10712.866    2799.1405    10360.091   -3396.0018   -2789.3132    647.03693    75.398446 
   88600     827.9063   -164.19447   0.74910702   -163.44537    1104.3476    4.2256662    4.2256662    4.2256662    1104.3476   -2044.2657   -11661.563    17018.872   -7690.9095    7805.5791   -1864.4998    75.454573 
   88700    933.61249   -164.28936    0.8447522   -163.44461     5973.023    4.2198505    4.2198505    4.2198505     5973.023    26734.766   -13726.679    4910.9821    -9339.899    698.01319   -5077.5437    75.143459 
   88800    974.48294   -164.32668   0.88173264   -163.44494    7456.2376    4.2229531    4.2229531    4.2229531    7456.2376    19508.689   -181.03677    3041.0609   -1127.8334   -1881.1202   -2855.9195    75.309326 
   88900    889.04825   -164.24896   0.80442954   -163.44453   -7211.7575    4.2262832    4.2262832    4.2262832   -7211.7575    1584.4271   -11955.199   -11264.501   -2371.7023   -4537.7657    1607.7832    75.487628 
   89000    757.57229    -164.1297   0.68546733   -163.44423    10079.338    4.2182487    4.2182487    4.2182487    10079.338     21497.32    10232.657    -1491.962   -5383.0188   -4898.1855    4047.7929    75.057922 
   89100    767.08903   -164.14078   0.69407827    -163.4467   -1908.7533    4.2227045    4.2227045    4.2227045   -1908.7533   -6167.1272    13000.443   -12559.576     3278.441   -13117.145   -433.48849    75.296029 
   89200    735.43855   -164.11383   0.66544025   -163.44839    -12435.48    4.2272547    4.2272547    4.2272547    -12435.48   -27562.238   -1957.6053   -7786.5964     1854.771   -13192.923    3934.9143      75.5397 
   89300    696.44268   -164.07837   0.63015597   -163.44821    6870.0489    4.2192563    4.2192563    4.2192563    6870.0489    3030.7582    19520.314   -1940.9259    681.81108    -7931.553    6376.7541    75.111723 
   89400    744.07386   -164.12177   0.67325367   -163.44851   -7308.8818    4.2219333    4.2219333    4.2219333   -7308.8818   -8886.9884    16551.876   -29591.533   -3250.2701   -19831.743    2264.0371    75.254784 
   89500    648.27816    -164.0347    0.5865757   -163.44812   -7757.5242    4.2286127    4.2286127    4.2286127   -7757.5242   -1140.5886    61.316362     -22193.3    959.76265   -7752.0422   -1856.2137    75.612525 
   89600    512.17088   -163.91014   0.46342297   -163.44672   -215.10721    4.2221104    4.2221104    4.2221104   -215.10721    17440.376    5436.0049   -23521.703   -897.96374   -10762.282   -1664.3898    75.264254 
   89700    553.92494    -163.9468   0.50120293    -163.4456   -4601.4668    4.2180908    4.2180908    4.2180908   -4601.4668   -8057.8363     8444.987   -14191.551   -10732.403   -9343.9092    455.99307    75.049493 
   89800    582.40391   -163.97397    0.5269713     -163.447   -4940.4156    4.2282327    4.2282327    4.2282327   -4940.4156   -10462.157    1336.7685   -5695.8583   -454.26078    -3004.545   -7157.6761    75.592141 
   89900    641.54312   -164.02677    0.5804817   -163.44629   -3348.9194    4.2245383    4.2245383    4.2245383   -3348.9194   -7891.4654   -8907.0485    6751.7557   -5003.4663   -1602.7604   -6381.1918    75.394166 
   90000    807.73772   -164.17566   0.73085807    -163.4448    6094.0173    4.2167629    4.2167629    4.2167629    6094.0173    5629.3841    -8542.154    21194.822   -6693.7456    6254.3135   -2367.1245     74.97864 
   90100    847.92385   -164.21404   0.76721932   -163.44682   -7346.3709    4.2274309    4.2274309    4.2274309   -7346.3709   -2001.1382    -9595.296   -10442.679    797.31778    1056.8477   -2692.0632    75.549143 
   90200    674.11216    -164.0573   0.60995085   -163.44735    2365.8896    4.2250887    4.2250887    4.2250887    2365.8896    14615.435   -17491.819    9974.0524    2666.0795    9197.8187   -5489.1715    75.423639 
   90300    675.04894   -164.05669   0.61079847    -163.4459    3954.3743    4.2191784    4.2191784    4.2191784    3954.3743    18333.739    -12494.82    6024.2034    5451.5377    4396.1903    355.53923    75.107565 
   90400    717.78653    -164.0957   0.64946834   -163.44623   -11467.337    4.2261255    4.2261255    4.2261255   -11467.337   -16405.018   -7195.2043   -10801.789    1913.1199   -5188.7103   -1014.3486    75.479178 
   90500    627.64662   -164.01552   0.56790785   -163.44761    2003.3804    4.2240781    4.2240781    4.2240781    2003.3804   -5000.4773   -5791.1529    16801.771    9399.3631    43.868332   -1182.6491     75.36953 
   90600    678.54551   -164.06119   0.61396224   -163.44723    1901.3017    4.2201395    4.2201395    4.2201395    1901.3017   -10583.913    3638.7868    12649.031    7664.7778   -10388.423   -1886.2494      75.1589 
   90700    805.31696   -164.17559   0.72866771   -163.44693   -5184.0242    4.2253127    4.2253127    4.2253127   -5184.0242   -15137.941    4772.2401   -5186.3721    3273.0065   -9791.5976     2865.284     75.43564 
   90800    691.53206   -164.07307   0.62571274   -163.44736   -6272.5441    4.2233342    4.2233342    4.2233342   -6272.5441   -2944.2682    2728.3473   -18601.711    5744.4876   -13467.523    1111.5429    75.329719 
   90900    547.13512   -163.94296   0.49505935    -163.4479    4772.5688    4.2196502    4.2196502    4.2196502    4772.5688    5071.5624    16499.218   -7253.0745    1731.6278    -10298.61   -1216.7624    75.132762 
   91000     586.9894   -163.97831   0.53112034   -163.44719   -3922.8053    4.2259164    4.2259164    4.2259164   -3922.8053     2644.844    14780.671   -29193.931   -146.45592   -10979.645   -944.79284    75.467975 
   91100    600.90055   -163.98947   0.54370744   -163.44576   -5409.0969     4.224303     4.224303     4.224303   -5409.0969    1942.6905    3618.6684    -21788.65   -5046.3709   -7650.4792    1912.8209    75.381572 
   91200    643.96185   -164.02862   0.58267021   -163.44595     12318.73    4.2180477    4.2180477    4.2180477     12318.73    14650.809     8209.519    14095.862   -3616.1874    5910.2321   -1798.9057    75.047194 
   91300     828.1899     -164.197   0.74936363   -163.44763   -1232.4976    4.2250525    4.2250525    4.2250525   -1232.4976   -2056.5951    1604.3249   -3245.2225   -783.07481    1652.0722   -6851.7474      75.4217 
   91400    885.73558   -164.24821   0.80143216   -163.44678   -77.704449    4.2262469    4.2262469    4.2262469   -77.704449    13955.212    -2785.077   -11403.248    -6411.471    6361.2189   -185.83469    75.485682 
   91500    808.26744   -164.17626   0.73133736   -163.44493    5005.6626    4.2199522    4.2199522    4.2199522    5005.6626    25525.897   -7977.2015   -2531.7075    2929.4124    8409.5086    238.35414    75.148893 
   91600    767.17107   -164.13846   0.69415251   -163.44431   -2856.4909    4.2230292    4.2230292    4.2230292   -2856.4909    8429.7787   -15764.215   -1235.0361    3876.1247    3771.9279   -7792.0776    75.313399 
   91700    709.08191   -164.08567   0.64159221   -163.44408   -2667.5672    4.2257829    4.2257829    4.2257829   -2667.5672   -659.24367    5699.0557   -13042.514     6022.695    418.00439   -4109.9112    75.460826 
   91800    662.45341   -164.04345   0.59940177   -163.44405   -1706.9886     4.223508     4.223508     4.223508   -1706.9886   -3129.6534   -6210.1205    4218.8082    5054.9019    287.00179    3365.9342    75.339019 
   91900    740.52585   -164.11444   0.67004335   -163.44439    2258.1086    4.2233047    4.2233047    4.2233047    2258.1086    608.47103   -14438.602    20604.457    8450.8795     1693.416   -3160.8273     75.32814 
   92000    869.26624   -164.23183   0.78653037    -163.4453   -1538.5613    4.2243641    4.2243641    4.2243641   -1538.5613   -6518.9397    8936.3962   -7033.1405    8109.8087   -14427.829   -2039.9031    75.384841 
   92100    858.25942   -164.22291   0.77657116   -163.44633     6516.274    4.2210057    4.2210057    4.2210057     6516.274    16668.546    3493.1183   -612.84255    2204.5774   -5478.2498    2061.5834    75.205192 
   92200    766.05379   -164.14063   0.69314157   -163.44749   -332.79507    4.2245588    4.2245588    4.2245588   -332.79507    6382.3414   -3009.0785   -4371.6482   -110.07889   -7849.9817    1842.3255    75.395266 
   92300     666.9522   -164.04971   0.60347236   -163.44624   -6098.6486    4.2256376    4.2256376    4.2256376   -6098.6486   -10422.306    5098.9546   -12972.595    -1251.949    -8855.236   -1238.8438     75.45304 
   92400     523.6309   -163.92015   0.47379224   -163.44636   -4142.6313    4.2211203    4.2211203    4.2211203   -4142.6313   -15106.641    17725.746   -15046.999   -7254.6735   -2840.0268   -677.99799    75.211318 
   92500    428.13802   -163.83587   0.38738828   -163.44848   -4002.2067    4.2229645    4.2229645    4.2229645   -4002.2067   -33213.038     16181.21    5025.2071    -6842.862   -1642.5201    3238.4865     75.30994 
   92600    549.82648   -163.94552   0.49749455   -163.44803   -3674.2572    4.2263163    4.2263163    4.2263163   -3674.2572   -12330.693   -4627.2561    5935.1776   -4509.5347    8032.2856   -3966.4285    75.489404 
   92700    717.98511   -164.09681   0.64964801   -163.44716   -11658.275    4.2245456    4.2245456    4.2245456   -11658.275   -14253.006   -5056.7344   -15665.083   -5930.6569    1360.9179   -5367.4516     75.39456 
   92800    656.96789   -164.04273   0.59443835   -163.44829    3669.9557    4.2208087    4.2208087    4.2208087    3669.9557    6938.1903    6434.9431   -2363.2663   -7081.9697    11383.933   -1372.1534    75.194659 
   92900    573.52229   -163.96929   0.51893502   -163.45035   -137.89331    4.2229021    4.2229021    4.2229021   -137.89331    17815.837   -7348.4091   -10881.107   -2752.4182    9052.6201   -4222.4807    75.306602 
   93000    595.87559   -163.98793   0.53916075   -163.44877   -11131.641    4.2258783    4.2258783    4.2258783   -11131.641   -8923.9314   -15782.227   -8688.7631    1685.9305    5926.5907   -5962.8923    75.465935 
   93100    539.88623   -163.93511   0.48850041   -163.44661   -5622.6242    4.2210712    4.2210712    4.2210712   -5622.6242   -5196.7856   -8036.4248   -3634.6621    1605.7419     9719.069   -6738.3987    75.208694 
   93200    516.59533   -163.91461   0.46742631   -163.44719   -944.41995    4.2243865    4.2243865    4.2243865   -944.41995     -12250.7   -5890.6637    15308.104    2412.3552     3724.813    1249.9069     75.38604 
   93300    813.75195   -164.18193   0.73629987   -163.44563   -5011.4516    4.2255477    4.2255477    4.2255477   -5011.4516   -14554.792   -8239.7207    7760.1576    1830.3664    1971.4148    631.36891    75.448225 
   93400    1068.5482   -164.41256   0.96684486   -163.44571   -502.52474     4.220129     4.220129     4.220129   -502.52474    2538.5417   -11413.818    7367.7024    3941.7768   -2044.9821   -4545.0385     75.15834 
   93500     1009.121   -164.35915   0.91307384   -163.44607    6931.1315     4.226134     4.226134     4.226134    6931.1315    13236.137   -15284.681    22841.938   -18.780301   -3577.4427    4726.1282    75.479633 
   93600    964.93883   -164.31715   0.87309693   -163.44405   -949.49888    4.2255567    4.2255567    4.2255567   -949.49888    1124.9422   -618.33901   -3355.0999   -1294.6229    1708.2537    5953.4986    75.448709 
   93700     903.2122   -164.26013   0.81724538   -163.44289     5396.581    4.2180026    4.2180026    4.2180026     5396.581   -1047.4381    7977.8715    9259.3096   -3737.8516   -9444.5632   -1655.8087    75.044787 
   93800    774.95627   -164.14703   0.70119672   -163.44583   -5139.8759    4.2249856    4.2249856    4.2249856   -5139.8759   -16855.005   -12271.362    13706.739   -3869.1746    5246.5982   -2678.3224    75.418119 
   93900    707.28362   -164.08748   0.63996509   -163.44751   -3492.3662    4.2269444    4.2269444    4.2269444   -3492.3662   -25912.329   -3411.4979    18846.728   -7939.6466    3744.5683    1304.7604    75.523067 
   94000    797.80491   -164.16948   0.72187065   -163.44761    8551.9794    4.2166033    4.2166033    4.2166033    8551.9794    12662.105    8392.9652    4600.8679   -9414.9989    6172.3623   -2911.7833    74.970127 
   94100    829.11298   -164.20117   0.75019885   -163.45097   -6938.2005    4.2254104    4.2254104    4.2254104   -6938.2005   -7386.8385   -12647.985   -779.77774    137.03877    9165.1728   -7428.3348    75.440869 
   94200    697.92683   -164.08131   0.63149887   -163.44981   -6313.6292    4.2279649    4.2279649    4.2279649   -6313.6292    6602.8747    -20063.64   -5480.1226   -1957.5324    14038.325    1293.2975    75.577777 
   94300    482.11909    -163.8842   0.43623149   -163.44797    5482.5755    4.2188507    4.2188507    4.2188507    5482.5755    27159.483    2944.4535    -13656.21   -2471.8746    12407.747   -2536.2162    75.090061 
   94400    290.08159   -163.71101   0.26247192   -163.44854    -6191.181    4.2273701    4.2273701    4.2273701    -6191.181   -18040.216    3756.1361   -4289.4629    214.81475     4856.344   -7152.6451    75.545885 
   94500    315.70748   -163.73264   0.28565876   -163.44698   -2372.8971    4.2256336    4.2256336    4.2256336   -2372.8971    3876.4067   -14457.538    3462.4398    4991.8903    13916.784    960.19444    75.452828 
   94600    502.29314   -163.90098   0.45448539   -163.44649    -4488.285    4.2207568    4.2207568    4.2207568    -4488.285     2446.942   -11519.889   -4391.9076    6206.8294    4310.4422    657.80698    75.191886 
   94700    611.79439   -164.00202   0.55356442   -163.44846   -1415.2998    4.2239224    4.2239224    4.2239224   -1415.2998   -9258.4105    3620.7271    1391.7842    1885.0536   -974.84528   -2051.0229    75.361196 
   94800    697.25131   -164.08053   0.63088764   -163.44964    2611.2183    4.2258729    4.2258729    4.2258729    2611.2183    12934.754   -8368.7465    3267.6472    7154.0778   -3877.4212   -4392.2741    75.465643 
   94900    758.89354   -164.13511   0.68666282   -163.44844   -5151.3517    4.2197214    4.2197214    4.2197214   -5151.3517    2033.3984   -2752.5414   -14734.912    5066.3138   -13736.641   -448.09758    75.136566 
   95000    660.91956   -164.04567   0.59801391   -163.44766    7138.9202     4.220661     4.220661     4.220661    7138.9202    3670.2773     6369.803     11376.68     1270.621   -15421.424   -359.12108    75.186767 
   95100    587.26889   -163.97799   0.53137323   -163.44662   -3922.8749    4.2288151    4.2288151    4.2288151   -3922.8749   -13074.757   -1258.9145    2565.0462   -373.96434   -14369.383   -4448.9317     75.62338 
   95200    735.84244   -164.10973    0.6658057   -163.44393    5384.6846    4.2199148    4.2199148    4.2199148    5384.6846   -3765.2192    17125.192    2794.0812    3153.8914   -10952.377   -838.09878    75.146894 
   95300    909.80546   -164.26748    0.8232111   -163.44426     5863.004    4.2225389    4.2225389    4.2225389     5863.004    4377.8784   -1565.2763     14776.41    -509.4921   -11796.868    1872.6864    75.287173 
   95400    990.00357   -164.34051   0.89577603   -163.44473   -1922.9417    4.2251674    4.2251674    4.2251674   -1922.9417    3897.0651   -10709.987    1044.0962   -3775.9152   -3700.6861    1562.8725    75.427855 
   95500    939.39673   -164.29482    0.8499859   -163.44483    9881.4186    4.2211363    4.2211363    4.2211363    9881.4186    12724.616      9809.93    7109.7101    2735.6703    5114.0619   -2210.5767    75.212173 
   95600    780.64597   -164.15151   0.70634488   -163.44516    170.93396    4.2240659    4.2240659    4.2240659    170.93396    7729.3531    5631.6073   -12848.158    1007.0661    2408.8704    2018.8143    75.368881 
   95700    669.43577   -164.05078   0.60571955   -163.44506   -6032.8556     4.224478     4.224478     4.224478   -6032.8556   -12223.402   -7002.8049    1127.6395    380.62474    10235.171    3994.6072    75.390941 
   95800    671.92594    -164.0545   0.60797271   -163.44653   -3468.7705    4.2220233    4.2220233    4.2220233   -3468.7705   -11131.624   -10341.751    11067.064    2524.5753    11084.254    -4441.545    75.259595 
   95900    752.39053   -164.12871   0.68077876   -163.44793    355.77881    4.2208996    4.2208996    4.2208996    355.77881    -2387.755    2277.5979    1177.4935    8754.7973    8828.3741   -2655.0532    75.199522 
   96000    815.21405   -164.18587   0.73762281   -163.44825    -2838.406    4.2283266    4.2283266    4.2283266    -2838.406   -11080.067   -4558.1547    7123.0042    7412.1901    1942.5998    896.58525    75.597179 
   96100    809.03795    -164.1785   0.73203454   -163.44646    776.97972    4.2217366    4.2217366    4.2217366    776.97972    11266.974   -11924.486    2988.4514    7129.7759   -12.457628     -5436.81    75.244264 
   96200    670.17146   -164.05291   0.60638522   -163.44652   -2894.3371    4.2213749    4.2213749    4.2213749   -2894.3371    613.14015    3447.7685    -12743.92    7040.7193   -3725.9415   -4696.3457    75.224927 
   96300    437.73557   -163.84332   0.39607235   -163.44725   -8875.8744    4.2271861    4.2271861    4.2271861   -8875.8744   -24296.594    9805.6625   -12136.691     5957.194   -17559.391    1765.6791     75.53602 
   96400    364.41708   -163.77675   0.32973223   -163.44702    1445.0454    4.2212401    4.2212401    4.2212401    1445.0454   -28771.896    13980.117    19126.914    3783.9975   -15082.665    2560.1823    75.217722 
   96500    556.00762    -163.9507   0.50308738   -163.44761   -10972.911    4.2221793    4.2221793    4.2221793   -10972.911   -37932.615    8457.3611     -3443.48   -3003.7349   -21706.523   -2877.7493    75.267936 
   96600     655.9419   -164.04267   0.59351002   -163.44916   -2696.5215     4.225701     4.225701     4.225701   -2696.5215   -18636.798    6280.0704    4267.1633   -459.84396   -21782.312   -447.50327    75.456436 
   96700    613.76587    -164.0043   0.55534826   -163.44895    3962.6869    4.2250483    4.2250483    4.2250483    3962.6869   -20573.172    12539.272    19921.961   -3677.8181    -19509.61    8316.5434    75.421476 
   96800    648.56877   -164.03368   0.58683866   -163.44684   -3603.1784    4.2197689    4.2197689    4.2197689   -3603.1784   -18542.734    20242.158   -12508.959   -6812.4838   -26151.217   -1007.7866    75.139103 
   96900    607.91689   -163.99673   0.55005598   -163.44668   -5719.2421    4.2248679    4.2248679    4.2248679   -5719.2421   -5155.4027    3836.9944   -15839.318    -4405.562   -16201.798    -4234.734    75.411817 
   97000    504.95042   -163.90358   0.45688975   -163.44669   -9206.5018    4.2249289    4.2249289    4.2249289   -9206.5018   -26379.784    9891.2764   -11130.997   -3144.4445   -13870.704   -687.49439    75.415085 
   97100    573.12952    -163.9646   0.51857964   -163.44602    3526.6397    4.2198229    4.2198229    4.2198229    3526.6397   -23653.005    31948.141    2284.7828    -1036.751   -12374.584   -1296.3762    75.141987 
   97200    814.92535   -164.18266   0.73736158    -163.4453   -2748.7647      4.22574      4.22574      4.22574   -2748.7647   -4315.6452    2477.1356   -6407.7846    1328.7626   -1933.9813   -3680.0889    75.458527 
   97300     973.1055   -164.32444   0.88048631   -163.44395   -6035.3801     4.225398     4.225398     4.225398   -6035.3801   -12297.255   -12601.677    6792.7925    1807.8446   -1606.8175   -3441.7527    75.440206 
   97400    936.12358    -164.2918   0.84702429   -163.44477    6044.3459    4.2193895    4.2193895    4.2193895    6044.3459   -764.55319    7246.8638    11650.727     6138.273   -996.51864    4062.6821    75.118836 
   97500    790.65658   -164.16193   0.71540269   -163.44653    26.432312    4.2227461    4.2227461    4.2227461    26.432312    6616.9752    7992.7944   -14530.473    9391.6048    6018.8898   -1507.7965    75.298253 
   97600    655.67974   -164.03823   0.59327281   -163.44496   -9393.7055    4.2284409    4.2284409    4.2284409   -9393.7055   -24345.839   -6901.5304    3066.2527    6749.2526    6266.9227   -2066.8829    75.603305 
   97700    622.97124    -164.0072   0.56367747   -163.44352   -4890.8659    4.2197992    4.2197992    4.2197992   -4890.8659   -22620.612    961.54515    6986.4691    6738.5748      5908.33    6265.8035    75.140719 
   97800    652.69529   -164.03642   0.59057242   -163.44585   -19.936843    4.2202787    4.2202787    4.2202787   -19.936843   -21968.509    24048.674    -2139.976    7485.0449    -1539.594   -164.70072    75.166341 
   97900    814.43872   -164.18437   0.73692127   -163.44745   -6441.6199    4.2270622    4.2270622    4.2270622   -6441.6199   -23757.438   -12791.337    17223.916    8427.7663    782.31359   -2736.1449    75.529379 
   98000    944.60671   -164.30094       0.8547   -163.44624    929.63948    4.2216008    4.2216008    4.2216008    929.63948   -4497.2357    -4220.008    11506.162    -419.9365   -1888.6436    1896.7155    75.237003 
   98100    877.72228   -164.23924   0.79418157   -163.44506    5538.1358    4.2213486    4.2213486    4.2213486    5538.1358   -4654.1613     26445.24    -5176.671    3443.4933   -8710.3403   -353.30375    75.223518 
   98200     744.4201   -164.11853   0.67356695   -163.44497    240.46099    4.2233536    4.2233536    4.2233536    240.46099    2439.6114    4401.4991   -6119.7275    2679.9566   -3752.5356   -4724.8264    75.330757 
   98300    675.05789   -164.05592   0.61080656   -163.44512    4152.7435    4.2219324    4.2219324    4.2219324    4152.7435    122.63911    13887.496   -1551.9048   -647.07225   -9002.6852   -3199.8117    75.254733 
   98400    664.87935   -164.04755   0.60159681   -163.44596    651.71587     4.221663     4.221663     4.221663    651.71587    -9650.438    27496.213   -15890.628   -3004.1467   -5046.8975      3066.78    75.240331 
   98500     749.8505    -164.1246   0.67848049   -163.44612   -108.12889    4.2235649    4.2235649    4.2235649   -108.12889   -7311.6823    29526.632   -22539.336    984.02227   -2724.9397   -1056.0129    75.342066 
   98600    931.01177    -164.2886   0.84239902    -163.4462    -238.9153     4.222167     4.222167     4.222167    -238.9153   -4537.3644    4825.7029   -1005.0844   -4496.9326    2411.0066    58.621979    75.267279 
   98700     889.3388   -164.25357   0.80469244   -163.44888   -263.81396    4.2225036    4.2225036    4.2225036   -263.81396   -4822.9521     21343.23    -17311.72   -5081.4422    1836.5475    4986.6661    75.285284 
   98800    682.70209   -164.06762    0.6177232    -163.4499    4072.4385    4.2226024    4.2226024    4.2226024    4072.4385     635.0073    26163.252   -14580.943    3866.4686    1905.5258    4288.4019     75.29057 
   98900    518.70907   -163.91779   0.46933887   -163.44845   -4391.9118    4.2248096    4.2248096    4.2248096   -4391.9118   -7171.2768    108.59378   -6113.0524   -3118.9719    7113.9147     2578.623    75.408695 
   99000    313.57034   -163.73257   0.28372503   -163.44885   -1246.2361    4.2214615    4.2214615    4.2214615   -1246.2361   -14247.424    22980.236    -12471.52   -886.24668    8559.3314    3916.3484    75.229558 
   99100    259.68062   -163.68542   0.23496448   -163.45045    5613.3671     4.217772     4.217772     4.217772    5613.3671   -10727.308    9029.5645    18537.845    11101.517     7202.484    6514.8884    75.032478 
   99200    443.04023   -163.85239   0.40087211   -163.45152   -620.53847    4.2283225    4.2283225    4.2283225   -620.53847   -1543.7347    598.01154   -915.89222    8564.3582    3528.0545   -751.62936    75.596954 
   99300    667.61842   -164.05333   0.60407518   -163.44925   -2680.6635    4.2226796    4.2226796    4.2226796   -2680.6635   -8858.6645    1303.8235   -487.14955    9971.4583    4440.6788    4135.7211    75.294697 
   99400    683.88413   -164.06689   0.61879274   -163.44809     3993.774    4.2172687    4.2172687    4.2172687     3993.774    -4640.969   -11365.421    27987.712    20201.941   -1519.4747    207.69027    75.005623 
   99500    628.92602   -164.01787   0.56906548   -163.44881     3744.707    4.2269497    4.2269497    4.2269497     3744.707    9249.7596    8583.8876   -6599.5261    17334.362   -2632.5792   -2291.9992    75.523346 
   99600    660.89901   -164.04349   0.59799532    -163.4455   -13915.115    4.2255714    4.2255714    4.2255714   -13915.115   -16476.126   -11058.402   -14210.815    13480.824   -1796.8867   -2736.7886    75.449492 
   99700    660.61489   -164.04178   0.59773823   -163.44405     2685.069    4.2169171    4.2169171    4.2169171     2685.069    -10908.04     9869.617    9093.6303    13894.505   -1780.2924    -6450.531    74.986863 
   99800    693.43757   -164.07403   0.62743688   -163.44659     4506.571     4.224529     4.224529     4.224529     4506.571     4470.693    11392.949   -2343.9293    8631.3724    -4169.556   -445.17367    75.393672 
   99900     929.7272   -164.28712    0.8412367   -163.44589   -8491.9526    4.2275629    4.2275629    4.2275629   -8491.9526   -3387.2304   -15423.143   -6665.4843    1055.1893   -615.57634   -9119.9867    75.556222 
  100000     1083.778    -164.4252   0.98062512   -163.44457    9493.4047    4.2156202    4.2156202    4.2156202    9493.4047    10000.531    9388.6021    9091.0811   -4046.1534    7703.4251   -1560.1524    74.917699 
Loop time of 40.6789 on 1 procs for 100000 steps with 8 atoms

Pair  time (%) = 13.7764 (33.8661)
Kspce time (%) = 9.74655 (23.9597)
Neigh time (%) = 0 (0)
Comm  time (%) = 2.32982 (5.72733)
Outpt time (%) = 0.0570216 (0.140175)
Other time (%) = 14.7692 (36.3067)

Nlocal:    8 ave 8 max 8 min
Histogram: 1 0 0 0 0 0 0 0 0 0
Nghost:    2189 ave 2189 max 2189 min
Histogram: 1 0 0 0 0 0 0 0 0 0
Neighs:    2472 ave 2472 max 2472 min
Histogram: 1 0 0 0 0 0 0 0 0 0

Total # of neighbors = 2472
Ave neighs/atom = 309
Neighbor list builds = 0
Dangerous builds = 0
unfix 20
unfix 21
print "seeds:610381"
seeds:610381
