LAMMPS (10 Feb 2015)
# ---- initialize simulations
clear
units metal
dimension 3
boundary p p p
atom_style charge
atom_modify map array
# ---- create atoms
read_data /Users/eugeneragasa/pyflamestk_git/pypospack/tests/tests_integration/workflow/WorkflowLammpsThermalExpansion/param_3101/MgO_NaCl_unit.npt.T1800/lammps.structure
  triclinic box = (0 0 0) to (4.2565 4.2565 4.2565) with tilt (0 0 0)
  1 by 1 by 1 MPI processor grid
  reading atoms ...
  8 atoms
# ---- define interatomic potential
include potential.mod
mass 1 24.305
mass 2 15.999

group Mg type 1
4 atoms in group Mg
group O type 2
4 atoms in group O

set group Mg charge 1.61886676565
  4 settings made for charge
set group O charge -1.61886676565
  4 settings made for charge

variable R_cut equal 10.0

pair_style buck/coul/long ${R_cut}
pair_style buck/coul/long 10
pair_coeff 1 1 0.0 0.5 0.0 ${R_cut}
pair_coeff 1 1 0.0 0.5 0.0 10
pair_coeff 1 2 1642.32869573 0.278339228763 0.0 ${R_cut}
pair_coeff 1 2 1642.32869573 0.278339228763 0.0 10
pair_coeff 2 2 10249.6145692 0.172187509684 14.0611166933 ${R_cut}
pair_coeff 2 2 10249.6145692 0.172187509684 14.0611166933 10

kspace_style pppm 1.0e-5

neighbor 1.0 bin
neigh_modify every 1 delay 0 check yes
# ---- define settings
compute eng all pe/atom
compute eatoms all reduce sum c_eng
# ---- run minimization
reset_timestep 0
fix 1 all box/relax iso 0.0 vmax 0.001
thermo 10
thermo_style custom step pe lx ly lz xy xz yz press pxx pyy pzz pxy pxz pyz c_eatoms
min_style cg
minimize 1e-25 1e-25 5000 10000
PPPM initialization ...
  G vector (1/distance) = 0.352512
  grid = 8 8 8
  stencil order = 5
  estimated absolute RMS force accuracy = 3.81673e-05
  estimated relative force accuracy = 2.65057e-06
  using double precision FFTs
  3d grid and FFT values/proc = 3375 512
Neighbor list info ...
  1 neighbor list requests
  update every 1 steps, delay 0 steps, check yes
  master list distance cutoff = 11
Memory usage per processor = 4.06549 Mbytes
Step PotEng Lx Ly Lz Xy Xz Yz Press Pxx Pyy Pzz Pxy Pxz Pyz eatoms 
       0   -105.55076       4.2565       4.2565       4.2565            0            0            0    126453.59    126453.59    126453.59    126453.59 4.0363335e-11 4.044677e-11 1.0723156e-10   -105.55076 
      10   -105.69165     4.299065     4.299065     4.299065            0            0            0    68786.015    68786.015    68786.015    68786.015 -1.0242962e-10 -4.708445e-11 -3.569371e-11   -105.69165 
      20   -105.75532      4.34163      4.34163      4.34163            0            0            0    18126.479    18126.479    18126.479    18126.479 7.5197513e-11 1.703257e-11 -3.0007315e-11   -105.75532 
      27   -105.76066    4.3583247    4.3583247    4.3583247            0            0            0    1.3863117    1.3863117    1.3863117    1.3863117 -6.2572681e-11 -1.3142723e-10 -3.2118437e-11   -105.76066 
Loop time of 0.0136051 on 1 procs for 27 steps with 8 atoms

Minimization stats:
  Stopping criterion = linesearch alpha is zero
  Energy initial, next-to-last, final = 
        -105.550764672     -105.760658065     -105.760658065
  Force two-norm initial, final = 18.26 0.000217628
  Force max component initial, final = 18.26 0.000209876
  Final line search alpha, max atom move = 0.25 5.24691e-05
  Iterations, force evaluations = 27 40

Pair  time (%) = 0.00371146 (27.2799)
Kspce time (%) = 0.00212002 (15.5825)
Neigh time (%) = 0 (0)
Comm  time (%) = 0.000417709 (3.07024)
Outpt time (%) = 2.59876e-05 (0.191014)
Other time (%) = 0.00732994 (53.8763)

Nlocal:    8 ave 8 max 8 min
Histogram: 1 0 0 0 0 0 0 0 0 0
Nghost:    2189 ave 2189 max 2189 min
Histogram: 1 0 0 0 0 0 0 0 0 0
Neighs:    2344 ave 2344 max 2344 min
Histogram: 1 0 0 0 0 0 0 0 0 0

Total # of neighbors = 2344
Ave neighs/atom = 293
Neighbor list builds = 0
Dangerous builds = 0
unfix 1
# ---- define output variables ----
variable natoms equal "count(all)"
variable tot_energy equal "c_eatoms"
variable length_x equal "lx"
variable length_y equal "ly"
variable length_z equal "lz"
variable tilt_xy equal "xy"
variable tilt_xz equal "xz"
variable tilt_yz equal "yz"
variable tot_press equal "press"
variable press_xx equal "pxx"
variable press_yy equal "pyy"
variable press_zz equal "pzz"
variable press_xy equal "pxy"
variable press_xz equal "pxz"
variable press_yz equal "pyz"

# ---- output ----
print "pypospack:output_section:begin"
pypospack:output_section:begin
print "tot_energy = ${tot_energy}"
tot_energy = -105.760658064539
print "num_atoms = ${natoms}"
num_atoms = 8
print "xx = ${length_x}"
xx = 4.35832471527479
print "yy = ${length_y}"
yy = 4.35832471527479
print "zz = ${length_z}"
zz = 4.35832471527479
print "xy = ${tilt_xy}"
xy = 0
print "xz = ${tilt_xz}"
xz = 0
print "yz = ${tilt_yz}"
yz = 0
print "tot_press = ${tot_press}"
tot_press = 1.38631174704167
print "pxx = ${press_xx}"
pxx = 1.38631174709188
print "pyy = ${press_yy}"
pyy = 1.38631174731354
print "pzz = ${press_zz}"
pzz = 1.3863117467196
print "pxy = ${press_xy}"
pxy = -6.25726806975275e-11
print "pxz = ${press_xz}"
pxz = -1.31427228854923e-10
print "pyz = ${press_yz}"
pyz = -3.21184365171528e-11
print "pypospack:output_section:done"
pypospack:output_section:done
print "pypospack:lammps_sim:done"
pypospack:lammps_sim:done
#------------------------------------------------------------------------------
# RUN THERMOSTAT
# running using an NPT Nose-Hoover style thermostat
#------------------------------------------------------------------------------
variable tempdamp equal 0.1
variable pressdamp equal 1.0
# set initial velocities
velocity all create 1800 1111915 mom yes dist gaussian loop all
# fix for Nose-Hoover style thermostat
fix 20 all npt temp 1800 1800 0.1 aniso 0.0 0.0 1.0 drag 1.0 couple xyz
variable boxx equal lx
variable boxy equal ly
variable boxz equal lz
variable boxp equal press
variable boxt equal temp
# calculate averages every 10000 steps
reset_timestep 0
fix 21 all ave/time 10 10 100 v_boxx v_boxy v_boxz v_boxp v_boxt file lattice.out
thermo_style custom step temp pe ke etotal press lx ly lz press pxx pyy pzz pxy pxz pyz vol
thermo_modify flush yes
thermo 100
run 100000
PPPM initialization ...
  G vector (1/distance) = 0.351503
  grid = 8 8 8
  stencil order = 5
  estimated absolute RMS force accuracy = 3.99806e-05
  estimated relative force accuracy = 2.7765e-06
  using double precision FFTs
  3d grid and FFT values/proc = 3375 512
Memory usage per processor = 3.06549 Mbytes
Step Temp PotEng KinEng TotEng Press Lx Ly Lz Press Pxx Pyy Pzz Pxy Pxz Pyz Volume 
       0         1800   -105.76067    1.6286778   -104.13199    21012.605    4.3583247    4.3583247    4.3583247    21012.605      29694.7    28729.124    4613.9909    -9430.842    2529.2896   -3798.0414    82.786353 
     100    360.76205   -104.26923   0.32642508    -103.9428    40074.222    4.3922646    4.3922646    4.3922646    40074.222    96993.607    53201.502   -29972.443    2027.6449    1639.1571    13884.986    84.735516 
     200    1747.1232   -105.07569    1.5808338   -103.49486   -47390.811    4.4510896    4.4510896    4.4510896   -47390.811   -33947.201   -33801.345   -74423.889   -9377.6813    -5810.728   -1427.3016     88.18587 
     300    1272.0937   -104.24827    1.1510171   -103.09725   -6126.7461    4.4554404    4.4554404    4.4554404   -6126.7461    72249.807    -16638.33   -73991.715    712.38643     2408.574    13154.613     88.44472 
     400    1780.2222   -104.37311    1.6107825   -102.76233   -18156.589    4.4285868    4.4285868    4.4285868   -18156.589    15247.303   -9634.3234   -60082.747   -7578.4096   -10897.382   -3275.3721    86.855132 
     500    1113.6328   -103.58062    1.0076384   -102.57298    57840.696     4.429183     4.429183     4.429183    57840.696    148192.54    61909.274    -36579.73    4819.2421   -619.24327    16973.135    86.890216 
     600    2006.9188   -104.30958    1.8159023   -102.49368    -35671.37     4.455084     4.455084     4.455084    -35671.37   -30333.675    12181.684   -88862.119   -8782.1663   -1347.4663   -4358.2439    88.423501 
     700    1594.8217   -103.88411    1.4430282   -102.44108    4364.2023    4.4614817    4.4614817    4.4614817    4364.2023    71800.691   -9668.0236   -49040.061    20098.241   -2179.5421    20196.976    88.804986 
     800    2374.8311    -104.5567    2.1487971    -102.4079   -34332.702    4.4590386    4.4590386    4.4590386   -34332.702   -109.20129   -26286.995   -76601.909   -9137.2444   -717.93141    3198.7943     88.65918 
     900    1431.9682   -103.70801    1.2956749   -102.41233    312.56587    4.4483574    4.4483574    4.4483574    312.56587    58053.216    9214.3647   -66329.883    28034.846   -8920.7117    264.07818    88.023576 
    1000    2003.2497   -104.23399    1.8125824   -102.42141     36409.45    4.4410356    4.4410356    4.4410356     36409.45    49276.578    89429.573   -29477.801    889.26487    2438.4773   -22369.847    87.589645 
    1100    1452.0404   -103.78811    1.3138367   -102.47428    21248.135    4.4503987    4.4503987    4.4503987    21248.135    117207.81   -22899.253   -30564.151    1614.2834   -12460.696    1234.3917    88.144813 
    1200    1715.8887   -104.03746    1.5525722   -102.48489    1936.3586    4.4745507    4.4745507    4.4745507    1936.3586    54086.997     2872.888   -51150.809   -23533.771   -4084.8126   -9010.2483     89.58768 
    1300    1179.4705   -103.50717    1.0672097   -102.43996    17857.839    4.4856731    4.4856731    4.4856731    17857.839    119601.63    9409.0249    -75437.14   -37438.633   -4581.5926    9580.3329    90.257411 
    1400    2399.6477   -104.54867    2.1712517   -102.37742   -21738.632    4.4772131    4.4772131    4.4772131   -21738.632    7712.0315   -22243.961   -50683.967   -6356.9815    8619.4515   -6333.4518    89.747692 
    1500     1759.663   -103.99286    1.5921801   -102.40068      21100.2    4.4669448    4.4669448    4.4669448      21100.2    68954.719     32183.97   -37838.089   -15445.185    8037.9164    2802.8451    89.131613 
    1600    1597.8943    -103.8735    1.4458084   -102.42769     1319.283    4.4716717    4.4716717    4.4716717     1319.283    108766.49   -47332.404   -57476.238    18316.031    1184.8704   -15647.258    89.414865 
    1700    1887.7307   -104.12081    1.7080584   -102.41275   -1936.4479    4.4881651    4.4881651    4.4881651   -1936.4479   -14487.948    59602.099   -50923.495   -3134.1785   -876.11352     101.3272     90.40792 
    1800    2320.0545   -104.48626     2.099234   -102.38703     -48099.8    4.5076259    4.5076259    4.5076259     -48099.8   -18763.856   -41149.779   -84385.766   -21180.969    2745.6478   -23284.161    91.589058 
    1900    2457.5985     -104.573    2.2236867   -102.34932   -61862.874    4.4928331    4.4928331    4.4928331   -61862.874     -43663.6   -83082.629   -58842.394   -14227.237    12096.034   -2898.3934    90.690303 
    2000    1429.5283   -103.64047    1.2934672     -102.347    29595.772    4.4573097    4.4573097    4.4573097    29595.772   -39468.778   -1652.0602    129908.15    -7849.192    21590.394   -31686.293    88.556092 
    2100    1661.3135   -103.90972    1.5031913   -102.40653    32296.708    4.4610179    4.4610179    4.4610179    32296.708    54753.448    54175.264    -12038.59    31798.962   -7117.0542     22456.08    88.777293 
    2200    2051.2341   -104.29873    1.8559997   -102.44273   -60014.213    4.4984865    4.4984865    4.4984865   -60014.213   -55019.056    -52047.99   -72975.593   -8773.7606   -12654.754   -24403.004    91.033085 
    2300    2088.0245   -104.26044    1.8892884   -102.37115    -41623.32    4.5019486    4.5019486    4.5019486    -41623.32   -35252.678   -44366.835   -45250.446   -1717.3915   -8828.8691   -10779.782    91.243426 
    2400    1742.0524   -103.91254    1.5762456   -102.33629    24498.102    4.4669171    4.4669171    4.4669171    24498.102   -23503.738    102291.58   -5293.5338   -13759.107     11246.08    11034.073    89.129956 
    2500    1707.6808   -103.92239    1.5451455   -102.37724    16992.475    4.4630298    4.4630298    4.4630298    16992.475    24269.408    72074.472   -45366.454    9730.5836    8114.6392    2272.8591    88.897461 
    2600    1975.8062   -104.18295     1.787751    -102.3952   -2035.7229    4.4778613    4.4778613    4.4778613   -2035.7229   -11831.737    60452.011   -54727.442    8629.7601    3643.4543    6490.5855    89.786678 
    2700     1904.346   -104.11426    1.7230922   -102.39116   -17141.719    4.4788251    4.4788251    4.4788251   -17141.719   -1373.0749   -7287.8037   -42764.278    16974.213   -2125.0218   -29158.967    89.844669 
    2800    2041.2445   -104.22796    1.8469609     -102.381   -5370.9334    4.4913751    4.4913751    4.4913751   -5370.9334   -8356.5447    25572.116   -33328.371   -5974.5741    12377.044   -6986.3803    90.602043 
    2900    1082.7596   -103.35079   0.97970361   -102.37109    10864.212    4.4842857    4.4842857    4.4842857    10864.212    80195.001    34854.081   -82456.447    239.74547    6168.1174   -41415.116    90.173684 
    3000    2053.1268   -104.21635    1.8577123   -102.35864   -212.58306    4.4667792    4.4667792    4.4667792   -212.58306    19511.967   -38107.385    17957.668    -7605.017     4713.392    2818.4033    89.121696 
    3100    1444.8066   -103.71113    1.3072913   -102.40384   -6769.5067    4.4551484    4.4551484    4.4551484   -6769.5067     93045.28   -20237.911    -93115.89    13259.562    5210.1527   -32573.679    88.427335 
    3200    2583.9863   -104.75821    2.3380451   -102.42016   -11522.853    4.4518859    4.4518859    4.4518859   -11522.853    56131.423    -35215.55   -55484.432   -2216.6006    4259.6715    875.28302    88.233209 
    3300     1405.713   -103.72013    1.2719187   -102.44821   -7159.7205    4.4738205    4.4738205    4.4738205   -7159.7205    42328.024    2301.3527   -66108.538    4242.9707    -7035.135   -22662.023     89.54383 
    3400    1690.6877   -103.92411    1.5297698   -102.39434    9428.6379    4.4818018    4.4818018    4.4818018    9428.6379    43002.164    19655.322   -34371.572    198.29306   -20340.329    3493.6119    90.023924 
    3500    2184.5737   -104.33889    1.9766482   -102.36224   -42385.486    4.4616658    4.4616658    4.4616658   -42385.486   -2133.7163   -79466.828   -45555.912   -9922.9998    2673.6927   -40504.776    88.815977 
    3600     2048.903   -104.23858    1.8538905   -102.38469    17166.437    4.4452856    4.4452856    4.4452856    17166.437    10605.351     73596.61   -32702.651   -8637.8799   -17053.209   -130.57774    87.841353 
    3700    1605.9054   -103.89012    1.4530569   -102.43706   -12663.216    4.4574774    4.4574774    4.4574774   -12663.216    37337.903   -38851.834   -36475.718   -3535.1514    29442.765   -33005.998    88.566084 
    3800    2211.9735   -104.41945    2.0014401   -102.41801   -17811.287     4.466825     4.466825     4.466825   -17811.287   -56551.659   -9299.8224     12417.62    -9476.081     6399.705    1075.3387    89.124439 
    3900    1081.0513   -103.38638   0.97815791   -102.40822    30565.678    4.4568157    4.4568157    4.4568157    30565.678    52349.036    25477.973    13870.026   -2942.6756   -5642.0211   -35669.364    88.526648 
    4000    2431.2898   -104.59181    2.1998821   -102.39193    145.21431    4.4519245    4.4519245    4.4519245    145.21431   -42467.704    -25840.64    68743.987   -23438.838    -8276.971   -13102.353    88.235502 
    4100    1451.6565   -103.72791    1.3134893   -102.41442   -6398.8894    4.4528087    4.4528087    4.4528087   -6398.8894    9364.0126   -29944.053    1383.3723    10297.105    -44464.68    -45980.62    88.288086 
    4200    1703.2624   -103.93897    1.5411476   -102.39782    29672.795    4.4583429    4.4583429    4.4583429    29672.795    19459.686    26121.972    43436.729    -11213.41   -14585.839    1275.9648    88.617683 
    4300    1772.3225    -104.0085    1.6036347   -102.40487   -37102.846    4.4601289    4.4601289    4.4601289   -37102.846    14063.438   -42556.416   -82815.559   -9336.8128   -20702.003   -51551.926    88.724227 
    4400    2198.7867   -104.37747    1.9895084   -102.38796   -24197.507    4.4452647    4.4452647    4.4452647   -24197.507   -48394.306    -4737.899   -19460.315    660.21258   -12152.716    22550.806    87.840113 
    4500    1494.4587   -103.76552    1.3522177    -102.4133    24435.246    4.4393305    4.4393305    4.4393305    24435.246    112874.24   -47450.756    7882.2561    13614.866   -1775.8577   -44976.235    87.488794 
    4600    2067.6569    -104.2993    1.8708594   -102.42844   -13228.607    4.4470184    4.4470184    4.4470184   -13228.607   -5838.1805   -44405.712     10558.07    3497.9794    -19874.71   -6056.2058    87.944116 
    4700    1764.5394   -104.06419    1.5965923   -102.46759   -674.45362    4.4639172    4.4639172    4.4639172   -674.45362    57903.821   -81344.332     21417.15    6645.1352     40165.06   -4354.3506    88.950498 
    4800    1777.3931   -104.05918    1.6082226   -102.45096   -15304.394    4.4789126    4.4789126    4.4789126   -15304.394    21203.752   -39982.838   -27134.094    8527.1691   -4114.5192    7822.1721    89.849931 
    4900    2071.4183   -104.26821    1.8742628   -102.39394   -28136.539    4.4839211    4.4839211    4.4839211   -28136.539    45119.925   -71776.931   -57752.612   -11775.571    2719.2132   -24285.342    90.151692 
    5000    1493.3109   -103.70322    1.3511791   -102.35204    21186.096    4.4790819    4.4790819    4.4790819    21186.096    77740.268    10825.821   -25007.801    -11773.47      8641.62   -1466.5822    89.860126 
    5100     1890.211   -104.05617    1.7103026   -102.34587    4932.3156    4.4680952    4.4680952    4.4680952    4932.3156    4139.2112   -10564.219    21221.955   -5227.5261    9212.2449   -23644.877    89.200492 
    5200    1476.1839    -103.7167    1.3356822   -102.38102    15503.125    4.4578107    4.4578107    4.4578107    15503.125    62044.165    34966.363   -50501.152   -16838.123   -38937.005    5376.7577    88.585953 
    5300    1810.3032   -104.05137    1.6380003   -102.41337    13046.225    4.4504171    4.4504171    4.4504171    13046.225    111091.24   -26844.331   -45108.237    21002.557    1897.4245   -3024.0203    88.145908 
    5400    2360.6448   -104.58336     2.135961    -102.4474     -37369.4    4.4749241    4.4749241    4.4749241     -37369.4   -13965.858   -43141.491   -55000.851    8567.4112    3551.4546     15618.52    89.610115 
    5500    1704.7627   -103.96698    1.5425052   -102.42448   -35994.607    4.5026888    4.5026888    4.5026888   -35994.607   -3454.2163   -73496.859   -31032.745    21680.519   -5185.0161   -11555.371    91.288441 
    5600    1935.0577   -104.11519    1.7508809   -102.36431   -6061.0741    4.4853036    4.4853036    4.4853036   -6061.0741    4942.0406   -30332.001    7206.7378    9325.4858    10048.828   -9317.4441    90.235105 
    5700    1409.4329   -103.62147    1.2752845   -102.34618    29562.339    4.4586959    4.4586959    4.4586959    29562.339     15591.85    22391.938    50703.229    8242.3485   -25714.897   -23735.985    88.638735 
    5800    1612.2775   -103.84149    1.4588226   -102.38267    24863.949    4.4628977    4.4628977    4.4628977    24863.949    57773.398   -16901.452    33719.902    12389.168   -6926.8571   -4588.0114    88.889565 
    5900    1107.3934    -103.4308    1.0019928   -102.42881     25896.72    4.4770545    4.4770545    4.4770545     25896.72    101575.24   -23803.636   -81.443871   -3561.0563   -18912.051   -19847.534    89.738155 
    6000    2138.8345    -104.3652    1.9352624   -102.42993   -21535.797    4.4732973    4.4732973    4.4732973   -21535.797   -9075.2867   -49977.132   -5554.9711    4515.5027    17421.736    11809.796    89.512415 
    6100     2308.115   -104.50293    2.0884309    -102.4145   -11698.135    4.4393732    4.4393732    4.4393732   -11698.135     41802.45   -39398.959   -37497.895   -3049.4707   -6793.5592    -4206.224    87.491322 
    6200     2000.685   -104.24864    1.8102618   -102.43838    13684.401    4.4409192    4.4409192    4.4409192    13684.401   -26571.057   -29825.003    97449.263   -13200.325   -10754.673    4519.8512     87.58276 
    6300    1071.9066   -103.44235    0.9698836   -102.47247    30283.876    4.4635833    4.4635833    4.4635833    30283.876    134327.54   -33532.285   -9943.6294   -19310.108     28484.47   -2601.2883    88.930542 
    6400    1638.6517   -103.93554    1.4826865   -102.45286   -23289.724    4.4746197    4.4746197    4.4746197   -23289.724    36802.737   -32097.467   -74574.442    2673.7231   -42272.058    2618.7488    89.591826 
    6500    2071.8039   -104.29363    1.8746117   -102.41902   -1681.3777    4.4610015    4.4610015    4.4610015   -1681.3777    55263.079    -33015.85   -27291.362   -18764.963    1431.2927   -14374.659    88.776312 
    6600    1561.6581     -103.851     1.413021   -102.43798   -731.18314     4.448764     4.448764     4.448764   -731.18314    51393.366    31364.807   -84951.722    4758.4425   -61882.727   -3559.4361    88.047718 
    6700    2081.4273   -104.34018    1.8833191   -102.45686   -5520.0904    4.4481621    4.4481621    4.4481621   -5520.0904   -12950.898   -20836.696    17227.323   -9523.4081    42980.882   -10607.958    88.011986 
    6800    1471.0893   -103.80921    1.3310725   -102.47814   -16797.587    4.4660046    4.4660046    4.4660046   -16797.587    1246.2831    49692.882   -101331.93   -2831.5981   -33819.935   -5653.8648    89.075345 
    6900    1985.3276   -104.23788    1.7963661   -102.44152   -21304.526    4.4652479    4.4652479    4.4652479   -21304.526    10276.699   -55725.994   -18464.283   -18749.134   -12.662397   -12113.646     89.03007 
    7000    1674.2341   -103.92495    1.5148822   -102.41007    11503.288    4.4574661    4.4574661    4.4574661    11503.288   -1611.0205    19188.041    16932.844    13263.106   -13123.761    1587.2335     88.56541 
    7100    1882.3227   -104.11076    1.7031651   -102.40759   -24746.849    4.4660705    4.4660705    4.4660705   -24746.849    18336.312   -49963.303   -42613.555   -30361.997    5687.2926   -7728.3645    89.079288 
    7200    2144.9699   -104.34467    1.9408139   -102.40385   -9348.6015    4.4539637    4.4539637    4.4539637   -9348.6015   -10735.296   -15007.266   -2303.2424    14691.364   -23546.666    7337.0344    88.356807 
    7300    1818.4554   -104.07648    1.6453766    -102.4311    4213.2333    4.4521448    4.4521448    4.4521448    4213.2333    -32534.77    24765.775    20408.695   -10249.062    8263.1495   -14757.822    88.248604 
    7400    1900.9656   -104.14555    1.7200336   -102.42551    3320.0559    4.4447955    4.4447955    4.4447955    3320.0559    67393.072   -22001.116   -35431.788   -5656.1841   -3581.2311   -7755.4665    87.812303 
    7500    2076.3154   -104.30522    1.8786938   -102.42653   -21574.892     4.444358     4.444358     4.444358   -21574.892   -11953.346   -13793.167   -38978.163    4300.6165   -25180.257    1965.0072    87.786373 
    7600     1754.874   -104.01132    1.5878469   -102.42347   -229.12972    4.4523541    4.4523541    4.4523541   -229.12972     44312.22   -15852.108   -29147.502    22665.958    2776.6794   -4589.4191     88.26105 
    7700    2039.0439   -104.26162    1.8449698   -102.41665   -60468.332    4.4614684    4.4614684    4.4614684   -60468.332   -52458.138   -41589.332   -87357.524   -8583.6233   -38740.036    3225.0561    88.804193 
    7800    2020.1244   -104.22966     1.827851   -102.40181    11423.474    4.4550243    4.4550243    4.4550243    11423.474    80593.113   -32318.726   -14003.965    653.26322   -884.12541   -2318.2289    88.419942 
    7900    959.93351   -103.28232   0.86856801   -102.41375    7720.0256    4.4461464    4.4461464    4.4461464    7720.0256   -17761.315    51686.455   -10765.063    11249.149   -31995.897    7377.4739     87.89239 
    8000    1882.7433   -104.10603    1.7035457   -102.40249     22031.52    4.4445942    4.4445942    4.4445942     22031.52    76473.663    12326.179   -22705.283   -22861.844     28634.95   -7851.3585    87.800368 
    8100    1889.1912   -104.14133    1.7093799   -102.43195   -16686.356    4.4508204    4.4508204    4.4508204   -16686.356   -40181.014    14651.117   -24529.171   -932.70557   -34843.249   -12444.816    88.169874 
    8200    2178.3224   -104.38987    1.9709918   -102.41888   -19611.416    4.4542304    4.4542304    4.4542304   -19611.416   -20324.897   -14543.885   -23965.466     6436.924    17999.059    2970.9598     88.37268 
    8300     1020.861   -103.34892   0.92369648   -102.42523     14559.15     4.440882     4.440882     4.440882     14559.15    9395.2284    90826.339   -56544.118    11147.797    -20590.78    -3166.025    87.580559 
    8400    2331.9837   -104.53026    2.1100279   -102.42023   -18.242293     4.435247     4.435247     4.435247   -18.242293    34185.107   -26770.763   -7469.0712    1908.7189   -3637.8058    4847.9509     87.24759 
    8500    1349.0833   -103.66073    1.2206789   -102.44005    33722.803    4.4255485    4.4255485    4.4255485    33722.803    28033.708    10841.594    62293.107    14802.648   -38844.459    13773.763    86.676489 
    8600    2005.7512   -104.26342    1.8148458   -102.44857   -607.53507    4.4411562    4.4411562    4.4411562   -607.53507   -18845.473   -6004.4491    23027.317   -6075.9127   -11627.411   -7480.9255    87.596783 
    8700    1191.1378   -103.50917    1.0777665    -102.4314      17085.6    4.4468434    4.4468434    4.4468434      17085.6   -1656.4763   -23984.944    76898.221     18414.16   -37018.996   -3002.8405    87.933733 
    8800    2117.4449   -104.34763    1.9159086   -102.43173   -26750.696    4.4366994    4.4366994    4.4366994   -26750.696   -42658.179   -25493.501   -12100.409   -14659.884   -26862.226    11985.392    87.333327 
    8900    1859.1831   -104.11634     1.682228   -102.43411    31108.516    4.4195228    4.4195228    4.4195228    31108.516    35502.604    6527.3039    51295.641   -7210.0719   -11469.588   -5286.9138    86.322922 
    9000    1365.9802   -103.70168    1.2359676   -102.46571    -22399.79    4.4263557    4.4263557    4.4263557    -22399.79     15295.56   -20532.215   -61962.716   -11015.108   -24594.521   -4050.2975    86.723924 
    9100    2137.7306   -104.38141    1.9342636   -102.44714    1417.7421    4.4353211    4.4353211    4.4353211    1417.7421   -18248.527   -9702.0488    32203.802   -33243.835    10161.265   -4522.4533    87.251961 
    9200    1485.4144   -103.78285    1.3440341   -102.43882     21314.98    4.4194867    4.4194867    4.4194867     21314.98    43065.904    29472.473   -8593.4373    10330.687   -15489.857   -1506.5409     86.32081 
    9300    1719.1199   -104.01047    1.5554958   -102.45497   -525.67941     4.423363     4.423363     4.423363   -525.67941    8408.0366    700.01522    -10685.09    -29453.45    17866.662    -8511.838    86.548143 
    9400    2419.8061   -104.63213    2.1894914   -102.44264   -14614.798    4.4431672    4.4431672    4.4431672   -14614.798   -7758.3188   -16567.776   -19518.298    30970.415   -24342.365   -23244.749    87.715828 
    9500    790.51532    -103.1429   0.71527487   -102.42763    33765.449    4.4400425    4.4400425    4.4400425    33765.449    62880.788    17286.951    21128.607   -33054.417    3716.2308    7483.9893    87.530896 
    9600    2608.2897   -104.78416    2.3600353   -102.42412   -20414.054    4.4476097    4.4476097    4.4476097   -20414.054   -17512.184   -30058.693   -13671.285    26296.726   -5071.7102   -12186.683      87.9792 
    9700    1652.6842   -103.92844    1.4953834   -102.43306    2010.8674    4.4391173    4.4391173    4.4391173    2010.8674    24750.706    12167.981   -30886.085   -39553.462   -7108.8741    -7403.164    87.476192 
    9800    2164.9648   -104.40026    1.9589057   -102.44136   -8028.4288    4.4264486    4.4264486    4.4264486   -8028.4288    8637.8666   -18873.304   -13849.849    9054.1098    -287.9441   -7375.4709    86.729387 
    9900    1361.9416   -103.69029    1.2323134   -102.45797    49953.272    4.4319847    4.4319847    4.4319847    49953.272    65852.062    38070.168    45937.585   -45218.659   -66.081413   -7659.8651     87.05521 
   10000    1745.6862   -104.03887    1.5795336   -102.45933   -32702.553    4.4546375    4.4546375    4.4546375   -32702.553   -63052.481   -15552.622   -19502.555    1440.4379    10384.731    668.47544    88.396915 
   10100    1626.6066   -103.90137    1.4717879   -102.42958    24345.418    4.4418413    4.4418413    4.4418413    24345.418     95293.87   -5695.7516   -16561.863   -20728.627   -5703.2919   -6990.0167    87.637326 
   10200    2000.4483    -104.2439    1.8100477   -102.43386    -12320.15    4.4374328    4.4374328    4.4374328    -12320.15   -30635.177    26561.668    -32886.94   -23997.955    12339.197    4823.9439    87.376643 
   10300    1929.9961   -104.18483    1.7463011   -102.43853   -20435.006    4.4435209    4.4435209    4.4435209   -20435.006   -4865.6948   -10418.036   -46021.289    1071.1938   -49.416777    9017.1113    87.736776 
   10400    1951.1436   -104.20739    1.7654358   -102.44196   -44458.441    4.4405938    4.4405938    4.4405938   -44458.441   -25569.812   -69162.475   -38643.037   -53240.151    15799.435   -3377.2839    87.563505 
   10500    1775.5567   -104.05658     1.606561   -102.45002     12900.72    4.4327871    4.4327871    4.4327871     12900.72     1484.417    73114.288   -35896.547    18645.299   -4629.5606    5671.0418    87.102503 
   10600    1127.2616   -103.49879      1.01997   -102.47882    12218.601    4.4327541    4.4327541    4.4327541    12218.601    7877.1425    32391.247   -3612.5869   -46243.088    7333.0822   -16955.298    87.100553 
   10700    2322.7046   -104.55823     2.101632    -102.4566   -4897.8833    4.4308736    4.4308736    4.4308736   -4897.8833   -9756.7073    -4910.209    -26.73371     21985.13    4934.4636   -1616.3077    86.989753 
   10800     1322.166   -103.66484    1.1963236   -102.46852    3487.6169    4.4394934    4.4394934    4.4394934    3487.6169    1888.3922    9300.2635   -725.80493   -46689.417   -9522.8606    1825.3465    87.498424 
   10900    2233.6778   -104.46809    2.0210786   -102.44701   -24774.314    4.4480536    4.4480536    4.4480536   -24774.314    30149.011   -46197.129   -58274.826    9844.9157    14074.201   -2949.8803    88.005547 
   11000    1357.6909   -103.66391    1.2284672   -102.43544    40740.262    4.4361336    4.4361336    4.4361336    40740.262    80287.111    3576.0489    38357.626   -43333.732   -19163.788    10595.435    87.299921 
   11100    2298.2117   -104.50073    2.0794702   -102.42126   -8630.3109    4.4447278    4.4447278    4.4447278   -8630.3109   -14630.743   -37146.753    25886.563     9559.876   -2798.3486   -15037.427    87.808286 
   11200    1631.7401   -103.89296    1.4764327   -102.41653   -11586.101    4.4407006    4.4407006    4.4407006   -11586.101     39194.55   -29133.355   -44819.499   -42570.206   -3341.6765    5474.6615    87.569827 
   11300    2214.3197   -104.41636     2.003563   -102.41279    19055.338    4.4312539    4.4312539    4.4312539    19055.338    48898.519   -38685.552    46953.046    13125.171   -21929.756   -12378.745    87.012151 
   11400    1459.2475   -103.75659    1.3203578   -102.43624    10757.474    4.4394381    4.4394381    4.4394381    10757.474    44242.286   -30303.476    18333.613   -24472.593   -7495.2374   -3740.6634     87.49516 
   11500    1656.2094   -103.94391    1.4985731   -102.44534   -14279.519    4.4385083    4.4385083    4.4385083   -14279.519   -55471.939   -15139.632    27773.013     13690.75   -21157.893   -22550.708    87.440196 
   11600    1914.3614   -104.15811    1.7321544   -102.42596    5935.7996    4.4404816    4.4404816    4.4404816    5935.7996   -24188.404   -26428.656    68424.459   -26658.292    14107.974   -3588.1853    87.556868 
   11700    1596.2199   -103.87064    1.4442933   -102.42635   -18121.198    4.4484129    4.4484129    4.4484129   -18121.198   -19025.306    3313.9779   -38652.264    4454.8836    3315.0152    -13406.59    88.026872 
   11800    1863.6203   -104.09028    1.6862429   -102.40404     4080.507    4.4459612    4.4459612    4.4459612     4080.507   -14545.811    13089.511    13697.822   -10343.383   -8757.8134   -4242.6154    87.881406 
   11900    1989.3351   -104.20974    1.7999922   -102.40975   -21855.832    4.4445305    4.4445305    4.4445305   -21855.832   -59014.107   -17340.877    10787.488   -21378.284     1992.293   -12804.675    87.796597 
   12000    1580.1629   -103.84636    1.4297646   -102.41659      24314.4    4.4414652    4.4414652    4.4414652      24314.4    13603.538     15329.48    44010.182    7613.6312   -11411.285   -12980.284    87.615063 
   12100    1893.8127   -104.14058    1.7135615   -102.42702   -11250.953    4.4456497    4.4456497    4.4456497   -11250.953   -18506.023   -19780.814    4533.9778    -22593.39   -13312.128   -23827.025    87.862937 
   12200    1724.7041   -103.98175    1.5605485   -102.42121        15273    4.4533547    4.4533547    4.4533547        15273   -30676.086    33340.809    43154.278   -1541.4633   -27971.018   -33488.514    88.320572 
   12300    1471.7054   -103.74563      1.33163     -102.414    -19586.77     4.474361     4.474361     4.474361    -19586.77    -69093.35   -50027.772    60360.812   -14455.374    572.50174   -28644.229     89.57629 
   12400    1562.3013    -103.7892     1.413603   -102.37559   -2736.6838    4.4780853    4.4780853    4.4780853   -2736.6838    8585.7256   -28550.306    11754.529   -6648.5447   -37514.266   -10466.643    89.800154 
   12500    1551.6235   -103.74765    1.4039415   -102.34371    34547.864    4.4590587    4.4590587    4.4590587    34547.864    17861.204   -19249.937    105032.33   -11854.809   -7447.6463   -17905.386    88.660373 
   12600    1564.7111   -103.78393    1.4157835   -102.36814    15764.853    4.4546536    4.4546536    4.4546536    15764.853    58785.949    2885.4268   -14376.817   -2273.6177   -39572.823   -2664.2941    88.397874 
   12700     2081.823   -104.29011    1.8836772   -102.40643     4354.696    4.4585426    4.4585426    4.4585426     4354.696    32644.485    -19787.21     206.8131   -22500.008    1575.1516     7749.079    88.629592 
   12800    1520.4924   -103.79535    1.3757735   -102.41958   -13468.732    4.4647286    4.4647286    4.4647286   -13468.732   -4376.5981   -52968.448    16938.852    21603.216   -17675.777   -2462.4479    88.999016 
   12900    1650.2176   -103.89446    1.4931516   -102.40131    18624.587    4.4548602    4.4548602    4.4548602    18624.587    101407.21    -31659.48   -13873.968    6323.7196    1787.4568    13805.168    88.410172 
   13000    2263.8976   -104.45041    2.0484221   -102.40199    -14565.24    4.4522277    4.4522277    4.4522277    -14565.24   -25333.534   -27841.866    9479.6823    16516.694   -11214.039     5615.368    88.253535 
   13100    1593.2379   -103.85692    1.4415951   -102.41533   -79.976439    4.4641936    4.4641936    4.4641936   -79.976439    14367.317    4032.9924   -18640.239     7211.557   -4148.5457   -9134.5971    88.967022 
   13200    1445.0729   -103.70385    1.3075324   -102.39631    26131.508    4.4565231    4.4565231    4.4565231    26131.508    59690.551    19840.404   -1136.4305    17792.323    676.18653   -17087.262    88.509212 
   13300    2006.7024   -104.22453    1.8157065   -102.40882   -604.61376     4.464568     4.464568     4.464568   -604.61376    39604.684   -26428.843   -14989.683    7025.6935   -10545.454    5031.1846    88.989408 
   13400    2055.8525   -104.25967    1.8601786   -102.39949   -41760.713    4.4874224    4.4874224    4.4874224   -41760.713    -39922.66   -18389.452   -66970.025    495.00727    8326.5155    11424.534    90.363045 
   13500     2239.261   -104.38129    2.0261304   -102.35516   -51139.707    4.4772332    4.4772332    4.4772332   -51139.707   -27336.462   -67314.536   -58768.123    14269.111   -20068.059    5572.5947      89.7489 
   13600    1850.7732   -104.01078    1.6746185   -102.33616    14150.834     4.441896     4.441896     4.441896    14150.834    14900.879    27587.961   -36.337845   -3618.0298    2373.8469   -11496.341    87.640565 
   13700    2049.3911   -104.23424    1.8543321   -102.37991    47332.066     4.429604     4.429604     4.429604    47332.066    95867.214    57762.537   -11633.553    20560.864   -11854.687   -3681.7139    86.914997 
   13800    1146.5998   -103.51582    1.0374676   -102.47836    9480.5533    4.4550978    4.4550978    4.4550978    9480.5533   -5416.1773    24131.398    9726.4392   -9969.0045    3818.9589    9262.7863    88.424317 
   13900    2493.6953   -104.69919    2.2563479   -102.44285   -49572.713    4.4848057    4.4848057    4.4848057   -49572.713   -17459.104   -59277.912   -71981.124   -4330.9382   -7831.1597   -16040.454    90.205061 
   14000    1961.8061   -104.18285    1.7750834   -102.40777   -43225.438    4.4661456    4.4661456    4.4661456   -43225.438   -3758.1789   -70196.807   -55721.329   -26049.644    -2307.569   -25.690566    89.083777 
   14100    2051.8621   -104.23805    1.8565679   -102.38148   -2648.3578    4.4257251    4.4257251    4.4257251   -2648.3578   -11067.315    29284.642     -26162.4   -9365.2386   -4.1594782   -17413.101    86.686865 
   14200    1806.3953   -104.06683    1.6344645   -102.43237    48413.594    4.4189116    4.4189116    4.4189116    48413.594    58142.068    21036.715        66062    3285.1654   -2916.2857    686.61124    86.287115 
   14300     2185.224   -104.46942    1.9772366   -102.49218    -57495.51     4.452081     4.452081     4.452081    -57495.51   -43530.072   -71372.005   -57584.455   -17135.649    5922.9734   -18193.933    88.244812 
   14400    1543.9276   -103.85248    1.3969781   -102.45551    23898.083    4.4766036    4.4766036    4.4766036    23898.083   -8278.5507     33550.31    46422.489   -13338.219   -10522.033    3374.7709    89.711043 
   14500    1426.6512    -103.7106    1.2908639   -102.41974   -30121.032    4.4765616    4.4765616    4.4765616   -30121.032    -9099.606   -44028.708   -37234.783   -23551.796    13542.673   -861.01126    89.708523 
   14600    2207.3217   -104.37714    1.9972311   -102.37991    -6347.514    4.4404007    4.4404007    4.4404007    -6347.514    -17450.65   -21937.814    20345.922    3213.4294   -14055.271   -9431.5194    87.552085 
   14700    1762.1086   -103.99896    1.5943929   -102.40456    28667.243    4.4106123    4.4106123    4.4106123    28667.243    22598.789    73129.517   -9726.5765   -8324.3481    13633.029    -3528.654    85.801849 
   14800    1845.4137   -104.14355    1.6697691   -102.47379   -16175.328    4.4268523    4.4268523    4.4268523   -16175.328   -4594.9031   -18883.819   -25047.261   -9942.8788    9983.1131    -28496.03     86.75312 
   14900    1852.4008   -104.14827    1.6760912   -102.47218   -4709.5058    4.4597599    4.4597599    4.4597599   -4709.5058   -28093.463    61440.766   -47475.821    5257.8007   -11145.232    14299.415    88.702208 
   15000    1269.1611   -103.60006    1.1483637    -102.4517   -33291.128    4.4653644    4.4653644    4.4653644   -33291.128    -32666.95   -21311.409   -45895.026   -5098.2504     43975.66   -30019.134    89.037043 
   15100    2446.2205   -104.61375    2.2133917   -102.40035    14462.814     4.427671     4.427671     4.427671    14462.814   -609.13088    82699.203   -38701.631   -19517.093    -10593.96    8244.8199     86.80126 
   15200    1041.2037   -103.38468   0.94210301   -102.44258    24904.701     4.422413     4.422413     4.422413    24904.701    38343.047    76642.342   -40271.286   -4499.4352    12573.921   -6870.9341    86.492386 
   15300    2144.7306   -104.41825    1.9405973   -102.47765    -31677.13    4.4441414    4.4441414    4.4441414    -31677.13   -13689.556   -60350.716   -20991.119   -12619.235   -2059.1577   -12132.315     87.77354 
   15400    1670.6919    -103.9712    1.5116772   -102.45952   -7255.9538    4.4595178    4.4595178    4.4595178   -7255.9538   -37724.418    66266.393   -50309.837   -7346.4061     11315.61   -8843.7152    88.687766 
   15500    1462.4571   -103.75885     1.323262   -102.43558   -26373.497     4.458497     4.458497     4.458497   -26373.497    4052.5939    5833.4695   -89006.554   -2715.9563    4623.9512   -12430.519    88.626875 
   15600    1731.4401   -103.98664    1.5666434   -102.41999    10771.732    4.4371364    4.4371364    4.4371364    10771.732   -46197.534    14986.865    63525.864    16770.618    6075.3226   -15136.679     87.35914 
   15700    1604.0092   -103.90135    1.4513412   -102.45001    35910.184    4.4307287    4.4307287    4.4307287    35910.184   -31156.942    29722.953    109164.54   -23281.337   -7798.1366   -18279.015    86.981217 
   15800     1122.593   -103.52161    1.0157457   -102.50587   -25805.594    4.4378582    4.4378582    4.4378582   -25805.594   -2124.2031   -65642.677   -9649.9019    16728.128    13346.686    16092.836    87.401779 
   15900    2475.9261   -104.73293    2.2402699   -102.49266    5606.4773    4.4391145    4.4391145    4.4391145    5606.4773   -38234.652    83509.605   -28455.521    -11371.14   -6386.7912    5517.5552    87.476027 
   16000    2010.4338   -104.32851    1.8190827   -102.50943   -39739.371    4.4415343    4.4415343    4.4415343   -39739.371   -58192.577   -16910.556   -44114.979    11822.049    -3538.364    1641.0205    87.619157 
   16100    773.35057   -103.19948   0.69974385   -102.49974    57148.284    4.4191758    4.4191758    4.4191758    57148.284    15847.963    44959.053    110637.83    3157.0804    18674.431   -5733.8373    86.302591 
   16200    2015.2409   -104.33007    1.8234323   -102.50664    22829.139    4.4306985    4.4306985    4.4306985    22829.139   -50161.416    24080.662    94568.172   -4936.4027   -4448.0381   -17863.407    86.979437 
   16300    1727.2936   -104.06888    1.5628915   -102.50599   -46111.501    4.4425544    4.4425544    4.4425544   -46111.501   -33991.703   -47102.371   -57240.428    3730.5016    18184.496    26357.818    87.679538 
   16400    1504.3476   -103.84717    1.3611653   -102.48601    4269.4234    4.4358613    4.4358613    4.4358613    4269.4234   -20884.571    80624.284   -46931.442    6367.2074   -7731.2551    11571.862    87.283844 
   16500    2221.2039    -104.4988     2.009792   -102.48901    17185.117    4.4227034    4.4227034    4.4227034    17185.117   -46704.555    47859.218    50400.688   -2849.7092    12750.001    8772.2613     86.50943 
   16600    1572.6882   -103.93129    1.4230014   -102.50829    8657.4546    4.4205686    4.4205686    4.4205686    8657.4546   -9059.6574    5402.8083    29629.213   -7551.3778   -9365.3193    695.35072    86.384216 
   16700    1437.7625   -103.79309    1.3009177   -102.49217      4209.74    4.4381374    4.4381374    4.4381374      4209.74   -10535.621    37684.469   -14519.628     7551.113    17784.402    -27861.23    87.418274 
   16800    2081.8537   -104.34449    1.8837049   -102.46078   -4930.5023    4.4373474    4.4373474    4.4373474   -4930.5023   -17467.694    28599.891   -25923.703   -13129.616    3072.7274    13018.071    87.371599 
   16900    1263.3851   -103.60195    1.1431373   -102.45881    466.75425    4.4368464    4.4368464    4.4368464    466.75425   -4185.9863   -17182.657    22768.906   -2421.1241    19956.048   -18258.175    87.342008 
   17000    1790.9655   -104.06981    1.6205032    -102.4493    32392.327     4.444407     4.444407     4.444407    32392.327   -6309.2691    81792.543    21693.707    6969.4653    11796.178    5405.6389    87.789276 
   17100    2090.1363   -104.33423    1.8911993   -102.44303   -29949.029    4.4462458    4.4462458    4.4462458   -29949.029    -18848.41   -38469.893   -32528.783   -22056.447     3504.773    10872.747    87.898288 
   17200    1393.0365   -103.69203    1.2604487   -102.43159    402.76272    4.4327605    4.4327605    4.4327605    402.76272   -30200.798    93028.026   -61618.941    19864.735    24544.632   -4060.0257    87.100931 
   17300    2651.8195   -104.82185     2.399422   -102.42243   -1949.8146    4.4284929    4.4284929    4.4284929   -1949.8146    5785.1342    -16733.89    5099.3116   -28525.313   -5305.6282    21476.622    86.849608 
   17400    1031.2258   -103.37402   0.93307478   -102.44095     1634.142    4.4344937    4.4344937    4.4344937     1634.142    -40272.99    62971.425   -17796.009    16085.224    22256.202   -10337.624    87.203143 
   17500     2572.926   -104.75626    2.3280375   -102.42822   -18444.029    4.4352599    4.4352599    4.4352599   -18444.029   -24934.044    9239.3734   -39637.416   -1245.0975   -9982.1014    17238.448    87.248349 
   17600     1518.009   -103.81331    1.3735265   -102.43979   -13258.469    4.4491676    4.4491676    4.4491676   -13258.469    -57471.44   -8357.1659      26053.2   -3727.1754    25065.799   -6680.1157    88.071681 
   17700    1278.6003   -103.58225    1.1569044   -102.42535   -21461.739    4.4431618    4.4431618    4.4431618   -21461.739    -48900.95   -25754.964    10270.696    27313.129     27.85832   -10772.837    87.715511 
   17800    2499.6089   -104.67229    2.2616987    -102.4106    9444.8818    4.4085332    4.4085332    4.4085332    9444.8818    8428.2728    19604.524    301.84872    -15579.31   -474.97972   -906.70309    85.680568 
   17900    1597.3441   -103.90698    1.4453105   -102.46167   -5171.1108    4.4172941    4.4172941    4.4172941   -5171.1108   -43238.783   -26724.691    54450.141    47979.495    2469.6827    -15105.36    86.192395 
   18000    2101.1094   -104.35377    1.9011279   -102.45264   -6232.6732     4.443979     4.443979     4.443979   -6232.6732   -28108.688   -15708.452     25119.12   -10213.463    -5387.381    13048.109    87.763916 
   18100    1402.6915   -103.70164    1.2691848   -102.43246    -29661.72    4.4668445    4.4668445    4.4668445    -29661.72   -33032.902   -54039.503   -1912.7557    30489.267    11014.002   -3512.9932     89.12561 
   18200    2323.1644    -104.4924     2.102048   -102.39035   -18262.113    4.4492027    4.4492027    4.4492027   -18262.113   -32359.901   -10383.444   -12042.993    10148.277   -10470.372   -1518.4254    88.073766 
   18300    1878.4884   -104.09314    1.6996958   -102.39345    11662.579    4.4078268    4.4078268    4.4078268    11662.579   -3793.0182    40644.187   -1863.4331    22062.455   -724.51509     9113.864    85.639389 
   18400     1766.201   -104.04312    1.5980958   -102.44503    23465.558    4.4036474    4.4036474    4.4036474    23465.558    37905.945    3722.7047    28768.024    19103.895   -1486.9451   -4893.2347    85.396019 
   18500    1992.0706   -104.28782    1.8024674   -102.48535    13940.686    4.4446355    4.4446355    4.4446355    13940.686   -10576.676    38759.644     13639.09    -3793.846   -2209.3062    28370.946    87.802816 
   18600    1190.5833   -103.51517    1.0772648   -102.43791   -17062.434    4.4732631    4.4732631    4.4732631   -17062.434    5921.3277   -78725.763    21617.132    23993.324   -5907.3235   -2260.7249    89.510367 
   18700    2150.5456   -104.33191    1.9458588   -102.38606    -22965.03    4.4491129    4.4491129    4.4491129    -22965.03    432.05062   -39296.964   -30030.178   -17437.451   -11248.162    22269.492    88.068438 
   18800    1655.2661   -103.86857    1.4977196   -102.37086    51454.888     4.406968     4.406968     4.406968    51454.888     53566.83    30326.464    70471.371    32544.299    8941.9514   -15077.854    85.589345 
   18900     1722.147   -103.99612    1.5582348   -102.43789   -8335.7121     4.411201     4.411201     4.411201   -8335.7121    31154.163   -26666.492   -29494.807   -4745.5595    -3945.824    23015.116    85.836209 
   19000    2323.4785   -104.55801    2.1023322   -102.45568    19808.493    4.4307612    4.4307612    4.4307612    19808.493    28738.063   -3744.1029     34431.52   -6272.9886    7199.7332   -9467.1557     86.98313 
   19100     1256.984   -103.58772    1.1373455   -102.45038   -45265.872    4.4615378    4.4615378    4.4615378   -45265.872   -7810.2987   -29695.914   -98291.403   -4289.3644     -8419.88        22414    88.808337 
   19200    2218.2919   -104.40511    2.0071571   -102.39795   -22363.352     4.451719     4.451719     4.451719   -22363.352   -30543.651   -28897.574   -7648.8307   -31476.026    7433.5793    8177.5793    88.223288 
   19300    1993.4999   -104.18696    1.8037606   -102.38319    22433.963    4.4053907    4.4053907    4.4053907    22433.963    32266.523    24237.391    10797.976   -4646.7465   -5437.9656    18067.842    85.497475 
   19400    1551.8542   -103.83171    1.4041503   -102.42756   -18039.592     4.405379     4.405379     4.405379   -18039.592   -18884.423   -3071.2867   -32163.067   -44836.965     982.6973    1558.0583    85.496792 
   19500    2419.1815   -104.63376    2.1889263   -102.44483    267.78696    4.4275615    4.4275615    4.4275615    267.78696    7673.3237    19354.136   -26224.099   -2812.9497    5417.3954    8187.9077    86.794822 
   19600    1323.9833   -103.65063    1.1979679   -102.45267   -1892.6477    4.4477802    4.4477802    4.4477802   -1892.6477   -17413.741    21728.213    -9992.415   -18450.579   -999.65852    13476.874    87.989318 
   19700    1726.8081    -103.9748    1.5624523   -102.41234   -39674.175    4.4524378    4.4524378    4.4524378   -39674.175   -28435.363    -23046.49   -67540.673   -11931.058     2141.678    4468.4782    88.266026 
   19800    2126.7247   -104.33194    1.9243052   -102.40763    29827.481    4.4079849    4.4079849    4.4079849    29827.481    74494.548    13613.347    1374.5475   -1202.3874    8837.7185    24290.864    85.648606 
   19900    1396.9727   -103.69461    1.2640102    -102.4306     11827.33    4.3893924    4.3893924    4.3893924     11827.33    36765.665    -29025.38    27741.706   -22852.698    5793.4258   -27050.129    84.569396 
   20000    2409.2335    -104.6372    2.1799251   -102.45728    16168.476    4.4237687    4.4237687    4.4237687    16168.476    41631.678    27187.687   -20313.937    9904.8555    12212.321    7476.4017    86.571957 
   20100    1235.2315   -103.57977    1.1176635   -102.46211    -13434.52    4.4577779    4.4577779    4.4577779    -13434.52   -36002.521    -36125.85    31824.812   -12168.409    1212.4618     -23202.6       88.584 
   20200    2372.2349   -104.54846     2.146448   -102.40201    -45639.22      4.45982      4.45982      4.45982    -45639.22   -54429.495   -12473.202   -70014.964      7725.04    4149.8366    10399.229    88.705793 
   20300    1449.0081   -103.71517     1.311093   -102.40408    32091.822    4.4010604    4.4010604    4.4010604    32091.822    43956.829    50164.862    2153.7773   -6044.3829   -8067.3403   -14405.234    85.245602 
   20400    1951.3339    -104.1677    1.7656079    -102.4021    29377.774    4.3752494    4.3752494    4.3752494    29377.774    51402.246    27331.936    9399.1408    3044.2539    9724.2693    6803.8194    83.754554 
   20500    1965.8969   -104.24816    1.7787848   -102.46938    5847.5627    4.4121989    4.4121989    4.4121989    5847.5627    48821.829    27199.723   -58478.864   -4390.3263   -1457.5917    24496.621    85.894477 
   20600    1556.8379   -103.87526    1.4086596    -102.4666   -24200.183    4.4483926    4.4483926    4.4483926   -24200.183   -12500.105   -28082.943     -32017.5   -29178.121    10025.157   -12047.052    88.025665 
   20700    1933.3614   -104.17591     1.749346   -102.42657   -37336.732    4.4478465    4.4478465    4.4478465   -37336.732    3899.4994   -54152.382   -61757.313    20636.799   -6250.1587    41691.985    87.993251 
   20800    2066.5148   -104.27595     1.869826   -102.40612    -3293.741    4.4052859    4.4052859    4.4052859    -3293.741    -3864.027    14780.472   -20797.668    -35656.09     1101.321   -13122.391    85.491375 
   20900    1139.3338   -103.45776    1.0308932   -102.42686    41173.013     4.380632     4.380632     4.380632    41173.013    122169.92   -13253.006    14602.129    11925.869   -4941.7441    32642.873    84.064053 
   21000    2643.8543   -104.85522    2.3922149   -102.46301   -1560.2713     4.417258     4.417258     4.417258   -1560.2713   -1167.2704    13321.874   -16835.418     -14276.9    8608.5478   -17469.258     86.19028 
   21100    1303.5766   -103.64593    1.1795035   -102.46643   -29478.878    4.4461953    4.4461953    4.4461953   -29478.878    64211.811   -52595.663   -100052.78   -2233.3557   -2000.8215    39571.945    87.895291 
   21200    1887.4068   -104.14222    1.7077653   -102.43445   -15614.446    4.4406861    4.4406861    4.4406861   -15614.446    454.13644   -29403.864    -17893.61    11203.697    -907.1009   -22428.957    87.568969 
   21300     1668.434   -103.93936    1.5096342   -102.42972    -14187.75     4.409298     4.409298     4.409298    -14187.75    68984.895   -40070.129   -71478.017   -1314.0458    14233.278    51704.383    85.725171 
   21400    1462.0355   -103.75743    1.3228804   -102.43455    61745.837    4.3885313    4.3885313    4.3885313    61745.837    169864.62    19240.729    -3867.832    -472.2152   -12219.231   -19769.497    84.519634 
   21500    1978.6205   -104.29039    1.7902974   -102.50009   -12938.792    4.4226834    4.4226834    4.4226834   -12938.792    20440.174   -9937.6012    -49318.95    28988.125    5409.4072    41267.867    86.508256 
   21600    1963.0551   -104.23535    1.7762135   -102.45913   -32659.453    4.4548106    4.4548106    4.4548106   -32659.453    44314.896   -51209.906   -91083.349   -8511.0429    2618.3047   -20295.034    88.407223 
   21700    1811.9722   -104.05903    1.6395105   -102.41952    6936.2462    4.4301592    4.4301592    4.4301592    6936.2462   -6669.5201    18831.233     8647.026    23231.705   -3328.3101    29067.638    86.947682 
   21800    1938.9796   -104.15234    1.7544295   -102.39791    32532.622    4.4131961    4.4131961    4.4131961    32532.622    100314.27   -5606.5693    2890.1649    2691.1865    9895.5838   -14821.343    85.952728 
   21900    1569.0389   -103.85055    1.4196994   -102.43085   -2839.1782    4.4211416    4.4211416    4.4211416   -2839.1782    39636.548   -32039.771   -16114.312    8901.9666   -15230.503    21385.112    86.417814 
   22000    2008.6738   -104.27053    1.8174903   -102.45304   -6511.0441    4.4320545    4.4320545    4.4320545   -6511.0441   -9717.1061   -21993.611    12177.585      7705.92   -4393.6808   -8811.1189    87.059318 
   22100    2051.9046   -104.28755    1.8566064   -102.43094   -26727.438    4.4492003    4.4492003    4.4492003   -26727.438   -33135.768   -15341.232   -31705.313    6913.2036   -23521.808    18437.148    88.073626 
   22200    1610.9923   -103.85514    1.4576597   -102.39748   -21808.656    4.4415201    4.4415201    4.4415201   -21808.656   -28719.966    -30890.76   -5815.2423    22211.402    -17016.88    2788.2968    87.618312 
   22300    2845.9146    -104.9481    2.5750433   -102.37306   -17863.522    4.4316066    4.4316066    4.4316066   -17863.522   -38058.582    -7191.436   -8340.5489    4718.5897    -11818.45    8096.4339    87.032931 
   22400    1255.3075   -103.54808    1.1358286   -102.41226   -14430.492    4.4284128    4.4284128    4.4284128   -14430.492   -43262.262   -35759.818    35730.603    17280.891   -18280.163    14067.854    86.844895 
   22500    2150.9346   -104.36269    1.9462108   -102.41648   -10078.404    4.4276073    4.4276073    4.4276073   -10078.404   -29484.635   -40899.068     40148.49   -3568.5798   -4427.8844   -3926.5922    86.797515 
   22600     1564.107   -103.85899    1.4152369   -102.44375   -12214.372    4.4176899    4.4176899    4.4176899   -12214.372    4710.5889    -65357.82    24004.116    8581.1093   -18514.111    48559.176    86.215564 
   22700    2433.4804     -104.631    2.2018642   -102.42914    11966.258    4.4162061    4.4162061    4.4162061    11966.258     17754.12   -24.916388    18169.569    1062.8675   -15002.634   -8828.7835     86.12872 
   22800    1413.2232   -103.72651    1.2787141    -102.4478   -23604.943    4.4281293    4.4281293    4.4281293   -23604.943    1824.9832   -61540.606   -11099.208   -3843.2982   -8586.4426    34639.597    86.828218 
   22900    2473.4585   -104.65909    2.2380373   -102.42106    2319.8615     4.431118     4.431118     4.431118    2319.8615    10932.733   -571.27437   -3401.8741    3735.4023   -27687.064   -3228.4233    87.004146 
   23000    1603.7696   -103.86529    1.4511245   -102.41417   -5298.2301    4.4271633    4.4271633    4.4271633   -5298.2301    -12935.02   -37499.995    34540.325   -19538.614   -661.36993    12261.157    86.771403 
   23100    1777.1558    -104.0205     1.608008   -102.41249    6596.4761     4.415191     4.415191     4.415191    6596.4761    1529.2139    36674.649   -18414.435    6002.5999   -25047.333    17902.161    86.069342 
   23200    2359.8482   -104.55874    2.1352402    -102.4235    24734.663     4.409004     4.409004     4.409004    24734.663    54359.852   -14204.381     34048.52   -16539.899    9270.6226    -30564.84    85.708021 
   23300     998.0354    -103.3693    0.9030434   -102.46626    23966.944    4.4258369    4.4258369    4.4258369    23966.944   -34181.063     47733.37    58348.524   -3213.2177    -24355.01    28201.724    86.693437 
   23400    2212.6518   -104.45224    2.0020538   -102.45018     365.7008     4.446996     4.446996     4.446996     365.7008    9511.4835    13130.853   -21545.234   -13790.558    15128.905   -26351.622    87.942785 
   23500    1054.7021   -103.39631   0.95431661   -102.44199    34803.261    4.4353734    4.4353734    4.4353734    34803.261    49569.393    5992.1177    48848.271    5084.2138   -16549.202   -2520.9048     87.25505 
   23600    1949.0688   -104.19072    1.7635584   -102.42716    30599.061    4.4284736    4.4284736    4.4284736    30599.061    9556.6761    56138.996    26101.509   -7466.9204    11842.952   -16755.594     86.84847 
   23700    1804.2391   -104.05639    1.6325135   -102.42387    7773.1551    4.4449364    4.4449364    4.4449364    7773.1551    73189.445   -36476.219    -13393.76   -393.55935   -18339.472    9540.5369    87.820653 
   23800    1928.2849   -104.18049    1.7447527   -102.43574   -27163.366    4.4584672    4.4584672    4.4584672   -27163.366   -32724.356   -35884.431    -12881.31   -8826.2891     547.0058    13235.354    88.625099 
   23900    2064.6452   -104.27206    1.8681344   -102.40393    14564.731     4.450255     4.450255     4.450255    14564.731     19216.35   -16410.802    40888.646   -5640.8627   -398.95317   -6856.4382    88.136273 
   24000    1464.7682   -103.74788     1.325353   -102.42252   -21639.002    4.4283116    4.4283116    4.4283116   -21639.002    17554.469   -23525.693    -58945.78    4679.7145   -20030.316    37217.746    86.838942 
   24100    2018.1385   -104.26954    1.8260541   -102.44349    40699.244    4.4071338    4.4071338    4.4071338    40699.244    41770.713   -23132.892    103459.91   -15340.736    6718.1494   -4293.9089    85.599004 
   24200    1921.6301   -104.24926    1.7387313   -102.51052   -22325.819    4.4371988    4.4371988    4.4371988   -22325.819    11363.738   -49750.242   -28590.954    11867.034    -16941.02    13230.467    87.362825 
   24300    1335.5684   -103.67167    1.2084503   -102.46322   -25858.187    4.4669533    4.4669533    4.4669533   -25858.187   -49956.681   -79443.869    51825.988   -7934.6058   -1863.6026   -1414.8697     89.13212 
   24400    1865.8549   -104.10766    1.6882648   -102.41939    265.39945    4.4394206    4.4394206    4.4394206    265.39945    12442.149   -14752.007    3106.0572    3149.2364    16694.159   -17800.841    87.494123 
   24500    2038.3966   -104.25073     1.844384   -102.40635   -748.14217    4.4095815    4.4095815    4.4095815   -748.14217    -13951.91    1189.8333     10517.65    2933.7978    -12662.32     19958.42    85.741705 
   24600    1691.7283   -103.98945    1.5307114   -102.45874   -2433.6747    4.4298677    4.4298677    4.4298677   -2433.6747    467.69714   -28939.301     21170.58   -3471.9391    22905.675   -42652.874     86.93052 
   24700    2146.6351   -104.38691    1.9423205   -102.44459   -12429.342    4.4539557    4.4539557    4.4539557   -12429.342    8934.0103   -16180.446   -30041.589    16903.462   -7904.0022    27638.172    88.356334 
   24800    1322.5561   -103.62903    1.1966765   -102.43235    3174.9816    4.4461197    4.4461197    4.4461197    3174.9816   -2535.5138   -35878.428    47938.886   -9708.9087     7279.772   -34090.781    87.890806 
   24900    2134.2242   -104.34407    1.9310909   -102.41298    -564.1057    4.4268169    4.4268169    4.4268169    -564.1057   -19031.163   -7239.2801    24578.126    14759.232     13496.38    14349.208    86.751038 
   25000    1920.3987   -104.17098    1.7376171   -102.43336    11022.105    4.4193749    4.4193749    4.4193749    11022.105    46230.247   -25998.995    12835.065    6649.3902   -7845.2868   -26579.587    86.314258 
   25100     2024.982   -104.29787    1.8322462   -102.46563   -18696.124    4.4331358    4.4331358    4.4331358   -18696.124   -31061.697   -26086.185    1059.5101   -1693.5713    34347.678   -5588.8113    87.123054 
   25200    1891.8157   -104.16102    1.7117546   -102.44927    18932.009    4.4436685    4.4436685    4.4436685    18932.009    72631.127   -27167.506    11332.407    5406.7857   -22139.285   -6283.3726    87.745521 
   25300    1556.7782   -103.86204    1.4086056   -102.45344   -23768.483    4.4454485    4.4454485    4.4454485   -23768.483   -18818.396   -15611.666   -36875.387    3169.9771    25564.902   -17693.747     87.85101 
   25400    2227.5185   -104.43617    2.0155055   -102.42066    22570.219     4.434503     4.434503     4.434503    22570.219    14920.546   -16736.774    69526.885   -18066.939   -18712.529    5480.1833    87.203689 
   25500    1238.9262   -103.55411    1.1210064   -102.43311    11366.296    4.4264554    4.4264554    4.4264554    11366.296    19368.743    22393.534    -7663.388    3609.9547    8471.7147   -23032.847    86.729787 
   25600    2290.6954   -104.51751    2.0726694   -102.44484   -21244.422    4.4329613    4.4329613    4.4329613   -21244.422   -26797.632    10507.479   -47443.111   -23481.578    20040.161    14754.158    87.112767 
   25700    1567.4928   -103.87327    1.4183005   -102.45497    8823.9273    4.4342489    4.4342489    4.4342489    8823.9273    18360.748   -28430.771    36541.805   -205.14545   -8378.6142   -18669.736    87.188697 
   25800    1606.8296   -103.91181    1.4538932   -102.45792   -33274.836    4.4409645    4.4409645    4.4409645   -33274.836     809.0585   -29666.914   -70966.653   -2538.8861    23959.325     12746.72    87.585437 
   25900    2566.2416   -104.75118    2.3219893   -102.42919   -6822.3088    4.4392807    4.4392807    4.4392807   -6822.3088    22451.861   -41103.788    -1814.999   -16254.117    -17458.72    3521.5744    87.485853 
   26000    1193.3268   -103.52323    1.0797471   -102.44348    34179.293    4.4302999    4.4302999    4.4302999    34179.293    66760.442    22217.262    13560.175    16808.279    40192.564   -4167.5353    86.955964 
   26100    1958.3873   -104.20499      1.77199     -102.433     3672.199    4.4327696    4.4327696    4.4327696     3672.199    13977.534      18384.7   -21345.637    4212.9544   -18652.765    18288.319     87.10147 
   26200    2232.4934   -104.44714    2.0200069   -102.42714    4124.9309    4.4288953    4.4288953    4.4288953    4124.9309   -43251.835    57190.624   -1563.9967    6498.5516    18507.173    10252.138    86.873285 
   26300    1415.9019   -103.72428    1.2811378   -102.44315    14176.595    4.4391086    4.4391086    4.4391086    14176.595    10054.981    57353.234    -24878.43    6030.5092    -5452.907    15613.786    87.475677 
   26400    1920.7486   -104.15895    1.7379337   -102.42101   -26387.126    4.4617927    4.4617927    4.4617927   -26387.126   -16829.616    7443.2554   -69775.018   -9244.6578    21752.984    3063.1807    88.823561 
   26500     1706.944   -103.94083    1.5444788   -102.39635   -7137.7896    4.4488496    4.4488496    4.4488496   -7137.7896    11577.122    6155.6588   -39146.149   -15295.645   -483.37922    20799.348    88.052798 
   26600    1551.9938   -103.79201    1.4042766   -102.38774    1400.0538    4.4219413    4.4219413    4.4219413    1400.0538    35971.093    15710.459   -47481.391   -11938.633    -26738.68   -3950.7637    86.464715 
   26700    1773.6195   -104.02522    1.6048082   -102.42041    19200.555    4.4190915    4.4190915    4.4190915    19200.555    59113.627    15354.392   -16866.355    12014.243    7785.4054    18110.484    86.297655 
   26800     1725.649   -104.02177    1.5614035   -102.46037   -10874.321    4.4458755    4.4458755    4.4458755   -10874.321   -14911.103    37449.092   -55160.951     -7300.38   -44212.232    803.53439    87.876328 
   26900    1837.9327   -104.09443    1.6630002   -102.43143   -26457.626    4.4709676    4.4709676    4.4709676   -26457.626    1952.7565   -34725.613   -46600.021    4596.1727    2065.5322    12793.075    89.372636 
   27000    1400.3681   -103.66659    1.2670825   -102.39951   -52300.668    4.4600144    4.4600144    4.4600144   -52300.668   -17472.022   -41128.669   -98301.312    3851.2608   -49319.956    5161.5991    88.717395 
   27100    2158.0992   -104.30913    1.9526935   -102.35644    55427.027    4.4098261    4.4098261    4.4098261    55427.027    22057.565    101639.82      42583.7   -3615.4517   -3050.4419   -1713.0861    85.755975 
   27200    1471.0131   -103.74079    1.3310036   -102.40978   -12879.062    4.4034091    4.4034091    4.4034091   -12879.062   -3401.4781   -3547.3762   -31688.332    1822.5791   -53693.229    5993.7934    85.382153 
   27300    1849.2013   -104.12359    1.6731962   -102.45039    16454.085    4.4291878    4.4291878    4.4291878    16454.085    -1413.656    46079.667    4696.2434    2090.6562    540.78138   -12483.684    86.890498 
   27400    1436.9436    -103.7463    1.3001767   -102.44612   -9140.1556    4.4486107    4.4486107    4.4486107   -9140.1556   -29396.581   -275.67842    2251.7928   -15048.274   -29684.621    1417.6702    88.038618 
   27500    2168.5048   -104.37476    1.9621088   -102.41265   -42235.539    4.4434435    4.4434435    4.4434435   -42235.539   -56377.047   -38276.725   -32052.846    2219.4629   -11491.022     3797.386    87.732191 
   27600    1518.9391   -103.77283     1.374368   -102.39846    50943.279    4.4052288    4.4052288    4.4052288    50943.279    34463.914    66127.334    52238.591    354.45758   -1275.4486   -3827.2392    85.488049 
   27700    2299.1266   -104.50481     2.080298   -102.42451   -4601.4426      4.41175      4.41175      4.41175   -4601.4426    -16577.71      7472.39   -4699.0077   -13706.013   -33840.183    1159.7878    85.868265 
   27800    1637.4306   -103.91805    1.4815816   -102.43647    439.74242    4.4397286    4.4397286    4.4397286    439.74242     724.9213    -6177.248    6771.5539    -8294.849     21310.54   -20455.372    87.512334 
   27900    1999.4475   -104.22834    1.8091421    -102.4192   -14530.332    4.4450438    4.4450438    4.4450438   -14530.332   -50890.929     12941.42   -5641.4875   -6961.4771   -48000.191    6573.7751    87.827018 
   28000    1792.1428    -104.0342    1.6215684   -102.41263     19244.28    4.4309046    4.4309046    4.4309046     19244.28    7614.5992    17021.046    33097.195   -33492.414    26113.193   -4660.9597    86.991577 
   28100    1969.5263   -104.19777    1.7820688    -102.4157    26721.902    4.4107596    4.4107596    4.4107596    26721.902   -19107.445   -5255.0309    104528.18    7298.3136   -30581.063    138.68836     85.81045 
   28200      1881.61   -104.15001    1.7025203   -102.44749    13573.134    4.4072372    4.4072372    4.4072372    13573.134    21813.709    11201.552    7704.1403    -22164.03    19229.231    21449.131    85.605027 
   28300    1900.4955   -104.17938    1.7196083   -102.45977    28634.821    4.4211072    4.4211072    4.4211072    28634.821   -12334.449    9479.4547    88759.456   -3284.6582   -2770.5259   -14342.403    86.415794 
   28400    1491.6114   -103.81249    1.3496414   -102.46284   -49870.684    4.4358981    4.4358981    4.4358981   -49870.684   -33451.566   -80825.569   -35334.917   -26020.471    598.44974    49874.315    87.286019 
   28500    2469.3672   -104.65026    2.2343354   -102.41592   -5400.8912    4.4181274    4.4181274    4.4181274   -5400.8912   -5221.0735   -9176.7923   -1804.8078    15835.811    11984.151    8868.3785    86.241184 
   28600    1243.2701    -103.5558    1.1249369   -102.43087   -4624.5654    4.4133535    4.4133535    4.4133535   -4624.5654   -10639.334   -31695.347    28460.985   -32943.071   -25308.152    27553.551    85.961926 
   28700    2224.2659    -104.4475    2.0125625   -102.43493   -31319.066    4.4184924    4.4184924    4.4184924   -31319.066    447.56892   -54838.535   -39566.233   -9048.8153    24945.521    31134.535    86.262559 
   28800    1869.7044   -104.14516    1.6917478   -102.45341    10546.525    4.4115947    4.4115947    4.4115947    10546.525     29666.24   -14878.384     16851.72   -2159.6446    -20308.34    4685.5582    85.859194 
   28900    1342.7528   -103.68905     1.214951    -102.4741    7930.7624    4.4123894    4.4123894    4.4123894    7930.7624    79533.691    -59459.44    3718.0361   -27745.852    3938.3482    27375.009    85.905603 
   29000    2266.0472   -104.50739    2.0503671   -102.45702   -16154.907    4.4263784    4.4263784    4.4263784   -16154.907    11543.493   -35552.303   -24455.912    27484.276   -5128.7024    16436.994    86.725262 
   29100    1171.6512   -103.50513    1.0601346     -102.445   -28324.933    4.4426341    4.4426341    4.4426341   -28324.933    10196.682   -78806.613   -16364.868   -35398.316   -9189.2273    24921.044    87.684257 
   29200    2274.4558   -104.44968    2.0579754    -102.3917    10383.853    4.4293175    4.4293175    4.4293175    10383.853    1964.3819    16553.113    12634.064    11115.328    15781.267   -2499.4089    86.898129 
   29300    1084.7449   -103.40577       0.9815   -102.42427   -5149.5434    4.4274583    4.4274583    4.4274583   -5149.5434    41672.867   -33229.527   -23891.971   -14268.612   -14678.495    31918.174    86.788751 
   29400    2381.4164   -104.57054    2.1547556   -102.41579     7255.933    4.4319461    4.4319461    4.4319461     7255.933     8887.807   -7312.0506    20192.043    6337.1681    2718.2217   -2572.5513    87.052936 
   29500    1876.2193   -104.13084    1.6976427    -102.4332   -41646.722    4.4440252    4.4440252    4.4440252   -41646.722   -24543.205   -51691.561   -48705.399   -16986.531      6460.84     30841.29    87.766653 
   29600    1831.9819   -104.07564    1.6576157   -102.41802   -1586.8309    4.4453752    4.4453752    4.4453752   -1586.8309   -5207.1424   -782.75764    1229.4074   -24756.805   -17058.918   -5981.9546    87.846665 
   29700    2161.1416    -104.3602    1.9554463   -102.40476   -28019.921    4.4417633    4.4417633    4.4417633   -28019.921   -44191.254    -21997.56   -17870.948   -8459.5859     4847.031    12999.481    87.632707 
   29800    1820.4805   -104.05209     1.647209   -102.40488     10206.48    4.4380433    4.4380433    4.4380433     10206.48   -25090.496   -10517.529    66227.464   -13808.257   -2142.3269    -5035.439    87.412716 
   29900    1701.9732   -103.92524    1.5399811   -102.38526    28073.616    4.4418196    4.4418196    4.4418196    28073.616    54343.385   -2369.6017    32247.065    576.14656    8406.5365    10361.728    87.636042 
   30000    1473.2409   -103.74261    1.3330193   -102.40959   -12826.448    4.4495831    4.4495831    4.4495831   -12826.448   -26537.341   -22785.561    10843.558   -26750.996    -7055.374    -1814.492    88.096358 
   30100    2271.4515   -104.44404     2.055257   -102.38878   -31345.426     4.445951     4.445951     4.445951   -31345.426   -45349.565    2486.0443   -51172.757    14378.533    11352.486   -11107.793    87.880802 
   30200    1792.7319    -104.0287    1.6221015    -102.4066   -19634.553    4.4373296    4.4373296    4.4373296   -19634.553   -32771.406   -20246.369   -5885.8844   -45210.301   -24262.361    10059.549    87.370547 
   30300    1992.6567   -104.20777    1.8029976   -102.40477     4078.265    4.4377998    4.4377998    4.4377998     4078.265   -62069.239    54335.653     19968.38    6374.5549    19910.352   -2672.2351    87.398325 
   30400    1531.1937   -103.81312    1.3854562   -102.42766   -21804.649    4.4248864    4.4248864    4.4248864   -21804.649   -48504.422   -36502.942    19593.418   -37011.019   -16760.427    775.98635    86.637595 
   30500    2597.1131   -104.77662    2.3499225    -102.4267   -1209.9693    4.4253866    4.4253866    4.4253866   -1209.9693   -31250.977    24175.246    3445.8232    2179.0753    4095.1582    1377.7438    86.666977 
   30600    1238.9103   -103.56904    1.1209921   -102.44805   -18949.354    4.4316394    4.4316394    4.4316394   -18949.354   -68466.357   -3255.6099    14873.904    -46090.56   -3108.3378    16324.744    87.034862 
   30700    2123.5629   -104.34231    1.9214443   -102.42087    9712.0347    4.4290779    4.4290779    4.4290779    9712.0347   -16696.456   -16409.344    62241.905    7762.7586   -6702.4585    4300.6051    86.884029 
   30800    1297.1753   -103.61627    1.1737114   -102.44255   -13199.149     4.422206     4.422206     4.422206   -13199.149    -80311.39   -22227.603    62941.548   -53668.694    20499.102    3727.1393    86.480244 
   30900    2034.5501   -104.27621    1.8409037    -102.4353    10309.671     4.412545     4.412545     4.412545    10309.671   -17566.687   -13924.625    62420.324    9202.9929   -9602.2134    15046.671    85.914692 
   31000    1652.3658    -103.9662    1.4950953    -102.4711   -22125.149    4.4246807    4.4246807    4.4246807   -22125.149   -58216.632   -41444.375    33285.559   -44645.749    28904.445   -1034.1395    86.625513 
   31100    2039.8369   -104.30457    1.8456873   -102.45889   -3319.8706    4.4300127    4.4300127    4.4300127   -3319.8706   -26308.803   -26267.485    42616.676    8634.6576    6379.4998    7751.3774    86.939056 
   31200    1066.0485   -103.42068   0.96458306   -102.45609    -3828.941    4.4355228    4.4355228    4.4355228    -3828.941   -53877.343   -45808.948    88199.468   -30234.372     19132.54   -15149.566    87.263868 
   31300     2236.536   -104.44489    2.0236648   -102.42122    17905.593     4.425598     4.425598     4.425598    17905.593   -38602.717    45466.068    46853.426    19115.542    16139.574   -25772.424      86.6794 
   31400    1223.2986   -103.53848    1.1068663   -102.43162    2332.5322    4.4312665    4.4312665    4.4312665    2332.5322   -44425.039   -2684.4322    54107.067   -30546.509    3060.9239    2496.6553    87.012895 
   31500    2185.6301   -104.38213    1.9776041   -102.40452    11544.762    4.4323696    4.4323696    4.4323696    11544.762    -46598.91     66970.66    14262.537    18664.846    22244.945    -18312.43    87.077893 
   31600     1570.825    -103.8456    1.4213155   -102.42428   -32758.126    4.4292917    4.4292917    4.4292917   -32758.126   -59137.546   -61570.512    22433.679    -14684.71   -6181.9936    23701.382    86.896614 
   31700    2478.1504   -104.64927    2.2422826   -102.40699   -8643.5658    4.4209562    4.4209562    4.4209562   -8643.5658   -54374.419    11466.754    16976.968    6093.1465    7042.0471   -8957.4742    86.406943 
   31800    1450.1785   -103.73936     1.312152   -102.42721   -4150.4633    4.4141206    4.4141206    4.4141206   -4150.4633   -31754.178    31704.312   -12401.524    4023.2793   -3144.2295    4208.8013     86.00676 
   31900    2172.9848   -104.40907    1.9661623   -102.44291     14294.99    4.4248966    4.4248966    4.4248966     14294.99   -30667.202    51826.008    21726.164   -16519.905     2098.229      11512.9    86.638192 
   32000    1409.8697   -103.72362    1.2756797   -102.44794   -33565.244     4.439996     4.439996     4.439996   -33565.244   -50107.263   -37854.927   -12733.542    11187.845    -3325.867    8355.7871    87.528148 
   32100     2111.704   -104.31974    1.9107142   -102.40903   -16784.133    4.4357408    4.4357408    4.4357408   -16784.133   -43556.792   -35711.182    28915.574   -35370.404   -2640.3437    3912.4205    87.276735 
   32200    1634.9912   -103.88848    1.4793744    -102.4091   -15823.879    4.4176103    4.4176103    4.4176103   -15823.879   -34172.226    14007.231   -27306.644    19815.687   -16223.092    14314.673    86.210904 
   32300    2055.1847    -104.2851    1.8595743   -102.42553   -8073.4332    4.4098327    4.4098327    4.4098327   -8073.4332   -11585.862   -6065.5516   -6568.8858   -38972.255   -3386.4744    11391.332    85.756361 
   32400    1783.2915   -104.06369    1.6135597   -102.45013   -17422.675    4.4302705    4.4302705    4.4302705   -17422.675   -22425.617    320.90845   -30163.317     28908.92   -2632.3091   -8261.4563    86.954236 
   32500    1454.7922   -103.74105    1.3163265   -102.42473   -35040.016    4.4397203    4.4397203    4.4397203   -35040.016   -45471.772   -44464.075   -15184.201   -16288.105   -14081.803    32370.742    87.511841 
   32600    1794.2213   -104.02191    1.6234491   -102.39846    6718.1688    4.4130323    4.4130323    4.4130323    6718.1688   -29427.954    4910.0677    44672.393    25596.901    16413.539   -28146.781    85.943159 
   32700    1763.9491   -104.00855    1.5960582    -102.4125    8807.0994    4.4088215    4.4088215    4.4088215    8807.0994   -7069.7827    20633.114    12857.967    7932.2705   -9440.8298    30760.076     85.69738 
   32800    1719.9222   -103.98637    1.5562218   -102.43015    5371.2962    4.4188565    4.4188565    4.4188565    5371.2962   -35220.839    20019.414    31315.314    26192.374    18801.522   -11131.474    86.283886 
   32900    1697.4741   -103.97316    1.5359103   -102.43725   -15620.141    4.4479711    4.4479711    4.4479711   -15620.141   -48892.346   -27203.235    29235.158    10667.739   -16242.475    13626.379    88.000648 
   33000    1783.3637   -104.01052     1.613625   -102.39689    12781.813    4.4465576    4.4465576    4.4465576    12781.813    8863.0062    27381.733    2100.6997      31434.3    14948.755    10106.398    87.916779 
   33100    1793.5273   -104.00918    1.6228212   -102.38636     26316.07    4.4391144    4.4391144    4.4391144     26316.07   -9762.6748    13772.333    74938.552    188.31415    2892.0214   -7717.2574    87.476019 
   33200    2114.4817   -104.30253    1.9132274   -102.38931   -28007.071    4.4411087    4.4411087    4.4411087   -28007.071   -52382.596   -39074.638    7436.0202    27117.097    10503.264    5008.2089    87.593969 
   33300     1758.428   -103.99201    1.5910626   -102.40095    35738.513    4.4217662    4.4217662    4.4217662    35738.513    70312.076   -481.67856    37385.141     6057.491    12797.014    1620.0955    86.454448 
   33400    1752.5055   -104.01264    1.5857038   -102.42693   -12905.536    4.4351384    4.4351384    4.4351384   -12905.536   -38177.564   -10494.676    9955.6316    19192.039    -14797.02    8529.6987    87.241182 
   33500    2058.4662   -104.28268    1.8625435   -102.42013   -18025.938    4.4341419    4.4341419    4.4341419   -18025.938   -12402.377   -30605.396   -11070.041    12371.259    13912.076   -18753.414    87.182389 
   33600    1452.4425   -103.74549    1.3142005   -102.43129    18835.489    4.4403969    4.4403969    4.4403969    18835.489    38101.957    7173.7009    11230.808   -12488.492    4612.1226    16698.403     87.55186 
   33700    1494.4131   -103.77677    1.3521764    -102.4246   -6626.3089    4.4464912    4.4464912    4.4464912   -6626.3089   -15861.117   -9225.5243    5207.7143    7996.1227   -8228.9075   -10750.899    87.912841 
   33800    1949.3203   -104.16781     1.763786   -102.40402    3661.4026    4.4456527    4.4456527    4.4456527    3661.4026    58368.926   -25191.683   -22193.035   -30288.304    3331.3016   -756.18721    87.863117 
   33900    1515.5549   -103.77005    1.3713059   -102.39874   -22538.272    4.4638781    4.4638781    4.4638781   -22538.272    -36345.41   -47650.163    16380.757    21324.553    13838.606   -8257.7404    88.948161 
   34000    2526.7102   -104.64193    2.2862205   -102.35571   -14839.669    4.4487902    4.4487902    4.4487902   -14839.669    21276.495    -50314.48   -15481.023   -31642.176   -6989.4301    3924.7963    88.049271 
   34100    1297.9071    -103.5648    1.1743736   -102.39043   -4874.7256    4.4305418    4.4305418    4.4305418   -4874.7256   -19982.563   -27435.037    32793.423    1756.4868   -448.02517   -27355.315    86.970209 
   34200    2237.1001   -104.43784    2.0241752   -102.41366   -9730.6719    4.4276367    4.4276367    4.4276367   -9730.6719    12307.836   -15155.578   -26344.274   -18707.181    5708.9455   -23045.884     86.79924 
   34300     1728.178   -104.00948    1.5636918   -102.44579   -30458.928    4.4482235    4.4482235    4.4482235   -30458.928    12070.957   -74618.206   -28829.534   -7440.5739    4353.5029   -5443.9029    88.015631 
   34400    1756.3231   -104.00388     1.589158   -102.41473   -44039.749    4.4650872    4.4650872    4.4650872   -44039.749   -7796.8293    -63488.32   -60834.096    4154.0118   -8344.1651   -25714.376    89.020462 
   34500    2103.3314   -104.28736    1.9031384   -102.38422   -1238.1933    4.4416219    4.4416219    4.4416219   -1238.1933    20783.752     -52900.6    28402.268   -23487.416   -7154.5326   -2585.3392    87.624342 
   34600    1480.9414   -103.76311    1.3399869   -102.42312    17888.416    4.4215755    4.4215755    4.4215755    17888.416    91320.244    -11300.89   -26354.106    22614.374    31300.352   -25168.478    86.443261 
   34700    1897.5137    -104.1651    1.7169102   -102.44819    30313.823     4.429124     4.429124     4.429124    30313.823    27776.467    29297.597    33867.404    3829.5279   -12494.533     4755.406    86.886741 
   34800    1429.1125   -103.76823     1.293091   -102.47514   -18383.516    4.4719217    4.4719217    4.4719217   -18383.516    6195.7575   -37754.407   -23591.897    8775.5182    13756.062   -847.21891    89.429862 
   34900    1361.7343   -103.62716    1.2321258   -102.39503   -35094.796    4.4768704    4.4768704    4.4768704   -35094.796   -16490.711    2849.8648   -91643.543    879.53566     7595.257    59198.912    89.727087 
   35000    2198.6154   -104.32584    1.9893534   -102.33649    10917.451    4.4286158    4.4286158    4.4286158    10917.451     23462.83    17823.528   -8534.0043   -13289.559    7418.5576   -30998.228     86.85684 
   35100    1355.6248   -103.60284    1.2265978   -102.37625    3212.8883    4.4157565    4.4157565    4.4157565    3212.8883    42538.257    41933.954   -74833.546    19641.647    10374.469    47101.276    86.102418 
   35200    2261.0824   -104.46573    2.0458749   -102.41985    19565.597    4.4374573    4.4374573    4.4374573    19565.597    13973.475    24862.634    19860.683   -12997.443     -2399.26    1555.0295    87.378091 
   35300    1316.8916   -103.62636    1.1915512   -102.43481   -22189.063     4.465449     4.465449     4.465449   -22189.063   -44300.096   -20974.488    -1292.606    15546.467   -8172.4494    35727.712    89.042103 
   35400    2321.8082   -104.51203    2.1008209   -102.41121   -49747.773    4.4475205    4.4475205    4.4475205   -49747.773   -69107.456   -41937.084   -38198.779   -8099.2256   -21780.628   -17150.898    87.973907 
   35500    1992.6184   -104.18383     1.802963   -102.38087    52251.152    4.3997905    4.3997905    4.3997905    52251.152     36233.08     11762.65    108757.73   -11155.152     3115.745    30391.204    85.171836 
   35600    1441.2648   -103.75391    1.3040867   -102.44982    1433.0111    4.4128007    4.4128007    4.4128007    1433.0111      7271.98    3717.7754   -6690.7223    2107.1222   -26870.349    5428.5039    85.929632 
   35700    1791.3207    -104.0922    1.6208246   -102.47138    2442.3721    4.4445786    4.4445786    4.4445786    2442.3721    4404.5328   -73296.098    76218.682   -16737.877    23803.315    3841.8725    87.799447 
   35800    1841.9188   -104.12433    1.6666068   -102.45773   -53016.211    4.4693123    4.4693123    4.4693123   -53016.211   -81029.673   -18565.661     -59453.3   -8914.3581   -16635.593    20356.155    89.273409 
   35900     1809.907     -104.058    1.6376419   -102.42036   -4988.2752    4.4466196    4.4466196    4.4466196   -4988.2752   -45218.384   -20115.021    50368.579    4124.5009   -2440.0953   -18992.404    87.920455 
   36000    1914.8645   -104.14588    1.7326096   -102.41327    37076.834    4.4100082    4.4100082    4.4100082    37076.834    2822.2347   -27567.088    135975.36   -3075.5945   -7111.5329    4940.8691    85.766598 
   36100    1566.1168   -103.89876    1.4170554   -102.48171    20834.584     4.413778     4.413778     4.413778    20834.584    49991.378    18843.783   -6331.4098    6447.0582   -23477.843   -38706.792    85.986735 
   36200    2082.5172   -104.36841    1.8843053    -102.4841   -22573.048    4.4504572    4.4504572    4.4504572   -22573.048   -44820.746     -63961.6    41063.202   -2940.4195    3192.2401   -17585.572    88.148287 
   36300    1278.2445   -103.61351    1.1565825   -102.45692   -21366.977    4.4597539    4.4597539    4.4597539   -21366.977   -76129.617   -650.93622    12679.622   -243.20414   -31729.078    -6156.562    88.701849 
   36400    2340.1411   -104.52253    2.1174089   -102.40512   -15893.338    4.4471638    4.4471638    4.4471638   -15893.338    -4709.473   -58191.289    15220.748   -8543.1967    9945.1215    -29554.12     87.95274 
   36500    1577.1834   -103.84626    1.4270687   -102.41919   -365.38627     4.430102     4.430102     4.430102   -365.38627   -39255.245     46069.22   -7910.1339    12489.899   -36921.117     23867.29    86.944312 
   36600    2025.1679   -104.25135    1.8324145   -102.41894    25061.891    4.4208482    4.4208482    4.4208482    25061.891   -11356.778    51469.376    35073.076   -12472.654    18774.904    -15936.07     86.40061 
   36700    1492.5027   -103.81187    1.3504478   -102.46142   -31319.856    4.4421339    4.4421339    4.4421339   -31319.856   -63978.818    -17789.24   -12191.511   -6359.0711   -48052.127     2932.361    87.654643 
   36800    2413.9113   -104.60938    2.1841577   -102.42522   -5629.2194    4.4506929    4.4506929    4.4506929   -5629.2194    -40257.19    17068.335    6301.1965   -8294.8016    17963.994    526.96194    88.162294 
   36900     1006.565   -103.34414   0.91076118   -102.43338   -12375.717    4.4414096    4.4414096    4.4414096   -12375.717   -44133.457    52375.709   -45369.403    -21079.06   -53519.631    -9582.213    87.611778 
   37000    2779.3088   -104.91708     2.514777    -102.4023    10435.253    4.4285569    4.4285569    4.4285569    10435.253    -10212.76    33466.792     8051.726    754.83755    16085.468   -18693.135    86.853375 
   37100    1190.1616   -103.51927    1.0768832   -102.44239   -7800.8469    4.4185155    4.4185155    4.4185155   -7800.8469   -47436.459   -2976.6899    27010.609   -9961.7876   -55895.961    6804.3043    86.263909 
   37200    2252.8026   -104.49843    2.0383831   -102.46005    12735.679    4.4232562    4.4232562    4.4232562    12735.679   -12873.063     33600.08    17480.021   -3127.5076    11797.096   -8038.4626     86.54187 
   37300    1550.4632   -103.85993    1.4028916   -102.45703   -31419.968    4.4491016    4.4491016    4.4491016   -31419.968   -50420.192   -29779.504   -14060.209    7111.7843   -34482.942    14189.515    88.067763 
   37400    1694.1062   -103.94329    1.5328629   -102.41043   -11608.776    4.4491859    4.4491859    4.4491859   -11608.776   -46708.367   -14485.587    26367.627   -1281.2886   -463.95177   -35678.172    88.072771 
   37500    1822.3498   -104.03789    1.6489004   -102.38899   -3005.4252     4.423739     4.423739     4.423739   -3005.4252   -11687.571    31860.112   -29188.817   -1770.7879   -27421.926    6278.6369    86.570214 
   37600    2285.8141   -104.46114    2.0682526   -102.39288    3735.4899    4.4224325    4.4224325    4.4224325    3735.4899   -11855.386    52293.064   -29231.207   -19419.953    8715.3414   -16880.396    86.493533 
   37700    1604.9484     -103.861     1.452191   -102.40881   -14645.281    4.4472158    4.4472158    4.4472158   -14645.281   -43530.196    44317.568   -44723.214     3833.842   -38460.922   -4727.3052    87.955827 
   37800    1624.7619   -103.84934    1.4701187   -102.37922    -939.6853    4.4519455    4.4519455    4.4519455    -939.6853   -55642.611    68571.987   -15748.432   -25670.055    3423.5947   -13937.523    88.236751 
   37900    2093.4678   -104.26243    1.8942136   -102.36822     -33440.4    4.4531926    4.4531926    4.4531926     -33440.4   -34248.052    18760.363   -84833.512   -3799.3312   -17048.838    845.25813    88.310924 
   38000    1909.3747   -104.09771    1.7276423   -102.37007   -17030.409    4.4408461    4.4408461    4.4408461   -17030.409    -43938.78    11588.365   -18740.811    -39196.21   -7610.2262    11827.549    87.578434 
   38100    2085.8341   -104.26558    1.8873066   -102.37827    26159.617    4.4180014    4.4180014    4.4180014    26159.617    25645.312    71341.702   -18508.162   -853.78707   -5585.7664    2946.9051    86.233806 
   38200    1667.1651   -103.93118     1.508486   -102.42269   -7230.9061     4.428779     4.428779     4.428779   -7230.9061    12265.317   -8199.8555    -25758.18   -25624.649    -8973.227    29281.005    86.866438 
   38300    2153.2448   -104.35308    1.9483011   -102.40478   -2917.6196    4.4462828    4.4462828    4.4462828   -2917.6196   -30655.886     29693.49   -7790.4632   -8367.4069   -9628.6546    5166.0497     87.90048 
   38400    1518.7803   -103.77882    1.3742243    -102.4046    2264.1452    4.4477904    4.4477904    4.4477904    2264.1452    3411.2654   -7691.6863    11072.856   -16314.559   -18338.172    6971.4875    87.989925 
   38500    1770.3912   -103.99235    1.6018872   -102.39047    -5902.798    4.4275758    4.4275758    4.4275758    -5902.798    -3947.642    29165.339   -42926.091   -17352.169   -1236.5161    13585.586    86.795658 
   38600    2164.1436   -104.34268    1.9581626   -102.38452    22813.178    4.4000542    4.4000542    4.4000542    22813.178    56963.479    26409.409   -14933.355   -2993.1561   -23099.831   -4271.5177    85.187147 
   38700    1496.0063   -103.80745     1.353618   -102.45383   -27199.411    4.4287275    4.4287275    4.4287275   -27199.411   -46409.583    4400.0583   -39588.709   -16503.142    10260.786    22511.954     86.86341 
   38800    2577.9041   -104.75178    2.3325418   -102.41924   -36842.371    4.4503811    4.4503811    4.4503811   -36842.371   -30520.199   -28875.943   -51130.971    18432.288   -23192.225   -7333.3172    88.143765 
   38900    1277.0746   -103.58923     1.155524   -102.43371   -35217.335    4.4347212    4.4347212    4.4347212   -35217.335   -39166.254   -20070.599   -46415.151   -19872.944    23522.577    19595.337     87.21656 
   39000    2886.3713   -105.01416    2.6116494   -102.40251    10865.265    4.4117457    4.4117457    4.4117457    10865.265    20570.174     34139.19   -22113.569    11609.836   -2452.9853    -561.5155    85.868013 
   39100    834.72762   -103.20926   0.75527909   -102.45398    11328.146    4.4193025    4.4193025    4.4193025    11328.146    68176.892    22256.987   -56449.442   -38518.083    20732.892    6178.9616    86.310016 
   39200    1970.5448   -104.23073    1.7829903   -102.44774    5849.1936    4.4393398    4.4393398    4.4393398    5849.1936    45653.604    15593.042   -43699.066   -15084.439    5633.9323    -4726.162    87.489347 
   39300    1653.9191   -103.93477    1.4965008   -102.43826    12415.169    4.4387842    4.4387842    4.4387842    12415.169    65259.619   -21977.808   -6036.3041    2853.7113    25424.889   -5073.2023    87.456501 
   39400    1893.6723   -104.14226    1.7134345   -102.42883   -9301.4048    4.4286357    4.4286357    4.4286357   -9301.4048   -38355.147   -20819.356    31270.288   -26428.101    17174.751   -7.8859315    86.858007 
   39500    2318.7355   -104.51766    2.0980406   -102.41962    19579.133    4.4091054    4.4091054    4.4091054    19579.133    52323.687    15946.672   -9532.9593   -2491.3851   -5423.6055   -3207.2004    85.713935 
   39600    1841.6901   -104.10978    1.6663999   -102.44338   -5020.8943     4.418084     4.418084     4.418084   -5020.8943    19264.004   -35975.391    1648.7041   -54800.068    9387.6132   -1422.5692    86.238643 
   39700      1801.32   -104.05922    1.6298722   -102.42935    4994.4065    4.4428011    4.4428011    4.4428011    4994.4065    45982.672    16350.524   -47349.976    14285.891   -7555.1706    8476.3969    87.694145 
   39800    1493.1625   -103.76256    1.3510448   -102.41152   -10561.464    4.4467423    4.4467423    4.4467423   -10561.464   -41539.187    21829.091   -11974.297   -53002.397    492.00119    8771.7528    87.927734 
   39900    1930.6299   -104.13025    1.7468745   -102.38337    33571.325    4.4181538    4.4181538    4.4181538    33571.325    92249.342    23495.947   -15031.313    19481.405   -10002.651    5852.5211    86.242729 
   40000    1788.5651   -104.01963    1.6183313    -102.4013   -6676.4157    4.4020949    4.4020949    4.4020949   -6676.4157   -16390.878   -10643.857    7005.4888   -51763.769   -1455.3096    10052.505    85.305729 
   40100    2278.1227   -104.48265    2.0612933   -102.42136    14520.458    4.4190425    4.4190425    4.4190425    14520.458    53630.889    10986.133   -21055.648    15180.806     4439.253   -6614.9124     86.29478 
   40200     1224.326   -103.54146    1.1077959   -102.43366   -32489.323     4.438036     4.438036     4.438036   -32489.323    4474.5093   -74042.646   -27899.831   -35296.835   -19669.606    16988.768    87.412285 
   40300     2219.875   -104.40523    2.0085896   -102.39664     2872.837    4.4368619    4.4368619    4.4368619     2872.837    33675.392   -27234.558    2177.6771   -4488.4465   -1734.4607   -14967.321    87.342923 
   40400    1269.2843   -103.55983    1.1484751   -102.41135    -13457.91    4.4189702    4.4189702    4.4189702    -13457.91   -11625.465   -17854.037   -10894.227   -10889.378    -12698.05    25745.274    86.290547 
   40500    1718.5403   -103.95751    1.5549714   -102.40254     52229.69    4.4075138    4.4075138    4.4075138     52229.69    67328.436    67123.528    22237.105   -8653.3372    9476.1909   -20356.386    85.621147 
   40600    1792.0187    -104.0667    1.6214562   -102.44525    -31618.09    4.4303183    4.4303183    4.4303183    -31618.09    13554.902   -53012.226   -55396.946    1517.3185   -7399.7233    15616.025    86.957049 
   40700    1764.1001   -104.01598    1.5961949   -102.41979    15893.198    4.4359939    4.4359939    4.4359939    15893.198    25675.983    26163.409   -4159.7972   -26247.414   -9004.2849    3023.4516    87.291676 
   40800    1295.8027   -103.59901    1.1724696   -102.42654    5495.7843    4.4141882    4.4141882    4.4141882    5495.7843    28763.925    -8071.044   -4205.5281    9483.0719    8357.3606    4600.0162     86.01071 
   40900     2466.875   -104.65906    2.2320803   -102.42698    23098.417    4.4127951    4.4127951    4.4127951    23098.417      50744.8    22077.985   -3527.5348    9334.4135   -13118.443    6826.5908    85.929304 
   41000    1693.5918     -103.972    1.5323975    -102.4396   -45280.035    4.4341638    4.4341638    4.4341638   -45280.035    2284.9239   -70567.462   -67557.567     10104.81   -4189.6042   -16073.621    87.183683 
   41100    1981.2275   -104.21386    1.7926563    -102.4212    -5426.851    4.4332384    4.4332384    4.4332384    -5426.851    34570.667   -27005.921   -23845.299    23681.874   -2702.5666     24255.03    87.129107 
   41200    1876.0429   -104.12357     1.697483   -102.42609   -16177.401    4.4259603    4.4259603    4.4259603   -16177.401    36257.963   -24340.367   -60449.799    4710.1332    -23414.82   -14145.203     86.70069 
   41300    1686.6158    -103.9445    1.5260854   -102.41842    464.91105    4.4164562    4.4164562    4.4164562    464.91105    51097.374   -39900.681     -9801.96    22551.614    5816.8295    29181.702    86.143358 
   41400      1922.98   -104.15849    1.7399528   -102.41854   -98.301298    4.4113477    4.4113477    4.4113477   -98.301298    22981.426    16583.736   -39860.065    15219.384   -31051.317   -18166.402    85.844776 
   41500    2080.0025   -104.30795      1.88203   -102.42592    3065.0097    4.4267091    4.4267091    4.4267091    3065.0097    52940.465   -40346.577   -3398.8582    4424.9054    6063.2633    25911.967    86.744702 
   41600    1585.3005   -103.85048    1.4344132   -102.41607   -18142.471    4.4352344    4.4352344    4.4352344   -18142.471   -11173.733    -6967.149   -36286.532    13794.097    -18595.88     -18985.9    87.246845 
   41700    2048.6406    -104.2557     1.853653   -102.40205   -288.31533    4.4269154    4.4269154    4.4269154   -288.31533    45306.313   -14590.528   -31580.731     7405.615     16282.59     2812.305    86.756827 
   41800    1297.9372   -103.59417    1.1744009   -102.41977    12002.537    4.4254966    4.4254966    4.4254966    12002.537    12069.831    47610.192    -23672.41    7181.5839   -50571.709    581.41734    86.673441 
   41900    1878.8418    -104.1133    1.7000156   -102.41329   -9453.8232    4.4256969    4.4256969    4.4256969   -9453.8232   -9259.4961   -779.88834   -18322.085    9717.9662    27294.521   -8819.7916    86.685211 
   42000    1831.1436   -104.07268    1.6568572   -102.41582   -17658.674    4.4280159    4.4280159    4.4280159   -17658.674   -31215.052    16115.175   -37876.145   -962.56077   -58289.674     8403.867    86.821547 
   42100    1696.5592   -103.96143    1.5350824   -102.42634   -8827.0287    4.4213974    4.4213974    4.4213974   -8827.0287     12331.16   -19517.801   -19294.445   -3375.8425    511.68808   -36037.253    86.432812 
   42200    1915.2272   -104.14061    1.7329378   -102.40767   -4225.2082    4.4223561    4.4223561    4.4223561   -4225.2082   -25097.042   -10361.934    22783.351    2750.6872   -45706.103    20541.459    86.489048 
   42300    1726.0077   -103.97368    1.5617281   -102.41195    -29210.91    4.4353381    4.4353381    4.4353381    -29210.91    10209.539   -42627.563   -55214.707   -14912.404   -12386.815   -49175.097    87.252966 
   42400    2121.5183   -104.32256    1.9195943   -102.40296   -2859.7415    4.4267421    4.4267421    4.4267421   -2859.7415    -25164.01   -4477.0167    21061.802   -29.363516   -29709.286    19306.517    86.746643 
   42500     1338.963   -103.64197    1.2115219   -102.43044   -8234.0076     4.415829     4.415829     4.415829   -8234.0076    11978.683   -6253.9018   -30426.804    4633.2616   -26765.076   -34116.691    86.106661 
   42600    2537.8361   -104.72171    2.2962874   -102.42542    8381.7471    4.4138575    4.4138575    4.4138575    8381.7471   -11514.347    9058.3392    27601.249   -1855.8862   -21673.194   -8087.1268    85.991384 
   42700    1213.8501   -103.55012    1.0983171    -102.4518   -2160.8188    4.4358376    4.4358376    4.4358376   -2160.8188    482.24812   -13994.591    7029.8867   -11554.483   -31753.361   -7290.5754    87.282448 
   42800    2152.8406   -104.35482    1.9479354   -102.40688   -3493.8558    4.4387705    4.4387705    4.4387705   -3493.8558   -1839.7532    6136.7874   -14778.602   -7320.8633   -791.66497   -23829.458    87.455689 
   42900    1473.8376   -103.73379    1.3335593   -102.40023    35013.082    4.4134718    4.4134718    4.4134718    35013.082   -11141.025    8682.6186    107497.65   -7318.2954   -44154.693    2192.9428    85.968842 
   43000    1805.7545   -104.04851    1.6338846   -102.41463    5930.3973    4.4152105    4.4152105    4.4152105    5930.3973     36682.72    22516.216   -41407.744   -1933.6797   -10721.907       -29868    86.070485 
   43100    1653.8803    -103.9176    1.4964656   -102.42113    2931.2447    4.4280644    4.4280644    4.4280644    2931.2447   -31911.702    3162.3107    37543.125   -11953.463     -40162.8    1698.3933    86.824399 
   43200    1885.6893   -104.11879    1.7062113   -102.41258   -30084.763    4.4453447    4.4453447    4.4453447   -30084.763   -18976.201   -18917.224   -52360.863   -20320.033    3004.8918   -43829.474    87.844854 
   43300    1387.3447   -103.65148    1.2552987   -102.39619   -5671.5342     4.436917     4.436917     4.436917   -5671.5342   -28033.513    45587.575   -34568.664    18305.832   -40508.362    9095.8251    87.346179 
   43400     2004.546   -104.18846    1.8137553    -102.3747    11001.199    4.4131183    4.4131183    4.4131183    11001.199    24351.218    45659.193   -37006.814    -14684.09    9081.2542   -49463.648    85.948183 
   43500    1538.2561   -103.80665    1.3918464    -102.4148    15118.438    4.4189382    4.4189382    4.4189382    15118.438   -10792.413    101416.22   -45268.493    2756.7379   -53622.284    5510.5419     86.28867 
   43600     2067.523   -104.29722    1.8707383   -102.42648   -27135.024    4.4292887    4.4292887    4.4292887   -27135.024    25781.239   -41123.917   -66062.395   -13661.051    10184.461   -40146.399    86.896437 
   43700    1393.5469   -103.69065    1.2609105   -102.42974    732.76603    4.4314721    4.4314721    4.4314721    732.76603    53063.445    11186.609   -62051.756   -12383.361   -41183.393    11202.662    87.025006 
   43800    2199.5592   -104.39801    1.9902074    -102.4078   -15140.824    4.4364226    4.4364226    4.4364226   -15140.824      46481.7   -38218.343   -53685.828   -6831.7948    1751.7119   -45082.825    87.316983 
   43900    1371.5512   -103.64786    1.2410084   -102.40685   -4837.3596    4.4381734    4.4381734    4.4381734   -4837.3596    22520.845     18406.45   -55439.374    16266.807   -57414.058    15767.823    87.420399 
   44000    2060.4394   -104.26156    1.8643289   -102.39723   -3440.9343    4.4183385    4.4183385    4.4183385   -3440.9343    44047.041   -18798.572   -35571.271    3347.3774    14044.152   -41076.464    86.253546 
   44100    1750.4684   -104.00376    1.5838606    -102.4199    3794.2922    4.4094078    4.4094078    4.4094078    3794.2922     -26884.3    70779.838   -32512.661    4767.5616   -62172.386    7137.8588    85.731575 
   44200    2159.6705   -104.37816    1.9541153   -102.42404   -29106.344    4.4345084    4.4345084    4.4345084   -29106.344   -31798.353   -24040.017   -31480.662    137.00149    21156.074   -36332.255     87.20401 
   44300    1744.2089   -103.99405    1.5781969   -102.41585   -46921.563    4.4484272    4.4484272    4.4484272   -46921.563   -81492.809    19823.006   -79094.885    3172.5708   -53107.105    508.06977    88.027724 
   44400    2546.9895   -104.69161    2.3045696   -102.38704   -18509.436    4.4427874    4.4427874    4.4427874   -18509.436   -16494.764   -2414.3307   -36619.213    508.10353    22236.716   -22250.293    87.693337 
   44500    1176.5225   -103.46932    1.0645423   -102.40478    5234.1189    4.4221039    4.4221039    4.4221039    5234.1189    25194.172    24860.434   -34352.249   -6047.0125   -36256.668   -3247.3222    86.474257 
   44600    1756.4399   -104.00063    1.5892638   -102.41136    60805.878    4.4216451    4.4216451    4.4216451    60805.878    125111.67    67068.863   -9762.8944   -1493.9227    15583.474   -140.68719    86.447342 
   44700    1299.2026   -103.60594    1.1755458   -102.43039   -2123.1807    4.4480108    4.4480108    4.4480108   -2123.1807    11139.054     3002.218   -20510.814    10455.488   -38186.208   -15454.615    88.003006 
   44800    2060.5393   -104.25431    1.8644193   -102.38989   -15197.242    4.4517357    4.4517357    4.4517357   -15197.242   -21960.809   -41878.161    18247.244    21558.514      13071.1     17896.98    88.224277 
   44900     1657.125   -103.89216    1.4994016   -102.39276   -13146.216    4.4189812    4.4189812    4.4189812   -13146.216   -59274.827    18417.446    1418.7328    3774.0361    -38293.71     3632.008     86.29119 
   45000    2517.3754   -104.69484    2.2777741   -102.41707    2196.9933    4.4097177    4.4097177    4.4097177    2196.9933    9304.4909   -5837.5182    3124.0073    18383.855   -25318.117    11919.207    85.749652 
   45100    1647.9095   -103.94904    1.4910632   -102.45797   -36555.799    4.4367817    4.4367817    4.4367817   -36555.799   -50747.045    -15071.48   -43848.873    18543.434   -34483.177    2943.0748    87.338189 
   45200    1699.6377   -103.96987    1.5378679     -102.432   -353.48904    4.4510844    4.4510844    4.4510844   -353.48904   -2984.5637    11104.795   -9180.6989   -5145.8887   -13442.839    134.45679    88.185564 
   45300    1622.2129   -103.87628    1.4678123   -102.40847   -20627.931    4.4371497    4.4371497    4.4371497   -20627.931    7658.1713   -23271.053   -46270.913    15192.387   -52216.314    9839.4647    87.359926 
   45400    1889.9638   -104.10864    1.7100789   -102.39856   -2857.4546    4.4248797    4.4248797    4.4248797   -2857.4546   -24509.804    35827.573   -19890.133    3949.1148   -3439.8787   -1407.4283    86.637199 
   45500    1520.5386   -103.78851    1.3758153    -102.4127   -14471.141     4.416458     4.416458     4.416458   -14471.141   -29909.194    18888.243   -32392.471   -3728.0335   -66959.425    6968.2585    86.143463 
   45600    2133.2231   -104.34973    1.9301851   -102.41954    3728.7545    4.4271057    4.4271057    4.4271057    3728.7545    7050.2634   -3006.6202    7142.6202   -19502.632     4425.985    -11241.68    86.768016 
   45700    1189.0873   -103.49655    1.0759112   -102.42064   -4287.2807    4.4484904    4.4484904    4.4484904   -4287.2807   -13340.896    13090.346   -12611.292   -7848.3979   -58093.322    11634.873    88.031474 
   45800    2537.0589   -104.65986    2.2955842   -102.36428   -19378.644    4.4622476    4.4622476    4.4622476   -19378.644   -10490.757   -24841.171   -22804.003    -896.1973   -3236.5828    5415.5206    88.850727 
   45900     1408.054   -103.61087    1.2740369   -102.33683   -9962.7062    4.4514154    4.4514154    4.4514154   -9962.7062    -52392.51   -17751.821    40256.212    12626.904   -67264.802   -8711.9662    88.205237 
   46000    2666.3288   -104.73095    2.4125503    -102.3184   -19475.901    4.4396381    4.4396381    4.4396381   -19475.901    6865.8043    -32592.71   -32700.797    12212.964    7561.4263    20451.354     87.50698 
   46100    1586.4446   -103.78893    1.4354484   -102.35348   -27284.064     4.420805     4.420805     4.420805   -27284.064   -77423.525    22886.505   -27315.174    1132.1764   -57973.723   -4629.0029    86.398075 
   46200    2388.3706   -104.53163     2.161048   -102.37058    -95.84889    4.4170517    4.4170517    4.4170517    -95.84889    21589.678   -31552.117    9674.8926    12843.066   -623.92314    25994.319    86.178203 
   46300    1201.3055   -103.50946    1.0869665    -102.4225   -37153.982    4.4359667    4.4359667    4.4359667   -37153.982   -59868.913    16410.477   -68003.511    -10947.33   -61167.723    7067.2924    87.290071 
   46400    2452.2357   -104.62128    2.2188344   -102.40245   -17526.158    4.4305694    4.4305694    4.4305694   -17526.158    -12355.58   -19875.393   -20347.501    7287.6906    24470.985     19349.62    86.971835 
   46500     1146.853   -103.47772    1.0376967   -102.44002   -37490.713    4.4204497    4.4204497    4.4204497   -37490.713   -32706.817    9170.0659   -88935.389   -2559.9717   -81191.791    14649.191    86.377246 
   46600    2392.0281   -104.59018    2.1643573   -102.42583    25055.451     4.413631     4.413631     4.413631    25055.451    30841.147   -10835.075    55160.281   -8216.2718    28427.838   -25471.385    85.978141 
   46700    1226.0648   -103.56586    1.1093692   -102.45649   -26495.585    4.4266161    4.4266161    4.4266161   -26495.585   -49135.961    29067.706     -59418.5    8779.9952   -74554.743    27986.917    86.739231 
   46800    2070.8873   -104.30099    1.8737823   -102.42721   -2713.9277    4.4411257    4.4411257    4.4411257   -2713.9277   -9236.3004   -14288.616    15383.134   -9745.0502    34727.465    227.61209    87.594977 
   46900    1671.2153   -103.93046    1.5121507   -102.41831    -3903.091    4.4274119    4.4274119    4.4274119    -3903.091   -17442.696    46677.939   -40944.516   -2171.7499    -58555.82   -20970.506    86.786022 
   47000    1829.1641   -104.06696    1.6550661   -102.41189    10553.767    4.4155414    4.4155414    4.4155414    10553.767   -17423.321     41336.53    7748.0929   -9130.9399    10575.642    29557.869    86.089836 
   47100    1607.9555   -103.88018    1.4549119   -102.42527      1397.27    4.4149262    4.4149262    4.4149262      1397.27   -71491.018    91882.232   -16199.404   -5691.6054   -59631.656   -20860.122    86.053855 
   47200    2213.1507   -104.42188    2.0025052   -102.41937   -7194.2234     4.412352     4.412352     4.412352   -7194.2234   -22144.812   -21729.434    22291.575   -19846.568    18366.266    20875.783    85.903421 
   47300    1076.9438   -103.41976   0.97444136   -102.44532   -1436.3851    4.4243016    4.4243016    4.4243016   -1436.3851     -56211.1    28815.547    23086.397   -2950.5648   -56296.091    16018.958    86.603246 
   47400    2274.4979   -104.48692    2.0580135   -102.42891   -10083.783    4.4144186    4.4144186    4.4144186   -10083.783    22626.755   -18670.543   -34207.562   -9284.8936    13154.756   -35248.397     86.02418 
   47500    1438.3784   -103.74222     1.301475   -102.44075   -11749.678    4.4036068    4.4036068    4.4036068   -11749.678   -7555.8929    18296.272   -45989.414   -5347.1732   -57165.738    33057.402    85.393652 
   47600    2119.4837   -104.35675    1.9177534   -102.43899   -7947.6454     4.411776     4.411776     4.411776   -7947.6454    18718.883   -31874.196   -10687.624   -3377.6364    5009.6559   -39948.153    85.869783 
   47700    1532.4919    -103.8322    1.3866308   -102.44557   -14391.417    4.4207895    4.4207895    4.4207895   -14391.417    18015.318   -20763.308    -40426.26   -10303.924   -32948.344    7381.0361    86.397171 
   47800    2078.7791    -104.3209    1.8809231   -102.43998   -40453.815    4.4292313    4.4292313    4.4292313   -40453.815   -49032.696   -8399.0901   -63929.659      2215.55   -11550.082   -5433.5387    86.893058 
   47900    1921.6777    -104.1645    1.7387743   -102.42573   -9468.3914    4.4164989    4.4164989    4.4164989   -9468.3914   -587.87569   -34640.564    6823.2654    4645.3168     -12311.7   -1150.1659    86.145854 
   48000    1340.7384   -103.64269    1.2131283   -102.42956    36364.246    4.3935481    4.3935481    4.3935481    36364.246    -4428.228    136557.91   -23036.946    6733.5871   -31968.624    4048.0874    84.809825 
   48100    2196.6527   -104.42458    1.9875776     -102.437     19124.79    4.4125935    4.4125935    4.4125935     19124.79   -20687.686    47310.521    30751.533    3987.7921    1664.6595   -5501.3249    85.917528 
   48200    1606.5296   -103.90032    1.4536218    -102.4467   -59109.515    4.4278333    4.4278333    4.4278333   -59109.515   -75011.718   -19115.198   -83201.628    2369.0164   -48512.323    34744.028    86.810803 
   48300    2362.6544   -104.56133    2.1377794   -102.42355    19812.288    4.4118479    4.4118479    4.4118479    19812.288   -30801.495    59807.716    30430.644    1068.9013    21107.601   -15977.425     85.87398 
   48400    993.60128   -103.34592   0.89903132   -102.44689   -11009.497    4.4128315    4.4128315    4.4128315   -11009.497   -32445.577    29934.544   -30517.457    4051.5492   -45188.827    34128.397    85.931432 
   48500    2127.8347   -104.35881    1.9253096    -102.4335   -18141.769    4.4049528    4.4049528    4.4049528   -18141.769   -13340.424   -34530.995   -6553.8876   -9566.5516    31924.042    20685.284    85.471984 
   48600    2006.0222   -104.26083     1.815091   -102.44574   -28454.854    4.4103228    4.4103228    4.4103228   -28454.854   -49693.731    14028.284   -49699.114     9610.955   -56926.718   -10727.409    85.784958 
   48700    1248.3391   -103.57918    1.1295235   -102.44966   -27674.943    4.4204366    4.4204366    4.4204366   -27674.943    4858.4393   -22356.261   -65527.006   -8705.1552    26657.571    43751.765    86.376479 
   48800    1977.6465   -104.21226    1.7894161   -102.42284    20748.234    4.4120933    4.4120933    4.4120933    20748.234    23606.517    24249.734    14388.451   -1421.9499   -15171.611    -25277.61    85.888308 
   48900    1815.0391   -104.08671    1.6422856   -102.44443   -38895.742    4.4203059    4.4203059    4.4203059   -38895.742   -21436.274   -6378.0753   -88872.876    15124.762   -12422.821    37445.802    86.368817 
   49000    2328.3629    -104.5367    2.1067517   -102.42995    30333.133     4.412986     4.412986     4.412986    30333.133     54620.26    41168.065   -4788.9264    10841.585     3809.431   -26463.391    85.940456 
   49100    1132.9411   -103.48237    1.0251089   -102.45726   -6207.8393    4.4094083    4.4094083    4.4094083   -6207.8393   -3967.7306     13054.39   -27710.177   -5760.1293   -20916.719    47817.151    85.731601 
   49200    2523.1918   -104.71732    2.2830369   -102.43429    14516.489    4.4217188    4.4217188    4.4217188    14516.489    24600.957    19853.874   -905.36309     12799.62    -3646.134    -25061.22    86.451665 
   49300     1402.452   -103.71132     1.268968   -102.44236   -20067.447    4.4186912    4.4186912    4.4186912   -20067.447    35258.147   -50195.014   -45265.475   -2258.2622    2765.8882      38162.8    86.274206 
   49400    2225.7823    -104.4322    2.0139346   -102.41827    2235.3987    4.4176644    4.4176644    4.4176644    2235.3987   -31295.353    14411.579    23589.971    20025.171   -8896.6844    4571.3104    86.214075 
   49500    1229.6241   -103.53684    1.1125897   -102.42425   -25534.038    4.4214222    4.4214222    4.4214222   -25534.038    57451.187   -36280.116   -97773.187    2379.6355    1616.3469    54431.352    86.434269 
   49600    2439.9147   -104.62015    2.2076861   -102.41247    4583.6635    4.4116343    4.4116343    4.4116343    4583.6635     3411.066    49687.518   -39347.593    4496.1287   -2483.8013   -18632.751    85.861511 
   49700    1519.6219   -103.80969    1.3749859    -102.4347   -26558.687     4.419349     4.419349     4.419349   -26558.687    8566.0695   -39093.963   -49148.168    8054.5335    5547.4077    67883.021    86.312737 
   49800    1601.5045   -103.87673    1.4490749   -102.42766    34143.622    4.4116812    4.4116812    4.4116812    34143.622    110777.42    3094.6203   -11441.174   -23949.368   -3214.8303   -28304.411    85.864247 
   49900    1945.2175   -104.18986    1.7600737   -102.42979   -4496.4905    4.4214959    4.4214959    4.4214959   -4496.4905    30844.104   -29625.314   -14708.262    4326.9338    20559.026    35333.284    86.438589 
   50000    1702.5845   -103.96404    1.5405342    -102.4235   -14778.727    4.4255993    4.4255993    4.4255993   -14778.727    75565.583   -55500.762   -64401.001   -1694.0799     3074.482   -28775.952    86.679474 
   50100    2015.7891   -104.23637    1.8239283   -102.41244   -1897.3044    4.4266887    4.4266887    4.4266887   -1897.3044    2420.7402   -25942.087    17829.434   -2876.2122    1327.6988    26130.163    86.743501 
   50200    1534.9373   -103.80813    1.3888435   -102.41929   -43672.624    4.4317245    4.4317245    4.4317245   -43672.624   -18291.361   -66312.302    -46414.21    5181.6239    2682.5386   -35786.643    87.039877 
   50300    2172.3572   -104.36666    1.9655944   -102.40107    16283.926    4.4028791    4.4028791    4.4028791    16283.926   -18302.229    23255.411    43898.595   -28001.986   -1841.0734   -145.09112    85.351327 
   50400    1410.0888   -103.71194     1.275878   -102.43606    21933.804    4.3985741    4.3985741    4.3985741    21933.804    14549.464    18963.199    32288.749     6612.094    8082.6942    20528.663    85.101208 
   50500    2001.1543   -104.26035    1.8106865   -102.44966    19265.972     4.421363     4.421363     4.421363    19265.972   -18554.184    37127.005    39225.096   -20939.825   -5117.4934   -7988.4325    86.430798 
   50600    1549.7145   -103.84912    1.4022143   -102.44691   -11366.073    4.4401013    4.4401013    4.4401013   -11366.073   -57638.408    43852.209    -20312.02    8341.2293     11555.96    36526.987    87.534372 
   50700     2293.088    -104.4775    2.0748342   -102.40266   -34878.853    4.4330233    4.4330233    4.4330233   -34878.853   -47954.125   -38358.267   -18324.167   -9625.9638   -7989.0952   -26282.861    87.116427 
   50800    1327.0621   -103.62131    1.2007536   -102.42056    19034.655    4.3833013    4.3833013    4.3833013    19034.655    3292.9408    79693.164    -25882.14   -18301.218    32528.704    27804.678    84.217813 
   50900    2163.3292   -104.38717    1.9574257   -102.42975    42640.328    4.3767871    4.3767871    4.3767871    42640.328    5362.1395    56506.917    66051.927    11131.903   -19704.313   -20363.989    83.842896 
   51000    1702.5388   -104.01295    1.5404929   -102.47245   -31601.877    4.4232074    4.4232074    4.4232074   -31601.877    -42617.09   -8720.5252   -43468.017   -1993.0574    39792.005    28583.411    86.539006 
   51100    1818.1261   -104.07291    1.6450787   -102.42783   -38824.355    4.4438792    4.4438792    4.4438792   -38824.355   -50971.511   -5815.7025   -59685.851    9305.0384   -15857.467   -2081.3221    87.758001 
   51200    1625.7506   -103.86918    1.4710133   -102.39816    8907.3986    4.4191877    4.4191877    4.4191877    8907.3986    2584.5212    13425.243    10712.431    6467.2684    38398.999    24971.745    86.303291 
   51300    1867.8365   -104.08674    1.6900578   -102.39668   -1616.2874    4.3932429    4.3932429    4.3932429   -1616.2874   -4473.5392     2805.618   -3180.9411   -9463.1957   -6668.5636    21776.197    84.792149 
   51400    1940.6547    -104.1754    1.7559451   -102.41945    17087.851    4.3939164    4.3939164    4.3939164    17087.851    39885.127   -4567.5678    15945.993    13988.107    9024.7087    1755.0805    84.831152 
   51500    1509.8286   -103.83347    1.3661246   -102.46734   -3083.2373     4.420252     4.420252     4.420252   -3083.2373    30829.682   -44957.405    4878.0116   -19279.566    25773.662    43479.013    86.365656 
   51600    2512.1781   -104.69804    2.2730716   -102.42497   -19501.367    4.4291809    4.4291809    4.4291809   -19501.367   -23814.952   -17143.672   -17545.477    17820.731   -1385.2983    -16383.16    86.890092 
   51700     824.1937   -103.18854   0.74574778   -102.44279   -16536.573    4.4067034    4.4067034    4.4067034   -16536.573    11480.414   -4534.1174   -56556.015   -4121.0777     36648.03    42890.557    85.573926 
   51800    2785.6739   -104.94275    2.5205363   -102.42222     28729.38    4.3881487    4.3881487    4.3881487     28729.38    18695.727     33268.05    34224.363   -21349.822   -13692.943   -13434.426    84.497526 
   51900    1449.5454   -103.76786    1.3115791   -102.45628    10497.152    4.3914798    4.3914798    4.3914798    10497.152    8401.1587    67944.543   -44854.245     21584.03    38960.267    34567.469    84.690103 
   52000    1946.9781   -104.23439    1.7616667   -102.47273   -10029.598    4.4135984    4.4135984    4.4135984   -10029.598   -12615.221    2740.9646   -20214.538   -27170.863   -18836.823   -5875.5201    85.976237 
   52100     2054.079   -104.31209    1.8585738   -102.45352   -33328.597    4.4263278    4.4263278    4.4263278   -33328.597   -41127.659    2083.3901   -60941.522    5826.8514   -3104.6142    18684.503    86.722286 
   52200    1376.8734   -103.69181     1.245824   -102.44599    14751.416    4.4002165    4.4002165    4.4002165    14751.416    21683.587    46790.683   -24220.023      1036.82    9185.2814    11760.543    85.196574 
   52300     1984.537    -104.2408    1.7956508   -102.44515    1434.8318    4.3860798    4.3860798    4.3860798    1434.8318   -12703.669    45534.292   -28526.128   -15258.443   -36304.811    6368.0087    84.378069 
   52400     1966.561   -104.23558    1.7793857    -102.4562     26789.39    4.3957187    4.3957187    4.3957187     26789.39    55700.717    46281.481   -21614.027   -311.13155    15079.097    23858.401    84.935581 
   52500    1564.8969   -103.89694    1.4159516   -102.48098   -14135.086    4.4124558    4.4124558    4.4124558   -14135.086   -32267.081    13.890076   -10152.066   -18700.918   -33654.072   -5409.0582    85.909483 
   52600    1687.3235   -103.98391    1.5267257   -102.45719   -23523.146    4.4253762    4.4253762    4.4253762   -23523.146   -2397.5542   -50747.934   -17423.952    4014.2889    12045.352    28363.437    86.666369 
   52700     2246.652   -104.47369     2.032818   -102.44088   -14381.074    4.4064048    4.4064048    4.4064048   -14381.074    772.40812    -4493.426   -39422.203   -425.49809   -29391.992    9983.2387    85.556533 
   52800    1443.6413   -103.74938     1.306237   -102.44314    20998.363    4.3897668    4.3897668    4.3897668    20998.363    11129.951    3026.8194    48838.318   -23846.734    6981.8151    19972.959    84.591039 
   52900    1595.9439   -103.90941    1.4440436   -102.46537   -11845.325    4.3944878    4.3944878    4.3944878   -11845.325   -7201.7271   -30508.842     2174.593    13407.388   -6681.8976    23148.248     84.86425 
   53000    2332.9104   -104.57961    2.1108663   -102.46875    17736.741    4.4072444    4.4072444    4.4072444    17736.741    31796.363   -1366.4057    22780.266   -1596.1915   -5034.1709   -4461.3002    85.605451 
   53100    1306.0408   -103.65072    1.1817331   -102.46899   -17159.435    4.4231684    4.4231684    4.4231684   -17159.435    15354.658   -38069.554    -28763.41      11278.5   -100.46164    36389.364    86.536718 
   53200    2091.0939   -104.34087    1.8920657   -102.44881   -2193.3197     4.412808     4.412808     4.412808   -2193.3197    47731.265    -31464.84   -22846.384     -7268.06   -15840.494   -29754.988    85.930058 
   53300    2047.5087   -104.29845    1.8526289   -102.44582    5925.6179     4.398459     4.398459     4.398459    5925.6179    21145.119    -24271.32    20903.055    26474.846    11247.556    36751.971    85.094529 
   53400    1292.7986   -103.63247    1.1697514   -102.46272   -13616.511    4.3976658    4.3976658    4.3976658   -13616.511    20902.945   -46405.005   -15347.475   -10149.029    -24240.69   -24167.074    85.048503 
   53500    2189.0627   -104.44673    1.9807099   -102.46602    4397.7392    4.4014668    4.4014668    4.4014668    4397.7392   -6524.2709   -49183.273    68900.762    8107.4643   -1671.3043   -25812.052    85.269219 
   53600    1756.8165   -104.06067    1.5896045   -102.47107   -18123.959    4.4108027    4.4108027    4.4108027   -18123.959   -18347.111   -60758.715    24733.949    15023.807   -2621.5409    4068.3614    85.812962 
   53700     1430.774   -103.77727    1.2945944   -102.48268   -32548.216    4.4138544    4.4138544    4.4138544   -32548.216    12169.826   -70360.926   -39453.548   -8360.8997   -19163.357   -50057.878    85.991197 
   53800    2489.2454     -104.712    2.2523216   -102.45968    9816.1391     4.409748     4.409748     4.409748    9816.1391   -36848.185   -27817.998      94114.6     3223.342    13800.477    14986.832    85.751421 
   53900     1084.646   -103.45465   0.98141045   -102.47324    12905.649    4.4011459    4.4011459    4.4011459    12905.649    56534.936   -47859.676    30041.688   -13530.438   -7334.1333   -46002.262    85.250572 
   54000    2175.4133   -104.43347    1.9683596   -102.46511   -2751.2244     4.399156     4.399156     4.399156   -2751.2244   -15919.017      12625.9   -4960.5561     12007.29   -8864.7488    13408.971    85.134988 
   54100    1815.2324   -104.10815    1.6424604   -102.46569   -5614.2478    4.4043703    4.4043703    4.4043703   -5614.2478    -14016.46   -4022.3602     1196.077   -10555.962    36774.992   -35123.742    85.438078 
   54200    1388.7715   -103.72127    1.2565896   -102.46468    16746.696    4.4093568    4.4093568    4.4093568    16746.696    16757.774   -11177.977    44660.293    2909.6947   -31901.083    1826.4711    85.728598 
   54300    1599.1691   -103.91129    1.4469618   -102.46433   -14734.501    4.4197498    4.4197498    4.4197498   -14734.501   -38546.982   -739.39607    -4917.124   -8274.8144    57252.391   -5751.6729    86.336227 
   54400    2405.7596   -104.61077    2.1767819   -102.43399      5674.81    4.4039301    4.4039301    4.4039301      5674.81    451.14774   -8593.1375     25166.42    -1081.112   -27849.974   -6153.4839    85.412463 
   54500    967.56003   -103.34216   0.87546865    -102.4667   -25588.938    4.4010552    4.4010552    4.4010552   -25588.938   -32043.731     12429.73   -57152.813    5763.7804    66294.835    17749.719    85.245299 
   54600      2848.65   -105.02824    2.5775184   -102.45073    12831.965     4.407263     4.407263     4.407263    12831.965    22187.614   -15409.113    31717.394   -6386.0085    3951.7237   -2806.5266    85.606531 
   54700    949.21436   -103.33403    0.8588691   -102.47516   -956.37749    4.4174488    4.4174488    4.4174488   -956.37749   -17867.962    14280.427    718.40199    17794.912    18577.578    6734.0272     86.20145 
   54800    2189.4904   -104.41723    1.9810969   -102.43613   -17147.488    4.4290297    4.4290297    4.4290297   -17147.488   -19443.532   -19159.829   -12839.101    6154.0987    11135.413   -16560.139    86.881194 
   54900    1664.0252   -103.92269     1.505645   -102.41705    4117.6692    4.4183491    4.4183491    4.4183491    4117.6692     22112.71   -25619.938    15860.235    25620.244    15565.204    1383.4801    86.254166 
   55000    1683.5839   -103.94369    1.5233421   -102.42035   -4107.9368    4.4009333    4.4009333    4.4009333   -4107.9368   -27811.847    44084.655   -28596.619    -4100.045    32168.633   -5012.3135    85.238219 
   55100    1922.1251   -104.17897    1.7391792   -102.43979    36549.758    4.3985434    4.3985434    4.3985434    36549.758    67828.354    15334.352    26486.568    8123.7683    1975.4188   -17568.616    85.099428 
   55200    1729.7838   -104.01777    1.5651447   -102.45263   -17505.521    4.4195103    4.4195103    4.4195103   -17505.521    22659.998   -36893.236   -38283.325    16827.335    35755.799   -17674.971     86.32219 
   55300    1773.6685   -104.03795    1.6048526    -102.4331   -12865.193    4.4224227    4.4224227    4.4224227   -12865.193    83585.451   -82348.828     -39832.2   -2488.4479   -7063.6915   -33138.578    86.492956 
   55400    1853.7843   -104.10726     1.677343   -102.42991   -9459.0924    4.4126665    4.4126665    4.4126665   -9459.0924    12703.468   -40748.856   -331.88957    17855.247    35632.859   -18661.063    85.921789 
   55500    1992.7806   -104.23632    1.8031097   -102.43321   -6807.8217    4.4061695    4.4061695    4.4061695   -6807.8217    66377.056   -47624.676   -39175.845   -8445.2403   -6347.7885   -27183.355    85.542829 
   55600    2061.7615   -104.30694    1.8655251   -102.44141     30108.25    4.3952639    4.3952639    4.3952639     30108.25    28175.864    53244.873     8904.013    13885.755   -169.90269    16134.445    84.909225 
   55700    1347.0767   -103.69174    1.2188633   -102.47287    11444.081    4.4064738    4.4064738    4.4064738    11444.081    82355.365    -34938.05   -13085.073    9170.9688    13988.887   -53659.372    85.560553 
   55800    2346.2753   -104.56609    2.1229592   -102.44313    6248.2127    4.4221143    4.4221143    4.4221143    6248.2127    8557.4433    1090.7256    9096.4693   -11866.624   -10237.776    30904.334    86.474864 
   55900    1213.3045   -103.55141    1.0978234   -102.45358   -21815.715    4.4222779    4.4222779    4.4222779   -21815.715    15045.352   -8084.4151   -72408.082    21154.952    13538.488   -52420.374    86.484462 
   56000    2609.6595   -104.79018    2.3612747    -102.4289    7347.0637    4.4079383    4.4079383    4.4079383    7347.0637   -15426.845    25646.516     11821.52    1583.5076     3371.668    3925.8877    85.645888 
   56100    1389.4686   -103.71445    1.2572204   -102.45723   -5840.5792    4.3963184    4.3963184    4.3963184   -5840.5792    21825.452   -7387.3765   -31959.813   -6998.6792    3038.9857   -36275.797    84.970353 
   56200    1485.0232   -103.82805    1.3436802   -102.48437    29368.008    4.4004771    4.4004771    4.4004771    29368.008   -1851.2342    51588.711    38366.545    9354.8425    18146.421   -4336.0395    85.211714 
   56300    2244.2101   -104.50159    2.0306085   -102.47098   -13767.077    4.4215087    4.4215087    4.4215087   -13767.077    12070.859   -22476.414   -30895.675   -19946.937   -10883.806   -14995.226    86.439341 
   56400    1049.6972   -103.40557   0.94978807   -102.45578   -4512.8044     4.419986     4.419986     4.419986   -4512.8044    38166.237   -9969.9346   -41734.716    16219.836    30279.131   -39808.561     86.35007 
   56500    2109.8543   -104.33685    1.9090405   -102.42781    35076.362    4.4105121    4.4105121    4.4105121    35076.362    33203.444    19402.968    52622.675   -15712.496   -13563.764    18170.345    85.796001 
   56600    1695.6459    -103.9739     1.534256   -102.43964   -11143.267    4.4049661    4.4049661    4.4049661   -11143.267    40663.105   -39619.663   -34473.241    1684.6092    33195.162   -60185.548    85.472756 
   56700    1530.6284   -103.82961    1.3849448   -102.44467    42941.544    4.4058659    4.4058659    4.4058659    42941.544    13338.561    21880.137    93605.934      -6819.4     19683.83    19772.382    85.525143 
   56800    1401.8896   -103.71714    1.2684592   -102.44868   -7114.2784    4.4246564    4.4246564    4.4246564   -7114.2784    53372.891   -25614.153   -49101.573    1918.0319    18242.133   -55225.806    86.624081 
   56900    1974.8444   -104.18836    1.7868807   -102.40148    13774.011    4.4299707    4.4299707    4.4299707    13774.011    6004.1424    4322.4151    30995.475    13614.635    32111.504    3267.9181    86.936584 
   57000    1224.0091     -103.504    1.1075092   -102.39649    27547.924    4.4268437    4.4268437    4.4268437    27547.924    71556.292    38020.564   -26933.083    11180.186    17.502384   -27908.928    86.752615 
   57100    1583.0742   -103.82435    1.4323988   -102.39195    15400.056    4.4221062    4.4221062    4.4221062    15400.056    47721.009    55019.589   -56540.429    11063.551    56723.666    8745.7801    86.474392 
   57200    1928.9293   -104.13195    1.7453357   -102.38662    9020.1985    4.4148876    4.4148876    4.4148876    9020.1985    123540.82   -62456.937   -34023.292    17344.231   -20717.848   -39262.443    86.051602 
   57300    1219.9674   -103.52668    1.1038522   -102.42283   -8188.0479    4.4175537    4.4175537    4.4175537   -8188.0479   -19670.398    73225.943   -78119.688    19817.487    72794.311    11144.273    86.207591 
   57400    2636.5844    -104.7979    2.3856369   -102.41227   -20676.384    4.4191222    4.4191222    4.4191222   -20676.384    -3497.935   -41330.095   -17201.121      16590.2   -24529.896   -39341.586    86.299452 
   57500    1754.4801   -104.01037    1.5874904   -102.42288    -36653.51    4.4239694    4.4239694    4.4239694    -36653.51   -59152.093   -2745.6062   -48062.829   -10179.505      74472.1    1775.2661    86.583738 
   57600     2075.418   -104.27956    1.8778818   -102.40168   -3443.5258    4.4266656    4.4266656    4.4266656   -3443.5258    10735.254   -19752.664   -1313.1671    9975.4661    -40369.76    -9267.287    86.742141 
   57700    1513.6131   -103.78126    1.3695489   -102.41171    7115.0445    4.4160045    4.4160045    4.4160045    7115.0445    28783.567   -8563.9703    1125.5368    4572.8046    45899.981    2443.4509    86.116928 
   57800    1784.3639   -104.02969      1.61453   -102.41516    48285.548    4.4053259    4.4053259    4.4053259    48285.548    110272.96    16973.894    17609.793   -10881.447   -22020.954   -3710.7105    85.493704 
   57900    1463.3038   -103.75373     1.324028    -102.4297    11715.839    4.4139266    4.4139266    4.4139266    11715.839    16767.461    40752.075   -22372.021   -897.65878    20586.132    11212.094    85.995422 
   58000    2258.1244   -104.46613    2.0431984   -102.42293   -11206.376    4.4168407    4.4168407    4.4168407   -11206.376   -14359.525   -3408.1471   -15851.456   -3055.1605    9346.8644   -10516.362    86.165857 
   58100    1926.0908   -104.18392    1.7427675   -102.44115   -17718.904    4.4127798    4.4127798    4.4127798   -17718.904   -14826.348   -19102.017   -19228.346   -3421.0874   -1196.4631    8270.5146    85.928408 
   58200    2360.4236   -104.57267    2.1357609   -102.43691   -351.91917    4.4115989    4.4115989    4.4115989   -351.91917    -7109.296     14965.06   -8911.5212   -16771.075    29066.771   -9492.3454    85.859442 
   58300    1262.1843   -103.59121    1.1420509   -102.44916    -6661.971    4.4151791    4.4151791    4.4151791    -6661.971     26847.79   -20811.716   -26021.986     13027.76   -26194.797    18333.479    86.068648 
   58400    2587.7674   -104.75662    2.3414663   -102.41516      164.479    4.4221322    4.4221322    4.4221322      164.479    45043.743   -48923.555     4373.249   -15019.307    11274.083   -396.86801    86.475917 
   58500    1022.8305   -103.35848   0.92547851     -102.433   -4238.2634    4.4134304    4.4134304    4.4134304   -4238.2634   -164.17698   -24942.387    12391.773    -654.1983   -31044.046    13477.731    85.966423 
   58600    2390.4979   -104.58538    2.1629727   -102.42241    6499.4313    4.4105893    4.4105893    4.4105893    6499.4313    25594.529   -27073.689    20977.454    -6022.725    4655.5257    24799.963    85.800506 
   58700    1887.4411   -104.12435    1.7077964   -102.41655   -26542.516    4.4260472    4.4260472    4.4260472   -26542.516   -26850.774    -60591.86    7815.0846    1124.8694   -18628.149    8167.4239    86.705792 
   58800    1423.6369   -103.71315    1.2881366   -102.42502   -8878.7654     4.426503     4.426503     4.426503   -8878.7654   -12027.832   -47197.701    32589.236    5571.8046   -15076.699    31640.443    86.732586 
   58900    2595.9925   -104.76098    2.3489085   -102.41207   -26090.143    4.4173291    4.4173291    4.4173291   -26090.143   -19241.832   -44414.486    -14614.11    2677.1075    21331.223    8729.3156    86.194443 
   59000    1574.5771   -103.84976    1.4247105   -102.42505   -26505.868      4.41317      4.41317      4.41317   -26505.868   -8204.9845   -67009.278   -4303.3404    14443.379   -39973.216    30353.189    85.951207 
   59100    2448.5631   -104.63686    2.2155114   -102.42135   -34054.282     4.418256     4.418256     4.418256   -34054.282   -31516.261   -33658.866   -36987.718   -6066.1753    18653.095    7730.4361    86.248712 
   59200    1972.0164   -104.20025    1.7843219   -102.41592   -40381.105    4.4150824    4.4150824    4.4150824   -40381.105   -10787.358   -63248.356   -47107.601    10210.135   -27721.511    28634.005    86.062991 
   59300    1543.5317   -103.80469    1.3966199   -102.40807   -26895.801    4.4232797    4.4232797    4.4232797   -26895.801   -13011.354   -37249.572   -30426.477    -8568.746    9277.1081   -5552.2954    86.543249 
   59400    2254.3124   -104.43228    2.0397493   -102.39253   -16295.674    4.4245033    4.4245033    4.4245033   -16295.674    749.93967   -25884.848   -23752.112   -1215.6027   -573.37903     9737.307    86.615091 
   59500    1914.6603   -104.12741    1.7324248   -102.39499   -18044.642    4.4121696    4.4121696    4.4121696   -18044.642   -28364.183    8198.1488   -33967.892   -1409.2812    -10352.14   -26198.528    85.892769 
   59600    1871.1414   -104.10342    1.6930481   -102.41037   -36316.812    4.4098514    4.4098514    4.4098514   -36316.812   -37911.998   -36869.511   -34168.926   -7356.0601    28717.176    20534.191    85.757451 
   59700    2070.6166   -104.28852    1.8735374   -102.41498    -136.9051    4.4094804    4.4094804    4.4094804    -136.9051    53979.358   -5154.4131    -49235.66    14452.833   -988.60867   -39603.516    85.735807 
   59800    1659.4178   -103.92841    1.5014761   -102.42694   -32132.719    4.4249209    4.4249209    4.4249209   -32132.719   -17089.222   -43295.387   -36013.549   -16186.248    26320.409    19583.014    86.639621 
   59900    1999.3739   -104.22444    1.8090755   -102.41537   -29139.462    4.4180561    4.4180561    4.4180561   -29139.462   -25252.046   -67969.702    5803.3631    19890.654     3630.787   -36650.191    86.237009 
   60000    1935.8904    -104.1714    1.7516343   -102.41977    7952.1811    4.4047055    4.4047055    4.4047055    7952.1811    23094.539    11173.799   -10411.794   -24072.852    39701.081    8844.0967     85.45759 
   60100    1958.0456   -104.20368    1.7716808     -102.432    -11473.28    4.4170496    4.4170496    4.4170496    -11473.28   -21288.859   -55290.308    42159.327    11160.961    3350.7987   -22753.402    86.178081 
   60200    1867.2945   -104.10391    1.6895673   -102.41434   -862.40533    4.4339198    4.4339198    4.4339198   -862.40533   -16927.215    26734.177   -12394.177   -10300.231    31863.854    15886.791    87.169291 
   60300    1750.4332    -103.9927    1.5838287   -102.40888   -3795.0444    4.4380452    4.4380452    4.4380452   -3795.0444    22628.791   -56313.888    22299.964    14018.748   -5081.9804   -8854.3701    87.412827 
   60400    2008.0517   -104.22544    1.8169274   -102.40851    -13275.67    4.4089546    4.4089546    4.4089546    -13275.67   -24514.107    4368.6714   -19681.575   -5789.0853    38761.374   -1675.7761     85.70514 
   60500    1271.6317    -103.5631    1.1505991    -102.4125    51578.884     4.375456     4.375456     4.375456    51578.884     55348.51    77384.077    22004.067    20541.613    2320.1414     28546.11    83.766419 
   60600    2120.1337   -104.36571    1.9183415   -102.44737    22092.752    4.3978552    4.3978552    4.3978552    22092.752    6091.5236    22695.177    37491.554    22074.323   -253.92556   -6883.6791     85.05949 
   60700    1504.7834   -103.82072    1.3615597   -102.45917   -5687.4949    4.4310126    4.4310126    4.4310126   -5687.4949    15816.331    4948.4887   -37827.305     15549.56    15720.576    48991.629    86.997935 
   60800    1594.2716    -103.8669    1.4425304   -102.42437    -15136.31    4.4473168    4.4473168    4.4473168    -15136.31   -23775.188   -27969.393    6335.6502    18230.375   -21739.937   -10353.934    87.961818 
   60900    1749.3723   -103.97759    1.5828688   -102.39473    8194.5336    4.4249022    4.4249022    4.4249022    8194.5336     20336.91    62670.112   -58423.422    4970.5695    9617.2285    33990.608    86.638523 
   61000    1887.9854   -104.09678    1.7082889   -102.38849    17181.851    4.3981591    4.3981591    4.3981591    17181.851   -1170.2857    17699.759    35016.079    41642.869   -13130.055    279.08989    85.077125 
   61100    1861.0594   -104.09639    1.6839257   -102.41246    14313.498     4.409175     4.409175     4.409175    14313.498    -15535.99    55173.875    3302.6089   -12875.118    -8813.046    26406.685    85.717996 
   61200    1497.6678   -103.78848    1.3551213   -102.43335   -14652.993    4.4248932    4.4248932    4.4248932   -14652.993   -38627.324   -47911.244    42579.589    62687.551   -1490.7643    16566.631    86.637995 
   61300    2019.0722   -104.25009     1.826899   -102.42319    5507.3681    4.4234996    4.4234996    4.4234996    5507.3681    24886.935   -8431.5386    66.707732   -35998.957   -13365.868   -7627.2567    86.556157 
   61400    1785.3305   -104.04585    1.6154045   -102.43045   -30636.129    4.4159106    4.4159106    4.4159106   -30636.129   -63020.362   -17620.405   -11267.621    64694.416    13676.714    28835.401    86.111435 
   61500    2070.8755    -104.3026    1.8737717   -102.42882    15933.547    4.4063316    4.4063316    4.4063316    15933.547    42991.638   -16666.462    21475.466   -1199.5919   -2833.3261   -11289.868    85.552271 
   61600     1408.565   -103.71971    1.2744992   -102.44521   -4344.7626    4.4098029    4.4098029    4.4098029   -4344.7626    346.15826   -44668.762    31288.315    40930.493   -11685.819    12872.898    85.754621 
   61700    2198.6623    -104.4195    1.9893959    -102.4301   -11307.988    4.4270097    4.4270097    4.4270097   -11307.988   -23240.062   -28355.579    17671.678    8301.6716    11265.727    17203.074    86.762371 
   61800    1770.9294   -104.02333    1.6023742   -102.42096   -15146.063    4.4228618    4.4228618    4.4228618   -15146.063   -51805.783   -57663.502    64031.098    34178.983    -16138.53   -12708.068    86.518727 
   61900    1832.8977   -104.07248    1.6584443   -102.41403    15467.853    4.4008754    4.4008754    4.4008754    15467.853    22836.476   -16646.931    40214.013    9672.7049    5956.0136     39511.29    85.234856 
   62000    1937.4512   -104.18141    1.7530466   -102.42836    15735.159    4.4023475    4.4023475    4.4023475    15735.159    -56188.13    -2237.937    105631.54    47752.496   -1599.8632   -5943.1517    85.320417 
   62100    1935.3512   -104.19046    1.7511465   -102.43932    2627.1546    4.4125732    4.4125732    4.4125732    2627.1546   -10454.583     -26018.6    44354.647     11481.04   -16594.844    22983.224    85.916342 
   62200    1631.0208   -103.91398    1.4757819    -102.4382    3209.0367    4.4275222    4.4275222    4.4275222    3209.0367   -49195.319    11045.348    47777.081     31572.14    3021.5015    16558.721    86.792508 
   62300    1782.8842   -104.03688    1.6131911   -102.42369    -15488.99    4.4253316    4.4253316    4.4253316    -15488.99   -42387.427    -44974.28    40894.737     13629.98   -26877.441     24814.25    86.663744 
   62400    1589.0218   -103.85676    1.4377803   -102.41898    18653.663    4.3982058    4.3982058    4.3982058    18653.663    2252.4948    19821.951    33886.543    30538.567   -3959.6429    25052.116    85.079835 
   62500    1800.3414   -104.05716    1.6289868   -102.42817    14932.182    4.4037485    4.4037485    4.4037485    14932.182   -13262.758    2327.2259    55732.078    1816.4128   -9621.2837    3222.2218    85.401896 
   62600    1964.6322   -104.21949    1.7776405   -102.44185   -8009.4034    4.4143539    4.4143539    4.4143539   -8009.4034   -15255.085   -32133.676    23360.551    32558.606   -13763.477    23914.036      86.0204 
   62700    1912.8399   -104.15901    1.7307777   -102.42823   -4589.1721    4.4304414    4.4304414    4.4304414   -4589.1721   -10498.848   -22159.661    18890.993    2202.1433    9238.8558    -11895.82    86.964295 
   62800      1707.02    -103.9631    1.5445476   -102.41855    -36782.01    4.4288701    4.4288701    4.4288701    -36782.01   -33564.624   -51573.696    -25207.71    27613.972   -12062.157    23268.609    86.871803 
   62900    1924.3932   -104.14427    1.7412314   -102.40304    8167.8521    4.4006691    4.4006691    4.4006691    8167.8521   -34346.396     127.3161    58722.636    27488.127     9321.455   -3089.5238    85.222865 
   63000    1753.7575   -104.00071    1.5868366   -102.41388   -14836.203    4.3985388    4.3985388    4.3985388   -14836.203    -29405.81   -30812.323    15709.522    5652.4743    -16969.13     16502.62    85.099161 
   63100    1827.7873   -104.09236    1.6538204   -102.43854   -20585.121    4.4170704    4.4170704    4.4170704   -20585.121   -40751.147   -11120.737   -9883.4802    43635.699    386.79729    13550.596    86.179299 
   63200    2133.1405   -104.37491    1.9301103    -102.4448   -7936.9098     4.426019     4.426019     4.426019   -7936.9098   -36342.046    31642.777   -19111.461   -11819.457    -273.0697   -17676.344    86.704135 
   63300    1373.5615   -103.70619    1.2428273   -102.46336   -19059.091    4.4074888    4.4074888    4.4074888   -19059.091   -22263.618   -43308.657    8395.0012    46733.248   -3658.6061    38116.946    85.619689 
   63400    2369.3674   -104.58419    2.1438534   -102.44033    6483.1087    4.4079895    4.4079895    4.4079895    6483.1087   -22432.799    32505.349    9376.7759    14319.903    6643.3607   -25578.858    85.648872 
   63500    1410.7033   -103.71557     1.276434   -102.43914   -30421.772     4.425254     4.425254     4.425254   -30421.772   -48209.255   -38779.801   -4276.2593    47790.434   -12919.994    23963.643    86.659187 
   63600    1976.3293   -104.21865    1.7882243   -102.43042    7578.6624    4.4265418    4.4265418    4.4265418    7578.6624    11384.855   -17942.235    29293.367   -16872.395    12619.821   -1132.6335    86.734866 
   63700    1769.9067   -104.02672    1.6014488   -102.42527     -7088.74    4.4236561    4.4236561    4.4236561     -7088.74   -26455.714   -12591.122    17780.616    39626.368   -8987.2537   -5331.0046    86.565347 
   63800    1319.5216    -103.6144    1.1939309   -102.42047    51780.754    4.4110172    4.4110172    4.4110172    51780.754    70974.506    8080.3347    76287.423   -15719.442   -12902.541    14707.198    85.825484 
   63900    2408.7462    -104.6119    2.1794842   -102.43242   -11963.248    4.4180967    4.4180967    4.4180967   -11963.248    700.92148   -36426.757   -163.90817    40436.025    2732.4185   -14.342478    86.239388 
   64000    1379.3493    -103.6956    1.2480642   -102.44753   -18709.669    4.4206992    4.4206992    4.4206992   -18709.669    28128.308   -44382.005   -39875.309   -7387.5417   -1131.0427    59706.416    86.391873 
   64100    2297.4561   -104.49938    2.0787866    -102.4206    20356.757    4.4097693    4.4097693    4.4097693    20356.757    27496.173   -17690.548    51264.647    21973.734    1395.0703   -20101.039    85.752663 
   64200    1274.6618   -103.60158    1.1533408   -102.44824   -14800.494    4.4120976    4.4120976    4.4120976   -14800.494    14589.953   -78311.077    19319.642    13589.986   -6559.5112    75279.151    85.888561 
   64300     2472.941   -104.67252     2.237569   -102.43495   -4097.4112    4.4134299    4.4134299    4.4134299   -4097.4112   -13677.672   -1365.2425    2750.6812    1384.5287   -20228.629   -12546.818    85.966394 
   64400    1095.3368   -103.44651   0.99108371   -102.45542   -12315.355    4.4115459    4.4115459    4.4115459   -12315.355    72425.294   -63865.687   -45505.672    66.557827    -1120.748    70779.264    85.856349 
   64500    2479.4562   -104.66326    2.2434641   -102.41979    3259.9483    4.4110963    4.4110963    4.4110963    3259.9483   -40335.821    19132.622    30983.043   -8666.8386   -21964.811   -22248.282    85.830098 
   64600    1089.9446   -103.42585   0.98620482   -102.43964   -20222.712    4.4133155    4.4133155    4.4133155   -20222.712    39288.339    -65008.51   -34947.964    19353.389   -8584.0976    85943.593    85.959709 
   64700    2498.5625   -104.66694    2.2607518   -102.40618    16984.972    4.4175207    4.4175207    4.4175207    16984.972    41342.237   -4170.5643    13783.243   -14527.535   -5567.9395   -25852.608    86.205662 
   64800    739.13913   -103.08657   0.66878862   -102.41778   -4677.4859    4.4250545    4.4250545    4.4250545   -4677.4859   -27641.104    36136.459   -22527.812    6047.6767    2993.3554    78840.453    86.647469 
   64900    2710.7268   -104.83011    2.4527226   -102.37739    1715.8828    4.4219088    4.4219088    4.4219088    1715.8828   -7714.4776    8184.3152    4677.8108    951.42833   -12332.621   -24131.502    86.462809 
   65000    1046.2128   -103.36712   0.94663536   -102.42048   -17165.276    4.4072528    4.4072528    4.4072528   -17165.276    24284.916   -9472.3995   -66308.344   -1293.4504   -11377.397    97520.732    85.605936 
   65100    2726.2755   -104.87051    2.4667914   -102.40372    21751.274     4.394523     4.394523     4.394523    21751.274    10068.404    41129.513    14055.907   -6499.4709    4258.1515   -32601.642    84.866289 
   65200    815.50627   -103.19929   0.73788721    -102.4614   -12040.847    4.4143965    4.4143965    4.4143965   -12040.847    44642.206     -5189.25   -75575.495   -13165.265   -13373.727    71924.572    86.022887 
   65300    2565.9341   -104.72031    2.3217111    -102.3986    9600.2632    4.4326584    4.4326584    4.4326584    9600.2632     37733.66    13561.603   -22494.474   -9138.6932   -6000.0789   -9818.5743    87.094916 
   65400    1117.1533   -103.42019    1.0108238   -102.40936   -25593.772    4.4195964    4.4195964    4.4195964   -25593.772    35063.591   -14429.768   -97415.139    482.13577   -23236.718    60498.745    86.327233 
   65500    2356.4547   -104.51855    2.1321697   -102.38638     22505.59    4.4012944    4.4012944    4.4012944     22505.59    53850.522    25724.445   -12058.197   -15759.502   -430.68689   -10631.487    85.259203 
   65600    1434.2142   -103.70588    1.2977072   -102.40818    22375.448    4.3957573    4.3957573    4.3957573    22375.448    105142.62    7116.1125   -45132.392   -9337.1803   -6812.2124    58031.809    84.937819 
   65700    1726.2196    -103.9809    1.5619197   -102.41898   -6353.5906     4.424124     4.424124     4.424124   -6353.5906    50491.509   -13431.562   -56120.719   -3809.2217    -782.6918     7047.362    86.592819 
   65800    1830.0688    -104.0507    1.6558847   -102.39482   -28609.726    4.4353221    4.4353221    4.4353221   -28609.726    19217.855   -70027.936   -35019.098    847.82705    10366.112    51544.288     87.25202 
   65900     1822.134    -104.0239    1.6487052   -102.37519   -23032.547    4.4225642    4.4225642    4.4225642   -23032.547    11790.142   -21821.866   -59065.916   -552.66027   -6077.1458    6221.9216    86.501263 
   66000    2242.1151   -104.38867    2.0287129   -102.35996   -10572.722     4.420857     4.420857     4.420857   -10572.722    6701.9363   -11901.779   -26518.324   -4536.2418    715.86901    36372.523    86.401127 
   66100    1183.8829   -103.45822    1.0712022   -102.38702    3989.9047    4.4091482    4.4091482    4.4091482    3989.9047    17860.892   -15974.267    10083.089      6808.32    7239.8333    2032.3677    85.716436 
   66200      2453.62   -104.62099    2.2200869   -102.40091   -10862.648    4.4136762    4.4136762    4.4136762   -10862.648    3213.4686   -8869.4384   -26931.975   -24881.331   -4755.9089    19429.159    85.980783 
   66300    1196.0943   -103.50293    1.0822512   -102.42068   -2388.1233     4.419672     4.419672     4.419672   -2388.1233   -842.82364   -34551.932    28230.386   -13790.532    21261.607   -311.46602    86.331668 
   66400    2048.1388   -104.26572    1.8531991   -102.41252    32830.018    4.4193899    4.4193899    4.4193899    32830.018    78020.961   -13511.886    33980.978    681.89023   -12462.548    3424.3608    86.315138 
   66500    1421.1472   -103.71724    1.2858839   -102.43135   -20686.533    4.4263743    4.4263743    4.4263743   -20686.533   -35731.921   -555.92303   -25771.755   -20001.514    51797.506     10545.47     86.72502 
   66600    2359.3151   -104.53223    2.1347579   -102.39747    10702.895    4.4166896    4.4166896    4.4166896    10702.895    45121.562    -48428.25    35415.373    616.50682   -13963.539    -19712.69    86.157011 
   66700    1419.8512   -103.69669    1.2847112   -102.41198    9107.6419    4.4077467    4.4077467    4.4077467    9107.6419   -5640.0321   -12903.809    45866.767   -6370.4731    54323.438    14886.271     85.63472 
   66800    2041.3588   -104.26559    1.8470644   -102.41853    10428.508    4.4120182    4.4120182    4.4120182    10428.508    25160.023    5277.5834    847.91732   -4141.4743   -417.78937    8247.4882    85.883923 
   66900    1579.7936   -103.86672    1.4294304   -102.43729     12113.47    4.4187746    4.4187746    4.4187746     12113.47   -28423.356    33183.341    31580.424    1287.1723    30954.229   -2456.2619    86.279088 
   67000    1721.5862    -103.9772    1.5577273   -102.41947    12968.025    4.4306264    4.4306264    4.4306264    12968.025    29969.107   -33044.772    41979.739    5856.2655    92.566296    6074.8676     86.97519 
   67100    1559.3122   -103.82192    1.4108984   -102.41102   -22001.282    4.4312372    4.4312372    4.4312372   -22001.282   -47716.351   -42057.535    23770.042    15265.472   -16410.009   -12596.699    87.011165 
   67200    2372.1311   -104.53799    2.1463541   -102.39164   -358.61983    4.4056457    4.4056457    4.4056457   -358.61983    28711.439   -21177.922   -8609.3756    4612.6182    17852.849    20989.228    85.512326 
   67300    1414.7504   -103.70843    1.2800959   -102.42834    9019.7809    4.4095995    4.4095995    4.4095995    9019.7809   -44172.459   -2487.4325    73719.234    9158.8815   -47125.408   -9279.7485    85.742754 
   67400     1989.641   -104.21535     1.800269   -102.41508   -1788.7488    4.4266519    4.4266519    4.4266519   -1788.7488   -9429.8646   -37516.606    41580.225   -3844.2408    2309.8073    25021.508    86.741337 
   67500    1519.5856   -103.81129     1.374953   -102.43634   -1960.7474    4.4207605    4.4207605    4.4207605   -1960.7474    16060.418   -37235.178    15292.518    4120.2395   -22042.488    16919.715    86.395468 
   67600    2057.6336    -104.2781    1.8617901   -102.41631     13533.55    4.4293344    4.4293344    4.4293344     13533.55    16329.826   -9216.8164     33487.64   -2730.6614    8550.5382    17465.915    86.899123 
   67700    1335.0075   -103.63725    1.2079429   -102.42931    -34377.94    4.4287631    4.4287631    4.4287631    -34377.94   -45301.186   -33526.443    -24306.19    21060.031   -16594.234    34972.368    86.865506 
   67800    2503.4564   -104.67322    2.2651799   -102.40804    11681.249    4.4116271    4.4116271    4.4116271    11681.249   -7297.4116    44793.236   -2452.0785   -6616.1019   -4295.7781    12795.235    85.861087 
   67900    815.15246   -103.19344   0.73756707   -102.45587    3217.3569    4.4040571    4.4040571    4.4040571    3217.3569   -6764.0709   -22160.507    38576.649    14375.163    2526.3491    44022.147    85.419853 
   68000    2644.6078   -104.83171    2.3928967   -102.43881    14235.798    4.4106631    4.4106631    4.4106631    14235.798   -5070.2934    -14270.59    62048.277     897.2092   -9508.4673   -6722.7244    85.804818 
   68100    1041.1313   -103.40694   0.94203751   -102.46491   -43790.644    4.4201808    4.4201808    4.4201808   -43790.644   -17723.586   -57854.194   -55794.153    2920.1211    21064.175    56107.233    86.361482 
   68200    2728.2756   -104.89278    2.4686011   -102.42418    4872.5971    4.4177112    4.4177112    4.4177112    4872.5971   -26694.518   -1942.1495    43254.459    8659.7474   -12588.054    -23750.39    86.216811 
   68300    1244.0796   -103.56362    1.1256694   -102.43795   -32343.842    4.4080451    4.4080451    4.4080451   -32343.842   -7642.2841   -64213.874   -25175.368   -14105.698    19409.814    52554.506    85.652113 
   68400    2329.8399   -104.52127    2.1080881   -102.41318     33536.19    4.4014238    4.4014238    4.4014238     33536.19    25632.394    38137.766    36838.411    14375.786   -10890.873    329.83201    85.266722 
   68500     1148.407   -103.49292    1.0391028   -102.45381   -28462.217    4.4083331    4.4083331    4.4083331   -28462.217   -21060.689   -12501.463   -51824.499   -6617.4732   -4288.4479    41375.167    85.668905 
   68600    2321.6535   -104.53789    2.1006809   -102.43721    7254.7548     4.414452     4.414452     4.414452    7254.7548   -5846.5532    3503.8239    24106.994    9758.4575    9431.5263     19704.01    86.026131 
   68700     1227.729   -103.56706     1.110875   -102.45619   -18194.126    4.4166672    4.4166672    4.4166672   -18194.126   -13938.716    5775.2013   -46418.864   -15509.528   -17528.114    5165.0901    86.155701 
   68800    2151.6413   -104.37633    1.9468503   -102.42948    16025.909    4.4185557    4.4185557    4.4185557    16025.909    10905.025    20602.276    16570.425    14980.406    13212.291    35507.729    86.266264 
   68900    1610.1383   -103.89136    1.4568869   -102.43447   -10451.795    4.4127384    4.4127384    4.4127384   -10451.795   -25115.822    3537.6968   -9777.2592    374.03243    -8444.443   -12287.315    85.925991 
   69000    2017.3918   -104.25961    1.8253785   -102.43423    -2943.547    4.4064287    4.4064287    4.4064287    -2943.547   -9319.0374   -27973.491    28461.887   -14236.572   -1582.9965    42483.639    85.557924 
   69100    1742.2117   -104.02046    1.5763898   -102.44407    18990.224    4.4023908    4.4023908    4.4023908    18990.224   -37659.009    53681.616    40948.066    8740.0058    4395.9624   -25613.197    85.322932 
   69200    2122.4829   -104.36785    1.9204671   -102.44738   -14474.228     4.420623     4.420623     4.420623   -14474.228   -10908.761   -19135.178   -13378.746   -10335.612   -6709.7925    32458.495    86.387404 
   69300    1693.1196   -103.97647    1.5319702    -102.4445    -20608.46    4.4128302    4.4128302    4.4128302    -20608.46   -63616.315     45164.73   -43373.795    28157.514   -2008.0727   -7282.9344    85.931354 
   69400     1773.603    -104.0272    1.6047933   -102.42241    50472.943    4.3926426    4.3926426    4.3926426    50472.943    37394.833    44736.475    69287.522    -4526.474   -3698.3547    948.06711    84.757394 
   69500    1755.0744   -104.03795    1.5880282   -102.44992   -24721.504      4.40235      4.40235      4.40235   -24721.504   -35332.272     2603.942   -41436.183    16330.835    4791.8089    15962.932    85.320563 
   69600    1921.6157   -104.20452    1.7387183    -102.4658    22531.145    4.4130663    4.4130663    4.4130663    22531.145    9365.5604    37021.238    21206.637   -5902.4743   -2792.4335    -34864.76    85.945148 
   69700    1514.1651   -103.81795    1.3700484    -102.4479    -18002.07    4.4322354    4.4322354    4.4322354    -18002.07   -16874.936   -21694.424    -15436.85    1697.2246     12292.13   -2747.2285    87.069984 
   69800    1719.7548   -103.97534    1.5560703   -102.41927   -22076.875    4.4161085    4.4161085    4.4161085   -22076.875   -13685.494   -32807.404   -19737.725    27915.521   -5074.8304   -25276.465    86.123011 
   69900    1872.2885   -104.10311     1.694086   -102.40903    12069.983    4.3955089    4.3955089    4.3955089    12069.983    35597.312    -11021.12    11633.758   -39208.871    16105.377   -21259.292    84.923422 
   70000     1733.141   -104.00205    1.5681824   -102.43387    10530.623    4.4048431    4.4048431    4.4048431    10530.623   -5037.1285    39234.869   -2605.8725    20294.765    16487.519    -8164.462    85.465594 
   70100    1563.9473   -103.86902    1.4150924   -102.45392    4124.8226     4.426849     4.426849     4.426849    4124.8226    71798.284   -26282.563   -33141.254   -41070.408   -713.83763    -29053.46    86.752928 
   70200    2305.2726   -104.50991    2.0858591   -102.42406   -19999.048    4.4371146    4.4371146    4.4371146   -19999.048   -22598.221    21832.851   -59231.775    7356.3937    25273.816    18633.545    87.357851 
   70300    1438.7321   -103.72651     1.301795   -102.42471    2248.0422    4.4099667    4.4099667    4.4099667    2248.0422    45772.428   -30570.408    -8457.893   -34800.225   -2258.7298   -25705.109    85.764176 
   70400    2347.3168   -104.54337    2.1239016   -102.41946    14453.185    4.3889089    4.3889089    4.3889089    14453.185    23845.176    31601.398   -12087.019   -12038.969     18455.11    16404.329    84.541453 
   70500    1520.3874   -103.84197    1.3756785   -102.46629    9553.5148    4.4064072    4.4064072    4.4064072    9553.5148    9839.6586    14794.385    4026.5015   -29021.849    4858.1564   -6604.3679    85.556673 
   70600    1980.9342   -104.23965    1.7923909   -102.44726    -7231.189    4.4430756    4.4430756    4.4430756    -7231.189   -2288.2772   -27932.357    8527.0678   -23420.558   -5172.6879    4735.8484    87.710402 
   70700    1560.1686   -103.82291    1.4116733   -102.41124   -35048.238    4.4511988    4.4511988    4.4511988   -35048.238   -44220.209   -2746.0708   -58178.433    -17658.25    -6244.368   -10017.958    88.192359 
   70800    1716.4521    -103.9639    1.5530819   -102.41082   -17708.159    4.4062433    4.4062433    4.4062433   -17708.159    6299.2961   -44314.281   -15109.494   -63170.564    -2350.376   -16941.147    85.547127 
   70900    2464.9167   -104.61866    2.2303084   -102.38835    41734.725    4.3788796    4.3788796    4.3788796    41734.725    84222.314    36424.711    4557.1512    1141.3748   -7793.1045   -67.031537    83.963207 
   71000    715.10085   -103.11904   0.64703827     -102.472   -24890.894    4.3988435    4.3988435    4.3988435   -24890.894    8307.8323   -70862.705   -12117.808   -68164.199    -3854.458   -31581.796    85.116848 
   71100    2674.2016   -104.86777    2.4196738   -102.44809    3354.2769    4.4286526    4.4286526    4.4286526    3354.2769    27545.321   -567.71868   -16914.771    24916.646   -3784.8973    9918.6509    86.859001 
   71200    686.21575   -103.06405   0.62090243   -102.44315   -52852.936    4.4464803    4.4464803    4.4464803   -52852.936   -22072.781   -117871.43   -18614.599    -73794.53   -2684.9292   -14596.401    87.912196 
   71300    2458.0078     -104.619    2.2240571   -102.39494    13114.887     4.407454     4.407454     4.407454    13114.887    74260.424    8966.9765   -43882.741    22796.894    10373.827    17557.204    85.617662 
   71400    1589.3757   -103.84355    1.4381005   -102.40545   -16134.541    4.3737209    4.3737209    4.3737209   -16134.541   -18567.602   -66026.318    36190.296   -74677.625    4837.7704   -20517.426    83.666809 
   71500    2060.8568   -104.30687    1.8647066   -102.44217    43051.949    4.3900366    4.3900366    4.3900366    43051.949    111593.31    24311.725   -6749.1942    6166.4009   -3595.7666    18916.782    84.606633 
   71600     1291.991   -103.65895    1.1690206   -102.48993   -57612.099    4.4387452    4.4387452    4.4387452   -57612.099   -60862.801     -62524.6   -49448.895   -50751.955    9943.9746   -20273.434    87.454194 
   71700    2278.1065   -104.48961    2.0612787   -102.42833   -58297.028    4.4442359    4.4442359    4.4442359   -58297.028   -47781.641   -79088.599   -48020.845   -5277.3825    6586.7546   -8847.1127    87.779136 
   71800    1632.3832   -103.88407    1.4770146   -102.40706    43599.902    4.3862909    4.3862909    4.3862909    43599.902    47935.746     62511.64     20352.32   -62514.961    8432.0395     7546.466    84.390254 
   71900    1860.0446   -104.09965    1.6830074   -102.41664    21499.983    4.3844299    4.3844299    4.3844299    21499.983    32763.692    2389.9446    29346.313    2985.4637    4328.3956   -19158.684    84.282886 
   72000    1826.8157   -104.08391    1.6529412   -102.43097    16643.119    4.4109718    4.4109718    4.4109718    16643.119   -44.556916    9413.7202    40560.194    -41167.52   -3772.5543    12050.929    85.822834 
   72100    1580.7287   -103.88252    1.4302765   -102.45225   -34821.549    4.4349025    4.4349025    4.4349025   -34821.549   -14667.575   -41253.499   -48543.574    -18912.81    10982.583   -19102.262     87.22726 
   72200    2356.4849   -104.54485    2.1321971   -102.41265   -11357.072    4.4302025    4.4302025    4.4302025   -11357.072   -26294.296   -413.33105   -7363.5882   -12851.248   -13281.479    5427.7111     86.95023 
   72300    1377.1488   -103.65422    1.2460731   -102.40815    8708.4025    4.4037677    4.4037677    4.4037677    8708.4025    15142.432   -25914.119    36896.894   -20607.017    16236.434   -3887.5271    85.403013 
   72400    2193.7418   -104.38572    1.9849437   -102.40078     34975.14    4.3928104    4.3928104    4.3928104     34975.14    38176.922    24273.928    42474.569   -13983.414   -14087.647     5973.349    84.767111 
   72500    1801.7921   -104.07114    1.6302994   -102.44084   -7585.2063    4.4086483    4.4086483    4.4086483   -7585.2063    11979.733   -29931.919   -4803.4327   -21816.692   -2869.2116    -9116.695    85.687282 
   72600    2165.1571   -104.37277    1.9590797   -102.41369   -9538.7684     4.434289     4.434289     4.434289   -9538.7684   -8120.5935   -34719.236    14223.524   -10334.973   -12857.985   -16466.702    87.191063 
   72700    1150.4641   -103.45127    1.0409641   -102.41031   -9608.4368    4.4276231    4.4276231    4.4276231   -9608.4368   -50929.398    -1162.051    23266.139   -50234.678   -8344.3775    14233.886    86.798445 
   72800    2424.8349   -104.57501    2.1940416   -102.38097   -1488.3391    4.4095586    4.4095586    4.4095586   -1488.3391   -5038.1994    -7955.658      8528.84    16567.837    1738.9247   -23755.844    85.740368 
   72900    1116.2962   -103.43365    1.0100482    -102.4236   -3146.3837    4.3982158    4.3982158    4.3982158   -3146.3837   -52515.074    17015.445    26060.478   -82942.763   -9151.1606    9171.8558    85.080413 
   73000    2358.7627   -104.55593     2.134258   -102.42167    15337.437    4.4098993    4.4098993    4.4098993    15337.437    26378.328    7642.0078    11991.976    12459.666    12117.778   -1942.5384    85.760248 
   73100    1238.9733   -103.56187    1.1210491   -102.44082   -46011.461    4.4271721    4.4271721    4.4271721   -46011.461   -78854.348    -55859.22   -3320.8159   -82214.575   -13952.211   -11258.634    86.771924 
   73200    2499.8287   -104.65488    2.2618976   -102.39298    6912.8343    4.4204849    4.4204849    4.4204849    6912.8343   -21510.375     33484.98    8763.8978    8495.8618    25926.955    14495.901    86.379311 
   73300    1176.6756   -103.47058    1.0646808    -102.4059   -15253.215    4.4212023    4.4212023    4.4212023   -15253.215   -35732.819   -75556.742    65529.916   -59835.835   -15287.662   -17037.133    86.421371 
   73400    1720.5723   -103.95356    1.5568099   -102.39675    23274.339    4.4127784    4.4127784    4.4127784    23274.339   -13930.479     72859.18    10894.316    7296.8509    703.06434    7571.8652    85.928327 
   73500    1885.6402   -104.12077    1.7061669   -102.41461    1812.7528    4.4140747    4.4140747    4.4140747    1812.7528   -48172.996   -17772.461    71383.716    -51263.88     15177.97   -8849.2422    86.004078 
   73600    1884.4583   -104.11975    1.7050975   -102.41465   -34573.763    4.4336572    4.4336572    4.4336572   -34573.763   -85722.994   -9142.1096   -8856.1863   -2189.2069   -17850.912    3596.2358    87.153804 
   73700    1767.6286   -104.00792    1.5993875   -102.40853    14882.239    4.4256306    4.4256306    4.4256306    14882.239   -33203.524   -13208.913    91059.154   -44597.354    26831.586    15167.855    86.681315 
   73800    1924.8145   -104.14536    1.7416126   -102.40375    1030.7301    4.4050188    4.4050188    4.4050188    1030.7301   -30303.505    13903.879    19491.816    2764.7624   -25080.383    5571.0969    85.475825 
   73900    1769.4751   -104.02565    1.6010583   -102.42459    27988.709    4.4027128    4.4027128    4.4027128    27988.709   -30152.141    7243.1671     106875.1   -37390.934    25133.799    6466.5608    85.341655 
   74000     1659.314   -103.93743    1.5013822   -102.43605    3322.0357    4.4172138    4.4172138    4.4172138    3322.0357    732.81019   -8226.0699    17459.367    4649.5911   -3671.9221    2221.4611    86.187694 
   74100    1847.7748   -104.10941    1.6719055   -102.43751   -21836.556    4.4267428    4.4267428    4.4267428   -21836.556    -53708.69   -33434.474    21633.495   -43361.303   -943.02868    2828.5212     86.74668 
   74200    1783.6293   -104.04275    1.6138653   -102.42888     25168.61    4.4150105    4.4150105    4.4150105     25168.61    7330.3454   -5554.5818    73730.066    20004.307     989.3557    8306.0004    86.058789 
   74300    1674.1591   -103.95991    1.5148144   -102.44509   -11221.553    4.4133158    4.4133158    4.4133158   -11221.553   -18787.682   -15032.873    155.89508   -45268.244   -9009.3906    1261.0109    85.959722 
   74400    1658.2643   -103.93078    1.5004324   -102.43035    31876.884     4.417041     4.417041     4.417041    31876.884    29524.236   -30602.972    96709.388    25220.288     8318.796   -15653.932    86.177582 
   74500    1650.2994   -103.92896    1.4932256   -102.43574   -13201.011    4.4255351    4.4255351    4.4255351   -13201.011   -26292.495   -1201.6055   -12108.932   -37143.299   -24250.302    7351.9119    86.675702 
   74600     2049.563   -104.27028    1.8544877   -102.41579   -16064.806    4.4357948    4.4357948    4.4357948   -16064.806    -11250.65   -56023.895    19080.128    11567.323    21153.723   -28839.994    87.279923 
   74700    1467.0352   -103.73875    1.3274043   -102.41135    5228.8803    4.4165729    4.4165729    4.4165729    5228.8803   -37972.311   -4360.6471    58019.599   -25121.532   -330.17882    -6521.721    86.150185 
   74800    1985.3181     -104.201    1.7963576   -102.40465    26889.036    4.4070081    4.4070081    4.4070081    26889.036    33248.716    15748.839    31669.552    12007.991    11720.463   -29209.287    85.591677 
   74900    1607.9576   -103.88519    1.4549139   -102.43028    503.83006    4.4269432    4.4269432    4.4269432    503.83006   -55480.672   -4327.9825    61320.145   -27885.046    4126.3786      21081.1    86.758464 
   75000    1843.6278   -104.07452    1.6681532   -102.40637   -4220.2817    4.4466015    4.4466015    4.4466015   -4220.2817   -11947.568    44285.907   -44999.185    8073.0548    3628.1736   -28807.843    87.919385 
   75100    1945.4823   -104.16815    1.7603133   -102.40784   -43242.958    4.4310383    4.4310383    4.4310383   -43242.958    -63622.85   -69374.478     3268.453   -38155.501     3758.999    14315.586     86.99945 
   75200    1975.2889   -104.17641    1.7872829   -102.38912     68455.93    4.3829894    4.3829894    4.3829894     68455.93    64327.039    115419.95    25620.802    6887.7732     2086.601   -43615.413    84.199839 
   75300    1470.0233   -103.77428     1.330108   -102.44417    1690.9971    4.3959014    4.3959014    4.3959014    1690.9971   -43969.819   -26553.426    75596.236   -53717.215    20719.746   -6285.0904    84.946172 
   75400    2182.9027   -104.41004    1.9751362    -102.4349   -14704.975    4.4246116    4.4246116    4.4246116   -14704.975   -34799.801    6327.1033   -15642.226   -11902.883   -6329.8864   -875.44569    86.621452 
   75500    1554.7589   -103.83928    1.4067785    -102.4325   -17596.228    4.4349353    4.4349353    4.4349353   -17596.228    648.68931   -52466.286   -971.08872   -28926.421    3014.1635   -22544.123    87.229192 
   75600    2075.8021   -104.27366    1.8782294   -102.39543   -23104.706    4.4390097    4.4390097    4.4390097   -23104.706   -23402.687   -46452.483    541.05332    2244.7262   -5350.5785    1727.1707    87.469828 
   75700    1576.1889    -103.8237    1.4261688   -102.39754    12740.699    4.4030401    4.4030401    4.4030401    12740.699    9218.1037    30567.503   -1563.5108    -36258.77    -26556.24    -22820.48    85.360692 
   75800    1870.6324   -104.09725    1.6925875   -102.40466    41187.634    4.3850574    4.3850574    4.3850574    41187.634    40555.875    56863.719    26143.308   -21142.041    22550.086   -2693.5837    84.319077 
   75900     1921.633   -104.17515    1.7387339   -102.43642    3875.2472    4.4125607    4.4125607    4.4125607    3875.2472   -21048.355   -12.688394    32686.785   -23687.985   -14680.828   -30324.012    85.915608 
   76000    1759.6848   -104.02207    1.5921998   -102.42987   -15326.737    4.4457468    4.4457468    4.4457468   -15326.737   -49151.579   -2060.6445    5232.0132   -4874.5753     11134.27   -6594.1068    87.868694 
   76100    1764.6989   -103.98031    1.5967366   -102.38358    -58565.79    4.4517179    4.4517179    4.4517179    -58565.79   -87145.754   -85199.176   -3352.4404   -44665.172    5634.4024   -15043.772    88.223221 
   76200    1573.1119   -103.80717    1.4233847   -102.38379    19636.483    4.4019023    4.4019023    4.4019023    19636.483   -8611.6582     12267.49    55253.617   -31122.491   -1993.4189   -9845.9522    85.294535 
   76300    1771.4342   -103.98018    1.6028309   -102.37735    18103.451    4.3726057    4.3726057    4.3726057    18103.451    10052.177   -13663.674     57921.85   -16926.644     6153.746   -20000.205    83.602822 
   76400    1799.1026   -104.06059    1.6278658   -102.43273    19395.279    4.3991596    4.3991596    4.3991596    19395.279    13324.989   -37124.182    81985.029   -35041.925   -29663.402   -2452.5403    85.135197 
   76500    1653.6118    -103.9393    1.4962227   -102.44308   -28232.503     4.436064     4.436064     4.436064   -28232.503   -59590.571   -24972.749   -134.19014    -2944.217   -13201.728   -5422.8498    87.295812 
   76600    1961.2648   -104.17718    1.7745936   -102.40259    6154.6882    4.4370966    4.4370966    4.4370966    6154.6882     13111.65   -17516.848    22869.263   -13900.531    2049.5614    2065.9508    87.356787 
   76700    1691.2506   -103.92416    1.5302791   -102.39388     16922.94    4.4075797    4.4075797    4.4075797     16922.94    -2570.101   -7584.4299    60923.351    7156.7865   -28575.637    6478.3124     85.62499 
   76800    2346.3717   -104.50669    2.1230464   -102.38364     11564.91    4.3915626    4.3915626    4.3915626     11564.91   -11397.817    5820.5477    40271.999   -11925.518   -2019.0755   -12922.758    84.694895 
   76900    1687.9842   -103.95091    1.5273236   -102.42358     8352.501    4.4038885    4.4038885    4.4038885     8352.501   -18890.464    28741.614    15206.354    2847.6904    -59091.58    8080.2407    85.410042 
   77000    1918.0127   -104.16345    1.7354582   -102.42799    -17026.49    4.4355598    4.4355598    4.4355598    -17026.49   -30950.339   -23538.794    3409.6625   -1166.2698    -9961.158   -2712.2831    87.266048 
   77100    1286.3075   -103.58597    1.1638781    -102.4221   -24536.145    4.4345589    4.4345589    4.4345589   -24536.145   -24795.868    4916.4868   -53729.053    3084.0382   -85056.027   -5314.9775    87.206985 
   77200    2296.6068   -104.46578    2.0780181   -102.38777     13279.32    4.4005666    4.4005666    4.4005666     13279.32   -2753.5703    23072.036    19519.495   -6284.4401   -14370.172    11314.109    85.216912 
   77300    981.11166   -103.31444   0.88773045   -102.42671      21389.1    4.4000341    4.4000341    4.4000341      21389.1    4946.4047    60572.583   -1351.6886    4772.8332   -60933.258   -11526.814     85.18598 
   77400     2077.356   -104.30466    1.8796354   -102.42502   -11568.267    4.4187891    4.4187891    4.4187891   -11568.267   -808.35177    20258.532   -54154.982   -4342.2954    7289.8564     5323.232    86.279938 
   77500    1737.8371   -103.99362    1.5724315   -102.42119   -25932.882    4.4249736    4.4249736    4.4249736   -25932.882   -68425.852    43555.698   -52928.492    5093.9743   -59281.237   -1795.8452    86.642717 
   77600    1813.3885   -104.04235     1.640792   -102.40155   -24021.852    4.4260066    4.4260066    4.4260066   -24021.852   -15760.827   -13710.897   -42593.831    3092.9196    22580.829   -8443.4181    86.703407 
   77700    1847.5114     -104.067    1.6716671   -102.39533    9443.8198    4.4141218    4.4141218    4.4141218    9443.8198   -4860.7872     47871.45   -14679.203   -5428.6526   -50001.036   -5761.3164    86.006829 
   77800    1925.1057   -104.14132    1.7418761   -102.39944    10719.224    4.4075706    4.4075706    4.4075706    10719.224   -25806.928     30545.01    27419.589    4415.2375    21736.901   -3767.8113     85.62446 
   77900    1546.3021   -103.82775    1.3991266   -102.42863    9071.4296      4.42029      4.42029      4.42029    9071.4296   -29960.706    4577.6538    52597.341   -6437.4249    -54400.67   -481.24196    86.367888 
   78000    1917.4189   -104.14975    1.7349209   -102.41482   -29353.433    4.4349675    4.4349675    4.4349675   -29353.433   -49550.586   -42867.786    4358.0725    2204.8671    12636.975   -3889.5462    87.231098 
   78100    1554.4077   -103.82534    1.4064608   -102.41888   -15894.453    4.4223874    4.4223874    4.4223874   -15894.453    -58805.03     19920.34   -8798.6705   -19677.909   -45008.558     1828.997    86.490888 
   78200    1894.9601   -104.13205    1.7145997   -102.41745    8822.1788    4.4036914    4.4036914    4.4036914    8822.1788    19199.038   -31633.584    38901.083    11787.272    12411.802   -15472.189    85.398576 
   78300     1387.598   -103.70005    1.2555278   -102.44452   -239.22307    4.4026463    4.4026463    4.4026463   -239.22307   -41672.237    11040.801    29913.767    -17588.29   -45457.055   -11141.638    85.337791 
   78400    2362.6725   -104.58039    2.1377957    -102.4426     8004.142    4.4102673    4.4102673    4.4102673     8004.142    11863.863     29628.15   -17479.587    3195.3843     12270.97    11637.198    85.781719 
   78500    805.12044   -103.20107   0.72848989   -102.47258   -4606.7475    4.4225005    4.4225005    4.4225005   -4606.7475   -18760.462    23092.046   -18151.827    2839.9063   -13204.284   -10678.459    86.497522 
   78600    2709.7625    -104.8728    2.4518501   -102.42095   -1219.7911    4.4207175    4.4207175    4.4207175   -1219.7911   -55072.747     32934.04    18479.334   -13288.447    4345.6631    19801.919    86.392949 
   78700    934.76372   -103.28882   0.84579386   -102.44302   -15779.668    4.4058075    4.4058075    4.4058075   -15779.668    4393.0745   -4286.2429   -47445.835    15394.303    4921.4962    3098.9945    85.521743 
   78800    2784.9712    -104.9405    2.5199005    -102.4206    21689.642    4.3981771    4.3981771    4.3981771    21689.642   -12093.881     43950.41    33212.396   -24011.712    152.67586    5810.8712    85.078172 
   78900    1057.2283   -103.41945   0.95660236   -102.46285   -20120.674    4.4130507    4.4130507    4.4130507   -20120.674    31142.882    4246.1014   -95751.005   -13587.522    11457.969   -6492.3916    85.944235 
   79000    2446.8167   -104.62464    2.2139312   -102.41071    3097.5179    4.4322852    4.4322852    4.4322852    3097.5179    -34990.15    45090.078   -807.37358    140.65926   -2524.5985    11578.847    87.072918 
   79100    1243.2028   -103.53414     1.124876   -102.40926   -33056.139    4.4283223    4.4283223    4.4283223   -33056.139   -18317.049   -17301.066   -63550.303   -7540.6904    17916.452    1954.4168     86.83957 
   79200    2323.4882   -104.49376    2.1023409   -102.39142    20568.663    4.4101853    4.4101853    4.4101853    20568.663    15555.038    19003.401    27147.551    6021.7821    -10080.66   -18367.309    85.776935 
   79300    1062.2817    -103.3697    0.9611748   -102.40853    32578.726    4.4002572    4.4002572    4.4002572    32578.726    15059.984    45442.716    37233.478   -10242.183    6836.0832      22740.2    85.198941 
   79400    2306.6814   -104.50771    2.0871338   -102.42058    1477.8706    4.4182908    4.4182908    4.4182908    1477.8706    4705.0574   -18263.846    17992.401    12347.086    6035.2475    -13328.04    86.250749 
   79500    1693.0791   -103.94941    1.5319336   -102.41748   -40376.169    4.4405263    4.4405263    4.4405263   -40376.169   -27027.329   -20837.461   -73263.718   -1436.9474    6577.0061    6862.9173    87.559514 
   79600    2082.2615   -104.26878     1.884074   -102.38471   -11468.323    4.4254941    4.4254941    4.4254941   -11468.323     16029.69   -21113.108   -29321.551    4070.8641    11991.737   -4094.0563    86.673295 
   79700    1474.3874   -103.72584    1.3340567   -102.39179   -9736.4996    4.4066339    4.4066339    4.4066339   -9736.4996   -25134.296    50530.352   -54605.555   -2997.9455    1556.8078    7394.7656    85.569878 
   79800     2606.255   -104.73933    2.3581943   -102.38114   -7506.7525    4.4106146    4.4106146    4.4106146   -7506.7525   -887.86539    -15594.18   -6038.2118   -9803.1828    19194.188    6151.4148    85.801986 
   79900    1425.5395   -103.69271    1.2898581   -102.40285   -30741.039    4.4227977    4.4227977    4.4227977   -30741.039   -35523.614    20383.112   -77082.615    15632.489   -10557.595    5214.4746    86.514961 
   80000    2180.8488   -104.36633    1.9732778   -102.39305    660.82354    4.4253055    4.4253055    4.4253055    660.82354    20507.956   -23312.103    4786.6176    5340.7092    21220.676    21910.869    86.662212 
   80100    1615.2508   -103.87438    1.4615129   -102.41287   -27049.297    4.4038445    4.4038445    4.4038445   -27049.297   -25465.915    8184.7695   -63866.746    10052.229   -23840.328   -15677.224    85.407482 
   80200     2333.334   -104.50853    2.1112497   -102.39728     13144.03    4.3882662    4.3882662    4.3882662     13144.03    28984.847    16051.706   -5604.4624   -3552.1719   -3504.5727    17030.038    84.504319 
   80300    1104.7003   -103.43099   0.99955603   -102.43144   -14767.519    4.3977452    4.3977452    4.3977452   -14767.519    13386.935   -34367.098   -23322.393   -29240.508   -11528.815   -22137.838    85.053107 
   80400    2949.8849   -105.07026    2.6691179   -102.40114   -14926.255     4.422504     4.422504     4.422504   -14926.255   -19751.038    -5858.982   -19168.746     9800.124    2355.5991    20307.797    86.497729 
   80500    622.33912   -102.97962   0.56310551   -102.41652   -37308.606    4.4245113    4.4245113    4.4245113   -37308.606    2272.1119   -90291.293   -23906.637   -39375.678   -10922.659   -39924.889    86.615559 
   80600     3001.362   -105.08055    2.7156954   -102.36486    31738.173    4.3985889    4.3985889    4.3985889    31738.173    42612.309    21784.567    30817.644    20828.546   -6677.7023    10834.078    85.102069 
   80700    1048.9616   -103.36473   0.94912246   -102.41561   -27257.743    4.3875079    4.3875079    4.3875079   -27257.743    -24170.88   -57848.148    245.79845   -24377.405    2619.8593   -25762.717    84.460517 
   80800    2543.0883   -104.70421    2.3010397   -102.40317    29838.468    4.3873539    4.3873539    4.3873539    29838.468    73055.602    3484.4397    12975.364    8875.7181   -2830.2589   -3434.2241    84.451625 
   80900    1109.2428   -103.44364    1.0036662   -102.43998   -30375.888     4.414752     4.414752     4.414752   -30375.888   -41402.658   -68615.583    18890.578   -10556.268   -679.88962    -3717.874    86.043675 
   81000    2434.3816   -104.59042    2.2026796   -102.38774    5709.7809    4.4180993    4.4180993    4.4180993    5709.7809    21379.971   -16372.183    12121.556    7240.2753    12718.301    5167.9517    86.239537 
   81100    1072.2891   -103.36629    0.9702297   -102.39606   -25939.301     4.406331     4.406331     4.406331   -25939.301    9329.7297   -87567.075    419.44153   -18317.237    10830.321    20515.855    85.552236 
   81200    2738.8234   -104.84741    2.4781449   -102.36927    23883.468    4.3943853    4.3943853    4.3943853    23883.468     54610.66    1637.1619    15402.581    7204.7199    13917.287   -1594.1529    84.858314 
   81300    834.43538    -103.1774   0.75501467   -102.42238    996.66339    4.3981833    4.3981833    4.3981833    996.66339    22636.377   -74215.446    54569.059   -23761.739    8945.2882    29496.046    85.078528 
   81400    2532.3455   -104.69676    2.2913194   -102.40544   -3714.4825    4.4110587    4.4110587    4.4110587   -3714.4825    32665.073   -21695.646   -22112.875   -7913.1796    6660.6664    328.84796    85.827907 
   81500    1408.1125   -103.70544    1.2740898   -102.43135   -17518.717    4.4099752    4.4099752    4.4099752   -17518.717    30565.319   -68839.043   -14282.427   -6554.3891   -11949.307    43895.268    85.764673 
   81600    1917.3316   -104.15035    1.7348419   -102.41551    29239.627    4.4015767    4.4015767    4.4015767    29239.627    45434.346   -12294.301    54578.837   -13666.066    22786.832   -2495.2248    85.275608 
   81700    1436.8436   -103.73079    1.3000862    -102.4307   -763.77882    4.3994566    4.3994566    4.3994566   -763.77882    57492.704   -45606.447   -14177.593    3286.0653    4816.3194    20338.349    85.152443 
   81800    2450.2703   -104.62032    2.2170561   -102.40326   -3300.4721    4.4051449    4.4051449    4.4051449   -3300.4721    4812.7356   -25732.324    11018.172   -20013.312   -2577.8806   -8421.6135    85.483163 
   81900    1432.6216   -103.71813    1.2962662   -102.42186   -31904.527    4.4191561    4.4191561    4.4191561   -31904.527    20228.771   -48599.102   -67343.251   -1769.2359   -6296.9765    26873.118     86.30144 
   82000    2156.0032   -104.35195     1.950797   -102.40115     18478.24    4.4149279    4.4149279    4.4149279     18478.24   -18635.542     11778.97    62291.293   -21475.884    12241.881   -10419.345     86.05396 
   82100    1040.3057   -103.36322   0.94129048   -102.42193   -3311.2537    4.3948849    4.3948849    4.3948849   -3311.2537    54468.608    -37381.77   -27020.599    8898.0281    5075.5438    38594.341     84.88726 
   82200    2641.1975   -104.80735     2.389811   -102.41754    10436.319    4.3908017    4.3908017    4.3908017    10436.319    2945.6169    19501.845    8861.4958    -9739.737    -11307.45   -5141.6807     84.65088 
   82300    1285.4503   -103.60579    1.1631024   -102.44269    2669.3909    4.3997405    4.3997405    4.3997405    2669.3909    22616.924   -12559.016    -2049.736    5021.2954    1154.4052    40809.121    85.168929 
   82400    2028.8403   -104.27124    1.8357373   -102.43551   -334.54452    4.4183963    4.4183963    4.4183963   -334.54452    45457.125    3446.2844   -49907.043    7191.7303    2563.3831    -17312.67    86.256928 
   82500    1807.5032   -104.06665    1.6354669   -102.43119    -9727.082    4.4139515    4.4139515    4.4139515    -9727.082    11713.335   -10366.389   -30528.193   -5663.0416    -18718.09    44301.821    85.996878 
   82600    1731.2202   -103.98622    1.5664444   -102.41977    17984.385    4.3933081    4.3933081    4.3933081    17984.385    54110.705    23034.138   -23191.689    8878.0343    8367.3184   -7271.0527    84.795926 
   82700    1644.8531   -103.92143    1.4882977   -102.43313    15100.945    4.3918381    4.3918381    4.3918381    15100.945    73078.197    3258.9702   -31034.332   -19612.132   -8105.6249    30072.563    84.710838 
   82800    2036.3718   -104.29001     1.842552   -102.44746   -16691.606    4.3986758    4.3986758    4.3986758   -16691.606    8792.7652    -19721.16   -39146.423   -709.51419   -8076.2655    24370.127    85.107113 
   82900    1833.7857   -104.09893    1.6592478   -102.43968   -7388.3672    4.4099115    4.4099115    4.4099115   -7388.3672    39286.912   -27877.742   -33574.272   -11784.783    8150.2606    9185.5708    85.760959 
   83000    1339.4538   -103.66003    1.2119659   -102.44807   -7310.6875    4.4019336    4.4019336    4.4019336   -7310.6875    27680.307   -63606.667    13994.297   -9337.6243   -7596.9112     45918.86    85.296353 
   83100    2428.9074   -104.62037    2.1977264   -102.42264    4506.5538    4.3937123    4.3937123    4.3937123    4506.5538   -5413.8218    15219.465     3714.018   -8567.7697    15250.077   -1336.8195    84.819331 
   83200    1215.8401    -103.5365    1.1001177   -102.43638   -5037.5207     4.401645     4.401645     4.401645   -5037.5207    45901.395   -63546.053    2532.0962   -10442.681   -6244.7875     44366.72    85.279579 
   83300    2285.2789   -104.48207    2.0677684    -102.4143    39017.284    4.3968825    4.3968825    4.3968825    39017.284    32899.025    29724.361    54428.466    5644.1326    37691.454   -27215.617    85.003065 
   83400    1414.7958   -103.71137     1.280137   -102.43123    8869.2721    4.3999611    4.3999611    4.3999611    8869.2721    30172.726   -44564.012    40999.102   -19321.729   -2217.0504    40777.125    85.181739 
   83500    2076.1648   -104.28843    1.8785575   -102.40987    15747.689    4.4023405    4.4023405    4.4023405    15747.689   -28752.044    28313.698    47681.413    12776.725    16148.049   -34218.138    85.320007 
   83600    1745.5264    -104.0086    1.5793889   -102.42921   -13886.371    4.4008091    4.4008091    4.4008091   -13886.371   -2870.2934   -28339.567   -10449.253   -11614.544    19467.697      25503.1       85.231 
   83700    1986.8733   -104.22537    1.7977647    -102.4276    13642.646     4.398122     4.398122     4.398122    13642.646    20781.893   -9521.6421    29667.687    11916.968   -8029.8854   -16283.945    85.074973 
   83800    1505.6614   -103.81737    1.3623541   -102.45502   -3027.7758    4.3986013    4.3986013    4.3986013   -3027.7758   -45405.931    25385.315    10937.289   -1184.9231    35564.683    1912.2766    85.102789 
   83900    2523.6061   -104.70416    2.2834118   -102.42074    3986.1869      4.41322      4.41322      4.41322    3986.1869   -26453.462   -15065.522    53477.545    22904.853   -13863.527   -1585.2526    85.954127 
   84000    589.19824   -102.97633   0.53311895   -102.44321   -22857.863    4.4145562    4.4145562    4.4145562   -22857.863   -25721.696   -31469.397   -11382.495    4857.2079    37777.141   -26947.237    86.032221 
   84100    2614.9723   -104.77535    2.3660819   -102.40927    22423.357    4.3933922    4.3933922    4.3933922    22423.357     5682.359    46547.687    15040.025   -1866.5611   -14807.485    19883.587    84.800794 
   84200    1340.2289   -103.64975    1.2126672   -102.43709   -12514.841    4.3951072    4.3951072    4.3951072   -12514.841   -27071.476    4991.1682   -15464.215     28342.22     20370.14   -23986.394    84.900142 
   84300     2123.338   -104.33602    1.9212409   -102.41478    2531.2708     4.411776     4.411776     4.411776    2531.2708   -23057.598    28628.444    2022.9664   -30423.448   -372.92121   -2771.0543    85.869779 
   84400    1430.3534   -103.72728    1.2942138   -102.43306   -12332.625     4.408773     4.408773     4.408773   -12332.625   -4016.2509    3347.7005   -36329.325     26850.18   -6995.1285   -2047.9462    85.694551 
   84500    2266.4117   -104.46718     2.050697   -102.41649   -7381.4157    4.4047197    4.4047197    4.4047197   -7381.4157   -27606.272   -22880.613    28342.638    -47167.53    9445.5368     6865.154    85.458414 
   84600    1327.9915    -103.6311    1.2015946   -102.42951    5605.5267    4.3948418    4.3948418    4.3948418    5605.5267   -6139.1809    41938.863   -18983.102   -2313.7579   -20730.671    8139.6617    84.884762 
   84700    2454.9374   -104.64556     2.221279   -102.42428   -14989.861    4.4026502    4.4026502    4.4026502   -14989.861   -25892.636   -18129.566   -947.38077   -21791.031     4739.534   -3172.9483    85.338014 
   84800    1362.6798   -103.67424    1.2329813   -102.44126    7167.7432    4.4041763    4.4041763    4.4041763    7167.7432   -16442.127    36678.332    1267.0239   -47361.621   -18689.926    7488.0433     85.42679 
   84900    2282.7401   -104.49268    2.0654712   -102.42721   -4486.1249     4.410075     4.410075     4.410075   -4486.1249    605.40212    77.395842   -14141.173    4438.1751   -8162.2311   -5018.6689    85.770499 
   85000    1230.6187    -103.5578    1.1134897   -102.44431   -11157.595    4.4069353    4.4069353    4.4069353   -11157.595   -10588.479    7082.4195   -29966.724   -54699.993   -2203.5649    8897.0577     85.58744 
   85100    2467.4715   -104.65626    2.2326201   -102.42364    6080.6735    4.3925031    4.3925031    4.3925031    6080.6735   -3091.0876    45344.999   -24011.891    18217.044   -33339.396   -11378.851    84.749324 
   85200    931.35404   -103.29485   0.84270871   -102.45214   -17737.252    4.3872417    4.3872417    4.3872417   -17737.252   -37011.999   -46217.679    30017.921   -100272.77    21848.385    7933.1941    84.445147 
   85300    2787.7861   -104.95849    2.5224475   -102.43604    15719.647    4.3893432    4.3893432    4.3893432    15719.647    8126.8456    71184.453   -32152.357    31235.373   -31695.753   -729.74774     84.56655 
   85400    1061.8247   -103.41596   0.96076126    -102.4552   -46051.298      4.40916      4.40916      4.40916   -46051.298   -84731.145   -71623.289    18200.539   -102842.58    20686.227    4712.9694    85.717124 
   85500    2270.0165   -104.47711    2.0539586   -102.42315    28027.489    4.3959711    4.3959711    4.3959711    28027.489    6637.4817    93378.923   -15933.937    31145.492    5491.6675    6391.4391    84.950217 
   85600    1354.4688   -103.67458    1.2255518   -102.44903   -29721.753     4.394145     4.394145     4.394145   -29721.753   -69261.505   -48613.578    28709.824   -104277.85    5314.3288    122.10958    84.844394 
   85700    2372.5524   -104.57714    2.1467353   -102.43041    7445.8191    4.3913855    4.3913855    4.3913855    7445.8191   -10843.336    68382.463    -35201.67    23867.097    42869.285    6613.2131    84.684648 
   85800    1073.1532   -103.43044   0.97101161   -102.45943   -11378.563    4.3967053    4.3967053    4.3967053   -11378.563   -42255.161    -33279.88    41399.352   -97106.238    -10835.07    569.87847    84.992786 
   85900    2460.5123    -104.6569    2.2263233   -102.43058   -14245.932    4.4024083    4.4024083    4.4024083   -14245.932    -43253.95    55457.814   -54941.659     26136.38     60201.95    460.08452    85.323949 
   86000    1413.5689   -103.71329    1.2790269   -102.43426     2320.825    4.3904669    4.3904669    4.3904669     2320.825   -26723.531   -15293.562    48979.567   -86389.543   -15294.767   -3004.1255    84.631519 
   86100    2085.7255   -104.30726    1.8872083   -102.42005    15463.872    4.3845707    4.3845707    4.3845707    15463.872   -3106.1625     59928.87   -10431.092     20145.97    55217.587    12019.203    84.291004 
   86200    1742.4688   -104.01096    1.5766224   -102.43434   -3870.9054     4.394987     4.394987     4.394987   -3870.9054   -50069.477   -5745.6291     44202.39   -64337.733   -11044.987    -13019.54    84.893179 
   86300    1880.5414   -104.13179    1.7015534   -102.43024   -9847.2563    4.4020621    4.4020621    4.4020621   -9847.2563   -36803.284    45224.239   -37962.724    13784.292    53704.884    6714.0121    85.303826 
   86400    1801.0262   -104.05697    1.6296064   -102.42736   -18978.473    4.4031805    4.4031805    4.4031805   -18978.473   -60171.379   -35701.789    38937.748   -57775.662   -3623.0188    1052.6075    85.368856 
   86500    1472.1096   -103.75485    1.3319957   -102.42285   -2787.1407    4.4026163    4.4026163    4.4026163   -2787.1407   -57875.122    84622.933   -35109.232   -3570.2189    50046.339   -2849.5066    85.336042 
   86600    2089.3045   -104.31002    1.8904466   -102.41957    -10458.09    4.3914908    4.3914908    4.3914908    -10458.09    -33843.49   -3041.4877    5510.7068   -18762.426    2493.1241   -1668.1182    84.690743 
   86700     1348.857   -103.65197    1.2204741    -102.4315    21773.908    4.3828208    4.3828208    4.3828208    21773.908   -34580.775    77156.367    22746.133   -27781.752    30899.862    7931.9742    84.190123 
   86800    2060.0661   -104.30151    1.8639911   -102.43752   -15716.174    4.4039846    4.4039846    4.4039846   -15716.174   -50184.219   -10550.259    13585.955   -1336.1828    6808.1822    2288.0123    85.415633 
   86900    1791.9553   -104.06121    1.6213988   -102.43981   -31203.842    4.4026335    4.4026335    4.4026335   -31203.842   -66999.197   -22974.535   -3637.7929   -49914.395    21299.574     12541.48    85.337047 
   87000    1698.7021   -103.96497    1.5370213   -102.42794    39258.777    4.3851968    4.3851968    4.3851968    39258.777   -6470.2427    52315.426    71931.147    14264.748    20351.477    7707.2401    84.327119 
   87100    1892.0191   -104.15634    1.7119386    -102.4444   -29184.559    4.3919944    4.3919944    4.3919944   -29184.559    -54638.65   -30950.826   -1964.2004   -35520.321    13389.971    13000.184    84.719881 
   87200    1853.5828    -104.1262    1.6771607   -102.44904    31937.682     4.393802     4.393802     4.393802    31937.682    10480.205    46902.706    38430.134    9802.2941     52742.19    12353.065    84.824524 
   87300    2044.0092   -104.29706    1.8494625   -102.44759    -32341.64    4.4149805    4.4149805    4.4149805    -32341.64   -27734.143   -36751.956   -32538.821   -34093.775    20095.844    9498.1624    86.057034 
   87400    1179.3429   -103.52964    1.0670942   -102.46255   -396.53753    4.3958715    4.3958715    4.3958715   -396.53753   -40959.303    18534.399    21235.292   -11109.727    66681.861   -432.97784    84.944439 
   87500    2393.2839   -104.59323    2.1654935   -102.42773    2988.0197    4.3889946    4.3889946    4.3889946    2988.0197     18097.72    9254.6839   -18388.345    441.64895    7568.5705    14654.411    84.546406 
   87600    1114.4461   -103.46997    1.0083743   -102.46159   -28788.707    4.3987565    4.3987565    4.3987565   -28788.707   -84327.388   -1211.1495   -827.58477    -35334.91    91629.529    1604.4755    85.111796 
   87700    2336.7288   -104.54811    2.1143213   -102.43379    21059.777     4.397065     4.397065     4.397065    21059.777    68.372973   -303.82365    63414.782     6011.043   -15634.779    10297.262    85.013649 
   87800     1012.589   -103.38329    0.9162118   -102.46708   -43917.815    4.4020901    4.4020901    4.4020901   -43917.815   -124618.16    18184.401   -25319.682   -28525.784    78654.936   -3454.3006    85.305449 
   87900     2600.696   -104.79291    2.3531644   -102.43975    7789.6526    4.3958447    4.3958447    4.3958447    7789.6526    4639.5922   -37087.928    55817.294   -21526.314    -23506.36    3799.1055    84.942891 
   88000    1285.1966   -103.62146    1.1628729   -102.45859   -172.95631    4.3852388    4.3852388    4.3852388   -172.95631   -49566.991    71880.055   -22831.933   -1097.9631    69084.793   -4440.6102    84.329541 
   88100    2068.1066   -104.32747    1.8712663   -102.45621    16948.732     4.387852     4.387852     4.387852    16948.732   -39053.506    988.87226    88910.829   -34981.048   -29878.883   -6415.0701    84.480389 
   88200    1702.7687   -104.00531    1.5407009   -102.46461   -25376.064    4.4098267    4.4098267    4.4098267   -25376.064   -53504.447    25930.344   -48554.089    14750.969    53054.588    4105.9326    85.756009 
   88300    1810.7601   -104.07026    1.6384138   -102.43184    10018.292    4.4064809    4.4064809    4.4064809    10018.292   -51380.059     40501.15    40933.786   -36882.878   -15993.998   -10531.747    85.560965 
   88400     1331.017    -103.6248    1.2043321   -102.42047    14651.089    4.3970097    4.3970097    4.3970097    14651.089   -2044.8043    41621.496    4376.5764    23309.196    53006.534   -2503.9215     85.01044 
   88500    2295.4016   -104.49538    2.0769276   -102.41845   -7288.5764    4.3952664    4.3952664    4.3952664   -7288.5764   -13360.497    3781.7695   -12287.002   -37895.604   -8529.6289    19608.793    84.909367 
   88600    1609.1191   -103.89103    1.4559647   -102.43506    38042.074    4.3839983    4.3839983    4.3839983    38042.074   -152.58876    65539.431    48739.379    30415.908    20923.448   -20203.556    84.257998 
   88700    1581.9572    -103.8858    1.4313881   -102.45441    12009.668    4.3989735    4.3989735    4.3989735    12009.668    27820.991    2003.3242    6204.6888   -5784.3269    18253.649    24343.808    85.124395 
   88800    2364.4284   -104.57133    2.1393845   -102.43195   -19244.817    4.4059293    4.4059293    4.4059293   -19244.817   -30185.164   -22532.848   -5016.4401    10219.487   -10929.756   -7042.5289    85.528837 
   88900    894.13892   -103.26635   0.80903569   -102.45731    14270.811     4.392376     4.392376     4.392376    14270.811    1156.7747    12337.844    29317.815    20579.646    44975.152     9230.846    84.741965 
   89000    2776.5785   -104.94374    2.5123065   -102.43143    6392.9115     4.391234     4.391234     4.391234    6392.9115   -3189.9448   -1827.7468    24196.426   -3540.1144   -15518.442   -4385.5588    84.675886 
   89100    847.88824   -103.23373    0.7671871   -102.46654   -18306.833    4.3928563    4.3928563    4.3928563   -18306.833    -44065.36   -1303.8093   -9551.3296    33273.076    36388.381   -10133.814     84.76977 
   89200    2576.7356   -104.76216    2.3314846   -102.43068    19026.356    4.4006955    4.4006955    4.4006955    19026.356    15517.486     203.9395    41357.642   -37477.436   -13055.282    7809.5576    85.224402 
   89300    1206.5707   -103.54033    1.0917305    -102.4486   -25764.207    4.4027928    4.4027928    4.4027928   -25764.207   -40191.983     10142.91   -47243.549    31798.228    41265.229   -24278.099    85.346311 
   89400    2131.3034   -104.35109    1.9284481   -102.42264    -2295.157    4.3919825    4.3919825    4.3919825    -2295.157   -5073.1211   -23786.207    21973.857   -47569.822    -296.2095    16835.305    84.719194 
   89500    1488.3018   -103.78811    1.3466467   -102.44147   -18801.911    4.3915702    4.3915702    4.3915702   -18801.911   -41274.609    18672.522   -33803.647    6806.9473    36522.348   -33937.847    84.695338 
   89600    1942.9051   -104.19104    1.7579813   -102.43306   -18167.603    4.3929259    4.3929259    4.3929259   -18167.603   -33870.551   -20414.409   -217.84882   -15069.898    18053.902   -382.48563    84.773797 
   89700    1536.2305   -103.82013    1.3900136   -102.43011   -35089.565     4.397217     4.397217     4.397217   -35089.565   -28849.951   -64031.304   -12387.441   -40335.191    11813.395   -4902.4716    85.022465 
   89800     1792.146   -104.05087    1.6215713    -102.4293   -25793.779    4.3972955    4.3972955    4.3972955   -25793.779   -41211.701   -702.75719    -35466.88    26609.654    42344.847   -11443.571    85.027022 
   89900    2243.9043   -104.44829    2.0303318   -102.41796    647.75319    4.3922966    4.3922966    4.3922966    647.75319   -26053.361   -18317.377    46313.997     -44042.3   -6937.7665    -6173.887    84.737372 
   90000    1045.1673   -103.38887   0.94568938   -102.44318   -7063.9655    4.3907719    4.3907719    4.3907719   -7063.9655    45.550886    8.6876016   -21246.135    25147.525    48815.446   -26107.221    84.649155 
   90100    2658.3881   -104.82584    2.4053655   -102.42048    27100.699    4.3947415    4.3947415    4.3947415    27100.699    13132.275    9973.2437     58196.58   -18723.918   -20254.564     9926.385     84.87895 
   90200    1097.0403   -103.44313   0.99262511    -102.4505    -26166.25    4.4028469    4.4028469    4.4028469    -26166.25   -45227.617   -1132.5446   -32138.588    13152.529    60860.015   -27731.746    85.349452 
   90300    2436.0999    -104.6377    2.2042344   -102.43346    7595.8769    4.3929098    4.3929098    4.3929098    7595.8769    24653.007   -24107.821    22242.445    6339.5214   -16332.858    4993.8919    84.772866 
   90400     1335.739   -103.66495    1.2086047   -102.45634    5933.8241    4.3903052    4.3903052    4.3903052    5933.8241    -29727.35    37284.337    10244.485    552.15927    57614.133   -16781.697    84.622167 
   90500    2049.4289   -104.29262    1.8543664   -102.43825   -1351.5712    4.4052835    4.4052835    4.4052835   -1351.5712   -2773.4984   -4990.4885    3709.2734    16155.519   -13877.332   -8862.3642    85.491236 
   90600    1801.1306   -104.06336    1.6297009   -102.43366   -20233.461    4.4053088    4.4053088    4.4053088   -20233.461   -35618.043    14191.123   -39273.463   -3247.0286    59863.544   -3888.5478    85.492706 
   90700    1745.3535   -104.00777    1.5792325   -102.42854   -3356.9707    4.3923222    4.3923222    4.3923222   -3356.9707     924.8856   -127.79302   -10868.005    17189.541   -9301.8142   -25172.881    84.738853 
   90800    1731.1466   -103.99407    1.5663778    -102.4277   -2393.0043     4.389324     4.389324     4.389324   -2393.0043   -40054.168    63883.624   -31008.468   -2299.3692    65737.417    6372.0288    84.565444 
   90900    1806.6339   -104.07017    1.6346803   -102.43549    4026.4836    4.3957557    4.3957557    4.3957557    4026.4836    43304.703   -5566.5518     -25658.7    2105.8829    -8073.912   -23452.664    84.937729 
   91000    1818.1712   -104.07881    1.6451195    -102.4337   -5900.6852     4.407819     4.407819     4.407819   -5900.6852   -508.40946    29733.479   -46927.125    773.59357    51985.212    747.16777    85.638937 
   91100    1632.0974   -103.91431     1.476756   -102.43755   -10873.062     4.408524     4.408524     4.408524   -10873.062   -29841.374   -2139.2871   -638.52624   -16703.217    4351.6579   -8105.6925    85.680032 
   91200    1990.9254   -104.22489    1.8014311   -102.42346    5456.9048    4.3950337    4.3950337    4.3950337    5456.9048    17040.201   -4546.8031    3877.3163    2760.8207    27799.766   -13566.505    84.895885 
   91300    1698.7199   -103.96878    1.5370374   -102.43174    10036.986     4.389737     4.389737     4.389737    10036.986   -19502.222    11830.285    37782.894   -6855.3234     16493.77    5711.9434    84.589311 
   91400    2043.8449   -104.29287    1.8493138   -102.44355   -14901.572    4.3963418    4.3963418    4.3963418   -14901.572   -21967.759   -14474.033   -8262.9243   -4025.6312    5205.8389   -14497.075     84.97171 
   91500    1716.9374   -104.00342     1.553521    -102.4499    16092.805    4.3976734    4.3976734    4.3976734    16092.805   -30148.371    25563.321    52863.464    -5325.889    44888.653    3503.8095    85.048943 
   91600    1797.1024   -104.07379     1.626056   -102.44773   -29951.824    4.4010871    4.4010871    4.4010871   -29951.824   -48192.808   -34568.937   -7093.7267   -13647.204   -19529.577   -15361.903    85.247153 
   91700    1719.2241   -103.99743    1.5555901   -102.44184    4929.5971    4.3976528    4.3976528    4.3976528    4929.5971   -25926.795     26763.69    13951.896    2577.2798    64972.151   -6460.9314    85.047749 
   91800    1950.4342   -104.19367    1.7647939   -102.42888    708.52478    4.3912901    4.3912901    4.3912901    708.52478    -19309.55    4077.0057    17358.118   -17747.515   -31081.342    8264.2027    84.679131 
   91900    1584.9281   -103.87151    1.4340763   -102.43743     -17640.2    4.4059306    4.4059306    4.4059306     -17640.2   -46740.669    9859.7631   -16039.694    5898.6134    57318.245   -11475.447    85.528914 
   92000     1974.675   -104.21428    1.7867275   -102.42755   -5155.2694    4.4015026    4.4015026    4.4015026   -5155.2694    -10743.99   -23925.659     19203.84   -27455.379   -19157.873    24965.183    85.271302 
   92100    1626.4519   -103.90621    1.4716479   -102.43456    14742.039    4.3948164    4.3948164    4.3948164    14742.039   -17944.179    40432.304    21737.991   -8237.0374    13360.472   -5613.8381    84.883289 
   92200    1773.1132   -104.04124    1.6043501   -102.43689   -15558.861    4.3959847    4.3959847    4.3959847   -15558.861    -1550.244   -49119.303    3992.9642   -5015.5274    4981.4026    22268.742    84.951006 
   92300    1518.6787   -103.82458    1.3741324   -102.45045    19997.037    4.3966335    4.3966335    4.3966335    19997.037    43956.505    -2418.572    18453.179   -19461.369    -26102.85    13926.655    84.988622 
   92400    2152.0187   -104.38434    1.9471918   -102.43714    -24610.58    4.4051639    4.4051639    4.4051639    -24610.58    25785.597    -58794.57   -40822.769    4911.3089    26620.814   -32385.018    85.484273 
   92500    1246.6771   -103.56891    1.1280196   -102.44089    2530.1182    4.3985761    4.3985761    4.3985761    2530.1182    46730.028   -21630.469   -17509.205   -16076.396   -33892.518    24338.088    85.101325 
   92600    2172.5183   -104.40145    1.9657402   -102.43571   -12047.803    4.3972423    4.3972423    4.3972423   -12047.803    54951.804    -35758.45   -55336.764    513.02748    15776.096   -59811.387    85.023931 
   92700    2064.0261   -104.31356    1.8675741   -102.44598   -19842.763     4.398167     4.398167     4.398167   -19842.763    4493.3668   -44081.069   -19940.588   -22578.677   -1038.6492    30254.609    85.077582 
   92800    1370.5318   -103.70443    1.2400859   -102.46434   -868.81454     4.405316     4.405316     4.405316   -868.81454    77242.811   -36676.145    -43173.11    7349.3296   -14292.497    -72041.97    85.493128 
   92900    2191.6254   -104.42981    1.9830287   -102.44678    3039.3477    4.4157004    4.4157004    4.4157004    3039.3477    40362.615   -20005.694   -11238.878   -17234.184    15826.208    37608.466    86.099134 
   93000    1230.1506   -103.57062    1.1130661   -102.45756   -39351.569     4.404281     4.404281     4.404281   -39351.569    30141.505   -107988.02   -40208.187   -4149.3174   -13209.721   -84933.475    85.432881 
   93100    2443.5881   -104.63919    2.2110099   -102.42818    54704.693    4.3877432    4.3877432    4.3877432    54704.693    91786.365    25991.221    46336.493    1194.3098     10319.63    21618.123    84.474106 
   93200     1274.136   -103.61432     1.152865   -102.46145   -31128.025    4.3942285    4.3942285    4.3942285   -31128.025    53868.954    -91220.59   -56032.438   -3908.9939    16545.462   -92233.942    84.849232 
   93300    2029.6847   -104.28162    1.8365013   -102.44512    27906.104    4.4014926    4.4014926    4.4014926    27906.104    52369.308    1453.2357    29895.767   -3748.6096   -20181.274     28912.98    85.270721 
   93400    1476.7805   -103.78947     1.336222   -102.45324    -43561.42    4.4135188    4.4135188    4.4135188    -43561.42    26496.201   -81793.945   -75386.517    10307.295    26264.384   -103811.17    85.971585 
   93500    2374.1674   -104.56941    2.1481965   -102.42121    8791.0973     4.393948     4.393948     4.393948    8791.0973    21463.913   -1193.5382     6102.917   -25232.525   -13909.902    25172.472    84.832982 
   93600    1347.2307   -103.65953    1.2190027   -102.44052   -14088.211    4.3865973    4.3865973    4.3865973   -14088.211    51430.583   -40019.269   -53675.947    12406.884   -4517.4127   -90902.036     84.40794 
   93700    2395.0848   -104.59633    2.1671231   -102.42921   -1024.8088    4.4021448    4.4021448    4.4021448   -1024.8088    4443.5539    12288.646   -19806.626    -24300.52    18447.593    13395.972     85.30863 
   93800    1433.4713   -103.73652    1.2970349   -102.43949   -18247.395    4.4066184    4.4066184    4.4066184   -18247.395    15981.408   -28888.737   -41834.856    8186.1588   -11872.296   -71387.267    85.568976 
   93900    2118.0322   -104.34385    1.9164401   -102.42741    355.92704    4.4084039    4.4084039    4.4084039    355.92704    7963.4397    33877.528   -40773.186   -5448.9421    32965.327    10632.723    85.673034 
   94000    1349.2078   -103.65449    1.2207916    -102.4337   -16754.225    4.3975644    4.3975644    4.3975644   -16754.225    30911.106   -32653.694   -48520.089   -2109.9518    3460.0173   -79954.522    85.042621 
   94100    2107.1689   -104.32525    1.9066107   -102.41864    18462.637    4.3913367    4.3913367    4.3913367    18462.637    22915.615    20658.288    11814.008    14509.197    12317.042    15864.682    84.681828 
   94200     1238.847   -103.58057    1.1209348   -102.45964   -15262.275    4.3938467    4.3938467    4.3938467   -15262.275    44093.137   -15461.351   -74418.611   -5674.0484    15432.495   -83810.466    84.827118 
   94300    2512.7396   -104.71781    2.2735796   -102.44423    11320.785    4.4074203    4.4074203    4.4074203    11320.785    33678.111   -15871.455    16155.699    26420.608    4936.1059    29782.365    85.615698 
   94400    823.27754   -103.21384   0.74491882   -102.46892    -29463.93     4.408174     4.408174     4.408174    -29463.93     12414.97   -21098.003   -79708.757    3091.3837    20596.017   -76396.139    85.659631 
   94500    2532.4286   -104.72453    2.2913946   -102.43313    17014.883    4.4017619    4.4017619    4.4017619    17014.883    15179.268    939.95806    34925.423      6700.23    4937.3306    27567.278    85.286375 
   94600    1418.0194   -103.72697    1.2830537   -102.44391   -19003.748    4.4144859    4.4144859    4.4144859   -19003.748      83833.7   -64529.745   -76315.198    5115.2247    16006.992   -73747.775    86.028116 
   94700    2102.8131   -104.31483    1.9026695   -102.41216   -794.88889    4.4122298    4.4122298    4.4122298   -794.88889   -15892.528   -617.60582    14125.468    1021.7183    35250.337    25885.655    85.896282 
   94800    1464.5366   -103.74329    1.3251435   -102.41815   -22247.215    4.4153365    4.4153365    4.4153365   -22247.215     48949.26   -65416.264    -50274.64   -5392.8763   -998.35368   -74402.838    86.077853 
   94900    1944.4954     -104.166    1.7594203   -102.40658    7118.4263    4.4038872    4.4038872    4.4038872    7118.4263   -2742.0654    35821.548   -11724.204   -5912.0357    57562.175    11948.333     85.40997 
   95000    1796.3991   -104.03747    1.6254196   -102.41205    7007.9342    4.3932893    4.3932893    4.3932893    7007.9342    29258.832   -15579.087    7344.0572    6502.0071   -12460.308   -50938.749    84.794834 
   95100    1258.0691   -103.58549    1.1383274   -102.44716    5006.9921     4.404688     4.404688     4.404688    5006.9921   -31999.328    35493.666    11526.638    1501.4595    50864.018   -11016.955    85.456568 
   95200    2116.4029   -104.35187    1.9149659   -102.43691    16307.972    4.4134442    4.4134442    4.4134442    16307.972    51749.763   -909.54467   -1916.3018   -1883.4392   -9773.7902   -23965.861    85.967228 
   95300    1584.9435   -103.86342    1.4340902   -102.42933   -10640.849    4.4156599    4.4156599    4.4156599   -10640.849   -10623.745   -13463.098   -7835.7038    13994.413    42947.155    -14245.62    86.096767 
   95400    2003.9584   -104.22449    1.8132237   -102.41126    6572.6915    4.4039487    4.4039487    4.4039487    6572.6915   -71.231206     4836.282    14953.024   -5409.4842    9650.8476   -4056.7866    85.413547 
   95500    1828.6844   -104.07294    1.6546321   -102.41831    19293.802    4.3893989    4.3893989    4.3893989    19293.802    22413.506    55735.836   -20267.935   -1728.6582    22812.959   -14635.876    84.569768 
   95600    1879.1149   -104.13763    1.7002627   -102.43736   -1349.4892    4.4045132    4.4045132    4.4045132   -1349.4892   -37512.176    16059.662    17404.047   -3126.0969    20620.561    3381.8533    85.446394 
   95700    1720.2716   -103.98627    1.5565379   -102.42973   -23479.669    4.4179896    4.4179896    4.4179896   -23479.669   -9468.5023   -25005.325   -35965.178   -9700.6511    1685.7826   -27026.437    86.233116 
   95800    2037.1345    -104.2666    1.8432421   -102.42336   -12673.281    4.4258046    4.4258046    4.4258046   -12673.281   -38790.174   -9339.9381     10110.27   -1928.3399    35482.685    13743.453    86.691541 
   95900    1975.9308   -104.20432    1.7878637   -102.41646   -40094.009    4.4174338    4.4174338    4.4174338   -40094.009   -50446.498   -23092.107   -46743.421    2558.2105   -20110.187   -40130.936    86.200573 
   96000    1709.2824   -103.95746    1.5465947   -102.41087    38130.663    4.3824795    4.3824795    4.3824795    38130.663    21035.775    47357.618    45998.594   -10910.158    63108.957    10508.232    84.170457 
   96100    2008.8799   -104.24481    1.8176768   -102.42714    18525.559     4.386629     4.386629     4.386629    18525.559    40201.865    11445.597    3929.2149    2115.3784   -35290.539   -24339.632    84.409771 
   96200    1264.4882    -103.6038    1.1441355   -102.45967    -3787.524    4.4089789    4.4089789    4.4089789    -3787.524    22044.605    32981.862   -66389.039   -13028.766     71386.62   -7589.3911     85.70656 
   96300    2282.1299   -104.49703    2.0649191   -102.43211    6034.5649    4.4281958    4.4281958    4.4281958    6034.5649    33600.005   -42727.095    27230.784   -1052.5647   -8410.9811   -7653.7269    86.832126 
   96400    1123.5121     -103.468    1.0165773   -102.45142   -36666.786    4.4215208    4.4215208    4.4215208   -36666.786   -44207.078    6125.0125   -71918.292   -15445.025    42173.289    -11730.61    86.440053 
   96500    2416.6567   -104.59796    2.1866417   -102.41132    29525.651    4.4052951    4.4052951    4.4052951    29525.651     44179.69   -12225.423    56622.686    5086.6354   -5918.9529    16447.554    85.491912 
   96600    1510.0836   -103.79991    1.3663554   -102.43355   -34560.879    4.4080114    4.4080114    4.4080114   -34560.879   -57375.577    19787.921   -66094.983   -6555.9622    82055.996   -16366.908    85.650152 
   96700    2361.9295    -104.5518    2.1371235   -102.41467     10748.63    4.3983135    4.3983135    4.3983135     10748.63    6375.4816   -4512.8264    30383.235    16282.381   -42496.558     18047.03    85.086086 
   96800     1136.213   -103.47837    1.0280694    -102.4503   -35419.524    4.4199241    4.4199241    4.4199241   -35419.524   -54050.788    16243.713   -68451.498    1303.2892    77211.045   -12016.162    86.346438 
   96900    2224.9881     -104.434     2.013216   -102.42078   -9108.9596    4.4169983    4.4169983    4.4169983   -9108.9596    9062.5473   -40131.626    3742.2002    4758.7552   -6923.3438   -22637.553    86.175083 
   97000    1117.1307   -103.43626    1.0108033   -102.42546    6002.6371    4.3988027    4.3988027    4.3988027    6002.6371    45426.577   -1775.5585   -25643.107    12571.173    44690.289    21696.205    85.114482 
   97100    2473.9134   -104.65881    2.2384488   -102.42036   -9917.0524     4.408984     4.408984     4.408984   -9917.0524   -2192.0143     5678.727    -33237.87    12856.997   -9675.3911   -53827.364    85.706855 
   97200    1682.7078   -103.94966    1.5225493   -102.42711    10606.211    4.4092174    4.4092174    4.4092174    10606.211    29723.826    17755.123   -15660.317    9328.7733    27441.582    27920.688    85.720468 
   97300    1292.3039   -103.60967    1.1693037   -102.44037     20080.24    4.4155926    4.4155926    4.4155926     20080.24     93081.54   -33152.913    312.09267    15653.373    14816.959   -30280.614    86.092829 
   97400    1942.2332   -104.18312    1.7573734   -102.42575    -25974.04    4.4206637    4.4206637    4.4206637    -25974.04   -61553.019    10514.972   -26884.074   -7536.6046    26450.376    2080.0362    86.389791 
   97500    1799.4316   -104.04974    1.6281635   -102.42158   -14548.807    4.3899077    4.3899077    4.3899077   -14548.807    7343.4091   -20942.267   -30047.563    27727.982    23823.706    5776.6508    84.599183 
   97600    1845.9023   -104.09682    1.6702112   -102.42661    10318.973    4.3915748    4.3915748    4.3915748    10318.973    678.51798    22563.647    7714.7527   -17334.908    7479.7289   -11751.679      84.6956 
   97700    1041.6139    -103.3896   0.94247415   -102.44713   -23741.425    4.4154016    4.4154016    4.4154016   -23741.425   -51620.354    10261.083   -29865.004   -2545.3967    57396.755    22995.276    86.081658 
   97800    2629.7189   -104.79446    2.3794249   -102.41503    14179.444     4.410927     4.410927     4.410927    14179.444    41225.743   -9471.1659    10783.755    12724.386   -520.39341   -1464.8308    85.820218 
   97900    1159.8961   -103.48267    1.0494983   -102.43317   -38641.252    4.4188394    4.4188394    4.4188394   -38641.252   -62332.474    4851.6623   -58442.944   -16196.921    30968.058    27414.186    86.282883 
   98000    2090.6728   -104.30627    1.8916847   -102.41458    24505.786    4.4002348    4.4002348    4.4002348    24505.786    20639.627   -16327.238     69204.97    22220.784   -9450.5035     23503.66    85.197636 
   98100    1836.2258   -104.09863    1.6614557   -102.43718    15268.901    4.3863006    4.3863006    4.3863006    15268.901    21080.023    64750.251   -40023.571   -11982.027    49612.545   -7713.0543    84.390813 
   98200     2019.965   -104.27452    1.8277068   -102.44681   -6189.0016    4.4109495    4.4109495    4.4109495   -6189.0016   -22273.287   -29106.419    32812.701    24019.613   -12782.052    28027.844    85.821532 
   98300    1409.2502   -103.72268    1.2751192   -102.44756   -2341.9442    4.4122069    4.4122069    4.4122069   -2341.9442   -1753.6898   -18295.366    13023.223    11430.373    50884.272   -17432.256    85.894944 
   98400    2416.9694   -104.60821    2.1869247   -102.42128    2870.1263    4.4103845    4.4103845    4.4103845    2870.1263    32565.336    1179.7063   -25134.664   -9639.1445   -12740.589   -53.502146    85.788559 
   98500    1256.5758   -103.57636    1.1369762   -102.43939   -17691.291    4.4081776    4.4081776    4.4081776   -17691.291   -27449.161    -49179.57    23554.858    51061.283    26340.863    92.737194    85.659837 
   98600     2392.535   -104.58795     2.164816   -102.42313    11856.325    4.4014149    4.4014149    4.4014149    11856.325    52664.701   -20645.953    3550.2273   -29868.153    7341.4238   -10927.774    85.266203 
   98700    1237.0184   -103.56946    1.1192802   -102.45018   -23196.291    4.4125187    4.4125187    4.4125187   -23196.291     -23162.7    -39821.77   -6604.4032    52830.837     15352.22    13536.569    85.913154 
   98800    2352.9668   -104.56764    2.1290138   -102.43862     8396.579    4.4102731    4.4102731    4.4102731     8396.579    57359.809   -4932.7423   -27237.329    -17687.78    35825.049   -2934.4806    85.782058 
   98900    1518.2132   -103.82281    1.3737112   -102.44909   -51797.824    4.4180831    4.4180831    4.4180831   -51797.824   -62259.832   -87314.384   -5819.2569    74132.275    261.66352    16786.904     86.23859 
   99000    2293.1418   -104.50297    2.0748829   -102.42809     3857.534    4.4039749    4.4039749    4.4039749     3857.534    38311.836   -3597.9903   -23141.244   -4070.5905    43342.137    9737.8179    85.415072 
   99100    1829.6574   -104.09492    1.6555124   -102.43941   -13250.944    4.4051949    4.4051949    4.4051949   -13250.944    -1929.372    -75715.22     37891.76    62912.794   -19513.667   -1535.2329    85.486076 
   99200    1670.4258   -103.95548    1.5114364   -102.44404    25080.678    4.4095502    4.4095502    4.4095502    25080.678     81584.94   -27958.226     21615.32   -2597.5466   -1772.1534    16810.679    85.739878 
   99300    1700.8535   -103.97671     1.538968   -102.43774   -12506.698    4.4220247    4.4220247    4.4220247   -12506.698   -21202.569   -23199.706    6882.1819      52892.5   -12602.515   -7787.4546    86.469606 
   99400     1931.819   -104.16983    1.7479505   -102.42188    6066.4818    4.4151907    4.4151907    4.4151907    6066.4818    35295.682   -28500.431    11404.195   -9024.6217   -15054.238   -1633.8723    86.069327 
   99500     1479.343   -103.76314    1.3385406    -102.4246   -10300.449    4.4068445    4.4068445    4.4068445   -10300.449    -30942.63   -55461.957     55503.24    68501.968   -5114.0784   -15377.206    85.582149 
   99600    2363.0203   -104.55157    2.1381105   -102.41346   -6068.8476    4.4107562    4.4107562    4.4107562   -6068.8476   -35547.491   -5239.0946    22580.043   -17509.632    4499.0494   -6146.9358    85.810247 
   99700    1472.1898   -103.76865    1.3320682   -102.43659    -7859.326    4.4114518    4.4114518    4.4114518    -7859.326   -49294.241   -49752.092    75468.355    44788.622   -21418.119   -4916.5632    85.850851 
   99800    1890.2559   -104.14701    1.7103432   -102.43667    2685.8154    4.4101702    4.4101702    4.4101702    2685.8154   -30178.756    19700.416    18535.786    3790.8729    29037.819   -19934.174    85.776053 
   99900    1782.4563    -104.0471    1.6128039   -102.43429    17458.445     4.413078     4.413078     4.413078    17458.445   -29768.314   -2893.8499    85037.501    9086.4949   -19234.083    15980.208    85.945831 
  100000     1847.336   -104.11749    1.6715084   -102.44598   -25535.345    4.4238492    4.4238492    4.4238492   -25535.345   -57545.702    9430.8036   -28491.136    22487.087    22695.716   -31901.885    86.576684 
Loop time of 23.9026 on 1 procs for 100000 steps with 8 atoms

Pair  time (%) = 7.47695 (31.2809)
Kspce time (%) = 5.92337 (24.7813)
Neigh time (%) = 0.243272 (1.01776)
Comm  time (%) = 1.02659 (4.29491)
Outpt time (%) = 0.027761 (0.116142)
Other time (%) = 9.20464 (38.509)

Nlocal:    8 ave 8 max 8 min
Histogram: 1 0 0 0 0 0 0 0 0 0
Nghost:    1612 ave 1612 max 1612 min
Histogram: 1 0 0 0 0 0 0 0 0 0
Neighs:    1994 ave 1994 max 1994 min
Histogram: 1 0 0 0 0 0 0 0 0 0

Total # of neighbors = 1994
Ave neighs/atom = 249.25
Neighbor list builds = 3028
Dangerous builds = 0
unfix 20
unfix 21
print "seeds:1111915"
seeds:1111915
