LAMMPS (10 Feb 2015)
# ---- initialize simulations
clear
units metal
dimension 3
boundary p p p
atom_style charge
atom_modify map array
# ---- create atoms
read_data /Users/eugeneragasa/pyflamestk_git/pypospack/tests/tests_integration/workflow/WorkflowLammpsThermalExpansion/MgO_NaCl_unit.npt.T1700/lammps.structure
  triclinic box = (0 0 0) to (4.2565 4.2565 4.2565) with tilt (0 0 0)
  1 by 1 by 1 MPI processor grid
  reading atoms ...
  8 atoms
# ---- define interatomic potential
include potential.mod
mass 1 24.305
mass 2 15.999

group Mg type 1
4 atoms in group Mg
group O type 2
4 atoms in group O

set group Mg charge 2.0
  4 settings made for charge
set group O charge -2.0
  4 settings made for charge

variable R_cut equal 10.0

pair_style buck/coul/long ${R_cut}
pair_style buck/coul/long 10
pair_coeff 1 1 0.0 0.5 0.0 ${R_cut}
pair_coeff 1 1 0.0 0.5 0.0 10
pair_coeff 1 2 1279.69 0.29969 0.0 ${R_cut}
pair_coeff 1 2 1279.69 0.29969 0.0 10
pair_coeff 2 2 9547.96 0.21916 32.0 ${R_cut}
pair_coeff 2 2 9547.96 0.21916 32.0 10

kspace_style pppm 1.0e-5

neighbor 1.0 bin
neigh_modify every 1 delay 0 check yes
# ---- define settings
compute eng all pe/atom
compute eatoms all reduce sum c_eng
# ---- run minimization
reset_timestep 0
fix 1 all box/relax iso 0.0 vmax 0.001
thermo 10
thermo_style custom step pe lx ly lz xy xz yz press pxx pyy pzz pxy pxz pyz c_eatoms
min_style cg
minimize 1e-25 1e-25 5000 10000
PPPM initialization ...
  G vector (1/distance) = 0.354854
  grid = 8 8 8
  stencil order = 5
  estimated absolute RMS force accuracy = 5.34408e-05
  estimated relative force accuracy = 3.71126e-06
  using double precision FFTs
  3d grid and FFT values/proc = 3375 512
Neighbor list info ...
  1 neighbor list requests
  update every 1 steps, delay 0 steps, check yes
  master list distance cutoff = 11
Memory usage per processor = 4.06549 Mbytes
Step PotEng Lx Ly Lz Xy Xz Yz Press Pxx Pyy Pzz Pxy Pxz Pyz eatoms 
       0    -164.6599       4.2565       4.2565       4.2565            0            0            0   -75586.685   -75586.685   -75586.685   -75586.685 9.4798587e-11 1.6226154e-10 -3.4446142e-11    -164.6599 
      10   -164.72135     4.213935     4.213935     4.213935            0            0            0   -8637.4527   -8637.4527   -8637.4527   -8637.4527 -1.5549588e-10 2.0227431e-10 -1.1495762e-10   -164.72135 
      15   -164.72214      4.20883      4.20883      4.20883            0            0            0    5.5876567    5.5876567    5.5876567    5.5876567 2.0554645e-10 4.244052e-10 1.3955449e-10   -164.72214 
Loop time of 0.0219791 on 1 procs for 15 steps with 8 atoms

Minimization stats:
  Stopping criterion = linesearch alpha is zero
  Energy initial, next-to-last, final = 
        -164.659901251     -164.722138416     -164.722138416
  Force two-norm initial, final = 10.9148 0.000791362
  Force max component initial, final = 10.9148 0.000788889
  Final line search alpha, max atom move = 0.015625 1.23264e-05
  Iterations, force evaluations = 15 55

Pair  time (%) = 0.00603032 (27.4366)
Kspce time (%) = 0.0035851 (16.3114)
Neigh time (%) = 0 (0)
Comm  time (%) = 0.000673056 (3.06225)
Outpt time (%) = 1.81198e-05 (0.0824411)
Other time (%) = 0.0116725 (53.1073)

Nlocal:    8 ave 8 max 8 min
Histogram: 1 0 0 0 0 0 0 0 0 0
Nghost:    2189 ave 2189 max 2189 min
Histogram: 1 0 0 0 0 0 0 0 0 0
Neighs:    2344 ave 2344 max 2344 min
Histogram: 1 0 0 0 0 0 0 0 0 0

Total # of neighbors = 2344
Ave neighs/atom = 293
Neighbor list builds = 0
Dangerous builds = 0
unfix 1
# ---- define output variables ----
variable natoms equal "count(all)"
variable tot_energy equal "c_eatoms"
variable length_x equal "lx"
variable length_y equal "ly"
variable length_z equal "lz"
variable tilt_xy equal "xy"
variable tilt_xz equal "xz"
variable tilt_yz equal "yz"
variable tot_press equal "press"
variable press_xx equal "pxx"
variable press_yy equal "pyy"
variable press_zz equal "pzz"
variable press_xy equal "pxy"
variable press_xz equal "pxz"
variable press_yz equal "pyz"

# ---- output ----
print "pypospack:output_section:begin"
pypospack:output_section:begin
print "tot_energy = ${tot_energy}"
tot_energy = -164.722138415744
print "num_atoms = ${natoms}"
num_atoms = 8
print "xx = ${length_x}"
xx = 4.20883001371435
print "yy = ${length_y}"
yy = 4.20883001371435
print "zz = ${length_z}"
zz = 4.20883001371435
print "xy = ${tilt_xy}"
xy = 0
print "xz = ${tilt_xz}"
xz = 0
print "yz = ${tilt_yz}"
yz = 0
print "tot_press = ${tot_press}"
tot_press = 5.58765665687492
print "pxx = ${press_xx}"
pxx = 5.58765665651822
print "pyy = ${press_yy}"
pyy = 5.58765665647238
print "pzz = ${press_zz}"
pzz = 5.58765665763416
print "pxy = ${press_xy}"
pxy = 2.0554645346851e-10
print "pxz = ${press_xz}"
pxz = 4.24405202668874e-10
print "pyz = ${press_yz}"
pyz = 1.39554488680613e-10
print "pypospack:output_section:done"
pypospack:output_section:done
print "pypospack:lammps_sim:done"
pypospack:lammps_sim:done
#------------------------------------------------------------------------------
# RUN THERMOSTAT
# running using an NPT Nose-Hoover style thermostat
#------------------------------------------------------------------------------
variable tempdamp equal 0.1
variable pressdamp equal 1.0
# set initial velocities
velocity all create 1700 7253144 mom yes dist gaussian loop all
# fix for Nose-Hoover style thermostat
fix 20 all npt temp 1700 1700 0.1 aniso 0.0 0.0 1.0 drag 1.0 couple xyz
variable boxx equal lx
variable boxy equal ly
variable boxz equal lz
variable boxp equal press
variable boxt equal temp
# calculate averages every 10000 steps
reset_timestep 0
fix 21 all ave/time 10 10 100 v_boxx v_boxy v_boxz v_boxp v_boxt file lattice.out
thermo_style custom step temp pe ke etotal press lx ly lz press pxx pyy pzz pxy pxz pyz vol
thermo_modify flush yes
thermo 100
run 100000
PPPM initialization ...
  G vector (1/distance) = 0.355405
  grid = 8 8 8
  stencil order = 5
  estimated absolute RMS force accuracy = 5.20839e-05
  estimated relative force accuracy = 3.61703e-06
  using double precision FFTs
  3d grid and FFT values/proc = 3375 512
Memory usage per processor = 3.06549 Mbytes
Step Temp PotEng KinEng TotEng Press Lx Ly Lz Press Pxx Pyy Pzz Pxy Pxz Pyz Volume 
       0         1700   -164.72213    1.5381957   -163.18394    22043.186      4.20883      4.20883      4.20883    22043.186    9034.6892    35978.928    21115.942   -6157.9679    2326.6936   -12165.705    74.556267 
     100    1371.5984   -164.20512     1.241051   -162.96407    12387.816    4.2342252    4.2342252    4.2342252    12387.816   -36686.369    68043.437    5806.3818   -2092.9697   -3.1611839   -41.494403    75.913999 
     200    1313.7607   -163.74082    1.1887183    -162.5521   -20193.265    4.2574271    4.2574271    4.2574271   -20193.265   -85961.077    19938.846    5442.4369   -3870.4853    6700.8355    -4452.373    77.168785 
     300     1533.152    -163.5657    1.3872282   -162.17847   -7588.7432    4.2508517    4.2508517    4.2508517   -7588.7432   -61521.991    13151.159    25604.602   -6093.0142   -1403.4311   -14022.809    76.811787 
     400    1470.0557   -163.22895    1.3301373   -161.89882   -4581.9184    4.2322702    4.2322702    4.2322702   -4581.9184   -29943.619    9910.9457    6286.9177    8464.4588   -2496.7142    26141.276    75.808896 
     500    1618.8094   -163.19729    1.4647328   -161.73256    17367.117    4.2317078    4.2317078    4.2317078    17367.117   -26403.325    48532.831    29971.845    84.871731   -3093.9337     13254.45    75.778676 
     600    1803.7108   -163.28826    1.6320354   -161.65623   -36528.011    4.2742399    4.2742399    4.2742399   -36528.011   -78778.347    -12417.58   -18388.106    3294.8435    6923.1403    21434.821    78.086632 
     700    1691.4365   -163.11816    1.5304473   -161.58771   -63821.566    4.2742676    4.2742676    4.2742676   -63821.566   -69358.657   -34813.252   -87292.787   -4592.0858    11522.135    45633.635     78.08815 
     800    1490.5684   -162.90519    1.3486976   -161.55649    63286.267    4.2365397    4.2365397    4.2365397    63286.267   -10239.115    61319.142    138778.77    10624.119   -6305.1406    63537.255    76.038554 
     900    1991.3813   -163.40397    1.8018436   -161.60213   -21038.284    4.2508318    4.2508318    4.2508318   -21038.284   -14107.865   -50395.063    1388.0762   -2134.3913   -4816.4427    44322.421    76.810707 
    1000    1956.2795   -163.37908    1.7700828   -161.60899   -32164.868    4.2772962    4.2772962    4.2772962   -32164.868   -24056.787   -66861.106   -5576.7108   -5168.3594   -4375.9199    11095.243    78.254256 
    1100     1548.514   -162.98491     1.401128   -161.58379   -35040.085    4.2734132    4.2734132    4.2734132   -35040.085   -48204.751   -23245.103   -33670.402   -12762.679   -9910.0021    16011.677    78.041328 
    1200    1360.9954   -162.80943    1.2314572   -161.57797   -20252.233    4.2432922    4.2432922    4.2432922   -20252.233   -14113.495   -67113.435    20470.232   -13069.902    -7871.412    21550.757    76.402717 
    1300    1561.2536   -162.99983     1.412655   -161.58718    29180.267    4.2292544    4.2292544    4.2292544    29180.267     61966.86   -20988.655    46562.597     690.8976   -2219.3381    32134.103    75.646954 
    1400    1802.1015   -163.25235    1.6305793   -161.62177    -37802.85     4.258057     4.258057     4.258057    -37802.85    2948.5513   -40080.541    -76276.56    8731.4711   -6284.6058   -14474.783     77.20304 
    1500    1978.8333   -163.39288      1.79049   -161.60239   -10500.369    4.2678402    4.2678402    4.2678402   -10500.369   -11931.052   -53076.401    33506.346    5788.3125   -4680.6399     9023.552    77.736403 
    1600     1821.073   -163.23275    1.6477451   -161.58501    19141.352    4.2500245    4.2500245    4.2500245    19141.352    45891.239   -4321.9553    15854.771    10665.333   -10961.117    12769.906    76.766955 
    1700    1321.0937   -162.78498    1.1953534   -161.58962    132.86768    4.2552506    4.2552506    4.2552506    132.86768   -8337.6689    -10564.41    19300.682    21358.248   -3070.5305   -11234.835    77.050493 
    1800    1767.0227   -163.18229    1.5988393   -161.58345    19821.777    4.2505924    4.2505924    4.2505924    19821.777    12895.613   -4895.3892    51465.109    26742.523   -16519.258    14239.065    76.797728 
    1900    2141.2692   -163.52561    1.9374653   -161.58814     22849.46    4.2497716    4.2497716    4.2497716     22849.46    52560.565     294.0536     15693.76    29213.558    10547.275        11863    76.753251 
    2000    2041.0585   -163.43396    1.8467926   -161.58717   -52150.603    4.2732204    4.2732204    4.2732204   -52150.603   -57350.153   -67021.522   -32080.134    39538.828    9133.7552   -15271.537    78.030769 
    2100    1977.3179   -163.36002    1.7891188    -161.5709   -4983.8344     4.260087     4.260087     4.260087   -4983.8344   -34304.541    -36713.92    56066.958    29970.019    13652.005    1728.4408    77.313511 
    2200    1542.0112    -162.9679    1.3952441   -161.57266    10285.676    4.2536883    4.2536883    4.2536883    10285.676    34684.502   -8789.8359    4962.3615    35929.358   -10394.797    4175.4942    76.965657 
    2300    1249.0266   -162.71543    1.1301455   -161.58528   -1613.8255    4.2617038    4.2617038    4.2617038   -1613.8255   -19949.995    23651.635   -8543.1172    56792.256    22748.329    17537.958    77.401573 
    2400    991.60975   -162.48069   0.89722934   -161.58346    52679.506     4.258977     4.258977     4.258977    52679.506    89222.754    30705.389    38110.375    37196.673    12987.855    11568.102    77.253092 
    2500    1236.0337   -162.69412    1.1183892   -161.57573   -43129.342    4.2702692    4.2702692    4.2702692   -43129.342   -42955.674   -80277.198   -6155.1537    44642.084    8648.5698    22564.467    77.869207 
    2600    1092.3384   -162.57021   0.98837074   -161.58184   -4665.0051    4.2440269    4.2440269    4.2440269   -4665.0051   -47494.558    9359.8934    24139.649    55479.008    39687.875    13018.618    76.442413 
    2700    1375.5338   -162.82812    1.2446119   -161.58351    20182.788    4.2282111    4.2282111    4.2282111    20182.788    22894.925    3960.0898    33693.348    43712.971    19640.146    5810.2776    75.590981 
    2800    1496.7256   -162.96384    1.3542688   -161.60957   -33698.834    4.2573794    4.2573794    4.2573794   -33698.834   -72190.757   -38218.919    9313.1739    57287.095    24812.037    4743.9813    77.166191 
    2900    1583.8581   -163.03418    1.4331081   -161.60107    11205.252    4.2535173    4.2535173    4.2535173    11205.252    28502.796   -8646.7285    13759.688    37947.353     8481.161    9205.3613    76.956377 
    3000    1780.7461   -163.20899    1.6112565   -161.59773   -21340.363    4.2513819    4.2513819    4.2513819   -21340.363   -41810.096   -11147.732   -11063.263    32326.117    17098.661   -1792.6613    76.840533 
    3100     1655.584   -163.10078    1.4980072   -161.60277    19203.501    4.2441261    4.2441261    4.2441261    19203.501     16812.22   -3101.0547    43899.337     32946.76    -9228.452   -4309.8047     76.44777 
    3200    1816.4128   -163.24695    1.6435284   -161.60342    3943.7461    4.2386175    4.2386175    4.2386175    3943.7461   -9267.2072   -12328.247    33426.693   -15676.973   -4876.5371    6560.9137    76.150484 
    3300    1874.4656    -163.3106    1.6960558   -161.61454   -1646.2499    4.2582321    4.2582321    4.2582321   -1646.2499   -28223.254     42454.52   -19170.016   -10925.364   -11655.178   -7356.2721    77.212567 
    3400    2164.0794   -163.56577    1.9581045   -161.60767     8334.811     4.245571     4.245571     4.245571     8334.811    23541.766   -5610.4181    7073.0849   -35739.602   -16772.492   -3072.3743    76.525876 
    3500    2443.2164   -163.81293    2.2106735   -161.60226    2172.7262    4.2405748    4.2405748    4.2405748    2172.7262   -2971.1358   -16064.804    25554.119   -28332.036   -15229.295   -9534.9067    76.256031 
    3600    2250.8665   -163.64018    2.0366314   -161.60355   -21339.089    4.2593492    4.2593492    4.2593492   -21339.089   -84015.079    24062.111   -4064.2981   -18541.229   -15075.463    8324.1282    77.273351 
    3700    2320.5394   -163.69886    2.0996728   -161.59919   -59.115811    4.2488546    4.2488546    4.2488546   -59.115811    5929.9812    164.78539    -6272.114   -18329.557   -15926.017    6228.3739    76.703577 
    3800    2207.2111   -163.60418     1.997131   -161.60705    18245.416    4.2405569    4.2405569    4.2405569    18245.416    34237.411    28153.605   -7654.7685    10343.688   -44418.495    2937.2663    76.255064 
    3900    1881.6488   -163.32486    1.7025554   -161.62231    1735.7007     4.243773     4.243773     4.243773    1735.7007   -18574.733   -18776.204    42558.039    32468.466   -38238.475    4459.6001    76.428696 
    4000    1310.6458   -162.81682    1.1858999   -161.63092    -8357.158    4.2440498    4.2440498    4.2440498    -8357.158    -23367.03   -19825.874    18121.431    11527.002   -23077.211    24748.486    76.443648 
    4100     824.9742   -162.37946   0.74645399   -161.63301   -932.02925    4.2567432    4.2567432    4.2567432   -932.02925   -58551.143    67954.565   -12199.509    23557.047   -35685.415     10884.95    77.131602 
    4200    902.94494   -162.44039   0.81700356   -161.62338   -24526.482    4.2522707    4.2522707    4.2522707   -24526.482   -81661.711   -18696.655    26778.921    38606.951   -11427.437    2940.2613    76.888734 
    4300    1507.4668   -162.97352    1.3639876   -161.60953    8077.7224    4.2337365    4.2337365    4.2337365    8077.7224   -25708.089   -5703.5265    55644.783    37992.506   -5638.3535    20638.784    75.887716 
    4400    1880.8706   -163.33126    1.7018512   -161.62941    10055.556    4.2479169    4.2479169    4.2479169    10055.556   -24888.194    41546.341    13508.522    35621.987   -7809.0054    4063.0527    76.652803 
    4500     1653.012   -163.11152      1.49568   -161.61584   -50337.249    4.2629438    4.2629438    4.2629438   -50337.249   -84886.043   -53806.549   -12319.156     41616.47     9030.966   -2256.3472    77.469156 
    4600    1799.7194   -163.22609    1.6284239   -161.59767    36409.982    4.2432581    4.2432581    4.2432581    36409.982    15448.061   -12796.975    106578.86    28632.559   -15230.145   -10650.095    76.400876 
    4700     2593.585   -163.95577    2.3467302   -161.60904   -1162.1941    4.2396297    4.2396297    4.2396297   -1162.1941   -29861.608   -27662.912    54037.938     14830.91    6208.6147    15284.171    76.205052 
    4800    2808.2182   -164.15961    2.5409348   -161.61867   -10305.246    4.2476295    4.2476295    4.2476295   -10305.246   -29853.706   -23329.931      22267.9    13585.866    2533.4613   -7621.1808    76.637245 
    4900    2312.6207   -163.71211    2.0925078    -161.6196   -2708.2186    4.2594017    4.2594017    4.2594017   -2708.2186   -38997.436    43346.309   -12473.529    8642.6981    10064.594   -627.18709     77.27621 
    5000    1681.5267   -163.12766    1.5214807   -161.60618   -39018.755    4.2712332    4.2712332    4.2712332   -39018.755   -88540.009   -41058.356    12542.101    21462.791    10001.882    10759.875     77.92196 
    5100    1410.9726   -162.88935    1.2766777   -161.61267    1394.8015    4.2308065    4.2308065    4.2308065    1394.8015   -26068.969    -9373.803    39627.176    4230.1761    17302.871   -3722.9793     75.73027 
    5200    1554.5941   -163.01243    1.4066294    -161.6058    57000.122    4.2124146    4.2124146    4.2124146    57000.122    16580.697     97724.44    56695.229    -8862.202    22862.238   -778.20577    74.746923 
    5300    1927.6414   -163.37425    1.7441704   -161.63007   -51864.125    4.2613901    4.2613901    4.2613901   -51864.125   -86172.195   -44310.673   -25109.506   -24113.945    11289.728    -3229.922    77.384481 
    5400    1833.9735   -163.26075    1.6594178   -161.60133   -4627.3876     4.260274     4.260274     4.260274   -4627.3876   -61769.619    57933.027   -10045.571   -28924.756    13413.142   -13590.578    77.323693 
    5500    1896.9473   -163.30575    1.7163978   -161.58936    6102.5968    4.2462498    4.2462498    4.2462498    6102.5968    -19695.89    64313.116   -26309.435   -22378.023    4274.2749    6210.4297    76.562591 
    5600    2529.3912   -163.88613    2.2886463   -161.59748   -18157.065    4.2453552    4.2453552    4.2453552   -18157.065   -35931.724    23032.643   -41572.115   -13615.105    7649.8916    6309.8904    76.514212 
    5700     2427.647   -163.79746     2.196586   -161.60087    44763.941    4.2292215    4.2292215    4.2292215    44763.941    46326.178    100348.47   -12382.823   -13741.608    5132.3269   -13643.999    75.645185 
    5800    2581.6791   -163.96582    2.3359575   -161.62986    -40274.06    4.2580245    4.2580245    4.2580245    -40274.06   -23793.769   -22934.112   -74094.299   -23139.303   -12211.506   -1019.5348    77.201274 
    5900    2184.4852   -163.59386    1.9765681   -161.61729   -23282.431    4.2568178    4.2568178    4.2568178   -23282.431    -30731.78    20442.078   -59557.592   -36288.405    516.30794    13775.748    77.135657 
    6000    1862.7165   -163.27927    1.6854251   -161.59384    39523.053    4.2242459    4.2242459    4.2242459    39523.053     96080.09    26948.774   -4459.7058   -41918.067   -7626.6718    21616.293    75.378516 
    6100     1879.945   -163.31511    1.7010138    -161.6141   -30818.754    4.2495657    4.2495657    4.2495657   -30818.754   -28927.092   -33863.088   -29666.081   -63458.156    697.70168    5247.9045    76.742094 
    6200    2078.6375    -163.4775    1.8807949    -161.5967    -10297.98    4.2577496    4.2577496    4.2577496    -10297.98    5595.0436    15382.251   -51871.233   -55972.264    3151.9715   -363.64114    77.186321 
    6300    1853.6063   -163.27236    1.6771819   -161.59517    14148.828    4.2455828    4.2455828    4.2455828    14148.828    71267.026     14907.75   -43728.291   -39865.725   -14600.851     19709.48    76.526516 
    6400    1596.3347   -163.04392    1.4443972   -161.59952    9206.9074    4.2393538    4.2393538    4.2393538    9206.9074   -4643.3252    47021.202   -14757.154   -52065.645   -4278.2832    12716.513    76.190178 
    6500    1757.2859   -163.19917    1.5900292   -161.60914    2521.2145    4.2368465    4.2368465    4.2368465    2521.2145    10804.231    5859.2914    -9099.879    -23051.95   -1387.4216    3396.0458    76.055076 
    6600    1633.0799   -163.10288     1.477645   -161.62523   -20659.615    4.2570516    4.2570516    4.2570516   -20659.615   -72082.914    55465.879   -45361.812   -24584.474    1738.1977    10992.109    77.148368 
    6700    1524.9588    -162.9959    1.3798147   -161.61609   -27036.057    4.2485652    4.2485652    4.2485652   -27036.057    -26486.19   -15591.591   -39030.389   -37419.634     5578.092     10420.49    76.687903 
    6800    1498.0286   -162.96954    1.3554477   -161.61409    33717.804     4.232441     4.232441     4.232441    33717.804     8720.759    106193.38   -13760.729   -5462.2502   -3699.2498   -6321.7371    75.818073 
    6900    1499.7059   -162.98196    1.3569654   -161.62499    -41103.38    4.2483729    4.2483729    4.2483729    -41103.38   -44253.007   -37294.736   -41762.397    14959.277    -18843.72    4576.0136    76.677492 
    7000    942.96193   -162.47189   0.85321177   -161.61868    26819.457    4.2482785    4.2482785    4.2482785    26819.457   -11616.561    116671.19   -24596.257    36135.251   -1411.5592    8764.2396    76.672381 
    7100    937.58954   -162.46165   0.84835072    -161.6133   -22718.332    4.2637919    4.2637919    4.2637919   -22718.332     15240.41   -22305.973   -61089.434    31806.032   -12906.114   -11512.581    77.515399 
    7200     1253.921   -162.73772    1.1345741   -161.60314   -20337.075    4.2501981    4.2501981    4.2501981   -20337.075   -27404.694   -10493.694   -23112.835    45756.889   -27579.923   -56.352934    76.776358 
    7300    1076.3363   -162.56671   0.97389173   -161.59282    31660.641    4.2257561    4.2257561    4.2257561    31660.641    48652.158    40455.698    5874.0661     65272.77   -3719.8121   -9244.9811    75.459389 
    7400    1077.8489   -162.59631   0.97526037   -161.62105    -29031.97    4.2457355    4.2457355    4.2457355    -29031.97   -54689.467   -21763.586   -10642.855    58331.931    31.955656   -13594.977    76.534775 
    7500    1185.2017    -162.6831    1.0723954    -161.6107    12154.573    4.2505661    4.2505661    4.2505661    12154.573        23021   -3035.0893    16477.809    54694.732    -8969.993    4455.9242    76.796303 
    7600    1530.6553    -162.9931    1.3849691   -161.60813   -272.22715     4.257555     4.257555     4.257555   -272.22715    12813.812   -33385.426    19754.933    52008.783     10060.47    -1068.656     77.17574 
    7700    2054.1323   -163.45902    1.8586221    -161.6004   -15635.521    4.2543474    4.2543474    4.2543474   -15635.521   -7677.0267   -40375.185    1145.6475    34905.943      15952.1    10168.249    77.001439 
    7800    1693.3735   -163.12595    1.5321999   -161.59375    24800.608    4.2279908    4.2279908    4.2279908    24800.608    46455.112   -4555.8335    32502.545    30787.012    5906.7461    21930.554    75.579166 
    7900    1288.4289   -162.79242    1.1657976   -161.62662    12663.608    4.2434256    4.2434256    4.2434256    12663.608    11190.423    31995.032   -5194.6299    20169.476    21720.477    11441.035    76.409927 
    8000    1611.4402   -163.06858    1.4580649   -161.61052   -51870.779    4.2615417    4.2615417    4.2615417   -51870.779   -45238.522   -70474.449   -39899.366    23015.694    14099.194    39400.821    77.392741 
    8100    1916.2751   -163.33537     1.733886   -161.60148    25721.781    4.2430043    4.2430043    4.2430043    25721.781    56978.139    32730.749   -12543.545     18842.33    23013.087    25931.259    76.387168 
    8200    2283.4337   -163.66832    2.0660988   -161.60222    1771.3808    4.2363682    4.2363682    4.2363682    1771.3808    5525.2902     25393.12   -25604.268   -2342.4823    24601.557    15766.063    76.029319 
    8300    2508.8586   -163.87959     2.270068   -161.60953    1110.7683    4.2424353    4.2424353    4.2424353    1110.7683    1240.0627    34844.951   -32752.709    -7812.882    2685.2248    25067.747     76.35644 
    8400    2226.1625   -163.62745    2.0142787   -161.61317   -2632.0281    4.2499938    4.2499938    4.2499938   -2632.0281   -4652.2732    25691.572   -28935.383   -14940.064   -3120.2815     5674.194    76.765289 
    8500    1845.3792   -163.28859    1.6697378   -161.61885   -17242.353    4.2511428    4.2511428    4.2511428   -17242.353   -71896.693    58677.086    -38507.45   -15672.132   -21644.952    8692.6844    76.827565 
    8600    1751.6336   -163.21315    1.5849149   -161.62823    11809.957    4.2276025    4.2276025    4.2276025    11809.957    19351.546    9482.4024    6595.9243    -15660.08   -34488.344   -12346.569    75.558343 
    8700    1485.5369    -162.9875     1.344145   -161.64335    17892.648    4.2267722    4.2267722    4.2267722    17892.648    33805.109    28331.726   -8458.8917    -10722.52   -49545.902   -26481.775    75.513834 
    8800    984.58362   -162.53768   0.89087195   -161.64681   -18627.236    4.2658858    4.2658858    4.2658858   -18627.236   -65370.823    26275.553   -16786.439    2886.8209   -61692.967   -22537.345    77.629661 
    8900    662.93177   -162.20839    0.5998346   -161.60855   -15365.555    4.2669265    4.2669265    4.2669265   -15365.555    21568.597   -15776.903   -51888.358    19407.727   -45343.067   -27340.453    77.686489 
    9000    595.94918   -162.12795   0.53922734   -161.58872    34941.396    4.2453069    4.2453069    4.2453069    34941.396    19466.328    10609.051    74748.809    10922.752   -54098.865    -34500.93    76.511599 
    9100     721.2993   -162.25573   0.65264677   -161.60309   -22287.184    4.2461799    4.2461799    4.2461799   -22287.184    -45652.15    25111.354   -46320.756    14610.884   -58123.117   -36639.271    76.558808 
    9200    1078.1861   -162.58135   0.97556544   -161.60579    2755.0507    4.2474132    4.2474132    4.2474132    2755.0507   -18794.368    848.05033    26211.469    13548.316    -46568.55   -41240.314    76.625536 
    9300    744.65245   -162.28996   0.67377719   -161.61619   -23360.826    4.2553986    4.2553986    4.2553986   -23360.826   -22834.372   -10278.544   -36969.563    11247.921   -42381.286    -56850.89    77.058531 
    9400    813.45719   -162.35865   0.73603316   -161.62261   -199.80107    4.2453336    4.2453336    4.2453336   -199.80107   -9563.7165    27172.677   -18208.364    17930.948   -54132.117   -35805.467    76.513044 
    9500    1433.6934   -162.91896    1.2972359   -161.62172    14360.771    4.2343188    4.2343188    4.2343188    14360.771     17829.81    21802.231     3450.272    16761.171   -36002.993   -38397.216    75.919033 
    9600    1749.3374   -163.21278    1.5828372   -161.62994   -10020.223     4.244528     4.244528     4.244528   -10020.223    26555.227   -12458.871   -44157.027   -6782.5271    -20935.33   -19483.354     76.46949 
    9700    2015.4284   -163.44971     1.823602   -161.62611    12710.725    4.2453109    4.2453109    4.2453109    12710.725   -20945.126   -26324.119     85401.42   -22698.169   -4931.8383    867.77459    76.511816 
    9800    2470.7292   -163.86297    2.2355677   -161.62741   -40147.637     4.253421     4.253421     4.253421   -40147.637   -31525.087   -45472.571   -43445.252   -34903.641   -11185.609    22540.775    76.951152 
    9900    2334.1068   -163.72612    2.1119489   -161.61417   -10276.333    4.2538702    4.2538702    4.2538702   -10276.333   -6206.6315   -17851.455   -6770.9121    -26174.01    2300.9928    32801.494    76.975534 
   10000    2135.1458   -163.53689    1.9319248   -161.60497   -3292.4143    4.2465119    4.2465119    4.2465119   -3292.4143   -11452.819   -41395.897    42971.473    -37706.11    20108.883    18856.148    76.576767 
   10100     2029.596    -163.4506    1.8364211   -161.61418    -7656.667    4.2494986    4.2494986    4.2494986    -7656.667   -25692.997   -27658.934     30381.93   -24387.272    3206.3719     14272.22    76.738459 
   10200     1940.046   -163.37973    1.7553944   -161.62433    10951.587    4.2272878    4.2272878    4.2272878    10951.587   -3425.1649    6424.6112    29855.314    -2195.893   -11573.641   -16154.727    75.541472 
   10300    1462.7852   -162.98471    1.3235588   -161.66115    21107.883    4.2299845    4.2299845    4.2299845    21107.883    31095.707   -16905.106    49133.048    10402.631   -24398.962   -26357.248    75.686133 
   10400    976.66795   -162.54366   0.88370968   -161.65995   -40647.495    4.2483899    4.2483899    4.2483899   -40647.495    -42313.38   -18300.819   -61328.287    27491.372    -25437.65   -27689.401    76.678412 
   10500    739.75588   -162.31782   0.66934667   -161.64847    15770.726    4.2437951    4.2437951    4.2437951    15770.726   -14935.823    11748.209    50499.792    18934.581   -44277.351   -41109.878     76.42989 
   10600    697.26331   -162.27567    0.6308985   -161.64477   -25768.237    4.2505658    4.2505658    4.2505658   -25768.237   -23765.698    -19731.91   -33807.104    30071.614   -34010.291   -43987.497     76.79629 
   10700    1026.2161   -162.55825   0.92854186   -161.62971    31064.771    4.2386989    4.2386989    4.2386989    31064.771   -22115.453    23123.711    92186.055    31487.204   -18591.036   -56148.451    76.154873 
   10800    1677.0687   -163.14806     1.517447   -161.63061   -11132.355    4.2465356    4.2465356    4.2465356   -11132.355   -16470.275   -10924.999   -6001.7905     29679.74   -26679.846   -20411.056    76.578052 
   10900    1838.4017   -163.27608    1.6634245   -161.61266   -35880.205    4.2630262    4.2630262    4.2630262   -35880.205   -2214.2063   -43908.986   -61517.423    17405.318   -26921.525   -18459.072    77.473646 
   11000    1739.4415   -163.16972    1.5738833   -161.59584    6224.0559    4.2471071    4.2471071    4.2471071    6224.0559    8596.8908    327.35624    9747.9207    6629.0552    726.46669   -13929.239    76.608973 
   11100    1735.9574   -163.16186    1.5707307   -161.59113    332.61286    4.2451321    4.2451321    4.2451321    332.61286    19922.089   -5146.8176   -13777.433    11509.786   -2436.4986   -12228.121    76.502145 
   11200    1897.1094   -163.31058    1.7165445   -161.59404    17428.543    4.2504543    4.2504543    4.2504543    17428.543   -5786.2998    41838.708    16233.221    -3916.868    11133.307   -19831.885    76.790244 
   11300    2101.8272   -163.50126    1.9017774   -161.59948    13178.621    4.2510151    4.2510151    4.2510151    13178.621    71974.769   -27771.921   -4666.9853   -6600.3987    23078.766   -4376.2075    76.820645 
   11400    2164.6735   -163.55554    1.9586421    -161.5969   -17830.143    4.2606548    4.2606548    4.2606548   -17830.143   -13745.168   -22833.733   -16911.527   -10589.241    22076.423   -3633.9599     77.34443 
   11500    2215.0211    -163.5912    2.0041976     -161.587    18908.255    4.2452087    4.2452087    4.2452087    18908.255    54382.875    1286.4359    1055.4534   -33092.824    12122.091    10474.343     76.50629 
   11600    2142.8162   -163.52562    1.9388651   -161.58675     12636.61    4.2353072    4.2353072    4.2353072     12636.61    30445.845   -3285.6461    10749.631   -19081.249    5519.8819    27773.295    75.972207 
   11700    1911.6902   -163.32884    1.7297375    -161.5991   -18967.876     4.251768     4.251768     4.251768   -18967.876   -20043.403    5726.9604   -42587.185   -28012.299   -6325.6464    20849.702    76.861468 
   11800    1995.8436   -163.40299    1.8058812   -161.59711    11350.401    4.2486352    4.2486352    4.2486352    11350.401    44655.676    13777.117    -24381.59   -20425.285   -7036.2359    14741.474    76.691691 
   11900    2207.0909   -163.59647    1.9970222   -161.59945    3068.4932     4.241726     4.241726     4.241726    3068.4932   -2159.5505   -8334.3973    19699.427   -21911.963   -21466.384    10980.839    76.318151 
   12000    1644.9782   -163.10724    1.4884108   -161.61883   -3362.0273    4.2534042    4.2534042    4.2534042   -3362.0273    32188.377    17994.886   -60269.345    3609.2182   -49380.216    10115.417    76.950237 
   12100    1431.4992   -162.90884    1.2952506   -161.61359    1880.7209    4.2417726    4.2417726    4.2417726    1880.7209     3008.277    47826.545   -45192.659    3787.9425   -33567.551   -5896.4425    76.320664 
   12200    1117.3969   -162.63196    1.0110442   -161.62092     15449.24    4.2477607    4.2477607    4.2477607     15449.24    18820.532    17773.154    9754.0344     14849.98   -24559.374    4391.4813    76.644345 
   12300    1042.1161   -162.55057   0.94292856   -161.60764   -52083.584    4.2602554    4.2602554    4.2602554   -52083.584   -94765.412    5359.9983   -66845.338    39042.382   -42928.237    4283.2266    77.322681 
   12400     1247.022   -162.72686    1.1283317   -161.59853    15409.513    4.2374394    4.2374394    4.2374394    15409.513    6205.6613     63566.45   -23543.571    26404.293   -62596.354   -1472.6039    76.087009 
   12500    1120.7214   -162.62073    1.0140523   -161.60668    8246.3967    4.2339647    4.2339647    4.2339647    8246.3967   -15706.612    13161.276    27284.526    49413.131    -58582.16   -7729.2171    75.899987 
   12600    980.31102   -162.50269   0.88700601   -161.61568    -12758.54    4.2473564    4.2473564    4.2473564    -12758.54   -25947.647    13070.199   -25398.171    49109.817   -68182.845   -793.54427    76.622462 
   12700    821.15625   -162.35499   0.74299943   -161.61199   -15660.837    4.2597196    4.2597196    4.2597196   -15660.837   -80018.544    44992.446   -11956.413    35743.359   -71563.747   -8478.1332    77.293511 
   12800     871.7228   -162.39043   0.78875311   -161.60168   -20505.421    4.2500213    4.2500213    4.2500213   -20505.421   -59133.519    39511.337    -41894.08    29834.851   -63303.303    -14877.03     76.76678 
   12900    1115.5757   -162.60483    1.0093964   -161.59543     30296.16    4.2358832    4.2358832    4.2358832     30296.16   -14847.893    61725.486    44010.887    41115.947   -54319.831   -12457.387    76.003209 
   13000    1541.4434   -162.99624    1.3947304   -161.60151   -21761.594    4.2472073    4.2472073    4.2472073   -21761.594   -51014.201     20938.76   -35209.341    16610.295   -69164.468   -9602.1197    76.614394 
   13100     1398.701   -162.86641    1.2655741   -161.60083   -16028.788    4.2472735    4.2472735    4.2472735   -16028.788    3028.7614    25025.937   -76141.063    7910.3813   -74022.571    -10080.76    76.617976 
   13200    1229.0675   -162.71044    1.1120861   -161.59835    33069.321    4.2418121    4.2418121    4.2418121    33069.321    8366.3317    51171.611    39670.021    8123.4962   -62482.073   -3257.5269    76.322797 
   13300    1412.4258   -162.88206    1.2779925   -161.60407   -3695.2679    4.2513283    4.2513283    4.2513283   -3695.2679   -20432.546    82861.993    -73515.25   -1907.6914   -70500.792    954.78028    76.837623 
   13400    1462.4244   -162.92752    1.3232323   -161.60429   -11755.617    4.2439642    4.2439642    4.2439642   -11755.617    14990.177    52001.379   -102258.41   -9225.7549   -72936.788    25814.349    76.439025 
   13500    1464.4899   -162.93004    1.3251012   -161.60494    6303.7016    4.2378111    4.2378111    4.2378111    6303.7016    3202.3142    43098.912   -27390.122   -9417.2076   -66007.568    12633.884    76.107033 
   13600    1289.1301   -162.77583     1.166432   -161.60939   -8877.7921     4.245018     4.245018     4.245018   -8877.7921   -32902.616     93191.74   -86922.501   -17822.896   -64636.446      10708.5    76.495982 
   13700    1270.6386   -162.75193    1.1497005   -161.60223     1589.868    4.2464997    4.2464997    4.2464997     1589.868     11795.86    76250.551   -83276.807   -12407.314   -60922.432    20956.494    76.576109 
   13800    1526.9975    -162.9837    1.3816595   -161.60204    5889.6588    4.2531975    4.2531975    4.2531975    5889.6588   -46280.907    83250.454   -19300.571   -14533.849   -61580.218     12676.85    76.939021 
   13900    1759.9066   -163.18811    1.5924005   -161.59571   -12973.434    4.2468418    4.2468418    4.2468418   -12973.434   -4077.3939    43532.739   -78375.647      673.765   -63450.227   -3203.4334    76.594615 
   14000    1185.3185   -162.67518    1.0725011   -161.60268    20283.143    4.2311214    4.2311214    4.2311214    20283.143   -16649.812    86027.132   -8527.8898   -9625.7276    -67403.35   -1956.1789    75.747177 
   14100    1073.2996   -162.59189   0.97114405   -161.62075   -23497.808    4.2425236    4.2425236    4.2425236   -23497.808   -74670.496    50198.029   -46020.958    8980.3354   -72247.566    1543.0891    76.361212 
   14200    1195.2404   -162.68669    1.0814786   -161.60521   -22567.819    4.2591759    4.2591759    4.2591759   -22567.819   -26553.339     38677.23   -79827.347    5673.0697   -50591.264   -19419.141    77.263919 
   14300    1398.0695   -162.85443    1.2650026   -161.58943    25267.992    4.2486282    4.2486282    4.2486282    25267.992   -50492.211    35287.398     91008.79    15370.084   -46990.383   -12978.505    76.691314 
   14400    1979.6656   -163.37415     1.791243   -161.58291   -15562.414    4.2370177    4.2370177    4.2370177   -15562.414   -17993.082     16390.62    -45084.78    17943.856   -63798.295   -11312.567    76.064294 
   14500    1949.6504   -163.35346    1.7640846   -161.58938   -1022.5597    4.2486163    4.2486163    4.2486163   -1022.5597   -16682.414    28577.432   -14962.697    4745.1923   -36234.396      4000.87    76.690671 
   14600     1968.268   -163.35853    1.7809302    -161.5776   -8139.3827    4.2595384    4.2595384    4.2595384   -8139.3827   -29409.251   -10631.192    15622.295    9511.8958   -36861.544   -3062.0821    77.283648 
   14700    2339.7847   -163.68408    2.1170863     -161.567   -18297.571    4.2517521    4.2517521    4.2517521   -18297.571   -26228.343    12860.523   -41524.893     3387.171   -44516.952   -9913.3196    76.860608 
   14800    2557.7461   -163.87834    2.3143024   -161.56404     18135.65    4.2401432    4.2401432    4.2401432     18135.65     16076.29    31117.248     7213.412    4783.3772   -25280.147   -6457.6058    76.232748 
   14900    2681.0708   -163.99917    2.4258892   -161.57328    24869.096    4.2378669    4.2378669    4.2378669    24869.096    31036.892    14570.619    28999.776    6035.6412   -30262.108   -18467.846     76.11004 
   15000    2652.0697   -163.98028    2.3996484   -161.58063   -5427.2476    4.2514668    4.2514668    4.2514668   -5427.2476   -31489.425    10311.617    4896.0647   -6290.8597   -19013.227   -589.99053    76.845134 
   15100    2543.0544   -163.87887     2.301009   -161.57786    -14008.69    4.2502808    4.2502808    4.2502808    -14008.69   -29450.442   -12827.863    252.23526   -4815.5334   -14068.171   -26413.075    76.780842 
   15200    2621.3593    -163.9448     2.371861   -161.57294   -14489.521    4.2426484    4.2426484    4.2426484   -14489.521    -12294.57   -24128.605   -7045.3876   -445.08972    -30036.62   -7279.7065    76.367948 
   15300    2736.9722   -164.05349      2.47647   -161.57702     7603.755    4.2446248    4.2446248    4.2446248     7603.755    -4003.725   -708.50539    27523.495   -5332.8552   -29492.857    -16180.25    76.474726 
   15400    2361.9048   -163.72067    2.1371011   -161.58357   -8995.9895    4.2443061    4.2443061    4.2443061   -8995.9895   -15506.171     -1348.61   -10133.187   -6847.3713   -46649.409    14077.755    76.457498 
   15500    2025.3485   -163.41772    1.8325779   -161.58515    2063.5278    4.2491033    4.2491033    4.2491033    2063.5278   -6831.3777   -11008.196    24030.157   -1539.5983   -32187.118   -3021.0306    76.717046 
   15600    1848.5066   -163.25798    1.6725676   -161.58541    7826.9366    4.2496662    4.2496662    4.2496662    7826.9366    9875.1005   -10282.686    23888.395   -7854.8667   -37303.387    16846.168     76.74754 
   15700    1499.6447   -162.93413      1.35691   -161.57722    12444.954    4.2441156    4.2441156    4.2441156    12444.954   -15847.869    24173.761    29008.972    9852.3592   -52412.478    11156.749    76.447206 
   15800    1697.8175     -163.115    1.5362209   -161.57878    11248.546    4.2459873    4.2459873    4.2459873    11248.546    18651.105    -9601.373    24695.906    25.402028   -33343.597     7777.457    76.548391 
   15900    1771.6732   -163.19329    1.6030471   -161.59025    2145.2251    4.2463215    4.2463215    4.2463215    2145.2251    15722.603   -4188.9741   -5097.9536   -609.98262   -32988.024    4187.2598    76.566468 
   16000    1472.1633   -162.92545    1.3320443   -161.59341    10358.817    4.2386929    4.2386929    4.2386929    10358.817   -17620.413    51826.752   -3129.8867    1421.4085   -29165.658    19695.012    76.154552 
   16100    1102.7405   -162.59589   0.99778274   -161.59811   -5219.4531    4.2474181    4.2474181    4.2474181   -5219.4531   -14770.168    26964.837   -27853.029   -15249.853   -35052.702    1399.4337    76.625803 
   16200    918.70391   -162.42342   0.83126261   -161.59216   -5112.0472    4.2555639    4.2555639    4.2555639   -5112.0472    -24306.95    32720.287   -23749.479    16010.176   -59871.459    5434.1471    77.067516 
   16300    953.50784    -162.4421   0.86275393   -161.57934   -1817.7681    4.2525674    4.2525674    4.2525674   -1817.7681   -51325.145    118049.26   -72177.423     -10198.9   -60485.379   -9182.0501    76.904831 
   16400    1234.9647    -162.6902     1.117422   -161.57277   -12206.432    4.2469694    4.2469694    4.2469694   -12206.432    -23428.13    22593.624   -35784.789   -492.42058   -49800.093    -3293.275    76.601523 
   16500    1029.0128   -162.51041   0.93107241   -161.57934   -15855.875    4.2437803    4.2437803    4.2437803   -15855.875   -28873.929    16438.239   -35131.934   -1266.0103   -59016.506   -4245.2644    76.429087 
   16600    428.35764   -161.97785   0.38758699   -161.59026    514.08475    4.2533815    4.2533815    4.2533815    514.08475   -79572.821    117441.45   -36326.377    2395.1864   -83910.056   -10111.732    76.949008 
   16700     905.0287   -162.39857   0.81888899   -161.57968    -4577.079     4.258792     4.258792     4.258792    -4577.079   -34222.623    12785.046    7706.3407   -3373.0572   -63710.414   -7175.3904    77.243029 
   16800     1238.563   -162.69671    1.1206778   -161.57603    -23833.14    4.2481813    4.2481813    4.2481813    -23833.14   -32011.649   -15341.902    -24145.87    21732.962    -56609.49   -1939.6587    76.667119 
   16900    988.99121   -162.48379   0.89486003   -161.58893    20225.552    4.2374278    4.2374278    4.2374278    20225.552   -17238.808     109023.8   -31108.338    16691.319   -62141.843    12436.064    76.086381 
   17000    1029.3836   -162.53824   0.93140795   -161.60683   -19809.858    4.2504818    4.2504818    4.2504818   -19809.858   -24990.151    2011.1481   -36450.571    40251.184   -47603.678    12302.223    76.791735 
   17100    934.19745   -162.44614   0.84528148   -161.60086   -42628.546    4.2611363    4.2611363    4.2611363   -42628.546    -64358.56   -25343.698   -38183.379    29142.012   -52521.566    10708.865    77.370658 
   17200    770.28536   -162.29409   0.69697038   -161.59712     16523.46    4.2515162    4.2515162    4.2515162     16523.46    -26925.17    93082.169   -16586.618    20771.437   -66654.126    2303.2681    76.847813 
   17300    986.76421   -162.48559     0.892845   -161.59275   -4051.5503    4.2476733    4.2476733    4.2476733   -4051.5503   -12016.927   -5210.3473    5072.6236    50190.148   -61106.249    -8026.759    76.639614 
   17400    922.00749   -162.43053   0.83425175   -161.59628   -938.30562    4.2430954    4.2430954    4.2430954   -938.30562   -47367.767   -3208.1554    47761.006    36843.585   -66176.457   -5332.3397    76.392088 
   17500    957.49467    -162.4717    0.8663613   -161.60534    -1633.886    4.2436239    4.2436239    4.2436239    -1633.886   -60546.314    83435.068   -27790.412    29879.607   -68622.226   -9110.5932    76.420639 
   17600     1131.277   -162.62263    1.0236032   -161.59902   -18941.572    4.2509916    4.2509916    4.2509916   -18941.572    -51088.64   -3741.6404   -1994.4356    53124.684   -46186.827   -1179.5481    76.819373 
   17700    1063.0252   -162.55517    0.9618475   -161.59333    1221.2833    4.2480881    4.2480881    4.2480881    1221.2833   -7499.4176   -24077.655    35240.923    42803.361   -40945.671   -1730.3446     76.66207 
   17800    1175.5486   -162.65101    1.0636611   -161.58735    14888.063    4.2500303    4.2500303    4.2500303    14888.063   -50926.666    83426.743     12164.11     40429.55    -49953.61     -546.753    76.767267 
   17900    1447.8682    -162.8935    1.3100616   -161.58344   -21462.166    4.2507486    4.2507486    4.2507486   -21462.166   -49590.703   -15322.409    526.61286    26003.258   -37534.908    -608.3966    76.806198 
   18000    1354.2267   -162.80916    1.2253328   -161.58382   -2851.6262    4.2445514    4.2445514    4.2445514   -2851.6262    3825.7142   -30444.231    18063.638    31931.561   -32987.776    5290.1795    76.470755 
   18100    1266.3287   -162.73807    1.1458008   -161.59227    6317.0593    4.2536141    4.2536141    4.2536141    6317.0593   -35462.892    57616.588   -3202.5178    11218.091   -37048.372    3727.6451    76.961631 
   18200    1602.1044   -163.03218    1.4496177   -161.58256    -5890.288    4.2537938    4.2537938    4.2537938    -5890.288   -11745.207   -39711.952    33786.296   -12961.547   -40369.074    18271.455    76.971385 
   18300    1796.1127   -163.20148    1.6251605   -161.57632    7775.5718    4.2466582    4.2466582    4.2466582    7775.5718    47096.602   -28463.528    4693.6408    6117.4645   -27151.518    5965.4296    76.584686 
   18400    1944.7384   -163.34007    1.7596401   -161.58043   -26988.204    4.2600747    4.2600747    4.2600747   -26988.204   -42945.738     2748.185   -40767.057   -9636.2885   -2972.8843    15084.477    77.312843 
   18500    2096.4964   -163.46748     1.896954   -161.57053   -18128.656    4.2654368    4.2654368    4.2654368   -18128.656    24382.173   -51232.999   -27535.141    2705.0141   -4898.2067    9024.2784    77.605151 
   18600    2216.2386   -163.56422    2.0052992   -161.55892    23137.898    4.2401507    4.2401507    4.2401507    23137.898    25230.151    15036.555     29146.99    18484.023    690.05023    12502.376    76.233152 
   18700    2377.5287   -163.71847    2.1512379   -161.56723      41983.4    4.2373694    4.2373694    4.2373694      41983.4    7979.3171    65245.621     52725.26    7264.2034   -6979.1541    17390.936    76.083238 
   18800    2531.6552   -163.86268    2.2906948   -161.57198   -18367.044    4.2671331    4.2671331    4.2671331   -18367.044   -25768.571    4138.6058   -33471.167    11221.322    11120.654    823.82504    77.697773 
   18900    2760.8069    -164.0548    2.4980361   -161.55677    -33609.68    4.2554258    4.2554258    4.2554258    -33609.68   -59677.707   -4950.5616   -36200.772    1505.0043     17034.25   -2992.8297    77.060012 
   19000     2590.147   -163.89576    2.3436194   -161.55214    34088.842    4.2328247    4.2328247    4.2328247    34088.842    2824.2844    61110.758    38331.483    14176.715    482.46655    8622.9825    75.838693 
   19100    2815.8325   -164.12113    2.5478244   -161.57331    21910.994    4.2377989    4.2377989    4.2377989    21910.994   -3726.7341    56961.093    12498.624     -1330.22     260.6637    8982.4956    76.106371 
   19200    2565.6262   -163.90767    2.3214325   -161.58623   -1116.1276    4.2567478    4.2567478    4.2567478   -1116.1276   -35835.645    70848.049   -38360.787    4673.1387     -3633.11   -14734.399    77.131853 
   19300    2308.6931   -163.66595     2.088954     -161.577    10531.847    4.2514282    4.2514282    4.2514282    10531.847   -18807.087     65008.88   -14606.253   -3074.5469    4819.2066   -1945.4164    76.843042 
   19400    2322.3788    -163.6745    2.1013371   -161.57317   -23397.423    4.2518106    4.2518106    4.2518106   -23397.423   -39719.581    20737.734   -51210.421    10352.738    900.91135   -6316.6964    76.863779 
   19500    2093.0536   -163.47176    1.8938388   -161.57792    3328.8452    4.2415885    4.2415885    4.2415885    3328.8452   -2914.8604    46484.918   -33583.522   -11300.703   -17400.938   -3176.0492    76.310728 
   19600    2229.8974    -163.5948    2.0176581   -161.57714    31554.139     4.228998     4.228998     4.228998    31554.139    38589.536    67443.429   -11370.548    15320.253   -2912.0365    286.73921    75.633196 
   19700    1991.3596   -163.39361    1.8018241   -161.59178   -39292.379    4.2644879    4.2644879    4.2644879   -39292.379   -51695.443    16776.066   -82957.761    612.54482   -5276.0831   -14508.166    77.553368 
   19800    1473.1219   -162.90688    1.3329117   -161.57397   -16756.595    4.2552042    4.2552042    4.2552042   -16756.595    10558.466   -3704.1717    -57124.08    9652.7997   -19296.391    11207.493    77.047971 
   19900    1440.1275   -162.86183    1.3030577   -161.55877    19359.329    4.2259169    4.2259169    4.2259169    19359.329    5220.7177    59545.537   -6688.2679    6563.2504   -16496.596    15807.777    75.468005 
   20000    1482.7984   -162.92989    1.3416672   -161.58823    9024.9043    4.2363124    4.2363124    4.2363124    9024.9043    26890.743    36559.358   -36375.389    1333.9199   -15925.499    20709.753    76.026317 
   20100    1522.2601   -162.97214    1.3773729   -161.59477   -12778.557    4.2490195    4.2490195    4.2490195   -12778.557    4123.7703   -16526.142   -25933.298    2384.7531   -19805.788    21477.135    76.712507 
   20200    1241.4307   -162.71559    1.1232726   -161.59232   -1256.0222     4.259381     4.259381     4.259381   -1256.0222   -50681.272    72840.022   -25926.817   -13166.209   -31147.467   -523.71433    77.275082 
   20300    1265.9692   -162.73392    1.1454755   -161.58845    -22198.82    4.2461739    4.2461739    4.2461739    -22198.82   -35046.985   -12342.459   -19207.017   -11784.897    -11229.56    11044.946    76.558485 
   20400    1355.6842   -162.80137    1.2266516   -161.57472    16769.939    4.2181292    4.2181292    4.2181292    16769.939   -9968.1688    18691.843    41586.142   -37107.457   -19219.744   -4918.1964    75.051544 
   20500    1258.6208    -162.7537    1.1388265   -161.61488    7695.5317    4.2447669    4.2447669    4.2447669    7695.5317   -25978.448     34517.96    14547.084   -20026.829   -13552.269   -14602.239    76.482405 
   20600    1242.3195   -162.70715    1.1240768   -161.58308   -39935.271    4.2645624    4.2645624    4.2645624   -39935.271    -51497.03   -69173.865    865.08225   -42677.197   -6308.6065    1628.6698    77.557432 
   20700    1370.1806   -162.80717    1.2397682    -161.5674    10434.381    4.2331542    4.2331542    4.2331542    10434.381   -46968.967    16593.765    61678.346   -36846.719   -6351.3757    -25908.76    75.856407 
   20800    1359.4771   -162.81105    1.2300835   -161.58097    5823.0543    4.2347408    4.2347408    4.2347408    5823.0543    -28653.65    22141.115    23981.697   -32767.269    1909.9535   -17713.942    75.941731 
   20900    1444.9723   -162.89542    1.3074413   -161.58798   -13512.965    4.2430073    4.2430073    4.2430073   -13512.965    -17109.19   -36220.584    12790.879   -54677.108   -4948.6809   -9662.6556    76.387334 
   21000    1660.1751   -163.09581    1.5021613   -161.59365    10486.449    4.2469113    4.2469113    4.2469113    10486.449   -10375.395   -30090.782    71925.523   -37265.828    14156.571   -11556.188     76.59838 
   21100    1812.0906   -163.22283    1.6396176   -161.58321   -33431.109    4.2609465    4.2609465    4.2609465   -33431.109   -43353.463   -26136.535   -30803.328   -26852.685    4557.0294   -15610.801    77.360318 
   21200    1776.3641   -163.19005    1.6072916   -161.58276    9395.3891    4.2285494    4.2285494    4.2285494    9395.3891    29678.436   -798.22052   -694.04828   -21583.522    11627.133    13064.386    75.609126 
   21300    1804.3776   -163.22363    1.6326388   -161.59099    36514.921    4.2261311    4.2261311    4.2261311    36514.921    12878.064    55606.645    41060.054   -13102.071    9131.6923     10674.69     75.47948 
   21400    1921.0214   -163.32321    1.7381805   -161.58503   -37776.678     4.253484     4.253484     4.253484   -37776.678   -36265.384   -63555.574   -13509.075   -18361.827    2053.1771    23441.856     76.95457 
   21500    2043.1557   -163.41904    1.8486902   -161.57035    14.515944     4.244649     4.244649     4.244649    14.515944    33721.064   -11849.564   -21827.953    8744.6574   -3066.2504    23290.723    76.476033 
   21600    2134.3097   -163.50203    1.9311683   -161.57086    1124.2728    4.2504813    4.2504813    4.2504813    1124.2728     9549.655     28435.83   -34612.667    11096.738   -9364.2983    10039.003     76.79171 
   21700    2345.4647   -163.70085    2.1222257   -161.57863   -2237.0828    4.2333612    4.2333612    4.2333612   -2237.0828    -3472.708   -5546.5321    2307.9918   -8443.8167    -5333.365    17604.531    75.867533 
   21800    2485.0898   -163.83582    2.2485614   -161.58726    44387.798    4.2239179    4.2239179    4.2239179    44387.798     40416.26    85645.163    7101.9718    10002.437   -24279.043   -8858.2679    75.360955 
   21900    2649.2745   -163.99435    2.3971192   -161.59723   -21072.162     4.254638     4.254638     4.254638   -21072.162   -7500.2175   -17897.608   -37818.659    8474.3604   -4842.6884    5735.8682    77.017222 
   22000    2637.8507   -163.97209    2.3867827    -161.5853   -20104.024    4.2522888    4.2522888    4.2522888   -20104.024   -7320.8371   -20650.271   -32340.964    9990.6213   -10614.462   -9438.2283    76.889714 
   22100    2360.3427   -163.71273    2.1356877   -161.57704    7917.9441    4.2366486    4.2366486    4.2366486    7917.9441    31518.157    10128.661   -17892.986    26222.819    3498.4388   -17081.243    76.044415 
   22200    2254.5093   -163.62179    2.0399274   -161.58186   -5605.8544    4.2372585    4.2372585    4.2372585   -5605.8544    20666.093    14549.555   -52033.212     22235.21    14106.214    -12366.81     76.07726 
   22300    2297.1608   -163.66542    2.0785194    -161.5869   -3067.2145    4.2466288    4.2466288    4.2466288   -3067.2145    36606.598        17355   -63163.241    32973.053    9820.0508   -21335.462    76.583092 
   22400    2753.6085   -164.06945    2.4915228   -161.57792    -19969.64    4.2494498    4.2494498    4.2494498    -19969.64   -3607.1083   -11244.153   -45057.657    36141.651    26741.651     13180.78    76.735816 
   22500    2801.1173   -164.11042    2.5345098   -161.57591    222.33164    4.2428611    4.2428611    4.2428611    222.33164    9496.9788    11989.739   -20819.723    39841.271    8308.0675   -21058.108    76.379437 
   22600    2584.4095    -163.9128     2.338428   -161.57437    12015.042    4.2377139    4.2377139    4.2377139    12015.042    33306.846    38700.847   -35962.566    34613.243     26824.06    6863.5561    76.101797 
   22700    2281.0832   -163.64428     2.063972   -161.58031   -4950.3478    4.2394543    4.2394543    4.2394543   -4950.3478   -21271.035     51235.64   -44815.648    42016.626    19306.193    1958.5337    76.195597 
   22800    2314.0602   -163.67327    2.0938103   -161.57946    9333.0677    4.2433951    4.2433951    4.2433951    9333.0677    43676.266    18824.429   -34501.491    41770.859    6616.2687   -10560.557    76.408278 
   22900    2411.0618   -163.76253    2.1815794   -161.58095   -14130.941    4.2437837    4.2437837    4.2437837   -14130.941     7886.256   -20678.388    -29600.69    27995.031    20612.728    14336.582    76.429269 
   23000    2485.0594   -163.83107     2.248534   -161.58254    16511.205    4.2368995    4.2368995    4.2368995    16511.205    53007.629    14858.362   -18332.376    15132.644   -7711.8755   -13761.655    76.057929 
   23100    2381.0082   -163.74187    2.1543863   -161.58749   -13763.674    4.2381609    4.2381609    4.2381609   -13763.674    9957.6562   -41658.523   -9590.1545   -5307.0729    12887.743   -740.91894    76.125879 
   23200    2006.7365   -163.40691    1.8157374   -161.59117    7967.7695    4.2407519    4.2407519    4.2407519    7967.7695    23171.201   -2772.3313    3504.4383   -10576.616   -9333.6022   -4183.8578    76.265584 
   23300     1817.675    -163.2378    1.6446706   -161.59313   -9384.6361    4.2405174    4.2405174    4.2405174   -9384.6361   -18386.622    5866.5524   -15633.839   -21586.827   -16832.098    3242.8524    76.252934 
   23400    1464.6246   -162.92232    1.3252231   -161.59709   -9225.1331    4.2487698    4.2487698    4.2487698   -9225.1331     15655.86   -14939.153   -28392.106   -37187.587   -14064.663    3302.8375    76.698984 
   23500    1452.2877   -162.90684    1.3140604   -161.59278    16968.945    4.2389229    4.2389229    4.2389229    16968.945   -34367.611    72839.441    12435.006   -43184.872   -23793.143   -13554.264    76.166948 
   23600    1167.4457   -162.65089    1.0563294   -161.59456    9107.4444    4.2458055    4.2458055    4.2458055    9107.4444   -7609.7753   -26514.624    61446.733    -50278.09   -833.69376    3999.8004     76.53856 
   23700    954.16491   -162.44672   0.86334846   -161.58337   -12872.301    4.2568828    4.2568828    4.2568828   -12872.301   -99521.252    3744.0535    57160.295    -61985.67    -8621.268   -19007.023    77.139193 
   23800     1148.159   -162.61366    1.0388784   -161.57478    17470.568    4.2419152    4.2419152    4.2419152    17470.568   -28891.476   -23464.251    104767.43   -64563.698    3924.1546     1422.042    76.328362 
   23900     1185.265   -162.65377    1.0724527   -161.58131    6283.4114    4.2468744    4.2468744    4.2468744    6283.4114   -21948.541   -5141.8486    45940.624   -74827.308   -7464.4923    6521.9337    76.596381 
   24000    873.62033   -162.36863   0.79047004   -161.57816   -39565.797    4.2606855    4.2606855    4.2606855   -39565.797   -96472.996   -30014.812    7790.4165    -95003.34    11227.265    7484.4829    77.346103 
   24100    796.61444   -162.30227   0.72079348   -161.58147   -4973.4972     4.238468     4.238468     4.238468   -4973.4972   -25262.577   -46062.776    56404.862   -98738.178     6337.212     -6553.52    76.142428 
   24200    648.83516   -162.17607   0.58707969   -161.58899    9944.0562    4.2295237    4.2295237    4.2295237    9944.0562   -69191.263    45626.922     53396.51   -97088.854    18904.005    13782.011    75.661403 
   24300    795.28024   -162.32821   0.71958628   -161.60862   -35225.032    4.2423406    4.2423406    4.2423406   -35225.032   -52236.891   -78730.256    25292.052   -100252.17    12819.592    20562.359     76.35133 
   24400    793.34477   -162.32995   0.71783502   -161.61212    8948.9257    4.2445283    4.2445283    4.2445283    8948.9257   -58286.775    18937.457    66196.096    -101705.1     11129.66    8857.6676     76.46951 
   24500    597.07352    -162.1445   0.54024467   -161.60425   -12252.918    4.2497221    4.2497221    4.2497221   -12252.918   -34907.758   -60591.928    58740.932   -95564.241    15670.762    25537.198    76.750569 
   24600    595.68015   -162.13013   0.53898392   -161.59115   -7571.7289    4.2408813    4.2408813    4.2408813   -7571.7289   -30756.965   -17825.671    25867.449   -98071.841    4756.9237    16037.664    76.272562 
   24700    756.46767   -162.27357   0.68446785    -161.5891   -2666.2115    4.2346984    4.2346984    4.2346984   -2666.2115   -23142.333   -49676.003    64819.701   -100558.63    16686.701    29206.063    75.939451 
   24800    936.93581   -162.44299   0.84775921   -161.59523   -9260.9212    4.2456731    4.2456731    4.2456731   -9260.9212   -51484.889   -61133.862    84835.987   -80471.517    3023.4437    14924.444    76.531401 
   24900    1076.4708   -162.55473   0.97401344   -161.58072   -15466.876    4.2552687    4.2552687    4.2552687   -15466.876   -18145.262   -38883.259    10627.891   -61012.173     7679.101    15364.133    77.051477 
   25000    1317.5345   -162.76251    1.1921329   -161.57037    11749.689    4.2468042    4.2468042    4.2468042    11749.689    39764.693   -44825.885    40310.258   -43728.839   -1465.4439    15028.784    76.592582 
   25100    1756.5386   -163.15524     1.589353   -161.56588   -4603.5591    4.2345685    4.2345685    4.2345685   -4603.5591   -45239.286   -22295.669    53724.278   -39615.165   -4991.9101    6129.2723    75.932466 
   25200     2011.812   -163.39877    1.8203297   -161.57844   -1235.6114    4.2312448    4.2312448    4.2312448   -1235.6114   -32832.413   -1409.4434    30535.023    -25740.47    -3329.008   -6339.0103    75.753808 
   25300    2306.6576   -163.67917    2.0871122   -161.59205   -2816.8854    4.2456813    4.2456813    4.2456813   -2816.8854   -25176.907    10958.482     5767.769   -8176.8069   -8920.6594   -4201.2546    76.531845 
   25400    2546.7355   -163.88789    2.3043398   -161.58355     -21084.2    4.2480477    4.2480477    4.2480477     -21084.2    -27314.17   -24438.999    -11499.43   -86.628885   -8725.1879    3126.6691    76.659886 
   25500    2615.7514   -163.93984    2.3667869   -161.57305    14274.997    4.2379689    4.2379689    4.2379689    14274.997    22744.582   -18973.085    39053.493    18089.044    -6387.342    -11170.13    76.115535 
   25600    2620.0479   -163.94401    2.3706744   -161.57334   -2962.7005    4.2430207    4.2430207    4.2430207   -2962.7005   -9347.2741    10443.309   -9984.1364    30345.318    6156.6268    7522.4406    76.388053 
   25700    2483.6885    -163.8197    2.2472935   -161.57241   -4487.9557    4.2402302    4.2402302    4.2402302   -4487.9557   -4962.4133    13671.457   -22172.911    33952.572   -3318.8601    12666.304    76.237438 
   25800    2525.7271    -163.8601     2.285331   -161.57477    20578.165    4.2421668    4.2421668    4.2421668    20578.165   -5157.7445    34466.491     32425.75    31785.184    4892.2522    21350.198    76.341944 
   25900    2712.0104   -164.02569     2.453884   -161.57181   -14959.574    4.2503999    4.2503999    4.2503999   -14959.574   -11168.068   -13406.389   -20304.264     21271.31    3872.3337     6725.688    76.787297 
   26000    2290.4122   -163.63658    2.0724131   -161.56417   -6921.8551    4.2447612    4.2447612    4.2447612   -6921.8551   -793.87634   -22741.649    2769.9605    5771.2283    9413.5984    32096.005    76.482099 
   26100    1866.9901   -163.25156    1.6892919   -161.56227    11999.809    4.2442531    4.2442531    4.2442531    11999.809   -17236.933     10684.33    42552.032   -15894.608    2307.0003    16284.212    76.454634 
   26200    1563.3327   -162.97867    1.4145362   -161.56413   -35861.648    4.2543693    4.2543693    4.2543693   -35861.648   -41845.181   -47810.969   -17928.795   -42376.284    7656.8447    14714.392    77.002632 
   26300    1218.4845   -162.67141    1.1025104    -161.5689    11513.148     4.246573     4.246573     4.246573    11513.148    9471.3081   -26170.725    51238.859   -63391.965   -7150.8926    15616.025    76.580075 
   26400    1351.2547   -162.79712    1.2226437   -161.57448    4773.0589    4.2385089    4.2385089    4.2385089    4773.0589   -8648.0447   -43206.606    66173.827   -79868.116    1315.1829    2412.3995    76.144634 
   26500    1199.7776   -162.66795     1.085584   -161.58237   -17010.944    4.2434966    4.2434966    4.2434966   -17010.944   -55133.243    -71226.82    75327.232   -94202.795   -9562.5602   -5456.5173    76.413761 
   26600    985.88673   -162.47463   0.89205103   -161.58258    18097.857    4.2462038    4.2462038    4.2462038    18097.857   -27378.302   -10612.453    92284.326   -96393.689    6710.5027   -2070.0403    76.560101 
   26700     910.0668   -162.40409   0.82344757   -161.58064   -33132.922    4.2541536    4.2541536    4.2541536   -33132.922   -68280.369   -74232.674    43114.278   -114809.53   -8642.3837   -11040.281    76.990916 
   26800    952.63021   -162.44304   0.86195983   -161.58108   -13816.414    4.2360882    4.2360882    4.2360882   -13816.414   -50765.982   -48999.016    58315.755   -122585.12   -4215.4145   -13770.792    76.014246 
   26900    1052.5904   -162.53798   0.95240592   -161.58557     40369.89    4.2291493    4.2291493    4.2291493     40369.89    28140.362    8804.6476    84164.661   -104112.21   -5919.1215   -16113.366    75.641313 
   27000    958.20273   -162.45452   0.86700197   -161.58752   -42449.255      4.25396      4.25396      4.25396   -42449.255   -58373.853   -85422.305    16448.394   -112345.87   -5118.8547   -9562.4765    76.980405 
   27100    1049.5629   -162.53032   0.94966659   -161.58065    5733.3673    4.2454504    4.2454504    4.2454504    5733.3673   -35541.072    14507.768    38233.407   -88819.994    7111.1933   -1343.1657    76.519358 
   27200    1444.2306   -162.88122    1.3067702   -161.57445    22111.355    4.2423792    4.2423792    4.2423792    22111.355   -6513.6398    4479.9345     68367.77   -53599.451    6827.7199    5059.4075    76.353411 
   27300    1822.8584   -163.21791    1.6493606   -161.56855    -22469.37    4.2501859    4.2501859    4.2501859    -22469.37   -46268.194   -40352.784    19212.867   -24560.083    17337.205    13950.479    76.775702 
   27400    2185.0471   -163.53948    1.9770765    -161.5624   -7833.2905     4.244734     4.244734     4.244734   -7833.2905   -19668.356   -20733.445    16901.929    11095.505    5739.6432    3003.7836    76.480629 
   27500    2132.3684   -163.48906    1.9294118   -161.55965    21866.638    4.2481415    4.2481415    4.2481415    21866.638   -1472.7088    29929.665    37142.958    29673.792    6236.9249    11680.124     76.66496 
   27600    2415.3452   -163.73817    2.1854551   -161.55271   -1840.1579     4.248353     4.248353     4.248353   -1840.1579    8523.1332   -2971.9756   -11071.631    39110.795   -7420.2232   -8533.1691    76.676413 
   27700    2848.3393    -164.1317    2.5772373   -161.55446    7895.6892    4.2397826    4.2397826    4.2397826    7895.6892     31511.63   -4583.9444   -3240.6177    47944.085    2525.1257     6370.007    76.213301 
   27800    2913.5829   -164.20131     2.636271   -161.56503    4917.4055     4.241155     4.241155     4.241155    4917.4055    50703.324   -23369.814   -12581.293    40440.022   -14538.665    -17822.56    76.287332 
   27900    2750.6039   -164.05982    2.4888042   -161.57102    14466.055    4.2360423    4.2360423    4.2360423    14466.055    31321.421    5054.7967    7021.9476    28048.263    3761.7194    5519.9731    76.011773 
   28000    2169.2313   -163.54195    1.9627661   -161.57918     1220.801    4.2474372    4.2474372    4.2474372     1220.801   -18224.313   -17342.859    39229.575     6202.331   -13146.553   -7359.6842    76.626837 
   28100    1545.9778   -162.96293    1.3988332    -161.5641   -34952.311    4.2616843    4.2616843    4.2616843   -34952.311   -68702.163   -34501.061   -1653.7092   -23616.882   -4798.4142    2951.0873     77.40051 
   28200    1549.4359   -162.96029    1.4019622   -161.55833   -13194.054    4.2431344    4.2431344    4.2431344   -13194.054   -41052.504   -40364.244    41834.586   -55159.081   -5115.5928   -16016.624    76.394194 
   28300    1219.7563   -162.66358    1.1036611   -161.55992    27426.174    4.2314772    4.2314772    4.2314772    27426.174   -18750.001    4680.5852    96347.938   -87520.577   -4861.3281   -609.64725    75.766289 
   28400    850.08011   -162.35037   0.76917035    -161.5812    -26800.32    4.2511781    4.2511781    4.2511781    -26800.32   -57333.883   -47933.451    24866.374   -103348.86    3915.2463    14007.499     76.82948 
   28500    588.03374    -162.1091   0.53206529   -161.57704   -13946.052    4.2545438    4.2545438    4.2545438   -13946.052   -74661.152    4666.2955      28156.7   -103857.14     9481.421    1648.4928    77.012108 
   28600    592.81597   -162.10839   0.53639235     -161.572    5440.1615    4.2430488    4.2430488    4.2430488    5440.1615   -77371.188   -32536.826     126228.5   -112660.08     11564.26    7790.6655    76.389575 
   28700    906.54363   -162.39165   0.82025973   -161.57139   -10848.726    4.2398867    4.2398867    4.2398867   -10848.726   -61344.603   -58846.045    87644.471   -114720.01   -4825.4942    6311.3811    76.218915 
   28800    1176.7972    -162.6375    1.0647909   -161.57271    14824.056    4.2474873    4.2474873    4.2474873    14824.056   -14502.245    -3217.729    62192.142   -86593.454    3397.0625    3440.4634    76.629548 
   28900    1230.5532   -162.67299    1.1134304   -161.55956   -14144.832    4.2593179    4.2593179    4.2593179   -14144.832   -68380.234   -52274.073     78219.81   -72928.189   -2732.0457    583.20942    77.271645 
   29000    1546.9245   -162.95002    1.3996898   -161.55033   -2356.7827    4.2482677    4.2482677    4.2482677   -2356.7827   -40089.231   -9832.4987    42851.382   -40990.063   -2557.2849   -2001.5608    76.671792 
   29100    2145.0483   -163.49066    1.9408848   -161.54977    10928.151    4.2415732    4.2415732    4.2415732    10928.151   -24441.963     32011.66    25214.754   -12224.134    4991.1792   -10907.447    76.309904 
   29200    2567.4275   -163.88292    2.3230624   -161.55986    1952.3128    4.2397646    4.2397646    4.2397646    1952.3128    14762.711   -19114.322    10208.549   -1032.2077   -5587.2164    2198.4168    76.212331 
   29300    2546.8393   -163.87682    2.3044338   -161.57238    12842.451    4.2428926    4.2428926    4.2428926    12842.451    48001.843    9374.4878   -18848.978    28756.835   -10628.729    4496.8884    76.381139 
   29400    2396.1656   -163.73923     2.168101   -161.57113   -7780.1905    4.2531634    4.2531634    4.2531634   -7780.1905   -26172.387   -3840.0062    6671.8214    33733.178    9615.5426    3855.2365    76.937171 
   29500    2359.0125   -163.69872    2.1344841   -161.56424   -20494.583     4.252267     4.252267     4.252267   -20494.583   -8504.2013   -28780.682   -24198.866    37593.743    1498.9787   -1764.4954    76.888532 
   29600    2392.5463   -163.72367    2.1648262   -161.55884    372.68842    4.2407816    4.2407816    4.2407816    372.68842    44654.477   -13694.103   -29842.309    40156.514   -8315.8397    10982.589    76.267185 
   29700    2356.6265   -163.69903    2.1323252    -161.5667    18129.688    4.2402749    4.2402749    4.2402749    18129.688    27521.751   -9739.9395    36607.252    27049.326   -6482.1556    6763.6489    76.239852 
   29800     1993.236   -163.37713    1.8035218   -161.57361   -19965.168    4.2523807    4.2523807    4.2523807   -19965.168    4995.6028   -34118.087   -30773.021    28641.136    2458.8434    10254.519      76.8947 
   29900    1731.6004   -163.14073    1.5667884   -161.57394    8897.1181    4.2391161    4.2391161    4.2391161    8897.1181    26082.523   -4256.9377    4865.7688     25329.29    6814.4064    16322.917    76.177363 
   30000    1517.6102   -162.95451    1.3731656   -161.58134    27564.819    4.2352301    4.2352301    4.2352301    27564.819    39548.289   -21853.162    64999.329    11238.981   -6051.1246    13731.134    75.968061 
   30100    1432.4172   -162.88254    1.2960812   -161.58646    -17963.61    4.2519236    4.2519236    4.2519236    -17963.61    18181.858   -45097.601   -26975.088    9393.1083      10545.1    18696.739    76.869905 
   30200    1641.7334   -163.07015    1.4854749   -161.58468    3361.8583    4.2426186    4.2426186    4.2426186    3361.8583    28412.816   -47808.156    29480.915    16435.028   -3103.4534    1489.9215    76.366342 
   30300    1513.7929   -162.95918    1.3697116   -161.58947   -19683.579    4.2416112    4.2416112    4.2416112   -19683.579    5992.9454    -78475.66    13431.977        13421    3581.9623    13482.996    76.311952 
   30400    1089.2644   -162.58165   0.98558932   -161.59606   -10475.114    4.2366149    4.2366149    4.2366149   -10475.114   -7916.6823   -32837.296     9328.635    25063.657    16509.004    13589.185      76.0426 
   30500    1053.7323   -162.55351   0.95343917   -161.60007    18193.274    4.2287787    4.2287787    4.2287787    18193.274   -14503.552   -38874.901    107958.27    41997.423   -4607.0941    12790.467    75.621426 
   30600    1020.1367     -162.531   0.92304113   -161.60796   -24945.542    4.2469283    4.2469283    4.2469283   -24945.542   -12277.237   -85780.748    23221.358    42361.423    6975.2601    8458.1218    76.599299 
   30700     1271.309   -162.75013    1.1503071   -161.59982      24537.1    4.2394184    4.2394184    4.2394184      24537.1    -21971.34    2521.9041    93060.737    44824.013    969.80299    14292.774    76.193661 
   30800    1288.0553   -162.76161    1.1654595   -161.59615   -14637.713    4.2354119    4.2354119    4.2354119   -14637.713   -39980.467   -43253.548    39320.875    59823.338   -7304.9102    4478.0082    75.977845 
   30900     1219.152   -162.70369    1.1031144   -161.60057   -4209.8868     4.237543     4.237543     4.237543   -4209.8868    -43846.85   -35825.914    67043.103    61668.501   -4400.3771    11799.078    76.092586 
   31000    1216.8672   -162.70409     1.101047   -161.60305    17538.409    4.2346821    4.2346821    4.2346821    17538.409   -62060.861    25756.538    88919.552    66776.232    2542.0282   -5413.9525    75.938576 
   31100    1180.1471   -162.67068    1.0678219   -161.60286   -21506.073    4.2459095    4.2459095    4.2459095   -21506.073   -81259.434   -27177.636    43918.851    71362.874   -8798.3556    3037.9228    76.544186 
   31200    1340.0237   -162.80707    1.2124816   -161.59459    -3352.307    4.2435859    4.2435859    4.2435859    -3352.307   -31679.264    -25861.93    47484.272    82520.023    1103.5496   -5875.7034    76.418584 
   31300    1331.3607   -162.79672    1.2046431   -161.59207     8734.651    4.2380716    4.2380716    4.2380716     8734.651   -17138.193   -2822.6459    46164.792    95443.515     6517.262   -9912.8532    76.121069 
   31400    1123.7783   -162.61249    1.0168183   -161.59568    -11619.35    4.2414371    4.2414371    4.2414371    -11619.35   -40794.897   -37531.254    43468.099    94385.186    1535.8087   -4174.1572    76.302559 
   31500     918.6565   -162.42981   0.83121971   -161.59859    2122.9856    4.2412086    4.2412086    4.2412086    2122.9856   -24319.827     2036.472    28652.311    96685.406    19029.893   -8325.0673    76.290224 
   31600    775.93663   -162.30487   0.70208377   -161.60279   -15271.523    4.2388935    4.2388935    4.2388935   -15271.523   -75762.685   -16339.163    46287.278     98539.99    19092.561    1825.1755    76.165363 
   31700    908.95985    -162.4262   0.82244597   -161.60375    16724.413    4.2332488    4.2332488    4.2332488    16724.413    36072.845   -68616.001    82716.394    92346.282     11220.68   -1022.9116    75.861494 
   31800    1137.8538   -162.63683     1.029554   -161.60727    -4107.818    4.2414126    4.2414126    4.2414126    -4107.818   -24331.519   -15198.672    27206.737    80746.093    7034.8515    9656.8405    76.301234 
   31900    1206.9552   -162.69269    1.0920784   -161.60061   -9576.7771    4.2452317    4.2452317    4.2452317   -9576.7771   -12545.067   -47452.692    31267.429    67568.952    8736.0771    9701.3852    76.507533 
   32000    1338.6965   -162.80263    1.2112807   -161.59135   -2403.8663    4.2409989    4.2409989    4.2409989   -2403.8663   -42871.094   -19544.503    55203.998    61109.431   -5066.5427    7086.9231    76.278913 
   32100    1400.7957   -162.85807    1.2674694    -161.5906   -17893.077    4.2405794    4.2405794    4.2405794   -17893.077   -57846.403    -20493.89    24661.061    53908.744   -9329.2863    17519.472    76.256278 
   32200    1784.3261   -163.20255    1.6144958   -161.58805    904.89732     4.238723     4.238723     4.238723    904.89732     2941.416    -18751.36    18524.636    34400.199   -4594.9178    3651.4701    76.156172 
   32300    2137.6246   -163.52314    1.9341677   -161.58897    485.91623    4.2414434    4.2414434    4.2414434    485.91623   -19681.334    9161.5712    11977.512    34492.776   -20358.006    1619.9268    76.302898 
   32400    2210.6578   -163.58816    2.0002496   -161.58791   -9064.9808    4.2430006    4.2430006    4.2430006   -9064.9808    -25169.01    -29678.82    27652.887    13079.314    -4068.606   -5116.4952    76.386967 
   32500    2192.8464   -163.56922    1.9841335   -161.58509   -2310.3518    4.2439019    4.2439019    4.2439019   -2310.3518   -50783.416    19491.416    24360.945    3598.3476   -3958.4965   -11452.482    76.435659 
   32600    2344.7417   -163.70585    2.1215716   -161.58428   -10733.036    4.2415739    4.2415739    4.2415739   -10733.036   -43487.282     14269.82    -2981.646   -12438.907    6848.3131   -9289.5052    76.309938 
   32700    2455.0885   -163.80388    2.2214157   -161.58246    826.31431    4.2404996    4.2404996    4.2404996    826.31431   -13651.083    9259.3588    6870.6669   -25787.486    15596.816   -226.31672    76.251973 
   32800    2659.4933   -163.98979    2.4063654   -161.58342    2076.2411    4.2404646    4.2404646    4.2404646    2076.2411    349.06869    844.30538    5035.3493   -28281.529    17411.112   -2046.9401    76.250082 
   32900    2452.4674   -163.79941    2.2190441   -161.58037   -14557.516    4.2421934    4.2421934    4.2421934   -14557.516    5929.2336   -11482.458   -38119.325    -45488.58    30886.583    15604.925    76.343381 
   33000    2026.5702    -163.4072    1.8336833   -161.57351   -5958.0082    4.2490367    4.2490367    4.2490367   -5958.0082   -36678.094    32843.949    -14039.88   -35393.135    29493.221    7929.6539    76.713436 
   33100    2059.8015    -163.4349    1.8637516   -161.57115    1702.4129    4.2384197    4.2384197    4.2384197    1702.4129    1007.8451    8598.8823   -4499.4886   -34932.195    27304.408     12104.02    76.139828 
   33200    2242.4349   -163.60749    2.0290022   -161.57849   -9148.0456    4.2361157    4.2361157    4.2361157   -9148.0456    5467.7325    -118.4011   -32793.468   -33046.443    27335.919    26416.722    76.015726 
   33300    2283.3514   -163.64956    2.0660243   -161.58354    -303.0292    4.2455106    4.2455106    4.2455106    -303.0292    1950.1656    18851.387    -21710.64   -25191.556    29273.144    13538.088     76.52261 
   33400    1956.9692   -163.35163    1.7707069   -161.58093    13660.465    4.2403018    4.2403018    4.2403018    13660.465     33484.07    13328.922   -5831.5961   -31106.989    9774.3229    22082.473    76.241301 
   33500    1603.5529   -163.03356    1.4509284   -161.58263   -13396.192    4.2413255    4.2413255    4.2413255   -13396.192   -21285.317    4154.5379   -23057.797   -21970.007    16215.294    34956.959    76.296532 
   33600    1795.3142   -163.20945     1.624438   -161.58501    4495.7634    4.2415712    4.2415712    4.2415712    4495.7634   -19738.002    25414.236    7811.0556    -22479.81    7809.3366    18664.197    76.309794 
   33700     1874.702   -163.28033    1.6962698   -161.58406   -4414.7025    4.2381613    4.2381613    4.2381613   -4414.7025    19875.735   -3835.3227    -29284.52   -29848.892   -16019.997     17889.03    76.125899 
   33800    1707.1133   -163.13249     1.544632   -161.58786   -3295.3196    4.2446896    4.2446896    4.2446896   -3295.3196    25944.854   -2946.0121     -32884.8   -8820.0777   -5720.9314    21539.336    76.478227 
   33900     1353.131   -162.81395    1.2243414   -161.58961    10571.335    4.2435367    4.2435367    4.2435367    10571.335    12136.651    26952.718   -7375.3641   -15748.333   -14300.762    5071.2039    76.415926 
   34000    722.96333   -162.24364   0.65415242   -161.58949   -23791.778    4.2382819    4.2382819    4.2382819   -23791.778   -36914.976    29986.055   -64446.412   -25205.499   -35283.939   -11408.701    76.132398 
   34100    615.09198   -162.15218   0.55654815   -161.59563    3093.9136    4.2386047    4.2386047    4.2386047    3093.9136   -7788.8487    47907.934   -30837.345   -7879.3529   -20862.865   -306.91558    76.149796 
   34200    885.27829   -162.40035   0.80101841   -161.59933    -6851.999    4.2467191    4.2467191    4.2467191    -6851.999    20325.291   -18947.996   -21933.292     -17016.9   -34517.838    -21409.53    76.587979 
   34300    928.06775   -162.43563   0.83973521   -161.59589    13579.419    4.2458013    4.2458013    4.2458013    13579.419    12692.647    83768.422   -55722.814   -12787.514     -37521.5    -15524.28    76.538331 
   34400    962.63805   -162.45605   0.87101514   -161.58503   -14172.998    4.2472111    4.2472111    4.2472111   -14172.998   -4099.4664    -3833.724   -34585.804   -1730.9978   -35175.563   -26361.365    76.614602 
   34500     721.8254   -162.23745   0.65312279   -161.58432   -3292.0975    4.2441546    4.2441546    4.2441546   -3292.0975    -16395.88    14675.484   -8155.8972   -10482.345   -29607.845   -31465.807    76.449312 
   34600    510.26158   -162.04712    0.4616954   -161.58543    10361.186    4.2424066    4.2424066    4.2424066    10361.186   -46919.447    105359.47   -27356.462    2776.6064   -38045.118    -33246.05    76.354895 
   34700    709.35261   -162.22867   0.64183715   -161.58683   -33456.038    4.2480137    4.2480137    4.2480137   -33456.038   -65041.372   -6179.9943   -29146.748    3576.0218   -29636.119   -30516.499    76.658042 
   34800    1011.5736   -162.50471   0.91529304   -161.58942    1267.3232    4.2345995    4.2345995    4.2345995    1267.3232    16469.831    10734.043   -23401.905    6927.0318   -21094.523   -38515.828    75.934131 
   34900    1394.4332   -162.85546    1.2617125   -161.59375    5089.8842    4.2389455    4.2389455    4.2389455    5089.8842   -19511.133    35797.584    -1016.799    7270.7478   -32176.829   -40343.371    76.168168 
   35000    1421.0013    -162.8767    1.2857518   -161.59094   -30166.328    4.2484576    4.2484576    4.2484576   -30166.328    -47033.99    8626.7037   -52091.698    14896.596   -50239.532   -19063.669    76.682079 
   35100    1433.2664   -162.88403    1.2968495   -161.58718    27883.257    4.2352349    4.2352349    4.2352349    27883.257    2097.2997    54773.929    26778.543      10741.7   -35293.224   -26315.422    75.968316 
   35200    1633.3217   -163.07017    1.4778638    -161.5923    -15159.84    4.2422699    4.2422699    4.2422699    -15159.84   -42228.915    2916.4349   -6167.0405     8929.952   -36724.161   -3025.8926    76.347511 
   35300    1782.0526   -163.20555    1.6124387   -161.59311   -18243.926    4.2428849    4.2428849    4.2428849   -18243.926    14867.824   -31928.541   -37671.061    25336.533   -41121.975   -1430.1067    76.380718 
   35400    1925.6583   -163.33369    1.7423761   -161.59131    23295.888    4.2346734    4.2346734    4.2346734    23295.888    25785.334   -16932.834    61035.163   -2575.7381   -21623.348    5768.8079    75.938104 
   35500    2054.4246   -163.45439    1.8588866   -161.59551   -13718.581    4.2424972    4.2424972    4.2424972   -13718.581   -3365.1107   -12845.658   -24944.975    8155.2928   -21411.342    13797.321    76.359784 
   35600    2211.1276    -163.5868    2.0006747   -161.58613   -6493.7514    4.2441695    4.2441695    4.2441695   -6493.7514   -28955.834    13028.241   -3553.6612    13750.396    9381.2845    8312.4815    76.450119 
   35700     2369.263   -163.72015     2.143759   -161.57639    2101.5494    4.2497811    4.2497811    4.2497811    2101.5494   -17822.302    26517.857    -2390.907    3099.8901    -5726.299    11051.364    76.753764 
   35800    2553.2237   -163.87608    2.3102104   -161.56587   -532.77691    4.2519812    4.2519812    4.2519812   -532.77691     7086.706    29294.896   -37979.932     12852.87    2971.9025    12776.156    76.873031 
   35900    2720.2164   -164.01759    2.4613089   -161.55628     16024.71    4.2360958    4.2360958    4.2360958     16024.71    14165.532    32348.463    1560.1359    2905.1782   -1376.7421    6281.2803    76.014653 
   36000    2666.7855   -163.97748    2.4129636   -161.56451    1026.7182     4.241896     4.241896     4.241896    1026.7182   -17586.697    46733.962   -26067.111    14567.618    -5191.338    7421.8379    76.327327 
   36100    2556.5762    -163.8849    2.3132439   -161.57165   -4256.2307     4.241662     4.241662     4.241662   -4256.2307   -607.64067    -3930.338   -8230.7134    20750.323     3928.191     19432.68    76.314697 
   36200    2500.7144    -163.8377     2.262699     -161.575    2944.8608    4.2365676    4.2365676    4.2365676    2944.8608    -7887.772    14472.678    2249.6767    7021.8056   -5501.5489    825.94597    76.040057 
   36300    2466.9996   -163.81347    2.2321931   -161.58128   -16973.493    4.2442157    4.2442157    4.2442157   -16973.493   -2726.0568   -25260.726   -22933.697    22827.061     22220.35    14059.776    76.452616 
   36400    2332.2823   -163.68981     2.110298   -161.57951    5044.1178    4.2415516    4.2415516    4.2415516    5044.1178   -11427.913   -2631.3566    29191.623    8468.7907    13468.628   -6220.3773    76.308736 
   36500    2133.9274   -163.51291    1.9308224   -161.58209   -2431.5914    4.2437963    4.2437963    4.2437963   -2431.5914   -26717.265    34140.502   -14718.011    9111.6019     33529.01     20385.47    76.429953 
   36600    1848.7378   -163.25474    1.6727768   -161.58196   -2465.9257    4.2408305    4.2408305    4.2408305   -2465.9257   -43323.517    23387.912    12537.827    6288.6587    37547.495     1347.564    76.269821 
   36700    1717.7458   -163.13894    1.5542525   -161.58468   -9623.6249    4.2408433    4.2408433    4.2408433   -9623.6249   -56334.982   -7268.9243    34733.032     9911.619    41249.585    2963.7073    76.270513 
   36800    1723.6384    -163.1492    1.5595843   -161.58962   -15355.438    4.2432396    4.2432396    4.2432396   -15355.438   -36746.276   -7348.0512   -1971.9865   -1208.9944    40897.237    11937.627    76.399876 
   36900    1550.6122   -162.99218    1.4030265   -161.58916     20636.97    4.2361335    4.2361335    4.2361335     20636.97    13119.936    1178.6397    47612.334   -9846.2035    45430.563   -14887.175    76.016682 
   37000    1166.1094   -162.64627    1.0551203   -161.59115   -10896.953    4.2517018    4.2517018    4.2517018   -10896.953    -55541.98    17906.675    4944.4447   -8044.7919    27300.196    12910.449    76.857876 
   37100    993.38679   -162.48238   0.89883724   -161.58354    3340.7558    4.2478488    4.2478488    4.2478488    3340.7558   -30023.231    25506.789    14538.709   -30345.946    33685.695   -11108.398    76.649118 
   37200    878.77135   -162.37257   0.79513079   -161.57744   -7116.4783    4.2348376    4.2348376    4.2348376   -7116.4783   -14540.825   -14313.603    7504.9936   -38901.577    35743.059   -18569.649    75.946939 
   37300     723.9637    -162.2469   0.65505757   -161.59185   -382.47481    4.2418782    4.2418782    4.2418782   -382.47481   -34655.489    18963.254     14544.81   -24182.825    33018.783   -14310.104    76.326365 
   37400    935.10102   -162.44858   0.84609905   -161.60248   -20045.849    4.2440779    4.2440779    4.2440779   -20045.849    8200.0322   -65351.064   -2986.5157   -37117.762    22037.892   -29971.306    76.445168 
   37500    1004.6889    -162.5101   0.90906363   -161.60103    17386.149    4.2372056    4.2372056    4.2372056    17386.149    21874.662    19295.587    10988.197   -36321.067    16881.412   -22096.996    76.074415 
   37600    878.80303   -162.39267   0.79515945   -161.59751   -5457.9688    4.2446453    4.2446453    4.2446453   -5457.9688   -37795.272    8455.7616    12965.604   -6736.5071    8830.2392   -20774.673    76.475832 
   37700    903.45575   -162.41222   0.81746575   -161.59476   -17522.439    4.2427982    4.2427982    4.2427982   -17522.439   -29313.587   -36416.662     13162.93   -21877.384   -6771.9411   -20866.505    76.376041 
   37800     1113.859     -162.601     1.007843   -161.59316    32559.983     4.240221     4.240221     4.240221    32559.983    24124.625    42600.902    30954.422   -16541.342   -2227.2157   -16576.303    76.236946 
   37900    1242.3398   -162.71645    1.1240951   -161.59235   -25383.535    4.2495437    4.2495437    4.2495437   -25383.535    -6239.149    -38880.16   -31031.295   -7490.8206   -25167.495   -5509.5956    76.740899 
   38000    1061.5462   -162.55169   0.96050932   -161.59118   -3236.3967    4.2381296    4.2381296    4.2381296   -3236.3967    33349.857   -48526.834    5467.7875   -24046.639   -19704.364   -866.87654    76.124193 
   38100    1001.9364    -162.5015   0.90657309   -161.59492    1176.2635     4.243381     4.243381     4.243381    1176.2635   -19044.279     36336.87   -13763.801   -21616.583   -25548.301     1972.704    76.407514 
   38200    1075.1498     -162.563   0.97281817   -161.59018   -20652.768    4.2482854    4.2482854    4.2482854   -20652.768   -50303.015   -23339.617    11684.329   -6116.2293   -32413.594   -3814.2511    76.672753 
   38300    1411.5736   -162.86023    1.2772215   -161.58301    19044.849    4.2428286    4.2428286    4.2428286    19044.849    37982.641    22102.157   -2950.2506   -7601.2515   -25539.184    16030.397    76.377679 
   38400    1538.1788   -162.97026    1.3917765   -161.57848   -20397.359    4.2550826    4.2550826    4.2550826   -20397.359    -6937.972   -35734.821   -18519.285    637.16013   -23399.617    7823.1924    77.041367 
   38500    1594.2751   -163.01569    1.4425336   -161.57316   -5171.0799    4.2446315    4.2446315    4.2446315   -5171.0799   -20925.986    3557.3726    1855.3738    3603.0958   -27888.504    3079.5993    76.475086 
   38600    1542.3022   -162.97911    1.3955074    -161.5836    24376.204     4.230988     4.230988     4.230988    24376.204    26243.884    44193.649    2691.0803    10619.939   -16272.796    24622.177    75.740015 
   38700    1388.5654   -162.86306    1.2564032   -161.60666    -2356.331    4.2375176    4.2375176    4.2375176    -2356.331    5.5067849   -4914.0038   -2160.4959     16604.36   -18177.041    21864.857    76.091222 
   38800    1561.8435   -163.02106    1.4131888   -161.60787   -9425.7415    4.2448356    4.2448356    4.2448356   -9425.7415   -13293.914    2143.0299   -17126.341    12089.269   -7756.6236    27844.146    76.486118 
   38900     1629.346   -163.06982    1.4742665   -161.59555   -14611.627    4.2577307    4.2577307    4.2577307   -14611.627   -10443.038   -16837.785   -16554.058    6052.5451    9803.7319    23409.223    77.185294 
   39000    1689.6143   -163.10674    1.5287985   -161.57794   -12661.151    4.2454465    4.2454465    4.2454465   -12661.151   -4061.9211   -34304.864    383.33241     1614.464    11490.973    28189.593    76.519145 
   39100    1894.2093   -163.27798    1.7139204   -161.56405    37866.026    4.2271182    4.2271182    4.2271182    37866.026    25325.517    84261.681    4010.8804    1119.8853    10188.758    25463.669    75.532383 
   39200    2283.0397    -163.6498    2.0657423   -161.58405   -7117.8372    4.2478101    4.2478101    4.2478101   -7117.8372    12588.545   -10355.988   -23586.068   -303.11855   -3624.5863    17133.553    76.647023 
   39300    2450.1874   -163.79789    2.2169811   -161.58091    -16633.45    4.2498931    4.2498931    4.2498931    -16633.45    2654.2269   -46051.564    -6503.012    -17040.09   -13587.818    9428.7069    76.759834 
   39400    2279.7637   -163.64974    2.0627781   -161.58697    8417.4447    4.2438991    4.2438991    4.2438991    8417.4447     43141.93    755.68117   -18645.277   -16286.244   -4595.5826    553.59602    76.435509 
   39500    2093.2283   -163.49144     1.893997   -161.59744    -2981.302    4.2321319    4.2321319    4.2321319    -2981.302   -2485.4652   -8942.4579    2484.0172   -22033.138   -12135.741    10571.876    75.801461 
   39600    2086.4425   -163.49009    1.8878571   -161.60223    25095.745    4.2218583    4.2218583    4.2218583    25095.745    52727.584    9984.6637    12574.987   -14513.726    685.72876    1712.7553    75.250774 
   39700    1954.6435   -163.38573    1.7686025   -161.61713   -12919.011     4.244761     4.244761     4.244761   -12919.011    11684.019   -17837.095   -32603.956   -160.29191   -13683.361    1390.0961    76.482088 
   39800    1847.6699   -163.28327    1.6718106   -161.61146   -18852.519    4.2409649    4.2409649    4.2409649   -18852.519    -8105.228   -25227.531   -23224.799    7066.3478   -9459.9114     1007.321    76.277077 
   39900    1951.7433   -163.37494    1.7659783   -161.60896     20147.21    4.2346291    4.2346291    4.2346291     20147.21    72943.473     3336.127   -15837.971    11392.497   -4214.8363   -3907.5889    75.935722 
   40000     2128.633   -163.52768    1.9260319   -161.60165   -28424.678    4.2467985    4.2467985    4.2467985   -28424.678    -16064.91   -51416.813   -17792.312    19272.182    -13126.35   -3886.1086    76.592275 
   40100    2021.7095   -163.41849    1.8292853    -161.5892   -11132.906    4.2486132    4.2486132    4.2486132   -11132.906   -7184.9114   -11283.561   -14930.245    14570.195   -8245.6638    6809.6017    76.690501 
   40200    1969.5716    -163.3566    1.7821098   -161.57449    -21401.27    4.2521235    4.2521235    4.2521235    -21401.27    368.26183   -27641.098   -36930.975    4136.8644    -8401.061    10949.225    76.880751 
   40300    2120.1036   -163.47133    1.9183143   -161.55302   -7823.7162     4.244998     4.244998     4.244998   -7823.7162    474.04058   -27910.799    3965.6097   -3702.5623   -2571.7403    8910.7692      76.4949 
   40400    2530.4802   -163.84297    2.2896317   -161.55334     2889.691     4.251083     4.251083     4.251083     2889.691    -9741.604   -4486.8782    22897.555   -4030.3918    9265.8815   -5720.7032    76.824325 
   40500    2950.6175   -164.22095    2.6697807   -161.55117   -21503.932    4.2533959    4.2533959    4.2533959   -21503.932   -15645.858   -52415.206    3549.2666   -8139.8216   -13388.582   -2359.1848     76.94979 
   40600    2702.1903   -164.00029    2.4449986   -161.55529    20570.757    4.2318426    4.2318426    4.2318426    20570.757    11798.679   -14997.324    64910.915   -5071.0529    5428.1461    680.25768    75.785917 
   40700    2371.9601   -163.71849    2.1461993   -161.57229     12006.33    4.2317207    4.2317207    4.2317207     12006.33    14582.408   -18047.357     39483.94   -11652.384   -10785.215    7198.7751    75.779369 
   40800    2207.2365   -163.58348     1.997154   -161.58633   -1988.7827    4.2410218    4.2410218    4.2410218   -1988.7827   -1648.7326   -26814.714    22497.099   -9252.0881   -4171.8923   -2535.7523    76.280143 
   40900    2383.0752   -163.74809    2.1562565   -161.59184    16543.431     4.244658     4.244658     4.244658    16543.431   -758.41982    -6955.903    57344.616   -11167.489   -1936.2809    3227.6036    76.476517 
   41000     2659.138   -163.99427    2.4060439   -161.58822   -19678.359    4.2499359    4.2499359    4.2499359   -19678.359   -7482.9573   -62012.705    10460.587   -24843.918   -8107.2292   -5838.0807    76.762151 
   41100     2434.035   -163.78323     2.202366   -161.58087    -2350.702    4.2368097    4.2368097    4.2368097    -2350.702    18308.611   -38069.184    12708.467   -32689.531   -15052.867    832.91176    76.053089 
   41200    2118.0427   -163.49604    1.9164495   -161.57959     17240.15     4.228176     4.228176     4.228176     17240.15    18030.071    23854.207    9836.1714    -12995.54   -7970.4809   -20058.754      75.5891 
   41300    1921.0414   -163.33079    1.7381986   -161.59259   -13782.377    4.2453891    4.2453891    4.2453891   -13782.377    16349.842   -20673.913   -37023.058   -9577.5222   -9283.7533   -18171.623    76.516044 
   41400    2121.1676   -163.50266    1.9192771   -161.58338   -9485.5958    4.2525466    4.2525466    4.2525466   -9485.5958    7440.0046   -7169.4147   -28727.377    -4627.635   -3861.2843   -10115.441    76.903704 
   41500    2398.5075   -163.75095      2.17022   -161.58073   -10545.468    4.2431423    4.2431423    4.2431423   -10545.468   -14668.675    -9081.111   -7886.6174   -10251.462   -18661.628   -21348.197    76.394622 
   41600    2252.5314   -163.62058    2.0381378   -161.58244      27140.8    4.2286921    4.2286921    4.2286921      27140.8    23713.843    35857.175    21851.384    13373.867   -14087.098   -32525.681    75.616782 
   41700    1822.0334   -163.24588    1.6486141   -161.59726    7008.0843    4.2397211    4.2397211    4.2397211    7008.0843    18661.958   -23204.495     25566.79     28169.46   -15997.749   -14771.448    76.209981 
   41800    1390.9027   -162.84931     1.258518   -161.59079   -15599.345    4.2525832    4.2525832    4.2525832   -15599.345   -21312.114   -24863.832   -622.08954    24932.521   -19232.063   -15865.976     76.90569 
   41900    1277.3796   -162.73779    1.1557999   -161.58199    13220.562    4.2413428    4.2413428    4.2413428    13220.562    39302.674    -18019.05    18378.062    32279.617   -6517.7233   -7376.7554    76.297466 
   42000    1517.2055   -162.95691    1.3727995   -161.58411   -17234.786    4.2399451    4.2399451    4.2399451   -17234.786     1531.844   -76852.777    23616.575    34262.402   -24230.326   -13241.359    76.222062 
   42100    1910.7765   -163.32344    1.7289107   -161.59453    8342.2296    4.2347862    4.2347862    4.2347862    8342.2296    21930.319   -41148.665    44245.035    18377.797     9669.272   -8610.1823    75.944177 
   42200    1920.0906   -163.34048    1.7373383   -161.60315    14678.671    4.2367503    4.2367503    4.2367503    14678.671     50339.93   -9668.4486     3364.531    11611.576   -2654.4627    -6740.218    76.049895 
   42300    1444.6155   -162.90801    1.3071185    -161.6009   -34959.188     4.250883     4.250883     4.250883   -34959.188    20998.177   -60964.084   -64911.656    17092.189    21999.194    2017.9736    76.813481 
   42400    1181.4695   -162.66311    1.0690184   -161.59409   -4331.8849    4.2363941    4.2363941    4.2363941   -4331.8849    25388.699    36368.401   -74752.755   -1567.9803    21484.121    13142.778    76.030716 
   42500    1260.9481   -162.73367    1.1409323   -161.59274    5647.6807    4.2316382    4.2316382    4.2316382    5647.6807    49356.599     19961.23   -52374.787    7749.4482    12274.729    13991.616    75.774937 
   42600    1385.9595   -162.85442    1.2540453   -161.60038   -19323.464    4.2434828    4.2434828    4.2434828   -19323.464    17695.998   -13365.005   -62301.386    4405.6958    22364.823    39525.722    76.413016 
   42700     1501.289   -162.95641    1.3583979   -161.59801    7652.3918    4.2419081    4.2419081    4.2419081    7652.3918    3442.2794    49814.321   -30299.424    3628.2631    4688.8241    32382.231    76.327977 
   42800    1360.8208   -162.82436    1.2312993   -161.59306   -24341.213    4.2456992    4.2456992    4.2456992   -24341.213    10813.782   -24990.235   -58847.187    5012.3364    19886.299    38848.539    76.532812 
   42900    865.14951   -162.37155   0.78280546   -161.58875   -11210.181    4.2463872    4.2463872    4.2463872   -11210.181   -8972.4511    75010.312   -99668.403    6245.8755    10333.087    31768.198    76.570022 
   43000    1177.5028   -162.65965    1.0654293   -161.59422   -21107.827    4.2380331    4.2380331    4.2380331   -21107.827    15354.351   -20709.918   -57967.915    8627.8052    5461.0643    42035.392    76.118995 
   43100    1572.9372   -163.02138    1.4232266   -161.59815    20887.001    4.2250361    4.2250361    4.2250361    20887.001    8775.9529    62972.774   -9087.7238    375.78512   -14661.645    37082.769    75.420823 
   43200    1677.7944   -163.12824    1.5181037   -161.61014   -8487.6409    4.2378548    4.2378548    4.2378548   -8487.6409   -26439.251    25204.755   -24228.427   -3503.9727   -23048.973    37608.774    76.109386 
   43300    1467.7955   -162.92386    1.3280922   -161.59577   -22786.805    4.2539541    4.2539541    4.2539541   -22786.805    -14396.83   -14111.104   -39852.481   -9184.0401   -17177.795    30235.281    76.980089 
   43400    1262.8328   -162.72606    1.1426376   -161.58343   -652.67986    4.2387894    4.2387894    4.2387894   -652.67986     12589.19    40719.682   -55266.912    -8041.728   -31303.706    21444.995    76.159752 
   43500    1628.6537   -163.05565    1.4736401   -161.58201   -179.33215    4.2316632    4.2316632    4.2316632   -179.33215    2096.3034    19282.316   -21916.616   -13039.586   -21366.694    23243.567    75.776281 
   43600     2027.699   -163.42459    1.8347046   -161.58988   -2492.8949    4.2410346    4.2410346    4.2410346   -2492.8949   -28791.606    37536.232   -16223.311   -7701.7097   -32872.959     14351.91    76.280839 
   43700    2050.6932   -163.44678    1.8555103   -161.59127   -6286.8378    4.2426137    4.2426137    4.2426137   -6286.8378   -3869.2302   -5362.0487   -9629.2346    4208.9483   -31710.221    18312.144    76.366075 
   43800    1615.6012   -163.05542    1.4618299   -161.59359    5873.3691    4.2431961    4.2431961    4.2431961    5873.3691    47150.433    -9822.545   -19707.781    1597.8933   -31085.178    14094.927    76.397527 
   43900    1417.2813   -162.87995    1.2823859   -161.59757   -8757.3806    4.2310936    4.2310936    4.2310936   -8757.3806   -9054.7886    26317.937    -43535.29    5921.3532   -45512.523    4350.8761    75.745688 
   44000    1561.1427   -163.01479    1.4125548   -161.60223    14949.683    4.2235514    4.2235514    4.2235514    14949.683    40368.658    25965.009   -21484.617    5595.2358   -35375.152    1385.0472    75.341342 
   44100    1819.3164   -163.25835    1.6461557    -161.6122   -8201.2061    4.2449515    4.2449515    4.2449515   -8201.2061   -23318.606   -7963.4817    6678.4692    2531.8513   -39420.269    312.41378    76.492382 
   44200    1859.0665   -163.27715    1.6821224   -161.59503   -7948.6992     4.251342     4.251342     4.251342   -7948.6992   -15916.825    7892.8185   -15822.091    1348.0079   -36968.125   -48.253981    76.838367 
   44300    1529.8332   -162.96071    1.3842252   -161.57648    5786.9672    4.2415027    4.2415027    4.2415027    5786.9672    16127.474    37302.296   -36068.869    6308.7576   -47208.254    501.45745    76.306099 
   44400    1390.4221   -162.83314    1.2580831   -161.57506    3789.0458    4.2427505    4.2427505    4.2427505    3789.0458   -13348.851    64411.625   -39695.636    2327.8399   -41288.902    8981.2983    76.373462 
   44500    1622.1431   -163.04145    1.4677492    -161.5737    22656.528    4.2418321    4.2418321    4.2418321    22656.528    25953.796    62894.024   -20878.236    8635.0915   -45666.572   -6984.4415    76.323877 
   44600    1957.1287   -163.34979    1.7708512   -161.57894   -1724.6871    4.2485181    4.2485181    4.2485181   -1724.6871   -28657.586    10859.222    12624.303   -585.13903   -51181.204   -7005.8166     76.68535 
   44700    1957.4245    -163.3508    1.7711188   -161.57968   -19798.371     4.244567     4.244567     4.244567   -19798.371   -29433.003      13759.8   -43721.911    -6569.294   -50776.054   -3612.8895      76.4716 
   44800    1880.5702   -163.27786    1.7015794   -161.57628    12101.807    4.2267132    4.2267132    4.2267132    12101.807   -2150.8787    52863.967   -14407.666   -5462.4779   -44016.111   -12061.677    75.510671 
   44900    1793.5789   -163.21411    1.6228679   -161.59124    -2596.733     4.238547     4.238547     4.238547    -2596.733   -34165.501    61414.229   -35038.926   -8218.0081   -39418.073   -3585.2494    76.146687 
   45000    2138.7266    -163.5222    1.9351647   -161.58703   -28356.561     4.246795     4.246795     4.246795   -28356.561   -65594.893    35439.816   -54914.606    3374.0964   -25808.789   -4936.4242    76.592086 
   45100    2401.4576   -163.75641    2.1728893   -161.58352    16124.138     4.239426     4.239426     4.239426    16124.138   -36274.881    30548.647    54098.647    5257.2092   -17696.273   -3892.4416    76.194069 
   45200    2310.4616   -163.67779    2.0905542   -161.58724   -1959.1607    4.2384971    4.2384971    4.2384971   -1959.1607   -20979.077    40249.042   -25147.447    2576.1886   -1516.4859   -1527.4813    76.143995 
   45300    2043.0606   -163.43843    1.8486042   -161.58982    2548.0372    4.2282833    4.2282833    4.2282833    2548.0372   -11835.076    71372.468   -51893.281    5568.4217    9522.5862   -3120.7749    75.594853 
   45400    2075.1981   -163.47709    1.8776829   -161.59941     6563.923    4.2363892    4.2363892    4.2363892     6563.923   -29548.395    47506.453    1733.7113    6981.2388    14370.841    4552.1459    76.030447 
   45500     2519.431    -163.8731    2.2796341   -161.59347   -9050.8259    4.2461557    4.2461557    4.2461557   -9050.8259   -14283.356    20750.238   -33619.359    6009.2875    17925.046   -2165.1944      76.5575 
   45600    2766.5446   -164.08693    2.5032277   -161.58371   -4336.1956    4.2374579    4.2374579    4.2374579   -4336.1956   -29523.273    33560.555   -17045.868   -6045.0182    8542.5884    2411.3732    76.088001 
   45700    2533.4397   -163.86931    2.2923095     -161.577   -2723.2722    4.2452265    4.2452265    4.2452265   -2723.2722    -1715.286    18840.865   -25295.396   -12089.634    6957.3401   -1283.2884     76.50725 
   45800    2292.1894   -163.64071    2.0740211   -161.56669   -6156.6997    4.2453931    4.2453931    4.2453931   -6156.6997    38201.861    5213.7851   -61885.745   -2736.6428    3820.7665    1930.0954     76.51626 
   45900    2354.7612   -163.69872    2.1306374   -161.56809   -2152.6244    4.2387126    4.2387126    4.2387126   -2152.6244    1911.1173    19303.286   -27672.276   -7470.9212   -465.17739   -1617.2069    76.155615 
   46000    2621.1924   -163.94795    2.3717099   -161.57624    3760.9482    4.2327264    4.2327264    4.2327264    3760.9482    17728.458   -2377.0536   -4068.5599   -3228.2445    11842.964   -424.29192     75.83341 
   46100    2664.8111   -163.99807    2.4111771   -161.58689    11141.733    4.2299835    4.2299835    4.2299835    11141.733    41431.482   -10055.992    2049.7099   -11695.099    135.92858    2603.8958    75.686083 
   46200    2416.3964   -163.78307    2.1864062   -161.59667   -2057.6365    4.2429961    4.2429961    4.2429961   -2057.6365    24147.141   -19103.756   -11216.295    6686.0803    10806.221    3830.0914    76.386727 
   46300    2301.4492   -163.67194    2.0823996   -161.58954   -9097.7273    4.2447255    4.2447255    4.2447255   -9097.7273    7163.4299   -9847.5996   -24609.012   -5555.1298    2597.3254   -5082.2717    76.480167 
   46400    2074.4791    -163.4584    1.8770323   -161.58137   -7045.1543     4.238018     4.238018     4.238018   -7045.1543    19990.591    13735.363   -54861.416   -693.85261   -9826.5733    7805.0336    76.118177 
   46500    2238.6838   -163.60866    2.0256082   -161.58305     12492.42    4.2316845    4.2316845    4.2316845     12492.42    36804.272     20407.51   -19734.523    5607.0438   -20468.402   -1209.4481    75.777425 
   46600    2342.8616   -163.71446    2.1198704   -161.59459    8309.0678    4.2365534    4.2365534    4.2365534    8309.0678   -8863.7491    4862.0892    28928.863    3582.4496   -31864.493   -808.83032    76.039288 
   46700    1882.6826   -163.30024    1.7034908   -161.59674    4761.6756    4.2426083    4.2426083    4.2426083    4761.6756    19288.691    19893.682   -24897.346    16264.802   -24569.514   -7167.7975    76.365786 
   46800    1528.5899   -162.97221    1.3831002   -161.58911   -9206.3064    4.2445841    4.2445841    4.2445841   -9206.3064   -33326.565    32520.738   -26813.092    13277.453   -35868.717   -8865.2032    76.472524 
   46900    1435.2634   -162.88187    1.2986565   -161.58321   -11574.305     4.241932     4.241932     4.241932   -11574.305   -35035.314    34404.028    -34091.63    5857.5669   -26671.589    5124.1997    76.329267 
   47000    1392.5423   -162.84241    1.2600015    -161.5824    15552.543    4.2306313    4.2306313    4.2306313    15552.543   -11585.094    88400.832   -30158.109    3236.8386    -20817.86   -860.76114    75.720861 
   47100    1514.4305   -162.96123    1.3702885   -161.59095   -6923.7434    4.2403187    4.2403187    4.2403187   -6923.7434   -40479.278    24906.588   -5198.5399     7321.955   -34661.457   -11842.971    76.242213 
   47200    1513.5509    -162.9617    1.3694926    -161.5922   -13770.176    4.2465725    4.2465725    4.2465725   -13770.176   -46459.066    25743.864   -20595.326     9934.772    -28044.61   -7399.4713    76.580049 
   47300    1066.5954   -162.55494   0.96507796   -161.58986    2670.7972      4.23625      4.23625      4.23625    2670.7972   -42566.243    58901.533    -8322.898    1787.2291   -28824.467    -5125.884    76.022956 
   47400    878.66661   -162.38914   0.79503602   -161.59411    -19744.24    4.2371626    4.2371626    4.2371626    -19744.24    -45388.67    37364.987   -51209.037    5239.1431   -35066.014   -7010.4796      76.0721 
   47500    1115.5967   -162.60793    1.0094154   -161.59852   -8368.7047    4.2354865    4.2354865    4.2354865   -8368.7047   -19387.651    44684.271   -50402.734   -1400.4762   -27137.592   -103.51272    75.981855 
   47600    1223.1199   -162.71035    1.1067046   -161.60364    18759.292    4.2366114    4.2366114    4.2366114    18759.292   -6148.2102    52793.351    9632.7334    -8165.825   -36655.558   -9098.1321    76.042416 
   47700     1147.809   -162.64387    1.0385617    -161.6053   -20869.489    4.2507573    4.2507573    4.2507573   -20869.489   -27207.929    33915.597   -69316.134    2887.1284   -33558.715    16438.822    76.806671 
   47800    742.47474   -162.26499   0.67180675   -161.59318    1351.7569    4.2406546    4.2406546    4.2406546    1351.7569    32859.298    30742.126   -59546.153   -2002.8522       -29506    10493.431    76.260336 
   47900    428.86903   -161.97334   0.38804971   -161.58529    4829.4221    4.2337331    4.2337331    4.2337331    4829.4221    51904.929    42242.762   -79659.424    12615.885   -20649.189     13837.32    75.887533 
   48000    593.83055   -162.12663   0.53731036   -161.58932   -15154.873    4.2446169    4.2446169    4.2446169   -15154.873    10950.395     58412.73   -114827.74   -9909.8963   -14306.384    17786.447    76.474299 
   48100     1065.727    -162.5528   0.96429217   -161.58851    3523.7086    4.2420243    4.2420243    4.2420243    3523.7086    9422.4736    27872.815   -26724.163    5474.0802   -9664.1347    24744.185    76.334252 
   48200    1127.7962   -162.61153    1.0204537   -161.59107   -13487.353    4.2386892    4.2386892    4.2386892   -13487.353   -2672.4227    23019.571   -60809.206    644.10885    4698.2018    22934.967     76.15435 
   48300     708.0298   -162.23516   0.64064024   -161.59452    -10755.38    4.2331006    4.2331006    4.2331006    -10755.38   -2886.1823    55195.169   -84575.127   -8496.3368    10849.456    29026.581    75.853523 
   48400    516.47435   -162.06868   0.46731685   -161.60136   -1702.6105    4.2355203    4.2355203    4.2355203   -1702.6105    -2002.458    50020.464   -53125.838    12702.081    21953.745    24963.293    75.983678 
   48500    779.78127    -162.3087   0.70556248   -161.60314   -20595.845     4.242858     4.242858     4.242858   -20595.845   -15750.065    39592.596   -85630.066   -9645.6533    27901.668    41999.683    76.379267 
   48600    1203.3449   -162.69143    1.0888117   -161.60261    3052.9638    4.2373398    4.2373398    4.2373398    3052.9638    -18685.94     37345.55   -9500.7185    4633.4212    23013.008    30083.206    76.081644 
   48700    1308.3937   -162.78359    1.1838621   -161.59972   -4349.7891    4.2360835    4.2360835    4.2360835   -4349.7891   -27677.629    47771.472    -33143.21   -1718.5169    30178.142    37467.945    76.013993 
   48800     984.3174    -162.4866   0.89063107   -161.59597   -9763.5534     4.239926     4.239926     4.239926   -9763.5534   -28393.378    39193.155   -40090.437    3238.5974    29174.058    34685.014    76.221031 
   48900    857.04404   -162.36753   0.77547146   -161.59206    -15149.84    4.2418142    4.2418142    4.2418142    -15149.84    -26572.86    36877.484   -55754.143    2870.3556    14308.587    21887.703    76.322908 
   49000    1138.3056   -162.61798    1.0299628   -161.58801   -1269.1862    4.2370813    4.2370813    4.2370813   -1269.1862   -29125.451    32664.939   -7347.0467   -6379.0778      20809.8    32984.654    76.067717 
   49100    1460.5347   -162.91586    1.3215225   -161.59433    2920.6133    4.2355483    4.2355483    4.2355483    2920.6133   -24118.477    35721.335   -2841.0172    8624.9983    25581.012    5345.6088    75.985182 
   49200    1657.8262   -163.09136    1.5000359   -161.59133   -4838.1444    4.2371251    4.2371251    4.2371251   -4838.1444   -14338.436     25551.77   -25727.767   -10207.976     20052.85    16544.527    76.070077 
   49300    1478.2594   -162.92678    1.3375602   -161.58922   -2136.8861    4.2449531    4.2449531    4.2449531   -2136.8861   -14793.828    16723.751   -8340.5816    10370.084    16629.546   -607.81462    76.492468 
   49400    1414.1996   -162.86479    1.2795975   -161.58519   -11939.671    4.2421351    4.2421351    4.2421351   -11939.671    7539.0396    23931.659   -67289.713   -5943.9373    11623.386   -2991.9886    76.340235 
   49500    1786.2884   -163.19743    1.6162713   -161.58116    21091.543    4.2279094    4.2279094    4.2279094    21091.543    13650.934    24475.457    25148.238   -1761.7836    13484.107   -3797.7092    75.574801 
   49600    2206.0003   -163.58527    1.9960354   -161.58923    1732.2016    4.2368959    4.2368959    4.2368959    1732.2016     37738.14   -14145.237   -18396.298   -79.827644    9274.9176   -12833.611    76.057733 
   49700    2402.6497   -163.75968    2.1739679   -161.58571   -16642.773    4.2406386    4.2406386    4.2406386   -16642.773   -7094.9928   -19968.821   -22864.506   -12049.683    7230.7033    -1717.401     76.25947 
   49800    2188.0481   -163.56488    1.9797919   -161.58509    11229.617    4.2383734    4.2383734    4.2383734    11229.617     41913.79   -2936.3301   -5288.6102    4701.3857   -12582.657   -11594.585    76.137329 
   49900    2280.8789   -163.64763    2.0637872   -161.58385   -3037.4481    4.2396733    4.2396733    4.2396733   -3037.4481    46878.655   -6345.0733   -49645.926   -4992.2839   -18161.076    1567.1725    76.207406 
   50000     2424.619    -163.7815    2.1938462   -161.58765     882.0724    4.2374752    4.2374752    4.2374752     882.0724    13524.635    -13914.32    3035.9015    3383.0391   -33230.934    -13153.58    76.088938 
   50100    2583.8171   -163.92838     2.337892   -161.59049    16459.752    4.2348578    4.2348578    4.2348578    16459.752    37149.431   -11770.289    24000.112    1225.3477   -42616.367   -6383.1403     75.94803 
   50200    2577.8682   -163.92627    2.3325093   -161.59376   -3801.1779     4.238761     4.238761     4.238761   -3801.1779    6133.0132   -13590.712   -3945.8349   -4684.5252   -36301.392    4038.8274    76.158223 
   50300    2186.7585   -163.57036     1.978625   -161.59173   -4172.7013    4.2423263    4.2423263    4.2423263   -4172.7013    2354.0544   -13208.885   -1663.2728    5824.6836   -44935.133   -8146.7847    76.350555 
   50400    2432.6163   -163.78568    2.2010823    -161.5846   -984.62992    4.2345064    4.2345064    4.2345064   -984.62992    9166.7294   -3044.1139   -9076.5052    -974.4243   -33252.426    11469.211    75.929121 
   50500    2732.5405   -164.06017      2.47246   -161.58771    19821.212    4.2370689    4.2370689    4.2370689    19821.212    8150.7267   -16009.162    67322.072    2000.5566   -23831.614   -11060.996    76.067052 
   50600    3034.6729    -164.3337    2.7458358   -161.58786   -1963.8652    4.2389258    4.2389258    4.2389258   -1963.8652   -34576.705   -24257.823    52942.933   -649.45095   -22620.876    556.50124    76.167103 
   50700    2755.9279   -164.08197    2.4936215   -161.58834   -564.69201    4.2362345    4.2362345    4.2362345   -564.69201   -15626.253   -25696.096    39628.273    281.22647   -20344.856    7959.3903    76.022121 
   50800    2442.0114    -163.7959    2.2095832   -161.58632    545.47727    4.2355151    4.2355151    4.2355151    545.47727    9161.1076   -17059.657    9534.9811   -334.30036   -32846.279   -4047.9983    75.983397 
   50900    2480.1537   -163.83408    2.2440952   -161.58999    3659.7522    4.2381175    4.2381175    4.2381175    3659.7522    12882.542    -8470.055    6566.7699   -5434.5172   -42229.906    11781.797    76.123539 
   51000      2800.84   -164.12369    2.5342589   -161.58943    5401.6336    4.2307561    4.2307561    4.2307561    5401.6336   -3000.0336   -1291.3832    20496.318    4482.9798   -47560.794   -1259.0085    75.727562 
   51100     2932.586   -164.24712    2.6534654   -161.59365    6794.7134    4.2407606    4.2407606    4.2407606    6794.7134   -2165.2514   -18651.149    41200.541   -1741.1644   -38020.775    2133.4224    76.266051 
   51200    2889.2399   -164.20178     2.614245   -161.58754   -12170.498    4.2418438    4.2418438    4.2418438   -12170.498   -5998.5795     -20649.6    -9863.314     11858.69   -30574.826   -5599.7114    76.324511 
   51300    2694.5959      -164.02     2.438127   -161.58187    13729.359    4.2315836    4.2315836    4.2315836    13729.359    35975.643    11316.093   -6103.6605    -5190.504   -26353.057   -3519.7018    75.772005 
   51400    2525.4199   -163.86917     2.285053   -161.58412   -11232.563    4.2418249    4.2418249    4.2418249   -11232.563    4291.7046   -1377.9193   -36611.475    4550.8629   -28140.914    -7561.238    76.323486 
   51500    2432.7727   -163.78156    2.2012239   -161.58033    22565.908    4.2386072    4.2386072    4.2386072    22565.908   -2412.9313     5025.543    65085.112   -4313.3459   -18716.293   -1595.8926    76.149933 
   51600    2291.9776   -163.65435    2.0738295   -161.58052   -9856.0086    4.2434889    4.2434889    4.2434889   -9856.0086   -13680.808   -4743.7823   -11143.436   -33.090547   -12999.155   -1786.9563    76.413347 
   51700    2077.5838   -163.45565    1.8798415   -161.57581   -4618.9731    4.2423178    4.2423178    4.2423178   -4618.9731   -23069.132    16040.432   -6828.2195    3102.8753    902.83365      7490.75    76.350097 
   51800    1917.7465   -163.30628    1.7352174   -161.57106     1060.713    4.2361137    4.2361137    4.2361137     1060.713   -4822.9952    28609.874    -20604.74    7143.1531    13406.548   -2320.6736    76.015617 
   51900    1754.6873   -163.16351    1.5876779   -161.57583   -17670.389    4.2486114    4.2486114    4.2486114   -17670.389    4643.0651    -7086.996   -50567.237    4004.8826     26623.15    12471.127    76.690404 
   52000    1613.6304   -163.03237    1.4600467   -161.57232    10085.252    4.2441258    4.2441258    4.2441258    10085.252   -18134.182    34000.726    14389.213    7493.0057     46747.72    12147.037    76.447757 
   52100    1247.9726   -162.70662    1.1291918   -161.57743   -26941.723    4.2477542    4.2477542    4.2477542   -26941.723   -24665.162    20137.796   -76297.804   -5219.9057    72963.293    16124.353    76.643995 
   52200    1022.9001   -162.51545    0.9255415   -161.58991   -29281.676    4.2382688    4.2382688    4.2382688   -29281.676   -37684.863    31625.705    -81785.87   -4525.7354    86389.722    17793.526    76.131693 
   52300    984.23814   -162.47857   0.89055935   -161.58801    40073.393    4.2234332    4.2234332    4.2234332    40073.393    50869.542    78750.463   -9399.8262   -1137.4665    92737.659    12381.573    75.335019 
   52400    1131.7796   -162.63146    1.0240579    -161.6074   -35338.873    4.2509276    4.2509276    4.2509276   -35338.873   -76625.111    58576.882   -87968.391    -403.4676    103676.97   -1566.1273    76.815899 
   52500     1205.907   -162.68227      1.09113   -161.59114   -2928.5086    4.2503986    4.2503986    4.2503986   -2928.5086    -84226.93    81979.989   -6538.5852    4417.2396    92578.803    -4991.975    76.787227 
   52600    931.77402    -162.4126   0.84308872   -161.56951     46225.72    4.2356626    4.2356626    4.2356626     46225.72    5954.2856    133436.33   -713.46148    513.00646    80332.085   -17640.186    75.991336 
   52700    877.48036   -162.36175   0.79396267   -161.56779   -39843.061    4.2488282    4.2488282    4.2488282   -39843.061   -101045.62    79527.489   -98011.054   -1801.5794    98089.906   -10027.362    76.702144 
   52800    1175.6591   -162.63568    1.0637611   -161.57192   -4718.4691    4.2389684    4.2389684    4.2389684   -4718.4691   -67981.897    65050.918   -11224.429    3176.0915    90887.361   -21148.135    76.169398 
   52900    1400.7045   -162.85433    1.2673869   -161.58695    21122.112      4.23208      4.23208      4.23208    21122.112    49353.707    32567.338   -18554.708     2931.483    86436.962   -22017.883    75.798675 
   53000      1405.75   -162.87008    1.2719522   -161.59813   -17865.234    4.2396269    4.2396269    4.2396269   -17865.234   -69172.915    34486.602    -18909.39    13607.712    89423.741   -18576.944    76.204902 
   53100    1159.1883   -162.64782     1.048858   -161.59897    3321.9019    4.2360743    4.2360743    4.2360743    3321.9019   -16019.768    74515.384   -48529.911   -815.71534     80855.64   -6122.9963    76.013495 
   53200    990.97427   -162.50071   0.89665435   -161.60406   -2810.5197    4.2406368    4.2406368    4.2406368   -2810.5197    4041.5634    26852.173   -39325.295    6373.6456    70333.518   -5062.0369    76.259374 
   53300    1243.2847    -162.7285    1.1249501   -161.60355   -18717.848    4.2389767    4.2389767    4.2389767   -18717.848   -52941.073    25800.982   -29013.452   -5068.7375     71522.44    20628.353     76.16985 
   53400     1516.173   -162.97465    1.3718652   -161.60279    24970.189    4.2301795    4.2301795    4.2301795    24970.189   -2584.4325    70546.769    6948.2308    1671.5441     54470.67    10038.186    75.696602 
   53500    1646.7765   -163.09185    1.4900379   -161.60181   -23238.829    4.2441791    4.2441791    4.2441791   -23238.829   -34681.148    -9535.335   -25500.003   -5227.9529    42863.983    28006.879    76.450635 
   53600    1361.4891   -162.82647     1.231904   -161.59456   -25206.562    4.2404738    4.2404738    4.2404738   -25206.562   -8748.8507   -19487.795    -47383.04    2488.7597    40420.437    44597.663    76.250578 
   53700    1189.6542   -162.66977    1.0764241   -161.59335    18818.398    4.2351025    4.2351025    4.2351025    18818.398    42088.063    50069.753   -35702.621    -776.0606    22294.488    32352.025    75.961191 
   53800    1430.0432   -162.88822    1.2939331   -161.59429    -25449.02    4.2403245    4.2403245    4.2403245    -25449.02   -7147.0785   -2357.4377   -66842.544   -3490.5915    38622.519    44265.183    76.242524 
   53900    1853.4874   -163.27183    1.6770743   -161.59476    11334.292    4.2307699    4.2307699    4.2307699    11334.292    31281.745   -3296.9233    6018.0561    9357.4193     16452.52    34419.045      75.7283 
   54000    1906.1685   -163.32269    1.7247413   -161.59795    13449.992    4.2416885    4.2416885    4.2416885    13449.992    378.37983    19689.897    20281.699    1911.4571    16808.055    19844.324    76.316125 
   54100    1707.9944   -163.13207    1.5454292   -161.58664   -22006.654    4.2448325    4.2448325    4.2448325   -22006.654   -33003.077    10331.496   -43348.382    9466.9634    16495.496   -5011.3264    76.485954 
   54200    1834.1956   -163.23811    1.6596188   -161.57849   -6485.0553    4.2340957    4.2340957    4.2340957   -6485.0553    1896.4764    5881.8998   -27233.542   -536.02014   -12876.189   -6105.7249    75.907032 
   54300    2216.1566   -163.57974     2.005225   -161.57452   -9958.1776    4.2478518    4.2478518    4.2478518   -9958.1776   -23918.777    8671.0573   -14626.813   -3932.3673   -29588.032   -15725.781    76.649278 
   54400    2560.9504   -163.88113    2.3172017   -161.56393   -3033.4406    4.2456835    4.2456835    4.2456835   -3033.4406    11863.546   -18490.563   -2473.3046    1301.1468   -34070.272   -20800.041     76.53196 
   54500    2575.4015   -163.89014    2.3302774   -161.55986    9318.9995    4.2318107    4.2318107    4.2318107    9318.9995    33094.447   -9653.0813    4515.6325   -11809.909   -45738.696   -15939.032    75.784206 
   54600    2473.7499   -163.80951    2.2383009   -161.57121    4094.0988    4.2366672    4.2366672    4.2366672    4094.0988    37999.839   -3948.0843   -21769.458    1519.4977   -33882.312   -6025.6164    76.045417 
   54700       2572.2   -163.90903    2.3273806   -161.58165    9100.7114    4.2335493    4.2335493    4.2335493    9100.7114    41195.049   -14017.556    124.64173   -4629.0494   -38475.672    9386.0286    75.877647 
   54800    2664.7759   -164.00298    2.4111452   -161.59183    3835.7591    4.2409914    4.2409914    4.2409914    3835.7591    26114.661   -17224.734      2617.35    3307.4105   -36041.513    8417.5592    76.278506 
   54900    2631.9289   -163.96864    2.3814246   -161.58722   -14509.477    4.2435209    4.2435209    4.2435209   -14509.477   -13200.819   -35055.553    4727.9422   -2284.2936   -35069.703     17957.59    76.415071 
   55000    2321.6397   -163.68068    2.1006684   -161.58002    1723.1723    4.2334841    4.2334841    4.2334841    1723.1723    9301.9567   -13414.825     9282.385   -3630.0045   -23269.046    14171.404    75.874144 
   55100    2145.8703   -163.52423    1.9416286    -161.5826    8563.0068    4.2345234    4.2345234    4.2345234    8563.0068    12046.372    13526.069     116.5792    3155.2094   -12889.294    4070.0402    75.930038 
   55200    2036.1992   -163.42929    1.8423958    -161.5869    12555.627    4.2365511    4.2365511    4.2365511    12555.627   -6858.0768    19083.217    25441.741    -1900.735   -1584.1426   -5507.2952    76.039167 
   55300    1962.1874   -163.36079    1.7754284   -161.58536   -22633.124    4.2541653    4.2541653    4.2541653   -22633.124   -23352.782   -24763.211   -19783.378    4416.0865    27299.649   -15978.734    76.991556 
   55400    1685.7174   -163.10239    1.5252726   -161.57712   -20219.629    4.2464889    4.2464889    4.2464889   -20219.629   -23568.362    -10997.45   -26093.075    4006.8598    49668.619   -18986.422    76.575523 
   55500    1182.2521   -162.63646    1.0697265   -161.56673    19756.582    4.2247288    4.2247288    4.2247288    19756.582    53674.025     33572.75    -27977.03   -6007.8103    56849.361   -6287.1227    75.404368 
   55600    951.05694    -162.4433    0.8605363   -161.58276    -17008.24     4.241458     4.241458     4.241458    -17008.24   -13103.256    28762.762   -66684.225    1270.4061     81444.48   -14384.978    76.303685 
   55700    1136.5059   -162.61417    1.0283344   -161.58583   -4180.6073    4.2491909    4.2491909    4.2491909   -4180.6073    -32163.15    63972.617   -44351.289    1093.1019    80360.936   -5006.2418     76.72179 
   55800    1026.5534   -162.51116   0.92884705   -161.58231    39902.342    4.2466019    4.2466019    4.2466019    39902.342    9311.9437    126195.78   -15800.693    3112.0275    84114.848   -8788.5781    76.581639 
   55900    816.84663   -162.30918       0.7391   -161.57008   -24571.339    4.2561373    4.2561373    4.2561373   -24571.339   -63235.752    75984.858   -86463.123   -1037.8953    105614.48    3835.8523    77.098669 
   56000    688.23785   -162.18327   0.62273207   -161.56054   -4873.0406    4.2374363    4.2374363    4.2374363   -4873.0406    2532.4222    69633.424   -86784.968    2190.9986    96705.993    6173.9815    76.086841 
   56100    1016.6633   -162.48648   0.91989836   -161.56658   -181.14379    4.2331915    4.2331915    4.2331915   -181.14379    2437.3182    35666.268   -38647.017    -6367.435    82541.053    7218.4888    75.858412 
   56200    1556.1048     -162.984    1.4079963     -161.576   -23116.483    4.2455056    4.2455056    4.2455056   -23116.483   -33698.957    14120.712   -49771.203   -11436.948    66785.753    13612.816     76.52234 
   56300     2057.869   -163.43408    1.8620031   -161.57208    5233.6396    4.2425793    4.2425793    4.2425793    5233.6396     345.7243    18850.597   -3495.4023   -16302.848    46335.868    11476.793    76.364218 
   56400    2154.9185   -163.51706    1.9498156   -161.56724   -21076.045    4.2502186    4.2502186    4.2502186   -21076.045   -23778.711    2844.5752   -42293.998   -10490.799    16670.461    3911.0606    76.777469 
   56500    2260.5342   -163.59784    2.0453789   -161.55246   -29658.552    4.2482968    4.2482968    4.2482968   -29658.552   -24259.263   -5306.9168   -59409.476   -17246.751    174.12211    10362.484     76.67337 
   56600    2657.2101   -163.95394    2.4042996   -161.54964    10893.361    4.2365464    4.2365464    4.2365464    10893.361    24233.252   -2432.6276    10879.459   -9481.5108   -14662.642    7869.7349    76.038912 
   56700    2898.8482   -164.18219    2.6229388   -161.55925   -4278.0703    4.2450275    4.2450275    4.2450275   -4278.0703   -5482.6403   -23779.384    16427.813   -9118.6541   -27283.986    20038.569    76.496494 
   56800    2792.0631   -164.08353    2.5263174   -161.55721   -21435.209    4.2451236    4.2451236    4.2451236   -21435.209   -5098.4594   -42377.477   -16829.691   -8667.1982    -20908.28    28448.406     76.50169 
   56900     2566.289   -163.87931    2.3220322   -161.55728   -12911.935    4.2437956    4.2437956    4.2437956   -12911.935     4052.287   -29749.685   -13038.407   -10653.657   -29661.876    34225.257    76.429917 
   57000    2516.7138   -163.83358    2.2771755   -161.55641    2761.6761    4.2401444    4.2401444    4.2401444    2761.6761    25404.814    7813.6865   -24933.472   -8952.2325   -29446.852    24615.998     76.23281 
   57100    2838.4388   -164.12776     2.568279   -161.55948   -9494.8493    4.2410253    4.2410253    4.2410253   -9494.8493    930.97137    -12727.81   -16687.709   -17546.227   -22934.945    18647.338    76.280335 
   57200    2896.1351    -164.1819    2.6204839   -161.56142   -19413.545    4.2490556    4.2490556    4.2490556   -19413.545    -31142.78   -17046.998   -10050.857   -7905.4144   -28665.828    11974.514    76.714463 
   57300    2632.4624   -163.94544    2.3819073   -161.56354    12527.692    4.2338759    4.2338759    4.2338759    12527.692   -12976.403    33520.728    17038.751   -19175.332   -23984.469    5414.2011    75.895213 
   57400    2280.3333   -163.63603    2.0632935   -161.57273   -15687.706    4.2395554    4.2395554    4.2395554   -15687.706   -17813.372    15062.985    -44312.73    -11561.46   -20154.761    1841.6068    76.201048 
   57500    2269.9528   -163.62796     2.053901   -161.57406   -4440.0377    4.2434606    4.2434606    4.2434606   -4440.0377   -20563.694   -16591.217    23834.798    -12078.61   -22747.231    4230.0057    76.411817 
   57600    2447.3621   -163.78827    2.2144247   -161.57385    6654.2739    4.2343497    4.2343497    4.2343497    6654.2739   -24844.537    4665.3842    40141.974   -11689.323   -9330.6282   -5052.8926    75.920694 
   57700    2284.4966   -163.64922    2.0670605   -161.58216   -9557.2004    4.2434275    4.2434275    4.2434275   -9557.2004   -58440.829    19539.485    10229.743   -5039.3288    11312.476    5625.3459    76.410031 
   57800    2036.2768   -163.42435    1.8424661   -161.58189    1773.7201    4.2390089    4.2390089    4.2390089    1773.7201   -35679.837     11695.86    29305.137   -11270.069    22076.533    5894.7268    76.171584 
   57900    1754.4646   -163.17274    1.5874764   -161.58526    5580.3285    4.2351945    4.2351945    4.2351945    5580.3285    8376.8818    31418.081   -23053.978   -11322.106    22931.799     2922.021    75.966145 
   58000    1633.2462   -163.06836    1.4777955   -161.59056    1598.4851    4.2397963    4.2397963    4.2397963    1598.4851   -23195.178    36972.052    -8981.418   -9495.3601    38856.254    25976.188    76.214036 
   58100    1514.3433   -162.95776    1.3702097   -161.58755   -4629.3861    4.2445393    4.2445393    4.2445393   -4629.3861   -871.24238   -9530.4515   -3486.4643    3490.8049    45621.323     28297.97    76.470101 
   58200    1362.8706   -162.81681     1.233154   -161.58366    168.96796    4.2446974    4.2446974    4.2446974    168.96796    7644.4785   -2967.2004   -4170.3743     424.4706     39248.54     32607.07     76.47865 
   58300    1491.6756   -162.93171    1.3496995   -161.58201   -1927.3463    4.2391087    4.2391087    4.2391087   -1927.3463    24049.326    1741.4478   -31572.813   -3439.1737    46288.923     42477.36    76.176964 
   58400    1362.9409   -162.82272    1.2332176    -161.5895   -11497.172    4.2344176    4.2344176    4.2344176   -11497.172   -14666.936      37983.6    -57808.18    6403.3823    49555.368    28020.253    75.924346 
   58500    1306.0643   -162.77933    1.1817544   -161.59758    13609.271    4.2317596    4.2317596    4.2317596    13609.271    43941.006    19687.675   -22800.869   -742.38994    38405.406    30813.144     75.78146 
   58600    1217.8238   -162.70636    1.1019126   -161.60445   -17248.612    4.2442755    4.2442755    4.2442755   -17248.612    3199.0776   -36686.353    -18258.56    9622.8459    47813.329    26005.811    76.455846 
   58700    1393.9803   -162.86337    1.2613027   -161.60206   -13505.884     4.242207     4.242207     4.242207   -13505.884   -9717.7407    7558.0129   -38357.924   -1901.5657    57150.035    9349.2964    76.344118 
   58800    1477.2997   -162.92913    1.3366918   -161.59244    17919.325    4.2261063    4.2261063    4.2261063    17919.325   -11147.369    49154.339    15751.004    1217.9772    62386.365    14031.638    75.478152 
   58900    1432.7191   -162.89656    1.2963543   -161.60021   -6693.1391    4.2403429    4.2403429    4.2403429   -6693.1391   -8848.3871    37730.458   -48961.488   -3660.9356    68331.576    1822.4326    76.243519 
   59000    1463.9673   -162.91546    1.3246284   -161.59083    5369.5285    4.2456045    4.2456045    4.2456045    5369.5285   -36410.459    53830.059   -1311.0145   -2992.0268    58980.479    6874.1934     76.52769 
   59100    1503.1073   -162.94476     1.360043   -161.58472   -16479.521    4.2411383    4.2411383    4.2411383   -16479.521   -40942.024    28729.557   -37226.096    5254.2736    76039.625   -11831.813    76.286432 
   59200    1375.8886   -162.83168    1.2449329   -161.58674   -5872.2525    4.2359256    4.2359256    4.2359256   -5872.2525   -4040.0678    27077.068   -40653.758    3739.3081    76476.853   -9952.5257     76.00549 
   59300    1270.0551   -162.73841    1.1491725   -161.58923    14856.363    4.2350574    4.2350574    4.2350574    14856.363   -16570.131    57281.216    3858.0056    4961.7335    69316.273   -11993.049    75.958764 
   59400    1204.8481   -162.68263    1.0901719   -161.59246   -26132.781    4.2434555    4.2434555    4.2434555   -26132.781   -78991.667    31902.183    -31308.86    12052.848    77803.786   -16876.285    76.411543 
   59500    1468.2327   -162.91888    1.3284878   -161.59039    5582.0328    4.2376886    4.2376886    4.2376886    5582.0328   -44132.309    86022.643   -25144.236     3925.529    74083.965   -14016.153     76.10043 
   59600    1735.4203   -163.16188    1.5702447   -161.59163    8550.9941    4.2352724    4.2352724    4.2352724    8550.9941   -25839.444    54093.617     -2601.19     6060.624    73199.758   -15497.078    75.970337 
   59700    1640.5902   -163.07985    1.4844405   -161.59541   -15166.278    4.2369133    4.2369133    4.2369133   -15166.278   -35200.304    31152.783   -41451.312    9549.1315    79395.467     -15320.3    76.058668 
   59800    1582.2337   -163.02741    1.4316383   -161.59577    11504.422    4.2282322    4.2282322    4.2282322    11504.422    10354.654    57859.803   -33701.192    1234.5524    70505.937   -15796.031    75.592112 
   59900    1369.6046   -162.84297     1.239247   -161.60372    566.13045    4.2381595    4.2381595    4.2381595    566.13045   -28955.624    68749.958   -38095.943    5276.0163    67237.853   -15199.108    76.125805 
   60000    1215.5865   -162.69699    1.0998883    -161.5971    -17450.64    4.2471293    4.2471293    4.2471293    -17450.64   -31907.594    52639.499   -73083.826    -712.1647    75871.604   -5441.2213    76.610171 
   60100    1368.9329   -162.83264    1.2386393     -161.594    8356.2888     4.230786     4.230786     4.230786    8356.2888    10808.765    59822.452   -45562.351    5173.1488    78932.678   -7812.2239    75.729168 
   60200    1257.7719   -162.73514    1.1380584   -161.59708    13152.674    4.2301516    4.2301516    4.2301516    13152.674   -9936.1904    84579.636   -35185.425   -1332.4644    98074.309    381.93351    75.695106 
   60300    958.07362   -162.46867   0.86688515   -161.60178   -16384.096    4.2411798    4.2411798    4.2411798   -16384.096   -11393.001     17161.93   -54921.218   -4152.0865    100380.15    15026.327    76.288671 
   60400    561.99965    -162.1136   0.50850909   -161.60509    -119.0134    4.2410146    4.2410146    4.2410146    -119.0134   -21867.559    12733.563    8776.9566    29.167084    103238.82    14616.798    76.279756 
   60500    402.91946   -161.97611      0.36457   -161.61154   -11805.679    4.2322237    4.2322237    4.2322237   -11805.679   -68280.587    62100.252   -29236.701   -9178.3642    109181.05    13221.051    75.806394 
   60600    722.89194    -162.2699   0.65408782   -161.61581    15093.605    4.2267356    4.2267356    4.2267356    15093.605   -60410.495     85096.61    20594.699   -4118.8042    104948.26    12846.435    75.511876 
   60700     1190.826   -162.69521    1.0774844   -161.61772   -17170.668    4.2395439    4.2395439    4.2395439   -17170.668   -38411.602    43403.815   -56504.216   -2011.1018     95654.63    18813.111    76.200427 
   60800    1434.5917   -162.90549    1.2980487   -161.60744    1741.7373    4.2375738    4.2375738    4.2375738    1741.7373   -38220.374    35943.726    7501.8606   -8763.5629    91728.602    12144.545    76.094247 
   60900    1255.0453    -162.7369    1.1355914   -161.60131    8968.6925    4.2345288    4.2345288    4.2345288    8968.6925    2042.9501    59509.355   -34646.228    786.44618    76578.623     1797.947    75.930326 
   61000    1190.9339   -162.67482     1.077582   -161.59723   -15850.127    4.2368912    4.2368912    4.2368912   -15850.127   -19574.642    14528.541   -42504.281   -7378.9705    68687.494    173.16749     76.05748 
   61100    1604.5417   -163.04569    1.4518231   -161.59387    12361.071    4.2348593    4.2348593    4.2348593    12361.071    8618.5565    50328.992   -21864.336   -2504.2153     48263.28   -1926.0569    75.948106 
   61200    2014.9585   -163.41557    1.8231768   -161.59239   -730.70818    4.2450965    4.2450965    4.2450965   -730.70818    1358.6019    47995.532   -51546.258    60.783022     39489.94   -3066.8273    76.500222 
   61300    1988.4414   -163.38668    1.7991835    -161.5875   -10035.245    4.2389621    4.2389621    4.2389621   -10035.245   -30468.207     41139.71   -40777.239     51.72315    43609.873   -9807.6092    76.169061 
   61400    1690.0079   -163.11246    1.5291547    -161.5833    15918.921    4.2285148    4.2285148    4.2285148    15918.921    33484.766    35464.118   -21192.122    7501.1744    42666.523   -2267.2208    75.607273 
   61500     1537.348   -162.98373    1.3910248    -161.5927   -11386.695    4.2361943    4.2361943    4.2361943   -11386.695   -15818.973    16190.219   -34531.332    7217.7244    47511.176   -15796.693    76.019956 
   61600    1757.2776   -163.18561    1.5900217   -161.59559    -4280.167      4.23561      4.23561      4.23561    -4280.167   -13440.301    33428.033   -32828.233    14257.697    59801.416   -14145.634    75.988502 
   61700     1984.718    -163.3938    1.7958146   -161.59799    12008.303    4.2372174    4.2372174    4.2372174    12008.303    36857.251    37172.306   -38004.649    8697.4903     55742.53    -9213.136    76.075049 
   61800    2061.0485   -163.46159      1.86488   -161.59671   -7993.4212    4.2394016    4.2394016    4.2394016   -7993.4212   -40947.981    45491.535   -28523.817    18104.079    62566.855     -18911.4    76.192757 
   61900    1790.1762    -163.2138    1.6197891   -161.59401    10670.309    4.2272956    4.2272956    4.2272956    10670.309    -1920.067    56948.356   -23017.363     12783.99    70335.848   -9249.6537    75.541893 
   62000    1493.6138   -162.95341    1.3514532   -161.60196    3209.4781    4.2351417    4.2351417    4.2351417    3209.4781   -19931.192    38032.316   -8472.6896    5193.3128    61465.374   -15369.726    75.963301 
   62100    1528.4588   -162.97757    1.3829816   -161.59459   -20033.633    4.2455607    4.2455607    4.2455607   -20033.633   -46254.027    4592.7638   -18439.637   -967.88471     64484.29   -6621.1604    76.525321 
   62200    1697.6567   -163.12457    1.5360755    -161.5885    14585.757     4.233956     4.233956     4.233956    14585.757    8199.7795    36179.658   -622.16631   -5623.3672    56605.248   -6475.6255    75.899517 
   62300    1748.6258   -163.17477    1.5821934   -161.59258   -4298.3186    4.2384604    4.2384604    4.2384604   -4298.3186   -48220.002    41497.561   -6172.5142   -8525.1556    57868.382   -2100.0813    76.142021 
   62400    1507.1137   -162.95806    1.3636681    -161.5944   -5827.2718    4.2342419    4.2342419    4.2342419   -5827.2718   -44895.854    33797.342   -6383.3031   -22813.846    44331.482   -1407.0324    75.914897 
   62500    1505.2586   -162.95749    1.3619896    -161.5955    23437.789    4.2342171    4.2342171    4.2342171    23437.789   -10720.248    42928.871    38104.744   -18041.147    33240.841   -639.19145    75.913561 
   62600    1787.3826   -163.21023    1.6172613   -161.59297   -25093.132    4.2446953    4.2446953    4.2446953   -25093.132   -33233.785   -17975.826   -24069.785   -29102.973    17512.949     8415.602    76.478538 
   62700    2143.5199   -163.52826    1.9395018   -161.58876    8222.8536    4.2325441    4.2325441    4.2325441    8222.8536   -7476.3788    10687.115    21457.824   -20229.169    10005.639    214.67685    75.823614 
   62800    2252.4079   -163.62673     2.038026    -161.5887    3799.2211    4.2345692    4.2345692    4.2345692    3799.2211    4176.8875    37511.491   -30290.715   -18473.538   -9078.2176    6861.7938    75.932503 
   62900     2125.523   -163.51294    1.9232179   -161.58972   -19267.864    4.2391617    4.2391617    4.2391617   -19267.864   -27758.288    35843.618   -65888.923   -16105.109   -22927.745    9052.6604    76.179823 
   63000    2010.2089    -163.4089    1.8188792   -161.59002    14476.572    4.2344591    4.2344591    4.2344591    14476.572    15294.682    40981.689   -12846.655   -10227.817    -11190.02    852.43247    75.926577 
   63100    2087.4004   -163.48007    1.8887237   -161.59135   -3755.4036    4.2406324    4.2406324    4.2406324   -3755.4036    -14086.26    24567.767   -21747.718   -12432.386   -28679.396    5726.2009    76.259139 
   63200    2210.7901    -163.5911    2.0003693   -161.59074   -3310.7798    4.2352989    4.2352989    4.2352989   -3310.7798    8133.1682    13761.661   -31827.169   -4558.9134   -14051.063    10129.336     75.97176 
   63300    2217.5049   -163.59638     2.006445   -161.58994    19299.101    4.2283614    4.2283614    4.2283614    19299.101    32538.229    32140.868    -6781.795     5857.177   -19433.572    1918.6581    75.599042 
   63400    2125.6912   -163.51682      1.92337   -161.59345   -10899.724      4.23873      4.23873      4.23873   -10899.724   -2695.8188    5619.0286   -35622.383    12143.877   -5019.5428    10173.368    76.156552 
   63500    2124.6457   -163.51193    1.9224241    -161.5895   -8550.0043    4.2361352    4.2361352    4.2361352   -8550.0043    -4232.491    15734.364   -37151.886    23686.663    5187.2381    8754.3644    76.016773 
   63600    2228.2471   -163.60517    2.0161648   -161.58901   -2638.1453    4.2364936    4.2364936    4.2364936   -2638.1453   -3068.8111    12875.457   -17721.082    18855.355   -680.99615    953.20078    76.036073 
   63700    2419.5102   -163.77969    2.1892236   -161.59046   -2.7403384    4.2336951    4.2336951    4.2336951   -2.7403384    11805.792   -11535.634   -278.37957     30318.45     21584.12    15034.662    75.885489 
   63800    2624.1265    -163.9651    2.3743648   -161.59073    5825.4637    4.2297657    4.2297657    4.2297657    5825.4637    17978.065    3604.9927   -4106.6669    17824.136    1839.3033    -3541.184    75.674393 
   63900    2774.5477   -164.10453    2.5104691   -161.59406   -7481.7528    4.2416571    4.2416571    4.2416571   -7481.7528   -5942.9258    8692.1647   -25194.497    25109.288    16523.774    15997.574     76.31443 
   64000    2674.5046   -164.00827     2.419948   -161.58832   -3915.7849     4.238258     4.238258     4.238258   -3915.7849   -7818.8303    4220.8729   -8149.3971    28588.684   -5580.2518   -7577.8963    76.131113 
   64100    2379.9318   -163.73691    2.1534123   -161.58349   -4530.1429    4.2354959    4.2354959    4.2354959   -4530.1429   -1965.8982   -10648.657   -975.87359    28803.837    6239.1384    11650.472    75.982362 
   64200    1999.4011   -163.39192    1.8091001   -161.58282   -2888.5068    4.2384994    4.2384994    4.2384994   -2888.5068    15479.024   -46834.705    22690.161    37148.259   -10997.519   -5768.8593    76.144121 
   64300      1902.42   -163.30441    1.7213496   -161.58306   -5973.3923    4.2362973    4.2362973    4.2362973   -5973.3923    26238.264   -61486.563    17328.123    32986.033   -5192.0497   -15481.877    76.025501 
   64400     2053.613   -163.44372    1.8581522   -161.58557   -11048.626    4.2405075    4.2405075    4.2405075   -11048.626    12281.371    -26385.79   -19041.458    35866.594   -7956.9338   -9766.6182    76.252397 
   64500    2107.1311   -163.49537    1.9065765   -161.58879    9338.5842    4.2330791    4.2330791    4.2330791    9338.5842    16871.065    29.971371    11114.716    29755.438   -15195.254    -22113.86    75.852368 
   64600    1731.0142   -163.15979     1.566258   -161.59353    3866.9211    4.2307234    4.2307234    4.2307234    3866.9211    25942.719   -6505.0231   -7836.9323    27817.732   -4681.8273   -11287.573    75.725807 
   64700     1221.724   -162.70332    1.1054415   -161.59788    1172.7325    4.2406311    4.2406311    4.2406311    1172.7325    16448.327   -31984.334    19054.204     20858.17   -10645.932   -8475.5906    76.259066 
   64800    987.15652   -162.48782   0.89319996   -161.59462    3992.7525    4.2460583    4.2460583    4.2460583    3992.7525    19041.039   -21770.007    14707.226    19558.153   -5173.9696   -3821.3842    76.552233 
   64900    1030.8412   -162.51908   0.93272678   -161.58636   -14994.146    4.2510662    4.2510662    4.2510662   -14994.146     9014.388   -26062.182   -27934.644    29206.362   -6647.9849    -5544.413    76.823414 
   65000    1157.5431    -162.6317    1.0473694   -161.58433    9383.8735    4.2358967    4.2358967    4.2358967    9383.8735    31482.103    4658.1539   -7988.6361     16567.72   -6013.0535     15113.54    76.003933 
   65100    976.36991   -162.46682   0.88344001   -161.58338    7537.9038    4.2291007    4.2291007    4.2291007    7537.9038     48518.48   -5546.2001   -20358.569     24315.07   -4187.2394    19030.414    75.638704 
   65200     794.4824   -162.31001   0.71886437   -161.59114   -16840.695    4.2443786    4.2443786    4.2443786   -16840.695    13564.034   -37802.713   -26283.405    18725.843    325.79764    16078.388    76.461417 
   65300    1173.2774    -162.6503     1.061606    -161.5887   -12817.738    4.2419377    4.2419377    4.2419377   -12817.738    33407.055   -54635.268   -17225.001     1561.784    383.26136    31725.147    76.329578 
   65400    1527.5796   -162.97088    1.3821862    -161.5887    10560.169    4.2324099    4.2324099    4.2324099    10560.169    42724.395    1170.2572   -12214.146   -5777.0987   -6676.6004    30603.669    75.816399 
   65500     1586.171   -163.02992    1.4352009   -161.59472   -6240.7434    4.2332232    4.2332232    4.2332232   -6240.7434   -8173.2265   -15749.088    5200.0842     -24991.9    2472.2255    26968.112    75.860113 
   65600    1332.8584   -162.80466    1.2059983   -161.59866   -235.48018    4.2324877    4.2324877    4.2324877   -235.48018   -130.53104   -24239.384    23663.474   -33698.431   -4469.7487     16642.44     75.82058 
   65700    1126.3424   -162.61765    1.0191383   -161.59851   -1511.7563     4.242872     4.242872     4.242872   -1511.7563    957.79707    -18181.58    12688.514   -28813.431   -934.79496    16316.724    76.380023 
   65800     1487.923   -162.93266     1.346304   -161.58635   -13971.364    4.2441521    4.2441521    4.2441521   -13971.364   -28465.041    -28353.85      14904.8   -31997.012    3768.3073    6960.6408    76.449179 
   65900    1996.5832   -163.38623    1.8065504   -161.57968    8271.3905    4.2295312    4.2295312    4.2295312    8271.3905   -26016.307    36344.752    14485.726   -22761.398   -3696.0428    4928.6463    75.661803 
   66000    2333.1757   -163.69335    2.1111064   -161.58224    7941.5828    4.2345317    4.2345317    4.2345317    7941.5828   -14313.754    24716.164    13422.338   -6957.3587    3634.2807    6324.9406    75.930484 
   66100    2336.5785   -163.69364    2.1141853   -161.57945   -6444.6997    4.2411714    4.2411714    4.2411714   -6444.6997   -32198.691   -2180.2267    15044.818    7767.5673    920.26474   -1489.5645    76.288219 
   66200     2099.753   -163.48026    1.8999006   -161.58036   -4078.5792    4.2400458    4.2400458    4.2400458   -4078.5792   -22985.068    3776.5384    6972.7919    22582.017    475.35616   -3303.8563    76.227495 
   66300    2288.4245   -163.65353    2.0706145   -161.58291   -3311.6151    4.2360226    4.2360226    4.2360226   -3311.6151   -5639.2364   -16966.925    12671.316    36377.174   -2947.8424   -11325.453    76.010712 
   66400    2713.5994   -164.03962    2.4553217    -161.5843    14458.714    4.2298017    4.2298017    4.2298017    14458.714     9748.328    31893.818     1733.997    40610.714    -3426.954   -12377.737    75.676323 
   66500    2915.7239   -164.22696    2.6382083   -161.58875   -2924.3843     4.238497     4.238497     4.238497   -2924.3843    10666.868    5323.2185    -24763.24    44327.447   -5415.7279    -13398.78     76.14399 
   66600    2653.6511   -163.98149    2.4010793   -161.58042   -12373.817     4.242664     4.242664     4.242664   -12373.817    13899.569   -27811.059   -23209.962     35539.15   -3615.3728    -13645.96     76.36879 
   66700    2337.4805   -163.68705    2.1150015   -161.57205    4787.4441    4.2361647    4.2361647    4.2361647    4787.4441    50075.628    -34962.36    -750.9357    36134.008   -2075.4296   -4140.0083    76.018362 
   66800    2282.8077   -163.64013    2.0655324   -161.57459   -7645.5445    4.2396365    4.2396365    4.2396365   -7645.5445    15842.698    -18727.72   -20051.612    31546.596   -7215.1321   -2727.2422    76.205424 
   66900    2632.8439    -163.9609    2.3822524   -161.57865    3262.1551    4.2343233    4.2343233    4.2343233    3262.1551    27507.179   -3106.0659   -14614.648    36313.952   -2140.4142    7443.1552    75.919272 
   67000     2841.674   -164.15337    2.5712063   -161.58216    8782.6742    4.2327245    4.2327245    4.2327245    8782.6742    27245.803    6818.3728   -7716.1535    33312.782    3565.7074    14079.623     75.83331 
   67100    2464.7813   -163.81615    2.2301859   -161.58596   -4099.6962    4.2441616    4.2441616    4.2441616   -4099.6962    9979.6911    4776.0249   -27054.805    27608.944   -2052.5002    13463.235    76.449691 
   67200    2053.1899   -163.43906    1.8577694   -161.58129    590.70999    4.2359069    4.2359069    4.2359069    590.70999    18311.348   -14315.742   -2223.4763    30523.034    4651.3012    19439.554    76.004487 
   67300    1791.7953   -163.20261     1.621254   -161.58136    6765.6083    4.2323574    4.2323574    4.2323574    6765.6083    13132.246   -12475.705    19640.283    19496.348    2605.5174    13552.074    75.813578 
   67400    1911.3253    -163.3148    1.7294073   -161.58539    2094.1314    4.2385026    4.2385026    4.2385026    2094.1314   -14374.066    24003.129   -3346.6687    25383.577     4952.464    12357.709    76.144294 
   67500    2088.2732   -163.47716    1.8895135   -161.58765   -8592.1042    4.2364985    4.2364985    4.2364985   -8592.1042   -30113.558    6779.3892   -2442.1434    18362.759    12670.569    15596.119    76.036335 
   67600    2006.4321   -163.40838    1.8154619   -161.59292    12230.161    4.2336558    4.2336558    4.2336558    12230.161   -3161.2408    35033.566    4818.1567     11074.68   -4480.5147    9090.6318    75.883375 
   67700    1831.6697   -163.25531    1.6573333   -161.59798    -6883.765    4.2361379    4.2361379    4.2361379    -6883.765   -16719.653   -6909.9103    2978.2682    638.69649    1288.7213    17503.697    76.016919 
   67800    1495.8012   -162.94833    1.3534323    -161.5949    7151.9542    4.2346181    4.2346181    4.2346181    7151.9542   -26426.664    20621.997     27260.53   -11213.914     2189.271   -2416.4092    75.935132 
   67900    1485.2806   -162.93878    1.3439131   -161.59487   -10302.673    4.2403028    4.2403028    4.2403028   -10302.673   -39786.063   -8694.1438    17572.187    -24604.59   -1877.3378   -15085.035    76.241356 
   68000    1637.3586   -163.07402    1.4815165   -161.59251    5195.5124    4.2376975    4.2376975    4.2376975    5195.5124   -14123.867    13577.673    16132.731    -32767.06    752.16712     -16216.9    76.100913 
   68100    1454.5531   -162.90955    1.3161102   -161.59344    16665.475    4.2329324    4.2329324    4.2329324    16665.475    14460.295   -958.17858    36494.309   -32709.716   -5285.0995   -38301.887    75.844481 
   68200    1193.6068   -162.67461    1.0800005   -161.59461   -15167.994    4.2450758    4.2450758    4.2450758   -15167.994   -11697.782   -54275.172     20468.97   -48375.056   -3356.1888   -33810.931    76.499102 
   68300    819.88244   -162.32894   0.74184686   -161.58709   -5819.9915    4.2453725    4.2453725    4.2453725   -5819.9915   -10001.829   -53165.683    45707.538   -51281.234   -6507.6467   -33935.962    76.515148 
   68400    823.56901   -162.32388   0.74518255   -161.57869   -3255.9711    4.2450807    4.2450807    4.2450807   -3255.9711   -28966.562   -20909.652      40108.3   -70582.305   -2151.3114   -34702.659    76.499367 
   68500    939.53105   -162.42473   0.85010744   -161.57462   -6535.5368    4.2487635    4.2487635    4.2487635   -6535.5368   -20407.322   -4744.1694    5544.8805   -91276.379   -8495.6892   -25867.925    76.698641 
   68600    781.15675   -162.28306   0.70680705   -161.57626    19674.777    4.2388815    4.2388815    4.2388815    19674.777    6855.1417    15115.874    37053.316   -95624.953   -8210.3883   -18524.349    76.164717 
   68700    533.03118   -162.05616   0.48229782   -161.57386    1793.8646    4.2432321    4.2432321    4.2432321    1793.8646   -5103.0596   -43934.606    54419.259   -87538.073    -22525.14   -27356.053    76.399475 
   68800    357.62378   -161.89848   0.32358551   -161.57489    -14374.32    4.2507473    4.2507473    4.2507473    -14374.32   -34039.836    -61773.36    52690.236   -74371.395     -25610.1   -8861.0822    76.806128 
   68900    722.13475   -162.22584    0.6534027   -161.57243    8356.9302    4.2431117    4.2431117    4.2431117    8356.9302   -38543.518    2532.0425    61082.266    -75254.92   -30206.007   -21116.316    76.392971 
   69000    1120.4563   -162.59239    1.0138124   -161.57857    7659.4479    4.2388168    4.2388168    4.2388168    7659.4479   -50333.063   -5912.3269    79223.733   -71268.531   -24976.078   -20679.328    76.161228 
   69100    1194.9498   -162.66939    1.0812157   -161.58818   -9518.2693    4.2389676    4.2389676    4.2389676   -9518.2693   -43145.633   -1827.1419    16417.967   -71253.683   -34466.988   -15389.034    76.169357 
   69200    944.04476   -162.45057   0.85419154   -161.59638    5270.9383    4.2357769    4.2357769    4.2357769    5270.9383   -14384.949   -3851.0371    34048.801   -65857.221   -29842.841   -14192.736    75.997489 
   69300    702.61057   -162.23672   0.63573681   -161.60098   -10818.709    4.2399128    4.2399128    4.2399128   -10818.709   -12380.268   -30634.934    10559.074   -62665.955   -32602.595   -5368.1047    76.220322 
   69400    815.47229   -162.33521   0.73785647   -161.59736   -10996.182    4.2410929    4.2410929    4.2410929   -10996.182    7838.6411   -17286.498   -23540.689   -61552.505   -25926.271   -3075.4638    76.283983 
   69500    1261.3457    -162.7377    1.1412921    -161.5964    3239.8736    4.2367372    4.2367372    4.2367372    3239.8736   -1056.7487    26781.343   -16004.974   -47824.898   -20819.774   -4438.2441    76.049189 
   69600    1562.4657   -163.00668    1.4137518   -161.59292   -5604.3212    4.2354845    4.2354845    4.2354845   -5604.3212   -28880.941    12290.366   -222.38887   -50294.012   -21628.636   -1206.0438     75.98175 
   69700    1530.8279   -162.98084    1.3851253   -161.59572   -3097.5087    4.2313299    4.2313299    4.2313299   -3097.5087   -34335.441    13675.147    11367.768   -57560.946   -14302.417    4020.8781    75.758376 
   69800    1529.8011   -162.98484    1.3841961   -161.60065    1622.1044    4.2361266    4.2361266    4.2361266    1622.1044   -31066.098    8966.5664    26965.844    -38161.37   -14247.085   -1589.6449     76.01631 
   69900     1560.644   -163.00783    1.4121035   -161.59573   -7367.7939    4.2395817    4.2395817    4.2395817   -7367.7939   -21487.444   -15998.337      15382.4   -43906.932   -5523.0546     11666.59    76.202466 
   70000    1635.9315   -163.07014    1.4802252   -161.58991   -8509.5923    4.2373808    4.2373808    4.2373808   -8509.5923   -31215.688    8301.4353    -2614.524   -33874.954   -13959.386    2338.4745    76.083848 
   70100    1642.3898   -163.07117    1.4860688    -161.5851   -6984.2554    4.2422554    4.2422554    4.2422554   -6984.2554   -33984.673    17626.714   -4594.8073   -29954.933   -10748.198    6072.4684     76.34673 
   70200    1698.1712   -163.11618     1.536541   -161.57964   -2072.0335    4.2400207    4.2400207    4.2400207   -2072.0335   -29033.779    1215.9477     21601.73   -31747.637   -5456.1777    261.56595     76.22614 
   70300    1768.6068   -163.17943    1.6002726   -161.57915   -648.39867    4.2360865    4.2360865    4.2360865   -648.39867   -42085.524    2238.7602    37901.568   -37653.209   -9033.6277   -3234.7751     76.01415 
   70400    1773.3946   -163.18815    1.6046047   -161.58354    5437.7827    4.2389209    4.2389209    4.2389209    5437.7827   -11889.914   -3152.9923    31356.254    -38065.84   -2491.0656    1527.6588    76.166842 
   70500    1657.5342   -163.08326    1.4997718   -161.58349    9248.3452    4.2371943    4.2371943    4.2371943    9248.3452    10277.326   -7498.1058    24965.816   -49087.067   -2189.0817   -3851.1521    76.073807 
   70600    1601.2307    -163.0357    1.4488272   -161.58687    3001.5899    4.2365461    4.2365461    4.2365461    3001.5899   -3203.5886    -4847.337    17055.695   -43012.995    8528.8722    8456.5253    76.038895 
   70700    1704.8374    -163.1314    1.5425727   -161.58882   -8055.6756    4.2399649    4.2399649    4.2399649   -8055.6756   -2380.3844   -24471.448    2684.8056   -47075.988    4401.9249   -412.82147     76.22313 
   70800    1925.6708   -163.33523    1.7423874   -161.59284    12578.347    4.2304329    4.2304329    4.2304329    12578.347    31670.724   -27393.314    33457.632   -45175.947    13360.721    6175.5248    75.710208 
   70900     1913.566   -163.32977    1.7314347   -161.59834    5748.3818    4.2313851    4.2313851    4.2313851    5748.3818    14257.732   -53404.081    56391.495   -48592.286    14589.824   -3814.6685    75.761344 
   71000    1762.4757   -163.19436    1.5947251   -161.59963   -14985.238    4.2396171    4.2396171    4.2396171   -14985.238   -16770.793   -59333.733    31148.813   -44413.546    6974.0131   -11219.747    76.204375 
   71100    1723.3752   -163.15398    1.5593461   -161.59464    4825.1039    4.2390148    4.2390148    4.2390148    4825.1039    9928.7656   -19959.316    24505.862   -32670.373    7337.7816   -5199.6216    76.171901 
   71200    1909.6738    -163.3206     1.727913   -161.59269   -11.527967    4.2369725    4.2369725    4.2369725   -11.527967   -32609.965    7696.0427    24879.339   -34926.146    4538.8003   -4541.6122    76.061861 
   71300    1976.1996   -163.38246     1.788107   -161.59435      10949.8    4.2315147    4.2315147    4.2315147      10949.8   -17993.097    6651.1412    44191.355   -32762.784    723.07865    5406.0015    75.768303 
   71400    1903.1977   -163.32236    1.7220533    -161.6003    193.89598    4.2359679    4.2359679    4.2359679    193.89598    -8054.515   -8347.8034    16984.006   -22579.985   -6457.0125    3160.2178    76.007766 
   71500    1859.2834   -163.27937    1.6823187   -161.59705   -17429.949    4.2429509    4.2429509    4.2429509   -17429.949   -27472.096   -15905.492   -8912.2608    -12330.55   -23128.581    4079.2957    76.384284 
   71600    2042.6748   -163.43772    1.8482551   -161.58946   -1714.8025    4.2403825    4.2403825    4.2403825   -1714.8025   -15085.565   -7760.7979    17701.955    1588.5386   -28166.254    4726.9405    76.245657 
   71700     2289.962    -163.6551    2.0720058    -161.5831   -4624.7723    4.2386335    4.2386335    4.2386335   -4624.7723   -38271.824    35583.887    -11186.38     10991.41   -31059.583     8097.532    76.151351 
   71800    2178.3311   -163.55371    1.9709997   -161.58271   -3120.4307    4.2374988    4.2374988    4.2374988   -3120.4307    2984.8183    34991.567   -47337.677     11757.13   -39623.538   -1884.6209    76.090209 
   71900    2061.0864   -163.44713    1.8649143   -161.58221    7259.2615    4.2359421    4.2359421    4.2359421    7259.2615    10926.674    22139.836   -11288.726    15927.834   -17225.069    8679.1605     76.00638 
   72000    2183.2321   -163.55799    1.9754343   -161.58256   -5395.2692    4.2390888    4.2390888    4.2390888   -5395.2692   -5259.2391    3778.0252   -14704.594    23416.437   -23744.175   -11588.895    76.175891 
   72100    2485.4898   -163.83093    2.2489234     -161.582   -20319.014    4.2440525    4.2440525    4.2440525   -20319.014   -28851.022    4934.0999   -37040.119    36980.878   -11468.145   -5097.3234    76.443795 
   72200    2629.2483    -163.9593    2.3789991    -161.5803    -1098.256    4.2381755    4.2381755    4.2381755    -1098.256   -11118.558    38838.364   -31014.574    43511.651   -10965.562    -9630.952    76.126666 
   72300    2338.1974   -163.69323    2.1156501   -161.57758    17425.493    4.2296437    4.2296437    4.2296437    17425.493    26673.945    39543.614   -13941.079    41281.998    4814.9488    -8430.329    75.667841 
   72400    2139.4974   -163.51771    1.9358622   -161.58184   -16575.424     4.242473     4.242473     4.242473   -16575.424    11846.167   -19928.453   -41643.986    45829.563    7634.0716   -5392.5978    76.358476 
   72500    2271.4814   -163.63088    2.0552841    -161.5756   -23128.102    4.2475222    4.2475222    4.2475222   -23128.102      29636.7   -60364.872   -38656.135    35940.606    2034.3156   -22498.719    76.631439 
   72600    2541.7345   -163.87276    2.2998148   -161.57295    9824.6852    4.2351411    4.2351411    4.2351411    9824.6852    42939.671   -24904.292    11438.676    27592.105    21902.861   -15613.115    75.963268 
   72700    2621.1963   -163.94994    2.3717135   -161.57822    -562.3007    4.2379191    4.2379191    4.2379191    -562.3007    32409.639   -9301.8631   -24794.678    17948.461   -2435.5836   -30415.546    76.112849 
   72800    2135.3688   -163.51188    1.9321266   -161.57975   -9889.8098    4.2401912    4.2401912    4.2401912   -9889.8098    37352.366   -15379.345    -51642.45    10531.777    14115.333   -30474.006    76.235337 
   72900    1689.5217   -163.10806    1.5287147   -161.57934   -13410.883     4.241226     4.241226     4.241226   -13410.883    25934.473   -29144.941   -37022.182    10140.447   -2682.4142   -36273.897    76.291164 
   73000    1744.1423   -163.15982    1.5781366   -161.58168    -21727.24     4.243365     4.243365     4.243365    -21727.24    14967.125   -38802.199   -41346.646    6309.8133    6325.1321   -24938.641    76.406654 
   73100    2197.6574     -163.575    1.9884866   -161.58652     8021.401    4.2341586    4.2341586    4.2341586     8021.401    7629.0667     18440.71   -2005.5735    990.16486    8314.9414   -16713.682    75.910416 
   73200    2374.7755   -163.74309    2.1487467   -161.59434    11654.727    4.2327213    4.2327213    4.2327213    11654.727   -14088.345    17029.954    32022.573   -43.104749   -5308.4757   -7355.6864    75.833138 
   73300     2247.044   -163.63127    2.0331726    -161.5981    1112.0977    4.2385793    4.2385793    4.2385793    1112.0977   -10731.034   -9769.4197    23836.747   -6627.5239    5066.7935    5809.0603    76.148429 
   73400    2078.7855   -163.47314    1.8809288   -161.59221   -10366.246    4.2431215    4.2431215    4.2431215   -10366.246   -6268.7268   -42746.242    17916.229   -18338.222   -8284.9671    2165.4456    76.393498 
   73500    2067.3372   -163.45636    1.8705701   -161.58579   -228.13617    4.2403992    4.2403992    4.2403992   -228.13617   -4964.0125    -6687.584    10967.188   -19759.925    4776.5044    12719.658    76.246556 
   73600    2227.9023   -163.59856    2.0158528   -161.58271    3846.7356    4.2348963    4.2348963    4.2348963    3846.7356   -649.16202   -6345.4825    18534.852   -29960.464   -7940.3108    11792.392    75.950099 
   73700    1971.1869   -163.36942    1.7835713   -161.58585   -8252.1803    4.2408993    4.2408993    4.2408993   -8252.1803   -43115.491   -13214.591    31573.541   -27329.931    775.74315    16191.159    76.273536 
   73800    1638.6883   -163.06677    1.4827196   -161.58405   -11915.999    4.2416916    4.2416916    4.2416916   -11915.999   -41021.257   -4295.4255    9568.6842   -25496.861    1309.9674     13142.74    76.316292 
   73900    1630.0344   -163.06001    1.4748894   -161.58512   -9413.1486    4.2366239    4.2366239    4.2366239   -9413.1486   -23745.918    -35227.92    30734.392   -41273.694    2926.3293    9028.6714    76.043086 
   74000    1580.6022    -163.0219    1.4301621   -161.59174    7975.2771    4.2356983    4.2356983    4.2356983    7975.2771    5830.9396   -20151.456    38246.348   -36547.062    9454.8588     7680.549    75.993255 
   74100    1326.6393    -162.7955    1.2003711   -161.59513   -978.66014     4.239083     4.239083     4.239083   -978.66014    -17084.94     10310.96    3837.9995   -43432.503    18209.048    161.39822    76.175576 
   74200    955.08508   -162.46028   0.86418105    -161.5961   -3955.2886    4.2440673    4.2440673    4.2440673   -3955.2886   -56564.068    11399.136    33299.066   -41928.297    18089.883   -3140.7271    76.444594 
   74300    937.97876   -162.44232   0.84870289   -161.59362   -12284.665    4.2418468    4.2418468    4.2418468   -12284.665   -59168.136    11178.405    11135.735   -39800.961    25705.845   -11014.391    76.324671 
   74400    1213.4423   -162.69186    1.0979481   -161.59391    15721.138    4.2318658    4.2318658    4.2318658    15721.138     1460.038    7246.6868    38456.688   -41487.157    31300.391   -18979.361    75.787166 
   74500    1329.1164   -162.80562    1.2026125     -161.603    1616.3624    4.2367751    4.2367751    4.2367751    1616.3624   -13972.156   -17290.778    36112.021   -24278.541    31426.559   -15535.908     76.05123 
   74600    1041.0468   -162.54132   0.94196102   -161.59936    -19959.66    4.2438191    4.2438191    4.2438191    -19959.66   -16871.065    -28253.23   -14754.685   -27511.304    35838.612   -17118.266    76.431186 
   74700     918.9366   -162.42627   0.83147315    -161.5948    168.45468    4.2393021    4.2393021    4.2393021    168.45468   -46032.855    744.87193    45793.347   -23493.769    28187.757   -12862.689    76.187391 
   74800    1350.5949   -162.81675    1.2220467    -161.5947   -12294.038    4.2362223    4.2362223    4.2362223   -12294.038    -34330.78   -9249.1527    6697.8193   -24428.529    26168.596   -4367.2753    76.021466 
   74900    1821.1818   -163.24622    1.6478436   -161.59837    1417.5811    4.2305911    4.2305911    4.2305911    1417.5811   -25215.365    265.90632    29202.202   -22213.698    15746.593   -3052.5398    75.718699 
   75000    1894.0114   -163.31825    1.7137413   -161.60451     9993.754    4.2349317    4.2349317    4.2349317     9993.754   -6728.2327   -8241.4303    44950.925   -18047.449    16171.046    5832.7483    75.952003 
   75100    1582.8539   -163.03521    1.4321994   -161.60301   -19965.342    4.2444859    4.2444859    4.2444859   -19965.342   -35037.725   -20387.854    -4470.448   -12906.966    6226.1168    6379.5666    76.467215 
   75200    1209.2891   -162.69409    1.0941902    -161.5999     -11940.3    4.2340591    4.2340591    4.2340591     -11940.3   -40658.695   -6282.4292    11120.225   -7218.9099    2010.5285    15642.441    75.905061 
   75300    1289.3919   -162.76558    1.1666688   -161.59891    9044.3607    4.2253158    4.2253158    4.2253158    9044.3607    5695.5675    7948.1837    13489.331    3960.1987   -137.51702    21961.577    75.435802 
   75400    1548.3131    -163.0094    1.4009462   -161.60846   -5105.8491    4.2361667    4.2361667    4.2361667   -5105.8491    7854.6149   -23424.774      252.612    10132.122   -13750.246    22752.198    76.018468 
   75500     1774.024   -163.21061    1.6051742   -161.60543    -4653.376    4.2402097    4.2402097    4.2402097    -4653.376    25175.766   -33954.257   -5181.6372    21779.073   -14135.598    25171.203    76.236335 
   75600    1582.0037    -163.0351    1.4314302   -161.60367    6229.4058    4.2404744    4.2404744    4.2404744    6229.4058    32959.266    9985.6294   -24256.678    24506.122   -27057.939    9226.8827    76.250612 
   75700    1026.0103   -162.53271   0.92835572   -161.60435   -18049.577    4.2362636    4.2362636    4.2362636   -18049.577    10330.206    -19027.44   -45451.498     28992.46   -18302.738    18262.154    76.023685 
   75800    320.43283   -161.89715   0.28993436   -161.60722    15781.781    4.2253407    4.2253407    4.2253407    15781.781    40877.044    57176.691   -50708.392    25003.385   -27546.586    13371.498    75.437138 
   75900    169.39247   -161.77346   0.15326986   -161.62019   -20293.996    4.2374738    4.2374738    4.2374738   -20293.996    21555.327    1064.8661   -83502.182    16992.378   -22807.833    4121.9495    76.088858 
   76000    712.30687   -162.25519   0.64451022   -161.61068   -10449.527    4.2439743    4.2439743    4.2439743   -10449.527   -1608.7133    25247.793   -54987.662    19253.686   -26455.162    13396.098    76.439569 
   76100    1273.3523   -162.75411    1.1521559   -161.60195     17875.56    4.2379835    4.2379835    4.2379835     17875.56    31392.472    24379.104   -2144.8958    15651.697   -21794.187    12309.993    76.116323 
   76200    1427.5238   -162.88788    1.2916536   -161.59622   -3783.8477     4.238826     4.238826     4.238826   -3783.8477    11669.896   -6561.8495    -16459.59    4000.2641   -19618.661     7436.833    76.161726 
   76300    1346.0872   -162.80879     1.217968   -161.59082   -2647.6011    4.2365435    4.2365435    4.2365435   -2647.6011   -16834.992    1344.7838    7547.4051    6357.2289   -9190.7989    19787.242    76.038755 
   76400    1136.2827   -162.62096    1.0281325   -161.59283    8621.2228    4.2385375    4.2385375    4.2385375    8621.2228   -899.28771    34853.772   -8090.8159    3120.1596   -4712.1493    4509.5075    76.146177 
   76500    1247.9843   -162.72268    1.1292024   -161.59348   -13222.445    4.2362961    4.2362961    4.2362961   -13222.445   -31032.551    2681.0742   -11315.858   -7014.8482     6862.532    8798.4769    76.025439 
   76600    1648.9555   -163.08945    1.4920096   -161.59744     8904.403    4.2330673    4.2330673    4.2330673     8904.403   -4693.1316   -9297.7727    40704.113   -7718.9585    7295.5956    11225.757    75.851734 
   76700    1841.3196   -163.26765    1.6660647   -161.60158   -12818.097    4.2442284    4.2442284    4.2442284   -12818.097    -20218.36    -20026.53    1790.5976   -16316.987    11020.245     2540.113    76.453303 
   76800    1599.9971   -163.04936     1.447711   -161.60165   -3510.9486    4.2350497    4.2350497    4.2350497   -3510.9486   -29539.428   -16641.868     35648.45   -21624.469    23668.126     6271.288    75.958352 
   76900    1065.5106     -162.568   0.96409637    -161.6039    15158.074    4.2290542    4.2290542    4.2290542    15158.074    4218.3841    9109.9049    32145.932   -25897.375     30491.02   -8817.5069    75.636207 
   77000    806.72822   -162.34027   0.72994464   -161.61032   -27519.908    4.2362712    4.2362712    4.2362712   -27519.908   -64055.073    -13910.06   -4594.5921   -39561.101    30878.288    -2915.117    76.024095 
   77100    876.00375   -162.40627    0.7926266   -161.61364    8870.4054    4.2375003    4.2375003    4.2375003    8870.4054    10755.396   -6605.7912    22461.611   -36828.021    40217.153    -8368.337     76.09029 
   77200    1151.7727   -162.65575    1.0421482    -161.6136   -19190.702    4.2375317    4.2375317    4.2375317   -19190.702   -52978.276   -21545.689     16951.86   -40949.804    46822.086   -5454.7973    76.091977 
   77300    1284.7129   -162.77205    1.1624352   -161.60961    8829.2939    4.2279427    4.2279427    4.2279427    8829.2939   -27036.974   -15443.569    68968.425   -47703.432    44359.759   -4453.0233    75.576587 
   77400    1028.0812   -162.54627   0.93022943   -161.61604   -9309.9309    4.2351072    4.2351072    4.2351072   -9309.9309    -69213.62   -7341.1651    48624.992   -46133.743      44272.5   -7934.0776    75.961444 
   77500    800.51467   -162.33814    0.7243225   -161.61381   -22070.708    4.2364862    4.2364862    4.2364862   -22070.708   -81962.155    16127.158    -377.1268   -45995.414    57013.448    9364.9488    76.035672 
   77600    870.25514   -162.39942   0.78742514     -161.612    14865.294    4.2308111    4.2308111    4.2308111    14865.294   -11021.781    19091.331     36526.33   -39107.589     47834.65    814.93644    75.730516 
   77700    1042.6102   -162.55421   0.94337559   -161.61083   -20933.691    4.2397261    4.2397261    4.2397261   -20933.691   -60559.837   -9880.5268    7639.2917   -38380.117    43816.742     7422.969    76.210254 
   77800    1317.3906     -162.795    1.1920027     -161.603   -4238.1049    4.2354129    4.2354129    4.2354129   -4238.1049   -26337.441     888.5965     12734.53   -26544.332     50569.85   -4092.1917    75.977897 
   77900    1324.2475   -162.80201    1.1982069   -161.60381      5955.63    4.2339243    4.2339243    4.2339243      5955.63   -43628.903    1274.6863    60221.107   -14006.502    52535.187   -1871.3398    75.897814 
   78000    1289.5084   -162.77064    1.1667743   -161.60386   -9311.3209    4.2360541    4.2360541    4.2360541   -9311.3209   -60675.379     15955.94    16785.476    -2318.037    47377.291   -441.60085    76.012411 
   78100    1129.9743   -162.62409    1.0224245   -161.60167   -1868.1126    4.2347211    4.2347211    4.2347211   -1868.1126   -33209.123    40744.576   -13139.791      6167.06    52235.185   -5337.4168     75.94067 
   78200    1062.0749   -162.56593   0.96098766   -161.60495    -12756.67     4.240168     4.240168     4.240168    -12756.67   -57656.834    39362.816   -19975.992    8137.8078    51377.629    4073.3101    76.234085 
   78300    1220.2093   -162.70715     1.104071   -161.60308   -4368.1773    4.2351769    4.2351769    4.2351769   -4368.1773   -16927.279    13315.699   -9492.9527    22167.114    53083.963    -2655.042    75.965197 
   78400     1396.909   -162.86686    1.2639526   -161.60291     7226.771    4.2322557    4.2322557    4.2322557     7226.771   -45433.601     18309.17    48804.743     25130.51    53506.291    27.901588    75.808116 
   78500    1325.2218   -162.79943    1.1990885   -161.60034   -20504.324    4.2419097    4.2419097    4.2419097   -20504.324   -67754.995    14348.847   -8106.8233    22129.696    66275.963    4002.4225    76.328066 
   78600    1025.9374   -162.52534   0.92828969   -161.59705   -2112.3206    4.2364351    4.2364351    4.2364351   -2112.3206   -30948.999    10863.965    13748.072     34925.63    52386.673   -1981.2337    76.032921 
   78700     925.9518   -162.43515   0.83782065   -161.59733    3522.1196     4.229351     4.229351     4.229351    3522.1196    -13658.83     14897.56    9327.6291    30763.753    56951.032    3280.1449    75.652135 
   78800    1131.2054   -162.62569    1.0235384   -161.60215   -12727.872    4.2369574    4.2369574    4.2369574   -12727.872   -4868.9741    7508.9922   -40823.634    34329.142    55953.765    -710.8232    76.061048 
   78900    1510.5586   -162.96968    1.3667852    -161.6029    -4446.511    4.2356375    4.2356375    4.2356375    -4446.511   -25375.913   -11893.855    23930.236     32072.46    33944.745   -4013.1074    75.989984 
   79000    1683.5413   -163.12576    1.5233036   -161.60246    11668.968    4.2344216    4.2344216    4.2344216    11668.968   -7072.5303   -17645.999    59725.432    42139.598     27726.13    -1365.895    75.924561 
   79100    1624.0633   -163.07042    1.4694866   -161.60094   -8130.8455    4.2387475    4.2387475    4.2387475   -8130.8455   -28367.288    957.48879    3017.2625    35585.249    13.374791   -1234.4251    76.157494 
   79200    1564.9472   -163.01239    1.4159972   -161.59639    -1236.025    4.2340359    4.2340359    4.2340359    -1236.025    838.32018    6555.6361   -11102.031    30136.243   -2635.5472    1790.3232    75.903818 
   79300    1674.4881   -163.10792     1.515112    -161.5928   -5986.5985    4.2417344    4.2417344    4.2417344   -5986.5985    14861.458     6682.603   -39503.857    22347.593   -3600.3631   -4579.7045    76.318604 
   79400    2187.0486   -163.56188    1.9788875     -161.583   -4756.0567    4.2426773    4.2426773    4.2426773   -4756.0567    5761.2643    30147.474   -50176.908    2255.9653   -14259.493    3178.7647    76.369509 
   79500    2649.6212   -163.97112    2.3974329   -161.57369    18160.215     4.234346     4.234346     4.234346    18160.215    9057.6979    43087.175    2335.7727    6667.4076    1429.3042   -249.85463    75.920495 
   79600    2617.8293   -163.94134    2.3686669   -161.57267   -15501.385    4.2451727    4.2451727    4.2451727   -15501.385   -30096.883   -219.94234   -16187.329     827.5366   -6248.9457   -6919.9388    76.504343 
   79700    2241.8872   -163.59683    2.0285066   -161.56833   -11256.809    4.2378504    4.2378504    4.2378504   -11256.809   -8320.5427    8812.1979   -34262.082    4475.5676    4467.2924   -13174.525    76.109148 
   79800    2050.0547   -163.42252    1.8549326   -161.56759     12278.14    4.2289781    4.2289781    4.2289781     12278.14    32628.194    30513.953   -26307.726    2035.9799    5498.5215    -4238.842    75.632124 
   79900    2278.8985    -163.6416    2.0619953   -161.57961   -444.15501    4.2385357    4.2385357    4.2385357   -444.15501    3528.4591     2621.103   -7482.0271   -4104.2589    6124.4981   -8082.8248     76.14608 
   80000      2741.43   -164.06335    2.4805035   -161.58285    535.32788    4.2387479    4.2387479    4.2387479    535.32788   -9933.7816   -5090.3842    16630.149   -2545.5396    9925.4388    2902.5711    76.157516 
   80100    2708.8418   -164.03489     2.451017   -161.58387    2470.5826    4.2359234    4.2359234    4.2359234    2470.5826   -8514.8601     -5705.78    21632.388   -5945.8298   -7896.2814   -460.25991    76.005372 
   80200     2311.184   -163.67447    2.0912078   -161.58326    10609.641    4.2320992    4.2320992    4.2320992    10609.641   -15027.103    12812.262    34043.763   -8495.0421   -3415.2375    9176.7257    75.799703 
   80300    2174.9472   -163.55346    1.9679379   -161.58552   -12313.734    4.2355567    4.2355567    4.2355567   -12313.734   -12973.373    14775.107   -38742.935   -6404.4929   -2760.5915    6414.5502    75.985637 
   80400    2391.7872    -163.7502    2.1641393   -161.58607    9016.8774    4.2365589    4.2365589    4.2365589    9016.8774   -8072.3249     21938.01    13184.947   -10823.686   -10893.921   -1364.2389    76.039586 
   80500    2711.1586   -164.03683    2.4531133   -161.58372    11689.446    4.2381069    4.2381069    4.2381069    11689.446   -25142.213    27742.071    32468.481   -2094.0139    10876.417    6707.6431    76.122967 
   80600    2488.6511   -163.83089    2.2517838    -161.5791   -11458.946    4.2483939    4.2483939    4.2483939   -11458.946   -46402.902    4464.3996    7561.6653   -2006.7425    9065.5698    4421.8287    76.678628 
   80700    1849.4243   -163.23811    1.6733979   -161.56471   -2606.0144    4.2434168    4.2434168    4.2434168   -2606.0144   -33847.271    16043.272    9985.9563   -2310.2153    36535.055    6556.2512    76.409451 
   80800    1420.0713   -162.84612    1.2849103   -161.56121   -28742.261    4.2434315    4.2434315    4.2434315   -28742.261   -26631.398   -2918.6061    -56676.78   -6139.7441    41275.293   -1096.3278    76.410242 
   80900    1521.9821    -162.9464    1.3771213   -161.56928    26.467872    4.2381124    4.2381124    4.2381124    26.467872   -7028.4509    3698.7423    3409.1122   -6913.8147    51904.609    273.57081    76.123264 
   81000    1828.9067    -163.2337    1.6548332   -161.57886    764.97872    4.2341008    4.2341008    4.2341008    764.97872   -25282.567    3350.5192    24226.984     2521.034    57729.367     2408.386    75.907307 
   81100    1701.3641   -163.12909      1.53943   -161.58966   -12913.864    4.2405869    4.2405869    4.2405869   -12913.864   -29460.996    -11207.14    1926.5437    1444.7393    57293.975    3517.9663     76.25668 
   81200    1208.7353   -162.68466    1.0936891   -161.59097    15659.493    4.2360983    4.2360983    4.2360983    15659.493   -11381.084    12499.229    45860.335   -2386.2327    63093.182    7485.3603    76.014789 
   81300    856.33698   -162.36689   0.77483169   -161.59206   -20706.284    4.2403764    4.2403764    4.2403764   -20706.284   -22277.749     39832.51   -79673.614   -7861.9215    62528.194    6540.3385    76.245326 
   81400    1004.5826   -162.49802   0.90896746   -161.58905    8514.0653    4.2363682    4.2363682    4.2363682    8514.0653   -27387.317    62735.872   -9806.3591   -6621.4101    72111.772    11949.182    76.029321 
   81500    1264.6991   -162.73395    1.1443264   -161.58962    6269.8342    4.2350529    4.2350529    4.2350529    6269.8342   -16031.545    56962.876   -22121.829   -3693.6783    75893.907    15392.217    75.958524 
   81600    1165.1224   -162.64313    1.0542273    -161.5889   -15389.742    4.2446511    4.2446511    4.2446511   -15389.742   -65915.422    60310.153   -40563.958   -887.07259     79430.86    7689.1995    76.476144 
   81700    723.17563   -162.23554   0.65434451    -161.5812    11124.522    4.2383604    4.2383604    4.2383604    11124.522   -57075.898    86772.364    3677.0982   -1018.2947    85725.765    14499.176    76.136629 
   81800    479.69384    -162.0151   0.43403707   -161.58107   -15518.894    4.2382827    4.2382827    4.2382827   -15518.894   -20831.431    74959.489   -100684.74    75.172858    87662.674   -3106.0343     76.13244 
   81900    792.69949   -162.30002   0.71725116   -161.58277   -13480.407    4.2398921    4.2398921    4.2398921   -13480.407   -43854.671    43796.127   -40382.676   -1081.1213    92988.914    1262.9758    76.219204 
   82000    1269.5743   -162.73479    1.1487375   -161.58605    2127.2843    4.2389524    4.2389524    4.2389524    2127.2843   -42690.107    61624.858   -12552.897    2971.1377    91174.678   -3255.1769    76.168536 
   82100    1302.1602   -162.76419    1.1782219   -161.58596   -14188.486    4.2399195    4.2399195    4.2399195   -14188.486   -39108.062    48480.674   -51938.072   -872.51483    71873.689   -5193.0594    76.220685 
   82200    1082.3518   -162.56046   0.97933469   -161.58113   -3341.2297    4.2390238    4.2390238    4.2390238   -3341.2297   -44224.726     44957.28   -10756.243    2150.4389    60944.297   -5554.1882    76.172387 
   82300    1087.2141   -162.56192   0.98373417   -161.57819   -4445.4054    4.2402525    4.2402525    4.2402525   -4445.4054   -8125.8805    85959.521   -91169.857    -4357.668     43965.73   -8053.2393    76.238645 
   82400    1705.7276   -163.11971    1.5433782   -161.57633   -11189.015    4.2375333    4.2375333    4.2375333   -11189.015   -11827.534    29493.473   -51232.985   -9060.8603    30595.062   -4286.5303    76.092066 
   82500    2262.1031   -163.62694    2.0467985   -161.58014    2859.2841    4.2375816    4.2375816    4.2375816    2859.2841   -6136.6584    65.922085    14648.589    1792.6181    25155.087   -2775.7557    76.094669 
   82600    2345.0726   -163.70521     2.121871   -161.58334    12427.277    4.2329923    4.2329923    4.2329923    12427.277   -560.17274     14589.45    23252.555   -3862.4136    3131.9832     6762.123    75.847705 
   82700    2114.3963   -163.49633    1.9131502   -161.58318    1939.1692    4.2348468    4.2348468    4.2348468    1939.1692   -12105.391   -1025.4582    18948.357    11863.611    4295.6594   -2608.5329    75.947437 
   82800    1830.1327   -163.23722    1.6559425   -161.58128   -15399.566     4.242113     4.242113     4.242113   -15399.566    4147.5036     -19093.7   -31252.502    6190.0883    -5763.271     11261.52    76.339041 
   82900    2319.2867   -163.67278    2.0985393   -161.57424   -5429.8625    4.2337262    4.2337262    4.2337262   -5429.8625   -13597.227   -10646.572     7954.212     7028.111   -14803.856    1931.3565    75.887159 
   83000    2958.0511   -164.25206    2.6765068   -161.57556    7619.0693    4.2339686    4.2339686    4.2339686    7619.0693    2981.2619   -16036.987    35912.933    1364.9569   -17168.436    3263.0389    75.900196 
   83100    3067.6984   -164.34598     2.775718   -161.57026   -31.001926    4.2421714    4.2421714    4.2421714   -31.001926   -9647.2585   -22713.296    32267.548   -2071.8556   -25786.438   -607.90884    76.342196 
   83200    2567.7492   -163.88631    2.3233534   -161.56296   -1990.4907     4.241518     4.241518     4.241518   -1990.4907       -13276    2931.2832    4373.2448   -1958.7106   -27928.672   -2552.8388    76.306922 
   83300    2143.5926   -163.50129    1.9395676   -161.56172    12714.907     4.239338     4.239338     4.239338    12714.907    10401.893    27606.888    135.94105   -110.48117   -25352.646   -6519.2896    76.189327 
   83400    2340.4183   -163.68033    2.1176597   -161.56267    16055.836    4.2393282    4.2393282    4.2393282    16055.836    5808.4083    30210.276    12148.824    -560.3499   -13737.054   -2238.2236    76.188797 
   83500    2523.5072   -163.85172    2.2833223    -161.5684    19240.562    4.2416716    4.2416716    4.2416716    19240.562   -20697.764    38074.712    40344.738   -1453.2456   -9127.2948   -13016.956    76.315215 
   83600    2154.1392   -163.51674    1.9491105   -161.56763   -3813.4976    4.2495614    4.2495614    4.2495614   -3813.4976   -32562.895    19987.848    1134.5546     -4549.42    18684.965   -1398.4255     76.74186 
   83700    1319.1438   -162.75043     1.193589   -161.55684   -31346.096    4.2517309    4.2517309    4.2517309   -31346.096   -38761.449    9696.8364   -64973.677     6550.743    39154.398    1073.8457    76.859458 
   83800    1121.9974   -162.57549    1.0152068   -161.56028    1051.4832    4.2332473    4.2332473    4.2332473    1051.4832   -15387.951    25722.503   -7180.1025    18029.925    47695.017    5774.3217     75.86141 
   83900    1379.5942   -162.82116    1.2482858   -161.57288    6059.9972    4.2265195    4.2265195    4.2265195    6059.9972   -25055.488    15496.833    27738.646    23166.135    64509.441     508.8267    75.500294 
   84000    1627.5767   -163.06872    1.4726656   -161.59606   -13051.463    4.2405929    4.2405929    4.2405929   -13051.463   -48004.289    17643.871   -8793.9707    18371.076    74725.663    483.47747    76.257003 
   84100    1378.3659   -162.84612    1.2471744   -161.59894    -4238.559     4.241102     4.241102     4.241102    -4238.559   -44307.196    34910.564    -3319.045    10787.399    79782.508   -1056.1303    76.284476 
   84200    833.71659   -162.35129   0.75436429   -161.59693    -5413.961    4.2356719    4.2356719    4.2356719    -5413.961   -11363.411    45132.506   -50010.979    16471.431    73139.587     5364.536    75.991834 
   84300    852.46216   -162.36458   0.77132568   -161.59325   -8890.2442    4.2345941    4.2345941    4.2345941   -8890.2442   -33324.325    76729.079   -70075.486    810.90198    86891.062   -2364.8634     75.93384 
   84400    1199.3289   -162.68051     1.085178   -161.59533    81.483778    4.2333613    4.2333613    4.2333613    81.483778   -33421.579    61698.309   -28032.279   -6818.8146     90799.44   -12251.738    75.867539 
   84500    1357.8097   -162.82692    1.2285748   -161.59834    3877.1349    4.2413731    4.2413731    4.2413731    3877.1349     5036.104     35374.25   -28778.949   -3195.6075    88100.969   -4075.3358    76.299104 
   84600    1146.5084   -162.63044    1.0373849   -161.59306   -5480.1623    4.2417314    4.2417314    4.2417314   -5480.1623   -32658.784    33435.107   -17216.809   -5485.7756    97258.843   -15345.143    76.318442 
   84700    699.77101   -162.22362   0.63316752   -161.59046   -7017.2242    4.2308368    4.2308368    4.2308368   -7017.2242    4928.6615    68519.302   -94499.636    1434.1984    100481.28   -10715.944    75.731892 
   84800    634.01884   -162.17113   0.57367357   -161.59746    -12397.34    4.2335565    4.2335565    4.2335565    -12397.34   -8895.7068    64818.213   -93114.526   -6133.3451    100197.95   -9886.3918    75.878037 
   84900    963.11632   -162.47046   0.87144789   -161.59902   -12359.331    4.2449069    4.2449069    4.2449069   -12359.331   -4492.5832    25044.244   -57629.654    470.74972    95778.557   -17157.225    76.489972 
   85000    1185.1807   -162.66711    1.0723764   -161.59473   -7026.4171    4.2450338    4.2450338    4.2450338   -7026.4171   -7712.9268    12387.981   -25754.306    1854.3802    97283.676   -2527.5162    76.496836 
   85100    1172.8899   -162.64931    1.0612555   -161.58806     1942.949     4.234696     4.234696     4.234696     1942.949   -29358.375    41951.258   -6764.0357    6230.6808    90816.869   -11146.742     75.93932 
   85200    863.86891   -162.36693   0.78164675   -161.58528    10111.603    4.2375774    4.2375774    4.2375774    10111.603    8943.8554    68241.188   -46850.233    12673.943    65683.527   -8257.8398    76.094438 
   85300    1046.5836   -162.52406    0.9469708   -161.57709   -14609.138    4.2503784    4.2503784    4.2503784   -14609.138   -43480.827    55106.312     -55452.9    12741.397    37501.615   -7309.8423    76.786133 
   85400    1868.3255   -163.25112    1.6905002   -161.56062   -4177.8714    4.2490607    4.2490607    4.2490607   -4177.8714    -26093.87    41055.734   -27495.478    14431.349    12465.811    -2959.709    76.714736 
   85500    2481.5388   -163.80065    2.2453484    -161.5553    12001.974    4.2401661    4.2401661    4.2401661    12001.974    5525.1117    12009.139    18471.672    16689.146   -7686.8376    6072.9775    76.233983 
   85600    2465.9155   -163.79073    2.2312122   -161.55952    16053.893    4.2300526    4.2300526    4.2300526    16053.893    7383.2964    14812.601    25965.782    9574.8927   -21297.853    5066.1455    75.689792 
   85700    2220.2875   -163.58028    2.0089627   -161.57132    2395.6522    4.2362494    4.2362494    4.2362494    2395.6522    33298.247    5592.7879   -31704.078    2093.8104   -28043.281    837.38952    76.022922 
   85800    2321.4541    -163.6649    2.1005005    -161.5644   -32170.951     4.253204     4.253204     4.253204   -32170.951   -6908.0597   -27694.255   -61910.539     3591.431   -38879.983   -4431.5732    76.939375 
   85900    2865.2459   -164.14179    2.5925347   -161.54925   -24884.781    4.2504562    4.2504562    4.2504562   -24884.781   -29503.415   -34555.805   -10595.121    4924.7502   -27884.243   -5216.3144    76.790346 
   86000    2823.3308   -164.10063    2.5546091   -161.54602    -8324.983    4.2408535    4.2408535    4.2408535    -8324.983   -42378.231   -6665.6577    24068.939    -1689.703   -1700.1723    -592.4452    76.271068 
   86100    2007.0934   -163.37146    1.8160603    -161.5554    16014.877    4.2312265    4.2312265    4.2312265    16014.877    12678.308    33836.442    1529.8818    2251.3404    16646.049    478.45934    75.752821 
   86200    1253.7759   -162.70526    1.1344428   -161.57082    21615.398    4.2349954    4.2349954    4.2349954    21615.398   -3805.8635    72971.345   -4319.2858   -6105.3702    38691.753    4602.7496    75.955433 
   86300    1026.4489   -162.50779   0.92875256   -161.57904   -2949.5667    4.2530114    4.2530114    4.2530114   -2949.5667   -37824.972    96702.828   -67726.555    1509.3732    59578.387   -3155.3169    76.928918 
   86400    1309.3813   -162.75084    1.1847557   -161.56608    11818.916    4.2497395    4.2497395    4.2497395    11818.916   -51403.093    113331.55   -26471.707    1646.8442    80277.924   -1947.0814    76.751509 
   86500    1143.8544   -162.58878    1.0349835    -161.5538   -1646.0445    4.2439796    4.2439796    4.2439796   -1646.0445   -47298.349    61348.127   -18987.911    10839.611    100295.33   -1805.3625    76.439854 
   86600    481.79688   -161.99203   0.43593994   -161.55609   -20135.791    4.2453966    4.2453966    4.2453966   -20135.791    -10418.86     51716.48   -101704.99    9559.3593    109591.22   -1545.7237     76.51645 
   86700    647.46086   -162.14914   0.58583619   -161.56331   -4219.3342    4.2376291    4.2376291    4.2376291   -4219.3342   -25442.599    77035.744   -64251.148    1250.8229    99348.633   -1690.8832    76.097225 
   86800    1359.7755   -162.80515    1.2303535    -161.5748     11883.74    4.2430923    4.2430923    4.2430923     11883.74   -19284.863    93577.202    -38641.12   -1144.4637      65318.2    6451.4236    76.391924 
   86900     2028.779   -163.39617    1.8356819   -161.56049   -6126.2662    4.2536359    4.2536359    4.2536359   -6126.2662   -41306.033    64615.203   -41687.968    1439.6052    33277.199    6835.0148    76.962812 
   87000    2094.3706   -163.43959    1.8950305   -161.54456    3604.6706    4.2414188    4.2414188    4.2414188    3604.6706   -14996.767    37693.263   -11882.485   -91.036249   -279.81189    6262.0711     76.30157 
   87100    1995.9826   -163.35183     1.806007   -161.54582    9249.4541    4.2367088    4.2367088    4.2367088    9249.4541    52373.096    26304.435   -50929.169   -5827.4055   -20542.471    4961.6037    76.047658 
   87200    2400.8149   -163.72902    2.1723077   -161.55671    5082.3171     4.234228     4.234228     4.234228    5082.3171    18703.835    8130.9073   -11587.791   -2495.4932   -24918.782   -3626.1896    75.914146 
   87300    2951.2782   -164.23843    2.6703785   -161.56805    2564.3452    4.2365605    4.2365605    4.2365605    2564.3452    6789.8015   -24735.998    25639.233    5168.4476   -33072.511    4727.6993    76.039671 
   87400    2839.4467   -164.13104     2.569191   -161.56185   -32094.798    4.2541197    4.2541197    4.2541197   -32094.798   -27166.003   -59784.883   -9333.5075    10648.898   -25239.801   -6848.2222    76.989077 
   87500    2236.4977   -163.57482    2.0236301   -161.55119   -4255.0386    4.2422209    4.2422209    4.2422209   -4255.0386    23548.178   -8154.6933   -28158.601    177.95256   -10245.479    1070.2923    76.344864 
   87600    1886.8285   -163.25622    1.7072421   -161.54898   -15245.847    4.2322566    4.2322566    4.2322566   -15245.847   -11685.672    16406.034   -50457.905    13159.649    6963.2104   -7165.0025    75.808165 
   87700    1914.2495   -163.29626    1.7320531   -161.56421   -6030.2397    4.2358581    4.2358581    4.2358581   -6030.2397    6970.9814     14680.53    -39742.23    468.57271    28714.663    900.66393    76.001858 
   87800    2025.4953   -163.41263    1.8327107   -161.57992    14567.798    4.2355803    4.2355803    4.2355803    14567.798    1077.8215    35273.843     7351.731    6809.8404    42154.976    -4075.033    75.986907 
   87900    1625.2581    -163.0588    1.4705677   -161.58823   -20256.932    4.2460278    4.2460278    4.2460278   -20256.932   -47528.538     27434.44   -40676.696   -2097.4402    65460.105    5977.5898    76.550581 
   88000     907.8621   -162.40755    0.8214527   -161.58609    8605.6809    4.2364358    4.2364358    4.2364358    8605.6809    17905.908    74761.342   -66850.208   -6283.3874      75894.8    503.66126    76.032959 
   88100    393.63904   -161.93826   0.35617288   -161.58208    9869.8191     4.234008     4.234008     4.234008    9869.8191   -12585.248    123657.93   -81463.226   -986.57565    90102.815    9378.9092    75.902317 
   88200    633.69438   -162.15138      0.57338     -161.578   -27141.864    4.2477739    4.2477739    4.2477739   -27141.864   -41673.593    72499.072   -112251.07   -2122.8863    111120.58    8547.2155    76.645062 
   88300    1232.3316   -162.68632    1.1150395   -161.57129    17025.307    4.2404309    4.2404309    4.2404309    17025.307   -2876.0294    62369.512   -8417.5622   -4954.2005    106983.31    3385.9131    76.248263 
   88400    1361.8442   -162.80496    1.2322252   -161.57273   -3380.0309    4.2378408    4.2378408    4.2378408   -3380.0309   -29307.812     47582.72   -28415.001    396.91305    111186.57    4914.9639    76.108634 
   88500    947.16348   -162.43807   0.85701343   -161.58106   -19386.553    4.2344659    4.2344659    4.2344659   -19386.553   -26642.819    58634.997   -90151.837   -1406.4133    112871.02    60.359686    75.926944 
   88600    792.20184     -162.306   0.71680087    -161.5892   -1952.6887    4.2290483    4.2290483    4.2290483   -1952.6887    3458.8331    61729.545   -71046.445    7581.6927    99691.016   -9110.0427    75.635891 
   88700    1055.8191   -162.55544   0.95532727   -161.60011   -19494.019    4.2430884    4.2430884    4.2430884   -19494.019   -31735.504    24862.151   -51608.705    4910.7297    86582.388   -1416.8054    76.391713 
   88800    1687.6589   -163.11576    1.5270293   -161.58873   -11929.598    4.2474834    4.2474834    4.2474834   -11929.598   -51726.187    17553.114   -1615.7214    2716.5792     62460.52   -12372.881     76.62934 
   88900    1908.9678    -163.3002    1.7272742   -161.57292    1029.0404     4.236694     4.236694     4.236694    1029.0404   -20007.619    13757.051     9337.689    2281.4097      47821.5   -10714.205    76.046862 
   89000    1607.2821   -163.02549    1.4543026   -161.57119   -1811.4144    4.2352094    4.2352094    4.2352094   -1811.4144   -10621.559    25814.626    -20627.31   -2173.6466    20760.584   -5317.2994    75.966943 
   89100     1658.483    -163.0709    1.5006303   -161.57027   -13802.796    4.2376421    4.2376421    4.2376421   -13802.796   -8012.9542     26546.84   -59942.274   -7984.0756    9490.5758   -4600.6755    76.097926 
   89200    2184.2831   -163.55456    1.9763853   -161.57818   -6054.2949    4.2390774    4.2390774    4.2390774   -6054.2949    -19727.66   -1643.3417    3208.1173   -12274.087   -36.057726   -7479.7282    76.175279 
   89300     2612.002   -163.94301    2.3633943   -161.57962   -5976.9478    4.2409507    4.2409507    4.2409507   -5976.9478   -11631.783    -28100.51     21801.45   -18901.856   -18394.685   -2434.1601    76.276308 
   89400    2579.6988   -163.90907    2.3341657    -161.5749    13183.818    4.2323164    4.2323164    4.2323164    13183.818    15694.404   -15742.945    39599.994   -10176.847   -14478.838   -3915.9369    75.811379 
   89500    2265.6468   -163.62956    2.0500048   -161.57955    4089.4054    4.2354206    4.2354206    4.2354206    4089.4054    36326.084   -18505.245   -5552.6232   -5706.0681   -24577.279    4798.7817     75.97831 
   89600    2145.9827   -163.51617    1.9417303   -161.57444    -21576.97    4.2419927    4.2419927    4.2419927    -21576.97    22966.441   -37353.282   -50344.069   -3132.1399   -26136.813    6054.1998    76.332544 
   89700    2421.5337   -163.76199    2.1910546   -161.57094    2361.1733     4.236996     4.236996     4.236996    2361.1733    27195.257    -33211.99    13100.253    5053.5887    -29004.54    12009.642    76.063124 
   89800    2675.4248   -163.99422    2.4207805   -161.57344    751.56178    4.2405486    4.2405486    4.2405486    751.56178    14872.496   -34215.852    21598.041    816.88366   -28772.127    23584.293    76.254613 
   89900    2603.0865   -163.92682    2.3553273   -161.57149   -814.50209    4.2375146    4.2375146    4.2375146   -814.50209    18826.841   -18814.855   -2455.4915    2244.1051   -36715.537    21672.057    76.091056 
   90000    2147.5316   -163.51543    1.9431317    -161.5723    2031.6019    4.2340461    4.2340461    4.2340461    2031.6019    23441.026   -5661.1011   -11685.119   -4071.3313   -30155.623    22859.668    75.904365 
   90100    1794.1401   -163.19939    1.6233757   -161.57601   -7058.7532    4.2405859    4.2405859    4.2405859   -7058.7532    8832.1992    3506.5652   -33515.024   -3518.5716   -23763.624    12618.017     76.25663 
   90200    1953.1874   -163.34443     1.767285   -161.57715    9863.9589    4.2377474    4.2377474    4.2377474    9863.9589    4178.6848    10844.098    14569.094   -4598.9858   -17601.138    13188.219      76.1036 
   90300    2195.7062   -163.56714    1.9867212   -161.58042   -3398.1068    4.2365969    4.2365969    4.2365969   -3398.1068   -27460.328   -11254.114    28520.122    824.38618   -5544.6007    4463.1919    76.041631 
   90400    1929.0446   -163.33109    1.7454401   -161.58565   -3739.5235     4.236409     4.236409     4.236409   -3739.5235   -30081.192    15744.213    3118.4085      1099.06    4348.5581    3244.8214    76.031516 
   90500    1565.0375   -163.00261    1.4160788   -161.58653    2997.4083    4.2329992    4.2329992    4.2329992    2997.4083   -1928.7709    43384.082   -32463.086    1006.1983    18208.118   -1052.4272    75.848075 
   90600    1427.3077   -162.88052     1.291458   -161.58907   -10505.001    4.2383146    4.2383146    4.2383146   -10505.001    8395.6772    5665.0396   -45575.719    8858.9761    24115.707   -7696.7531     76.13416 
   90700    1732.5811   -163.15951    1.5676758   -161.59183   -5797.8664    4.2385966    4.2385966    4.2385966   -5797.8664   -13293.674    17065.983   -21165.907   -2463.3611    35542.427   -12050.478    76.149361 
   90800    1875.8594    -163.2924     1.697317   -161.59508    2449.6661    4.2340361    4.2340361    4.2340361    2449.6661   -36067.075    40506.428     2909.645    3767.7268     46963.96   -16489.107    75.903827 
   90900    1475.8195   -162.93142    1.3353525   -161.59607   -121.46694    4.2336389    4.2336389    4.2336389   -121.46694   -15688.036    32243.892   -16920.256    535.58238    49655.272   -13343.325    75.882468 
   91000    904.81484   -162.41484   0.81869548   -161.59614   -10420.217    4.2374186    4.2374186    4.2374186   -10420.217   -5352.9482     32878.98   -58786.683    4655.3863     57359.75   -19325.954    76.085886 
   91100    790.61104   -162.30847   0.71536148   -161.59311    -7713.028    4.2407428    4.2407428    4.2407428    -7713.028   -25015.919    54499.295    -52622.46    717.97889    75465.944   -14669.617    76.265095 
   91200    1203.5997   -162.67799    1.0890423   -161.58895   -5553.4395     4.240037     4.240037     4.240037   -5553.4395   -29651.815    48382.033   -35390.536   -307.47785    78508.253   -7194.0024    76.227018 
   91300    1329.8315   -162.78831    1.2032595   -161.58506    10811.172     4.237375     4.237375     4.237375    10811.172   -33702.146    51783.704    14351.959    2177.4304    81922.733   -16752.097     76.08354 
   91400    1028.8923   -162.51348   0.93096338   -161.58252    6524.8257    4.2402564    4.2402564    4.2402564    6524.8257   -37704.946    80227.411   -22947.988    6894.5816    85846.517   -2061.0876    76.238853 
   91500    550.00996    -162.0778   0.49766057   -161.58014   -18855.668    4.2398984    4.2398984    4.2398984   -18855.668   -45913.885    75384.021    -86037.14    11820.295    94620.846   -3303.0377    76.219543 
   91600    623.54487   -162.14601    0.5641965   -161.58181    7424.8183    4.2339969    4.2339969    4.2339969    7424.8183    -16626.55    66797.619   -27896.614    11857.225    92764.697   -5724.1308     75.90172 
   91700    1133.7105   -162.61744    1.0258051   -161.59163   -8559.1822    4.2372279    4.2372279    4.2372279   -8559.1822   -26903.141    22216.835   -20991.241    21740.905    91745.068   -886.83171    76.075617 
   91800    1353.1757    -162.8206    1.2243818   -161.59622   -4138.1057    4.2325261    4.2325261    4.2325261   -4138.1057   -51675.142    27750.066    11510.759    22499.078    95624.882   -2595.6619    75.822647 
   91900    1029.5409   -162.53112   0.93155026   -161.59957    14362.697    4.2337703    4.2337703    4.2337703    14362.697   -9519.5055    62224.994    -9617.398    18082.863    90024.162   -1710.2481    75.889531 
   92000    768.30363   -162.29023   0.69517727   -161.59506   -32692.086    4.2437576    4.2437576    4.2437576   -32692.086   -48413.777    27337.704   -77000.184     14829.95    79418.677    4592.6807    76.427864 
   92100     1069.859   -162.55564   0.96803087   -161.58761    3198.2752    4.2333313    4.2333313    4.2333313    3198.2752   -1918.4018    42009.746   -30496.518    8039.1901    66344.133    911.47392    75.865925 
   92200    1695.6221   -163.12443    1.5342345    -161.5902    13205.937    4.2330566    4.2330566    4.2330566    13205.937   -9790.7116    63105.626   -13697.104    3498.2035    60373.667   -128.85776     75.85116 
   92300    2098.5855   -163.48584    1.8988443     -161.587   -14047.174    4.2419747    4.2419747    4.2419747   -14047.174   -50475.421    20231.099   -11897.198   -1882.6827    50927.887    6406.9727    76.331572 
   92400      1793.84   -163.20276    1.6231041   -161.57966    6524.9365    4.2377988    4.2377988    4.2377988    6524.9365    8467.1002    15988.738   -4881.0287   -1854.4992    38264.767   -13462.522     76.10637 
   92500    1492.7549   -162.92832     1.350676   -161.57764    2724.8644    4.2381858    4.2381858    4.2381858    2724.8644    7307.4778    29098.942   -28231.827   -1855.3625    15120.709    -10151.93    76.127221 
   92600    1759.1042   -163.16788    1.5916744   -161.57621   -13305.227    4.2392236    4.2392236    4.2392236   -13305.227   -14049.053    29262.706   -55129.335   -2809.1911    5898.9103   -5700.7591    76.183157 
   92700    2505.0719   -163.84538    2.2666417   -161.57873   -337.33892      4.23802      4.23802      4.23802   -337.33892   -6840.0784   -5715.6376    11543.699    -8793.333   -8856.0913   -4735.0174    76.118287 
   92800    2892.2231    -164.1918    2.6169442   -161.57486    4753.6618    4.2400698    4.2400698    4.2400698    4753.6618   -6236.6614   -24541.558    45039.205    -7070.947   -18011.173    -1881.683    76.228789 
   92900    2555.0881   -163.87845    2.3118974   -161.56655    1262.1967    4.2416389    4.2416389    4.2416389    1262.1967    21362.936   -17584.146    7.8002554    125.76944   -20318.136   -4077.7397    76.313446 
   93000    2179.0623   -163.52951    1.9716613   -161.55784    -19331.21    4.2466706    4.2466706    4.2466706    -19331.21   -1740.8818   -15534.433   -40718.315    10939.793   -31510.594    -794.3026    76.585352 
   93100    2244.0835   -163.58001    2.0304939   -161.54952   -30983.513    4.2465515    4.2465515    4.2465515   -30983.513   -23540.753   -31719.919   -37689.866    21732.605   -23862.687    -5996.851    76.578911 
   93200    2510.8546   -163.82525     2.271874   -161.55337    8779.2681    4.2352642    4.2352642    4.2352642    8779.2681    23111.547   -13209.052     16435.31    17066.336   -11559.368   -2574.3465    75.969893 
   93300    2391.6793   -163.72975    2.1640417   -161.56571     12707.68     4.231834     4.231834     4.231834     12707.68   -2068.9506    1286.9693    38905.021    10738.746    6065.4443   -268.96332    75.785455 
   93400    1769.8306   -163.18148    1.6013799    -161.5801    2030.9557    4.2399697    4.2399697    4.2399697    2030.9557    28430.435    430.22973   -22767.798    8032.7425    24726.493     6421.573    76.223392 
   93500    1179.6533   -162.64909    1.0673751   -161.58171   -19848.878    4.2452058    4.2452058    4.2452058   -19848.878   -31304.591    23870.275   -52112.318    4265.0323    39146.334    2963.7017    76.506134 
   93600     1178.146   -162.64759    1.0660113   -161.58158    896.90702    4.2352107    4.2352107    4.2352107    896.90702   -3608.5377    58068.468   -51769.209    1267.3921    55549.433    474.38511    75.967016 
   93700     1484.022    -162.9279    1.3427743   -161.58512    3676.3578    4.2311184    4.2311184    4.2311184    3676.3578   -32476.703    45212.846   -1707.0692   -11280.266    70711.812   -379.83289    75.747018 
   93800    1644.6697   -163.08096    1.4881317   -161.59283   -1751.6313    4.2379794    4.2379794    4.2379794   -1751.6313   -32187.117    44687.868   -17755.645   -6903.5047    88466.217   -6456.8933    76.116101 
   93900    1304.7109   -162.77356    1.1805298   -161.59303    5081.2996    4.2366741    4.2366741    4.2366741    5081.2996    1269.7782    63573.153   -49599.033   -10647.629    91012.668    6654.5035    76.045789 
   94000    824.43373   -162.33687   0.74596496    -161.5909   -6404.0605    4.2366246    4.2366246    4.2366246   -6404.0605   -38779.156    77035.349   -57468.375   -6135.6929     97202.53     1143.078    76.043126 
   94100     632.5179   -162.16243   0.57231549   -161.59011   -11491.017    4.2382626    4.2382626    4.2382626   -11491.017   -12649.744    72844.084   -94667.391     76.45218    107418.35    2659.2232    76.131362 
   94200     900.2353   -162.40659   0.81455182   -161.59203   -6189.3981    4.2323359    4.2323359    4.2323359   -6189.3981   -37174.544    52772.375   -34166.025    2325.7529    115339.24    9587.4646    75.812425 
   94300    1190.4576   -162.67461     1.077151   -161.59746    17699.424    4.2331408    4.2331408    4.2331408    17699.424   -14570.871    55175.069    12494.073    8837.2613    116012.73   -5709.2708    75.855687 
   94400    1072.4479   -162.56911   0.97037336   -161.59873   -26826.901    4.2407507    4.2407507    4.2407507   -26826.901   -76080.782    42708.423   -47108.344    4818.3547    121804.38    5502.5258    76.265521 
   94500     606.7737   -162.14711   0.54902159   -161.59809    6499.6955    4.2308835    4.2308835    4.2308835    6499.6955   -29785.363    62033.256   -12748.806    9518.0454    102229.04   -4124.7974      75.7344 
   94600    516.58416   -162.06714    0.4674162   -161.59973   -3180.1219    4.2320293    4.2320293    4.2320293   -3180.1219   -20060.494    72726.145   -62206.017   -5503.7379    91712.657    872.59521    75.795949 
   94700    1111.4736   -162.60223    1.0056847   -161.59654   -20803.652    4.2377854    4.2377854    4.2377854   -20803.652   -69413.444    53088.587   -46086.098     846.7454    92989.024   -6745.8602    76.105645 
   94800    1840.5904   -163.25797    1.6654049   -161.59256    8167.7299    4.2359733    4.2359733    4.2359733    8167.7299   -29921.663    39120.308    15304.545   -9472.7534    65891.935    4163.0183    76.008061 
   94900    2124.2236   -163.50639    1.9220422   -161.58435   -155.93565    4.2410537    4.2410537    4.2410537   -155.93565    -8352.251    32550.498   -24666.054   -3887.6977     48640.24   -3565.1665    76.281867 
   95000    1853.5161   -163.25421    1.6771003   -161.57711   -6322.8894    4.2374099    4.2374099    4.2374099   -6322.8894    2614.0276    43517.679   -65100.375   -4773.0178    33118.774       5869.5    76.085421 
   95100    1682.0957   -163.09836    1.5219955   -161.57637    169.94843    4.2332686    4.2332686    4.2332686    169.94843    21684.976    53452.834   -74627.965   -561.79398    9948.5699    2301.3552    75.862559 
   95200    2100.7948   -163.48099    1.9008433   -161.58015   -6026.9641    4.2378697    4.2378697    4.2378697   -6026.9641    1298.7358    8474.4057   -27854.034     2478.938    -2365.275     2129.862    76.110187 
   95300    2693.6596   -164.01812    2.4372798   -161.58084    1441.1999    4.2385166    4.2385166    4.2385166    1441.1999   -9908.6125   -809.94128    15042.154    9825.4115   -11045.042    14491.914    76.145047 
   95400    2829.8144   -164.14011    2.5604755   -161.57964    2464.6555    4.2355018    4.2355018    4.2355018    2464.6555     733.9446    108.88919    6551.1327    11968.541   -26596.371     1921.153    75.982681 
   95500    2547.0434   -163.88452    2.3046184    -161.5799   -2875.7302    4.2307274    4.2307274    4.2307274   -2875.7302    20405.433   -16819.853    -12212.77    6255.0837    -30908.05    6045.8944    75.726018 
   95600    2286.3129   -163.65017     2.068704   -161.58147    1176.7522    4.2332629    4.2332629    4.2332629    1176.7522     31328.82    15090.106    -42888.67    6596.6583   -34422.248   -72.713153     75.86225 
   95700    2336.6905   -163.69725    2.1142867   -161.58296   -879.83412    4.2385319    4.2385319    4.2385319   -879.83412    8630.2136    12323.738   -23593.454   -8642.3205   -34850.987    576.57251    76.145871 
   95800    2619.2174    -163.9509     2.369923   -161.58098   -1372.6864    4.2354182    4.2354182    4.2354182   -1372.6864   -13888.222   -8380.0801    18150.243   -2869.2494   -35761.242   -9713.4384    75.978184 
   95900    2690.1516   -164.01238    2.4341057   -161.57828   -1076.9859    4.2386199    4.2386199    4.2386199   -1076.9859   -18072.543   -8419.7107    23261.296   -16082.685   -33802.505   -1758.1124    76.150615 
   96000    2320.1457   -163.67345    2.0993166   -161.57413    1343.2146    4.2382271    4.2382271    4.2382271    1343.2146   -1061.3217    395.25334    4695.7122   -3758.5947   -22377.419   -9564.2554    76.129445 
   96100    1835.5013   -163.23154    1.6608002   -161.57074   -9630.4121    4.2387182    4.2387182    4.2387182   -9630.4121   -7982.7686    2868.9367   -23777.405   -10065.833   -1153.0527    6942.5009    76.155915 
   96200    1586.0819   -163.00593    1.4351202   -161.57081   -20898.479    4.2433106    4.2433106    4.2433106   -20898.479   -27661.757   -2189.0199   -32844.659    359.88329    22696.479    4478.6947    76.403711 
   96300    1698.7729   -163.11423    1.5370854   -161.57714   -408.61336    4.2333504    4.2333504    4.2333504   -408.61336   -23048.691    5424.0672    16398.784    4296.4877    38215.652    7020.1518    75.866954 
   96400    1689.2065   -163.11409    1.5284295   -161.58566    15369.352    4.2263608    4.2263608    4.2263608    15369.352   -9722.8268    30936.219    24894.665    6670.7072    51551.227    13401.626    75.491789 
   96500    1416.2823   -162.88104     1.281482   -161.59956    837.01791    4.2374055    4.2374055    4.2374055    837.01791   -12774.818    32727.426   -17441.555    10361.861    63504.172    9265.0889     76.08518 
   96600    1199.4399   -162.68502    1.0852784   -161.59975   -24656.457    4.2420332    4.2420332    4.2420332   -24656.457   -22923.006    19817.137   -70863.503    9901.3889    77030.347    7704.1917    76.334735 
   96700    1036.0834   -162.53307   0.93747002    -161.5956      19381.5    4.2282192    4.2282192    4.2282192      19381.5    26106.504    59883.217    -27845.22    7324.0262    80600.511     537.0105    75.591414 
   96800    1083.3131   -162.57866   0.98020444   -161.59846    -16479.63      4.23432      4.23432      4.23432    -16479.63   -74183.392    63285.244   -38540.743   -3266.0039    98627.793    2504.0667    75.919098 
   96900    1128.5259   -162.61563     1.021114   -161.59451   -11008.694    4.2382911    4.2382911    4.2382911   -11008.694    -67437.82     45143.59   -10731.854    1038.7771    104888.88   -7028.8012    76.132896 
   97000    1074.8836    -162.5655   0.97257724   -161.59292    20390.051    4.2338211    4.2338211    4.2338211    20390.051   -8007.9797    47628.649    21549.485   -5605.2674    100366.83   -35.581157    75.892264 
   97100    961.08682   -162.46216   0.86961155   -161.59255   -27598.192     4.239752     4.239752     4.239752   -27598.192   -48056.078    54908.237   -89646.734   -8644.5167    118981.71    -6628.802    76.211648 
   97200    766.64693   -162.28486   0.69367825   -161.59118    514.40629    4.2330106    4.2330106    4.2330106    514.40629   -1351.2933    57184.932    -54290.42   -3152.0381    114035.03   -1942.0723    75.848685 
   97300    759.93449   -162.28464    0.6876047   -161.59704   -2785.8522    4.2338113    4.2338113    4.2338113   -2785.8522   -26952.724    48275.972   -29680.804   -8716.8655    113552.23    4111.4246    75.891735 
   97400    805.29682   -162.32655   0.72864949    -161.5979    -17377.59    4.2384663    4.2384663    4.2384663    -17377.59    -67380.96    43981.578   -28733.387    4608.4825    119914.67    1360.3473    76.142335 
   97500    1047.5344   -162.54463   0.94783113    -161.5968   -2782.9641     4.232804     4.232804     4.232804   -2782.9641   -45206.148    50064.684   -13207.429    5204.3072    112361.45     9978.874    75.837584 
   97600    1178.2819   -162.66356    1.0661343   -161.59742    3601.3064    4.2352206    4.2352206    4.2352206    3601.3064    10153.345    41080.094    -40429.52    57.381764     98315.68    2153.4351     75.96755 
   97700    1178.4722   -162.66044    1.0663065   -161.59413   -9006.0783    4.2402308    4.2402308    4.2402308   -9006.0783   -13510.319    28559.432   -42067.348    6706.9385    96447.066    3130.2892    76.237473 
   97800    1226.4556   -162.70151    1.1097228   -161.59179   -9689.6662    4.2325339    4.2325339    4.2325339   -9689.6662   -48522.067    38499.972   -19046.903    2258.5324    83028.175    3201.3207    75.823066 
   97900    1352.0134   -162.81545    1.2233301   -161.59212    5333.6434    4.2319535    4.2319535    4.2319535    5333.6434   -62949.018     49101.12    29848.828   -122.52775    63939.473   -3920.8227    75.791877 
   98000    1570.9997   -163.01323    1.4214735   -161.59176    -13989.64    4.2385923    4.2385923    4.2385923    -13989.64   -77856.624    22719.682    13168.023   -3438.0601    51992.606   -2350.2361    76.149127 
   98100    1807.0519   -163.22495    1.6350586   -161.58989   -3689.6109    4.2350795    4.2350795    4.2350795   -3689.6109   -3599.3987    15372.753   -22842.187   -4507.2355     30772.52   -4387.1596    75.959956 
   98200    2007.8252   -163.40321    1.8167225   -161.58649    7574.8687    4.2329319    4.2329319    4.2329319    7574.8687    3485.6581    23853.243   -4614.2952   -8830.0993    15786.638   -1742.1476    75.844457 
   98300    1991.3937   -163.38464    1.8018549   -161.58279    -3832.256    4.2352348    4.2352348    4.2352348    -3832.256   -703.38068    8252.8009   -19046.188   -5097.7321    629.05839   -7429.0251    75.968314 
   98400    1969.3862   -163.36358     1.781942   -161.58164   -7890.6613    4.2369075    4.2369075    4.2369075   -7890.6613   -17931.865   -7907.8164    2167.6978   -3354.8408   -6891.1097   -8270.2479    76.058357 
   98500    2202.4115    -163.5732    1.9927882   -161.58041    108.74907    4.2338717    4.2338717    4.2338717    108.74907   -25931.533   -6251.7728    32509.553   -4256.4224    -16952.19   -13371.919    75.894986 
   98600    2596.8513   -163.93201    2.3496856   -161.58232    10441.764    4.2331037    4.2331037    4.2331037    10441.764    37913.245   -11829.656     5241.702    5244.9794   -23930.156   -5976.2759    75.853695 
   98700    2882.8735   -164.19269    2.6084845   -161.58421   -2885.5842     4.235339     4.235339     4.235339   -2885.5842    40013.286   -28045.511   -20624.528    244.67317    -33202.24   -2704.2946    75.973918 
   98800    2747.5281    -164.0708    2.4860212   -161.58477    6671.6588    4.2332949    4.2332949    4.2332949    6671.6588    49438.811   -18544.021   -10879.814    6046.2084   -32812.927   -603.03355    75.863969 
   98900    2485.2497   -163.83321    2.2487061    -161.5845    3548.3305    4.2320832    4.2320832    4.2320832    3548.3305    7937.9781   -9392.5204    12099.534   -3266.2757   -36294.413    8354.7947    75.798848 
   99000    2518.3789   -163.86327    2.2786822   -161.58459   -8331.5349    4.2395167    4.2395167    4.2395167   -8331.5349   -19674.241   -22859.978    17539.615    2774.5252    -41586.51   -4404.6116    76.198959 
   99100    2791.1546   -164.10727    2.5254954   -161.58178    2237.1853    4.2344733    4.2344733    4.2344733    2237.1853    6611.1123   -24799.563    24900.007   -2821.2017   -33765.629    8230.2886    75.927342 
   99200    2879.2669   -164.18803    2.6052212   -161.58281    13741.378    4.2317795    4.2317795    4.2317795    13741.378    37615.748   -29840.305    33448.691   -3334.8956   -29308.226   -4941.8891    75.782528 
   99300    2531.0671   -163.87557    2.2901627   -161.58541   -10719.398    4.2381021    4.2381021    4.2381021   -10719.398    10287.408   -39854.734   -2590.8685   -9553.1208   -23515.043   -2763.6044    76.122711 
   99400    1986.1131   -163.38253    1.7970769   -161.58545    3047.2249    4.2310207    4.2310207    4.2310207    3047.2249   -10739.583   -9527.6843    29408.942   -17490.776   -23395.607   -5440.2469    75.741772 
   99500    1727.9575   -163.15083    1.5634922   -161.58734   -5762.1123     4.233397     4.233397     4.233397   -5762.1123    -50006.55    4013.3193    28706.894   -11988.525   -15466.348    -11616.56    75.869462 
   99600    2127.0251   -163.51242     1.924577   -161.58785   -4821.1362    4.2383266    4.2383266    4.2383266   -4821.1362   -6338.9875   -4637.1091   -3487.3121   -15759.497   -7859.1155   -3006.9744    76.134811 
   99700    2516.5759   -163.86481    2.2770508   -161.58775    13643.104     4.233469     4.233469     4.233469    13643.104    16414.113    158.16798    24357.032   -6392.1766    985.64198   -4617.8582    75.873333 
   99800    2261.6576   -163.63465    2.0463953   -161.58826   -4858.3819    4.2366406    4.2366406    4.2366406   -4858.3819   -12122.027    17259.767   -19712.885   -2577.8882    10548.386    6376.9221    76.043987 
   99900    1534.8994   -162.97406    1.3888093   -161.58525   -3721.5808    4.2366473    4.2366473    4.2366473   -3721.5808   -39545.539    32244.989   -3864.1926    11489.765    26304.425    1446.2826    76.044344 
  100000    1046.0813   -162.53007   0.94651634   -161.58356   -3129.8673    4.2359793    4.2359793    4.2359793   -3129.8673   -60131.881    33958.244    16784.036    12030.609    39346.083    1014.4303    76.008381 
Loop time of 33.3642 on 1 procs for 100000 steps with 8 atoms

Pair  time (%) = 11.684 (35.0195)
Kspce time (%) = 7.85667 (23.5482)
Neigh time (%) = 0.0464039 (0.139083)
Comm  time (%) = 1.54278 (4.62405)
Outpt time (%) = 0.062274 (0.186649)
Other time (%) = 12.1721 (36.4826)

Nlocal:    8 ave 8 max 8 min
Histogram: 1 0 0 0 0 0 0 0 0 0
Nghost:    2189 ave 2189 max 2189 min
Histogram: 1 0 0 0 0 0 0 0 0 0
Neighs:    2397 ave 2397 max 2397 min
Histogram: 1 0 0 0 0 0 0 0 0 0

Total # of neighbors = 2397
Ave neighs/atom = 299.625
Neighbor list builds = 361
Dangerous builds = 0
unfix 20
unfix 21
print "seeds:7253144"
seeds:7253144
