LAMMPS (10 Feb 2015)
# ---- initialize simulations
clear
units metal
dimension 3
boundary p p p
atom_style charge
atom_modify map array
# ---- create atoms
read_data lammps.structure
  triclinic box = (0 0 0) to (4.2107 4.2107 42.1069) with tilt (0 0 0)
  1 by 1 by 1 MPI processor grid
  reading atoms ...
  40 atoms
# ---- define interatomic potential
include potential.mod
mass 1 24.305
mass 2 15.999

group magnesium type 1
20 atoms in group magnesium
group oxygen type 2
20 atoms in group oxygen

set group magnesium charge 2.0
  20 settings made for charge
set group oxygen charge -2.0
  20 settings made for charge

variable R_cut equal 10.0

pair_style buck/coul/long ${R_cut}
pair_style buck/coul/long 10
pair_coeff 1 1 0.0 0.5 0.0 ${R_cut}
pair_coeff 1 1 0.0 0.5 0.0 10
pair_coeff 1 2 821.6 0.3242 0.0 ${R_cut}
pair_coeff 1 2 821.6 0.3242 0.0 10
pair_coeff 2 2 2274.0 0.149 27.88 ${R_cut}
pair_coeff 2 2 2274.0 0.149 27.88 10

kspace_style pppm 1.0e-5

neighbor 1.0 bin
neigh_modify every 1 delay 0 check yes

# ---- define settings
compute eng all pe/atom
compute eatoms all reduce sum c_eng

# ---- run minimization
reset_timestep 0
thermo 1
thermo_style custom step pe lx ly lz xy xz yz press pxx pyy pzz pxy pxz pyz c_eatoms
min_style cg
minimize 1e-20 1e-20 1000 100000
PPPM initialization ...
  G vector (1/distance) = 0.343391
  grid = 9 9 40
  stencil order = 5
  estimated absolute RMS force accuracy = 8.95244e-05
  estimated relative force accuracy = 6.21713e-06
  using double precision FFTs
  3d grid and FFT values/proc = 11520 3240
Neighbor list info ...
  1 neighbor list requests
  update every 1 steps, delay 0 steps, check yes
  master list distance cutoff = 11
Memory usage per processor = 5.17461 Mbytes
Step PotEng Lx Ly Lz Xy Xz Yz Press Pxx Pyy Pzz Pxy Pxz Pyz eatoms 
       0   -808.48648       4.2107       4.2107      42.1069            0            0            0   -17733.956   -25929.633   -25929.633   -1342.6035 3.5082709e-11 1.0776185e-10 -1.3830288e-12   -808.48648 
       1   -808.48788       4.2107       4.2107      42.1069            0            0            0   -17673.858    -25877.64    -25877.64   -1266.2939 -3.9446913e-11 -4.9565827e-10 -4.244241e-10   -808.48788 
       2   -808.48866       4.2107       4.2107      42.1069            0            0            0   -17490.097    -25722.19    -25722.19   -1025.9114 6.544724e-06 -8.7300091e-06 -8.7301243e-06   -808.48866 
       3   -808.48896       4.2107       4.2107      42.1069            0            0            0   -17315.876    -25578.03    -25578.03   -791.56654 -0.00036815345 -0.00027627802 -0.00027627804   -808.48896 
       4   -808.48902       4.2107       4.2107      42.1069            0            0            0   -17267.666   -25538.754   -25538.754   -725.48969 6.5427181e-06 5.7985083e-06 5.7984042e-06   -808.48902 
       5    -808.4893       4.2107       4.2107      42.1069            0            0            0   -17145.047   -25439.166   -25439.166    -556.8087 -3.4620843e-05 3.5696051e-05 3.5696013e-05    -808.4893 
       6    -808.4894       4.2107       4.2107      42.1069            0            0            0   -17089.673   -25394.261   -25394.261   -480.49704 0.00062573318 -0.00018946245 -0.00018946253    -808.4894 
       7    -808.4894       4.2107       4.2107      42.1069            0            0            0   -17089.673   -25394.261   -25394.261   -480.49704 0.00062573318 -0.00018946239 -0.00018946247    -808.4894 
Loop time of 0.22666 on 1 procs for 7 steps with 40 atoms

Minimization stats:
  Stopping criterion = linesearch alpha is zero
  Energy initial, next-to-last, final = 
        -808.486483137     -808.489403353     -808.489403353
  Force two-norm initial, final = 0.39008 0.0209096
  Force max component initial, final = 0.164462 0.00514548
  Final line search alpha, max atom move = 1.52588e-05 7.85138e-08
  Iterations, force evaluations = 7 45

Pair  time (%) = 0.0847175 (37.3765)
Kspce time (%) = 0.139662 (61.6174)
Neigh time (%) = 0 (0)
Comm  time (%) = 0.00149107 (0.657844)
Outpt time (%) = 0.000223398 (0.0985609)
Other time (%) = 0.000566006 (0.249716)

Nlocal:    40 ave 40 max 40 min
Histogram: 1 0 0 0 0 0 0 0 0 0
Nghost:    2664 ave 2664 max 2664 min
Histogram: 1 0 0 0 0 0 0 0 0 0
Neighs:    9948 ave 9948 max 9948 min
Histogram: 1 0 0 0 0 0 0 0 0 0

Total # of neighbors = 9948
Ave neighs/atom = 248.7
Neighbor list builds = 0
Dangerous builds = 0


variable natoms equal "count(all)"
variable tot_energy equal "c_eatoms"
variable length_x equal "lx"
variable length_y equal "ly"
variable length_z equal "lz"
variable tilt_xy equal "xy"
variable tilt_xz equal "xz"
variable tilt_yz equal "yz"
variable ecoh equal "pe/atoms"
variable press_t equal "press"
variable press_xx equal "pxx"
variable press_yy equal "pyy"
variable press_zz equal "pzz"
variable press_xy equal "pxy"
variable press_xz equal "pxz"
variable press_yz equal "pyz"
#variable ecoh equal "v_etotal/v_atoms"
# --- output
print "pyPosMat output section"
pyPosMat output section
print "tot_energy = ${tot_energy}"
tot_energy = -808.489403352594
print "num_atoms = ${natoms}"
num_atoms = 40
print "xx = ${length_x}"
xx = 4.2107
print "yy = ${length_y}"
yy = 4.2107
print "zz = ${length_z}"
zz = 42.1069
print "xy = ${tilt_xy}"
xy = 0
print "xz = ${tilt_xz}"
xz = 0
print "yz = ${tilt_yz}"
yz = 0
print "pressure_total = ${press_t}"
pressure_total = -17089.6729077685
print "press_xx = ${press_xx}"
press_xx = -25394.2608416914
print "press_yy = ${press_yy}"
press_yy = -25394.2608416912
print "press_zz = ${press_zz}"
press_zz = -480.497039922995
print "press_xy = ${press_xy}"
press_xy = 0.000625733175904839
print "press_xz = ${press_xz}"
press_xz = -0.000189462394826409
print "press_yz = ${press_yz}"
press_yz = -0.00018946246712314

print "ecoh = ${ecoh}"
ecoh = -20.2122350838149
print "lammps_sim_done"
lammps_sim_done
