LAMMPS (10 Feb 2015)
# ---- initialize simulations
clear
units metal
dimension 3
boundary p p p
atom_style charge
atom_modify map array
# ---- create atoms
read_data /Users/eugeneragasa/pyflamestk_git/pypospack/tests/tests_integration/workflow/WorkflowLammpsThermalExpansion/param_3101/MgO_NaCl_unit.npt.T1400/lammps.structure
  triclinic box = (0 0 0) to (4.2565 4.2565 4.2565) with tilt (0 0 0)
  1 by 1 by 1 MPI processor grid
  reading atoms ...
  8 atoms
# ---- define interatomic potential
include potential.mod
mass 1 24.305
mass 2 15.999

group Mg type 1
4 atoms in group Mg
group O type 2
4 atoms in group O

set group Mg charge 1.61886676565
  4 settings made for charge
set group O charge -1.61886676565
  4 settings made for charge

variable R_cut equal 10.0

pair_style buck/coul/long ${R_cut}
pair_style buck/coul/long 10
pair_coeff 1 1 0.0 0.5 0.0 ${R_cut}
pair_coeff 1 1 0.0 0.5 0.0 10
pair_coeff 1 2 1642.32869573 0.278339228763 0.0 ${R_cut}
pair_coeff 1 2 1642.32869573 0.278339228763 0.0 10
pair_coeff 2 2 10249.6145692 0.172187509684 14.0611166933 ${R_cut}
pair_coeff 2 2 10249.6145692 0.172187509684 14.0611166933 10

kspace_style pppm 1.0e-5

neighbor 1.0 bin
neigh_modify every 1 delay 0 check yes
# ---- define settings
compute eng all pe/atom
compute eatoms all reduce sum c_eng
# ---- run minimization
reset_timestep 0
fix 1 all box/relax iso 0.0 vmax 0.001
thermo 10
thermo_style custom step pe lx ly lz xy xz yz press pxx pyy pzz pxy pxz pyz c_eatoms
min_style cg
minimize 1e-25 1e-25 5000 10000
PPPM initialization ...
  G vector (1/distance) = 0.352512
  grid = 8 8 8
  stencil order = 5
  estimated absolute RMS force accuracy = 3.81673e-05
  estimated relative force accuracy = 2.65057e-06
  using double precision FFTs
  3d grid and FFT values/proc = 3375 512
Neighbor list info ...
  1 neighbor list requests
  update every 1 steps, delay 0 steps, check yes
  master list distance cutoff = 11
Memory usage per processor = 4.06549 Mbytes
Step PotEng Lx Ly Lz Xy Xz Yz Press Pxx Pyy Pzz Pxy Pxz Pyz eatoms 
       0   -105.55076       4.2565       4.2565       4.2565            0            0            0    126453.59    126453.59    126453.59    126453.59 4.0363335e-11 4.044677e-11 1.0723156e-10   -105.55076 
      10   -105.69165     4.299065     4.299065     4.299065            0            0            0    68786.015    68786.015    68786.015    68786.015 -1.0242962e-10 -4.708445e-11 -3.569371e-11   -105.69165 
      20   -105.75532      4.34163      4.34163      4.34163            0            0            0    18126.479    18126.479    18126.479    18126.479 7.5197513e-11 1.703257e-11 -3.0007315e-11   -105.75532 
      27   -105.76066    4.3583247    4.3583247    4.3583247            0            0            0    1.3863117    1.3863117    1.3863117    1.3863117 -6.2572681e-11 -1.3142723e-10 -3.2118437e-11   -105.76066 
Loop time of 0.0136909 on 1 procs for 27 steps with 8 atoms

Minimization stats:
  Stopping criterion = linesearch alpha is zero
  Energy initial, next-to-last, final = 
        -105.550764672     -105.760658065     -105.760658065
  Force two-norm initial, final = 18.26 0.000217628
  Force max component initial, final = 18.26 0.000209876
  Final line search alpha, max atom move = 0.25 5.24691e-05
  Iterations, force evaluations = 27 40

Pair  time (%) = 0.00367165 (26.8181)
Kspce time (%) = 0.00214314 (15.6537)
Neigh time (%) = 0 (0)
Comm  time (%) = 0.000410795 (3.00049)
Outpt time (%) = 2.59876e-05 (0.189816)
Other time (%) = 0.00743937 (54.3379)

Nlocal:    8 ave 8 max 8 min
Histogram: 1 0 0 0 0 0 0 0 0 0
Nghost:    2189 ave 2189 max 2189 min
Histogram: 1 0 0 0 0 0 0 0 0 0
Neighs:    2344 ave 2344 max 2344 min
Histogram: 1 0 0 0 0 0 0 0 0 0

Total # of neighbors = 2344
Ave neighs/atom = 293
Neighbor list builds = 0
Dangerous builds = 0
unfix 1
# ---- define output variables ----
variable natoms equal "count(all)"
variable tot_energy equal "c_eatoms"
variable length_x equal "lx"
variable length_y equal "ly"
variable length_z equal "lz"
variable tilt_xy equal "xy"
variable tilt_xz equal "xz"
variable tilt_yz equal "yz"
variable tot_press equal "press"
variable press_xx equal "pxx"
variable press_yy equal "pyy"
variable press_zz equal "pzz"
variable press_xy equal "pxy"
variable press_xz equal "pxz"
variable press_yz equal "pyz"

# ---- output ----
print "pypospack:output_section:begin"
pypospack:output_section:begin
print "tot_energy = ${tot_energy}"
tot_energy = -105.760658064539
print "num_atoms = ${natoms}"
num_atoms = 8
print "xx = ${length_x}"
xx = 4.35832471527479
print "yy = ${length_y}"
yy = 4.35832471527479
print "zz = ${length_z}"
zz = 4.35832471527479
print "xy = ${tilt_xy}"
xy = 0
print "xz = ${tilt_xz}"
xz = 0
print "yz = ${tilt_yz}"
yz = 0
print "tot_press = ${tot_press}"
tot_press = 1.38631174704167
print "pxx = ${press_xx}"
pxx = 1.38631174709188
print "pyy = ${press_yy}"
pyy = 1.38631174731354
print "pzz = ${press_zz}"
pzz = 1.3863117467196
print "pxy = ${press_xy}"
pxy = -6.25726806975275e-11
print "pxz = ${press_xz}"
pxz = -1.31427228854923e-10
print "pyz = ${press_yz}"
pyz = -3.21184365171528e-11
print "pypospack:output_section:done"
pypospack:output_section:done
print "pypospack:lammps_sim:done"
pypospack:lammps_sim:done
#------------------------------------------------------------------------------
# RUN THERMOSTAT
# running using an NPT Nose-Hoover style thermostat
#------------------------------------------------------------------------------
variable tempdamp equal 0.1
variable pressdamp equal 1.0
# set initial velocities
velocity all create 1400 989050 mom yes dist gaussian loop all
# fix for Nose-Hoover style thermostat
fix 20 all npt temp 1400 1400 0.1 aniso 0.0 0.0 1.0 drag 1.0 couple xyz
variable boxx equal lx
variable boxy equal ly
variable boxz equal lz
variable boxp equal press
variable boxt equal temp
# calculate averages every 10000 steps
reset_timestep 0
fix 21 all ave/time 10 10 100 v_boxx v_boxy v_boxz v_boxp v_boxt file lattice.out
thermo_style custom step temp pe ke etotal press lx ly lz press pxx pyy pzz pxy pxz pyz vol
thermo_modify flush yes
thermo 100
run 100000
PPPM initialization ...
  G vector (1/distance) = 0.351503
  grid = 8 8 8
  stencil order = 5
  estimated absolute RMS force accuracy = 3.99806e-05
  estimated relative force accuracy = 2.7765e-06
  using double precision FFTs
  3d grid and FFT values/proc = 3375 512
Memory usage per processor = 3.06549 Mbytes
Step Temp PotEng KinEng TotEng Press Lx Ly Lz Press Pxx Pyy Pzz Pxy Pxz Pyz Volume 
       0         1400   -105.76067    1.2667494   -104.49392    16342.969    4.3583247    4.3583247    4.3583247    16342.969    8543.6695    22552.419    17932.819   -2426.1848   -9027.2674   -2584.5424    82.786353 
     100    369.39466   -104.66217   0.33423605   -104.32794     15078.78     4.379372     4.379372     4.379372     15078.78   -1999.2815    16197.304    31038.317   -2595.7554    3446.6264   -4337.9631    83.991535 
     200     822.4791   -104.71205   0.74419638   -103.96785   -31743.541    4.4078611    4.4078611    4.4078611   -31743.541    -25430.22   -19553.983   -50246.421   -3781.4953    124.69035    1676.3376    85.641387 
     300    1478.5147   -105.01566    1.3377912   -103.67786    12933.231     4.400664     4.400664     4.400664    12933.231   -12404.723    32961.501    18242.917     5775.922   -4497.6039   -10178.258    85.222568 
     400    1300.7262   -104.61376    1.1769244   -103.43683   -9565.1545    4.3912385    4.3912385    4.3912385   -9565.1545   -3786.4748    9297.0634   -34206.052    1046.8784    4935.4962    -6120.978    84.676142 
     500    1027.1584   -104.21477   0.92939451   -103.28537    1222.5021    4.3996248    4.3996248    4.3996248    1222.5021    11629.495    34876.125   -42838.113    3365.7646   -1450.0588   -1959.9349    85.162212 
     600    1393.9945   -104.47854    1.2613155   -103.21722    972.91168    4.4151392    4.4151392    4.4151392    972.91168   -17934.876    5020.4153    15833.196    13273.186    635.01147   -2684.3604    86.066314 
     700    1813.8607   -104.83203    1.6412193   -103.19081   -18395.052    4.4181701    4.4181701    4.4181701   -18395.052   -32946.192    7314.2824   -29553.245   -5102.4414   -15056.795    14960.904    86.243686 
     800    747.90523     -103.868   0.67672037   -103.19128    14812.973    4.4002092    4.4002092    4.4002092    14812.973     8265.374    12420.912    23752.633    6729.5782   -459.82395    -20199.91     85.19615 
     900    1538.5037    -104.5943    1.3920705   -103.20223   -4085.4971    4.3909055    4.3909055    4.3909055   -4085.4971   -4038.7496   -1164.9071   -7052.8347     -5650.96    176.77528    17115.448    84.656881 
    1000    1948.9332    -104.9783    1.7634357   -103.21487   -1461.0026    4.4063568    4.4063568    4.4063568   -1461.0026   -28052.825    26550.134   -2880.3166    4455.4916   -21628.298   -12208.961    85.553737 
    1100    1156.6997   -104.26472    1.0466062   -103.21811   -12333.227    4.4068438    4.4068438    4.4068438   -12333.227     12639.01   -708.80492   -48929.886     7552.312    11724.444   -11004.449    85.582105 
    1200    922.47507   -104.05211   0.83467483   -103.21744   -590.35561     4.399378     4.399378     4.399378   -590.35561    -10982.52      27624.2   -18412.747   -13278.371    -14166.01    10906.613    85.147879 
    1300    2106.1055   -105.11209    1.9056485   -103.20644    4576.5994    4.3977348    4.3977348    4.3977348    4576.5994   -9579.9247    3517.5454    19792.178    11993.107   -1623.0689   -16930.167    85.052502 
    1400    1322.0458    -104.4071    1.1962148   -103.21088    5301.7232    4.3992088    4.3992088    4.3992088    5301.7232    6314.6356    37322.827   -27732.293    4262.2817    -9310.615    3682.9132    85.138058 
    1500    821.13933   -103.95403   0.74298412   -103.21105   -9317.0302    4.4139296    4.4139296    4.4139296   -9317.0302    -34340.51   -26196.998    32586.417    -5949.193   -14507.117    8116.7461    85.995593 
    1600    2159.2876   -105.15116    1.9537688   -103.19739   -4401.7098    4.4057658    4.4057658    4.4057658   -4401.7098   -3764.5955   -12427.053    2986.5187    15271.639   -809.92296   -16528.891    85.519318 
    1700    1087.0823   -104.18987   0.98361493   -103.20625    34404.417    4.3909666    4.3909666    4.3909666    34404.417    2632.3858    59170.202    41410.664   -5732.7096   -23396.338    13039.956    84.660418 
    1800    1496.6503   -104.56207    1.3542007   -103.20787   -19497.288    4.4062386    4.4062386    4.4062386   -19497.288   -19548.877   -15060.072   -23882.916    3309.7857    2288.3706    1840.5783    85.546853 
    1900    1277.2404   -104.36668    1.1556739   -103.21101    16602.944    4.4051982    4.4051982    4.4051982    16602.944   -10693.045    47393.277    13108.602   -2092.1539   -14271.057      1443.94    85.486269 
    2000    1535.1103   -104.60225        1.389   -103.21325   -17562.123    4.4099567    4.4099567    4.4099567   -17562.123   -19978.859   -3507.4697    -29200.04   -7463.0991    -1871.224    14501.446    85.763597 
    2100    1607.9299   -104.65443    1.4548888   -103.19954   -5702.4027    4.4005736    4.4005736    4.4005736   -5702.4027    309.86289    20888.593   -38305.664   -3643.1125     2263.719   -9692.8057    85.217321 
    2200    996.15364   -104.10432   0.90134075   -103.20297    18145.781    4.3913459    4.3913459    4.3913459    18145.781   -2434.8406    2271.3889    54600.794   -1600.0369   -11921.041     7518.174     84.68236 
    2300    1807.9326   -104.85325    1.6358554    -103.2174   -24133.677    4.4150096    4.4150096    4.4150096   -24133.677    -30789.94   -22856.916   -18754.174   -8946.6818    9681.0157   -6191.5134    86.058736 
    2400    1426.4977   -104.50224    1.2907251   -103.21151    5223.9044      4.41161      4.41161      4.41161    5223.9044    5439.3546     7587.313    2645.0457   -8995.8747   -8161.2093   -2196.7553    85.860089 
    2500    1290.9672   -104.37898    1.1680942   -103.21088   -999.06235    4.4030959    4.4030959    4.4030959   -999.06235    1700.4269   -32747.414      28049.8    3599.9305    1409.0094    15896.908    85.363938 
    2600    1629.8649   -104.67907     1.474736   -103.20433   -9444.9604    4.4071625    4.4071625    4.4071625   -9444.9604   -26189.316    8869.3565   -11014.922   -10199.171   -195.73031   -8735.7809    85.600674 
    2700    1164.5372   -104.25323    1.0536977   -103.19954     50.46305    4.4082386    4.4082386    4.4082386     50.46305    40609.508    10865.903   -51324.023    6894.9843   -3530.9741    15558.914    85.663396 
    2800    1604.0975   -104.64806    1.4514212   -103.19663   -7020.0279    4.4079783    4.4079783    4.4079783   -7020.0279   -3836.6339   -13035.879    -4187.571    353.64915    13179.556   -725.04485    85.648221 
    2900    1278.7578   -104.35109    1.1570469   -103.19404    8390.6914    4.4067708    4.4067708    4.4067708    8390.6914    1853.8631    23145.769    172.44259   -2734.9194    -8522.514     2678.129    85.577852 
    3000    1260.4807   -104.34276    1.1405094   -103.20225    2011.8932    4.4051549    4.4051549    4.4051549    2011.8932    24403.648    22127.546   -40495.514    11346.673    7232.5909    7421.9792    85.483745 
    3100    1614.1726   -104.66353    1.4605373   -103.20299    8252.0134    4.4127335    4.4127335    4.4127335    8252.0134   -20377.694   -935.75762    46069.492    8391.6555   -113.89222   -8393.5153    85.925705 
    3200    1273.3082   -104.35016    1.1521161   -103.19805    338.17681    4.4098803    4.4098803    4.4098803    338.17681    1619.3742    -28164.15    27559.306     438.9176   -1097.5432    6199.8567     85.75914 
    3300    1237.2795   -104.31611    1.1195165   -103.19659   -1119.6047    4.4020937    4.4020937    4.4020937   -1119.6047   -8358.1505    19211.164   -14211.828    8432.2943    14514.761   -13269.939    85.305658 
    3400    1850.2495   -104.87119    1.6741446   -103.19705    8511.3178    4.4033854    4.4033854    4.4033854    8511.3178    2787.4174   -12894.986    35641.521    4371.8119    -12726.78    2709.2472    85.380773 
    3500    1259.2103   -104.34312    1.1393599   -103.20376   -27739.753    4.4127591    4.4127591    4.4127591   -27739.753   -35032.512   -24827.862   -23358.885   -2196.0181    22085.293    3312.5775    85.927199 
    3600     1250.642   -104.32588    1.1316072   -103.19427    -21085.02    4.4116582    4.4116582    4.4116582    -21085.02    -5836.769    1531.3832   -58949.675    10360.903    3226.1038   -16612.287    85.862906 
    3700     1874.638    -104.8805    1.6962119   -103.18429    10041.437    4.4003669    4.4003669    4.4003669    10041.437    3972.9548      28981.4   -2830.0431   -2120.2644    4234.4927    19507.405    85.205311 
    3800    1167.1881   -104.25511    1.0560963   -103.19901   -7342.6877    4.4084454    4.4084454    4.4084454   -7342.6877    3913.5405   -2815.4921   -23126.111    3666.9984    18594.174   -12840.866    85.675452 
    3900    1281.9307   -104.35291    1.1599178   -103.19299   -12325.276    4.4167916    4.4167916    4.4167916   -12325.276   -7657.6509    16324.134    -45642.31   -4586.0919   -12548.466    7914.1823    86.162981 
    4000    1486.1581    -104.5423    1.3447071   -103.19759     9066.834    4.4103512    4.4103512    4.4103512     9066.834     8438.643    7493.4091     11268.45    2471.4163    22181.937    -2354.123    85.786613 
    4100    1486.5446   -104.53876    1.3450568    -103.1937    2304.3144       4.4034       4.4034       4.4034    2304.3144    26490.621    3382.1283   -22959.807   -9438.8345    54.839684   -6394.8329    85.381622 
    4200    977.71495   -104.08103   0.88465703   -103.19638     2793.329    4.4076646    4.4076646    4.4076646     2793.329   -10886.885   -9389.4525    28656.324   -4882.0468    9665.8351    5406.2847    85.629936 
    4300    1690.4525   -104.72787    1.5295569   -103.19832   -16505.151    4.4186492    4.4186492    4.4186492   -16505.151   -22077.408   -4019.5329   -23418.512   -8654.5674    10642.636   -10100.989    86.271742 
    4400    1523.4366   -104.56699    1.3784375   -103.18856    4643.3477    4.4104017    4.4104017    4.4104017    4643.3477   -16733.832   -8021.1331    38685.008   -8759.1676   -95.931511    12548.644     85.78956 
    4500    1056.2587   -104.15016   0.95572508   -103.19444   -26246.105    4.4020027    4.4020027    4.4020027   -26246.105   -48874.669    3606.1012   -33469.747    9790.8679     2006.837   -8932.9324    85.300369 
    4600    1711.3025   -104.74846    1.5484225   -103.20004    4364.7299    4.4074289    4.4074289    4.4074289    4364.7299    19396.187   -1196.8467   -5105.1507    541.91447   -12078.998    6295.5995    85.616198 
    4700    1409.7558   -104.47373    1.2755767   -103.19816   -3721.3378    4.4158704    4.4158704    4.4158704   -3721.3378    51879.988   -18943.455   -44100.546    24133.104    14835.662   -1941.4442    86.109079 
    4800    773.68383   -103.89237   0.70004539   -103.19233   -6025.1338    4.4091724    4.4091724    4.4091724   -6025.1338    44064.056   -6084.6723   -56054.786    8744.0112    -2368.438   -1025.3672    85.717845 
    4900    1690.0586    -104.7223    1.5292006    -103.1931   -7166.5747    4.4098139    4.4098139    4.4098139   -7166.5747   -2731.4149   -963.35668   -17804.952    5686.8532    8879.2199    4157.1397    85.755261 
    5000     1638.151   -104.67852    1.4822335   -103.19629   -2564.7386    4.4069343    4.4069343    4.4069343   -2564.7386    28131.833    13037.654   -48863.703   -3422.7195    974.19269    80.189829    85.587378 
    5100    864.45086    -103.9785    0.7821733   -103.19633    4672.1792    4.4035201    4.4035201    4.4035201    4672.1792    31771.843    18308.297   -36063.602   -297.91663   -14935.611    1687.1404    85.388613 
    5200    1398.2028   -104.46537    1.2651232   -103.20025    9483.1166    4.4028758    4.4028758    4.4028758    9483.1166    11208.243    23994.721   -6753.6138   -2380.9647   -824.85926   -4301.3207    85.351135 
    5300    1705.8049   -104.74922    1.5434482   -103.20577   -9810.1574    4.4102826    4.4102826    4.4102826   -9810.1574    38560.039   -23668.207   -44322.305   -542.63324   -14477.677    9989.7969     85.78261 
    5400    1362.8547   -104.43663    1.2331396   -103.20349    5801.7089    4.4113894    4.4113894    4.4113894    5801.7089    35177.222    12020.515    -29792.61    4537.1024    9521.0694   -2371.5367    85.847212 
    5500    1249.2826   -104.33343    1.1303771   -103.20305   -9335.3377    4.4090397    4.4090397    4.4090397   -9335.3377    7181.8156   -18306.335   -16881.494    2275.3474    4858.6298    8012.7786    85.710104 
    5600    1334.3883   -104.40861    1.2073826   -103.20123    -11931.22    4.4118295    4.4118295    4.4118295    -11931.22    20769.879   -9233.7879   -47329.752   -1529.1325   -5527.4716    7191.4532    85.872907 
    5700    1669.8461   -104.70813    1.5109118   -103.19721   -6406.2988    4.4058054    4.4058054    4.4058054   -6406.2988    23296.883   -5100.8733   -37414.906    4553.9475   -1900.0409   -1068.4632    85.521621 
    5800     1076.048   -104.18314   0.97363089   -103.20951   -1164.6053    4.4143197    4.4143197    4.4143197   -1164.6053    31191.526   -15073.143   -19612.199    218.11645   -23653.579    9289.2036    86.018399 
    5900    1169.7936   -104.26078    1.0584538   -103.20233   -303.89483    4.4205186    4.4205186    4.4205186   -303.89483    63255.979   -10750.367   -53417.297    14372.981    -5827.722    3149.2873    86.381287 
    6000    1745.2675   -104.77744    1.5791547   -103.19829   -19704.748    4.4253086    4.4253086    4.4253086   -19704.748    2852.8556   -9616.1647   -52350.935    10040.791   -7684.8425    1252.9574    86.662395 
    6100    1307.0021   -104.37759     1.182603   -103.19499    12526.281    4.4212845    4.4212845    4.4212845    12526.281    55661.558   -13379.314   -4703.4018   -7158.1464    1568.7865   -7068.3767    86.426193 
    6200     1100.283   -104.18824   0.99555917   -103.19268   -20475.441    4.4144434    4.4144434    4.4144434   -20475.441    30911.992   -34057.228   -58281.088    9921.3845    5090.0167    5288.7342    86.025632 
    6300    1530.5555   -104.57734    1.3848788   -103.19247     24863.94    4.4054404    4.4054404    4.4054404     24863.94    35215.752    42700.645   -3324.5781   -11611.222   -8281.1881    2743.7552    85.500367 
    6400    1861.6097   -104.88866    1.6844236   -103.20424   -24517.481     4.420277     4.420277     4.420277   -24517.481   -33933.708   -9052.8146    -30565.92    12626.179    2532.7575   -2799.5459    86.367127 
    6500    1117.0988   -104.20493    1.0107744   -103.19416   -1101.8148    4.4252709    4.4252709    4.4252709   -1101.8148   -2617.7048    31466.733   -32154.473    8993.9262   -13589.124    1150.3964    86.660178 
    6600    1391.7797   -104.43968    1.2593115   -103.18037    8213.4493    4.4226159    4.4226159    4.4226159    8213.4493    27685.922   -553.80125    -2491.773    16084.291   -2595.1021   -2707.4779    86.504297 
    6700    1787.5055   -104.78479    1.6173726   -103.16742    7613.8537    4.4084236    4.4084236    4.4084236    7613.8537     62094.89    -14250.49   -25002.839    13156.862   -8007.2237    2138.1417    85.674182 
    6800    833.79717   -103.93527    0.7544372   -103.18083    26793.304    4.4058758    4.4058758    4.4058758    26793.304    46875.409    45081.984   -11577.481   -4037.9719    956.05043   -1964.1105     85.52572 
    6900    1690.6479   -104.71947    1.5297338   -103.18974   -26519.938    4.4271815    4.4271815    4.4271815   -26519.938   -31067.327   -47305.029   -1187.4564     14850.92    11605.432   -2322.5466    86.772472 
    7000    1823.3209   -104.83166    1.6497791   -103.18188    5767.1353    4.4167615    4.4167615    4.4167615    5767.1353    7207.6061    17005.294   -6911.4945   -2526.8664   -6899.2911    8944.1715    86.161218 
    7100    786.57086   -103.90084   0.71170585   -103.18913    3446.0396    4.4088357    4.4088357    4.4088357    3446.0396    38605.959   -19153.473   -9114.3677    18401.235    8173.5688    1255.6973     85.69821 
    7200      1541.52    -104.5875    1.3947997    -103.1927    16853.835    4.4180972    4.4180972    4.4180972    16853.835     69224.16   -18138.094   -524.55974    20771.292   -27823.384   -396.69662    86.239413 
    7300    1394.8637   -104.45824     1.262102   -103.19614   -8282.2511    4.4236301    4.4236301    4.4236301   -8282.2511   -27663.771    1246.3444    1570.6728    153.17756   -4302.4528    5803.3648    86.563821 
    7400    1086.3479   -104.16171    0.9829504   -103.17876   -25342.782    4.4200629    4.4200629    4.4200629   -25342.782    -3415.502   -42961.682   -29651.163    20738.399   -7367.8151    150.24906    86.354575 
    7500    1934.2744   -104.92239    1.7501721   -103.17222    12107.689    4.4067796    4.4067796    4.4067796    12107.689    42345.385   -24861.814    18839.496    34.502861    14044.344     7005.176    85.578368 
    7600    1134.3913   -104.21562    1.0264211    -103.1892    10188.125    4.4098813    4.4098813    4.4098813    10188.125     59119.88   -24848.283   -3707.2225    9242.6116    28045.969    3593.5218    85.759198 
    7700      896.992   -104.00107   0.81161721   -103.18945   -11433.862    4.4255787    4.4255787    4.4255787   -11433.862    55665.296   -36492.319   -53474.563    -9048.995    14090.718    7208.3838    86.678265 
    7800     2022.777   -105.00965    1.8302512    -103.1794   -14014.025    4.4207872    4.4207872    4.4207872   -14014.025   -9265.4889     -25656.6   -7119.9857    1479.0678    18544.111    2638.6008    86.397034 
    7900    1338.8347   -104.38715    1.2114058   -103.17574   -20475.246    4.4146044    4.4146044    4.4146044   -20475.246    15779.877   -32318.837   -44886.778    11338.368   -7107.3738    9201.9003    86.035044 
    8000    1080.6879   -104.16167   0.97782913   -103.18384   -16980.753    4.4108769    4.4108769    4.4108769   -16980.753    5280.8002    -8083.348   -48139.713   -6436.5508     21191.25    2343.8049    85.817292 
    8100    1600.4582   -104.63284    1.4481282   -103.18471    33455.994    4.4032913    4.4032913    4.4032913    33455.994    90511.684   -9930.1359    19786.433    18874.354   -5408.3848   -7473.8434    85.375304 
    8200    1066.4549   -104.16969    0.9649508   -103.20474   -13094.499    4.4224114    4.4224114    4.4224114   -13094.499    48166.884   -23186.091   -64264.289   -3862.5169    12222.635    17914.332    86.492293 
    8300    1367.1114   -104.41992    1.2369911   -103.18293     2795.804    4.4279188    4.4279188    4.4279188     2795.804    24821.763   -11430.049   -5004.3018    8026.6983   -2011.3506    -3984.307    86.815834 
    8400    1988.8347   -104.97037    1.7995394   -103.17083   -25127.058    4.4241794    4.4241794    4.4241794   -25127.058   -34053.391    -32254.82   -9072.9634    14256.795   -10085.397   -70.874887    86.596071 
    8500     1266.282   -104.30704    1.1457586   -103.16129    1785.7859     4.417015     4.417015     4.417015    1785.7859    44345.016   -15738.047   -23249.611    4824.1704    5840.2246   -5479.7943    86.176057 
    8600    1330.9874    -104.3704    1.2043053    -103.1661    2488.5618    4.4117836    4.4117836    4.4117836    2488.5618   -6630.9747   -1605.4966    15702.157    8053.3056     -12852.7    2665.8291    85.870225 
    8700    1510.6766   -104.54279     1.366892    -103.1759    8944.9769    4.4216323    4.4216323    4.4216323    8944.9769    20620.123   -2037.5543     8252.362    3014.2684   -5097.7581   -4739.2223    86.446594 
    8800    1256.6144   -104.31285    1.1370111   -103.17584   -14809.625    4.4266394    4.4266394    4.4266394   -14809.625    28266.316   -47047.295   -25647.896     1629.883   -6959.2242   -7616.8443    86.740603 
    8900    1198.1047   -104.25778    1.0840703   -103.17371    9753.3836    4.4115517    4.4115517    4.4115517    9753.3836   -28014.936    47970.089    9304.9973      1252.97   -73.078829    3040.5148    85.856688 
    9000    1566.7871   -104.60664    1.4176619   -103.18898    27473.792    4.4109522    4.4109522    4.4109522    27473.792    27484.508    7497.8813    47438.987    9001.3469    13162.783    -9771.818    85.821689 
    9100    1007.1329    -104.1061   0.91127499   -103.19482    8237.0216    4.4292022    4.4292022    4.4292022    8237.0216    -20509.67    24054.841    21165.893    6015.1382   -4054.6689    19428.248    86.891346 
    9200    1692.0012   -104.69569    1.5309582   -103.16473   -16774.231    4.4277569    4.4277569    4.4277569   -16774.231   -59712.416   -13591.306    22981.029    49.876263    5601.7122    -11305.91    86.806313 
    9300    1424.1506   -104.44887    1.2886014   -103.16027    16767.931      4.41274      4.41274      4.41274    16767.931    17736.054   -1546.6711    34114.408    1469.6772    2095.6089    4506.0186    85.926086 
    9400    1815.8296    -104.8131    1.6430008    -103.1701   -16196.678    4.4120675    4.4120675    4.4120675   -16196.678   -11738.793     3719.584   -40570.825     3715.174   -4178.8713   -5207.3572    85.886802 
    9500    986.53384   -104.09419   0.89263655   -103.20155    218.91652    4.4255692    4.4255692    4.4255692    218.91652   -585.47773    -6053.332    7295.5593    4355.5109    4375.0311   -7152.0976    86.677708 
    9600    1959.3088   -104.95426    1.7728238   -103.18144   -19589.588    4.4307437    4.4307437    4.4307437   -19589.588   -12972.233   -23550.221    -22246.31    11354.722   -3676.5987     7183.373    86.982099 
    9700    1137.4079   -104.20464    1.0291506   -103.17549   -7832.0368    4.4175299    4.4175299    4.4175299   -7832.0368     26018.02    -34396.81   -15117.321   -4182.2482     2483.119   -13948.897    86.206198 
    9800    1101.6888    -104.1706   0.99683115   -103.17377    24840.743    4.4067154    4.4067154    4.4067154    24840.743    60081.907   -4880.0787    19320.399    7783.5683    16990.395    14956.905    85.574627 
    9900    1670.8061   -104.69531    1.5117805   -103.18353   -20438.401    4.4249805    4.4249805    4.4249805   -20438.401    7759.5015   -36506.355   -32568.349   -2139.0611   -1329.5629   -12838.913    86.643119 
   10000    1124.6852   -104.19063    1.0176388     -103.173   -16875.906    4.4223436    4.4223436    4.4223436   -16875.906    41170.815   -47454.718   -44343.815   -10606.082    6097.4547     6505.639    86.488315 
   10100    1566.4542   -104.58959    1.4173607   -103.17223   -14066.659    4.4101418    4.4101418    4.4101418   -14066.659   -33505.216   -2878.9246   -5815.8369    7336.9342   -16408.186   -17333.676    85.774397 
   10200     1342.442   -104.40062    1.2146698   -103.18595   -1509.6515    4.4098441    4.4098441    4.4098441   -1509.6515    24721.239    -5703.076   -23547.118   -19246.555    8064.8055    4812.3508    85.757027 
   10300    1398.1777   -104.45846    1.2651005   -103.19336   -14126.178    4.4171191    4.4171191    4.4171191   -14126.178    23918.458   -33994.323   -32302.669    -1585.169   -8775.6284   -5380.6114     86.18215 
   10400     1489.027    -104.5389    1.3473029    -103.1916   -7349.9142    4.4311957    4.4311957    4.4311957   -7349.9142    54728.724   -42208.407    -34570.06   -7784.2379    5740.6225   -13635.722    87.008724 
   10500    1352.1713   -104.40082     1.223473   -103.17735   -15411.155    4.4233388    4.4233388    4.4233388   -15411.155    4768.3351   -13516.478   -37485.323   -27270.514    4681.6373    1515.6025     86.54672 
   10600    1334.6781   -104.37912    1.2076448   -103.17148    29263.363    4.4101128    4.4101128    4.4101128    29263.363    105306.31    1211.6208   -18727.842   -5229.3282   -6917.8106   -10226.763    85.772701 
   10700    1675.2866   -104.69746    1.5158345   -103.18163   -28078.188    4.4229267    4.4229267    4.4229267   -28078.188    -41159.05   -10723.349   -32352.164   -16467.086    4841.0766   -667.95924    86.522531 
   10800    1345.3707   -104.40989    1.2173197   -103.19257   -63.997116    4.4223099    4.4223099    4.4223099   -63.997116    34138.712   -3626.8359   -30703.868    9005.6214   -11356.022   -6868.6797    86.486338 
   10900    1612.1322    -104.6523    1.4586911   -103.19361    4917.9858    4.4233011    4.4233011    4.4233011    4917.9858    15043.086    15532.881    -15822.01   -3157.6718   -5839.9404    1762.9936    86.544507 
   11000    1309.3162   -104.37863    1.1846968   -103.19393    8564.1384    4.4220823    4.4220823    4.4220823    8564.1384     41889.82   -24504.078    8306.6733    2561.0745    6653.8639   -15275.425    86.472988 
   11100    1268.0094   -104.33396    1.1473215   -103.18663    1051.4095    4.4201856    4.4201856    4.4201856    1051.4095    24635.619    18590.206   -40071.596    4186.8723   -4561.4519    13057.115    86.361768 
   11200    1816.6458   -104.82714    1.6437393    -103.1834    5134.0488    4.4168567    4.4168567    4.4168567    5134.0488    52975.549   -16427.248   -21146.155   -5598.8251   -7943.0549   -6125.6602    86.166792 
   11300    1132.3236   -104.20994    1.0245502   -103.18539    12355.776    4.4210063    4.4210063    4.4210063    12355.776     14699.28    16364.948    6003.1002    2189.5232    16245.572     10884.43     86.40988 
   11400    1209.0836   -104.27365    1.0940042   -103.17964   -6383.7138    4.4277729    4.4277729    4.4277729   -6383.7138    12472.762   -13592.149   -18031.754    679.08648   -3761.9108   -2073.5953    86.807254 
   11500    1741.3402   -104.75599    1.5756012   -103.18039   -23042.961    4.4279545    4.4279545    4.4279545   -23042.961   -13988.919   -43284.967   -11854.995   -845.35157    12216.975    9342.4719    86.817934 
   11600    942.79589   -104.03598   0.85306153   -103.18292    8294.1254    4.4213372    4.4213372    4.4213372    8294.1254    6890.8025    2428.2903    15563.283    437.33574   -2997.4423      4615.88    86.429284 
   11700    1539.4325   -104.57389    1.3929108   -103.18098   -27078.722    4.4164677    4.4164677    4.4164677   -27078.722   -25733.972    -40504.72   -14997.476   -5772.0351    3601.2173    2595.0495    86.144029 
   11800    1362.5692   -104.42312    1.2328812   -103.19024    18208.609     4.427704     4.427704     4.427704    18208.609    43290.992   -10866.207    22201.044    2957.4244   -4017.8416    13102.487    86.803198 
   11900    1673.7943   -104.69471    1.5144842   -103.18022   -15160.952    4.4282399    4.4282399    4.4282399   -15160.952   -45799.169   -14844.108    15160.421   -5468.7898   -9615.2074    867.19069    86.834721 
   12000    972.36699   -104.06689   0.87981809   -103.18707    14010.777    4.4205022    4.4205022    4.4205022    14010.777    67593.524   -28640.988     3079.795    1664.4762    -4947.268    15267.099    86.380326 
   12100    1491.5785   -104.55266    1.3496116   -103.20305    28630.246    4.4260609    4.4260609    4.4260609    28630.246    21104.339    8382.1517    56404.247   -3758.1588   -5421.1741    2378.6854    86.706597 
   12200    1617.3529   -104.66782    1.4634149   -103.20441   -25162.956     4.430603     4.430603     4.430603   -25162.956   -26125.516   -48016.328   -1347.0247    6527.7577     13370.18    14863.169    86.973814 
   12300    1023.2959   -104.13398   0.92589959   -103.20808   -1777.7981    4.4344639    4.4344639    4.4344639   -1777.7981   -7399.1867    3779.2418   -1713.4494   -1033.3374   -9849.8057    2557.2036    87.201385 
   12400    1945.3335    -104.9567    1.7601786   -103.19652   -9912.7343    4.4244073    4.4244073    4.4244073   -9912.7343    2953.5118   -30859.652    -1832.063     18719.52    9763.2285    14797.064    86.609454 
   12500    1565.0699   -104.60742    1.4161081   -103.19132    -16523.15    4.4207051    4.4207051    4.4207051    -16523.15   -32921.887   -8226.3073   -8421.2563   -4695.8563   -15966.342    7036.9949    86.392221 
   12600    621.58614   -103.76588    0.5624242   -103.20346    35691.593    4.4276262    4.4276262    4.4276262    35691.593    89681.885    4296.6604    13096.235    19445.619    22537.891    12365.227    86.798625 
   12700    1678.6719   -104.72314    1.5188976   -103.20424   -8601.4931    4.4365925    4.4365925    4.4365925   -8601.4931    12683.793   -45074.482    6586.2103    2776.9116    -21214.31     8866.951    87.327017 
   12800    1376.7483   -104.44007    1.2457108   -103.19436   -11310.204    4.4221801    4.4221801    4.4221801   -11310.204   -27352.839   -16232.353    9654.5788    9575.4874     5679.352    12162.504    86.478726 
   12900    1300.2759   -104.37824     1.176517   -103.20172    1165.5038    4.4253856    4.4253856    4.4253856    1165.5038    9986.6869   -102.43943   -6387.7359   -14960.452   -8546.4239   -308.46254    86.666919 
   13000    1722.3258   -104.75301    1.5583966   -103.19461    -22940.64    4.4362968    4.4362968    4.4362968    -22940.64   -34107.262   -53063.342    18348.684   -7015.9934    5831.0574   -930.04669    87.309556 
   13100    1046.5941   -104.13706   0.94698032   -103.19007    2981.9363    4.4266843    4.4266843    4.4266843    2981.9363    8459.1732   -32133.813    32620.449     1672.902    12649.345    7701.3152    86.743241 
   13200    1378.5227   -104.43544    1.2473163   -103.18813   -1652.0823    4.4256968    4.4256968    4.4256968   -1652.0823   -24308.548     -18490.9    37843.201   -4366.9287    10499.427   -4014.5673    86.685204 
   13300     1283.455   -104.34542     1.161297   -103.18413    9193.9928    4.4282944    4.4282944    4.4282944    9193.9928    37889.576   -14306.758    3999.1606    19795.708    2127.9475    16618.326    86.837929 
   13400    1458.2508   -104.49691     1.319456   -103.17745   -16011.921    4.4339705    4.4339705    4.4339705   -16011.921   -32313.729   -702.62469    -15019.41   -15504.587    4459.8512   -4979.8937    87.172281 
   13500     1272.897   -104.32186     1.151744   -103.17012   -4854.9265    4.4316961    4.4316961    4.4316961   -4854.9265    50223.873    -21948.43   -42840.223    4649.3822   -2823.0549    6939.0777    87.038201 
   13600    1797.2855   -104.79862    1.6262217    -103.1724    15227.903    4.4158387    4.4158387    4.4158387    15227.903    13461.587    5818.3993    26403.723   -8380.0535     2241.632   -6252.6643    86.107228 
   13700    1022.7629   -104.12238   0.92541735   -103.19696    8736.8038    4.4136548    4.4136548    4.4136548    8736.8038    21348.792    5403.7086   -542.08946    22111.276   -1017.7921   -3870.4635    85.979534 
   13800    1540.7124   -104.59923     1.394069   -103.20516   -1376.2579    4.4313614    4.4313614    4.4313614   -1376.2579    15836.593   -3778.8013   -16186.565   -6351.3036      15264.9    4661.4741    87.018483 
   13900    1125.7013   -104.20361    1.0185582   -103.18505    2469.1145    4.4398388    4.4398388    4.4398388    2469.1145    32213.251   -60543.117    35737.209    20436.088    12369.494   -2304.0271     87.51885 
   14000    1277.1929   -104.31985     1.155631   -103.16422    5073.1522    4.4181502    4.4181502    4.4181502    5073.1522    17234.226   -6940.2037    4925.4345    1099.7605    21997.321   -1447.9652     86.24252 
   14100    1482.1271   -104.52605    1.3410597   -103.18499    21001.425    4.4169195    4.4169195    4.4169195    21001.425    20756.689   -12991.654     55239.24    3493.8252    6531.2431    5661.6521    86.170467 
   14200    1580.7262   -104.62811    1.4302743   -103.19784    -27699.88    4.4456131    4.4456131    4.4456131    -27699.88    980.02598    -45853.85   -38225.817    2162.8123   -8520.1375    -2066.322    87.860768 
   14300    1072.5012   -104.13618   0.97042164   -103.16576   -13199.162    4.4401715    4.4401715    4.4401715   -13199.162   -54671.135   -10977.148    26050.797   -1333.3562    375.46935   -17320.352    87.538527 
   14400    1814.6799   -104.78565    1.6419605   -103.14369    12118.029    4.4190746    4.4190746    4.4190746    12118.029    40591.627   -5683.8303    1446.2891   -447.26746   -5255.9308    4206.5047     86.29666 
   14500    1787.7095    -104.7836    1.6175571   -103.16604   -20468.424    4.4269348    4.4269348    4.4269348   -20468.424   -34074.182   -36693.499    9362.4083   -1463.1715   -8755.8302   -17093.701    86.757967 
   14600    788.04279   -103.89589   0.71303768   -103.18285    15863.435    4.4304962    4.4304962    4.4304962    15863.435    24964.402    7923.9984    14701.906    13416.834   -14420.557   -15981.406    86.967524 
   14700    1895.4296   -104.89093    1.7150245    -103.1759   -12549.457    4.4328469    4.4328469    4.4328469   -12549.457    746.75737   -30249.774   -8145.3539   -3566.4352   -5491.9261   -2933.5759    87.106023 
   14800    1190.2534   -104.24897    1.0769663     -103.172    9257.9357    4.4330114    4.4330114    4.4330114    9257.9357    33656.032   -37787.053    31904.829   -2043.6475    1128.5741   -11206.055    87.115724 
   14900    1155.7595   -104.20429    1.0457555   -103.15853    18896.238    4.4298244    4.4298244    4.4298244    18896.238    27352.166    25508.773    3827.7761   -834.70027    -7879.728   -10566.734    86.927969 
   15000    1437.2468   -104.46117    1.3004511   -103.16072    5626.1335     4.429146     4.429146     4.429146    5626.1335    26572.887   -46060.454    36365.968    1075.4757    -5661.598   -2884.4652    86.888036 
   15100    1344.5372   -104.37551    1.2165655   -103.15895    5968.2551    4.4318352    4.4318352    4.4318352    5968.2551    18276.871   -9143.3136    8771.2083   -10798.976    3486.8317   -3774.7184      87.0464 
   15200    1281.3326   -104.32457    1.1593767    -103.1652   -22348.191    4.4271649    4.4271649    4.4271649   -22348.191   -24620.572   -34815.207    -7608.792     13571.12    -3103.962   -5756.6806    86.771497 
   15300    1464.3366   -104.49967    1.3249625   -103.17471    19956.604     4.422929     4.422929     4.422929    19956.604    76128.976   -36391.101    20131.938   -9959.3887    4611.6513    5561.7875    86.522666 
   15400    1651.2372   -104.67483    1.4940741   -103.18076   -24073.256    4.4265138    4.4265138    4.4265138   -24073.256    -25796.44   -6943.1028   -39480.225    12293.155    8402.3172   -3682.6597    86.733217 
   15500    1268.4661   -104.32936    1.1477348   -103.18163   -13131.721    4.4276954    4.4276954    4.4276954   -13131.721    440.94185   -51835.045    11998.939    3172.4801    6708.5691   -8183.3062    86.802695 
   15600     1554.334   -104.58974    1.4063941   -103.18335    5974.4132    4.4285691    4.4285691    4.4285691    5974.4132    31326.621   -7994.0594   -5409.3219   -14705.022    8286.6194    5895.9892    86.854089 
   15700    1555.9443   -104.59158    1.4078511   -103.18373   -16372.005     4.425162     4.425162     4.425162   -16372.005   -44919.506   -40244.087    36047.579    9868.4553    16646.475    3252.6768     86.65378 
   15800    948.12829   -104.03578    0.8578864    -103.1779    9769.8365    4.4179597    4.4179597    4.4179597    9769.8365    36866.201   -30707.341     23150.65    -6513.674   -4909.0132    3794.7322    86.231364 
   15900    1521.2057   -104.56381    1.3764189   -103.18739    10361.422    4.4190685    4.4190685    4.4190685    10361.422    7254.0838   -15470.086    39300.267   -1481.2385    2523.5352   -7587.6178    86.296307 
   16000    1588.3769   -104.61992    1.4371968   -103.18273   -10423.685    4.4299938    4.4299938    4.4299938   -10423.685   -21262.219   -35083.591    25074.755    1793.2113    10972.286    6441.2715    86.937941 
   16100    924.63427   -104.02153   0.83662852    -103.1849   -5204.5597    4.4260401    4.4260401    4.4260401   -5204.5597    37007.596   -30314.419   -22306.856    4356.8626    7193.4652   -7966.7414    86.705377 
   16200    1891.3665   -104.89286    1.7113481   -103.18151    13872.769    4.4199239    4.4199239    4.4199239    13872.769    -266.1155    46766.492   -4882.0687   -145.65067   -4426.4082    751.98151    86.346426 
   16300    1386.7364   -104.45465    1.2547483    -103.1999   -4975.0911    4.4269996    4.4269996    4.4269996   -4975.0911    12676.759   -21790.401   -5811.6319   -14695.289   -5752.3987    664.93465    86.761779 
   16400     1322.336    -104.4005    1.1964774   -103.20402    -17600.45    4.4461759    4.4461759    4.4461759    -17600.45   -54343.508    46139.314   -44597.156    3685.7614    5908.5341    7315.5225    87.894142 
   16500    1475.4251   -104.51794    1.3349956   -103.18295   -13664.373    4.4472337    4.4472337    4.4472337   -13664.373     35501.66   -38712.605   -37782.173    26938.005    10190.789    3721.7044    87.956887 
   16600    1315.5752   -104.35087    1.1903601   -103.16051    251.92884    4.4169013    4.4169013    4.4169013    251.92884    3091.9722    13282.317   -15618.503   -4610.0017   -11078.437    2253.2683    86.169404 
   16700    1665.3357   -104.67887    1.5068308   -103.17204     10193.86    4.4127422    4.4127422    4.4127422     10193.86     44334.05    19258.736   -33011.205   -1725.5266    8587.9012    9685.0094    85.926214 
   16800    1556.4684   -104.61277    1.4083254   -103.20445   -18010.525    4.4432934    4.4432934    4.4432934   -18010.525   -32828.544    5202.3561   -26405.387   -977.26626   -790.13732    6404.7262    87.723305 
   16900    1439.4586   -104.48743    1.3024524   -103.18497   -23877.048    4.4469513    4.4469513    4.4469513   -23877.048    7790.1066   -24939.972    -54481.28   -187.71465   -935.12095    5445.1044    87.940135 
   17000     1566.267   -104.58586    1.4171913   -103.16867   -4813.2631    4.4245697    4.4245697    4.4245697   -4813.2631   -1108.7957    18731.025   -32062.018    5026.6276    1598.0063    6295.1623     86.61899 
   17100    1690.5957   -104.70141    1.5296865   -103.17173   -8660.4489    4.4251756    4.4251756    4.4251756   -8660.4489    22948.628    -31788.92   -17141.055   -15195.703    1290.6769    6868.4904     86.65458 
   17200    1113.2354   -104.19935    1.0072788   -103.19207   -15496.737    4.4396166    4.4396166    4.4396166   -15496.737    35697.777   -38002.186   -44185.801    18155.589    250.63221   -896.88373    87.505713 
   17300    1846.1529    -104.8518     1.670438   -103.18136   -6642.5481    4.4339829    4.4339829    4.4339829   -6642.5481   -13294.541    14049.981   -20683.084   -11644.892    5905.5713    2768.8698    87.173008 
   17400    1103.1416   -104.18172   0.99814572   -103.18357   -4187.6062    4.4375165    4.4375165    4.4375165   -4187.6062    28417.363    -16328.16   -24652.021    21545.981   -727.75627     1311.252    87.381591 
   17500    1495.3366   -104.52845     1.353012   -103.17543   -15492.419    4.4344763    4.4344763    4.4344763   -15492.419    -21484.65    -7074.353   -17918.253    7922.1367    9518.8345    7232.0175    87.202116 
   17600    1803.5082   -104.82004    1.6318521   -103.18818   -7803.0199    4.4288187    4.4288187    4.4288187   -7803.0199    5628.7918   -16211.981    -12825.87    2623.7118    1065.3178   -12518.777    86.868775 
   17700    1041.4462   -104.13831   0.94232244   -103.19599    19802.712    4.4338943    4.4338943    4.4338943    19802.712    53340.367    32538.132   -26470.365    2545.8041    5853.4389    3368.4059    87.167787 
   17800    1328.9589   -104.38695    1.2024699   -103.18448    19887.461    4.4365373    4.4365373    4.4365373    19887.461     10416.59    1116.1696    48129.624    11791.614    -5014.667   -9599.1455     87.32376 
   17900    1290.5048   -104.34695    1.1676759   -103.17927   -244.95255    4.4415226    4.4415226    4.4415226   -244.95255    14895.301   -9365.7559   -6264.4032    23837.729     12354.85   -6645.3094    87.618461 
   18000    1727.7855   -104.72121    1.5633366   -103.15788   -4631.5408    4.4305231    4.4305231    4.4305231   -4631.5408   -22205.323   -33978.035    42288.736   -516.58924    1501.4893   -9720.3652    86.969108 
   18100    1215.5266   -104.28497     1.099834   -103.18513   -2648.4637    4.4314209    4.4314209    4.4314209   -2648.4637    18273.695    12665.567   -38884.652    6255.2477    2645.4419   -10160.927    87.021991 
   18200     1456.279   -104.50405    1.3176718   -103.18638   -885.79011    4.4300765    4.4300765    4.4300765   -885.79011    12838.881   -36642.674    21146.423     2113.915    5039.6908   -341.17239    86.942811 
   18300    1530.2128   -104.56948    1.3845687   -103.18491   -18244.255    4.4269892    4.4269892    4.4269892   -18244.255   -2665.0176   -30323.646   -21744.101    388.47003   -4208.5159   -9140.3141    86.761167 
   18400    1380.8107   -104.42963    1.2493865   -103.18024   -17585.912     4.437461     4.437461     4.437461   -17585.912    1730.2031   -28265.288    -26222.65    4611.0742    12234.314   -6706.1616    87.378313 
   18500     1404.933   -104.44573    1.2712129   -103.17451   -10387.728    4.4280971    4.4280971    4.4280971   -10387.728   -7944.8576   -26547.667    3329.3406   -3090.6414    4255.3133   -9688.2926    86.826324 
   18600    1561.0572   -104.60153    1.4124773   -103.18905   -4049.0649    4.4307231    4.4307231    4.4307231   -4049.0649    29507.686   -42433.113    778.23207   -4537.3085   -11648.037    870.64219    86.980885 
   18700    1213.3932   -104.29209    1.0979037   -103.19419   -15861.258    4.4426999    4.4426999    4.4426999   -15861.258   -29270.903   -23048.291    4735.4215   -200.11764   -10125.182   -10225.508    87.688154 
   18800    1568.3845   -104.60005    1.4191073   -103.18094   -18579.057    4.4420211    4.4420211    4.4420211   -18579.057    22671.402   -36819.696   -41588.878   -14410.057    10530.259   -623.91112    87.647969 
   18900    1330.8207   -104.37565    1.2041546   -103.17149    4478.0763     4.432449     4.432449     4.432449    4478.0763    3169.4079   -20510.327    30775.148    -3005.555    11626.871   -14469.534    87.082568 
   19000    1550.2019   -104.57168    1.4026553   -103.16902    16118.783    4.4300188    4.4300188    4.4300188    16118.783    18853.257     2699.562    26803.532   -4710.8954   -2539.8515    6284.5817    86.939414 
   19100    1175.2503   -104.23559    1.0633912    -103.1722    7469.2799    4.4345936    4.4345936    4.4345936    7469.2799    34021.248   -41998.411    30385.003    49.112712    6991.1671   -5692.0826    87.209032 
   19200     1941.016   -104.91687    1.7562721    -103.1606    -14269.36    4.4316731    4.4316731    4.4316731    -14269.36   -11107.472   -14438.612   -17261.996   -12174.547    188.91136   -7022.4704    87.036846 
   19300    707.34606    -103.8222   0.64002158   -103.18218     32602.43    4.4362721    4.4362721    4.4362721     32602.43      88594.7   -36342.861    45555.453   -1757.7749   -31.472495    1986.7697    87.308096 
   19400    1995.4926   -104.97919    1.8055636   -103.17363   -41353.946    4.4421442    4.4421442    4.4421442   -41353.946   -29921.933   -62651.726    -31488.18   -6674.4274     18205.88   -15497.894    87.655255 
   19500     1124.284   -104.19385    1.0172758   -103.17658   -602.87234    4.4316056    4.4316056    4.4316056   -602.87234    39836.637   -30141.274    -11503.98    14411.879    10097.646    11449.519    87.032872 
   19600    1306.3709   -104.36485    1.1820318   -103.18281    2695.3164    4.4264196    4.4264196    4.4264196    2695.3164    29056.492    -33126.73    12156.187   -2128.0267   -7922.1187   -7538.1019    86.727682 
   19700    1682.6187   -104.71244    1.5224687   -103.18997   -21900.293    4.4340274    4.4340274    4.4340274   -21900.293   -3520.8395   -33550.207   -28629.832    16095.355   -627.81151    1826.0874    87.175634 
   19800    1218.3447   -104.28992    1.1023839   -103.18753   -4299.1557     4.439905     4.439905     4.439905   -4299.1557    11835.815   -15572.788   -9160.4941    1119.5272    8882.5576    8894.4796    87.522767 
   19900    1689.1384   -104.70564    1.5283679   -103.17727   -3250.9864    4.4345671    4.4345671    4.4345671   -3250.9864    11242.486   -36488.302    15492.857    16701.643     -16850.5   -5405.0291    87.207469 
   20000    1406.5173   -104.45768    1.2726464   -103.18503    5874.0883     4.423765     4.423765     4.423765    5874.0883    3609.7177   -23846.542    37859.089    14630.088   -128.07848    7689.0139    86.571742 
   20100    987.55661   -104.10572   0.89356198   -103.21216    30188.558     4.438809     4.438809     4.438809    30188.558    107869.49    -6725.065   -10578.755   -6539.1371   -15752.419    -2728.799    87.457968 
   20200    1897.4395    -104.9203    1.7168431   -103.20346   -53038.436    4.4559259    4.4559259    4.4559259   -53038.436   -47515.751   -81629.311   -29970.247    5376.2139    10000.618    5948.3388    88.473635 
   20300    1158.5833   -104.24069    1.0483105   -103.19238    13409.909    4.4339206    4.4339206    4.4339206    13409.909    45452.278   -15972.706    10750.156   -1782.6406   -3137.2701   -3795.0895    87.169338 
   20400     1530.606    -104.5864    1.3849245   -103.20147    2789.4263    4.4196838    4.4196838    4.4196838    2789.4263   -16013.532   -20161.512    44543.323   -5918.2809   -16442.219    10090.337    86.332359 
   20500    1535.5461   -104.61751    1.3893944   -103.22811    4983.7462     4.434481     4.434481     4.434481    4983.7462    75977.213    -45426.96   -15599.015    6706.9524    11293.678    6400.4908    87.202391 
   20600    936.88696   -104.07046   0.84771501   -103.22275    782.73486    4.4514263    4.4514263    4.4514263    782.73486   -17820.395   -24584.393    44752.993   -5589.5213   -10068.211   -1222.4633    88.205884 
   20700    1542.4963   -104.58662     1.395683   -103.19094   -11423.223    4.4385208    4.4385208    4.4385208   -11423.223    25714.833   -44812.676   -15171.828    -6807.084    298.27436   -4670.9216    87.440931 
   20800    1875.6454     -104.871    1.6971233   -103.17387     5447.051    4.4188917    4.4188917    4.4188917     5447.051    3117.0366   -27001.573    40225.689    16226.887    9604.7201    7282.5017    86.285949 
   20900    607.27541   -103.76936   0.54947556   -103.21988   -4736.0131    4.4417218    4.4417218    4.4417218   -4736.0131     9664.637   -37984.314    14111.638    2988.6719   -23110.882   -10645.471    87.630249 
   21000    1826.6689   -104.84572    1.6528084   -103.19291   -7004.9145    4.4355342    4.4355342    4.4355342   -7004.9145   -19717.045   -38411.791    37114.092   -4827.3603    9140.1546    4416.7157    87.264541 
   21100    1201.4085   -104.29214    1.0870596   -103.20508   -8571.5729    4.4374324    4.4374324    4.4374324   -8571.5729   -374.53695   -35508.125    10167.943    17822.902   -10157.213   -9095.3144    87.376621 
   21200     977.2003   -104.07935   0.88419137   -103.19516    34486.082    4.4306335    4.4306335    4.4306335    34486.082    30994.035    3416.8865    69047.324    14640.005   -12841.573    16870.084    86.975612 
   21300    1840.7608    -104.8723     1.665559   -103.20674   -33451.891    4.4334274    4.4334274    4.4334274   -33451.891   -24856.826   -42074.731   -33424.115   -8732.4183    12620.356    -2526.829    87.140252 
   21400    1392.9369   -104.46164    1.2603586   -103.20128    4432.2685    4.4365059    4.4365059    4.4365059    4432.2685    5658.2949   -6377.2761    14015.787    18887.702    6355.9261   -1087.3441    87.321904 
   21500    1478.5286   -104.52304    1.3378037   -103.18523   -22119.341    4.4383687    4.4383687    4.4383687   -22119.341    23655.789   -36752.279   -53261.532    5175.0155    8667.7082    11145.931    87.431942 
   21600    1114.8912   -104.19292     1.008777   -103.18414    4414.5274    4.4389887    4.4389887    4.4389887    4414.5274    39854.241   -15529.866   -11080.792     1185.558   -10914.665   -4816.9219     87.46859 
   21700    1489.3183   -104.51965    1.3475665   -103.17209   -1293.5204    4.4389723    4.4389723    4.4389723   -1293.5204    18202.748   -39992.924    17909.616    8206.6854    3608.5603    13273.823    87.467617 
   21800    1534.6468   -104.57042    1.3885806   -103.18184   -10240.972    4.4342126    4.4342126    4.4342126   -10240.972    -21281.99   -40189.491    30748.566    3175.6466   -5305.9261   -4825.7436    87.186561 
   21900    1350.8329   -104.42597     1.222262    -103.2037    7528.9036    4.4298782    4.4298782    4.4298782    7528.9036    2509.4265   -27550.472    47627.756   -2213.1037    3989.5233    8533.9729    86.931138 
   22000    1778.1331    -104.8162    1.6088922    -103.2073   -4366.9572    4.4367548    4.4367548    4.4367548   -4366.9572    1101.3556   -40441.753    26239.525    4614.5094   -14620.007    3983.1845    87.336598 
   22100    1059.0061    -104.1532   0.95821101   -103.19499    24653.618    4.4443051    4.4443051    4.4443051    24653.618    30096.333   -42219.796    86084.318    5375.0394   -4630.0201   -333.95756    87.783236 
   22200    1619.6639   -104.64158    1.4655059   -103.17607   -26429.308    4.4432803    4.4432803    4.4432803   -26429.308   -15463.708    -54860.63   -8963.5869   -2190.3926   -10718.774    16042.981    87.722529 
   22300    1109.6339   -104.17752      1.00402    -103.1735    33573.493    4.4342063    4.4342063    4.4342063    33573.493    88918.468    -31501.96    43303.972    7777.3029   -21361.314   -3357.2901    87.186187 
   22400    1571.7225   -104.61506    1.4221276   -103.19294   -16555.223    4.4437158    4.4437158    4.4437158   -16555.223    24228.195   -58409.516   -15484.349    1674.8842    23933.187    10340.037    87.748325 
   22500    1807.0543   -104.83667    1.6350607   -103.20161   -39244.337    4.4501028    4.4501028    4.4501028   -39244.337   -60854.459   -65537.789     8659.236   -2396.6778   -5003.4183    2397.3362    88.127232 
   22600    1111.7794   -104.21705    1.0059614   -103.21109    2304.4276     4.439943     4.439943     4.439943    2304.4276    23840.582   -58688.589     41761.29   -2118.9801    12377.097    18673.309    87.525012 
   22700    2021.7376   -105.03085    1.8293106   -103.20154    -6863.934    4.4334788    4.4334788    4.4334788    -6863.934    32677.348   -32488.228   -20780.922    3477.8404    4069.7942   -280.47073    87.143281 
   22800    748.54032   -103.90357   0.67729501   -103.22627    19516.353    4.4421305    4.4421305    4.4421305    19516.353    37870.906   -52104.032    72782.186     469.8193   -24084.542    16175.909    87.654445 
   22900    1618.1899   -104.69304    1.4641722   -103.22887    6941.9529    4.4456586    4.4456586    4.4456586    6941.9529    41170.164   -55157.209    34812.904    11645.883    14126.334   -2884.0169    87.863463 
   23000    1364.0256   -104.46195     1.234199   -103.22775    -99.26508     4.451546     4.451546     4.451546    -99.26508    32806.794   -59678.072    26573.483    7672.5576   -701.06079     14303.53    88.212999 
   23100    1635.2138   -104.67446    1.4795758   -103.19488    -8784.748    4.4546543    4.4546543    4.4546543    -8784.748    25891.794   -51967.609   -278.42841   -118.22353    10252.528   -6024.1774    88.397914 
   23200    1123.5026   -104.20045    1.0165688   -103.18389    10576.127     4.450859     4.450859     4.450859    10576.127    45953.311    -46766.48     32541.55    603.13391    2333.1444    11905.225    88.172163 
   23300    1500.2895   -104.53109    1.3574935   -103.17359    3354.9498    4.4422439    4.4422439    4.4422439    3354.9498    36811.505   -54164.057    27417.401   -2740.7751    14608.322    1075.2823    87.661158 
   23400    1293.9746   -104.37855    1.1708154   -103.20774   -9822.9312    4.4473254    4.4473254    4.4473254   -9822.9312    1427.1678   -55453.008    24557.046   -9595.8453   -2522.2569    15391.703    87.962328 
   23500    1269.5818   -104.36181    1.1487443   -103.21307     6312.811     4.448875     4.448875     4.448875     6312.811    89842.637   -31256.203   -39648.001   -2171.5721   -13628.476    409.19242     88.05431 
   23600    742.10137   -103.89763   0.67146892   -103.22617    24792.664    4.4423664    4.4423664    4.4423664    24792.664      55573.5   -40075.516    58880.009     -4042.23    15091.665    9823.6145    87.668411 
   23700    1728.3788   -104.77041    1.5638735   -103.20654   -11120.468    4.4400099    4.4400099    4.4400099   -11120.468    19828.775    -20041.48   -33148.699   -1138.2135     4913.874   -695.41698     87.52897 
   23800    1173.8197   -104.28122    1.0620967   -103.21913   -12033.463    4.4468542    4.4468542    4.4468542   -12033.463    7455.8712   -68134.146    24577.886    416.82337     2507.907    17823.066    87.934371 
   23900    1664.4417   -104.72635    1.5060219   -103.22033   -18024.722    4.4435183    4.4435183    4.4435183   -18024.722    46429.779   -64694.949   -35808.997   -3216.1558    9714.2018   -8803.3334    87.736623 
   24000    893.39515   -104.02555   0.80836271   -103.21719    36070.633    4.4302495    4.4302495    4.4302495    36070.633    133682.02   -41513.344    16043.227   -7053.8801   -2083.8042    5848.2544    86.952996 
   24100    1106.5349   -104.23518     1.001216   -103.23396   -5562.1084    4.4399907    4.4399907    4.4399907   -5562.1084    67372.118   -46093.926   -37964.517   -6827.1434   -6009.1157    1115.3585    87.527833 
   24200    1532.7517   -104.61163    1.3868659   -103.22477    -1229.672     4.448612     4.448612     4.448612    -1229.672    44869.698   -54071.854    5513.1398   -14070.188   -1698.4955    138.68452    88.038691 
   24300     1799.184   -104.83902    1.6279395   -103.21108   -38745.355    4.4437995    4.4437995    4.4437995   -38745.355   -14344.234   -58512.997   -43378.833    -2891.613   -11938.706   -3870.3444    87.753282 
   24400    669.59532   -103.81453   0.60586392   -103.20866    37857.096    4.4308283    4.4308283    4.4308283    37857.096    169164.35   -49502.611   -6090.4497    11788.397   -3122.7227     988.4312    86.987083 
   24500    1713.4299   -104.77119    1.5503474   -103.22084   -11257.747     4.441972     4.441972     4.441972   -11257.747    62609.508   -58414.016   -37968.733   -2822.6412   -6936.1375   -4521.8372    87.645064 
   24600    1226.2436   -104.33623    1.1095309    -103.2267   -28289.249     4.453953     4.453953     4.453953   -28289.249    39011.463   -58174.035   -65705.175    12.576985   -6735.6077    2316.0907    88.356174 
   24700    2039.3269   -105.06164    1.8452258   -103.21641   -30665.682    4.4369076    4.4369076    4.4369076   -30665.682   -13788.047   -48159.866   -30049.134   -3291.7363    7561.2952   -1919.7008    87.345623 
   24800    1499.4621    -104.5806    1.3567448   -103.22385    2119.8352    4.4311204    4.4311204    4.4311204    2119.8352    75165.331   -36110.124   -32695.702    2565.1739   -15605.794    2610.1568    87.004285 
   24900    1295.3025   -104.41382    1.1720169    -103.2418   -4646.4928     4.444382     4.444382     4.444382   -4646.4928    58554.816   -63143.818   -9350.4759    975.03328   -493.00154    1625.3275    87.787798 
   25000    1478.0046   -104.57595    1.3373296   -103.23862   -18109.817    4.4491313    4.4491313    4.4491313   -18109.817    53429.119   -64238.387   -43520.183    14435.652    16830.906    4763.0426    88.069526 
   25100    649.90539   -103.82059   0.58804806   -103.23254    25535.692    4.4377039    4.4377039    4.4377039    25535.692    145582.36   -33673.302   -35301.982    456.27897   -26809.483   -7681.3506    87.392662 
   25200    1748.6642   -104.81633    1.5822281    -103.2341   -18395.444     4.435825     4.435825     4.435825   -18395.444    30889.954   -62813.228   -23263.057    2994.3755    20617.338    3168.3926    87.281704 
   25300    1787.8991   -104.85539    1.6177287   -103.23766   -25623.467    4.4454535    4.4454535    4.4454535   -25623.467    -6872.313   -62572.855   -7425.2322    2491.5274   -19361.392   -10607.525    87.851303 
   25400    1319.7016   -104.42545    1.1940937   -103.23135   -3356.8923    4.4389758    4.4389758    4.4389758   -3356.8923    38219.192    -51114.77    2824.9006   -4440.0406    6086.5417    961.62005    87.467826 
   25500    1229.1201   -104.33911    1.1121337   -103.22698     18507.23    4.4303909    4.4303909    4.4303909     18507.23    62734.394    -30951.66    23738.955    4040.2955    12036.434   -3505.8315    86.961324 
   25600    1450.5746   -104.54912    1.3125104   -103.23661    3756.3474    4.4325243    4.4325243    4.4325243    3756.3474     50515.32   -43288.075    4041.7977   -4994.9025    -12424.53   -7105.6232    87.087006 
   25700    789.71191   -103.94844   0.71454793    -103.2339    29092.203    4.4435801    4.4435801    4.4435801    29092.203    106428.08   -63086.697     43935.23    1019.5658    22733.346   -2050.6321    87.740283 
   25800    1785.0554    -104.8404    1.6151556   -103.22524   -21944.129    4.4564545    4.4564545    4.4564545   -21944.129    24537.576   -71624.962   -18745.002    11118.532    1137.2001    8849.6289    88.505126 
   25900    1716.2135   -104.77931    1.5528661   -103.22644   -26986.218    4.4451911    4.4451911    4.4451911   -26986.218     3091.586   -46454.336   -37595.904    3487.5013   -13334.595   -585.60838    87.835748 
   26000    1376.7934   -104.48033    1.2457516   -103.23458    4103.2468    4.4225532    4.4225532    4.4225532    4103.2468     56676.42   -56770.237    12403.557   -4930.0926     6490.412   -1057.5725    86.500614 
   26100    1843.0942   -104.92696    1.6676704   -103.25929   -13983.548    4.4298039    4.4298039    4.4298039   -13983.548    27971.944   -53858.548   -16064.041    4429.1706   -7148.7066   -3696.0404    86.926765 
   26200    831.73901   -104.00319   0.75257494   -103.25061    8947.3893     4.455712     4.455712     4.455712    8947.3893    131470.27   -55349.739   -49278.366    1862.4107    12019.614   -687.11627    88.460898 
   26300    1481.5828    -104.5611    1.3405672   -103.22053    257.15324    4.4512835    4.4512835    4.4512835    257.15324    73910.752   -66667.062   -6472.2306    3245.2409    3465.4246    200.42674    88.197395 
   26400    1837.3603   -104.86462    1.6624822   -103.20214   -10197.189    4.4308072    4.4308072    4.4308072   -10197.189     9196.574   -53244.216    13456.075    7361.1796    6063.2837    4626.7688     86.98584 
   26500    1708.7473   -104.77125    1.5461105   -103.22513   -10841.051    4.4282516    4.4282516    4.4282516   -10841.051    41691.536   -34875.363   -39339.327   -5145.9063     16518.94   -3031.1002    86.835411 
   26600    922.90201   -104.07931   0.83506114   -103.24425    5968.1374    4.4511171    4.4511171    4.4511171    5968.1374    78273.209   -37829.224   -22539.573     6656.594   -22367.716    3447.0109    88.187507 
   26700    1188.4203   -104.29337    1.0753076   -103.21806   -15057.331    4.4524152    4.4524152    4.4524152   -15057.331    38635.261   -71969.328   -11837.925   -11440.588     14576.26   -2227.5109    88.264682 
   26800    1772.7704   -104.80099    1.6040399   -103.19695     7978.609    4.4272473    4.4272473    4.4272473     7978.609    70538.056   -33109.915   -13492.314    8629.3996     -15843.6    1664.0968    86.776341 
   26900    1482.7697   -104.56434    1.3416412    -103.2227   -899.91432    4.4265079    4.4265079    4.4265079   -899.91432    17111.921   -19444.103    -367.5617   -3240.3892    6357.5585    1405.1496    86.732874 
   27000     1518.921   -104.61335    1.3743517     -103.239   -12217.589    4.4517181    4.4517181    4.4517181   -12217.589    20310.517   -47971.458   -8991.8271    3241.4572   -14239.405   -5354.3448    88.223232 
   27100    957.37561   -104.09426   0.86625357   -103.22801   -12597.942    4.4595624    4.4595624    4.4595624   -12597.942    92123.024   -79615.945   -50300.906    6127.4219    10445.329   -1065.9421    88.690423 
   27200    1433.2886   -104.50875    1.2968696   -103.21188    6579.9079    4.4273786    4.4273786    4.4273786    6579.9079    83232.378   -43369.744    -20122.91     4526.135    11359.378    244.74385    86.784064 
   27300    1442.2717   -104.53653    1.3049977   -103.23153    16340.556    4.4187627    4.4187627    4.4187627    16340.556     87242.01   -44403.893    6183.5498    -18443.61   -11191.584   -3652.4281    86.278391 
   27400    1390.8399   -104.51904    1.2584612   -103.26058   -19061.578    4.4321543    4.4321543    4.4321543   -19061.578    22676.432   -45966.427    -33894.74    11342.101    19446.746    666.54299    87.065202 
   27500    1876.4185   -104.94961    1.6978229   -103.25179   -25299.666    4.4397548    4.4397548    4.4397548   -25299.666    1747.6914   -62611.332   -15035.359   -13673.013   -6644.1775    464.30382    87.513886 
   27600    1214.4493   -104.33725    1.0988593   -103.23839   -8844.3841    4.4506329    4.4506329    4.4506329   -8844.3841    26916.395   -50045.169   -3404.3785    -4838.606     10476.88   -6230.9944    88.158729 
   27700    1458.3099   -104.53757    1.3195095   -103.21806    8919.8647    4.4232664    4.4232664    4.4232664    8919.8647    73730.889   -48353.171    1381.8765    10269.891    15619.152    2902.1485    86.542473 
   27800    1405.2161   -104.52137     1.271469    -103.2499     7833.006    4.4145821    4.4145821    4.4145821     7833.006     68305.35   -40842.437   -3963.8947   -5104.3478   -19356.117   -5404.8639    86.033736 
   27900    1037.4284    -104.2111   0.93868703   -103.27242    2128.4155    4.4402602    4.4402602    4.4402602    2128.4155    49246.306   -56210.732    13349.673   -2160.4672    17172.783    1898.7397    87.543773 
   28000    982.64018   -104.13633   0.88911349   -103.24721    2323.2539    4.4377901    4.4377901    4.4377901    2323.2539    107290.99   -77941.164   -22380.063   -12631.615   -2337.4409   -4596.1905    87.397755 
   28100    1024.8962   -104.15976   0.92734766   -103.23241    27483.592    4.4195476    4.4195476    4.4195476    27483.592    90418.454   -35220.678    27253.002   -7871.9689   -13101.756   -2004.9716    86.324373 
   28200    1421.1794   -104.52404    1.2859129   -103.23813   -8706.9804     4.425583     4.425583     4.425583   -8706.9804    28324.683   -49055.904   -5389.7203   -1377.8855    4435.4551   -3045.9047    86.678519 
   28300    1659.5962   -104.72548    1.5016376   -103.22385   -11809.112    4.4396631    4.4396631    4.4396631   -11809.112    19289.805   -70648.887    15931.747     2892.098   -4885.1552    2709.3806    87.508459 
   28400    1469.7895   -104.54155    1.3298964   -103.21166   -9642.9756    4.4356633    4.4356633    4.4356633   -9642.9756    14708.173   -45530.675    1893.5755   -19073.755    21082.108   -8205.3636    87.272161 
   28500    1204.9775   -104.29984     1.090289   -103.20955    16733.739    4.4332605    4.4332605    4.4332605    16733.739    59652.803   -33815.896    24364.312    6182.0651   -20088.062    2308.9803    87.130409 
   28600    1352.1517   -104.43363    1.2234553   -103.21018    3926.1872    4.4208472    4.4208472    4.4208472    3926.1872    55138.663   -58534.783    15174.682   -3207.7325    15051.639   -4581.3406    86.400551 
   28700    1497.9814   -104.58765     1.355405   -103.23225   -4027.7105    4.4287151    4.4287151    4.4287151   -4027.7105    52866.096   -43933.304   -21015.924   -7179.3797   -11578.312   -498.13837    86.862683 
   28800    1443.8234   -104.53728    1.3064017   -103.23088      -7953.5    4.4422179    4.4422179    4.4422179      -7953.5    631.67667   -59931.875    35439.698   -1347.4796    -126.8004   -8862.9871    87.659617 
   28900    1657.0452   -104.72258    1.4993293   -103.22325   -22021.125    4.4385969    4.4385969    4.4385969   -22021.125    19651.742   -67999.476   -17715.642   -8615.2233    8629.3601    4140.2212     87.44543 
   29000    1093.8192   -104.21156   0.98971062   -103.22185    13757.215    4.4307788    4.4307788    4.4307788    13757.215    65537.613   -29773.909    5507.9394     7067.556    4244.0778   -6356.8853    86.984164 
   29100    1094.1677   -104.20605   0.99002593   -103.21602     34629.52    4.4225827    4.4225827    4.4225827     34629.52    120738.41   -41668.571    24818.722   -5008.1699    -12054.05    7833.7314    86.502345 
   29200     1405.763   -104.51685    1.2719639   -103.24489    -13739.72    4.4411057    4.4411057    4.4411057    -13739.72    26264.374   -69508.383    2024.8489    16446.521   -480.29244   -13489.224    87.593794 
   29300    1683.3741   -104.74584    1.5231523   -103.22268   -22639.173    4.4377478    4.4377478    4.4377478   -22639.173    2483.6893   -77645.108    7243.9001   -8635.6826   -2371.0175    16841.057    87.395253 
   29400    1065.2026   -104.18617   0.96381768   -103.22236    1441.1348    4.4284258    4.4284258    4.4284258    1441.1348    50075.657   -34399.746   -11352.507   -7980.3181    4786.0581   -9065.7509    86.845662 
   29500    1284.8815   -104.38312    1.1625878   -103.22054    16677.971    4.4286214    4.4286214    4.4286214    16677.971     70628.18   -42510.663    21916.395   -8737.4645   -157.45678    3476.6594    86.857166 
   29600     1821.017   -104.86286    1.6476945   -103.21517   -32996.461    4.4400967    4.4400967    4.4400967   -32996.461    -7409.874   -49404.536   -42174.974   -5579.7343    16452.229   -2790.5498    87.534103 
   29700    1321.6817   -104.40743    1.1958853   -103.21155   -9000.0679    4.4438541    4.4438541    4.4438541   -9000.0679     44638.11   -64451.369   -7186.9456    4032.8258    22984.099    16332.262    87.756514 
   29800    1242.1597   -104.33767    1.1239322   -103.21374    8344.8826    4.4323864    4.4323864    4.4323864    8344.8826    83447.724   -57231.665   -1181.4105   -2244.4853   -11944.213    2562.4588    87.078882 
   29900      1078.74   -104.20154   0.97606664   -103.22547   -6137.9538    4.4367275    4.4367275    4.4367275   -6137.9538    72848.707   -61983.555   -29279.013    13420.897    15834.262    615.12981     87.33499 
   30000     1192.275     -104.302    1.0787955   -103.22321    17653.735    4.4398979    4.4398979    4.4398979    17653.735    78362.068   -25433.966    33.102635   -18158.789   -20032.478    6758.8882    87.522343 
   30100    1348.7973   -104.43236    1.2204201   -103.21194    869.39079    4.4342704    4.4342704    4.4342704    869.39079    9021.7512    -9422.923    3009.3442   -8846.0923    2786.8527    1747.3078    87.189969 
   30200    1667.2653   -104.71624    1.5085767   -103.20767   -7046.8365    4.4401011    4.4401011    4.4401011   -7046.8365    40285.679    -29025.75   -32400.438    -2087.155   -2011.2503    1185.2906    87.534364 
   30300    1214.8735   -104.29428     1.099243   -103.19503   -4240.3844    4.4449019    4.4449019    4.4449019   -4240.3844    20949.146   -31231.525   -2438.7741    -8380.893    16320.438   -5268.3793    87.818604 
   30400    1609.2025    -104.6352    1.4560402   -103.17916   -8490.4043    4.4349487    4.4349487    4.4349487   -8490.4043    -27120.91   -7874.6249    9524.3217    2765.6919    9936.7356    1628.0653    87.229986 
   30500    1657.1083   -104.68473    1.4993864   -103.18535   -17355.098    4.4444728    4.4444728    4.4444728   -17355.098    46903.387   -38974.803   -59993.879   -3714.2544   -15392.725   -1684.1523    87.793178 
   30600    1307.8579   -104.36955    1.1833773   -103.18618    5502.6772    4.4312811    4.4312811    4.4312811    5502.6772    94276.637    -44494.11   -33274.495    18419.491    791.60728    2011.3477    87.013754 
   30700    1558.9457   -104.60944    1.4105668   -103.19887    7589.1633    4.4358618    4.4358618    4.4358618    7589.1633    23660.238   -12526.939    11634.192    1119.1129   -11672.658   -5693.6677    87.283874 
   30800    1239.0517   -104.31877      1.12112   -103.19765   -20746.335      4.45619      4.45619      4.45619   -20746.335    41997.606   -53605.783   -50630.827   -5202.6913   -8432.6845    15609.291    88.489367 
   30900    1199.3433   -104.26168     1.085191   -103.17648     4864.713    4.4341183    4.4341183    4.4341183     4864.713    39164.576   -38039.863    13469.426    20813.422   -19607.127   -2001.4426    87.180998 
   31000    1554.7397   -104.59527    1.4067612   -103.18851    18829.016    4.4162502    4.4162502    4.4162502    18829.016    47526.489   -14177.832     23138.39    862.38805    2674.5355    8342.4314    86.131301 
   31100     1878.438   -104.92154    1.6996502   -103.22189   -28150.808    4.4425204    4.4425204    4.4425204   -28150.808   -21165.994   -43863.278   -19423.151    3017.7835     12024.48    518.33089    87.677529 
   31200    1141.1362   -104.22861     1.032524   -103.19608   -12537.674    4.4663829    4.4663829    4.4663829   -12537.674    24228.697   -71547.042    9705.3218   -285.31072   -5148.0898    22503.423    89.097977 
   31300    1809.2241   -104.78808     1.637024   -103.15105    -16756.08    4.4503969    4.4503969    4.4503969    -16756.08   -48083.699   -18203.958    16019.417    -658.0249    9086.9995   -682.99142    88.144708 
   31400    1786.4487   -104.77314    1.6164163   -103.15673    -1246.002    4.4329834    4.4329834    4.4329834    -1246.002    2067.2969   -4337.5255   -1467.7775    4359.1777    8302.2399    17539.028    87.114075 
   31500     1166.116   -104.24793    1.0551263    -103.1928    2783.4464    4.4478634    4.4478634    4.4478634    2783.4464    31022.227   -40153.263    17481.375   -6811.8538    25102.373    4005.1733    87.994255 
   31600    1116.6196   -104.21042    1.0103409   -103.20008    17619.438    4.4522498    4.4522498    4.4522498    17619.438    16738.945   -30217.776    66337.143    17410.948    4557.1817    24554.315     88.25485 
   31700    1700.3323    -104.7411    1.5384964    -103.2026   -9957.8618    4.4523629    4.4523629    4.4523629   -9957.8618   -15597.645   -13911.656   -364.28507    3045.2442   -4205.5584    2219.3682    88.261571 
   31800    1820.8676   -104.84282    1.6475593   -103.19526   -18093.769    4.4371095    4.4371095    4.4371095   -18093.769    16946.776   -57701.088   -13526.994   -11364.683    621.94395    23507.555    87.357547 
   31900    1283.9966   -104.38441    1.1617871   -103.22262   -3108.4403    4.4301097    4.4301097    4.4301097   -3108.4403    4097.7701   -36124.604    22701.513   -10503.887     15049.07   -423.53079    86.944766 
   32000    1116.8968   -104.24363    1.0105917   -103.23304    19020.826    4.4347811    4.4347811    4.4347811    19020.826    92913.016   -51923.491    16072.953    2058.0555    -12993.17    13676.109    87.220096 
   32100     1457.694   -104.56612    1.3189521   -103.24717   -11496.685    4.4459073    4.4459073    4.4459073   -11496.685    19789.951   -66528.897    12248.892   -12710.519    22069.219   -1677.6791    87.878214 
   32200    1290.8482   -104.40009    1.1679866    -103.2321    8670.4992    4.4399943    4.4399943    4.4399943    8670.4992   -21078.068   -16685.021    63774.586    11619.034   -1738.2345   -17862.986    87.528045 
   32300    1563.4266   -104.63149    1.4146212   -103.21687   -13134.549    4.4371224    4.4371224    4.4371224   -13134.549    25716.204   -45583.341   -19536.511    6592.5959   -9436.7428    12690.664    87.358309 
   32400    1516.1936   -104.58562    1.3718839   -103.21373   -17225.864    4.4472765    4.4472765    4.4472765   -17225.864   -4631.7928   -45180.916    -1864.882   -6377.7877    12326.787    -10009.87    87.959426 
   32500     981.9963   -104.10143   0.88853089    -103.2129   -2708.3824    4.4273493    4.4273493    4.4273493   -2708.3824   -26979.307    -15797.27     34651.43   -4573.5657   -14497.126    7228.1941    86.782344 
   32600    1462.7497   -104.53359    1.3235267   -103.21006    25586.006    4.4121973    4.4121973    4.4121973    25586.006    7228.2154    12149.661     57380.14   -999.76021    8656.3858   -1061.6865    85.894383 
   32700    1351.3118   -104.45062    1.2226953   -103.22793    164.43331    4.4429241    4.4429241    4.4429241    164.43331   -43929.927   -4956.3929     49379.62   -4567.9826   -12150.828    15596.002    87.701434 
   32800    1433.4176   -104.47393    1.2969864   -103.17694   -26396.313    4.4618817    4.4618817    4.4618817   -26396.313    -2531.982   -39751.537   -36905.421   -10478.802   -11929.457   -5385.1786    88.828876 
   32900    1442.5333   -104.45556    1.3052344   -103.15033    6613.0547    4.4407154    4.4407154    4.4407154    6613.0547   -31995.017    26224.048    25610.133    8589.5981    7237.0389    3560.6189    87.570702 
   33000    1365.0711   -104.39079     1.235145   -103.15565    16892.324    4.4194502    4.4194502    4.4194502    16892.324    77540.534   -35106.348    8242.7859    -2456.986   -2802.8306    5499.0507    86.318667 
   33100    1245.7725    -104.3226    1.1272012    -103.1954    16146.469    4.4261069    4.4261069    4.4261069    16146.469    29062.963    17800.756    1575.6886   -571.53911     4650.387    1383.8512    86.709304 
   33200    1092.7628    -104.1994   0.98875473   -103.21065    2709.9164    4.4460343    4.4460343    4.4460343    2709.9164   -20176.878   -778.46284     29085.09   -4310.9944     4894.068    19790.619    87.885746 
   33300    1420.7512   -104.46794    1.2855255   -103.18242   -9205.6823    4.4494269    4.4494269    4.4494269   -9205.6823   -10206.879   -12569.981   -4840.1875    -1576.467   -4440.5989    5009.7567    88.087084 
   33400    1272.5245   -104.32439    1.1514069   -103.17298   -13736.791    4.4315764    4.4315764    4.4315764   -13736.791   -23128.251     5094.924   -23177.047    16633.602     1097.048    24491.562    87.031151 
   33500     1594.156   -104.60167    1.4424259   -103.15925    23321.767    4.4098706    4.4098706    4.4098706    23321.767     21784.35    27611.962    20568.989   -13742.428    4240.9139    -730.4059    85.758571 
   33600     1215.203    -104.2951    1.0995412   -103.19556    641.73852    4.4244784    4.4244784    4.4244784    641.73852   -11.647662    8834.9316   -6898.0684     5798.445    5191.0136    4994.8294    86.613627 
   33700    1820.9416   -104.82957    1.6476262   -103.18194   -24914.218    4.4490558    4.4490558    4.4490558   -24914.218    -14110.68   -33840.874     -26791.1    661.78712    -9963.209    401.88187    88.065045 
   33800    1175.7661   -104.23456    1.0638579    -103.1707    18959.085    4.4369975    4.4369975    4.4369975    18959.085    19284.339    12879.215    24713.702    7482.9087    9444.4318   -6703.2819    87.350933 
   33900    1707.9196   -104.71177    1.5453615   -103.16641   -12409.773    4.4334689    4.4334689    4.4334689   -12409.773    15533.789   -64854.003    12090.895   -1087.7062   -65.496629    3670.8955      87.1427 
   34000    971.84395   -104.05708   0.87934483   -103.17774    48227.377    4.4243378    4.4243378    4.4243378    48227.377    28228.622    19837.252    96616.255   -3183.7109    7392.2468    -13622.48    86.605375 
   34100    1579.8399   -104.61772    1.4294723   -103.18825    -20522.11    4.4285758    4.4285758    4.4285758    -20522.11   -12671.953   -32464.355   -16430.022    7580.2912    930.50665    8856.5111    86.854487 
   34200    1286.1581   -104.35171    1.1637429   -103.18797   -9476.2687    4.4374769    4.4374769    4.4374769   -9476.2687   -3628.7737   -55470.742    30670.709    -4825.175      7083.35    1360.9281    87.379251 
   34300    1804.2947   -104.81345    1.6325637   -103.18088   -15466.344    4.4370265    4.4370265    4.4370265   -15466.344   -21982.515   -36162.791    11746.273    12091.691    2919.0312    1032.9523    87.352648 
   34400    934.14233   -104.02992   0.84523161   -103.18469   -6966.1145     4.445068     4.445068     4.445068   -6966.1145   -6563.6789   -74809.603    60474.938   -23109.327    19534.117    395.29362    87.828455 
   34500    1255.6599   -104.31297    1.1361475   -103.17682    9396.0019    4.4303409    4.4303409    4.4303409    9396.0019   -21972.941    9819.3119    40341.635   -2629.0145    16152.439    11608.739    86.958381 
   34600    1461.4957   -104.49377     1.322392   -103.17138    10010.245    4.4221318    4.4221318    4.4221318    10010.245    9970.2361   -11521.159    31581.658   -5144.0811   -4474.7098   -13536.125    86.475889 
   34700    1123.6501   -104.21525    1.0167023   -103.19855   -10178.237    4.4401488    4.4401488    4.4401488   -10178.237   -10825.244   -31269.278    11559.811     4569.275     4579.072     13263.01    87.537183 
   34800    1816.7299   -104.82722    1.6438154   -103.18341    -20607.79    4.4443187    4.4443187    4.4443187    -20607.79   -51896.812   -15633.107    5706.5484   -7316.0032   -2168.9835   -1256.0803    87.784046 
   34900    1242.7075   -104.30371    1.1244279   -103.17928   -1597.5671    4.4268789    4.4268789    4.4268789   -1597.5671   -1728.6266   -24782.518    21718.443    307.74154    1244.5577   -4580.0912    86.754681 
   35000    1034.9777   -104.12597    0.9364696    -103.1895    41832.773    4.4150535    4.4150535    4.4150535    41832.773    6694.4996    35021.724    83782.096   -21206.944    11100.774   -6982.7897    86.061302 
   35100    1778.3047    -104.8282    1.6090474   -103.21915   -13828.556    4.4429048    4.4429048    4.4429048   -13828.556   -37388.755    -1613.764   -2483.1486   -371.44229   -10632.862   -9456.2017     87.70029 
   35200    1448.7142   -104.49493    1.3108271   -103.18411   -44302.139    4.4569339    4.4569339    4.4569339   -44302.139    -62433.38   -65038.431   -5434.6049    -37.69865    13501.415   -9264.5013    88.533696 
   35300    1474.1661   -104.49049    1.3338564   -103.15663    20476.979    4.4281701    4.4281701    4.4281701    20476.979    27125.168    7080.0265    27225.742   -3114.1243   -10904.435    10487.827    86.830617 
   35400    1072.2996   -104.14704   0.97023919    -103.1768    16495.524    4.4335959    4.4335959    4.4335959    16495.524   -13102.826     19117.75    43471.649   -9732.6297    697.95763   -1458.3997    87.150189 
   35500     1701.139   -104.72158    1.5392263   -103.18235   -32960.025    4.4532022    4.4532022    4.4532022   -32960.025   -41306.579   -71695.956    14122.458   -9243.1718   -9041.3172   -3644.4982    88.311496 
   35600    1107.2425    -104.1746    1.0018563   -103.17274    45437.025    4.4323588    4.4323588    4.4323588    45437.025    62844.787     71985.82    1480.4679    1485.0025    14325.381    20457.838    87.077255 
   35700    1454.1198   -104.50175    1.3157182   -103.18604   -1399.2797     4.440313     4.440313     4.440313   -1399.2797   -10869.956    23402.049   -16729.931   -3992.7372   -186.00235   -1080.2703    87.546897 
   35800    1513.7344   -104.54708    1.3696587   -103.17742   -5850.6484    4.4500781    4.4500781    4.4500781   -5850.6484   -15581.513    15210.717   -17181.149    10669.217    5568.0455    5623.4079    88.125767 
   35900    1788.0483   -104.78556    1.6178636    -103.1677   -9045.6303    4.4325711    4.4325711    4.4325711   -9045.6303   -6928.8168   -7032.1651   -13175.909    -6983.011    11544.062   -7495.8374    87.089769 
   36000    1655.4786   -104.67976    1.4979118   -103.18185   -17110.088    4.4399868    4.4399868    4.4399868   -17110.088   -4763.9706   -5861.9683   -40704.325   -7937.7133   -1976.2326   -7686.3134    87.527605 
   36100    1243.3121   -104.30165    1.1249749   -103.17667    6163.6187    4.4398321    4.4398321    4.4398321    6163.6187   -20899.359   -6941.1354    46331.351   -16112.445    10579.851    16659.107    87.518456 
   36200    1426.9726   -104.47541    1.2911548   -103.18426   -10567.412    4.4474111    4.4474111    4.4474111   -10567.412   -4228.5312   -17665.041   -9808.6636   -1905.5261   -17373.993    -3996.674    87.967415 
   36300    1809.2419   -104.80779    1.6370401   -103.17075   -16420.619    4.4456438    4.4456438    4.4456438   -16420.619   -10438.724   -30518.038   -8305.0956    2273.7279     11566.51    647.28286    87.862588 
   36400    1115.3477   -104.17767      1.00919   -103.16848   -7599.2569    4.4423796    4.4423796    4.4423796   -7599.2569   -5919.8625   -13427.361   -3450.5473   -13268.646   -12313.567    -1399.254    87.669194 
   36500     1877.428   -104.86425    1.6987363   -103.16551    -8433.352    4.4405473    4.4405473    4.4405473    -8433.352   -878.62103   -36413.538    11992.103    1007.4878     12545.26   -3969.6939    87.560755 
   36600    1505.4045   -104.55999    1.3621217   -103.19787   -11903.558    4.4460489    4.4460489    4.4460489   -11903.558   -14146.497    1504.5695   -23068.747   -13652.616   -4239.3386    16879.808    87.886608 
   36700    797.42909   -103.91478    0.7215306   -103.19325    35882.207    4.4407566    4.4407566    4.4407566    35882.207    18639.827   -1904.2797    90911.075    1300.2772    7720.7363   -22297.569    87.573137 
   36800    1756.7127   -104.77533    1.5895106   -103.18582   -25983.577    4.4345771    4.4345771    4.4345771   -25983.577   -26547.025   -42386.055   -9017.6515   -12414.087   -4857.4638    10931.082    87.208061 
   36900       1614.5   -104.66413    1.4608335    -103.2033   -11636.211    4.4266101    4.4266101    4.4266101   -11636.211    -5660.748   -28531.505   -716.38101   -1312.8498   -13449.644    2358.0256    86.738883 
   37000    1453.3968   -104.54315    1.3150639   -103.22809   -4504.8226    4.4298205    4.4298205    4.4298205   -4504.8226    21850.477    -9780.385   -25584.559   -8508.3566    13397.891   -3924.7226    86.927742 
   37100    933.16514     -104.061   0.84434743   -103.21666     15618.34    4.4386457    4.4386457    4.4386457     15618.34     -17304.9   -21388.244    85548.163   -8678.7753   -15113.017    5883.9441    87.448312 
   37200    1807.4645   -104.82536    1.6354319   -103.18993     -7822.77    4.4359002    4.4359002    4.4359002     -7822.77   -15772.108   -33031.092     25334.89   -8972.5636    5021.7521    8486.8486    87.286145 
   37300    1844.1685   -104.85524    1.6686424   -103.18659   -16930.195    4.4229796    4.4229796    4.4229796   -16930.195   -1083.5693   -40022.267   -9684.7469   -9156.1022    352.90424   -11056.264     86.52564 
   37400    1565.2377    -104.6434    1.4162599   -103.22714   -9150.5512     4.438112     4.438112     4.438112   -9150.5512    -10085.42   -16317.452    -1048.782   -5840.9423   -8171.4033    135.47413    87.416775 
   37500    1099.7667    -104.2142   0.99509201    -103.2191    6897.9733    4.4463315    4.4463315    4.4463315    6897.9733   -18178.192   -41586.577    80458.689   -5991.6603    3931.5293   -5489.4551    87.903365 
   37600    1330.6778   -104.39826    1.2040252   -103.19423    7813.0609    4.4361657    4.4361657    4.4361657    7813.0609    -44800.73    -24753.18    92993.093    8269.1036   -21870.306   -6118.5842    87.301818 
   37700    1454.7301   -104.51241    1.3162704   -103.19613   -663.43118    4.4288825    4.4288825    4.4288825   -663.43118   -3283.2481   -25328.084    26621.039   -4952.3738    11523.372   -5249.2603    86.872528 
   37800    1869.5947   -104.89767    1.6916486   -103.20602   -26046.821    4.4305523    4.4305523    4.4305523   -26046.821   -44447.509    -40630.17    6937.2153    1828.8253    4850.3842   -7334.8989    86.970828 
   37900     1556.361   -104.63632    1.4082281   -103.22809   -7799.5837    4.4357128    4.4357128    4.4357128   -7799.5837    5781.6636   -32756.881    3576.4666    1450.6243   -9988.0365    -2475.977    87.275078 
   38000    1474.9269    -104.5635    1.3345448   -103.22895   -157.61655    4.4289249    4.4289249    4.4289249   -157.61655   -27995.374   -20943.464    48465.987    2566.4481   -5008.6666    8356.2381    86.875029 
   38100    1391.7235   -104.49186    1.2592607    -103.2326   -512.98418    4.4231862    4.4231862    4.4231862   -512.98418   -30279.434   -33041.667    61782.149    2090.1326   -18011.714   -9632.3188    86.537764 
   38200      1644.07   -104.72223    1.4875891   -103.23465    -5706.628    4.4290447    4.4290447    4.4290447    -5706.628   -1215.5632   -25939.189    10034.869   -2706.4209    19783.918   -13348.828    86.882078 
   38300    707.23452   -103.87844   0.63992066   -103.23852    14423.793    4.4366296    4.4366296    4.4366296    14423.793   -33649.745   -40350.326    117271.45    4630.2547   -2164.4639    15288.381    87.329208 
   38400    1438.9284   -104.53912    1.3019727   -103.23715   -12308.398    4.4374475    4.4374475    4.4374475   -12308.398   -24792.395   -47168.168     35035.37    9954.9376    9496.3284   -10058.437    87.377516 
   38500    1322.1909   -104.41492    1.1963461   -103.21858   -11899.355    4.4315277    4.4315277    4.4315277   -11899.355   -40667.139   -26254.015    31223.091   -14360.479   -7852.3827   -818.58189     87.02828 
   38600    1387.7135   -104.46018    1.2556323   -103.20454   -5787.2477    4.4238633    4.4238633    4.4238633   -5787.2477   -41819.358   -16485.127    40942.742    8637.5755   -16747.121   -7931.2924     86.57751 
   38700    1567.7085    -104.6256    1.4184956   -103.20711   -2874.6621    4.4338031    4.4338031    4.4338031   -2874.6621   -1398.9765   -38864.092    31639.082    6459.0583    14121.206   -2780.9794    87.162408 
   38800    932.01967   -104.05902   0.84331098   -103.21571   -24092.147    4.4351951    4.4351951    4.4351951   -24092.147   -61623.268   -58118.453    47465.281    7664.0411   -14543.716    22026.828    87.244527 
   38900     1493.116   -104.55733    1.3510027   -103.20632    24175.982    4.4124049    4.4124049    4.4124049    24175.982    9814.1483    12510.383    50203.415    9551.6199   -4935.6745   -6702.3562    85.906512 
   39000    1536.1773   -104.61632    1.3899655   -103.22635   -26903.569    4.4270393    4.4270393    4.4270393   -26903.569   -28773.212   -47917.561   -4019.9351     8771.714   -7180.8398    8451.3906    86.764112 
   39100    1190.6174   -104.28833    1.0772957   -103.21104    12687.556     4.429857     4.429857     4.429857    12687.556   -27721.478   -20453.125     86237.27    6622.5721   -17976.249    -134.8756    86.929887 
   39200    1024.4938   -104.14444   0.92698353   -103.21745    13299.528    4.4390811    4.4390811    4.4390811    13299.528    8699.4982   -32269.833    63468.918    11070.521    7663.8329    2412.2854    87.474051 
   39300    1845.0819   -104.87074    1.6694688   -103.20127   -36439.631    4.4305407    4.4305407    4.4305407   -36439.631    -54049.84   -45841.984   -9427.0686    16401.577   -20966.862    6081.4705    86.970145 
   39400    1628.4094   -104.67797     1.473419   -103.20455    4755.1617    4.4274241    4.4274241    4.4274241    4755.1617    30827.004   -19001.458    2439.9384   -8466.9389    8267.0954   -4154.8989    86.786738 
   39500    1483.5696   -104.56519     1.342365   -103.22282   -15235.988    4.4357788    4.4357788    4.4357788   -15235.988    -30529.03   -51400.625    36221.692    7545.4088    13628.542    -14272.81    87.278975 
   39600    1032.2516   -104.14911   0.93400294   -103.21511    31582.087    4.4277855    4.4277855    4.4277855    31582.087    24796.466   -20512.073    90461.867   -9394.8075   -3637.3467    758.69175    86.807995 
   39700    1558.1838   -104.62072    1.4098775   -103.21085    -9330.223    4.4314752    4.4314752    4.4314752    -9330.223   -26061.107   -5448.5132    3518.9515   -2195.0965     17012.91   -6856.2836    87.025188 
   39800    1624.6899   -104.67917    1.4700536   -103.20912   -12518.956    4.4228045    4.4228045    4.4228045   -12518.956   -28584.454   -42533.371    33560.957   -7383.4849   -1638.3899   -6060.1151    86.515362 
   39900    1421.5944   -104.49125    1.2862885   -103.20496   -4487.4919    4.4300269    4.4300269    4.4300269   -4487.4919   -8831.0905   -37886.372    33254.987    3152.3343   -2484.4153   -3809.6441    86.939893 
   40000    1269.0083   -104.34988    1.1482254   -103.20165   -11409.553    4.4399273    4.4399273    4.4399273   -11409.553   -43417.959   -14963.461    24152.759    -1600.492   -1542.7187    22182.797    87.524087 
   40100    1226.6113   -104.30819    1.1098637   -103.19833    13040.026    4.4358981    4.4358981    4.4358981    13040.026   -14149.464   -14352.907    67622.449    703.84742    4260.1769   -11217.031     87.28602 
   40200    1387.5454   -104.45189    1.2554802   -103.19641   -1546.9117    4.4252593    4.4252593    4.4252593   -1546.9117    -16630.63   -8408.6951    20398.591    1471.0158    11949.534    20999.378      86.6595 
   40300    1515.4815   -104.56769    1.3712395   -103.19645    6435.5078    4.4150707    4.4150707    4.4150707    6435.5078   -8603.3174   -19723.954    47633.795    2191.8054   -16072.461   -11226.197     86.06231 
   40400    1233.7089   -104.32683    1.1162858   -103.21054    3497.1812    4.4328981    4.4328981    4.4328981    3497.1812    4230.2138   -41544.313    47805.642   -7642.9699   -983.51817    2466.9067    87.109045 
   40500    1152.9891   -104.24098    1.0432487   -103.19774    -12677.42    4.4311662    4.4311662    4.4311662    -12677.42   -15931.275   -35391.221    13290.235   -9534.5804    951.30866    6520.3245    87.006982 
   40600    1783.1216   -104.79344    1.6134059   -103.18004   -9746.3043    4.4177889    4.4177889    4.4177889   -9746.3043    11547.686   -50613.942    9827.3426   -2305.8029   -9590.0034   -9064.6069     86.22136 
   40700    1324.2527   -104.39606    1.1982117   -103.19785    9380.7822    4.4203715    4.4203715    4.4203715    9380.7822    10934.595    -16392.66    33600.412   -8467.1651    3453.4588    1849.1138    86.372666 
   40800    1543.0299   -104.59867    1.3961659   -103.20251   -24804.208    4.4267864    4.4267864    4.4267864   -24804.208   -9990.3989   -49868.977   -14553.247   -1697.1357   -6334.2248   -15862.534    86.749243 
   40900    1213.8673    -104.2919    1.0983327   -103.19356    5392.9496    4.4316921    4.4316921    4.4316921    5392.9496    22987.362   -59518.692    52710.178   -13798.867    6548.3167   -7713.3378    87.037966 
   41000    1542.9492   -104.57843    1.3960928   -103.18234   -15706.306    4.4344327    4.4344327    4.4344327   -15706.306   -28810.206    6039.4685    -24348.18    14474.874   -4596.9695   -1951.9858    87.199543 
   41100    1407.5857   -104.44412    1.2736131   -103.17051   -15002.553    4.4372926    4.4372926    4.4372926   -15002.553   -16261.679    -62939.42     34193.44   -10751.461    2451.8106    74.275681    87.368363 
   41200    1369.3027   -104.40457    1.2389739   -103.16559    7829.7428     4.425768     4.425768     4.425768    7829.7428   -22716.695    16235.978    29969.946    14344.645   -568.65246   -15016.198    86.689389 
   41300    1573.8713   -104.60461    1.4240719   -103.18054   -14670.548    4.4317585    4.4317585    4.4317585   -14670.548   -40055.521   -11061.875    7105.7534   -2609.9855    2664.3443    9866.7937    87.041882 
   41400    1236.2204    -104.3129    1.1185582   -103.19434    10668.693    4.4274595    4.4274595    4.4274595    10668.693   -24281.737    26804.588    29483.229    8039.6486    11832.668    7564.7131    86.788822 
   41500    1462.6586   -104.54634    1.3234442    -103.2229   -23899.255    4.4362534    4.4362534    4.4362534   -23899.255   -36608.811   -52173.837    17084.885     1157.932   -11973.653   -20621.452    87.306993 
   41600    1603.4346   -104.65511    1.4508213   -103.20429   -3500.4592     4.432983     4.432983     4.432983   -3500.4592   -33912.115    20317.952    3092.7852    20338.817    -769.8509   -12922.823    87.114051 
   41700    1257.9454   -104.33286    1.1382154   -103.19464    3583.8086    4.4267207    4.4267207    4.4267207    3583.8086    8002.3166   -28526.145    31275.254    2365.9419    5466.4824    4572.6277    86.745383 
   41800    1099.3858   -104.20155   0.99474734    -103.2068     10977.97    4.4373237    4.4373237    4.4373237     10977.97   -31890.699   -837.44044    65662.051    12712.551   -224.72626   -545.19455    87.370201 
   41900    1761.4413   -104.78613    1.5937891   -103.19234   -19245.229    4.4345098    4.4345098    4.4345098   -19245.229   -15379.386   -53398.302    11042.002    9161.4843    16381.826    5985.5874    87.204092 
   42000    892.60243   -104.00221   0.80764544   -103.19456    844.59958    4.4311411    4.4311411    4.4311411    844.59958   -14757.771   -35020.541    52312.111    4929.5394    7709.6158   -3192.4421    87.005506 
   42100    1799.8054   -104.81939    1.6285017   -103.19089   -5381.0245    4.4325639    4.4325639    4.4325639   -5381.0245    17567.781   -30110.576   -3600.2785    18604.958    4440.4311     642.1925    87.089345 
   42200    1439.2909   -104.49014    1.3023007   -103.18784   -16245.491    4.4351841    4.4351841    4.4351841   -16245.491   -10997.901   -31500.794    -6237.776    1925.1742    -13029.89   -7391.3341    87.243877 
   42300    1190.0822   -104.25583    1.0768114   -103.17901   -13702.587    4.4393206    4.4393206    4.4393206   -13702.587    9800.1233   -64204.571    13296.688    22037.871   -8232.4034       9143.6    87.488208 
   42400    1786.8121   -104.78272    1.6167452   -103.16597    13962.009    4.4260468    4.4260468    4.4260468    13962.009   -4109.1844    20514.987    25480.224    5542.1974   -9740.3789    717.46441    86.705769 
   42500    908.50354   -104.01731    0.8220331   -103.19528    7823.4798    4.4278101    4.4278101    4.4278101    7823.4798    33727.429   -49281.174    39024.185    19316.087    4583.6261   -8057.6985     86.80944 
   42600    1867.5541    -104.8755    1.6898022   -103.18569   -12756.094    4.4411807    4.4411807    4.4411807   -12756.094   -20480.052   -15900.622   -1887.6077    423.82409    -5269.976    14184.969    87.598228 
   42700    1345.8434   -104.40124    1.2177474   -103.18349     5532.928    4.4244464    4.4244464    4.4244464     5532.928    22911.654   -13310.437    6997.5665    2780.8399   -7966.5631    683.29819    86.611748 
   42800    1159.6825   -104.24372    1.0493051   -103.19442    13885.439    4.4268601    4.4268601    4.4268601    13885.439    17395.372    3452.7683    20808.177   -3345.1208    10766.676    8848.9814    86.753575 
   42900    1473.9301   -104.52402    1.3336429   -103.19038   -15644.493    4.4461333    4.4461333    4.4461333   -15644.493   -28632.873   -11055.689   -7244.9167    18627.799   -6768.9957    11561.983    87.891614 
   43000    1081.6476   -104.15323   0.97869751   -103.17453    49.126694    4.4379471    4.4379471    4.4379471    49.126694    8108.1115   -35579.741     27619.01   -11789.856    626.75131    4348.5197    87.407031 
   43100     1373.017   -104.40944    1.2423346    -103.1671    20454.809    4.4193287    4.4193287    4.4193287    20454.809    17040.554    21120.319    23203.553    9726.5899    5535.8118    474.94592    86.311549 
   43200    1690.5392   -104.71984    1.5296354    -103.1902   -11810.054    4.4265042    4.4265042    4.4265042   -11810.054   -36728.391   -47069.684    48367.912   -8861.0936    -4499.405    11020.468    86.732658 
   43300    1052.3011   -104.16026   0.95214411   -103.20812    4559.4883    4.4342517    4.4342517    4.4342517    4559.4883    14391.009    6110.3208   -6822.8648   -3917.1932   -2942.3375   -4489.7343    87.188865 
   43400    1691.0382   -104.72525    1.5300869   -103.19516   -965.45339    4.4334436    4.4334436    4.4334436   -965.45339   -1044.4774   -18435.805    16583.923    -3941.212    5874.6581    1959.8007    87.141205 
   43500    1519.7087   -104.56174    1.3750644   -103.18667   -31637.131    4.4416816    4.4416816    4.4416816   -31637.131   -18908.984   -33804.452   -42197.956   -12048.114   -13079.732    7684.8562     87.62787 
   43600    1348.0804   -104.38755    1.2197715   -103.16778    17455.959    4.4270361    4.4270361    4.4270361    17455.959    23215.539   -8680.4992    37832.838    7678.8769    6357.3372   -6616.6431    86.763925 
   43700    1519.1665   -104.54861    1.3745737   -103.17403    15437.472    4.4240684    4.4240684    4.4240684    15437.472     36858.79   -12178.457    21632.083    -16783.74    9642.4218    5234.2604    86.589551 
   43800    1054.0902   -104.13581   0.95376298   -103.18205    15146.225    4.4339051    4.4339051    4.4339051    15146.225    91453.685    -43048.26   -2966.7501    2080.1133    9516.7203    4801.8538    87.168421 
   43900    1521.2682   -104.54878    1.3764754    -103.1723   -1923.1883    4.4374254    4.4374254    4.4374254   -1923.1883    9922.0815   -23713.513    8021.8668   -17486.445   -716.10443    8927.0099    87.376208 
   44000    1452.8459    -104.4856    1.3145655   -103.17103   -4989.2107    4.4309837    4.4309837    4.4309837   -4989.2107    24782.334   -6513.4843   -33236.482    5464.5917   -12334.214   -14462.318    86.996237 
   44100    1486.0904    -104.5179    1.3446459   -103.17325   -3903.5769    4.4266839    4.4266839    4.4266839   -3903.5769    32995.668   -51386.539    6680.1405   -5440.1916    2521.8042    10564.672    86.743221 
   44200    1155.2568   -104.22845    1.0453006   -103.18315    8455.4386    4.4336866    4.4336866    4.4336866    8455.4386     45414.06    13403.741   -33451.485    1126.1934     4317.006   -3684.4516    87.155534 
   44300    1919.0136   -104.91951    1.7363638   -103.18315   -32000.288    4.4384559    4.4384559    4.4384559   -32000.288    293.69806    -39319.83   -56974.733    10928.127   -2802.6694    3841.4181    87.437097 
   44400    1369.0955   -104.42082    1.2387863   -103.18204   -2557.1572    4.4444501    4.4444501    4.4444501   -2557.1572    27173.968   -24491.923   -10353.517   -714.54925    16296.582   -4388.2799    87.791829 
   44500    1429.2437    -104.4705    1.2932098   -103.17729   -8467.9886    4.4402841    4.4402841    4.4402841   -8467.9886    8874.6008    -7417.296   -26861.271    10129.104    3692.9691    3971.6123    87.545189 
   44600    1029.9982   -104.11571   0.93196399   -103.18375    28375.908    4.4254108    4.4254108    4.4254108    28375.908    66562.691   -49627.592    68192.624   -7521.0097   -20043.407    3065.0137    86.668399 
   44700    1557.5225    -104.6166    1.4092791   -103.20732    21838.837     4.417216     4.417216     4.417216    21838.837    49667.689    6013.7971    9835.0234    6965.3644    8835.4196    262.78088    86.187822 
   44800    1139.9887   -104.26737    1.0314857   -103.23588    22512.527    4.4390549    4.4390549    4.4390549    22512.527    29348.436   -32949.244    71138.388   -16135.706   -18292.414    1572.5946    87.472503 
   44900    1829.1398   -104.84098    1.6550441   -103.18594   -36132.462    4.4581442    4.4581442    4.4581442   -36132.462   -14156.545   -77226.943   -17013.897    7413.1976    13342.006   -3126.5175    88.605839 
   45000    1277.5931   -104.31205    1.1559931   -103.15606    22683.917    4.4302474    4.4302474    4.4302474    22683.917    22413.961   -1892.9512     47530.74   -8954.6136   -11668.486    172.93772    86.952871 
   45100    1221.2734   -104.28128    1.1050338   -103.17625    6555.0349    4.4211601    4.4211601    4.4211601    6555.0349    31916.661   -21542.738    9291.1819     8752.682    4632.5454   -10906.322    86.418899 
   45200    1747.9321   -104.77594    1.5815657   -103.19437   -16115.008    4.4291935    4.4291935    4.4291935   -16115.008    26258.035   -55526.718   -19076.342     7211.918   -20614.893   -47.670227    86.890835 
   45300    884.41291   -104.01274   0.80023539   -103.21251     27001.54    4.4453191    4.4453191    4.4453191     27001.54    16157.865   -14222.065     79068.82   -3370.5631   -11331.543    7073.7263    87.843339 
   45400    1235.3271   -104.29405    1.1177499    -103.1763    3891.4103    4.4484495    4.4484495    4.4484495    3891.4103    15966.956    -54335.64    50042.916    9751.6095   -17031.589    4965.3956    88.029048 
   45500    1468.6872   -104.48631    1.3288991   -103.15742   -13508.035    4.4355361    4.4355361    4.4355361   -13508.035    7548.1251   -59165.144    11092.913   -2135.0735    -7928.992    9163.9878    87.264654 
   45600    1747.0346   -104.74579    1.5807536   -103.16503    1057.3424    4.4293101    4.4293101    4.4293101    1057.3424    47461.276   -21549.982   -22739.266   -3962.2065    -1928.405    4036.3421    86.897697 
   45700    1420.5544   -104.46823    1.2853475   -103.18288       1749.7    4.4378916    4.4378916    4.4378916       1749.7    40837.495   -68557.177    32968.782    3088.9762     4271.651    1714.2666    87.403749 
   45800    1455.6036   -104.50948    1.3170607   -103.19242   -7234.8681    4.4431776    4.4431776    4.4431776   -7234.8681     46008.27   -52293.039   -15419.836       2392.3   -7826.3292    2065.7505    87.716447 
   45900      1090.75   -104.18208   0.98693352   -103.19515    16813.519    4.4460183    4.4460183    4.4460183    16813.519    20430.661   -54474.699    84484.595    -4613.811   -10900.588    2930.5033    87.884796 
   46000    1260.3068   -104.33449    1.1403521   -103.19414   -2611.4546    4.4279821    4.4279821    4.4279821   -2611.4546   -6923.6741   -56567.875    55657.186    7613.0961    5000.9424   -3097.9528    86.819559 
   46100    1968.2725   -104.97726    1.7809343   -103.19633   -18109.724    4.4316531    4.4316531    4.4316531   -18109.724    8899.4343   -45913.633   -17314.972   -4296.6671    3288.5077    -13157.72    87.035669 
   46200    1320.1271   -104.38435    1.1944788   -103.18987   -20053.184    4.4545766    4.4545766    4.4545766   -20053.184    25783.535   -60794.533   -25148.552    9700.1485    4412.3715   -11392.157    88.393287 
   46300    1316.0697   -104.36457    1.1908076   -103.17376   -1630.1179    4.4554237    4.4554237    4.4554237   -1630.1179   -27695.133   -35330.242    58135.021    1448.2463    29812.079    -19733.53    88.443727 
   46400    902.78757   -103.97388   0.81686117   -103.15702      40956.5    4.4419278    4.4419278    4.4419278      40956.5    1984.5179   -34848.386    155733.37    5375.9687    18686.138   -21230.607    87.642444 
   46500    1261.1064   -104.31826    1.1410755   -103.17718   -8011.1858    4.4506817    4.4506817    4.4506817   -8011.1858   -841.75927   -29106.988    5915.1902    3368.1499   -450.11372   -18672.226     88.16163 
   46600    2079.2054   -105.05445    1.8813087   -103.17314   -31059.319    4.4552112    4.4552112    4.4552112   -31059.319   -34363.658   -57462.919   -1351.3815    6051.7181    1226.7772    9633.3176     88.43107 
   46700    919.77024   -104.00291   0.83222744   -103.17069    8100.5875    4.4516437    4.4516437    4.4516437    8100.5875    3529.3827   -53139.237    73911.617   -9453.3395   -12257.823   -4390.8462     88.21881 
   46800    1396.8092    -104.4294    1.2638623   -103.16554    5940.5545    4.4421979    4.4421979    4.4421979    5940.5545   -31524.412    20873.584    28472.492    1680.3884    14267.584    11000.432    87.658433 
   46900    1323.7538   -104.37105    1.1977603   -103.17329    6647.8078    4.4398469    4.4398469    4.4398469    6647.8078    50806.232   -33690.902    2828.0937   -5172.6677    8402.6986     14483.71    87.519329 
   47000    1914.0886   -104.91607    1.7319076   -103.18416   -38894.073    4.4592678    4.4592678    4.4592678   -38894.073   -42310.121   -42163.941   -32208.158   -4184.1701    5444.3923    13161.231    88.672851 
   47100    1633.0162   -104.64602    1.4775874   -103.16843   -20322.596    4.4554767    4.4554767    4.4554767   -20322.596   -44598.331    -38137.43    21767.972   -4758.7893   -4147.9356    2373.2836    88.446883 
   47200    1689.1294   -104.67718    1.5283598   -103.14882    4474.2706    4.4254038    4.4254038    4.4254038    4474.2706    2292.6495   -5312.6158    16442.778   -5386.4138    12156.584    2783.5953    86.667986 
   47300    808.93799   -103.92108   0.73194409   -103.18913    46594.114    4.4479377    4.4479377    4.4479377    46594.114    3016.3051    27304.709    109461.33    2318.8574   -25262.415    9378.7264    87.998665 
   47400    1381.6892    -104.4124    1.2501814   -103.16222   -43368.032    4.4719707    4.4719707    4.4719707   -43368.032   -57478.977   -39835.867   -32789.254    162.39482   -930.93438   -11053.404    89.432803 
   47500    1842.6746   -104.81146    1.6672907   -103.14417   -18219.748    4.4349742    4.4349742    4.4349742   -18219.748   -33714.875   -54696.601    33752.231   -721.01895    10312.588    4990.0995     87.23149 
   47600     1346.588   -104.39747    1.2184211   -103.17905    32726.116    4.4205795    4.4205795    4.4205795    32726.116   -18127.379    40378.898    75926.827    9860.2913    -9789.324   -6590.9359    86.384854 
   47700    1200.1523   -104.30173     1.085923    -103.2158   -24100.795    4.4579935    4.4579935    4.4579935   -24100.795   -53785.879   -49387.889    30871.383   -3365.1286    4451.4178    11893.741    88.596854 
   47800    1210.1044   -104.27265    1.0949279   -103.17772    15160.258     4.455878     4.455878     4.455878    15160.258    11159.964   -8909.6408    43230.452    6647.0229   -8956.9994   -16828.118    88.470782 
   47900    1437.4873   -104.46224    1.3006687   -103.16158   -13484.706    4.4441081    4.4441081    4.4441081   -13484.706   -27738.089    1821.6695   -14537.697   -1405.1544   -654.40267    12848.376    87.771565 
   48000    1684.0017    -104.6766    1.5237201   -103.15288   -2039.9788    4.4390433    4.4390433    4.4390433   -2039.9788    -2016.209    -2863.346   -1240.3813   -8311.1466   -6103.9685    644.95623    87.471819 
   48100    1777.8721   -104.77382     1.608656   -103.16517   -22042.629    4.4446085    4.4446085    4.4446085   -22042.629   -965.88754   -23101.236   -42060.763     9609.422    -11556.93    -10814.52     87.80122 
   48200    1439.9756   -104.47587    1.3029202   -103.17295   -15358.293     4.462555     4.462555     4.462555   -15358.293   -33735.112   -18103.953    5764.1855    3542.8933   -6811.4877    2518.1726    88.869094 
   48300    1856.1716   -104.83172    1.6795031   -103.15221   -24921.734     4.456645     4.456645     4.456645   -24921.734   -11000.589   -33094.013   -30670.599    6328.6156   -19603.538    2926.6987    88.516475 
   48400    1593.8532   -104.58706    1.4421518   -103.14491   -11307.308    4.4500243    4.4500243    4.4500243   -11307.308   -14934.756   -48425.361    29438.193   -4009.6344    756.69712    11176.544    88.122569 
   48500    1227.0175   -104.25397    1.1102312   -103.14374    24895.421    4.4491613    4.4491613    4.4491613    24895.421    13038.645    10968.662    50678.955    14164.868    6064.2659   -852.68351     88.07131 
   48600    1341.2681   -104.36908    1.2136075   -103.15547   -550.97895    4.4565568    4.4565568    4.4565568   -550.97895    52509.465   -44756.055   -9406.3473    697.20311   -4253.7234   -126.12546    88.511219 
   48700    1483.5547    -104.4872    1.3423515   -103.14484   -9461.7093    4.4616783    4.4616783    4.4616783   -9461.7093   -29774.462    11019.311   -9629.9769     673.8974    6439.0588   -264.45464    88.816729 
   48800    1368.8115   -104.39684    1.2385294   -103.15831    1372.4716    4.4381143    4.4381143    4.4381143    1372.4716    48360.905   -28145.682   -16097.809   -9613.6715    1328.9753    -7238.066     87.41691 
   48900     1775.405   -104.78732    1.6064238    -103.1809    7032.2083    4.4392469    4.4392469    4.4392469    7032.2083     26627.55    18447.047   -23977.972   -16324.131   -7785.2815    8432.1293    87.483853 
   49000    1275.0284   -104.33502    1.1536725   -103.18135   -7225.0556    4.4559929    4.4559929    4.4559929   -7225.0556   -38129.005    38655.119   -22201.281    9960.8243   -4504.7682    1456.9689    88.477626 
   49100    1352.2756   -104.38441    1.2235674   -103.16084    6011.2297    4.4532026    4.4532026    4.4532026    6011.2297     36017.72    -26323.15    8339.1193   -22938.612    9041.6385   -10024.242    88.311518 
   49200    1684.6252   -104.68634    1.5242843   -103.16206   -5676.3223    4.4416224    4.4416224    4.4416224   -5676.3223    24158.412    12689.914   -53877.294   -15991.972   -4578.3638    4368.2873    87.624367 
   49300    1118.2087   -104.20187    1.0117787   -103.19009    14263.913    4.4271216    4.4271216    4.4271216    14263.913    7575.6318    1138.2105    34077.896   -10602.973   -6418.4197   -4312.8911    86.768954 
   49400    1142.7484   -104.23969    1.0339828   -103.20571    23458.934    4.4435088    4.4435088    4.4435088    23458.934    97940.757    3461.6885   -31025.645    10421.556   -13560.347   -6733.6733    87.736061 
   49500    1542.9647   -104.58947    1.3961069   -103.19336   -35467.003    4.4512316    4.4512316    4.4512316   -35467.003   -23519.786   -12660.741   -70220.483   -6732.0035    -4940.066    15325.763    88.194314 
   49600    1565.1112   -104.58587    1.4161455   -103.16972   -2979.9035    4.4469619    4.4469619    4.4469619   -2979.9035    48613.682   -15775.348   -41778.044   -1968.3926   -3477.2911   -7546.2314    87.940763 
   49700    1462.5424   -104.48649    1.3233391   -103.16315   -10847.933    4.4389386    4.4389386    4.4389386   -10847.933    30049.965    -23536.57   -39057.193    11440.146   -5041.3402      3284.05    87.465627 
   49800    1106.8963   -104.17581     1.001543   -103.17426    39297.955    4.4262874    4.4262874    4.4262874    39297.955    124856.56    -20681.86    13719.161   -3824.9688    5157.1881    10003.306    86.719913 
   49900    1661.9098   -104.70914    1.5037309   -103.20541   -17801.516    4.4444866    4.4444866    4.4444866   -17801.516    28148.014   -36363.354   -45189.208    3605.7009   -1625.4469    19231.752    87.793991 
   50000    1590.7464   -104.63567    1.4393408   -103.19633   -14366.292    4.4521294    4.4521294    4.4521294   -14366.292    58536.326   -37615.867   -64019.336   -5319.0838   -2418.6971   -4752.2589    88.247688 
   50100    1120.3691    -104.2042    1.0137335   -103.19047    6275.8079    4.4293833    4.4293833    4.4293833    6275.8079    98840.507   -52869.413    -27143.67    2533.4291   -3585.7656    8515.7475    86.902003 
   50200    1776.3106   -104.80789    1.6072431   -103.20064    5134.8883    4.4208311    4.4208311    4.4208311    5134.8883    39698.052   -15600.115   -8693.2719   -10872.379     1762.728    13323.216    86.399605 
   50300    1206.3785   -104.33459    1.0915566   -103.24303   -7185.7057    4.4375458    4.4375458    4.4375458   -7185.7057    85688.623   -63503.084   -43742.656    -667.2158    3582.6527    20964.532    87.383319 
   50400    1260.4935   -104.36353     1.140521   -103.22301     1730.597    4.4481354    4.4481354    4.4481354     1730.597    87939.181   -44853.536   -37893.854    4056.2342    14924.961    2476.0086    88.010403 
   50500    1732.8498   -104.76392     1.567919     -103.196    -13975.41    4.4486725    4.4486725    4.4486725    -13975.41    67993.836   -56269.392   -53650.673    2920.0209    10712.867     170.2649    88.042288 
   50600    1335.7263   -104.39991    1.2085932   -103.19132   -2067.0473    4.4236293    4.4236293    4.4236293   -2067.0473    66908.224   -65198.077   -7911.2886    3029.2473   -9792.1954   -5482.1586    86.563776 
   50700    1317.0154   -104.40379    1.1916632   -103.21213    44118.608    4.4174325    4.4174325    4.4174325    44118.608    140709.95   -15989.596    7635.4708   -551.91883   -3735.7986    12598.957    86.200495 
   50800    1164.4809   -104.28308    1.0536468   -103.22944   -24513.793    4.4503998    4.4503998    4.4503998   -24513.793    43155.378    -54593.02   -62103.737    8476.3923    43.898502    21845.001    88.144877 
   50900    1299.0384   -104.37208    1.1753972   -103.19668   -22707.449    4.4379214    4.4379214    4.4379214   -22707.449     34626.14   -36430.506    -66317.98    12573.775    8200.0877    16645.325    87.405512 
   51000    1573.3565   -104.60672    1.4236061   -103.18312    19580.801    4.4198331    4.4198331    4.4198331    19580.801    119254.56   -12113.188   -48398.965   -4096.0352   -5290.1474    1201.4673    86.341105 
   51100    1233.6729   -104.31995    1.1162531    -103.2037   -26949.737    4.4375791    4.4375791    4.4375791   -26949.737   -22820.782   -7942.8163   -50085.612    21380.468   -2372.2146    5229.2364    87.385286 
   51200    1151.5291   -104.23078    1.0419277   -103.18885    30089.009    4.4411636    4.4411636    4.4411636    30089.009    107624.22    8518.4342    -25875.63   -6010.4247    10561.609    11155.326    87.597219 
   51300    1527.7957   -104.56946    1.3823816   -103.18708   -5829.2869     4.447062     4.447062     4.447062   -5829.2869    23225.626   -27526.724   -13186.762    20719.705    -12590.63    8210.4541    87.946698 
   51400    1386.4728   -104.44361    1.2545098    -103.1891    -11277.78    4.4412843    4.4412843    4.4412843    -11277.78    64836.643   -50046.153   -48623.829    9614.6845     10596.88    4534.0912    87.604361 
   51500    1350.6202   -104.39856    1.2220695   -103.17649    30365.964    4.4304065    4.4304065    4.4304065    30365.964    90679.721     45919.71    -45501.54    7417.6343    10103.296    12511.615    86.962242 
   51600    1691.3734   -104.72063    1.5303902   -103.19024   -27666.051    4.4453326    4.4453326    4.4453326   -27666.051   -6662.0252   -23670.931   -52665.196   -7758.3688   -4996.0456    5320.9589    87.844139 
   51700    1000.9225   -104.09296   0.90565575    -103.1873    21302.898    4.4544177    4.4544177    4.4544177    21302.898    101212.97    7149.0309   -44453.302   -21742.469    14768.689   -2111.3508    88.383827 
   51800    1290.6843   -104.34084    1.1678382     -103.173   -3114.9639    4.4446581    4.4446581    4.4446581   -3114.9639    11441.424   -9449.1145   -11337.201   -8881.2057    4379.8596     4339.622    87.804158 
   51900    1322.6007    -104.3632    1.1967169   -103.16649     6073.003    4.4281672    4.4281672    4.4281672     6073.003    29315.394   -3499.9769   -7596.4079    1307.7023   -24285.073    4637.1396    86.830443 
   52000    1703.0277   -104.71278    1.5409352   -103.17185     7731.314    4.4362298    4.4362298    4.4362298     7731.314    47090.582   -4027.8549   -19868.785    8559.8543   -865.69715   -6793.8063    87.305601 
   52100    1070.9913   -104.15292   0.96905542   -103.18386   -23169.434    4.4516472    4.4516472    4.4516472   -23169.434    31930.403   -65343.625   -36095.081   -4989.7221    8601.5574   -1775.5262    88.219015 
   52200    1653.8968   -104.65745    1.4964806   -103.16097   -4940.0472    4.4431115    4.4431115    4.4431115   -4940.0472   -29528.015    31329.334    -16621.46    -7085.476   -25.350941    -1952.007     87.71253 
   52300    978.43371   -104.05943   0.88530739   -103.17412    3216.3137    4.4421123    4.4421123    4.4421123    3216.3137    87337.778   -23110.563   -54578.274   -342.50222    12760.602    2750.7872    87.653364 
   52400     1503.577   -104.53432    1.3604681   -103.17385   -7174.8476    4.4355515    4.4355515    4.4355515   -7174.8476    57699.933   -34949.102   -44275.374    2990.1569   -1105.8468   -4335.9561    87.265561 
   52500    1975.2482   -104.98136    1.7872461   -103.19411   -20769.135    4.4301757    4.4301757    4.4301757   -20769.135    6504.1672   -10437.976   -58373.595    17346.504    4249.9955    14427.224     86.94865 
   52600     1314.992   -104.41267    1.1898324   -103.22284   -2835.9765    4.4310222    4.4310222    4.4310222   -2835.9765    57072.549   -32753.838    -32826.64   -10902.656   -1390.2863   -7172.2353    86.998501 
   52700    1374.4778   -104.46024    1.2436564   -103.21659   -20921.302     4.439084     4.439084     4.439084   -20921.302    29306.233    -49015.79   -43054.348   -8407.9422    4494.8314    17114.305     87.47422 
   52800    1325.6757   -104.38892    1.1994993   -103.18942    24463.477    4.4316689    4.4316689    4.4316689    24463.477    36561.587    68500.258   -31671.413   -20354.888    3777.6282    2627.3506      87.0366 
   52900     1595.668   -104.63242    1.4437939   -103.18863   -31950.195     4.434672     4.434672     4.434672   -31950.195   -40703.114    3803.9074   -58951.379   -5627.0989   -3362.3612    6512.1894    87.213657 
   53000    1554.7355   -104.58535    1.4067573    -103.1786   -2072.7434    4.4415739    4.4415739    4.4415739   -2072.7434   -14595.008    46608.639   -38231.861    11615.514   -402.56026   -9906.3825    87.621499 
   53100    1627.3167   -104.64752    1.4724304   -103.17509   -22443.013    4.4428271    4.4428271    4.4428271   -22443.013   -38869.463   -3045.5722   -25414.003   -15308.717   -2015.9659    11625.906    87.695687 
   53200    1605.5517   -104.62598    1.4527369   -103.17324    522.63446    4.4443892    4.4443892    4.4443892    522.63446    29845.762   -5366.9333   -22910.926    1341.5999   -18944.113   -1447.7014     87.78822 
   53300    886.75371   -103.97773   0.80235339   -103.17538    14721.519    4.4316008    4.4316008    4.4316008    14721.519   -26303.402    18476.132    51991.826   -29145.809    11353.156    8004.2456    87.032585 
   53400    1621.8901   -104.63687    1.4675202   -103.16935    18850.723    4.4300838    4.4300838    4.4300838    18850.723    66805.824   -5613.8257   -4639.8303    12680.312    4445.1948   -1840.8223    86.943239 
   53500    1032.9629   -104.11576   0.93464652   -103.18112   -1222.3454    4.4470171    4.4470171    4.4470171   -1222.3454    -12897.21   -19860.319    29090.492   -5025.0683      3436.37    2179.6477    87.944038 
   53600    1543.6147     -104.575     1.396695    -103.1783   -10592.181    4.4401457    4.4401457    4.4401457   -10592.181    45807.981   -54880.047   -22704.476   -3433.0239   -5768.6513    393.71982    87.537001 
   53700    1374.2782   -104.42484    1.2434758   -103.18136    11744.529    4.4388717    4.4388717    4.4388717    11744.529    24016.173   -19843.991    31061.405   -8147.3144    1095.9564   -7850.1665    87.461671 
   53800    1387.9109   -104.43664    1.2558109   -103.18083   -10698.359    4.4426911    4.4426911    4.4426911   -10698.359     9710.552   -37406.505   -4399.1244   -3691.0723    2885.5757    6236.7172    87.687637 
   53900    1592.0183   -104.61746    1.4404916   -103.17697   -2988.5497    4.4495335    4.4495335    4.4495335   -2988.5497     15427.46   -18409.581   -5983.5281   -4319.7367    1959.1067   -7094.3412    88.093413 
   54000    1298.9796   -104.35411     1.175344   -103.17877   -24814.607    4.4486277    4.4486277    4.4486277   -24814.607   -40121.883   -31056.411   -3265.5285   -16680.694    9883.2658    11724.338    88.039628 
   54100    1343.5152   -104.38535    1.2156408   -103.16971    15340.633    4.4356688    4.4356688    4.4356688    15340.633    39542.633    9525.3712   -3046.1046   -7453.9006   -12038.716   -4449.1802    87.272482 
   54200    1436.5852   -104.49008    1.2998525   -103.19023   -16705.991    4.4387775    4.4387775    4.4387775   -16705.991   -15444.213   -34406.593   -267.16747   -5501.2588   -5367.2589    13362.695    87.456102 
   54300    1839.6341   -104.86613    1.6645396   -103.20159   -23627.173    4.4413307    4.4413307    4.4413307   -23627.173   -43877.878   -240.76098    -26762.88    4593.9898    10774.236   -4226.6532    87.607105 
   54400    910.89591   -104.03615   0.82419776   -103.21196    38873.436    4.4351051    4.4351051    4.4351051    38873.436    48093.919    28438.247    40088.141   -784.35473    1505.8685   -1885.6086    87.239217 
   54500    1562.3433   -104.62321    1.4136411   -103.20957   -11878.509    4.4469169    4.4469169    4.4469169   -11878.509    34753.897   -47955.258   -22434.167    14219.612     13757.06    2000.9844    87.938093 
   54600    1412.8765   -104.47498    1.2784003   -103.19658   -630.92228    4.4366542    4.4366542    4.4366542   -630.92228   -32064.953    18151.218    12020.968   -1914.6019    6391.5436    7637.3815    87.330662 
   54700    1965.2894   -104.97705    1.7782352   -103.19881   -17458.039    4.4248839    4.4248839    4.4248839   -17458.039   -11385.895   -14705.169   -26283.052    -14595.53     3053.389    8997.4512    86.637446 
   54800    1212.7457   -104.32327    1.0973178   -103.22595    14813.496    4.4349192    4.4349192    4.4349192    14813.496     44304.49    -11279.53    11415.527   -4574.8945   -8156.1411   -363.47225    87.228247 
   54900    1156.8239   -104.27353    1.0467185   -103.22681   -10312.349     4.438345     4.438345     4.438345   -10312.349    40615.204   -28582.372   -42969.879    281.32684   -376.94314    12002.499    87.430544 
   55000    1119.0536   -104.24236    1.0125432   -103.22981     10943.15    4.4312929    4.4312929    4.4312929     10943.15    31356.417   -8005.6865    9478.7178     9330.834    2005.0763   -5931.4752    87.014448 
   55100    1781.4435     -104.833    1.6118875   -103.22111   -18344.313    4.4244136    4.4244136    4.4244136   -18344.313   -5794.7175   -18193.712   -31044.509    -7745.371    2395.3753    15045.695    86.609826 
   55200     1566.967   -104.64737    1.4178246   -103.22954   -18017.055    4.4380948    4.4380948    4.4380948   -18017.055   -34428.129   -21531.322    1908.2874    3377.2045   -3058.0927   -13940.347     87.41576 
   55300    1483.8303   -104.56159    1.3426009   -103.21899   -13791.826    4.4279964    4.4279964    4.4279964   -13791.826     57577.12   -58172.844   -40779.755   -16273.183    -1766.935    9358.0104    86.820397 
   55400    912.70531    -104.0516   0.82583494   -103.22576    25085.481    4.4299349    4.4299349    4.4299349    25085.481    74362.176    -5970.662    6864.9279   -3431.8172   -9369.3338   -4691.0845    86.934472 
   55500    1506.7894   -104.57985    1.3633747   -103.21648   -33808.573    4.4392887    4.4392887    4.4392887   -33808.573   -13382.814   -41091.206     -46951.7   -4000.7017   -15088.006   -5619.6266    87.486326 
   55600    1670.2751   -104.71614       1.5113   -103.20484    -11582.58    4.4355825    4.4355825    4.4355825    -11582.58   -28107.083   -20630.776     13990.12    1021.1601    1002.6368    6576.2686    87.267389 
   55700    1137.0521   -104.22344    1.0288286   -103.19461   -8640.5497    4.4418843    4.4418843    4.4418843   -8640.5497    59285.936   -54425.312   -30782.272   -11878.141   -16527.349   -10486.997    87.639868 
   55800    1253.0251   -104.32268    1.1337634   -103.18892    5437.8344    4.4273229    4.4273229    4.4273229    5437.8344     37883.04   -34666.554    13097.017   -6960.4839    11525.314    1602.7387    86.780789 
   55900    1882.6929   -104.89408    1.7035001   -103.19058   -8127.4816    4.4298512    4.4298512    4.4298512   -8127.4816   -6645.0517   -15279.861    -2457.532   -3158.1898   -5664.5411    -6044.736    86.929548 
   56000    354.76317    -103.5382   0.32099717   -103.21721    1033.1627    4.4448342    4.4448342    4.4448342    1033.1627    12841.984   -69759.167    60016.671    -17702.34    8976.2851    2142.4541    87.814592 
   56100    2086.0533    -105.0923    1.8875049    -103.2048   -7163.3438    4.4253944    4.4253944    4.4253944   -7163.3438   -8683.8804   -5830.9881   -6975.1628   -7079.9773   -4017.4777   -11739.762    86.667434 
   56200    1138.6232   -104.26186    1.0302502   -103.23161   -7345.1622    4.4229026    4.4229026    4.4229026   -7345.1622    24549.953   -50761.431    4175.9921   -14655.955    182.72542    5611.7996    86.521118 
   56300    1259.0844   -104.36174     1.139246    -103.2225    6946.4507    4.4385759    4.4385759    4.4385759    6946.4507    29002.682    -32915.99     24752.66   -1364.9811    9565.5424    6618.3099    87.444186 
   56400    1541.7028   -104.59535    1.3949651   -103.20039   -10881.592    4.4364081    4.4364081    4.4364081   -10881.592    13238.996   -12568.332    -33315.44   -15508.674   -6230.4211    11963.024    87.316128 
   56500    1426.1458   -104.47492    1.2904067   -103.18451   -17586.399    4.4356069    4.4356069    4.4356069   -17586.399    16949.229    -56490.33   -13218.094   -1452.1418    7010.2444    13828.474     87.26883 
   56600    1098.0525   -104.18452   0.99354102   -103.19098    36693.127    4.4210019    4.4210019    4.4210019    36693.127    50537.264   -7172.4043    66714.522   -17475.337   -16794.779    3042.1284    86.409622 
   56700    1431.0748   -104.51351    1.2948665   -103.21864    4993.4751    4.4209848    4.4209848    4.4209848    4993.4751     4795.669    10164.568    20.188182    -14007.38     15419.76    6189.0632    86.408619 
   56800    1768.3897   -104.81733    1.6000762   -103.21725   -27644.111    4.4325028    4.4325028    4.4325028   -27644.111    -26367.52   -48869.618   -7695.1944   -8878.3203   -6852.4402   -15501.105    87.085744 
   56900    964.49888   -104.07953   0.87269885   -103.20683    36622.053    4.4301648    4.4301648    4.4301648    36622.053    18875.659     28724.85    62265.649   -26936.012   -1829.5309    8073.3044     86.94801 
   57000     1876.518   -104.89925    1.6979129   -103.20134   -28027.991    4.4291547    4.4291547    4.4291547   -28027.991   -34070.194   -46191.768   -3822.0121   -577.85651   -2050.8607   -4927.5122    86.888547 
   57100    1323.2501   -104.40762    1.1973045   -103.21032    18452.288    4.4215105    4.4215105    4.4215105    18452.288    29334.346    40144.151   -14121.632   -25052.071   -9150.1195     4645.237    86.439449 
   57200    1399.6317   -104.48494    1.2664161   -103.21852   -4475.9454    4.4417617    4.4417617    4.4417617   -4475.9454    15784.309   -24796.495   -4415.6502    10825.283    8472.0417      6950.49    87.632611 
   57300    1637.0791   -104.67283    1.4812636   -103.19157   -10321.305    4.4351962    4.4351962    4.4351962   -10321.305    21034.527   -16579.231   -35419.212   -31155.492    4827.5803    4458.3169    87.244589 
   57400    839.98491   -103.95848     0.760036   -103.19844    16144.014    4.4323463    4.4323463    4.4323463    16144.014    56529.134   -387.77313   -7709.3199    19081.222   -7944.2132    13205.242     87.07652 
   57500    1761.1663   -104.78524    1.5935403    -103.1917   -12243.254    4.4346067    4.4346067    4.4346067   -12243.254    1330.0432   -22990.694    -15069.11   -17894.246    7527.4325   -2553.6082    87.209805 
   57600    1257.4701   -104.33395    1.1377853   -103.19617   -14928.445    4.4365579    4.4365579    4.4365579   -14928.445    51826.731   -46536.898   -50075.167   -3449.4759   -3984.9111    14697.882     87.32497 
   57700    1255.7319   -104.32665    1.1362126   -103.19043    11578.026      4.43904      4.43904      4.43904    11578.026   -14613.765    56818.854   -7471.0102   -6626.5744    3243.6627   -7705.6159     87.47162 
   57800    1515.6059   -104.57249     1.371352   -103.20114   -10232.413    4.4343608    4.4343608    4.4343608   -10232.413    3793.5856   -9082.8623   -25407.962    2890.1496    7320.6052     15040.06    87.195298 
   57900    1509.7774   -104.56595    1.3660783   -103.19987    11744.111    4.4282267    4.4282267    4.4282267    11744.111    50548.204   -13147.035   -2168.8371   -406.53897   -3435.3313   -11632.171    86.833944 
   58000    1116.4342   -104.22489    1.0101731   -103.21471    1938.6859    4.4321996    4.4321996    4.4321996    1938.6859   -12047.244    22392.931   -4529.6296   -2214.9712   -1578.6488    16115.771    87.067874 
   58100    1890.0442   -104.90862    1.7101517   -103.19846   -25070.232    4.4385113    4.4385113    4.4385113   -25070.232    17696.221   -47162.115   -45744.802    730.24377    5786.1871    3195.5986     87.44037 
   58200    919.04815   -104.03509   0.83157408   -103.20351    15487.941    4.4368029    4.4368029    4.4368029    15487.941    76308.196   -38931.013    9086.6393    12491.912   -14482.907    6034.8136    87.339443 
   58300    1612.7257   -104.66385    1.4592281   -103.20462    -24007.12    4.4411856    4.4411856    4.4411856    -24007.12   -6559.6202   -32623.898   -32837.843   -4399.6155   -5244.1063   -1024.5274    87.598523 
   58400    1053.9615   -104.14949   0.95364651   -103.19584    30130.724    4.4333858    4.4333858    4.4333858    30130.724    97695.914   -23394.046    16090.305    10900.887     5144.799    16761.726    87.137797 
   58500    1775.9554   -104.80154    1.6069218   -103.19462    -27977.17    4.4390369    4.4390369    4.4390369    -27977.17   -18443.481   -47369.777   -18118.254   -3573.1938   -11653.292   -1922.7266     87.47144 
   58600    1062.2768   -104.14424   0.96117036   -103.18307    16258.481    4.4464505    4.4464505    4.4464505    16258.481    78912.644   -19811.976   -10325.225    5088.7396   -7019.8788     -1647.12    87.910423 
   58700    1519.7904   -104.54397    1.3751383   -103.16884   -7646.4973    4.4390721    4.4390721    4.4390721   -7646.4973    4896.4777   -17462.401   -10373.568   -14370.496    1821.5011    4093.6367    87.473519 
   58800    1422.8613   -104.46381    1.2874348   -103.17638    5078.4541    4.4429482    4.4429482    4.4429482    5078.4541    5656.5419   -11177.404    20756.224    3735.2502   -7614.9441    -10597.48    87.702857 
   58900    1603.9493   -104.62363     1.451287   -103.17235   -16075.151    4.4363098    4.4363098    4.4363098   -16075.151    631.41003   -27737.262   -21119.601   -7576.0868    11853.542   -341.55551    87.310322 
   59000    1186.6468   -104.24861    1.0737029   -103.17491    23677.374    4.4449994    4.4449994    4.4449994    23677.374    54432.192    11673.799    4926.1317   -7034.9059    5207.8819   -7470.1527    87.824383 
   59100    1237.0364   -104.27975    1.1192965   -103.16045   -9284.3255    4.4615613    4.4615613    4.4615613   -9284.3255   -5861.4921   -22490.538    499.05369   -613.65113     9810.794    -5544.192    88.809736 
   59200    1318.7008   -104.34866    1.1931882   -103.15547   -12338.615    4.4464811    4.4464811    4.4464811   -12338.615     50013.75    -63677.91   -23351.685   -11457.694      8576.61   -3478.8244    87.912238 
   59300    1091.0731   -104.15168   0.98722591   -103.16445    65123.023    4.4220997    4.4220997    4.4220997    65123.023    137244.24    45366.707    12758.122    15557.489   -3027.5039   -8326.8626    86.474008 
   59400    1572.3198   -104.63263     1.422668   -103.20997     -26689.7     4.444845     4.444845     4.444845     -26689.7   -54915.933   -15275.494   -9877.6727   -16138.196    2149.7537   -10755.824    87.815236 
   59500    1212.5869   -104.27538    1.0971741    -103.1782    14088.748    4.4633985    4.4633985    4.4633985    14088.748    56083.875    22920.388    -36738.02    9087.7265   -5737.4059   -5763.7993    88.919494 
   59600    1575.3649   -104.58256    1.4254232   -103.15714   -15722.139    4.4428446    4.4428446    4.4428446   -15722.139   -19350.948   -29042.666    1227.1985   -18900.921   -4578.1197   -765.79607    87.696724 
   59700    1221.4609   -104.26645    1.1052035   -103.16125    45104.865    4.4248001    4.4248001    4.4248001    45104.865    66337.676    37377.156    31599.764   -654.82463   -20968.088   -8014.4459    86.632522 
   59800    1071.6262    -104.1653   0.96962994   -103.19567   -4549.1321    4.4491644    4.4491644    4.4491644   -4549.1321    47823.256   -63341.504    1870.8517   -11308.596   -3035.4764   -1459.1034    88.071492 
   59900    1444.9822   -104.48768    1.3074502   -103.18023   -23156.854    4.4531725    4.4531725    4.4531725   -23156.854   -27749.444   -28241.188   -13479.929   -11147.645   -8777.1384    4182.3516    88.309729 
   60000    1731.1171   -104.73276    1.5663511   -103.16641     1934.657     4.436808     4.436808     4.436808     1934.657    58005.426   -48364.613   -3836.8422   -88.147034    19641.682   -3608.8439    87.339745 
   60100    813.65564   -103.93372   0.73621272    -103.1975   -3871.0594    4.4417969    4.4417969    4.4417969   -3871.0594    16114.963   -58180.821    30452.679   -5557.4347    3397.7204    2657.8937    87.634699 
   60200    1498.0547   -104.53908    1.3554714   -103.18361    8733.9728    4.4428642    4.4428642    4.4428642    8733.9728    5974.9245     3270.982    16956.012    5790.3932   -1840.3749    306.13096    87.697885 
   60300    1251.6305   -104.32189    1.1325016   -103.18939   -14029.259    4.4502981    4.4502981    4.4502981   -14029.259    49067.229   -84723.466   -6431.5403   -16983.784   -20807.136   -3292.2439    88.138833 
   60400    1143.6149   -104.21391    1.0347668   -103.17914     23866.41    4.4518427    4.4518427    4.4518427     23866.41    34976.371    15959.146    20663.713   -769.25977   -18208.646    542.55311    88.230641 
   60500    1227.3734   -104.27731    1.1105533   -103.16675   -2212.8278    4.4559415    4.4559415    4.4559415   -2212.8278    10452.373   -52657.616     35566.76   -15016.068   -12374.363     2088.303    88.474565 
   60600    1484.5649   -104.48704    1.3432655   -103.14377   -11102.077     4.450966     4.450966     4.450966   -11102.077   -12850.852   -31281.065    10825.686    7240.0676    1.8001243   -24020.244    88.178528 
   60700    1561.7236   -104.55923    1.4130803   -103.14615   -1800.5076     4.442612     4.442612     4.442612   -1800.5076   -51053.114   -11494.837    57146.428   -21038.338    15372.646    318.17584    87.682953 
   60800    1070.5901   -104.14885   0.96869244   -103.18015   -4795.1743    4.4513368    4.4513368    4.4513368   -4795.1743   -11964.421    17417.079    -19838.18    22169.343    -6642.299   -1128.9006    88.200564 
   60900    2147.9983    -105.1202     1.943554   -103.17665   -37664.201    4.4449773    4.4449773    4.4449773   -37664.201   -36849.849    -30608.77   -45533.984   -18561.902    5493.4724   -3293.8673    87.823078 
   61000    1017.6028    -104.1083   0.92074841   -103.18755   -1743.7967    4.4386881    4.4386881    4.4386881   -1743.7967   -25834.108   -16672.318    37275.036    9900.4845   -2920.4737   -2882.3102     87.45082 
   61100    1842.6951   -104.84925    1.6673093   -103.18194    2362.6028    4.4305171    4.4305171    4.4305171    2362.6028   -594.03917    26842.843   -19160.995   -3684.8497   -1441.1366     6582.397    86.968754 
   61200    1256.9894   -104.33375    1.1373504   -103.19639   -5679.7693    4.4413356    4.4413356    4.4413356   -5679.7693   -22651.162   -6788.4431    12400.297   -4431.8997    -2935.976   -8212.6075    87.607398 
   61300    1302.8806   -104.35173    1.1788737   -103.17286   -3178.5506    4.4503951    4.4503951    4.4503951   -3178.5506    5447.0863   -6669.7863   -8312.9519    3062.6655   -15460.908   -2230.0031    88.144601 
   61400    1398.2729   -104.42659    1.2651867    -103.1614    8439.3032     4.440962     4.440962     4.440962    8439.3032   -36110.837    49347.467     12081.28   -13709.253   -1536.3022   -29256.007     87.58529 
   61500    1317.0871   -104.37298    1.1917281   -103.18125    9018.0471     4.441562     4.441562     4.441562    9018.0471   -34626.038    27942.484    33737.696    14147.916   -9951.1435    320.43753    87.620793 
   61600    1380.6515   -104.42178    1.2492425   -103.17254    22683.236    4.4426125    4.4426125    4.4426125    22683.236     27474.83    25843.459    14731.418    2558.5541   -1928.2508    1080.4434     87.68298 
   61700    1558.9076   -104.58031    1.4105324   -103.16978   -18565.161    4.4515731    4.4515731    4.4515731   -18565.161   -43703.703   -40411.951    28420.171    13541.054   -2126.4224     2184.508    88.214612 
   61800    1415.4402   -104.43972    1.2807201     -103.159    13799.805    4.4511363    4.4511363    4.4511363    13799.805    14186.041    33833.046   -6619.6707   -13197.418    4004.1078   -1427.1522    88.188645 
   61900    1166.1242   -104.22919    1.0551337   -103.17406   -6680.4148    4.4374225    4.4374225    4.4374225   -6680.4148   -33293.731   -3905.5829    17158.069    14870.635   -17025.706     -1004.15    87.376035 
   62000    1690.3253   -104.70923    1.5294419   -103.17979    8441.7923      4.43423      4.43423      4.43423    8441.7923   -14041.998     21530.15    17837.225   -3818.3389    10445.392   -12789.496    87.187582 
   62100    1360.0528   -104.41548    1.2306043   -103.18488   -30918.085    4.4531185    4.4531185    4.4531185   -30918.085   -40009.415   -10919.734   -41825.105    11997.561   -4229.3501   -12620.124    88.306515 
   62200    1403.9999   -104.42436    1.2703686   -103.15399   -10018.536    4.4604622    4.4604622    4.4604622   -10018.536   -9360.0725   -10823.598   -9871.9395    1295.6379   -12264.381     13959.78    88.744118 
   62300    847.90588   -103.90681   0.76720306   -103.13961    11992.521    4.4507692    4.4507692    4.4507692    11992.521   -52843.573    44329.015     44492.12    680.99863    -5842.777   -9443.6308     88.16683 
   62400    1975.0941   -104.93366    1.7871066   -103.14655   -17686.416    4.4376969    4.4376969    4.4376969   -17686.416    -51262.44    6244.1176   -8040.9251    7975.5565    7794.3632    4298.0782    87.392247 
   62500     980.1084   -104.07767   0.88682268   -103.19085     12172.31    4.4392663    4.4392663    4.4392663     12172.31   -30294.505    35751.757    31059.678    1427.7269   -3998.3566   -22484.494    87.484998 
   62600    1648.9235   -104.68569    1.4919806   -103.19371   -7647.2769    4.4483447    4.4483447    4.4483447   -7647.2769   -35207.633    12751.714   -485.91175     594.3702   -8488.7602   -26620.041    88.022826 
   62700    833.73009   -103.94341   0.75437651   -103.18904    18892.535    4.4485928    4.4485928    4.4485928    18892.535    8111.0995    36367.909    12198.597   -6883.7964   -6978.8914    5101.3953    88.037555 
   62800    1613.1526   -104.63621    1.4596144    -103.1766   -1461.1953    4.4334771    4.4334771    4.4334771   -1461.1953   -47343.335    38332.724    4627.0249    17207.924   -7124.2216   -29820.085    87.143182 
   62900    1498.4613   -104.54908    1.3558392   -103.19324    8234.5515    4.4372334    4.4372334    4.4372334    8234.5515    16248.756   -19837.712    28292.611    3667.8254    -2801.996   -5684.7564    87.364869 
   63000    1356.3297   -104.42915    1.2272356   -103.20192   -16151.144    4.4463131    4.4463131    4.4463131   -16151.144   -45322.558    20955.892   -24086.767    2777.7083   -739.36075    508.19104    87.902277 
   63100    1453.0295   -104.49266    1.3147316   -103.17793   -8895.0887    4.4413633    4.4413633    4.4413633   -8895.0887    2825.4835    -24622.43   -4888.3194   -256.59864   -4930.4354    4745.6023    87.609037 
   63200    1139.6737   -104.19938    1.0312007   -103.16818    22955.207     4.425523     4.425523     4.425523    22955.207    11416.436    69344.255   -11895.071    14917.391   -2766.7711    1440.0426     86.67499 
   63300    1437.6034   -104.47607    1.3007738   -103.17529     3267.191    4.4394088    4.4394088    4.4394088     3267.191    40007.081    25340.221   -55545.729    7589.6536   -3194.6203   -364.05871    87.493423 
   63400    1566.8763   -104.58892    1.4177426   -103.17118   -39798.485     4.443608     4.443608     4.443608   -39798.485   -54069.206   -44446.012   -20880.238   -20974.139    3045.3477    7996.8501    87.741939 
   63500    1318.3615   -104.36882    1.1928812   -103.17593    2932.7646    4.4206628    4.4206628    4.4206628    2932.7646    4861.5928    22482.538   -18545.837    8773.4007    -2798.294    815.82378    86.389737 
   63600    1449.2959   -104.49528    1.3113534   -103.18393    31919.245    4.4151401    4.4151401    4.4151401    31919.245      16458.9    66673.906    12624.928   -21458.096   -14487.293    21436.965    86.066364 
   63700    926.85053   -104.03823   0.83863384   -103.19959   -22116.879    4.4455617    4.4455617    4.4455617   -22116.879    -51190.41    -16462.33    1302.1026      19427.8   -633.67302    11661.986    87.857722 
   63800    1670.4257   -104.66771    1.5114362   -103.15628    8750.8813    4.4440374    4.4440374    4.4440374    8750.8813    32352.869    31973.797   -38074.022    14176.712   -4975.8405    18669.148    87.767375 
   63900    1160.0405   -104.19525     1.049629   -103.14562   -2086.2327    4.4270021    4.4270021    4.4270021   -2086.2327    50136.952   -25714.477   -30681.172    2956.5967   -2899.2619    14313.625    86.761924 
   64000    1455.3062   -104.47908    1.3167916   -103.16229     11548.76    4.4265317    4.4265317    4.4265317     11548.76    51769.449   -26560.572    9437.4032   -2180.7158   -6720.9804   -3059.0696    86.734273 
   64100    1197.0476   -104.26419    1.0831138   -103.18108    8222.3764    4.4415412    4.4415412    4.4415412    8222.3764    -23812.72    13540.927    34938.922   -26077.835    -12121.36    10380.267    87.619562 
   64200    1287.9228   -104.33334    1.1653396     -103.168    -23203.36    4.4424028    4.4424028    4.4424028    -23203.36   -26372.974   -16702.852   -26534.253    4088.7149   -8610.6556   -11918.516    87.670564 
   64300    1157.4306   -104.19919    1.0472675   -103.15192    42951.494    4.4202981    4.4202981    4.4202981    42951.494    13608.082    41885.164    73361.237   -6334.5069   -9782.2793    3535.9142    86.368362 
   64400    1408.6311   -104.44608    1.2745591   -103.17152   -12918.275    4.4271484    4.4271484    4.4271484   -12918.275   -38079.565   -24073.992    23398.731   -699.22721   -9722.7801    5194.1361    86.770525 
   64500    1745.7839   -104.74568     1.579622   -103.16606   -1590.7828     4.434003     4.434003     4.434003   -1590.7828   -3676.6327   -974.46444   -121.25117    4123.0258    224.16521    220.26386    87.174197 
   64600    783.20135   -103.88325   0.70865704   -103.17459    41534.474    4.4207955    4.4207955    4.4207955    41534.474    8441.5027    81089.346    35072.573    5310.1773   -199.52519    22194.135    86.397519 
   64700    1338.9356   -104.40459    1.2114971   -103.19309    22963.379    4.4314912    4.4314912    4.4314912    22963.379    13159.722    41874.341    13856.074    12821.928   -2617.5996    6780.4011    87.026132 
   64800    1727.2376   -104.74199    1.5628409   -103.17915   -25561.119    4.4417279    4.4417279    4.4417279   -25561.119   -45366.134   -8203.0741    -23114.15    579.18524   -12130.942    8805.9964    87.630613 
   64900     832.3104   -103.92846   0.75309194   -103.17537     12871.58    4.4196612    4.4196612    4.4196612     12871.58   -3137.4082   -15378.215    57130.362    7113.8951   -5206.7873    3415.2678    86.331033 
   65000    2058.2898   -105.03941    1.8623838   -103.17702   -13715.294    4.4159636    4.4159636    4.4159636   -13715.294    3413.9007   -36125.531    -8434.252    1194.3968   -7713.3273   -376.17514    86.114532 
   65100    1215.2757   -104.28576     1.099607   -103.18616   -11049.003    4.4327936    4.4327936    4.4327936   -11049.003   -32431.208   -39437.514    38721.715   -6847.9136   -17904.883    4500.2048    87.102882 
   65200    1573.3072   -104.60485    1.4235614   -103.18129   -31054.133    4.4431796    4.4431796    4.4431796   -31054.133    1849.3987   -44215.655   -50796.144   -1365.5902    8757.3914    -14996.98    87.716561 
   65300    1549.7935   -104.57064    1.4022857   -103.16836   -20546.204    4.4401857    4.4401857    4.4401857   -20546.204   -3995.7855   -54461.009   -3181.8186    3622.1839    2637.3352   -2471.6446    87.539365 
   65400    1527.2809   -104.54121    1.3819158   -103.15929   -7199.7028    4.4280677    4.4280677    4.4280677   -7199.7028    17879.489   -26085.676   -13392.921   -13553.202   -6927.0196   -4894.6694    86.824596 
   65500    1777.1599   -104.77102    1.6080117   -103.16301   -15572.797    4.4299696    4.4299696    4.4299696   -15572.797   -2370.1894   -48517.268    4169.0666   -11641.675   -2458.3276    3349.1696    86.936514 
   65600    1569.5478    -104.5866    1.4201598   -103.16644    17669.248    4.4181893    4.4181893    4.4181893    17669.248    75155.551   -10799.211   -11348.596   -12215.795   -1654.9322    12795.836    86.244808 
   65700    1215.4139   -104.28614    1.0997321   -103.18641    8628.5355    4.4362641    4.4362641    4.4362641    8628.5355    45602.421   -36069.981    16353.166    -3596.895    17697.701    -8367.443    87.307628 
   65800    1600.1666   -104.62207    1.4478643   -103.17421   -29923.835    4.4427325    4.4427325    4.4427325   -29923.835    3844.0625    -36694.94   -56920.628   -7948.1062   -1509.5988    18072.953    87.690084 
   65900    1454.4608   -104.48754    1.3160267   -103.17151    3376.3438    4.4151525    4.4151525    4.4151525    3376.3438   -7135.8754     20646.54   -3381.6329    14327.322    10056.563   -1745.5767    86.067093 
   66000     1197.098   -104.27069    1.0831594   -103.18753    19445.043    4.4114606    4.4114606    4.4114606    19445.043    40587.343    41277.647    -23529.86    1865.7793    2816.9283    22174.489    85.851367 
   66100    1231.8671   -104.32916    1.1146192   -103.21454   -1580.0421    4.4370812    4.4370812    4.4370812   -1580.0421   -12657.213    33940.001   -26022.914   -12127.128    10288.243   -1170.6197     87.35588 
   66200    1668.2081   -104.68242    1.5094297   -103.17299   -30704.517    4.4555075    4.4555075    4.4555075   -30704.517    -52396.67   -3394.9648   -36321.916    6521.9838    5654.9473    13572.116    88.448717 
   66300    1150.6467   -104.19054    1.0411293   -103.14941    14409.673    4.4263637    4.4263637    4.4263637    14409.673    19717.272     40904.29   -17392.542   -13684.688   -305.11539   -2529.2867    86.724396 
   66400    1777.3263   -104.76483    1.6081622   -103.15667   -1880.4271    4.4177191    4.4177191    4.4177191   -1880.4271    28783.141   -34343.515    -80.90796   -81.044918    14441.956    2768.2983    86.217276 
   66500     1906.453   -104.89733    1.7249987   -103.17233   -31080.756     4.442757     4.442757     4.442757   -31080.756    1510.4768   -41376.456   -53376.287   -9759.4261    6424.2476    8011.6623    87.691538 
   66600    1104.8087   -104.16251   0.99965412   -103.16285   -13056.811    4.4550991    4.4550991    4.4550991   -13056.811     44359.36    -41387.62   -42142.174   -2238.5969    3118.5802   -9085.4448    88.424399 
   66700    1545.5683   -104.54241    1.3984627   -103.14395    -4705.808    4.4302412    4.4302412    4.4302412    -4705.808    2540.3734   -34850.484    18192.687    11652.727   -9634.2951    7269.3553    86.952505 
   66800    1087.4509   -104.13692   0.98394845   -103.15297    53031.776    4.4070383    4.4070383    4.4070383    53031.776    85311.458    75572.706   -1788.8361   -15760.867    23822.144    2584.0823    85.593437 
   66900    1759.6207    -104.7846    1.5921418   -103.19246   -22865.243     4.427589     4.427589     4.427589   -22865.243   -20290.887   -27613.859   -20690.981    10187.466   -11117.071    4988.6955    86.796437 
   67000    1073.1016    -104.1607   0.97096485   -103.18974     25815.19    4.4429355    4.4429355    4.4429355     25815.19    77764.919    24611.278   -24930.628    1838.3527    11078.628    5616.1843    87.702108 
   67100    1240.9432   -104.29286    1.1228315   -103.17003   -10024.912    4.4486621    4.4486621    4.4486621   -10024.912    17125.175   -29887.437   -17312.474   -1033.3919    6785.6124    10762.151     88.04167 
   67200    1419.3413   -104.42769    1.2842498   -103.14344     2856.364    4.4274523    4.4274523    4.4274523     2856.364    30612.257   -13873.628   -8169.5377   -14751.134     17730.08   -6125.1599    86.788399 
   67300    1300.2815   -104.33132     1.176522    -103.1548    15898.634    4.4130613    4.4130613    4.4130613    15898.634    75466.098   -9267.0591   -18503.137   -12395.144    -276.7397   -79.120994    85.944854 
   67400    1351.6661   -104.41327    1.2230159   -103.19025    16664.891    4.4278067    4.4278067    4.4278067    16664.891    34491.512    3100.8732    12402.287    18786.707   -9591.1837   -1171.9868    86.809239 
   67500     1313.861   -104.38472    1.1888091   -103.19591    -6456.916    4.4505445    4.4505445    4.4505445    -6456.916    13346.051   -59710.721    26993.922   -13927.501    10722.405   -5756.9061    88.153477 
   67600    1488.2317   -104.51631    1.3465833   -103.16973   -29177.727    4.4454083    4.4454083    4.4454083   -29177.727    -46703.02   -19579.656   -21250.505    24881.531   -5312.6573    -7459.942    87.848626 
   67700     1559.568   -104.56024    1.4111299   -103.14911     36102.03    4.4047124    4.4047124    4.4047124     36102.03    90711.596   -5175.1983    22769.693   -12533.269    14123.135    9780.4751    85.457988 
   67800    1228.4315   -104.30615    1.1115106   -103.19464    5733.0845    4.4175487    4.4175487    4.4175487    5733.0845   -4459.5446   -6311.1222     27969.92    6262.7044   -11537.449   -1039.4157    86.207301 
   67900    1464.8833   -104.50051    1.3254572   -103.17506   -22566.022    4.4463411    4.4463411    4.4463411   -22566.022    9216.3341   -23527.056   -53387.344    13556.553   -6923.8032   -1539.8159    87.903938 
   68000    1597.9628   -104.60891    1.4458703   -103.16304   -16661.813    4.4332876    4.4332876    4.4332876   -16661.813   -30046.853   -19275.106   -663.48068    4836.4018   -8330.9983    13337.525    87.132005 
   68100    1279.7143   -104.33094    1.1579123   -103.17303    3524.3364    4.4200467    4.4200467    4.4200467    3524.3364   -16086.347    19693.694    6965.6624    20474.385    2352.8297    8545.0056    86.353625 
   68200    1562.0752   -104.60084    1.4133984   -103.18744    9385.4283    4.4294445    4.4294445    4.4294445    9385.4283    76194.776   -35743.287   -12295.204   -17964.764    15313.652    13019.642    86.905608 
   68300    835.94301   -103.95058    0.7563788    -103.1942    1720.8923    4.4448278    4.4448278    4.4448278    1720.8923    50158.846   -14421.723   -30574.446    11854.288    6645.8639    7886.2951    87.814213 
   68400    1896.5977   -104.88093    1.7160815   -103.16484    -19152.87    4.4350935    4.4350935    4.4350935    -19152.87    18226.743   -13903.729   -61781.623    316.34239    9743.5689    5821.4608    87.238528 
   68500    1585.7458    -104.5985    1.4348162   -103.16368    -11361.56    4.4188779    4.4188779    4.4188779    -11361.56   -25979.517    1907.2292   -10012.394    13738.011    8262.2049    2143.3259    86.285137 
   68600     1186.899   -104.25757    1.0739311   -103.18364    21974.315    4.4174928    4.4174928    4.4174928    21974.315    87586.794    22838.906   -44502.754    4645.2452    9524.1523    11411.363    86.204028 
   68700     1341.386   -104.41356    1.2137142   -103.19985    5755.1761    4.4333759    4.4333759    4.4333759    5755.1761    48158.549   -12540.542   -18352.479    -9459.358    14406.413   -5465.2248    87.137211 
   68800    1688.4499   -104.72053    1.5277449   -103.19278   -20312.967    4.4366245    4.4366245    4.4366245   -20312.967   -5752.8609   -39826.106   -15359.934    17421.608     2431.496    8990.4634    87.328905 
   68900    1501.9932    -104.5493     1.359035   -103.19027   -553.01554    4.4351803    4.4351803    4.4351803   -553.01554    73894.398   -4970.4467   -70582.998    2664.8134    3594.0889   -2344.9045    87.243651 
   69000    1272.2869   -104.35163    1.1511919   -103.20044    3851.6852    4.4225982    4.4225982    4.4225982    3851.6852    69649.321   -31943.276    -26150.99    17761.836   -3876.2505    4010.9149    86.503257 
   69100    1539.2643   -104.60091    1.3927587   -103.20815    5109.3206      4.43369      4.43369      4.43369    5109.3206     30046.39    3220.9815    -17939.41   -11510.956    3254.5039    5438.6967    87.155736 
   69200     1376.928    -104.4394    1.2458734   -103.19353   -9330.0918    4.4383407    4.4383407    4.4383407   -9330.0918    33623.209    -30832.09   -30781.395    19461.254   -8034.3644    6689.3946    87.430289 
   69300    966.37057   -104.05649    0.8743924   -103.18209    16762.397    4.4382513    4.4382513    4.4382513    16762.397    73490.031   -4346.8884   -18855.951    17052.117   -23598.953    2781.0933    87.425003 
   69400    1361.6379   -104.41283    1.2320386   -103.18079    6722.7852    4.4395913    4.4395913    4.4395913    6722.7852    21456.426    3874.9007   -5162.9709    15115.723     995.0859      7934.58    87.504215 
   69500    1653.6448   -104.67536    1.4962526   -103.17911   -28109.252    4.4399778    4.4399778    4.4399778   -28109.252   -29454.637   -47791.757   -7081.3619    3904.3032    -10142.51    17007.992    87.527072 
   69600    1036.7181   -104.12466    0.9380443   -103.18662    28374.805    4.4355167    4.4355167    4.4355167    28374.805     50809.17   -3389.5148    37704.759    9212.1056   -19584.111   -3492.0404    87.263505 
   69700    1305.3119   -104.37806    1.1810736   -103.19699   -5184.5452    4.4417251    4.4417251    4.4417251   -5184.5452   -26956.349   -33781.201    45183.914    26160.648   -11571.298    14932.646    87.630448 
   69800    1245.7558   -104.30931     1.127186   -103.18212    24519.094    4.4508506    4.4508506    4.4508506    24519.094    11722.944   -9842.3146    71676.651    -5444.754   -6953.1682    24499.407    88.171665 
   69900    789.46908   -103.88008   0.71432822   -103.16575   -4904.3152    4.4607432    4.4607432    4.4607432   -4904.3152   -29663.734   -27186.793    42137.582    9689.2799    6702.2409    28293.607    88.760895 
   70000    1527.3258   -104.50672    1.3819565   -103.12476    10926.183    4.4489481    4.4489481    4.4489481    10926.183    13831.607   -29475.354    48422.297   -3750.4492     6027.584      7015.74    88.058651 
   70100    1346.4243   -104.35626     1.218273   -103.13799   -35714.235     4.451873     4.451873     4.451873   -35714.235   -31970.315   -61564.417   -13607.972    17643.398    13965.102    20077.781     88.23244 
   70200    1417.3504   -104.41677    1.2824484   -103.13432    8596.8451    4.4449069    4.4449069    4.4449069    8596.8451     7734.812   -10259.333    28315.056   -8157.8971    14914.626    7153.9464    87.818906 
   70300    1268.6718   -104.29558    1.1479209   -103.14766    12672.785    4.4462606    4.4462606    4.4462606    12672.785    -9211.092    7048.8911    40180.555    6462.7023   -4680.6961   -7178.9116    87.899164 
   70400    1600.2693   -104.59991    1.4479573   -103.15196   -19374.953    4.4600203    4.4600203    4.4600203   -19374.953    11631.987    -54761.81   -14995.035     1322.952    5041.4398    2556.6281    88.717747 
   70500    1565.8245   -104.56786     1.416791   -103.15107     -8513.66    4.4498419    4.4498419    4.4498419     -8513.66    -16630.63   -46573.477    37663.127    8446.1563   -19922.316    3488.3794    88.111732 
   70600    1079.6349   -104.12766   0.97687639   -103.15078    15729.991    4.4493308    4.4493308    4.4493308    15729.991    90532.282    1173.3048   -44515.615    183.40751   -5910.5269    882.19769    88.081378 
   70700    1862.9899    -104.8333    1.6856724   -103.14762   -27779.309    4.4439825    4.4439825    4.4439825   -27779.309   -7382.4495   -47365.735   -28589.742    7150.7966   -2216.2913   -958.39494    87.764122 
   70800    1223.9116   -104.27494     1.107421   -103.16752    16613.987    4.4442177    4.4442177    4.4442177    16613.987    116356.54   -14395.783   -52118.802   -3654.1833   -9566.9971    6881.0744    87.778062 
   70900    1427.7589   -104.46507    1.2918662    -103.1732   -16283.108    4.4507423    4.4507423    4.4507423   -16283.108    33035.287    -47393.57   -34491.041    12293.079     9675.752   -3337.1396    88.165232 
   71000    1306.8834   -104.35773    1.1824956   -103.17524   -279.37306    4.4358036    4.4358036    4.4358036   -279.37306    88620.875   -40160.362   -49298.633    11275.706   -3055.4748     4563.444    87.280442 
   71100    1374.3138   -104.43189     1.243508   -103.18838    4648.3618    4.4326329    4.4326329    4.4326329    4648.3618     55049.17   -2000.9687   -39103.116   -3859.1207    -8036.103   -20854.693    87.093409 
   71200    1512.1058   -104.55739    1.3681851   -103.18921   -12851.111    4.4514424    4.4514424    4.4514424   -12851.111    20231.787   -29922.085   -28863.035    3038.3109     20723.73     5612.649    88.206842 
   71300    1373.3844   -104.40444    1.2426671   -103.16177   -26455.913    4.4590667    4.4590667    4.4590667   -26455.913   -35162.915   -31505.997   -12698.826   -10885.108   -7486.1513   -17622.155    88.660851 
   71400    1969.2235   -104.92801    1.7817948   -103.14622   -21174.918    4.4377173    4.4377173    4.4377173   -21174.918   -27634.926   -28266.425   -7623.4045    3139.5585    -11117.96    21871.847    87.393455 
   71500    1097.9983   -104.15903   0.99349193   -103.16554    20041.516    4.4159761    4.4159761    4.4159761    20041.516    8886.5123   -991.10958    52229.145   -2184.9765    8916.8857   -10957.368    86.115267 
   71600    1763.1248    -104.7975    1.5953124   -103.20218    3923.8903    4.4321874    4.4321874    4.4321874    3923.8903    15224.827    22633.396   -26086.551    347.05815   -17905.979    -3098.993    87.067152 
   71700    890.41048    -103.9912   0.80566211   -103.18554   -5848.6829    4.4650026    4.4650026    4.4650026   -5848.6829   -17554.084    7781.4844    -7773.449   -8143.9421   -3478.6083   -4749.3715    89.015401 
   71800    1614.2904   -104.60426    1.4606439   -103.14362   -14699.813    4.4440382    4.4440382    4.4440382   -14699.813   -29211.164   -48446.627    33558.351   -8775.8047   -7000.4792   -3477.1361    87.767421 
   71900    1531.8654   -104.52701     1.386064   -103.14095    22087.733    4.4142566    4.4142566    4.4142566    22087.733    42343.623    27863.087   -3943.5102    10838.815   -3195.4571    1063.2401    86.014708 
   72000    1144.1874    -104.2381    1.0352848   -103.20282    27790.468    4.4163339    4.4163339    4.4163339    27790.468    46761.153    32254.124    4356.1287   -11401.823   -1738.5411   -18465.933    86.136199 
   72100    1593.7201   -104.66105    1.4420315   -103.21902   -2405.3381    4.4474946    4.4474946    4.4474946   -2405.3381   -9849.9875   -11159.959    13793.932   -4866.1694    -1066.384    10285.618    87.972372 
   72200    1308.1045   -104.38342    1.1836005   -103.19982   -11440.146     4.436442     4.436442     4.436442   -11440.146    55505.476   -50561.051   -39264.864    -5170.849    3390.0235   -21120.647    87.318127 
   72300    1369.6525   -104.41476    1.2392903   -103.17547    28392.311    4.4092901    4.4092901    4.4092901    28392.311    25820.841    21003.108    38352.985   -18146.285    6893.1656    4286.6826    85.724709 
   72400    1663.5614   -104.69721    1.5052253   -103.19199    5055.0944    4.4200083    4.4200083    4.4200083    5055.0944    32175.832   -2889.2245   -14121.325     1961.047    6795.2727   -5639.4538    86.351374 
   72500    1084.9268    -104.1929    0.9816646   -103.21124   -21576.691    4.4380671    4.4380671    4.4380671   -21576.691    11024.151   -41211.362   -34542.863   -17046.536    4017.5142   -8882.9015    87.414122 
   72600    1891.1987   -104.90227    1.7111963   -103.19108    -9270.574    4.4269935    4.4269935    4.4269935    -9270.574   -8065.6467    4046.8061   -23792.881    1684.2614    15562.036    1228.8325    86.761422 
   72700    1140.4921   -104.22561    1.0319412   -103.19367    8448.2581    4.4194577    4.4194577    4.4194577    8448.2581    54983.115   -20693.683    -8944.658    3093.9078    4854.7351   -6764.4088    86.319109 
   72800    1562.5599   -104.60766    1.4138371   -103.19382   -20674.741    4.4307874    4.4307874    4.4307874   -20674.741   -44565.393    26005.668   -43464.499    3719.9528    14805.741    4092.3754    86.984671 
   72900    1505.1657   -104.56158    1.3619056   -103.19968   -8410.2936    4.4285536    4.4285536    4.4285536   -8410.2936     30711.26   -2339.5242   -53602.617    3373.7002    2031.7297   -20438.961    86.853176 
   73000    1204.0906    -104.2893    1.0894865   -103.19982     32717.69    4.4197577    4.4197577    4.4197577     32717.69    54618.823    57205.354   -13671.106    -12990.88     7717.364    7944.3006    86.336686 
   73100    1504.6477   -104.57422    1.3614368   -103.21278   -45047.345    4.4356565    4.4356565    4.4356565   -45047.345   -22243.805   -26465.785   -86432.444    5605.4902    2805.7168   -39356.474    87.271756 
   73200    1209.9531   -104.28659     1.094791   -103.19179    48111.561    4.4187369    4.4187369    4.4187369    48111.561    54663.708    101145.83   -11474.859   -17213.716    2219.1669   -5748.3418     86.27688 
   73300    1268.4167   -104.34906    1.1476901   -103.20137   -15527.111    4.4237625    4.4237625    4.4237625   -15527.111   -27982.891   -11902.619   -6695.8234   -1971.0038   -1376.8543    -26188.57    86.571595 
   73400    1606.5217   -104.64139    1.4536146   -103.18778    1631.6872    4.4312108    4.4312108    4.4312108    1631.6872    3471.1049    14392.409   -12968.452    -12859.62    -1979.521   -1747.0333    87.009615 
   73500      1393.38    -104.4469    1.2607595   -103.18614   -12211.014    4.4305467    4.4305467    4.4305467   -12211.014    3472.5664   -20267.925   -19837.684   -11281.461    4826.9404    -14553.91    86.970496 
   73600    1069.1202   -104.14564   0.96736239   -103.17828    8671.5813    4.4274085    4.4274085    4.4274085    8671.5813    36852.124   -4962.9049   -5874.4756    -4657.104    -7165.298   -2769.1669    86.785823 
   73700    1856.4419   -104.84997    1.6797476   -103.17022   -4087.3804    4.4303283    4.4303283    4.4303283   -4087.3804    -18681.48    16300.126   -9880.7878   -20932.416   -4472.7744    3243.2994    86.957638 
   73800    1024.7314   -104.09863   0.92719853   -103.17144    8007.7965    4.4326979    4.4326979    4.4326979    8007.7965   -5799.3704    30421.021   -598.26146    591.09831   -10942.979   -16975.387    87.097244 
   73900    1499.1055   -104.51576    1.3564221   -103.15934   -11858.568    4.4299745    4.4299745    4.4299745   -11858.568   -15846.689    9859.7826   -29588.798   -10390.004    -1281.513    11110.308    86.936808 
   74000    1442.3945   -104.46555    1.3051088   -103.16044   -12384.822    4.4335424    4.4335424    4.4335424   -12384.822    3686.3211   -8061.8045   -32778.984    854.40053   -3910.3576   -35565.632     87.14703 
   74100      1411.05   -104.43181    1.2767477   -103.15506    15975.533    4.4240271    4.4240271    4.4240271    15975.533    8196.8456    11527.118    28202.636    9181.9272   -3998.7959      4161.24    86.587127 
   74200    1508.5902   -104.53492    1.3650041   -103.16991   -14334.132     4.431881     4.431881     4.431881   -14334.132    1293.6422   -29720.065   -14575.974    -17070.02    2672.9306    -21931.75    87.049095 
   74300    1370.1087   -104.41064    1.2397032   -103.17093    15.028418    4.4407314    4.4407314    4.4407314    15.028418    15985.135   -7400.6013   -8539.4485    3632.0414    2739.9434    3807.8894    87.571649 
   74400    1503.5609   -104.52258    1.3604535   -103.16213    5431.9386    4.4323787    4.4323787    4.4323787    5431.9386     19800.22    23403.538   -26907.942   -22618.594    561.49878  -0.55522731    87.078426 
   74500    1381.7321     -104.411    1.2502202   -103.16078    7633.8613    4.4264072    4.4264072    4.4264072    7633.8613    23480.768    -1202.155    622.97075    13062.274   -473.08516     3870.603    86.726951 
   74600    1459.7919   -104.49314    1.3208504   -103.17229    20703.538     4.427133     4.427133     4.427133    20703.538    28646.492    51370.069   -17905.946    10059.974    2217.5183    14545.423    86.769622 
   74700    1276.1551   -104.33322    1.1546919   -103.17853    2745.5622     4.440862     4.440862     4.440862    2745.5622    35131.808   -28228.571    1333.4492    8211.5125   -22580.763   -2798.7792     87.57937 
   74800    1728.9411   -104.73593    1.5643823   -103.17155   -16863.617    4.4313744    4.4313744    4.4313744   -16863.617   -10708.394     -29137.1   -10745.357    6674.5398    12785.685    17870.088    87.019247 
   74900    1202.1919   -104.25021    1.0877685   -103.16245    33459.613    4.4236554    4.4236554    4.4236554    33459.613    25705.023    26659.445    48014.372    8498.9754   -5405.9546    5656.7819    86.565303 
   75000    1280.5658   -104.32635    1.1586829   -103.16766   -19276.468    4.4358307    4.4358307    4.4358307   -19276.468   -17675.324   -51126.773    10972.692     3491.711   -12153.822    18760.148    87.282042 
   75100    1701.3318   -104.68904    1.5394007   -103.14964   -17169.573     4.442412     4.442412     4.442412   -17169.573   -45508.518   -43510.631    37510.429   -5677.1328    1476.1067    2776.2694    87.671107 
   75200    1137.4488   -104.18834    1.0291876   -103.15915   -29908.168    4.4422964    4.4422964    4.4422964   -29908.168   -48909.928   -57681.132    16866.556     32554.52   -9252.2097    3254.0806    87.664263 
   75300     1601.462   -104.59631    1.4490365   -103.14728    11923.512     4.424534     4.424534     4.424534    11923.512     9004.913    2922.7056    23842.917     10741.37    5113.8129    7381.8967    86.616893 
   75400    1451.8037   -104.48824    1.3136225   -103.17462   -7716.5356    4.4281768    4.4281768    4.4281768   -7716.5356    -25124.14   -11301.197     13275.73    11302.421   -20427.488    1512.0776    86.831011 
   75500    1488.7181   -104.52214    1.3470234   -103.17512   -3585.7051    4.4375903    4.4375903    4.4375903   -3585.7051   -15304.829   -36122.177     40669.89   -6937.4547    4784.5413    12628.914     87.38595 
   75600    1337.7374   -104.37787    1.2104129   -103.16746    23865.235    4.4305636    4.4305636    4.4305636    23865.235    12550.631   -4552.3496    63597.424     17791.57   -3534.5514   -2608.1138    86.971493 
   75700    1639.6324   -104.64621    1.4835738   -103.16264     -9393.19    4.4312484    4.4312484    4.4312484     -9393.19   -13860.723   -5008.8338   -9310.0136   -1188.8301   -20289.106    18462.302    87.011826 
   75800    1329.0784   -104.36888    1.2025781    -103.1663    15876.417    4.4317961    4.4317961    4.4317961    15876.417    2558.0652   -41065.243    86136.429    10982.527   -543.08951   -8066.2216    87.044093 
   75900    1840.2927   -104.82924    1.6651355    -103.1641   -21526.352    4.4373656    4.4373656    4.4373656   -21526.352    -41938.06     10336.35   -32977.345    -9474.649    -13954.69    21091.339    87.372675 
   76000    1270.6504   -104.31822    1.1497112   -103.16851    422.44799    4.4341556    4.4341556    4.4341556    422.44799    754.33034   -49836.831    50349.844    8503.3833    4103.8823    9127.5642    87.183195 
   76100    1345.5708   -104.37996    1.2175008   -103.16246    18838.896    4.4196798    4.4196798    4.4196798    18838.896   -30085.486    95553.294   -8951.1195   -845.42558   -190.24504   -21809.328    86.332121 
   76200    1590.7264    -104.6165    1.4393227   -103.17718   -20111.625    4.4297857    4.4297857    4.4297857   -20111.625   -6689.2708   -18808.071   -34837.534   -5973.2428   -5440.0324     32748.52     86.92569 
   76300    1497.1149   -104.51847    1.3546211   -103.16385    1443.4995    4.4422159    4.4422159    4.4422159    1443.4995   -25883.592    31270.192   -1056.1018    8577.4027   -2593.6559   -3832.9629    87.659501 
   76400       1399.3   -104.41825     1.266116   -103.15213   -17953.582    4.4458154    4.4458154    4.4458154   -17953.582   -44374.802    5481.4041   -14967.349   -12619.809   -7336.8137     25209.01    87.872764 
   76500    2086.1151   -105.02571    1.8875608   -103.13815   -38065.974    4.4444545    4.4444545    4.4444545   -38065.974   -38137.587   -49226.237   -26834.098   -14549.213   -12197.751    7760.1244    87.792091 
   76600    1607.9521   -104.58776    1.4549088   -103.13285   -15717.743     4.443876     4.443876     4.443876   -15717.743    -32982.16    16837.831     -31008.9   -13064.199   -19175.332    21264.752    87.757813 
   76700    1800.7656    -104.7512    1.6293705   -103.12182   -33766.796     4.442536     4.442536     4.442536   -33766.796    -56088.82   -28192.863   -17018.705   -5028.5673   -3185.7852   -5200.3262    87.678449 
   76800    1666.0126   -104.63331    1.5074432   -103.12587   -589.19515    4.4372658    4.4372658    4.4372658   -589.19515    8979.8184   -15637.229    4889.8253    -15275.08   -11780.473    13038.178    87.366782 
   76900    1892.9483   -104.84495    1.7127794   -103.13217   -45954.751    4.4493488    4.4493488    4.4493488   -45954.751   -62875.207    -29012.06   -45976.987    2499.5042   -11746.909    10287.925    88.082446 
   77000    1599.8194   -104.57453    1.4475502   -103.12697   -30491.819     4.440962     4.440962     4.440962   -30491.819   -45806.098    -39059.59   -6609.7688   -2072.0741     -11578.5     5049.605    87.585287 
   77100    1590.3046    -104.5759    1.4389411   -103.13696    12553.544    4.4241303    4.4241303    4.4241303    12553.544    21763.772     -2140.71    18037.571   -5602.6517   -2100.0783    8527.0833    86.593189 
   77200    1283.4933   -104.32735    1.1613317   -103.16602   -7041.5115    4.4229314    4.4229314    4.4229314   -7041.5115   -35362.563    39375.723   -25137.694     16551.29    5329.7891   -6042.7108    86.522806 
   77300    1447.7996   -104.49482    1.3099995   -103.18482   -8900.9129    4.4276251    4.4276251    4.4276251   -8900.9129   -13318.374    20909.604   -34293.969    1191.8394   -2361.7692    9535.1083    86.798561 
   77400    931.94731   -104.03039   0.84324551   -103.18714    17455.971     4.439389     4.439389     4.439389    17455.971    42114.249   -14897.078    25150.741    41311.929    4552.0762   -161.25479    87.492254 
   77500    1309.4383   -104.35169    1.1848073   -103.16689    3686.7678    4.4286308    4.4286308    4.4286308    3686.7678    4351.4774    26736.855   -20028.029    499.24769    -12903.83    939.25428    86.857723 
   77600    1423.8589   -104.45514    1.2883374   -103.16681   -15573.466    4.4294823    4.4294823    4.4294823   -15573.466   -22934.795   -45030.427    21244.822    34655.955    13688.999    -2857.463     86.90783 
   77700    1575.2501   -104.59131    1.4253194   -103.16599    6072.8926    4.4257203    4.4257203    4.4257203    6072.8926   -8322.5055    862.67323     25678.51    -5751.606    505.87116    9286.1382    86.686586 
   77800    1249.1763   -104.30464     1.130281   -103.17436    3465.1998    4.4154741    4.4154741    4.4154741    3465.1998   -58134.017    19909.208    48620.409    25759.422    2300.3274    1890.0282      86.0859 
   77900    1931.7502   -104.93296    1.7478882   -103.18507   -20567.531    4.4314924    4.4314924    4.4314924   -20567.531   -46875.318   -31647.857    16820.583    1721.7687   -21301.125    6712.7104    87.026199 
   78000    1108.0398   -104.19021    1.0025777   -103.18763    8588.4886    4.4353458    4.4353458    4.4353458    8588.4886   -56737.033    47328.117    35174.382    3996.2066   -2793.8272   -8384.5969    87.253417 
   78100    1927.1194   -104.92547    1.7436982   -103.18177   -38573.216    4.4338067    4.4338067    4.4338067   -38573.216   -69138.542   -55336.707    8755.5998    1945.9297   -3260.2586    11398.316    87.162618 
   78200     1106.426    -104.1844    1.0011175   -103.18328    32870.781    4.4220898    4.4220898    4.4220898    32870.781   -33515.037    48662.573    83464.808   -1202.9091   -4201.3916   -19347.526     86.47343 
   78300     1443.261   -104.49686    1.3058929   -103.19097    -21201.61    4.4286821    4.4286821    4.4286821    -21201.61    -45087.35   -20988.627    2471.1464    6198.0719   -1387.7133    11036.861    86.860742 
   78400    1708.8824   -104.72217    1.5462327   -103.17594   -24002.998    4.4390115    4.4390115    4.4390115   -24002.998   -52735.105   -2636.6537   -16637.236    -2476.532    6670.7792   -14011.152    87.469937 
   78500    1086.1654   -104.14726   0.98278531   -103.16448    23580.812    4.4352765    4.4352765    4.4352765    23580.812   -24099.164    55463.329    39378.272    11206.673    4058.4458   -14952.319    87.249327 
   78600    1450.5794   -104.46292    1.3125147   -103.15041   -9102.5362    4.4272728    4.4272728    4.4272728   -9102.5362   -31493.647    15971.116   -11785.077   -12909.972    5057.2988    3930.6887    86.777844 
   78700    1531.0044   -104.54092     1.385285   -103.15563    15274.809    4.4211904    4.4211904    4.4211904    15274.809   -17838.999    44656.667    19006.758    28135.389    13102.124      396.713    86.420675 
   78800    1163.7053    -104.2372     1.052945   -103.18426    -12896.81    4.4296289    4.4296289    4.4296289    -12896.81   -29589.685   -37170.698    28069.953   -14752.749    3381.1586    22068.631     86.91646 
   78900    1884.6029   -104.89074    1.7052283   -103.18551   -16852.809    4.4247687    4.4247687    4.4247687   -16852.809   -33495.141    15584.736   -32648.021    23532.266   -795.53568   -6516.7408    86.630682 
   79000    1229.5019   -104.30864    1.1124792   -103.19617   -20900.656    4.4421643    4.4421643    4.4421643   -20900.656   -21060.535   -33221.248   -8420.1859   -4934.4432   -1803.9643    15609.314    87.656444 
   79100    696.37371   -103.80687   0.63009357   -103.17678    13302.096    4.4388701    4.4388701    4.4388701    13302.096   -17342.689     47149.11    10099.868   -4062.5409   -7782.5791    31345.654    87.461575 
   79200    1723.3744   -104.70803    1.5593454   -103.14869    10897.095    4.4233258    4.4233258    4.4233258    10897.095   -13976.874    84584.682   -37916.524    26781.742    448.95032   -9889.0801    86.545957 
   79300     1459.353    -104.5037    1.3204532   -103.18325   -27920.984    4.4393507    4.4393507    4.4393507   -27920.984    6640.4489   -24530.572    -65872.83    6695.3172   -1667.6521    3788.3123    87.489988 
   79400    1982.1518   -104.97523    1.7934926   -103.18174    -22381.47     4.445181     4.445181     4.445181    -22381.47   -29103.966     24986.42   -63026.863    6017.4852   -600.18963   -11277.359     87.83515 
   79500     1355.735   -104.40847    1.2266975   -103.18177   -888.25291    4.4252657    4.4252657    4.4252657   -888.25291    27738.797    24394.022   -54797.577   -8355.1049   -5235.9556    3603.4263    86.659874 
   79600    1174.6973   -104.25975    1.0628908   -103.19686    34626.819    4.4187128    4.4187128    4.4187128    34626.819    29280.722    103306.91    -28707.17   -8179.3614     2268.191   -3158.0922    86.275466 
   79700    1673.0547   -104.71746    1.5138151   -103.20365   -3168.3673      4.43617      4.43617      4.43617   -3168.3673    11460.965    23680.545   -44646.612   -11701.383   -2844.8058     2773.143    87.302072 
   79800    927.85943   -104.04885   0.83954672    -103.2093    12667.892    4.4311524    4.4311524    4.4311524    12667.892   -39949.322    130081.38    -52128.38    212.32177    2765.0956    10980.119    87.006172 
   79900    1946.2069   -104.95665    1.7609689   -103.19569   -5793.6834    4.4309786    4.4309786    4.4309786   -5793.6834    4617.0876    26667.831   -48665.969   -10555.253   -13365.747    8306.8728    86.995933 
   80000     1515.825   -104.56902    1.3715504   -103.19747    -30344.26    4.4299854    4.4299854    4.4299854    -30344.26   -37413.403    8377.4934   -61996.871   -3855.6296   -941.04242    1468.9513    86.937447 
   80100    914.06724   -104.03528   0.82706725   -103.20822    17451.673    4.4180039    4.4180039    4.4180039    17451.673   -9252.9656    127845.73   -66237.742   -6746.9608    -8233.052    -7970.196     86.23395 
   80200     1839.596   -104.87623    1.6645052   -103.21172    19856.893    4.4182803    4.4182803    4.4182803    19856.893    21744.348    45990.938   -8164.6082   -8432.4192   -1333.8437    3649.0909    86.250139 
   80300     725.1486   -103.87959   0.65612969   -103.22346   -30661.753    4.4365361    4.4365361    4.4365361   -30661.753    -26582.47   -1765.6698    -63637.12   -6162.7579   -16150.042   -23454.356    87.323686 
   80400    1992.1661   -104.99184    1.8025537   -103.18929   -1682.6091    4.4208864    4.4208864    4.4208864   -1682.6091    1428.9166    26008.768   -32485.511    3237.7077    7384.3464    7414.5185    86.402848 
   80500     1105.978   -104.20127    1.0007121   -103.20056    19120.818    4.4115589    4.4115589    4.4115589    19120.818    36602.821    74455.254   -53695.621   -525.28957   -14328.014    8906.1631    85.857105 
   80600    1594.5056   -104.66334    1.4427422    -103.2206   -16610.542     4.428736     4.428736     4.428736   -16610.542    26519.202   -21896.611   -54454.216    -16829.57   -678.48683   -1030.9853    86.863908 
   80700    1525.0106   -104.58658    1.3798617   -103.20671   -6547.8858    4.4432465    4.4432465    4.4432465   -6547.8858    32262.051   -17419.946   -34485.762    1348.7406   -6532.9248     9019.057    87.720525 
   80800      1307.17   -104.37132    1.1827549   -103.18856   -12597.457     4.423273     4.423273     4.423273   -12597.457    13634.034     7755.439   -59181.843   -7027.4774    3388.9112    5640.8853    86.542859 
   80900    1619.5833   -104.63457     1.465433   -103.16913    20258.265    4.4150049    4.4150049    4.4150049    20258.265    71941.225    12372.521    -23538.95    532.87258   -3028.2793    2174.6244    86.058461 
   81000    1121.2278   -104.20611    1.0145105    -103.1916   -15054.556    4.4212833    4.4212833    4.4212833   -15054.556   -20841.137    21060.817   -45383.347   -10668.562   -794.64744   -6811.7538    86.426122 
   81100    1127.1057   -104.22615     1.019829   -103.20632    30882.357    4.4263736    4.4263736    4.4263736    30882.357    112849.81    28731.702   -48934.437    16800.433    11174.998   -1970.7069    86.724978 
   81200    1671.2372   -104.70671    1.5121706   -103.19454   -9926.5648    4.4380382    4.4380382    4.4380382   -9926.5648    8352.3747    18147.133   -56279.202    28610.426    7350.6082   -10376.201    87.412416 
   81300    1047.9457   -104.13228    0.9482033   -103.18407   -6902.5224    4.4315382    4.4315382    4.4315382   -6902.5224    20437.443    14959.387   -56104.397   -295.28267    22774.895   -12155.609    87.028899 
   81400    1815.7161   -104.80715    1.6428981   -103.16426    2770.6699    4.4330802    4.4330802    4.4330802    2770.6699    2964.5096    30998.002   -25650.502    11102.853    9272.8614   -14341.365    87.119781 
   81500    1192.7788   -104.23704    1.0792513   -103.15779    -10359.38    4.4328191    4.4328191    4.4328191    -10359.38    30972.738   -20180.507    -41870.37   -4197.4329    24610.094   -5960.0792    87.104383 
   81600    1864.2254   -104.83652    1.6867903   -103.14973    -30552.61    4.4396378    4.4396378    4.4396378    -30552.61   -6304.1601   -23227.021   -62126.649    749.23191    4261.3009   -11835.481    87.506963 
   81700    2029.0268   -104.98423    1.8359061   -103.14832   -32415.638    4.4370275    4.4370275    4.4370275   -32415.638    2536.9419   -41870.414    -57913.44   -13436.496    17261.705   -1266.9357    87.352709 
   81800    869.11566   -103.94687   0.78639412   -103.16048    8305.8656    4.4200466    4.4200466    4.4200466    8305.8656    84541.491   -9002.2969   -50621.597    -11151.05    4058.9943   -5900.1097    86.353618 
   81900    1890.6585    -104.8809    1.7107075   -103.17019    -6149.483      4.42006      4.42006      4.42006    -6149.483    18149.507    5066.0908   -41664.046    2495.1363     5849.422    951.36433    86.354402 
   82000    1102.0991   -104.19168   0.99720242   -103.19447   -29434.459    4.4326511    4.4326511    4.4326511   -29434.459   -12148.492   -6880.5358   -69274.348   -6047.4035   -3900.5095    -4084.656    87.094483 
   82100    1632.7451   -104.66564    1.4773421    -103.1883   -9276.9982    4.4187062    4.4187062    4.4187062   -9276.9982    6923.4345    10106.925   -44861.354    5166.2867   -21867.405   -6477.2456    86.275081 
   82200    1002.5987   -104.10486   0.90717241   -103.19768    28075.348    4.4170397    4.4170397    4.4170397    28075.348    76456.101    60926.281   -53156.339   -20919.791   -531.84666   -1010.2644    86.177502 
   82300    1302.5698    -104.3933    1.1785925    -103.2147    73.437156    4.4254576    4.4254576    4.4254576    73.437156    46867.095    20830.743   -67477.526    8640.5678    -26510.18   -6687.0685    86.671152 
   82400    1616.8677   -104.66594    1.4629759   -103.20297    2653.2804    4.4364288    4.4364288    4.4364288    2653.2804    30463.841    31048.421   -53552.421    2805.3283    481.47986    837.61129    87.317348 
   82500    1021.8939   -104.13272   0.92463103   -103.20809   -2876.0032    4.4163363    4.4163363    4.4163363   -2876.0032    58689.989    5119.0482   -72437.046    8058.0772   -27117.908   -5518.0071    86.136338 
   82600    1912.4739   -104.93175    1.7304466    -103.2013    20909.732    4.4039301    4.4039301    4.4039301    20909.732    58990.126    27127.527   -23388.458    -20298.65    10450.319   -1516.9253    85.412462 
   82700    1295.7223    -104.3986    1.1723968    -103.2262   -24180.383    4.4276735    4.4276735    4.4276735   -24180.383     4283.581   -7133.7423   -69690.986   -2419.2661   -23309.089   -12301.522    86.801407 
   82800    1389.5264   -104.46557    1.2572727    -103.2083     -9449.07    4.4362792    4.4362792    4.4362792     -9449.07    69377.746   -25729.973   -71994.983    2220.7295     5192.026     2348.687    87.308516 
   82900    1480.3078   -104.53394    1.3394136   -103.19453   -1535.4353    4.4212397    4.4212397    4.4212397   -1535.4353    28968.759    29041.107   -62616.171    1752.6318   -14272.787   -8441.6741    86.423568 
   83000    1085.4361   -104.18731   0.98212536   -103.20519    16007.405    4.4190144    4.4190144    4.4190144    16007.405     56594.48    49701.098   -58273.362   -23246.462   -1735.5566   -1693.6742    86.293133 
   83100    1523.4041   -104.57867    1.3784081   -103.20026    5439.3966    4.4384115    4.4384115    4.4384115    5439.3966    44214.553    4714.1127   -32610.476   -20813.512   -10798.951   -9499.2416    87.434471 
   83200    868.86591   -103.97776   0.78616814    -103.1916   -30624.584     4.443427     4.443427     4.443427   -30624.584   -50071.904    23668.771   -65470.619   -5611.5895    924.67654    7577.2614    87.731218 
   83300    1821.9948   -104.81713    1.6485792   -103.16855   -3653.9937    4.4076184    4.4076184    4.4076184   -3653.9937    37278.708   -3164.1896     -45076.5    6653.9498    13966.026   -14474.518    85.627245 
   83400    965.44045   -104.07262   0.87355081   -103.19907    21489.281    4.4056438    4.4056438    4.4056438    21489.281    52054.892    64398.018   -51985.067     5004.571    -10960.19   -3742.3986    85.512214 
   83500    1525.3394   -104.58134    1.3801591   -103.20118   -20471.446    4.4314224    4.4314224    4.4314224   -20471.446    2165.7944    2453.1481   -66033.281   -18916.226    30094.001   -6738.8039    87.022078 
   83600    1234.8274   -104.30847    1.1172978   -103.19117   -29699.372    4.4403083    4.4403083    4.4403083   -29699.372    10452.025   -23604.549   -75945.593   -3746.7603   -30566.351    1094.2883    87.546617 
   83700     986.8566   -104.07176   0.89292859   -103.17883    40293.922    4.4040517    4.4040517    4.4040517    40293.922    99222.509    49473.596   -27814.338   -33225.085    22961.743    933.63338    85.419537 
   83800     1685.863   -104.71668    1.5254043   -103.19127    29091.607    4.3978968    4.3978968    4.3978968    29091.607     59726.55      43386.8    -15838.53    2328.2843   -20788.094   -7882.7586    85.061905 
   83900    1348.9311    -104.4445    1.2205412   -103.22396   -42879.436    4.4306404    4.4306404    4.4306404   -42879.436   -41184.645   -16553.798   -70899.866    8808.3929     14959.67   -6026.3847    86.976017 
   84000     1340.773   -104.41274    1.2131596   -103.19958    8840.4785    4.4275859    4.4275859    4.4275859    8840.4785    58321.351    16862.553   -48662.469   -143.52576   -5397.9417   -10103.021    86.796254 
   84100    1442.1083   -104.48384    1.3048499   -103.17899    6563.2284    4.4100314    4.4100314    4.4100314    6563.2284    32639.038    11624.162   -24573.515   -146.02906   -4706.8229    -7562.829    85.767952 
   84200    1396.2483   -104.44603    1.2633548   -103.18268    -17048.89    4.4217102    4.4217102    4.4217102    -17048.89   -9760.2044   -3281.4769   -38104.989    4076.3262    13413.345   -13351.152    86.451157 
   84300    1449.0774   -104.48946    1.3111557   -103.17831    7823.0623    4.4221328    4.4221328    4.4221328    7823.0623    65298.656    2409.6013    -44239.07    6383.5977   -6163.1092    1714.2812    86.475952 
   84400    1312.9708   -104.37366    1.1880035   -103.18566    -7827.655    4.4419836    4.4419836    4.4419836    -7827.655    13510.622    37224.482   -74218.069   -920.71842    15293.627     -7008.33    87.645745 
   84500     1372.399   -104.38458    1.2417754    -103.1428   -16517.643    4.4417999    4.4417999    4.4417999   -16517.643    32119.898   -40185.646    -41487.18     1177.141   -4208.3815   -3748.3742    87.634874 
   84600    1095.0207   -104.11661   0.99079775   -103.12581    53053.814     4.416353     4.416353     4.416353    53053.814     13165.85    110361.73    35633.858    15986.474    13430.431   -6203.4065    86.137316 
   84700    1453.2083   -104.45904    1.3148934   -103.14415    1851.9368    4.4295654    4.4295654    4.4295654    1851.9368    4832.5369    11417.194    -10693.92    9065.1607   -7662.4116   -19178.906    86.912723 
   84800    1320.8281   -104.34901     1.195113    -103.1539    2787.8407     4.437998     4.437998     4.437998    2787.8407   -17882.191    22385.837    3859.8764   -483.32748    7312.7087    578.69387    87.410039 
   84900    1489.0154   -104.49438    1.3472924   -103.14709    4183.5905    4.4462186    4.4462186    4.4462186    4183.5905    28083.549    10024.489   -25557.267    1039.9107    10433.019    -10874.36     87.89667 
   85000    813.32065   -103.88168   0.73590961   -103.14577    -15892.09    4.4353374    4.4353374    4.4353374    -15892.09   -41688.886    23866.111   -29853.495    9967.9668    22979.701   -909.30042    87.252923 
   85100    1591.7529   -104.56896    1.4402515   -103.12871    42353.464    4.4090153    4.4090153    4.4090153    42353.464    34062.209    20610.538    72387.643      4320.17    7950.5992    8635.1791    85.708681 
   85200    967.54508   -104.05878   0.87545512   -103.18333   -7092.1486    4.4332155    4.4332155    4.4332155   -7092.1486   -73508.563    27341.972    24890.145    2426.2166    4137.1146    3744.8199    87.127755 
   85300      1400.93   -104.42942    1.2675909   -103.16183   -1994.9308    4.4438677    4.4438677    4.4438677   -1994.9308   -36265.647    5438.3796    24842.475     13291.12    6343.3968    8276.7839    87.757325 
   85400    1317.6053   -104.34956    1.1921969   -103.15736    13911.322    4.4203763    4.4203763    4.4203763    13911.322    61887.748   -18226.963   -1926.8194   -4000.6552   -2058.6375    350.82017    86.372943 
   85500    1622.3124   -104.63584    1.4679024   -103.16794    6287.1633    4.4235835    4.4235835    4.4235835    6287.1633   -29547.635    51968.927   -3559.8018    22162.339    6201.3743    20638.153    86.561083 
   85600    1257.6218   -104.30759    1.1379226   -103.16967    9342.5697    4.4317702    4.4317702    4.4317702    9342.5697    84377.634   -33321.729   -23028.195   -13949.088    -13639.89   -3440.6747    87.042568 
   85700    1593.3809   -104.61221    1.4417245   -103.17048   -13595.551    4.4305217    4.4305217    4.4305217   -13595.551    26287.153   -24330.587   -42743.218    15966.668    5087.7404    11299.749    86.969023 
   85800    1277.0865    -104.3276    1.1555347   -103.17206    6327.4582    4.4261215    4.4261215    4.4261215    6327.4582    18841.092    8909.7786   -8768.4963   -17767.727    10274.234    15054.153    86.710161 
   85900    1350.2863   -104.40365    1.2217675   -103.18188   -1181.1622    4.4246608    4.4246608    4.4246608   -1181.1622    25568.864   -27342.941   -1769.4088   -5921.6986   -2555.0082    11988.536     86.62434 
   86000     1397.595   -104.44773    1.2645734   -103.18316    -13272.69    4.4280649    4.4280649    4.4280649    -13272.69   -5266.0731   -36761.679    2209.6811   -8318.2778   -190.66876    9164.0793    86.824429 
   86100    1328.4313    -104.3746    1.2019925   -103.17261   -28.074632    4.4275521    4.4275521    4.4275521   -28.074632   -22261.228    5210.0866    16966.918   -13214.993   -233.94658    8567.0097    86.794269 
   86200    1032.9184   -104.10825    0.9346063   -103.17364   -12121.431    4.4310848    4.4310848    4.4310848   -12121.431    32557.787   -36437.537   -32484.543   -6811.3696    524.01544    27372.621    87.002191 
   86300    1618.2812   -104.62808    1.4642548   -103.16383   -5187.7482    4.4132205    4.4132205    4.4132205   -5187.7482   -32659.681    4846.1116    12250.325   -27221.381   -6409.4867    5940.3415    85.954158 
   86400    1337.1128   -104.38934    1.2098477   -103.17949   -2371.4749    4.4235469    4.4235469    4.4235469   -2371.4749    46459.925   -23581.877   -29992.472   -6306.0325    16289.201    7488.8283    86.558935 
   86500     1155.961   -104.24005    1.0459378   -103.19411   -4436.9012    4.4267904    4.4267904    4.4267904   -4436.9012    20890.081   -27172.484   -7028.3006   -31368.162   -250.19524    2521.5251    86.749481 
   86600    1600.9123   -104.63104    1.4485391    -103.1825     9880.913    4.4207879    4.4207879    4.4207879     9880.913    17399.847    10478.864    1764.0282    9670.3455   -3567.3535     4396.298    86.397072 
   86700    1024.3855   -104.11551   0.92688555   -103.18862   -15891.014    4.4230772    4.4230772    4.4230772   -15891.014   -8598.6277   -45670.871    6596.4567   -43448.479    9465.4434    4502.1074    86.531365 
   86800    1758.7552   -104.76491    1.5913586   -103.17355    8165.0327    4.4173006    4.4173006    4.4173006    8165.0327    2905.7614    12708.698    8880.6385    9017.1842   -104.28567   -1327.7388    86.192773 
   86900    1148.4737   -104.22448    1.0391632   -103.18532   -14311.043     4.427686     4.427686     4.427686   -14311.043   -13718.411   -21048.511   -8166.2071   -20686.688    6381.3426    16493.969    86.802143 
   87000    1735.2942   -104.74219    1.5701307   -103.17206   -16949.487    4.4267837    4.4267837    4.4267837   -16949.487   -29198.149   -19746.591   -1903.7211    -14332.47    11682.464   -5032.4326    86.749084 
   87100    1137.0678   -104.20279    1.0288429   -103.17395    21906.396    4.4216286    4.4216286    4.4216286    21906.396    29065.543    23737.179    12916.465    4078.0366   -6355.5019    16426.119    86.446375 
   87200    1673.1772   -104.68915    1.5139259   -103.17523   -17032.113    4.4226584    4.4226584    4.4226584   -17032.113   -26859.997   -15346.185   -8890.1561   -20692.201    17563.795    -5516.724    86.506786 
   87300    1232.8007   -104.30193     1.115464   -103.18646    17598.668    4.4255598    4.4255598    4.4255598    17598.668    38607.141    12784.635    1404.2283    9154.6985   -1431.2942    5875.4724    86.677154 
   87400    1526.8713   -104.57705    1.3815452   -103.19551     7445.357    4.4230652    4.4230652    4.4230652     7445.357    26495.094   -5239.9003    1080.8777   -12442.495    13286.022   -2749.2272    86.530664 
   87500    1178.2109   -104.26509    1.0660699   -103.19902    7634.4551    4.4182918    4.4182918    4.4182918    7634.4551    17309.073   -25904.215    31498.507    12262.781    9290.5527    6976.2089    86.250812 
   87600    1515.3993   -104.56877    1.3711651    -103.1976    3581.1959    4.4217294    4.4217294    4.4217294    3581.1959    18155.283   -3649.8611    -3761.834   -14071.198    11028.687    5315.3254    86.452287 
   87700    1492.4551   -104.53828    1.3504047   -103.18788   -6102.0671    4.4285041    4.4285041    4.4285041   -6102.0671     17293.12   -40325.271    4725.9497    10268.789   -13149.484    5886.5193    86.850267 
   87800    1024.2554   -104.11423   0.92676779   -103.18747   -11523.582     4.429396     4.429396     4.429396   -11523.582    18050.103   -55799.011    3178.1611    -4533.475     23303.26    20367.793    86.902752 
   87900    2037.4509    -105.0162    1.8435284   -103.17267   -4729.0162    4.4196736    4.4196736    4.4196736   -4729.0162   -1500.8305   -36253.377    23567.159     5787.978   -27033.266   -3467.7958    86.331761 
   88000    503.93381   -103.66154    0.4559699   -103.20557    13882.436    4.4272955    4.4272955    4.4272955    13882.436    10845.454   -49611.959    80413.814    1157.0633    19292.368    17273.522     86.77918 
   88100    2123.3592     -105.117      1.92126   -103.19574    -15229.24    4.4322053    4.4322053    4.4322053    -15229.24   -8479.3574   -25808.328   -11400.035    5011.6273   -17729.206    3788.9196    87.068208 
   88200    1020.8611   -104.12502   0.92369656   -103.20133    1212.8209    4.4340633    4.4340633    4.4340633    1212.8209   -10846.506   -69215.356    83700.324     -2471.28    11032.379    19386.423    87.177754 
   88300    1668.2207   -104.70141    1.5094411   -103.19197   -17773.144    4.4336896    4.4336896    4.4336896   -17773.144   -31066.471   -14489.063   -7763.8987    1672.2515    -5218.696   -431.78283    87.155713 
   88400    1838.2859   -104.85522    1.6633197    -103.1919    3562.1729    4.4119811    4.4119811    4.4119811    3562.1729    2338.9436   -36290.632    44638.207   -253.94894   -4378.7759    13148.475    85.881761 
   88500    1206.1719   -104.30661    1.0913696   -103.21524    3612.2954    4.4243765    4.4243765    4.4243765    3612.2954   -17707.247   -20095.332    48639.466   -6803.4759    900.29522    9433.1587    86.607643 
   88600    1517.2688   -104.56618    1.3728567   -103.19333   -3674.9996    4.4423061    4.4423061    4.4423061   -3674.9996   -37209.804   -18836.501    45021.306    842.31484    -1941.698    292.94809    87.664837 
   88700    1291.5267   -104.34266    1.1686005   -103.17406   -26082.407    4.4376621    4.4376621    4.4376621   -26082.407    27896.019   -63125.224   -43018.016   -4648.0663    13086.204    11278.729    87.390194 
   88800    1776.4384   -104.76194    1.6073588   -103.15458    3776.4821    4.4103324    4.4103324    4.4103324    3776.4821   -34243.603     -10123.7    55696.749   -7797.5346   -22445.265   -6710.3058    85.785515 
   88900     1006.919   -104.10218   0.91108146    -103.1911    6495.9201    4.4148066    4.4148066    4.4148066    6495.9201    42420.966   -21882.839   -1050.3666    4698.0396    4231.8728     17013.37    86.046865 
   89000    1885.6048   -104.90288    1.7061349   -103.19674   -28705.121    4.4328969    4.4328969    4.4328969   -28705.121   -26407.179   -43467.409   -16240.773    2797.3737   -8520.6876   -17499.733    87.108971 
   89100    1597.7282   -104.65212    1.4456581   -103.20646    -22799.26    4.4283314    4.4283314    4.4283314    -22799.26   -16837.549   -58072.865     6512.635   -8722.6011   -19579.341    32220.828    86.840104 
   89200    1299.8339   -104.37267     1.176117   -103.19655    35022.092    4.4173228    4.4173228    4.4173228    35022.092    46272.226   -17600.894    76394.944    3680.1077    9284.2788   -2801.2021    86.194073 
   89300    1150.6872   -104.24501    1.0411659   -103.20385   -13749.204    4.4291015    4.4291015    4.4291015   -13749.204    -17280.52   -41813.365    17846.273      5189.35   -14843.365    21317.375    86.885419 
   89400    1648.9157   -104.67019    1.4919736   -103.17821   -4647.0006    4.4197202    4.4197202    4.4197202   -4647.0006    40873.959   -20987.876   -33827.084     -6691.49    6170.9595    4129.3093    86.334488 
   89500    1017.1608   -104.09687   0.92034843   -103.17652    809.63252    4.4262445    4.4262445    4.4262445    809.63252   -9711.1013   -22909.105    35049.104    14587.921   -6411.8197    1791.6933    86.717388 
   89600    1246.5416   -104.30363    1.1278971   -103.17574   -15227.395    4.4297833    4.4297833    4.4297833   -15227.395    -13698.29    7983.4141    -39967.31    8539.6616   -1331.0262    22296.983    86.925549 
   89700    1630.2289   -104.63714    1.4750653   -103.16207   -6669.1236    4.4208009    4.4208009    4.4208009   -6669.1236   -34742.314    22278.511   -7543.5685    6230.9715    7679.3669   -17809.043    86.397835 
   89800    1283.6425   -104.33307    1.1614667    -103.1716   -22171.609    4.4261788    4.4261788    4.4261788   -22171.609   -46625.454    31252.301   -51141.676    7420.8137   -8017.1333    32616.381     86.71353 
   89900    1638.5804   -104.66078     1.482622   -103.17816   -15967.258    4.4360818    4.4360818    4.4360818   -15967.258   -25246.234    -6794.965   -15860.575    12711.496    12174.396   -10999.167    87.296865 
   90000    1456.2902   -104.49877     1.317682   -103.18109   -21651.546    4.4274259    4.4274259    4.4274259   -21651.546    -31743.68   -14413.009   -18797.948    6992.6763   -10565.166    10394.946    86.786844 
   90100    1357.5248   -104.41134     1.228317   -103.18302    20586.897    4.4174372    4.4174372    4.4174372    20586.897   -10721.636    26542.424    45939.904    14065.128    4256.1587     6492.218     86.20077 
   90200    1361.3919    -104.4179     1.231816   -103.18608    14187.996    4.4273241    4.4273241    4.4273241    14187.996   -6857.6969    40738.407    8683.2767    14971.107   -221.91815    -4057.458    86.780861 
   90300    985.13715   -104.07398    0.8913728   -103.18261    16700.552    4.4339891    4.4339891    4.4339891    16700.552    1974.1751   -5739.4287    53866.909    6136.5021    -3244.698     26814.29    87.173374 
   90400    1761.1093   -104.75196    1.5934887   -103.15847    8223.9701    4.4390805    4.4390805    4.4390805    8223.9701     657.2517    29824.349   -5809.6902    21064.417   -112.42714   -18824.033    87.474012 
   90500    704.86605   -103.79568   0.63777761    -103.1579    24611.758    4.4287044    4.4287044    4.4287044    24611.758    76499.413   -15686.383    13022.245    18371.089     24025.96    31328.883    86.862051 
   90600    1604.2362   -104.59982    1.4515466   -103.14827    11131.907    4.4239499    4.4239499    4.4239499    11131.907    61784.064   -8189.9941   -20198.348    11676.971    2123.1519   -9050.3951    86.582598 
   90700     1177.915   -104.23008    1.0658022   -103.16427    11979.602    4.4284111    4.4284111    4.4284111    11979.602    49053.294    5998.2283   -19112.716    3502.0669   -773.72167    31275.126    86.844793 
   90800    1541.8095   -104.54381    1.3950616   -103.14875   -18548.755     4.452055     4.452055     4.452055   -18548.755   -13147.103   -6196.2045   -36302.956     2649.395   -3442.5404   -8319.9654    88.243266 
   90900    1230.5873   -104.25618    1.1134612   -103.14272   -2440.3557    4.4307646    4.4307646    4.4307646   -2440.3557    26469.139    -22636.62   -11153.587   -2920.6394    15290.676    24778.728    86.983332 
   91000    1775.3791    -104.7423    1.6064003    -103.1359    9893.5662     4.413084     4.413084     4.413084    9893.5662   -764.07113    33879.315   -3434.5451    7708.6706    -19209.98   -1728.8057    85.946179 
   91100    1148.0382   -104.20466    1.0387691   -103.16589   -29599.264    4.4392422    4.4392422    4.4392422   -29599.264   -5464.6017   -4759.0723   -78574.119   -5897.6986    2409.0426     26492.66    87.483577 
   91200    1794.6927   -104.76456    1.6238757   -103.14069   -35593.501    4.4441516    4.4441516    4.4441516   -35593.501   -32429.395     -31023.2   -43327.908   -1940.7646    5801.8007    1197.7013    87.774142 
   91300    1373.9548   -104.38513    1.2431832   -103.14195   -20609.872    4.4266325    4.4266325    4.4266325   -20609.872   -16750.445    11466.489   -56545.659   -14537.382   -22997.855    25330.896    86.740194 
   91400    1552.1574   -104.55658    1.4044247   -103.15215   -9475.9112    4.4153193    4.4153193    4.4153193   -9475.9112   -17690.297     14076.54   -24813.977   -4536.4471    12752.713    6824.3526    86.076845 
   91500    1617.3815   -104.64021    1.4634408   -103.17677   -16402.141    4.4147346    4.4147346    4.4147346   -16402.141   -29913.216    22061.517   -41354.725   -5379.3033   -22852.556    23678.182    86.042653 
   91600    1376.5293   -104.44002    1.2455126   -103.19451   -20022.467    4.4251092    4.4251092    4.4251092   -20022.467   -25546.683    2828.1141   -37348.831    5769.8251    5565.3217    8972.4248    86.650681 
   91700    1604.5851    -104.6347    1.4518623   -103.18284   -25500.549    4.4275501    4.4275501    4.4275501   -25500.549   -50560.593    7992.2731   -33933.328    933.53039    -8962.684    5444.6886    86.794152 
   91800    1210.9582   -104.28093    1.0957004   -103.18523    11944.008    4.4132467    4.4132467    4.4132467    11944.008   -6409.4605    39909.524    2331.9617    6245.8764    5091.6922    29347.003    85.955684 
   91900    1737.1949   -104.75283    1.5718504   -103.18098    578.69723    4.4120202    4.4120202    4.4120202    578.69723    -31843.57    5548.8702    28030.792    6885.5264     4100.836    2675.7802    85.884044 
   92000    962.53349   -104.06758   0.87092053   -103.19666   -6492.3328    4.4214728    4.4214728    4.4214728   -6492.3328   -12335.524    48257.503   -55398.976   -7178.8261   -13891.581    32585.447    86.437234 
   92100    2017.3057   -105.00726    1.8253006   -103.18196    -13590.93    4.4268198    4.4268198    4.4268198    -13590.93   -24280.378   -26759.942     10267.53     3275.257    11530.341   -7189.6779    86.751208 
   92200    1145.7233   -104.21725    1.0366745   -103.18057   -17514.775    4.4298516    4.4298516    4.4298516   -17514.775   -25052.398    23996.887   -51488.814   -9288.4973   -4066.4734    17386.109     86.92957 
   92300    1790.3897   -104.77746    1.6199822   -103.15747    -15011.43    4.4249777    4.4249777    4.4249777    -15011.43    -22650.51   -2271.0736   -20112.705     10344.22    9833.9695   -2756.9475    86.642956 
   92400    1524.9949   -104.54255    1.3798475    -103.1627   -14628.055    4.4206487    4.4206487    4.4206487   -14628.055   -20584.933    10967.448   -34266.679    -2484.515   -223.67305    19612.919    86.388913 
   92500    1263.2012   -104.31232     1.142971   -103.16935   -20329.408    4.4289353    4.4289353    4.4289353   -20329.408   -22195.377   -14393.096   -24399.751    20744.781    6861.9433    21602.283    86.875639 
   92600    1579.1829   -104.59453    1.4288779   -103.16565   -1031.7409    4.4169996    4.4169996    4.4169996   -1031.7409    22660.994    1786.3592   -27542.576    5864.5386   -3144.5721    12782.826    86.175154 
   92700    1383.3537   -104.42725    1.2516875   -103.17556    134.59289    4.4152179    4.4152179    4.4152179    134.59289    29193.904   -34605.318    5815.1936    15038.594    1953.5217    18581.924    86.070913 
   92800    1337.2036   -104.38048    1.2099299   -103.17055    11399.808    4.4177924    4.4177924    4.4177924    11399.808    65404.651    15256.313    -46461.54    4987.6239    4969.8173   -2227.2934    86.221565 
   92900      1097.72   -104.17328    0.9932401   -103.18004    8021.5173    4.4252181    4.4252181    4.4252181    8021.5173    42191.134    -31161.38    13034.798    -60.80873   -3658.7077    23663.405    86.657077 
   93000    1835.6043   -104.82305    1.6608934   -103.16216   -23897.772     4.433019     4.433019     4.433019   -23897.772    1604.7946   -46462.902   -26835.208    16480.345    11551.336    3095.2724    87.116172 
   93100    665.78047   -103.77284   0.60241216   -103.17043    22213.104    4.4111469    4.4111469    4.4111469    22213.104    38244.183    9475.1335    18919.995   -3641.6799    -28761.11     33022.24    85.833054 
   93200     1995.192   -104.98263    1.8052916   -103.17734    1772.2844    4.4036856    4.4036856    4.4036856    1772.2844    12577.226   -14619.257    7358.8839    1806.7879    14093.504   -8620.7616    85.398241 
   93300    1146.3942   -104.23825    1.0372815   -103.20097   -12784.135    4.4210972    4.4210972    4.4210972   -12784.135   -9621.4053   -7702.4716   -21028.529   -1534.8522   -21387.909    20697.248    86.415208 
   93400    1776.2614   -104.78345    1.6071986   -103.17625   -35454.915    4.4310337    4.4310337    4.4310337   -35454.915   -39349.682   -28618.733   -38396.331    13112.146   -1866.7467    6471.3552    86.999177 
   93500    1338.6331   -104.37781    1.2112233   -103.16659    2777.0949    4.4136253    4.4136253    4.4136253    2777.0949   -28009.524    10266.731    26074.078    7694.3232   -12320.799    13601.225    85.977808 
   93600    1551.9924   -104.57475    1.4042754   -103.17047   -8204.8967    4.4046426    4.4046426    4.4046426   -8204.8967    -10057.06    23907.079   -38464.709   -7590.3759   -10630.647    6360.4159    85.453927 
   93700     1431.814   -104.48952    1.2955354   -103.19398   -24346.156    4.4155206    4.4155206    4.4155206   -24346.156   -33787.604   -41035.081    1784.2178    12451.516   -1677.1168    656.49787     86.08862 
   93800    1649.4374    -104.6728    1.4924456   -103.18036    -30901.04    4.4266685    4.4266685    4.4266685    -30901.04   -38677.298   -6520.1063   -47505.717   -9878.9846    -19623.68    20432.413    86.742312 
   93900    1458.2139   -104.48654    1.3194226   -103.16711   -22351.109    4.4191452    4.4191452    4.4191452   -22351.109   -25424.861   -17860.483   -23767.984    943.67462    6724.9984   -17000.684    86.300797 
   94000    1367.3485   -104.41147    1.2372057   -103.17426   -16796.455    4.4064656    4.4064656    4.4064656   -16796.455   -40474.481    27453.726   -37368.608   -6089.1652   -32984.807    42337.743    85.560075 
   94100    1594.6854    -104.6263    1.4429048    -103.1834    25108.302    4.4008415    4.4008415    4.4008415    25108.302     1259.585     39480.28    34585.039   -12141.395    14336.781   -14931.872    85.232883 
   94200    1210.0402   -104.31383    1.0948698   -103.21896   -28399.881    4.4265326    4.4265326    4.4265326   -28399.881    -44524.45   -9766.4779   -30908.715    6121.8648   -29628.584    17145.043    86.734322 
   94300    1580.5699   -104.62752    1.4301329   -103.19739    -1276.627    4.4297723    4.4297723    4.4297723    -1276.627   -26227.439    37109.995   -14712.438   -12468.242    6594.3872    -9018.819      86.9249 
   94400    1277.2152   -104.34791    1.1556512   -103.19226   -9601.2885    4.4230941    4.4230941    4.4230941   -9601.2885   -19059.238   -8079.4646   -1665.1625    20615.664   -8601.7623    13759.643    86.532355 
   94500    1523.6103   -104.55673    1.3785946   -103.17813    9730.5074    4.4158516    4.4158516    4.4158516    9730.5074    26825.026    32722.394   -30355.898   -10088.119    2196.4376   -11535.706    86.107983 
   94600    1178.2246   -104.26051    1.0660824   -103.19443    1484.9677    4.4187762    4.4187762    4.4187762    1484.9677    9015.5652   -23719.847    19159.185    13326.107   -11621.377    9284.3427    86.279182 
   94700    1468.6202   -104.52269    1.3288384   -103.19385   -740.23784    4.4286429    4.4286429    4.4286429   -740.23784   -8704.0941    -11881.28    18364.661    -1310.083   -13849.046   -15944.512    86.858434 
   94800    1456.4035   -104.50611    1.3177845   -103.18832   -13421.164    4.4247023    4.4247023    4.4247023   -13421.164   -1270.5318   -20610.666   -18382.294    9428.5246    4808.0974    11200.899    86.626779 
   94900    1558.6483   -104.59296    1.4102977   -103.18267    4461.7942    4.4159925    4.4159925    4.4159925    4461.7942    8366.1944    -21206.84    26226.028    4479.7934   -10307.676    5617.7566    86.116225 
   95000    1217.5962   -104.30113    1.1017066   -103.19943   -6556.4229    4.4255304    4.4255304    4.4255304   -6556.4229   -2588.1142   -9431.2535    -7649.901   -22902.687    5816.7178    3536.5112    86.675426 
   95100    1852.9783    -104.8565    1.6766137   -103.17989   -21401.262    4.4235374    4.4235374    4.4235374   -21401.262   -1925.5604   -30315.808   -31962.417    16200.836   -8927.7359    8839.9422     86.55838 
   95200     1203.757   -104.26664    1.0891846   -103.17746      5166.68    4.4125822    4.4125822    4.4125822      5166.68    8165.1802   -5094.1115    12428.971   -26780.629    8624.1695    6.4912911    85.916869 
   95300    1448.5081   -104.50402    1.3106405   -103.19338   -26820.437    4.4202841    4.4202841    4.4202841   -26820.437   -33481.751   -46844.567   -134.99177    25465.543    10798.683    2202.6254    86.367542 
   95400    1456.4375   -104.50314    1.3178152   -103.18532    8634.8513    4.4261179    4.4261179    4.4261179    8634.8513    52550.346    1437.6063   -28083.398   -4186.6259      8183.52   -1080.6942    86.709952 
   95500    957.77231   -104.06323   0.86661252   -103.19662   -23012.121    4.4312917    4.4312917    4.4312917   -23012.121   -4391.3624   -64128.607   -516.39499   -3307.9614    15819.634    6219.1947     87.01438 
   95600    1877.8636   -104.87208    1.6991305   -103.17295   -7301.0338    4.4274778    4.4274778    4.4274778   -7301.0338   -6915.9415   -11574.314   -3412.8455    6145.7937   -15872.999   -4511.8569    86.789896 
   95700    883.68411   -103.97678   0.79957595   -103.17721    19319.028    4.4154298    4.4154298    4.4154298    19319.028    35087.358   -16632.486    39502.212    1494.5784    13065.644   -6719.1543    86.083312 
   95800    1837.3359   -104.84808    1.6624601   -103.18562   -13744.742    4.4214747    4.4214747    4.4214747   -13744.742    1139.7874   -37051.936   -5322.0776    10052.687   -3585.9077   -4679.2032    86.437346 
   95900     1240.586   -104.31284    1.1225082   -103.19033     6525.539    4.4331759    4.4331759    4.4331759     6525.539    29400.046   -25640.506    15817.078   -12007.957    5272.4636   -6714.5323    87.125421 
   96000    1115.4199    -104.1945    1.0092554   -103.18525    5178.6982    4.4245197    4.4245197    4.4245197    5178.6982    14624.465    1903.4961   -991.86701    18413.494      11242.5    -10023.66    86.616058 
   96100    1811.1285   -104.81373    1.6387471   -103.17498   -7820.9769    4.4284681    4.4284681    4.4284681   -7820.9769   -13465.453    -7507.064   -2490.4141    -15574.44    1335.0387    272.03817    86.848146 
   96200     1037.223   -104.12528   0.93850113   -103.18678   -4142.7666    4.4158651    4.4158651    4.4158651   -4142.7666    14986.754    -40994.07    13579.017    -4812.484    13311.846    1673.6394    86.108772 
   96300    1516.0966   -104.56151     1.371796   -103.18971     23096.53    4.4204568    4.4204568    4.4204568     23096.53    13747.064    43040.995    12501.531   -1167.1267   -14893.246   -5120.7545    86.377665 
   96400    1078.3637   -104.17354    0.9757261   -103.19782     4966.745    4.4296331    4.4296331    4.4296331     4966.745    41495.685    -32505.74    5910.2898    2163.5581   -7186.0108    5843.3968    86.916707 
   96500    1240.6633   -104.32048    1.1225782    -103.1979    4041.9853    4.4219759    4.4219759    4.4219759    4041.9853   -4509.2766     2668.876    13966.357    5988.7754    2708.0435   -13963.101    86.466747 
   96600    1428.0207   -104.48148    1.2921031   -103.18938    23035.778    4.4198102    4.4198102    4.4198102    23035.778   -12637.683    56801.764    24943.253   -7219.7699   -12265.531   -20157.628    86.339762 
   96700    872.23591   -103.97684   0.78921738   -103.18762    2457.7258    4.4314654    4.4314654    4.4314654    2457.7258    1109.6407   -7842.4929     14106.03    13235.209    1283.5096   -15624.541    87.024611 
   96800    1243.3686   -104.28878    1.1250261   -103.16376    30161.685    4.4325877    4.4325877    4.4325877    30161.685    18569.733     767.5886    71147.734   -6212.1051   -9949.5788   -17744.162    87.090745 
   96900    1220.2551   -104.26557    1.1041124   -103.16145    9180.5778    4.4349995    4.4349995    4.4349995    9180.5778    4492.2643    1477.9948    21571.474    24273.196    14456.581   -13278.644    87.232984 
   97000    933.08774   -104.00373   0.84427739   -103.15945    24910.147     4.421732     4.421732     4.421732    24910.147    29479.384    38026.443    7224.6144    11222.349   -11441.286   -21331.846     86.45244 
   97100     1718.608   -104.72066    1.5550326   -103.16562    8466.7791     4.416039     4.416039     4.416039    8466.7791    12286.957   -7961.8958    21075.275     11892.91    9257.6236   -8486.9129    86.118945 
   97200    1131.9414    -104.2172    1.0242044   -103.19299    2610.2402    4.4293129    4.4293129    4.4293129    2610.2402    25240.281    25410.025   -42819.586   -1691.0036   -27996.958   -6728.8885    86.897862 
   97300    1307.9128   -104.35842     1.183427     -103.175   -3748.9579    4.4353206    4.4353206    4.4353206   -3748.9579   -22685.801    25605.386   -14166.458   -2929.4121   -2585.2896   -16250.153    87.251933 
   97400    1578.7591   -104.58618    1.4284944   -103.15768   -451.94457    4.4210978    4.4210978    4.4210978   -451.94457    -30849.71    39294.893   -9801.0165   -1613.6021   -16979.969    7144.3672    86.415244 
   97500    1448.1665    -104.4636    1.3103315   -103.15327   -2748.3885    4.4248269    4.4248269    4.4248269   -2748.3885   -10567.973    35591.603   -33268.796   -14233.733   -17080.838      5735.16    86.634097 
   97600    1580.3591   -104.58053    1.4299421   -103.15059   -26477.796    4.4364667    4.4364667    4.4364667   -26477.796   -50402.496   -29571.029    540.13649    5723.4641   -1649.4613    6950.4967    87.319586 
   97700    1747.7496   -104.73073    1.5814006   -103.14933       -23490    4.4368113    4.4368113    4.4368113       -23490   -64454.692   -4302.5971   -1712.7102   -11973.544   -23588.487    2350.9923    87.339938 
   97800    1345.7253   -104.37008    1.2176405   -103.15244    -8407.598    4.4297855    4.4297855    4.4297855    -8407.598   -29229.199    1902.7918    2103.6131    8293.4074   -2441.8979   -2299.5444    86.925677 
   97900    1479.9952   -104.50762    1.3391307   -103.16849    9216.5151    4.4209919    4.4209919    4.4209919    9216.5151   -41124.221     103489.7   -34715.936    3996.3981       -23353    914.17655    86.409033 
   98000    923.92503   -104.03345   0.83598678   -103.19747    17367.717    4.4303254    4.4303254    4.4303254    17367.717    2911.0816    50780.426   -1588.3584    713.30166    2875.6489    1646.2688    86.957468 
   98100    1339.3187   -104.40381    1.2118437   -103.19197   -5064.5713    4.4373367    4.4373367    4.4373367   -5064.5713   -16363.001    20192.609   -19023.323   -9343.0438   -17339.955   -1406.1031     87.37097 
   98200    1714.2974   -104.73317    1.5511323   -103.18204   -22691.354    4.4328768    4.4328768    4.4328768   -22691.354   -26455.396   -40950.638   -668.02732    12619.745    98.160644   -11233.729    87.107789 
   98300    1214.0597   -104.27816    1.0985067   -103.17966     14805.36    4.4260205    4.4260205    4.4260205     14805.36    -31230.43     34481.04    41165.471   -1664.6204   -11952.451    4258.7546    86.704223 
   98400    1323.7989   -104.36583    1.1978011   -103.16802    -3300.213    4.4363998    4.4363998    4.4363998    -3300.213   -22875.086    34972.454   -21998.007    4191.0654    12185.219   -16762.588    87.315636 
   98500    1019.6027   -104.09396   0.92255794   -103.17141    21460.279    4.4310612    4.4310612    4.4310612    21460.279   -24474.227    64567.932    24287.133    27352.871     586.5012    21454.159      87.0008 
   98600    1397.5225   -104.42959    1.2645077   -103.16509    7075.2866    4.4373198    4.4373198    4.4373198    7075.2866   -14311.301    17926.284    17610.877    9187.9258   -2293.7174    17531.013    87.369972 
   98700    1242.5419   -104.27836     1.124278   -103.15408   -8625.6623    4.4527673    4.4527673    4.4527673   -8625.6623   -20920.246   -3312.4507   -1644.2904    12980.317   -16841.328    4638.5605    88.285624 
   98800    1248.0428   -104.25676    1.1292553    -103.1275   -13486.474    4.4507794    4.4507794    4.4507794   -13486.474    22731.841    -35887.41   -27303.852    3330.1472    6972.3313   -4892.2596    88.167434 
   98900    1212.4991   -104.21421    1.0970946   -103.11712     17794.73    4.4302625    4.4302625    4.4302625     17794.73    69330.598   -609.23924   -15337.168    8904.7364   -17434.517    5383.1402    86.953762 
   99000     1122.569   -104.15431     1.015724   -103.13858    6898.1373    4.4236583    4.4236583    4.4236583    6898.1373    38712.056    33322.977   -51340.621    17596.966    24155.415    9638.1203    86.565473 
   99100    1138.3974   -104.19651    1.0300459   -103.16646    7254.2217    4.4352767    4.4352767    4.4352767    7254.2217    45945.237   -11451.632    -12730.94   -4586.5179    18336.285   -15502.814    87.249339 
   99200    825.83581   -103.91533    0.7472336    -103.1681    30361.093    4.4386532    4.4386532    4.4386532    30361.093    24474.199    37485.332    29123.747   -1280.1011    27707.262   -13205.122    87.448756 
   99300     1592.828   -104.59388    1.4412243   -103.15266   -4401.2937    4.4505091    4.4505091    4.4505091   -4401.2937   -18472.348     1718.892    3549.5753    2044.2962    15043.738    1689.0995    88.151371 
   99400    1014.1457   -104.05909   0.91762031   -103.14147   -4881.7128    4.4427571    4.4427571    4.4427571   -4881.7128   -8332.7958   -2971.6275    -3340.715    6198.0059     11788.51     13474.94    87.691541 
   99500    1522.1975   -104.51615    1.3773163   -103.13883    11123.799    4.4076801    4.4076801    4.4076801    11123.799     1938.125    11521.017    19912.256    3063.0324    13752.882   -4693.4502    85.630838 
   99600    1642.8967   -104.66337    1.4865274   -103.17684    11324.151    4.4104309    4.4104309    4.4104309    11324.151   -14842.135    42662.859    6151.7285   -5905.0179   -3252.6186    3670.2192    85.791266 
   99700    1096.1306   -104.19258   0.99180197   -103.20078   -9689.1513    4.4413828    4.4413828    4.4413828   -9689.1513   -13696.159    3675.7742   -19047.069   -1712.5476   -2835.0117     5749.035    87.610188 
   99800    1777.0311   -104.77382    1.6078951   -103.16593   -25672.888    4.4481104    4.4481104    4.4481104   -25672.888   -63894.601     1303.836   -14427.898    -27002.45   -1098.7713    4096.6462    88.008916 
   99900      1501.21   -104.51256    1.3583264   -103.15423   -20856.696    4.4269167    4.4269167    4.4269167   -20856.696   -41250.894    33969.296    -55288.49   -13261.654    3291.7728    11994.263    86.756904 
  100000    2006.1555   -104.96847    1.8152116   -103.15326    1847.7596    4.4200019    4.4200019    4.4200019    1847.7596   -18318.399    27765.618   -3903.9401   -17662.111   -9854.7684    2711.1586    86.350998 
Loop time of 21.3 on 1 procs for 100000 steps with 8 atoms

Pair  time (%) = 6.27691 (29.4691)
Kspce time (%) = 5.35767 (25.1534)
Neigh time (%) = 0.0605679 (0.284356)
Comm  time (%) = 0.826301 (3.87935)
Outpt time (%) = 0.0256002 (0.120189)
Other time (%) = 8.75295 (41.0937)

Nlocal:    8 ave 8 max 8 min
Histogram: 1 0 0 0 0 0 0 0 0 0
Nghost:    1612 ave 1612 max 1612 min
Histogram: 1 0 0 0 0 0 0 0 0 0
Neighs:    2019 ave 2019 max 2019 min
Histogram: 1 0 0 0 0 0 0 0 0 0

Total # of neighbors = 2019
Ave neighs/atom = 252.375
Neighbor list builds = 876
Dangerous builds = 0
unfix 20
unfix 21
print "seeds:989050"
seeds:989050
