LAMMPS (16 Mar 2018)
# ---- initialize simulations
clear
units metal
dimension 3
boundary p p p
atom_style charge
atom_modify map array
# ---- create atoms
read_data /home/manuelesp/repos/pypospack/dev/MgO_iterative_sampler/rank_6/MgO_NaCl_fr_a.lmps_min_pos/lammps.structure
  triclinic box = (0 0 0) to (13.3849 13.3849 13.3849) with tilt (0 0 0)
  1 by 1 by 1 MPI processor grid
  reading atoms ...
  216 atoms
# ---- define interatomic potential
include potential.mod
mass 1 24.305
mass 2 15.999

group Mg type 1
108 atoms in group Mg
group O type 2
108 atoms in group O

set group Mg charge 1.7021668946670072
  108 settings made for charge
set group O charge -1.7021668946670072
  108 settings made for charge

variable R_cut equal 10.0

pair_style buck/coul/long ${R_cut}
pair_style buck/coul/long 10
pair_coeff 1 1 0.0 0.5 0.0 ${R_cut}
pair_coeff 1 1 0.0 0.5 0.0 10
pair_coeff 1 2 916.5060146451578 0.3165879285797405 0.0 ${R_cut}
pair_coeff 1 2 916.5060146451578 0.3165879285797405 0.0 10
pair_coeff 2 2 19497.471952374297 0.16852015749762614 35.9670850530772 ${R_cut}
pair_coeff 2 2 19497.471952374297 0.16852015749762614 35.9670850530772 10

kspace_style pppm 1.0e-5

neighbor 1.0 bin
neigh_modify every 1 delay 0 check yes
# ---- define settings
compute eng all pe/atom
compute eatoms all reduce sum c_eng

# ---- run minimization
reset_timestep 0
thermo 1
thermo_style custom step pe lx ly lz xy xz yz press pxx pyy pzz pxy pxz pyz c_eatoms
min_style cg
minimize 1e-20 1e-20 1000 100000
PPPM initialization ...
  using 12-bit tables for long-range coulomb (../kspace.cpp:321)
  G vector (1/distance) = 0.342001
  grid = 20 20 20
  stencil order = 5
  estimated absolute RMS force accuracy = 9.25612e-05
  estimated relative force accuracy = 6.42802e-06
  using double precision FFTs
  3d grid and FFT values/proc = 19683 8000
Neighbor list info ...
  update every 1 steps, delay 0 steps, check yes
  max neighbors/atom: 2000, page size: 100000
  master list distance cutoff = 11
  ghost atom cutoff = 11
  binsize = 5.5, bins = 3 3 3
  1 neighbor lists, perpetual/occasional/extra = 1 0 0
  (1) pair buck/coul/long, perpetual
      attributes: half, newton on
      pair build: half/bin/newton/tri
      stencil: half/bin/3d/newton/tri
      bin: standard
Per MPI rank memory allocation (min/avg/max) = 7.198 | 7.198 | 7.198 Mbytes
Step PotEng Lx Ly Lz Xy Xz Yz Press Pxx Pyy Pzz Pxy Pxz Pyz c_eatoms 
       0   -3010.2519      13.3849      13.3849      13.3849            0            0            0    8031.8553    8031.8553    8031.8553    8031.8553   -1001.6328   -1001.6328   -1001.6328   -3010.2519 
       1   -3024.2968      13.3849      13.3849      13.3849            0            0            0    10014.472    10014.472    10014.472    10014.472    237.62901    237.62901    237.62901   -3024.2968 
       2    -3027.091      13.3849      13.3849      13.3849            0            0            0    13887.751    13887.751    13887.751    13887.751    205.99588    205.99588    205.99588    -3027.091 
       3   -3027.9476      13.3849      13.3849      13.3849            0            0            0    12693.403    12693.403    12693.403    12693.403   -229.28114   -229.28114   -229.28114   -3027.9476 
       4   -3028.2949      13.3849      13.3849      13.3849            0            0            0    13401.034    13401.034    13401.034    13401.034   -230.52532   -230.52532   -230.52532   -3028.2949 
       5   -3028.4023      13.3849      13.3849      13.3849            0            0            0    13684.511    13684.511    13684.511    13684.511   -209.32202   -209.32202   -209.32202   -3028.4023 
       6    -3028.445      13.3849      13.3849      13.3849            0            0            0    13633.922    13633.922    13633.922    13633.922   -195.22741   -195.22741   -195.22741    -3028.445 
       7   -3028.4595      13.3849      13.3849      13.3849            0            0            0    13682.946    13682.946    13682.946    13682.946   -211.23239   -211.23239   -211.23239   -3028.4595 
       8   -3028.4666      13.3849      13.3849      13.3849            0            0            0    13648.861    13648.861    13648.861    13648.861   -235.99456   -235.99456   -235.99456   -3028.4666 
       9   -3028.4696      13.3849      13.3849      13.3849            0            0            0    13732.702    13732.702    13732.702    13732.702    -228.5986    -228.5986    -228.5986   -3028.4696 
      10   -3028.4707      13.3849      13.3849      13.3849            0            0            0    13723.877    13723.877    13723.877    13723.877    -223.5361    -223.5361    -223.5361   -3028.4707 
      11   -3028.4709      13.3849      13.3849      13.3849            0            0            0    13742.058    13742.058    13742.058    13742.058    -222.3671    -222.3671    -222.3671   -3028.4709 
      12   -3028.4713      13.3849      13.3849      13.3849            0            0            0     13734.79     13734.79     13734.79     13734.79   -222.67502   -222.67502   -222.67502   -3028.4713 
      13   -3028.4715      13.3849      13.3849      13.3849            0            0            0    13735.615    13735.615    13735.615    13735.615   -220.57998   -220.57998   -220.57998   -3028.4715 
      14   -3028.4715      13.3849      13.3849      13.3849            0            0            0    13735.615    13735.615    13735.615    13735.615   -220.57998   -220.57998   -220.57998   -3028.4715 
Loop time of 0.550347 on 1 procs for 14 steps with 216 atoms

70.7% CPU use with 1 MPI tasks x no OpenMP threads

Minimization stats:
  Stopping criterion = linesearch alpha is zero
  Energy initial, next-to-last, final = 
        -3010.25188648     -3028.47149302     -3028.47149302
  Force two-norm initial, final = 36.4118 0.0304699
  Force max component initial, final = 6.3251 0.0032098
  Final line search alpha, max atom move = 7.62939e-06 2.44888e-08
  Iterations, force evaluations = 14 60

MPI task timing breakdown:
Section |  min time  |  avg time  |  max time  |%varavg| %total
---------------------------------------------------------------
Pair    | 0.36097    | 0.36097    | 0.36097    |   0.0 | 65.59
Kspace  | 0.17998    | 0.17998    | 0.17998    |   0.0 | 32.70
Neigh   | 0.0027909  | 0.0027909  | 0.0027909  |   0.0 |  0.51
Comm    | 0.0011017  | 0.0011017  | 0.0011017  |   0.0 |  0.20
Output  | 0.005029   | 0.005029   | 0.005029   |   0.0 |  0.91
Modify  | 0          | 0          | 0          |   0.0 |  0.00
Other   |            | 0.0004728  |            |       |  0.09

Nlocal:    216 ave 216 max 216 min
Histogram: 1 0 0 0 0 0 0 0 0 0
Nghost:    3159 ave 3159 max 3159 min
Histogram: 1 0 0 0 0 0 0 0 0 0
Neighs:    52150 ave 52150 max 52150 min
Histogram: 1 0 0 0 0 0 0 0 0 0

Total # of neighbors = 52150
Ave neighs/atom = 241.435
Neighbor list builds = 1
Dangerous builds = 0

# ---- define output variables ----
variable natoms equal "count(all)"
variable tot_energy equal "c_eatoms"
variable a11 equal "xhi-xlo"
variable a22 equal "yhi-ylo"
variable a33 equal "zhi-zlo"
variable tilt_xy equal "xy"
variable tilt_xz equal "xz"
variable tilt_yz equal "yz"
variable tot_press equal "press"
variable press_xx equal "pxx"
variable press_yy equal "pyy"
variable press_zz equal "pzz"
variable press_xy equal "pxy"
variable press_xz equal "pxz"
variable press_yz equal "pyz"

# ---- output ----
print "pypospack:output_section:begin"
pypospack:output_section:begin
print "tot_energy = ${tot_energy}"
tot_energy = -3028.47149302412
print "num_atoms = ${natoms}"
num_atoms = 216
print "a11 = ${a11}"
a11 = 13.3849
print "a22 = ${a22}"
a22 = 13.3849
print "a33 = ${a33}"
a33 = 13.3849
print "a12 = ${tilt_xy}"
a12 = 0
print "a13 = ${tilt_xz}"
a13 = 0
print "a23 = ${tilt_yz}"
a23 = 0
print "tot_press = ${tot_press}"
tot_press = 13735.6153887318
print "pxx = ${press_xx}"
pxx = 13735.6153887303
print "pyy = ${press_yy}"
pyy = 13735.6153887374
print "pzz = ${press_zz}"
pzz = 13735.6153887277
print "pxy = ${press_xy}"
pxy = -220.579976752961
print "pxz = ${press_xz}"
pxz = -220.579976749917
print "pyz = ${press_yz}"
pyz = -220.579976749777
print "pypospack:output_section:done"
pypospack:output_section:done
print "pypospack:lammps_sim:done"
pypospack:lammps_sim:done
Total wall time: 0:00:00
