LAMMPS (10 Feb 2015)
# ---- initialize simulations
clear
units metal
dimension 3
boundary p p p
atom_style charge
atom_modify map array
# ---- create atoms
read_data /Users/eugeneragasa/pyflamestk_git/pypospack/tests/tests_integration/workflow/WorkflowLammpsThermalExpansion/param_4537/MgO_NaCl_unit.npt.T500/lammps.structure
  triclinic box = (0 0 0) to (4.2565 4.2565 4.2565) with tilt (0 0 0)
  1 by 1 by 1 MPI processor grid
  reading atoms ...
  8 atoms
# ---- define interatomic potential
include potential.mod
mass 1 24.305
mass 2 15.999

group Mg type 1
4 atoms in group Mg
group O type 2
4 atoms in group O

set group Mg charge 1.68595133453
  4 settings made for charge
set group O charge -1.68595133453
  4 settings made for charge

variable R_cut equal 10.0

pair_style buck/coul/long ${R_cut}
pair_style buck/coul/long 10
pair_coeff 1 1 0.0 0.5 0.0 ${R_cut}
pair_coeff 1 1 0.0 0.5 0.0 10
pair_coeff 1 2 1257.74769115 0.28905643469 0.0 ${R_cut}
pair_coeff 1 2 1257.74769115 0.28905643469 0.0 10
pair_coeff 2 2 3064.42109336 0.236064465148 18.7313535189 ${R_cut}
pair_coeff 2 2 3064.42109336 0.236064465148 18.7313535189 10

kspace_style pppm 1.0e-5

neighbor 1.0 bin
neigh_modify every 1 delay 0 check yes
# ---- define settings
compute eng all pe/atom
compute eatoms all reduce sum c_eng
# ---- run minimization
reset_timestep 0
fix 1 all box/relax iso 0.0 vmax 0.001
thermo 10
thermo_style custom step pe lx ly lz xy xz yz press pxx pyy pzz pxy pxz pyz c_eatoms
min_style cg
minimize 1e-25 1e-25 5000 10000
PPPM initialization ...
  G vector (1/distance) = 0.353047
  grid = 8 8 8
  stencil order = 5
  estimated absolute RMS force accuracy = 4.05219e-05
  estimated relative force accuracy = 2.81409e-06
  using double precision FFTs
  3d grid and FFT values/proc = 3375 512
Neighbor list info ...
  1 neighbor list requests
  update every 1 steps, delay 0 steps, check yes
  master list distance cutoff = 11
Memory usage per processor = 4.06549 Mbytes
Step PotEng Lx Ly Lz Xy Xz Yz Press Pxx Pyy Pzz Pxy Pxz Pyz eatoms 
       0   -115.66496       4.2565       4.2565       4.2565            0            0            0    45758.215    45758.215    45758.215    45758.215 1.7170796e-11 2.2312869e-10 1.3064853e-10   -115.66496 
      10   -115.69248    4.2933032    4.2933032    4.2933032            0            0            0   -6.7922673   -6.7922673   -6.7922673   -6.7922673 -6.3857142e-11 -7.0573166e-11 -5.8083176e-11   -115.69248 
      13    -115.6925     4.293297     4.293297     4.293297            0            0            0   0.20218487   0.20218487   0.20218487   0.20218487 1.6450748e-10 -9.163684e-11 -3.6202501e-11    -115.6925 
Loop time of 0.00664902 on 1 procs for 13 steps with 8 atoms

Minimization stats:
  Stopping criterion = linesearch alpha is zero
  Energy initial, next-to-last, final = 
        -115.664963059     -115.692495365     -115.692495365
  Force two-norm initial, final = 6.60751 4.45929e-05
  Force max component initial, final = 6.60751 2.97026e-05
  Final line search alpha, max atom move = 0.5 1.48513e-05
  Iterations, force evaluations = 13 19

Pair  time (%) = 0.00188303 (28.3204)
Kspce time (%) = 0.0011096 (16.6882)
Neigh time (%) = 0 (0)
Comm  time (%) = 0.000204802 (3.08018)
Outpt time (%) = 1.19209e-05 (0.179289)
Other time (%) = 0.00343966 (51.7319)

Nlocal:    8 ave 8 max 8 min
Histogram: 1 0 0 0 0 0 0 0 0 0
Nghost:    2189 ave 2189 max 2189 min
Histogram: 1 0 0 0 0 0 0 0 0 0
Neighs:    2344 ave 2344 max 2344 min
Histogram: 1 0 0 0 0 0 0 0 0 0

Total # of neighbors = 2344
Ave neighs/atom = 293
Neighbor list builds = 0
Dangerous builds = 0
unfix 1
# ---- define output variables ----
variable natoms equal "count(all)"
variable tot_energy equal "c_eatoms"
variable length_x equal "lx"
variable length_y equal "ly"
variable length_z equal "lz"
variable tilt_xy equal "xy"
variable tilt_xz equal "xz"
variable tilt_yz equal "yz"
variable tot_press equal "press"
variable press_xx equal "pxx"
variable press_yy equal "pyy"
variable press_zz equal "pzz"
variable press_xy equal "pxy"
variable press_xz equal "pxz"
variable press_yz equal "pyz"

# ---- output ----
print "pypospack:output_section:begin"
pypospack:output_section:begin
print "tot_energy = ${tot_energy}"
tot_energy = -115.692495364628
print "num_atoms = ${natoms}"
num_atoms = 8
print "xx = ${length_x}"
xx = 4.29329700926666
print "yy = ${length_y}"
yy = 4.29329700926666
print "zz = ${length_z}"
zz = 4.29329700926666
print "xy = ${tilt_xy}"
xy = 0
print "xz = ${tilt_xz}"
xz = 0
print "yz = ${tilt_yz}"
yz = 0
print "tot_press = ${tot_press}"
tot_press = 0.202184869803092
print "pxx = ${press_xx}"
pxx = 0.202184869911938
print "pyy = ${press_yy}"
pyy = 0.202184869729888
print "pzz = ${press_zz}"
pzz = 0.20218486976745
print "pxy = ${press_xy}"
pxy = 1.64507477572858e-10
print "pxz = ${press_xz}"
pxz = -9.16368397176372e-11
print "pyz = ${press_yz}"
pyz = -3.62025011042311e-11
print "pypospack:output_section:done"
pypospack:output_section:done
print "pypospack:lammps_sim:done"
pypospack:lammps_sim:done
#------------------------------------------------------------------------------
# RUN THERMOSTAT
# running using an NPT Nose-Hoover style thermostat
#------------------------------------------------------------------------------
variable tempdamp equal 0.1
variable pressdamp equal 1.0
# set initial velocities
velocity all create 500 4271102 mom yes dist gaussian loop all
# fix for Nose-Hoover style thermostat
fix 20 all npt temp 500 500 0.1 aniso 0.0 0.0 1.0 drag 1.0 couple xyz
variable boxx equal lx
variable boxy equal ly
variable boxz equal lz
variable boxp equal press
variable boxt equal temp
# calculate averages every 10000 steps
reset_timestep 0
fix 21 all ave/time 10 10 100 v_boxx v_boxy v_boxz v_boxp v_boxt file lattice.out
thermo_style custom step temp pe ke etotal press lx ly lz press pxx pyy pzz pxy pxz pyz vol
thermo_modify flush yes
thermo 100
run 100000
PPPM initialization ...
  G vector (1/distance) = 0.352672
  grid = 8 8 8
  stencil order = 5
  estimated absolute RMS force accuracy = 4.1232e-05
  estimated relative force accuracy = 2.8634e-06
  using double precision FFTs
  3d grid and FFT values/proc = 3375 512
Memory usage per processor = 3.06549 Mbytes
Step Temp PotEng KinEng TotEng Press Lx Ly Lz Press Pxx Pyy Pzz Pxy Pxz Pyz Volume 
       0          500    -115.6925   0.45241051   -115.24009    6105.2866     4.293297     4.293297     4.293297    6105.2866    8076.2912    1273.9003    8965.6685   -198.77808   -512.00562    1037.4262    79.135764 
     100    275.27438   -115.42387   0.24907404    -115.1748   -4507.9067    4.3160165    4.3160165    4.3160165   -4507.9067    10116.935   -16761.497   -6879.1578    640.62349    2123.9449   -224.08381     80.39875 
     200     444.3596   -115.45548    0.4020659   -115.05341   -977.79576    4.3083415    4.3083415    4.3083415   -977.79576   -6809.3231    -13321.63    17197.565     3986.756   -3384.9067    491.34192    79.970601 
     300    389.97074   -115.30318   0.35285372   -114.95033    11893.681    4.3111059    4.3111059    4.3111059    11893.681    10242.291   -15727.196    41165.949   -403.26827    811.92994    -562.6289    80.124636 
     400    518.03725   -115.33334   0.46873099   -114.86461    964.60987    4.3223893    4.3223893    4.3223893    964.60987   -1802.7645   -25893.144    30589.738   -1518.4587   -4092.2035   -317.84202    80.755415 
     500    574.74213   -115.33353   0.52003876   -114.81349    1766.2459    4.3136172    4.3136172    4.3136172    1766.2459   -885.34426   -17119.644    23303.726     2910.487   -1942.1572       185.75     80.26474 
     600    624.51388   -115.35161   0.56507329   -114.78654   -8938.0509    4.3226938    4.3226938    4.3226938   -8938.0509     6159.234   -24833.622   -8139.7648    -1337.423   -1151.4216    314.19457     80.77248 
     700     865.6431    -115.5608   0.78325207   -114.77755   -9954.9521     4.317321     4.317321     4.317321   -9954.9521   -4532.1722   -20328.519   -5004.1656    1085.1409    345.72028   -611.11541    80.471671 
     800    458.16747   -115.19806   0.41455955    -114.7835    7292.4611    4.3215502    4.3215502    4.3215502    7292.4611    24162.042   -20884.427    18599.768     2789.513   -4584.8406   -2014.4348    80.708391 
     900    590.08283   -115.31928   0.53391934   -114.78536   -722.05657    4.3184504    4.3184504    4.3184504   -722.05657   -14340.102   -27446.441    39620.374    2666.0203   -729.84845   -1333.3228    80.534842 
    1000    342.78851   -115.09821   0.31016225   -114.78805    20569.922    4.3166815    4.3166815    4.3166815    20569.922    26757.384   -16336.073    51288.455     435.1678   -1708.4581     -879.767    80.435918 
    1100    665.24059   -115.38939   0.60192366   -114.78747   -8662.4131    4.3245833    4.3245833    4.3245833   -8662.4131   -17536.087   -29452.281    21001.129    1533.4616   -4067.2952   -14.566022    80.878446 
    1200    565.78498   -115.30014   0.51193414    -114.7882    6502.6563      4.31359      4.31359      4.31359    6502.6563    22171.543    -16374.55    13710.975    1247.9984     901.3586    324.62726    80.263225 
    1300    637.65235   -115.36644   0.57696125   -114.78948   -10929.863    4.3245483    4.3245483    4.3245483   -10929.863    10158.006   -27612.341   -15335.254   -3744.6861     -288.513    498.51372    80.876482 
    1400    798.42939   -115.51199   0.72243569   -114.78955   -6666.0678    4.3133069    4.3133069    4.3133069   -6666.0678   -7901.8913   -14649.807     2553.495    4006.5309   -4384.0171   -286.24443    80.247418 
    1500    316.69087   -115.08267   0.28654856   -114.79612    14016.426    4.3214377    4.3214377    4.3214377    14016.426    36813.695   -26919.504    32155.087    2407.6521    5926.8656   -991.76682    80.702088 
    1600    565.08846   -115.30481   0.51130392    -114.7935   -1856.9185     4.320363     4.320363     4.320363   -1856.9185   -11053.369   -27340.061    32822.675    976.90548    3468.3011    323.55719    80.641892 
    1700    492.51386   -115.23655   0.44563689   -114.79091    16375.919    4.3104388    4.3104388    4.3104388    16375.919    18389.692   -11513.133    42251.198    366.46362   -6436.4196    1735.7791    80.087446 
    1800    432.15605    -115.1801   0.39102387   -114.78908     -6529.93    4.3307899    4.3307899    4.3307899     -6529.93    3558.6209   -34110.018    10961.607     3750.363    102.91669    1088.4527    81.227177 
    1900    718.35531   -115.43315   0.64998298   -114.78317    1818.4445    4.3050692    4.3050692    4.3050692    1818.4445    7216.8502   -11091.468    9329.9514   -1706.3352   -680.71317    877.35047    79.788518 
    2000      513.923   -115.25189   0.46500833   -114.78688   -7894.1705    4.3257389    4.3257389    4.3257389   -7894.1705    15477.204   -19936.917   -19222.798   -1639.9899    -3118.479   -1056.7586    80.943302 
    2100    734.73023   -115.44878   0.66479935   -114.78398   -8951.3598    4.3180402    4.3180402    4.3180402   -8951.3598   -6932.8766   -22397.792    2476.5894    5163.1198    3644.6454   -1040.6155    80.511895 
    2200    400.33831   -115.14846   0.36223452   -114.78622    12825.663    4.3142286    4.3142286    4.3142286    12825.663    34673.075   -16401.784    20205.698   -17.868524   -218.17916    -2925.853    80.298877 
    2300    537.07196   -115.27202   0.48595399   -114.78607   -6363.8969    4.3211698    4.3211698    4.3211698   -6363.8969    -14608.71   -23131.435    18648.455    651.94811    1830.7224    653.21755    80.687082 
    2400    417.97416   -115.16515    0.3781918   -114.78696    13444.563    4.3130058    4.3130058    4.3130058    13444.563    18925.691    -11650.97    33058.966    1844.6491   -4811.8692    55.341385    80.230619 
    2500      467.967   -115.21069   0.42342638   -114.78727   -7331.7914    4.3237224    4.3237224    4.3237224   -7331.7914   -5596.1937   -32343.488    15944.307    4404.9264   -4392.1883   -157.06824    80.830153 
    2600    625.34075   -115.35121   0.56582145   -114.78539    483.11974    4.3087676    4.3087676    4.3087676    483.11974     12082.22   -11308.025    675.16472   -3449.5772    2262.4403    -1110.596     79.99433 
    2700    461.21445   -115.20382   0.41731653    -114.7865    -16470.23    4.3291273    4.3291273    4.3291273    -16470.23    4334.6219   -25319.664    -28425.65   -281.69568   -4528.4798   -660.68687     81.13366 
    2800    642.22279   -115.36399   0.58109668   -114.78289    67.441841    4.3075022    4.3075022    4.3075022    67.441841    38.757613   -12099.963    12263.531    4610.5568   -1363.9548    45.662456    79.923874 
    2900    354.45523     -115.111   0.32071854   -114.79029    7459.4037    4.3198691    4.3198691    4.3198691    7459.4037    35363.068   -22522.069    9537.2111   -3399.3726    5962.9691   -1691.8674    80.614241 
    3000    482.13925   -115.22862   0.43624972   -114.79238   -2995.6315     4.320946     4.320946     4.320946   -2995.6315   -2964.3975   -19257.783    13235.286    83.606433    2779.2453    3373.3916    80.674542 
    3100    423.51692   -115.17367   0.38320701   -114.79047     12048.25    4.3122624    4.3122624    4.3122624     12048.25     9535.926   -13404.425     40013.25    1349.0019   -7555.7911    2046.0196    80.189138 
    3200    396.73442   -115.14526   0.35897364   -114.78628   -6952.8946    4.3263522    4.3263522    4.3263522   -6952.8946   -3367.9387   -30788.618    13297.873    49.950161   -2427.9542    477.95936    80.977732 
    3300    558.91533   -115.28711   0.50571834   -114.78139    8597.7489    4.3054567    4.3054567    4.3054567    8597.7489    21802.422    -2640.203    6631.0276   -3811.0864   -4005.6776    277.82167    79.810069 
    3400    430.61731   -115.17506   0.38963159   -114.78543   -16669.084    4.3323786    4.3323786    4.3323786   -16669.084    13742.041   -31880.543   -31868.749     2199.009   -506.41703    533.52657    81.316601 
    3500    600.42003   -115.32682   0.54327266   -114.78354    2397.7099    4.3076161    4.3076161    4.3076161    2397.7099    17094.183   -11559.037    1657.9833   -423.19219    3839.5051    250.23095    79.930216 
    3600    385.73431   -115.13798   0.34902051   -114.78896   -4089.9783    4.3250108    4.3250108    4.3250108   -4089.9783    14011.726   -21512.545   -4769.1161   -3739.4569    6347.6688    1671.3697    80.902436 
    3700    469.72068   -115.21146   0.42501314   -114.78645   -3261.9589    4.3191622    4.3191622    4.3191622   -3261.9589   -217.88238   -16843.383    7275.3886    2153.1278   -1012.5049    2195.5083     80.57467 
    3800    352.46067   -115.10462   0.31891382   -114.78571    10428.468    4.3124165    4.3124165    4.3124165    10428.468    11237.874    -15907.13    35954.661     2342.291   -7853.7063    1157.5247    80.197737 
    3900    167.78058   -114.93703   0.15181139   -114.78522   -384.45333    4.3290762    4.3290762    4.3290762   -384.45333    18567.975    -28368.95    8647.6152   -2756.2307    -5652.549    427.38822    81.130789 
    4000    415.85069   -115.15639   0.37627044   -114.78012    16205.057    4.3041691    4.3041691    4.3041691    16205.057    22239.848   -2498.3002    28873.622   -155.37603   -3086.1211   -174.46282    79.738483 
    4100    371.86527   -115.11981   0.33647151   -114.78334   -13742.017     4.332689     4.332689     4.332689   -13742.017    9759.4969   -29942.048     -21043.5    2209.5647     915.2008   -65.318107     81.33408 
    4200    540.97469   -115.26854   0.48948527   -114.77906   -7239.1453    4.3127329    4.3127329    4.3127329   -7239.1453   -6979.3598   -15209.837     471.7607   -2803.7863   -176.37466    1139.9216    80.215388 
    4300    391.32309   -115.13738   0.35407736   -114.78331    2958.8922    4.3160879    4.3160879    4.3160879    2958.8922    29183.119   -7070.9511   -13235.491   -3321.0908    5618.6537    1355.8234     80.40274 
    4400    604.47768   -115.32948   0.54694411   -114.78254   -18132.825    4.3256752    4.3256752    4.3256752   -18132.825   -6140.4691    -25425.96   -22832.047   -96.893472    831.07221   -683.99967    80.939723 
    4500     337.7225   -115.08901   0.30557841   -114.78343    12732.604    4.3070158    4.3070158    4.3070158    12732.604    21902.688   -6079.1921    22374.316   -405.70401   -5715.1032   -2496.9245    79.896803 
    4600     246.2291   -115.00961   0.22279327   -114.78682   -2608.7677    4.3293494    4.3293494    4.3293494   -2608.7677    14049.264   -27139.492    5263.9256   -6249.5533   -4385.3318   -1905.1608    81.146149 
    4700    388.21762    -115.1328   0.35126746   -114.78153     17336.23    4.3091235    4.3091235    4.3091235     17336.23    17398.687   -5419.0139    40029.018   -575.03685   -2109.2102   -1925.9423    80.014154 
    4800     365.0221   -115.11512   0.33027967   -114.78484   -4223.2236    4.3191122    4.3191122    4.3191122   -4223.2236    3914.7315   -16679.476    95.073729    1136.9088   -3877.0164   -1854.0142    80.571875 
    4900    378.31289   -115.12615   0.34230545   -114.78384   -13203.992    4.3200695    4.3200695    4.3200695   -13203.992   -13008.594   -16996.299   -9607.0818   -7124.2346    3595.3431    -473.9634     80.62546 
    5000    428.66816    -115.1725   0.38786796   -114.78464    12003.932    4.3097698    4.3097698    4.3097698    12003.932    34457.683   -4286.3535    5840.4668    1013.9696   -875.36307    1655.1825    80.050164 
    5100     562.2924   -115.29417   0.50877398   -114.78539   -15181.469     4.323203     4.323203     4.323203   -15181.469   -8974.2793   -22068.295   -14501.834    756.71247    1278.9826    504.41563     80.80103 
    5200    236.99253   -114.99991   0.21443582   -114.78547     11890.89    4.3072086    4.3072086    4.3072086     11890.89    18483.682    595.17402    16593.815   -3301.2374   -5376.2018   -1025.9156    79.907533 
    5300     361.7872   -115.11405   0.32735266   -114.78669   -11397.615    4.3254656    4.3254656    4.3254656   -11397.615   -26466.018   -27852.081    20125.255   -646.91004   -66.122577    2242.4918    80.927956 
    5400    413.66417   -115.15854   0.37429204   -114.78425    15572.513    4.3062179    4.3062179    4.3062179    15572.513     40590.21   -2086.0299    8213.3586   -41.176569    3249.7201    2802.0155    79.852404 
    5500    501.18296   -115.24091   0.45348087   -114.78743    -9267.111    4.3193076    4.3193076    4.3193076    -9267.111   -18293.886   -14736.585    5229.1385     1318.138   -2713.7135    1513.8701    80.582808 
    5600    320.71198    -115.0765   0.29018694   -114.78631   -12855.693    4.3220325    4.3220325    4.3220325   -12855.693   -2727.6046   -21816.934   -14022.541   -6391.4215   -1618.0356   -1093.3384    80.735414 
    5700    489.91264   -115.22649   0.44328325   -114.78321     11100.34    4.3039529    4.3039529    4.3039529     11100.34    19271.072   -4760.6844    18790.633    275.03157    1813.1421   -34.507734    79.726467 
    5800    363.23753   -115.11206   0.32866495   -114.78339   -6395.2957      4.32922      4.32922      4.32922   -6395.2957    2735.0674    -25160.34    3239.3859    2708.6168    -295.6537   -1463.5862    81.138871 
    5900    389.72236   -115.13395   0.35262899   -114.78132    11885.775    4.3053571    4.3053571    4.3053571    11885.775    9911.5289   -5440.7146     31186.51    -7723.139   -1155.1947   -1661.8721    79.804527 
    6000     398.5808   -115.14694   0.36064429    -114.7863   -7341.2237    4.3242022    4.3242022    4.3242022   -7341.2237   -3149.4924   -28570.787    9696.6087    569.62222    402.60225    2667.9987    80.857065 
    6100    499.09429   -115.23743     0.451591   -114.78584    4158.9098    4.3121388    4.3121388    4.3121388    4158.9098    23288.674   -9573.8877   -1238.0566   -225.33857    7487.8439    2254.8168     80.18224 
    6200    575.30087    -115.3094   0.52054432   -114.78886   -10654.351    4.3156311    4.3156311    4.3156311   -10654.351   -2401.5521   -17056.248   -12505.253   -2512.1326   -6952.2744    690.27553    80.377214 
    6300    340.72119   -115.09774    0.3082917   -114.78945    -8211.565    4.3204095    4.3204095    4.3204095    -8211.565   -6180.6048   -24969.168    6515.0783   -5095.5848    -5451.484    184.87636    80.644495 
    6400    495.37589   -115.23383   0.44822652   -114.78561    10355.329    4.3062415    4.3062415    4.3062415    10355.329    2080.7266   -4712.9103     33698.17    99.216796   -3119.3214    1262.7599    79.853717 
    6500     408.8335   -115.15468   0.36992115   -114.78476   -6291.2959    4.3275432    4.3275432    4.3275432   -6291.2959    5698.9502   -23198.966   -1373.8718   -859.92779    3173.2844     541.0154    81.044628 
    6600    463.92206   -115.20087   0.41976643    -114.7811    8634.3253    4.3051996    4.3051996    4.3051996    8634.3253   -6958.3459   -11467.712    44329.034   -7456.2516    5279.7996    912.98772    79.795769 
    6700    464.56082   -115.20755   0.42034439   -114.78721   -10600.874    4.3213684    4.3213684    4.3213684   -10600.874    4113.4652   -17810.948   -18105.139    426.32737   -1688.6327    1931.2964    80.698206 
    6800     536.1739   -115.26992   0.48514141   -114.78478   -432.15232    4.3143766    4.3143766    4.3143766   -432.15232    6882.0668   -7917.8004   -260.72329   -1962.9144    2153.6832    1107.9393    80.307138 
    6900    491.90996   -115.23045   0.44509047   -114.78536    190.55527    4.3157584    4.3157584    4.3157584    190.55527    10542.981   -23895.979    13924.663   -5038.5059   -6285.4391   -4363.4764    80.384328 
    7000    344.18217    -115.0984   0.31142326   -114.78698    2974.5003    4.3191966    4.3191966    4.3191966    2974.5003    436.36479   -19837.348    28324.485   -1083.6283   -2020.4804   -1443.4143    80.576597 
    7100    557.36085   -115.28963   0.50431181   -114.78532    1228.6661    4.3136886    4.3136886    4.3136886    1228.6661   -450.41076   -11489.676    15626.085    1511.0152   -2023.7293    2168.3665    80.268726 
    7200     486.6631   -115.22385     0.440343    -114.7835   -7226.3227    4.3248529    4.3248529    4.3248529   -7226.3227   -42.600043   -29317.759    7681.3904   -3007.8121    7123.9002    1897.8132    80.893573 
    7300    673.33469   -115.39015   0.60924738    -114.7809    -688.5824    4.3073887    4.3073887    4.3073887    -688.5824    3684.7815   -12161.422    6410.8937   -3101.5764    7230.7877    1284.1597    79.917553 
    7400    412.87768   -115.16072    0.3735804   -114.78713   -2162.5491     4.322241     4.322241     4.322241   -2162.5491     14071.64   -18684.973    -1874.315    2774.1339    -369.6816     1923.325    80.747098 
    7500    674.31585   -115.39198   0.61013515   -114.78185   -6778.9089    4.3162181    4.3162181    4.3162181   -6778.9089    5968.3664    -21972.38   -4332.7133   -2918.6315   -4220.8583    558.32467    80.410017 
    7600    477.69398   -115.21473   0.43222756    -114.7825    9391.0016     4.311729     4.311729     4.311729    9391.0016    22290.337   -16505.549    22388.217   -6960.5088   -4775.3284   -445.96383    80.159386 
    7700    628.19025   -115.35245   0.56839974   -114.78405   -7016.0039    4.3214359    4.3214359    4.3214359   -7016.0039   -13393.672   -20132.285    12477.945    1335.3687   -671.05686    2178.2523    80.701985 
    7800    566.20642   -115.29788   0.51231547   -114.78556    1914.7447    4.3141449    4.3141449    4.3141449    1914.7447    16911.634   -18788.394    7620.9937   -420.67699   -209.82812    2903.5506    80.294201 
    7900    521.99398   -115.25889   0.47231112   -114.78658    9918.3049    4.3105423    4.3105423    4.3105423    9918.3049    24120.007   -13942.442     19577.35   -4166.8974   -1090.1791    158.05797    80.093219 
    8000    720.67333   -115.43859   0.65208037    -114.7865   -5715.9696    4.3182727    4.3182727    4.3182727   -5715.9696    5787.8712   -24118.114    1182.3341   -1263.6196    4169.5162   -2193.5566    80.524898 
    8100    525.66984   -115.26234   0.47563712    -114.7867   -802.56614    4.3170649    4.3170649    4.3170649   -802.56614    20217.603   -19006.507   -3618.7947    6010.6147    849.57323    69.820587    80.457349 
    8200    684.21167   -115.40373    0.6190891   -114.78464   -5515.1425    4.3102012    4.3102012    4.3102012   -5515.1425     2139.383   -18064.274   -620.53607    644.73381   -7431.2015   -2025.4518    80.074206 
    8300    633.09217   -115.35782    0.5728351   -114.78499   -6314.3738    4.3205175    4.3205175    4.3205175   -6314.3738    7841.9873   -25385.095   -1400.0138   -4093.1471    -2669.206   -950.46932    80.650545 
    8400    573.51051   -115.30402   0.51892436   -114.78509   -4610.9518     4.315656     4.315656     4.315656   -4610.9518   -4367.4614   -25511.158    16045.764    5074.8826   -4586.7041     3961.445    80.378606 
    8500    525.67395   -115.26098   0.47564083   -114.78534    1767.6834    4.3099066    4.3099066    4.3099066    1767.6834    14894.212   -15601.218    6010.0569    1836.9982    1798.1972      3806.32    80.057787 
    8600    550.95375   -115.28232   0.49851453   -114.78381   -8160.7829    4.3239764    4.3239764    4.3239764   -8160.7829    552.24555   -33314.114      8279.52   -5306.6882    4425.6816   -110.92206    80.844398 
    8700     721.6394   -115.43435    0.6529545    -114.7814    -1024.721    4.3106794    4.3106794    4.3106794    -1024.721   -5730.1416   -16024.662     18680.64    1967.0442   -299.31533   -623.82289    80.100857 
    8800    477.97216   -115.21922   0.43247925   -114.78674    2308.6542    4.3176818    4.3176818    4.3176818    2308.6542    29557.705   -22820.532    188.78902    833.64217    -7901.558     4030.595     80.49185 
    8900       643.42   -115.36787   0.58217994   -114.78569    -6583.351    4.3155522    4.3155522    4.3155522    -6583.351   -8347.4198   -22421.074    11018.441   -2118.0259    4468.2693    2526.7586    80.372802 
    9000    574.28692   -115.30368   0.51962687   -114.78406    10436.497    4.3105058    4.3105058    4.3105058    10436.497    34433.866   -10157.609    7033.2349    151.73001    1989.0552     328.4874    80.091183 
    9100    615.16409   -115.34096    0.5566134   -114.78435   -2621.9394    4.3202523    4.3202523    4.3202523   -2621.9394   -1356.3825   -20660.536      14151.1    4566.5752   -7447.5856   -1236.4232    80.635697 
    9200    459.41263   -115.19968    0.4156862   -114.78399     12140.83    4.3093577    4.3093577    4.3093577     12140.83    24589.107   -8681.7204    20515.103    3969.9827    1941.1094   -3002.7845    80.027201 
    9300    590.73225   -115.31831   0.53450696    -114.7838   -6104.2656    4.3181436    4.3181436    4.3181436   -6104.2656    6715.6323    -17642.49   -7385.9387   -2299.4181   -4873.9524   -4641.8444    80.517678 
    9400     538.8244   -115.27067   0.48753964   -114.78313    5015.8438    4.3132751    4.3132751    4.3132751    5015.8438    2298.5537   -9717.8943    22466.872    3523.5954     7309.602   -697.68202    80.245643 
    9500     497.2849   -115.23412   0.44995383   -114.78416   -939.72224    4.3159254    4.3159254    4.3159254   -939.72224    15040.955   -12084.935    -5775.187    1629.7301   -3333.4468    2170.6368    80.393659 
    9600    530.04509   -115.26365   0.47959593   -114.78405   -7290.4509    4.3153902    4.3153902    4.3153902   -7290.4509    -405.0832   -11444.795   -10021.474   -3997.2316   -8421.0921    -2738.384    80.363751 
    9700    454.80914   -115.19561   0.41152087   -114.78409     4764.413    4.3120969    4.3120969    4.3120969     4764.413    19167.761   -9645.4936    4770.9719    1531.6136    4751.1387   -2177.7407    80.179906 
    9800    670.16133   -115.38946   0.60637605   -114.78309   -9993.0175    4.3195125    4.3195125    4.3195125   -9993.0175    -17137.13   -15512.433    2670.5105    1931.2134    137.79756    2957.0604    80.594279 
    9900    277.91574   -115.03749   0.25146401   -114.78603    14292.629    4.3131445    4.3131445    4.3131445    14292.629    33117.215   -5438.6981     15199.37    3717.9369   -3903.3032    3391.9897    80.238358 
   10000    607.02548   -115.33373   0.54924941   -114.78448   -7382.3359    4.3142388    4.3142388    4.3142388   -7382.3359   -387.79529   -16131.717   -5627.4958    271.74301   -8800.5817   -2327.6214    80.299446 
   10100    380.35128   -115.12905   0.34414983    -114.7849    10161.603    4.3165803    4.3165803    4.3165803    10161.603    28288.175   -10046.411    12243.045    5337.2892    3509.2672    143.94912    80.430263 
   10200    544.92553   -115.27561   0.49306008   -114.78255   -3296.4697    4.3177486    4.3177486    4.3177486   -3296.4697    14385.083   -13431.159   -10843.332    5569.9655    1151.5828    1047.8735    80.495582 
   10300    427.93744   -115.17052   0.38720679   -114.78331    2406.8132    4.3128061    4.3128061    4.3128061    2406.8132    15370.386   -9066.5604    916.61436   -1756.1918    3903.3862   -6167.5673    80.219474 
   10400    442.40301   -115.18435   0.40029554   -114.78405   -1202.4324     4.317861     4.317861     4.317861   -1202.4324    9054.9557    -12314.79   -347.46239    3825.5367    3415.9118   -4278.2094    80.501868 
   10500    585.86565   -115.31257   0.53010355   -114.78246   -5756.1191    4.3168384    4.3168384    4.3168384   -5756.1191   -10805.925   -11345.194    4882.7619   -1340.3523   -3552.6283   -1505.8446    80.444687 
   10600    206.32347   -114.97379   0.18668581    -114.7871    14470.303    4.3143887    4.3143887    4.3143887    14470.303     32280.43   -9899.9188    21030.399   -2895.7628    -4309.823   -3978.2402    80.307816 
   10700    457.63089   -115.19851   0.41407404   -114.78443   -9371.0105    4.3207071    4.3207071    4.3207071   -9371.0105    11414.419   -19820.072   -19707.379    -2972.368   -8242.4514   -3376.0763    80.661161 
   10800    377.09336   -115.12426     0.341202   -114.78306    11819.309    4.3098105    4.3098105    4.3098105    11819.309    31880.693   -1075.3986    4652.6316   -1353.1566   -2650.9714   -1273.0362    80.052431 
   10900    369.46077    -115.1211   0.33429587    -114.7868   -3168.0071    4.3245094    4.3245094    4.3245094   -3168.0071    30313.462   -19824.581   -19992.902   -44.484055   -1649.8764   -2476.0634      80.8743 
   11000    477.71437   -115.21468     0.432246   -114.78243   -6994.4473    4.3149741    4.3149741    4.3149741   -6994.4473    12278.392   -12313.765   -20947.969   -2912.4948    1766.7072    -4384.533    80.340508 
   11100    446.87756   -115.18516   0.40434421   -114.78082    4453.0527    4.3098928    4.3098928    4.3098928    4453.0527    19499.228    3943.3009    -10083.37    3006.2531   -2362.9711    665.21727    80.057015 
   11200    515.51981   -115.24646   0.46645316   -114.78001   -16052.161    4.3285276    4.3285276    4.3285276   -16052.161    13581.867   -27343.549   -34394.802    4847.0488    571.60685    1011.2037    81.099948 
   11300    299.45197   -115.05339   0.27095043   -114.78244    10244.184    4.3068362    4.3068362    4.3068362    10244.184    37363.421   -517.84245   -6113.0255    2967.1269   -7076.4129   -1094.3512     79.88681 
   11400    370.13391   -115.12032   0.33490494   -114.78541   -2534.8605    4.3190936    4.3190936    4.3190936   -2534.8605    10079.942   -13217.818   -4466.7051    672.19787   -13331.343    473.01847    80.570829 
   11500    539.68457      -115.27   0.48831794   -114.78168   -9828.3636     4.321888     4.321888     4.321888   -9828.3636   -5117.7738   -20391.778   -3975.5388    2501.5591    2060.4498    2525.4541     80.72732 
   11600    248.11773   -115.00757   0.22450214   -114.78307    11296.172    4.3103045    4.3103045    4.3103045    11296.172    12962.112   -2328.7179    23255.123   -1369.4239   -9226.1034    1841.6596     80.07996 
   11700    467.37909     -115.207   0.42289442   -114.78411   -7394.5464    4.3182635    4.3182635    4.3182635   -7394.5464   -4260.0261   -17129.225   -794.38855    155.79231    3768.0992   -115.16314    80.524387 
   11800    400.14394   -115.14702   0.36205864   -114.78496    1191.7994     4.319224     4.319224     4.319224    1191.7994    20706.785   -11462.928   -5668.4594   -1109.4441    770.62734    2756.1761    80.578128 
   11900    609.99206   -115.33746   0.55193364   -114.78553   -6890.4126    4.3135429    4.3135429    4.3135429   -6890.4126    9497.9552   -14416.949   -15752.244   -4528.8579   -4454.4259   -3051.7296    80.260591 
   12000    295.07615   -115.05629    0.2669911    -114.7893    11134.842    4.3155926    4.3155926    4.3155926    11134.842    37294.301   -10317.306    6427.5312   -2143.8873   -6413.2092   -5965.8161    80.375064 
   12100    416.75784    -115.1635   0.37709125   -114.78641   -2543.6428    4.3249026    4.3249026    4.3249026   -2543.6428   -5514.7413   -24187.543    22071.356   -1848.5647   -7329.8031   -2792.7142    80.896364 
   12200    461.33866   -115.19935   0.41742891   -114.78192    20175.624    4.3041792    4.3041792    4.3041792    20175.624    11539.652   -634.59317    49621.814   -701.39273    1127.7908   -1902.5417    79.739045 
   12300     440.4932   -115.18766   0.39856751   -114.78909   -5192.2586    4.3254288    4.3254288    4.3254288   -5192.2586   -243.72204   -20730.924    5397.8705   -722.07309    -4349.955   -4566.8618    80.925892 
   12400    503.06508   -115.23921   0.45518386   -114.78403   -6331.0642    4.3206084    4.3206084    4.3206084   -6331.0642    8976.1812   -14513.186   -13456.188   -2651.1934    2387.9117   -4122.4074    80.655634 
   12500    689.92833   -115.40398   0.62426166   -114.77971    4149.1033    4.3044327    4.3044327    4.3044327    4149.1033    4022.1926    951.77692    7473.3404     1420.601    4522.7773    1800.8634    79.753138 
   12600    452.77688   -115.19246   0.40968203   -114.78278   -12847.238    4.3332988    4.3332988    4.3332988   -12847.238   -9906.6359   -29599.186    964.10639    1243.0859    2706.7849    413.77066    81.368424 
   12700    381.56344   -115.12802   0.34524662   -114.78278    15311.884    4.3086902    4.3086902    4.3086902    15311.884     9468.852   -3565.2372    40032.038    1268.2475   -8546.9602    163.71873    79.990022 
   12800    408.33787   -115.15404   0.36947269   -114.78457    7350.4769    4.3192893    4.3192893    4.3192893    7350.4769    13909.339   -20190.954    28333.046    1858.8957   -10001.885    4647.4569    80.581782 
   12900    524.95307    -115.2569   0.47498857   -114.78191     -4751.94    4.3239717    4.3239717    4.3239717     -4751.94      1517.24   -24903.645    9130.5854    2196.7046   -6552.6999    4762.0316    80.844139 
   13000    414.01393    -115.1574   0.37460851   -114.78279    3453.2484    4.3104838    4.3104838    4.3104838    3453.2484    9629.8945   -6639.6705    7369.5211    934.72005    1253.9302   -3119.2155    80.089953 
   13100    646.69969    -115.3683   0.58514747   -114.78315   -11296.946    4.3217429    4.3217429    4.3217429   -11296.946    3763.0474   -20897.395   -16756.491    2935.5612   -1304.5667   -1423.7443     80.71919 
   13200     702.5274   -115.41941   0.63566155   -114.78375   -8841.0193    4.3200297    4.3200297    4.3200297   -8841.0193   -15912.192   -20207.887    9597.0206    1353.4025    9908.8461   -895.84386    80.623233 
   13300     390.5708   -115.13835   0.35339667   -114.78495    3063.2154    4.3114482    4.3114482    4.3114482    3063.2154   -4963.5936   -6243.9954    20397.235   -199.60374    1688.8835   -4459.4765    80.143725 
   13400    487.48293   -115.22818    0.4410848   -114.78709   -3298.6773    4.3196185    4.3196185    4.3196185   -3298.6773   -19404.267   -24946.375     34454.61    993.50226   -2271.9321   -3747.2765    80.600208 
   13500    601.71393   -115.33038   0.54444341   -114.78594    6312.5041    4.3172617    4.3172617    4.3172617    6312.5041    23264.056   -17881.326    13554.782   -2902.2575   -9171.0127    652.49535    80.468358 
   13600    553.61094   -115.28774   0.50091882   -114.78682    6603.7424    4.3109247    4.3109247    4.3109247    6603.7424    7091.6899   -5754.9937    18474.531    388.63486   -9375.8455   -4195.8698    80.114535 
   13700     568.5463   -115.30148   0.51443264   -114.78705   -11516.979    4.3213845    4.3213845    4.3213845   -11516.979    14636.911   -27360.129   -21827.719   -2866.5232    4980.4047   -6412.2174    80.699105 
   13800    593.57421   -115.32097   0.53707842   -114.78389    6349.0201    4.3170075    4.3170075    4.3170075    6349.0201     20608.28   -16363.347    14802.128   -2153.1894    1743.9141   -152.01947    80.454141 
   13900    762.93733   -115.47347   0.69032173   -114.78315     -408.951    4.3145536    4.3145536    4.3145536     -408.951   -3629.3239   -15777.044    18179.515    1372.6713    8964.0997     2115.799    80.317026 
   14000    459.74755   -115.20126   0.41598924   -114.78527    2838.6179    4.3187348    4.3187348    4.3187348    2838.6179    10177.215    -19949.73    18288.369   -2288.1556   -9803.4009    914.07947    80.550751 
   14100    575.85833   -115.30515   0.52104872    -114.7841   -2904.2903    4.3206526    4.3206526    4.3206526   -2904.2903    7189.7576    -26438.42    10535.792    2094.7902   -4580.4424    1145.9264    80.658113 
   14200    601.93332   -115.32737   0.54464192   -114.78273    14989.982     4.309956     4.309956     4.309956    14989.982    46674.738   -6924.0111    5219.2205    896.94179    -7848.334    1333.9892    80.060538 
   14300    436.17627   -115.18144   0.39466146   -114.78678   -983.89881    4.3226266    4.3226266    4.3226266   -983.89881    18521.134   -23748.101      2275.27    2183.2679    -2131.754   -3302.9458    80.768714 
   14400    575.83006   -115.30427   0.52102314   -114.78325   -9924.2663    4.3155741    4.3155741    4.3155741   -9924.2663     3384.111   -18886.929   -14269.981    3234.9714    3360.8019   -2139.1456    80.374027 
   14500    619.95195   -115.34338   0.56094555   -114.78243    10714.801    4.3087166    4.3087166    4.3087166    10714.801    15670.543    -465.0771    16938.937   -1060.6335   -2606.1826    2089.4766    79.991492 
   14600    662.15753   -115.38234   0.59913405    -114.7832   -17485.141    4.3272908    4.3272908    4.3272908   -17485.141   -18495.759   -27005.382    -6954.281    1934.9703    6837.3306    521.53929    81.030448 
   14700    483.65925   -115.22112   0.43762506   -114.78349    5077.5932    4.3033345    4.3033345    4.3033345    5077.5932    23686.253   -6927.3217   -1526.1518    -30.05782   -7109.7272   -2729.7459    79.692109 
   14800    377.35365   -115.12859   0.34143751   -114.78715    7232.3129    4.3197491    4.3197491    4.3197491    7232.3129    23361.674   -11724.632    10059.896   -638.24257    1403.4924   -2324.0566    80.607522 
   14900    657.57708   -115.37772   0.59498956   -114.78273   -1579.8463    4.3169861    4.3169861    4.3169861   -1579.8463    25272.985   -18403.234    -11609.29   -206.11139   -6237.4231   -2000.0764    80.452945 
   15000    355.46731   -115.10601   0.32163429   -114.78437     8517.467    4.3083968    4.3083968    4.3083968     8517.467    23833.863   -7987.5825    9706.1203   -1714.8624    3240.5663   -5064.4971    79.973679 
   15100    558.06577   -115.28797   0.50494963   -114.78302    -16113.57    4.3213146    4.3213146    4.3213146    -16113.57   -13418.451   -21134.233   -13788.025    -1498.674   -1722.5974   -48.557873    80.695189 
   15200     590.2198   -115.31511   0.53404328   -114.78106    4262.1971    4.3107869    4.3107869    4.3107869    4262.1971    13467.961   -4537.3872    3856.0175    708.07772    1515.6908    2841.2994     80.10685 
   15300    468.34933   -115.20634   0.42377231   -114.78257   -4693.1241    4.3168302    4.3168302    4.3168302   -4693.1241    1324.9074   -21579.612    6175.3325    813.83553    -117.6328   -2104.9279     80.44423 
   15400    397.36724   -115.14407   0.35954623   -114.78452    921.21936    4.3120374    4.3120374    4.3120374    921.21936    29338.574   -12804.143   -13770.774    2575.6193   -1421.3599   -3715.6182    80.176587 
   15500    372.87699   -115.12217   0.33738694   -114.78478    1868.9769    4.3186947    4.3186947    4.3186947    1868.9769    20428.638   -14329.955   -491.75208    737.86224    6056.6302    72.841407    80.548511 
   15600    540.75306   -115.27191   0.48928473   -114.78263    2606.5737    4.3104964    4.3104964    4.3104964    2606.5737    17755.454   -11432.895    1497.1615    719.39813   -1216.9217   -888.29949    80.090655 
   15700    349.60501   -115.10258   0.31632996   -114.78625   -1329.1132    4.3169763    4.3169763    4.3169763   -1329.1132    13248.668   -20680.115     3444.108    2249.2014     6065.567   -2849.0916    80.452397 
   15800    496.79034   -115.23387   0.44950634   -114.78437   -10263.656    4.3155723    4.3155723    4.3155723   -10263.656    -11030.66   -12757.438   -7002.8705   -1990.1584   -2362.5231    1130.6166    80.373928 
   15900    560.31415   -115.29006   0.50698401   -114.78308   -189.20438    4.3107438    4.3107438    4.3107438   -189.20438    13763.432   -8560.0275   -5771.0171    1024.6562   -2921.6938   -179.30867    80.104447 
   16000      351.454   -115.10317   0.31800297   -114.78516   -4800.9066    4.3207705    4.3207705    4.3207705   -4800.9066    8031.9324   -23107.274      672.622    484.95949    1014.1426   -5306.8095    80.664714 
   16100    422.43511   -115.16596   0.38222816   -114.78373   -55.267016    4.3073641    4.3073641    4.3073641   -55.267016     32486.45   -12359.606   -20292.645    58.873283    3200.2849   -673.18877    79.916188 
   16200    293.57523    -115.0521   0.26563304   -114.78646   -344.97202    4.3235124    4.3235124    4.3235124   -344.97202    10467.966   -19079.646    7576.7637   -214.84613    8357.8031     2565.439    80.818378 
   16300    435.22949    -115.1787   0.39380479    -114.7849    4785.1538    4.3122183    4.3122183    4.3122183    4785.1538    15544.454   -16802.344    15613.351   -405.28443    2718.6428   -348.93642    80.186675 
   16400    311.05057   -115.06738    0.2814451   -114.78594     5732.796    4.3129641    4.3129641    4.3129641     5732.796    15970.609   -15817.274    17045.052    328.79801    3048.2998   -3881.4945    80.228287 
   16500     530.9567   -115.26342   0.48042078     -114.783   -17092.827    4.3249878    4.3249878    4.3249878   -17092.827   -10125.509   -24020.903   -17132.069   -873.76168    -258.1011    617.36246    80.901142 
   16600     509.9984   -115.24296   0.46145727   -114.78151    2992.8014    4.3088312    4.3088312    4.3088312    2992.8014    9750.6915   -7921.2306    7148.9431    1783.8032   -6309.2893   -827.76692    79.997874 
   16700    572.22855   -115.30115   0.51776442   -114.78339   -10108.719    4.3192458    4.3192458    4.3192458   -10108.719   -6068.4537   -21821.604   -2436.0991    375.16432   -1308.3517   -1963.8578    80.579348 
   16800    390.65219   -115.13747   0.35347031     -114.784   -173.36636    4.3203995    4.3203995    4.3203995   -173.36636    12407.105   -20455.898    7528.6939    533.72756    1619.0478    2655.0407    80.643934 
   16900    389.83008   -115.13679   0.35272645   -114.78406     4944.661    4.3110077    4.3110077    4.3110077     4944.661    12036.432   -10134.024    12931.574   -792.18529    11363.495    2231.5076    80.119159 
   17000    406.31026   -115.15365   0.36763806   -114.78601    4129.2703    4.3162072    4.3162072    4.3162072    4129.2703     25043.07   -21188.056    8532.7972    1719.5495   -652.74084   -3689.9457    80.409409 
   17100    482.98629   -115.22308   0.43701615   -114.78606   -11562.119    4.3218991    4.3218991    4.3218991   -11562.119    11098.627   -22745.705   -23039.277   -96.876136    4387.7565    -5188.176    80.727938 
   17200    449.79352   -115.19301   0.40698263   -114.78602   -2326.9379     4.306958     4.306958     4.306958   -2326.9379    6109.8358   -4715.0014   -8375.6481   -2158.4162   -4335.1823    1145.1475    79.893585 
   17300    573.93575   -115.30576   0.51930913   -114.78645   -11581.595    4.3189888    4.3189888    4.3189888   -11581.595   -17386.434   -18954.998    1596.6454    2707.7679   -4131.5743   -301.57299    80.564967 
   17400    546.75475    -115.2808   0.49471519   -114.78608   -8404.6719    4.3198307    4.3198307    4.3198307   -8404.6719    1421.7694    -24970.93   -1664.8548   -1185.3943    1337.0042   -1032.2272     80.61209 
   17500     350.8234   -115.10276   0.31743238   -114.78533    12139.181    4.3075471    4.3075471    4.3075471    12139.181    12584.804   -4521.1213    28353.861   -1107.3569    5938.2972    1862.1153    79.926372 
   17600     504.4295   -115.24163   0.45641841   -114.78521   -6725.9414     4.321194     4.321194     4.321194   -6725.9414    2997.1252   -25581.436    2406.4868    280.64876    11875.161   -921.93305    80.688437 
   17700    523.45773   -115.25757   0.47363555   -114.78393    5592.3616    4.3148062    4.3148062    4.3148062    5592.3616    27589.709   -17561.715    6749.0908    -971.0252   -1899.1128   -5174.1872    80.331129 
   17800    650.69954    -115.3743   0.58876662   -114.78553   -4200.8521    4.3160125    4.3160125    4.3160125   -4200.8521     11843.27    -18957.09   -5488.7363    1942.5506   -1864.4048   -1136.2294    80.398522 
   17900    612.36016   -115.33927   0.55407635   -114.78519   -8602.3534    4.3200037    4.3200037    4.3200037   -8602.3534    4390.4597   -20475.612   -9721.9077   -1763.8787   -7798.7224      4518.84    80.621778 
   18000    701.91036   -115.41847   0.63510325   -114.78337   -5533.3765      4.31444      4.31444      4.31444   -5533.3765   -10284.363   -16608.283    10292.516   -928.77754    -49.56027   -315.53981    80.310681 
   18100    473.61487   -115.21484   0.42853669   -114.78631    2377.1322     4.321277     4.321277     4.321277    2377.1322    14706.261    -25277.34    17702.475    828.70425    553.60529   -860.01137    80.693085 
   18200    536.13215   -115.26967   0.48510363   -114.78457    8530.5985    4.3129211    4.3129211    4.3129211    8530.5985    20896.369   -19638.958    24334.384   -1941.3603    11968.655    1193.9746    80.225888 
   18300    446.07784   -115.18991    0.4036206   -114.78629    10305.127    4.3163234    4.3163234    4.3163234    10305.127    26091.212   -19984.966    24809.134    1509.8253    7591.0177   -5593.9488    80.415899 
   18400    595.12763   -115.32356   0.53848398   -114.78508   -12999.955     4.324336     4.324336     4.324336   -12999.955    7327.0013   -30254.716   -16072.151    146.27946    2303.9658   -5979.7621    80.864575 
   18500    540.07111   -115.27048   0.48866769   -114.78181    8624.9791    4.3052491    4.3052491    4.3052491    8624.9791    20948.657   -9555.7959    14482.076    184.78667   -8101.7409    5032.1392    79.798522 
   18600    763.70046   -115.47559   0.69101223   -114.78458   -17767.506    4.3234164    4.3234164    4.3234164   -17767.506   -21675.862   -26024.533   -5602.1231    1547.1636   -3341.9542    2682.4444    80.812997 
   18700    565.51119   -115.29882    0.5116864   -114.78714   -2355.1248    4.3165545    4.3165545    4.3165545   -2355.1248     4666.918   -17057.556    5325.2631   -548.43431    -7968.279   -4698.3563    80.428815 
   18800    574.54519   -115.30264   0.51986056   -114.78278    5861.1928    4.3084548    4.3084548    4.3084548    5861.1928    6656.1206   -16620.644    27548.102    794.78737     3716.136    668.92583     79.97691 
   18900    491.67015    -115.2283   0.44487349   -114.78343    2297.3847    4.3226951    4.3226951    4.3226951    2297.3847    7041.2849   -26358.409    26209.279    184.53652    3710.2165    903.13776    80.772555 
   19000    595.51647   -115.32272   0.53883582   -114.78389    10618.199    4.3104602    4.3104602    4.3104602    10618.199    23326.809   -4692.9767    13220.764   -1539.9843    10720.555    -3481.651    80.088641 
   19100    553.19964   -115.28603   0.50054666   -114.78548   -4720.4982    4.3179224    4.3179224    4.3179224   -4720.4982    1008.7883   -22294.348    7124.0649     179.6635   -3762.5023   -561.06715    80.505306 
   19200    635.53723   -115.35963   0.57504745   -114.78459    1021.7972    4.3101104    4.3101104    4.3101104    1021.7972    16458.643   -12668.859   -724.39313    -2001.968   -2810.4444    5589.7433    80.069145 
   19300    497.17403   -115.23813   0.44985351   -114.78828    2076.8669    4.3199554    4.3199554    4.3199554    2076.8669   -16383.933   -7994.6322    30609.166   -154.25726   -5121.1308   -1538.4333    80.619074 
   19400    530.47928    -115.2677    0.4799888   -114.78771   -5681.4347    4.3143844    4.3143844    4.3143844   -5681.4347   -7946.0073    -14609.33    5511.0335    1615.2897    897.93543   -9802.2509    80.307576 
   19500    500.25725   -115.23886   0.45264327   -114.78622    5944.5673    4.3079718    4.3079718    4.3079718    5944.5673    241.48505   -9985.2002    27577.417   -2174.7237    4854.2048   -2185.1785    79.950015 
   19600    578.41894   -115.30686   0.52336561    -114.7835   -15883.603    4.3300506    4.3300506    4.3300506   -15883.603   -13318.126   -19523.822   -14808.859    1194.8595    394.97042    3030.6097    81.185586 
   19700     481.9106    -115.2183   0.43604284   -114.78226    12500.758    4.3003913    4.3003913    4.3003913    12500.758    22023.037     6737.595    8741.6416    865.61037    13583.615   -796.23228    79.528708 
   19800     456.3165   -115.19819   0.41288476    -114.7853    -8687.457    4.3209583    4.3209583    4.3209583    -8687.457    14165.422   -23740.996   -16486.797    854.45471   -5032.0938   -150.00963    80.675232 
   19900    368.51424   -115.11732   0.33343943   -114.78388    5149.9702    4.3195837    4.3195837    4.3195837    5149.9702    9349.3912   -11621.122    17721.642    1049.1083   -56.573933    5297.0603     80.59826 
   20000    514.82827   -115.24664   0.46582744   -114.78082    15465.897    4.3000336    4.3000336    4.3000336    15465.897    25544.329     6909.052    13944.311   -487.43538   -6122.6769   -3493.1798    79.508864 
   20100    450.72938   -115.19192   0.40782941   -114.78409   -14827.699    4.3278261    4.3278261    4.3278261   -14827.699   -7614.8291   -26942.168   -9926.1003    1501.7256    2343.7949   -6056.9557    81.060525 
   20200       508.38   -115.24158   0.45999291   -114.78159   -377.79123    4.3090081    4.3090081    4.3090081   -377.79123    6190.2308   -1682.7742   -5640.8303   -3155.7255    3812.3582    2842.6026    80.007725 
   20300     494.8749   -115.23131   0.44777321   -114.78354    4986.6163    4.3088851    4.3088851    4.3088851    4986.6163    19536.885   -4899.8939    322.85776   -1833.0399   -2534.5537    3704.9885    80.000875 
   20400    425.94116   -115.16893   0.38540051   -114.78353   -11012.729    4.3251497    4.3251497    4.3251497   -11012.729   -2331.2489   -19141.339   -11565.601   -681.81329    2969.8742   -5875.9956    80.910228 
   20500    304.94571   -115.05839   0.27592128   -114.78247    9473.3662    4.3042555    4.3042555    4.3042555    9473.3662     28852.96    290.11344   -722.97441   -1224.0147   -5746.0868   -3819.3998    79.743284 
   20600    408.72039   -115.15463    0.3698188   -114.78481   -1531.0948    4.3163025    4.3163025    4.3163025   -1531.0948    13502.434    -17161.51   -934.20842   -119.13788    1792.0454    6342.9133    80.414731 
   20700    420.79537   -115.16308   0.38074449   -114.78234   -6031.5703    4.3200986    4.3200986    4.3200986   -6031.5703     7892.961    -12706.89   -13280.782    869.55811   -6011.2311   -2031.9556    80.627091 
   20800    370.94608   -115.11675   0.33563981   -114.78111    841.21537    4.3043243    4.3043243    4.3043243    841.21537    12239.227    2782.4987   -12498.079    2929.7637    5082.7721   -2095.3498    79.747109 
   20900    508.53294   -115.24394   0.46013129   -114.78381   -12004.356    4.3186934    4.3186934    4.3186934   -12004.356    491.47781   -21397.203   -15107.342    -1785.764    1345.6224     5678.694    80.548435 
   21000     393.2705   -115.14192   0.35583941   -114.78608   -1140.8804     4.314391     4.314391     4.314391   -1140.8804   -4383.7265   -5638.4099    6599.4952    1467.3999   -3380.4477     388.5716    80.307943 
   21100    355.47108   -115.10615    0.3216377   -114.78452    5667.8394    4.3032123    4.3032123    4.3032123    5667.8394    15050.401    6839.6647   -4886.5477   -50.571426   -463.45655   -6515.0703     79.68532 
   21200    320.14735   -115.07462   0.28967605   -114.78494   -7623.9908    4.3247284    4.3247284    4.3247284   -7623.9908    2599.5951   -25269.296   -202.27146    -705.1896   -4876.9801     404.0622     80.88659 
   21300    453.18565   -115.19245    0.4100519    -114.7824    3170.7252    4.3074905    4.3074905    4.3074905    3170.7252    18312.117    1450.6385    -10250.58    -2398.002    676.72918    5907.0674    79.923221 
   21400    292.24463   -115.04947   0.26442908   -114.78504    7706.3871    4.3100293    4.3100293    4.3100293    7706.3871    20611.193   -1042.2508    3550.2194    -2445.488   -2209.7862   -2029.4209    80.064625 
   21500    464.58547   -115.20203    0.4203667   -114.78167   -21983.655    4.3266181    4.3266181    4.3266181   -21983.655   -6766.0354    -25502.91   -33682.019    1568.4313    2969.7146   -3448.9709    80.992663 
   21600     396.4468   -115.13846   0.35871339   -114.77975    10540.115    4.3009788    4.3009788    4.3009788    10540.115    23824.234    1526.4899    6269.6215   -6813.2237    1186.0234    5448.6013    79.561304 
   21700    427.01887   -115.16948   0.38637565    -114.7831   -7236.9051    4.3182612    4.3182612    4.3182612   -7236.9051   -13858.414   -8605.3945    753.09346    2845.9889   -8316.1553    4802.7759    80.524257 
   21800    391.30565   -115.13695   0.35406157   -114.78288   -9852.5684      4.31937      4.31937      4.31937   -9852.5684    1318.2959   -18695.997   -12180.004    1616.7089    1290.9397   -1388.7445    80.586299 
   21900    428.50087   -115.16831   0.38771659    -114.7806     5495.158    4.3054414    4.3054414    4.3054414     5495.158    24461.851    -2932.088   -5044.2895    -1213.294   -3860.1053    4746.2531    79.809219 
   22000    529.59402   -115.26333    0.4791878   -114.78415    859.20275     4.316661     4.316661     4.316661    859.20275    11714.182   -16554.694    7418.1202    4518.7276   -4105.0418    681.53793    80.434769 
   22100      322.942   -115.07948    0.2922047   -114.78727    4132.4563    4.3155023    4.3155023    4.3155023    4132.4563    31002.546   -5994.0592   -12611.118   -31.561757   -4441.6838   -5646.9062    80.370018 
   22200    515.35736   -115.25009   0.46630617   -114.78379    -120.9116    4.3056946    4.3056946    4.3056946    -120.9116    10806.014    -7044.589     -4124.16    5904.8563    5148.5689   -345.08902    79.823299 
   22300    452.02167   -115.19235   0.40899871   -114.78335    4753.4615    4.3179466    4.3179466    4.3179466    4753.4615    14196.032   -13513.499    13577.852   -772.16751    2722.7002    3120.7909    80.506656 
   22400    658.08693   -115.37967   0.59545088   -114.78422   -9768.3443    4.3122386    4.3122386    4.3122386   -9768.3443   -10738.197    -11118.56   -7448.2761    -346.8997   -10250.177    2536.0905    80.187808 
   22500    370.63576   -115.12278   0.33535902   -114.78742    9629.2822     4.303409     4.303409     4.303409    9629.2822    5768.2578    4334.8445    18784.744    4060.3746   -7040.3513   -4170.8979    79.696248 
   22600    618.18321   -115.34412   0.55934516   -114.78477    -22321.56     4.328834     4.328834     4.328834    -22321.56   -4025.5572   -34046.183    -28892.94   -3952.8721    5242.3857   -1973.4968    81.117169 
   22700    476.23805   -115.21413   0.43091019   -114.78322    11867.157    4.3041317    4.3041317    4.3041317    11867.157    35528.175    -187.7006    260.99575    344.18791   -7196.9166    3767.7936    79.736403 
   22800    508.61283   -115.24532   0.46020358   -114.78511    4493.5583    4.3088131    4.3088131    4.3088131    4493.5583    17122.973   -9278.4993    5636.2009    657.95433   -9566.6608   -2447.2737    79.996864 
   22900    550.92938   -115.28048   0.49849248   -114.78198   -16726.294    4.3301589    4.3301589    4.3301589   -16726.294    7628.8191   -30806.513   -27001.187    1096.1727     6407.756    3382.7536    81.191677 
   23000    693.41255   -115.40461   0.62741425    -114.7772    11066.391    4.2981926    4.2981926    4.2981926    11066.391    17670.891    3510.7867    12017.495    427.62679    3724.7352    5303.6705    79.406787 
   23100    640.51407   -115.36193   0.57955059   -114.78238   -9022.3206    4.3200666    4.3200666    4.3200666   -9022.3206    -4380.932   -18457.987   -4228.0429    1183.1869   -8233.2406   -3475.7742    80.625296 
   23200    529.07473   -115.26174   0.47871793   -114.78302   -2973.8047    4.3205634    4.3205634    4.3205634   -2973.8047    23645.967    -21018.33   -11549.051    4026.9218   -5817.6391   -1964.8503    80.653113 
   23300    552.89326   -115.27936   0.50026944   -114.77909    15248.599    4.3025624    4.3025624    4.3025624    15248.599    40163.822   -1072.1536    6654.1271     1715.076    3546.5313     3124.041    79.649224 
   23400    596.78994   -115.32278   0.53998808   -114.78279   -2665.0173    4.3203827    4.3203827    4.3203827   -2665.0173    17244.077   -18772.722   -6466.4072   -545.15384   -4687.7207    2302.4187    80.642998 
   23500    546.22319   -115.28023   0.49423422     -114.786   -2951.5243    4.3135713    4.3135713    4.3135713   -2951.5243   -1184.4531   -11923.263    4253.1434     1593.188   -7146.2754    1259.6333    80.262177 
   23600      662.121   -115.38255   0.59910099   -114.78344    4509.2945    4.3031394    4.3031394    4.3031394    4509.2945    8214.2695    630.87601    4682.7381    9.3777689    5186.6301   -1015.2009    79.681268 
   23700    658.84721   -115.38013    0.5961388   -114.78399   -9467.4474    4.3257879    4.3257879    4.3257879   -9467.4474   -11789.801   -24650.453    8037.9118   -5659.8474    2708.5581    -618.4778    80.946048 
   23800     584.6585   -115.31434    0.5290113   -114.78533    10615.874    4.3036604    4.3036604    4.3036604    10615.874    15994.993    10845.275    5007.3553   -735.95481   -643.24775   -3013.5961    79.710213 
   23900    498.20977   -115.23714   0.45079067   -114.78634    9598.8292    4.3101432    4.3101432    4.3101432    9598.8292    34156.336   -12198.898    6839.0502    1145.0793    -3881.889   -1189.5883     80.07097 
   24000    534.08784   -115.26587    0.4832539   -114.78261   -8271.3226    4.3264538    4.3264538    4.3264538   -8271.3226    7372.4227   -25179.588   -7006.8028   -1277.9618    3862.7288    3056.9088    80.983436 
   24100    619.88238   -115.33883   0.56088261   -114.77794    17131.661    4.2960596    4.2960596    4.2960596    17131.661    17568.452    11620.115    22206.416    1141.4106     -7004.87    -3575.689    79.288627 
   24200    601.43368   -115.32542   0.54418984   -114.78123   -13849.703    4.3231974    4.3231974    4.3231974   -13849.703   -9617.7199   -16959.937   -14971.453    3095.9016   -5742.2257   -3772.7083    80.800712 
   24300    554.20711    -115.2826   0.50145824   -114.78114   -2153.1791    4.3112956    4.3112956    4.3112956   -2153.1791    7739.6785   -12909.145   -1290.0706    8679.0932    6236.5807    3677.1863    80.135214 
   24400    566.30371   -115.29359    0.5124035   -114.78119   -502.81583    4.3083993    4.3083993    4.3083993   -502.81583    7854.9946   -6967.1205   -2396.3216   -4150.8392    -5174.056    1646.1759    79.973822 
   24500    406.87926   -115.15097   0.36815291   -114.78282   -3426.0601    4.3190253    4.3190253    4.3190253   -3426.0601    16815.872   -13705.354   -13388.698   -4398.7467   -4896.8049    126.99683    80.567009 
   24600    483.00104   -115.22026   0.43702949   -114.78323      5813.57    4.3042266    4.3042266    4.3042266      5813.57    22608.425    8084.5259   -13252.241    1009.8815   -420.64022   -2271.4557    79.741678 
   24700    438.07654   -115.18041   0.39638086   -114.78403   -10162.907    4.3203161    4.3203161    4.3203161   -10162.907    6500.0547   -12513.786    -24474.99   -4660.9981     9749.907    461.18602    80.639265 
   24800     485.7592   -115.22074   0.43952514   -114.78122   -6008.1447    4.3117664    4.3117664    4.3117664   -6008.1447   -12487.379     2029.573   -7566.6285    -7893.256   -6187.8961    2080.3702    80.161468 
   24900    387.22198   -115.13322   0.35036659   -114.78285   -329.82703    4.3098125    4.3098125    4.3098125   -329.82703    3351.3978    8829.1066   -13169.985   -895.61823   -5462.9648    634.08092     80.05254 
   25000    439.48542   -115.18006   0.39765564    -114.7824   -6417.0054    4.3168668    4.3168668    4.3168668   -6417.0054    5081.6745    1811.1313   -26143.822    7668.8433    5222.3257    6547.3394    80.446277 
   25100    313.30261   -115.06738   0.28348279    -114.7839    2534.9181    4.3127609    4.3127609    4.3127609    2534.9181    30733.519    3803.6383   -26932.403    5033.5416   -5789.1632   -554.84666    80.216949 
   25200     301.2668   -115.05802   0.27259253   -114.78543    5816.4434    4.3127153    4.3127153    4.3127153    5816.4434    24335.115    2151.8699   -9037.6547    -1593.512   -7442.0091    160.06977    80.214406 
   25300    391.74407   -115.13639   0.35445826   -114.78194    3236.8668    4.3161425    4.3161425    4.3161425    3236.8668    27543.521    5354.8703   -23187.791     6708.966   -351.42819    6080.3911     80.40579 
   25400    526.96328   -115.25759   0.47680745   -114.78078   -8170.9554     4.313954     4.313954     4.313954   -8170.9554   -6536.0767    7583.8508    -25560.64    1028.2174    3961.3993   -949.77567    80.283542 
   25500    412.36028   -115.15608   0.37311225   -114.78296   -7179.0823     4.316914     4.316914     4.316914   -7179.0823   -1494.3312    2421.2042    -22464.12    -8903.853   -3575.4974    3365.6293    80.448916 
   25600      499.782   -115.23285   0.45221326   -114.78064   -3459.8267    4.3164404    4.3164404    4.3164404   -3459.8267    3192.5815   -3987.0355   -9585.0261   -8243.7846    2111.8916    3758.8222    80.422441 
   25700    538.56419   -115.26677   0.48730419   -114.77947    4740.6591    4.3106484    4.3106484    4.3106484    4740.6591    22434.436    -406.2102   -7806.2485   -4198.4878    7457.1631   -1972.9753    80.099132 
   25800    399.68054   -115.14365   0.36163935   -114.78201   -8719.5571    4.3231634    4.3231634    4.3231634   -8719.5571    15242.187   -15534.348    -25866.51   -67.463413    794.03029   -1820.7323    80.798807 
   25900    453.05574   -115.19117   0.40993435   -114.78124     -756.947    4.3115363    4.3115363    4.3115363     -756.947    18379.521   -5771.9733   -14878.388   -2215.2662    -3320.196   -3060.6697    80.148639 
   26000    534.32565    -115.2647   0.48346908   -114.78123    4898.9894    4.3137041    4.3137041    4.3137041    4898.9894    13634.811    4466.3172   -3404.1598     5889.119    3419.2113   -621.41341    80.269592 
   26100    635.96951   -115.35578   0.57543858   -114.78034    -14504.25    4.3235073    4.3235073    4.3235073    -14504.25   -15942.676   -1463.6171   -26106.458    3073.7297    125.73073   -3811.3595    80.818094 
   26200    486.79201   -115.22009   0.44045964   -114.77963    2883.3819    4.3059624    4.3059624    4.3059624    2883.3819   -2207.3616    19275.318   -8417.8104   -860.17044   -9463.0306   -3555.8271    79.838191 
   26300    566.88995   -115.29474   0.51293394   -114.78181   -6652.5008    4.3212678    4.3212678    4.3212678   -6652.5008   -13765.616    6747.9481   -12939.835   -3011.1509   -2500.4688    5470.5549    80.692567 
   26400    616.70066   -115.34039   0.55800371   -114.78239    6273.9712    4.3131072    4.3131072    4.3131072    6273.9712     15646.39    6873.0056   -3697.4821   -3097.5592    971.56323    1012.4404    80.236273 
   26500    513.66774   -115.24686   0.46477737   -114.78208    11044.096    4.3064841    4.3064841    4.3064841    11044.096    19414.817    5370.6247    8346.8475   -6608.5903   -202.92447   -1311.2342    79.867214 
   26600    388.12595   -115.13628   0.35118451   -114.78509    -595.4274    4.3228882    4.3228882    4.3228882    -595.4274    17130.962   -14073.987   -4843.2577   -9562.6936   -78.915409    4151.1417     80.78338 
   26700    601.28148   -115.32589   0.54405212   -114.78184     14628.02    4.3045349    4.3045349    4.3045349     14628.02    13650.462   -1221.8999    31455.498   -881.17603    5065.0698    4696.3215    79.758815 
   26800    615.52993   -115.34057   0.55694441   -114.78363    2245.2325    4.3137645    4.3137645    4.3137645    2245.2325    4940.0251   -11736.783    13532.455    2263.8303    5479.8529    738.28877    80.272961 
   26900    472.49116   -115.21061   0.42751993   -114.78309   -13759.441    4.3206246    4.3206246    4.3206246   -13759.441   -17890.583   -19719.499   -3668.2422    -5802.427   -2403.1073   -1249.5263    80.656543 
   27000    595.34887   -115.31929   0.53868417    -114.7806    2748.2048    4.3012344    4.3012344    4.3012344    2748.2048    22.039412   -6724.3247      14946.9   -4760.8716   -4090.8876    6309.2943    79.575489 
   27100    700.47976   -115.41506   0.63380881   -114.78125   -10999.768    4.3197989    4.3197989    4.3197989   -10999.768   -6091.8694   -16803.842   -10103.591    2700.9628   -181.15071   -399.87519    80.610311 
   27200    506.64244   -115.24342   0.45842073     -114.785    -1218.807    4.3093119    4.3093119    4.3093119    -1218.807    7852.7054   -11267.524   -241.60278   -156.23341   -4681.9379    -6627.594    80.024653 
   27300     475.5458   -115.21819   0.43028383   -114.78791   -5379.5325    4.3097039    4.3097039    4.3097039   -5379.5325    8189.6801   -22683.792   -1644.4861   -7333.0552    29.368138     3318.152    80.046491 
   27400    458.35139   -115.19941   0.41472597   -114.78469    2828.6918    4.3198602    4.3198602    4.3198602    2828.6918    17949.798   -17602.399    8138.6763    -319.9989    3999.0382    3731.4263    80.613739 
   27500     690.2907   -115.40464   0.62458953   -114.78005    8591.9135    4.3026155    4.3026155    4.3026155    8591.9135    10447.178   -3147.4614    18476.024   -1356.1796    7425.9218     3139.321    79.652168 
   27600    387.12038   -115.13549   0.35027466   -114.78521   -5334.5999    4.3183907    4.3183907    4.3183907   -5334.5999   -9433.4017    -21204.26    14633.862   -6094.5426   -4090.9508    1594.7419    80.531503 
   27700    462.17839   -115.20131   0.41818872   -114.78312   -1772.5787    4.3138484    4.3138484    4.3138484   -1772.5787   -1363.3577   -14422.772    10468.394   -6218.7712   -568.46589    8394.1111    80.277646 
   27800    679.04721   -115.39419   0.61441619   -114.77978    10575.001    4.3037811    4.3037811    4.3037811    10575.001    13539.581    7101.0532     11084.37    3487.8598    708.99918    1813.4843     79.71692 
   27900    519.82858   -115.25287   0.47035183   -114.78251    -7739.812    4.3202467    4.3202467    4.3202467    -7739.812   -10814.368   -11008.932    -1396.136    2691.3336   -5271.4339    27.184224    80.635381 
   28000    362.04537   -115.11146   0.32758626   -114.78388   -1674.6489    4.3106562    4.3106562    4.3106562   -1674.6489    6639.3393   -12158.379    495.09337   -3666.2524   -5058.3611    4897.5531    80.099566 
   28100     472.0348   -115.21076   0.42710701   -114.78366    4032.2767    4.3102973    4.3102973    4.3102973    4032.2767    18947.349   -6825.4494   -25.069246    1948.0104   -3728.2002   -4015.7485    80.079562 
   28200    542.72969   -115.27264   0.49107323   -114.78157    1765.8118    4.3163963    4.3163963    4.3163963    1765.8118    5508.1896   -5595.1682     5384.414    5051.6602    10854.333   -2376.7082    80.419977 
   28300    372.51515   -115.11987   0.33705953   -114.78281   -6208.1768    4.3143223    4.3143223    4.3143223   -6208.1768    1981.2501   -20296.921   -308.85906   -1463.8356    670.26175   -1570.2087    80.304106 
   28400    359.79061   -115.10841   0.32554611   -114.78286    74.811644    4.3095212    4.3095212    4.3095212    74.811644   -4888.0871    -14349.53    19462.052   -4128.2019   -2590.2195    284.50561    80.036312 
   28500    560.39183   -115.28726    0.5070543   -114.78021   -814.81339     4.317309     4.317309     4.317309   -814.81339    6806.7108   -18274.954    9023.8031    2252.4209    3842.5221    492.87782    80.471003 
   28600    541.86276   -115.27164   0.49028882   -114.78136   -4471.4119    4.3136144    4.3136144    4.3136144   -4471.4119   -7168.5354   -15758.617    9512.9164   -4605.7732   -4382.9214   -1077.0841    80.264586 
   28700    397.26899   -115.14303   0.35945733   -114.78358   -918.94939    4.3086257    4.3086257    4.3086257   -918.94939   -5280.4277   -6152.7726    8676.3521   -7936.6287   -3952.1783    5642.6689    79.986427 
   28800    568.09823   -115.29644   0.51402722   -114.78242   -10476.718    4.3209628    4.3209628    4.3209628   -10476.718    2839.6666   -22156.852   -12112.969    1779.6859   -7110.9425    3871.2416    80.675487 
   28900    575.74504     -115.301   0.52094621   -114.78006    8630.0054    4.3089698    4.3089698    4.3089698    8630.0054    18634.874    4990.8596    2264.2823    4184.2027   -1471.3552    2426.3836    80.005593 
   29000    476.00216   -115.21229   0.43069676   -114.78159    2199.1905    4.3108532    4.3108532    4.3108532    2199.1905    11469.093    5894.9398   -10766.461   -2779.9488   -830.12443    1230.6014    80.110548 
   29100    452.06351   -115.19361   0.40903656   -114.78457   -10801.652    4.3209156    4.3209156    4.3209156   -10801.652   -7378.9207   -18395.744   -6630.2923   -1905.5772   -3243.5107    1708.5545    80.672842 
   29200    456.17434    -115.1977   0.41275613   -114.78494    17646.491    4.3004642    4.3004642    4.3004642    17646.491    21713.234    15050.727    16175.513    6802.1256    7662.3492   -1341.3112     79.53275 
   29300     597.9519   -115.32684   0.54103944    -114.7858   -2109.0947    4.3169996    4.3169996    4.3169996   -2109.0947   -7567.6483   -6964.0191    8204.3833    5527.3754   -1652.6304   -2449.6264    80.453703 
   29400    389.98778   -115.13774   0.35286914   -114.78487   -6458.4988    4.3195043    4.3195043    4.3195043   -6458.4988   -15863.148   -16296.875    12784.526   -9473.0834   -232.18379    1761.5203    80.593816 
   29500    513.62308   -115.24602   0.46473696   -114.78128    8166.1649    4.2969202    4.2969202    4.2969202    8166.1649    5591.1242    4756.6943    14150.676   -1382.9802   -8728.5305    -515.4718    79.336284 
   29600    637.52812   -115.35871   0.57684884   -114.78186   -10323.763     4.322716     4.322716     4.322716   -10323.763   -5364.6378    -24779.16   -827.49227    3454.9816   -723.78615   -2214.1199    80.773727 
   29700    613.07027   -115.33877   0.55471887   -114.78405    -2221.455    4.3098237    4.3098237    4.3098237    -2221.455    8647.9851   -10598.883   -4713.4669    -6524.827   -760.85027    6448.9601    80.053168 
   29800    512.42009   -115.24968   0.46364847   -114.78603    101.21057    4.3052122    4.3052122    4.3052122    101.21057    15469.617   -8801.2196   -6364.7654   -2444.0121   -8288.9025    8187.8713    79.796473 
   29900    611.77013   -115.33564   0.55354247   -114.78209   -14087.258    4.3241863    4.3241863    4.3241863   -14087.258   -242.16366   -25494.204   -16525.405     6876.323    6079.4165   -1095.4759    80.856174 
   30000    703.39603   -115.41653   0.63644751   -114.78008    5174.2641    4.3039557    4.3039557    4.3039557    5174.2641    9157.9012   -6709.5743    13074.465    7604.7185    4541.6674   -937.05337    79.726627 
   30100    547.38694   -115.28059   0.49528721    -114.7853     585.4953    4.3142586    4.3142586    4.3142586     585.4953    1460.1954   -11780.615    12076.905   -6721.4098    1802.4363     3960.869    80.300553 
   30200    580.78454   -115.30894   0.52550605   -114.78344   -7653.5778    4.3208023    4.3208023    4.3208023   -7653.5778   -11810.394   -19487.876     8337.536    2395.1013   -6436.2333     4338.475    80.666495 
   30300    581.36183   -115.30558   0.52602841   -114.77956    12161.249    4.3058433    4.3058433    4.3058433    12161.249    8078.1669   -3828.8616    32234.441     5979.227   -4385.3841   -4491.5066    79.831568 
   30400    655.18771   -115.37442   0.59282761   -114.78159   -1516.9608    4.3164713    4.3164713    4.3164713   -1516.9608    14205.397   -14108.236   -4648.0438   -3940.9128   -3999.5445   -2474.6482    80.424169 
   30500    496.54911   -115.23287   0.44928807   -114.78358    1707.1311    4.3164449    4.3164449    4.3164449    1707.1311    15757.936   -6409.6127   -4226.9299   -2228.1635   -7483.7626    3473.5946     80.42269 
   30600     546.1132   -115.27686    0.4941347   -114.78272     3329.236    4.3074971    4.3074971    4.3074971     3329.236    18375.961   -8809.3409    421.08772    2427.8673    2358.3287    -1389.401    79.923589 
   30700    632.47238   -115.35659    0.5722743   -114.78432    4618.2223    4.3140943    4.3140943    4.3140943    4618.2223    7125.6777    3623.5352    3105.4541   -1593.1483     1802.894    26.435429    80.291374 
   30800    555.06723   -115.28587   0.50223649   -114.78364   -2416.0254    4.3196064    4.3196064    4.3196064   -2416.0254   -5202.3557   -5856.5847    3810.8641   -4500.2558    5496.0502    2536.0782    80.599533 
   30900    548.83126   -115.27792   0.49659406   -114.78132    7384.1849    4.3004769    4.3004769    4.3004769    7384.1849    59.922884    693.85033    21398.781     5143.768   -2978.7913     708.9968    79.533456 
   31000    565.25652   -115.29524   0.51145597   -114.78378   -2323.5862    4.3170942    4.3170942    4.3170942   -2323.5862   -16740.136   -5569.4919    15338.869    8032.0676    849.25476   -1299.1736     80.45899 
   31100    650.80174   -115.37072   0.58885909   -114.78186   -5285.6919    4.3159044    4.3159044    4.3159044   -5285.6919    -10128.22   -5264.3853   -464.47055   -1531.3289    -947.1434    1449.7248    80.392486 
   31200    510.24657    -115.2437   0.46168182   -114.78202    9460.7324    4.3002388    4.3002388    4.3002388    9460.7324    9448.5739    3866.8654    15066.758    -4211.766   -9985.4599    5574.1607    79.520246 
   31300    490.75915   -115.22733   0.44404919   -114.78328   -11902.381    4.3201595    4.3201595    4.3201595   -11902.381   -7530.5999   -19357.058   -8819.4858    4373.9664    2346.8253    -5089.689    80.630497 
   31400    580.87492   -115.30903   0.52558784   -114.78345   -2229.9679    4.3080908    4.3080908    4.3080908   -2229.9679    4230.3118   -9599.0572   -1321.1582    2601.8232    -1011.199   -8695.5351    79.956643 
   31500    430.56491   -115.17535   0.38958418   -114.78577    7896.1874    4.3061401    4.3061401    4.3061401    7896.1874    8546.4591     6079.776    9062.3271   -5402.8801    3439.0129    5235.3708    79.848075 
   31600    426.30588   -115.17064   0.38573052   -114.78491   -5419.4192    4.3185717    4.3185717    4.3185717   -5419.4192   -4937.3305   -20854.263    9533.3355   -937.38557   -874.32281    6601.8116    80.541626 
   31700    471.60455   -115.20968   0.42671771   -114.78296    1277.7791    4.3081858    4.3081858    4.3081858    1277.7791   -6810.2497   -7723.9671    18367.554     1189.221    7136.0785   -2148.6956    79.961932 
   31800    468.42276   -115.20776   0.42383875   -114.78393    1281.0226    4.3110389    4.3110389    4.3110389    1281.0226   -6552.7098   -3500.3962    13896.174    -1955.949    2587.9247   -1419.9891    80.120901 
   31900    510.10566   -115.24442   0.46155433   -114.78287   -3033.5713    4.3144669    4.3144669    4.3144669   -3033.5713   -11339.903   -5451.7169    7690.9064    1398.2725   -6366.1074    6523.2551    80.312183 
   32000    473.95654   -115.21132   0.42884583   -114.78247     1243.014     4.307023     4.307023     4.307023     1243.014   -9774.7634   -6449.9042    19953.709    4549.5928   -2133.3383   -1645.4016    79.897203 
   32100    489.55654   -115.22633   0.44296104   -114.78337     -6110.35    4.3118773    4.3118773    4.3118773     -6110.35   -12316.665   -15848.613    9834.2281    372.79853   -2144.8822   -11329.076    80.167655 
   32200    481.59229   -115.21976   0.43575483   -114.78401   -1124.6895    4.3114173    4.3114173    4.3114173   -1124.6895   -14820.432    734.20318    10712.161   -2843.1057    2096.8762   -3172.9723    80.142002 
   32300    424.44388   -115.16741   0.38404574   -114.78336    6075.7585     4.308283     4.308283     4.308283    6075.7585    -3112.479   -5144.9442    26484.699    4582.5179   -5975.8011    621.09868    79.967342 
   32400    474.60749   -115.21186   0.42943483   -114.78243   -5949.7747    4.3124934    4.3124934    4.3124934   -5949.7747   -7381.4006   -18238.142    7770.2183    5098.7277    3180.0281   -9115.0621    80.202025 
   32500    382.88897   -115.12883   0.34644598   -114.78239   -5232.8577    4.3123739    4.3123739    4.3123739   -5232.8577   -11649.897   -8074.4048    4025.7291   -510.99326    4683.3071   -4378.1605    80.195355 
   32600    510.86744   -115.24416   0.46224359   -114.78191   -2220.0747    4.3082467    4.3082467    4.3082467   -2220.0747    -6590.305    581.43022   -651.34929   -137.94585   -1339.5143    4791.3733    79.965321 
   32700    419.50459   -115.16424   0.37957657   -114.78467    4282.1799    4.3094032    4.3094032    4.3094032    4282.1799    5190.7882   -7079.1809    14734.933    291.75491   -3410.0988   -445.90938    80.029738 
   32800    435.41484    -115.1795    0.3939725   -114.78553   -1866.7607    4.3085386    4.3085386    4.3085386   -1866.7607   -44.452553   -9776.3103    4220.4808   -1458.7858   -3898.6544   -11848.282    79.981578 
   32900    384.51611   -115.13373   0.34791826   -114.78581   -2816.3925     4.313388     4.313388     4.313388   -2816.3925   -16368.891   -14979.366    22899.079    -2877.437    1461.7718   -724.84499    80.251948 
   33000    432.27343   -115.17492   0.39113008   -114.78379    11793.578    4.3059605    4.3059605    4.3059605    11793.578   -7178.7326    11864.562    30694.905   -1687.9586   -5666.5284    261.39984    79.838085 
   33100    450.85254   -115.19128   0.40794085   -114.78334    1604.0549    4.3118428    4.3118428    4.3118428    1604.0549    1858.0589   -17408.048    20362.154    1620.0878    2705.9821   -11518.731    80.165732 
   33200    359.38562    -115.1081   0.32517966   -114.78292   -5136.6168    4.3130348    4.3130348    4.3130348   -5136.6168   -17568.337   -11546.461    13704.948   -5165.5829    840.84606   -5573.1572    80.232237 
   33300    525.01746   -115.25669   0.47504683   -114.78164    -4516.317    4.3064877    4.3064877    4.3064877    -4516.317   -19813.059    -1848.478    8112.5854    648.05103    2814.5534    3379.3305    79.867417 
   33400    370.22026   -115.11743   0.33498307   -114.78245     2524.121    4.3133047    4.3133047    4.3133047     2524.121   -9073.2125   -2432.5804    19078.156    5222.3029    3547.0903   -4994.6409    80.247299 
   33500    440.15721    -115.1814    0.3982635   -114.78314   -5002.1555    4.3090017    4.3090017    4.3090017   -5002.1555   -2804.8424   -20731.535    8529.9104    -2361.873   -3427.4097   -7555.6121    80.007368 
   33600    324.90246   -115.07894   0.29397858   -114.78496   -4365.8579    4.3114928    4.3114928    4.3114928   -4365.8579   -20349.174    -12402.57    19654.171    435.94778    2248.4933    1114.1706    80.146209 
   33700     447.1935   -115.18718   0.40463008   -114.78255    -8606.573    4.3159585    4.3159585    4.3159585    -8606.573   -22251.204   -13200.865    9632.3502    2665.5206   -3966.7776    1098.4302     80.39551 
   33800    357.10158   -115.10539   0.32311302   -114.78227    7955.5093    4.3038535    4.3038535    4.3038535    7955.5093    15783.491    1282.7939    6800.2426    1746.3677    2001.4223   -15254.289    79.720944 
   33900    395.76956   -115.14155   0.35810061   -114.78344     -5112.78    4.3126678    4.3126678    4.3126678     -5112.78   -2318.5811   -12025.823   -993.93555   -3321.2391   -2235.5617    -8851.844    80.211754 
   34000      410.002   -115.15325   0.37097842   -114.78227   -7561.0542    4.3166902    4.3166902    4.3166902   -7561.0542   -13829.445   -17642.176    8788.4581   -2179.7897   -1198.3318    5033.8778    80.436401 
   34100    458.79124   -115.19635   0.41512395   -114.78122      8241.46    4.3016842    4.3016842    4.3016842      8241.46     13001.26    4154.3002    7568.8201    1443.0397    2379.6908   -9566.5695    79.600461 
   34200    333.24572   -115.08599   0.30152773   -114.78446    5613.8652    4.3142877    4.3142877    4.3142877    5613.8652    426.68926   -2300.0615    18714.968   -5540.1199     987.3696   -7256.5802    80.302178 
   34300    398.46376   -115.14338   0.36053838   -114.78284    1283.3997    4.3121898    4.3121898    4.3121898    1283.3997   -4580.4146   -12952.373    21382.986   -3092.0989    5006.1518    4382.0246    80.185089 
   34400    460.68838   -115.19775   0.41684053   -114.78091    2527.0129    4.3046442    4.3046442    4.3046442    2527.0129   -7772.7908    1501.5741    13852.256    966.53021   -3931.9415   -337.18465    79.764895 
   34500    460.66944   -115.19916   0.41682339   -114.78234   -8362.2127    4.3168899    4.3168899    4.3168899   -8362.2127   -14158.407   -14280.616    3352.3844    320.90216    573.30339   -6454.5829    80.447566 
   34600    382.71492   -115.13073    0.3462885   -114.78445    6270.5101    4.3050425    4.3050425    4.3050425    6270.5101    7497.3836     3691.401    7622.7458   -2441.7573   -1993.2842    -10336.47    79.787036 
   34700     498.3751   -115.23545   0.45094026   -114.78451   -9576.8876    4.3095152    4.3095152    4.3095152   -9576.8876   -21193.213   -9188.3871    1650.9378   -2876.8419    615.10364    5144.9345    80.035976 
   34800    425.80716   -115.16865   0.38527926   -114.78337   -15295.987    4.3183866    4.3183866    4.3183866   -15295.987   -14755.518   -26817.661   -4314.7803    3743.8259   -206.03084   -11349.092    80.531271 
   34900    381.52334   -115.12759   0.34521034   -114.78238    9886.5452    4.3017988    4.3017988    4.3017988    9886.5452    13517.124    2187.4579    13955.054    -3531.679   -2891.0022   -13019.366    79.606821 
   35000    469.14005   -115.20686   0.42448777   -114.78237   -2043.7234    4.3125477    4.3125477    4.3125477   -2043.7234   -11669.855   -4676.6235    10215.308   -4615.3736    7870.0711    5442.7056    80.205056 
   35100    362.33226   -115.11095   0.32784584   -114.78311   -6626.8265    4.3156933    4.3156933    4.3156933   -6626.8265    -10764.32   -15597.045    6480.8856    1388.9291    2951.6258    -7533.462    80.380687 
   35200    507.28337   -115.24025   0.45900065   -114.78125   -2640.8012    4.3027032    4.3027032    4.3027032   -2640.8012     9543.143   -13857.417   -3608.1293   -1097.1491    1921.7093   -8055.1185    79.657043 
   35300    411.88734    -115.1559   0.37268432   -114.78322    6215.2094    4.3117637    4.3117637    4.3117637    6215.2094   -4782.8339    2064.5112    21363.951   -3516.4865   -2491.7229    1138.1412    80.161319 
   35400    489.40963   -115.22502   0.44282812    -114.7822   -6346.9128    4.3142974    4.3142974    4.3142974   -6346.9128   -16694.863    -6341.749    3995.8742   -3987.7265    996.52728   -1386.5761    80.302715 
   35500     384.2642    -115.1298   0.34769032   -114.78211    994.95515    4.3035154    4.3035154    4.3035154    994.95515     5470.981    -5407.683    2921.5675   -384.77065   -583.42324   -9337.7441    79.702158 
   35600    555.39971   -115.28575   0.50253733   -114.78321   -5735.6698    4.3132954    4.3132954    4.3132954   -5735.6698   -15271.866   -20003.104     18067.96    -2272.575   -2379.2804    -8376.873     80.24678 
   35700    468.33195   -115.20649   0.42375659   -114.78274    2351.8618    4.3120993    4.3120993    4.3120993    2351.8618   -4561.0891    4583.0074    7033.6671   -1713.9911    5960.1115    5985.3929    80.180037 
   35800    422.03783   -115.16422    0.3818687   -114.78235    2018.5347     4.302215     4.302215     4.302215    2018.5347   -663.14569    4872.9949    1845.7548    1511.4111    2275.1796   -5337.8003    79.629929 
   35900    562.21144   -115.29192   0.50870072   -114.78322    -15101.81    4.3163737    4.3163737    4.3163737    -15101.81   -14697.291   -18675.161   -11932.979   -1036.2541    79.600272   -12736.849    80.418711 
   36000    490.97329   -115.22711   0.44424295   -114.78287    3398.5554    4.3083658    4.3083658    4.3083658    3398.5554    3799.7606   -6838.0004    13233.906   -2563.1498    3224.9113    5157.2688    79.971957 
   36100    465.92762   -115.20536    0.4215811   -114.78378    2941.4863    4.3044807    4.3044807    4.3044807    2941.4863   -665.04387    11497.267   -2007.7641   -919.38135    6984.3679   -287.41238    79.755804 
   36200    415.01132   -115.16036   0.37551096   -114.78485   -6170.9082    4.3156788    4.3156788    4.3156788   -6170.9082   -7887.3599   -13208.953    2583.5881    2486.1113   -1290.3936   -6768.5104    80.379877 
   36300    551.52516   -115.28046   0.49903155   -114.78143    6272.7205     4.304911     4.304911     4.304911    6272.7205    12803.135   -3363.5958     9378.622   -2025.5511    -3965.003   -817.69709    79.779727 
   36400    503.80288   -115.23919   0.45585143   -114.78334   -469.73665    4.3109679    4.3109679    4.3109679   -469.73665   -10498.392   -9302.0874    18391.269   -3276.3646    4650.3837    99.130036     80.11694 
   36500    379.96181   -115.12914   0.34379743   -114.78534    7032.3018    4.3078088    4.3078088    4.3078088    7032.3018    4437.8352    9154.2699    7504.8002   -761.25108    4770.1647   -3045.7381     79.94094 
   36600    656.18209   -115.37578   0.59372735   -114.78205   -6179.0729    4.3113356    4.3113356    4.3113356   -6179.0729   -7110.2556   -7370.3793   -4056.5839    526.95487   -273.09942   -7166.7759    80.137443 
   36700    518.86116    -115.2514   0.46947648   -114.78193    2736.3077     4.310012     4.310012     4.310012    2736.3077   -11933.197   -7952.8492    28094.969   -636.80131    1505.5238    2239.7774    80.063658 
   36800    504.64949   -115.23984   0.45661747   -114.78322    1267.5462    4.3058923    4.3058923    4.3058923    1267.5462   -3111.6546    1879.6872    5034.6061   -1719.1391    11487.717    254.88042    79.834293 
   36900    483.01779   -115.22087   0.43704465   -114.78383   -4293.3137     4.314833     4.314833     4.314833   -4293.3137   -11645.661   -1768.0306     533.7506    830.53777   -2812.2434    -10327.18    80.332629 
   37000    639.54903   -115.36184    0.5786774   -114.78317   -948.62086    4.3054235    4.3054235    4.3054235   -948.62086    771.04188   -9643.0366    6026.1322   -3810.8391   -3264.0625    5493.8947     79.80822 
   37100    485.78266   -115.22627   0.43954636   -114.78672   -748.91032    4.3071945    4.3071945    4.3071945   -748.91032   -5622.5198     2786.562    589.22681   -2663.0074    6063.4599     5655.518    79.906747 
   37200    515.99224   -115.25263   0.46688062   -114.78575   -7828.3375    4.3144784    4.3144784    4.3144784   -7828.3375    6175.6791   -8118.0807   -21542.611    1619.4322    6204.6237   -5387.1059    80.312825 
   37300    654.17369   -115.37434    0.5919101   -114.78243    3445.0336     4.304839     4.304839     4.304839    3445.0336    4486.2415   -628.33751    6477.1967   -3638.9021   -125.28591   -4040.5286    79.775719 
   37400    586.32382   -115.31462   0.53051811    -114.7841    3454.1075    4.3084861    4.3084861    4.3084861    3454.1075    12183.363   -6798.0478    4977.0076    -1378.676   -3149.3922    2936.9109    79.978653 
   37500    475.76192   -115.21617   0.43047938   -114.78569    -1681.235    4.3143541    4.3143541    4.3143541    -1681.235   -729.41859   -6953.9049    2639.6184   -1313.8667     13603.34    4175.1555    80.305883 
   37600    626.75625   -115.35049   0.56710223   -114.78339    10216.601    4.3014466    4.3014466    4.3014466    10216.601      8121.03    5349.9562    17178.815    3562.9736    3754.3085   -7324.1464    79.587267 
   37700    682.20982    -115.4014   0.61727779   -114.78413    1597.1245    4.3118603    4.3118603    4.3118603    1597.1245    9633.7026   -8338.1485    3495.8195   -478.35746   -3701.3101   -1665.5315    80.166709 
   37800    536.71445   -115.27082   0.48563051   -114.78519   -3658.8856    4.3124659    4.3124659    4.3124659   -3658.8856   -8118.5224   -13299.948    10441.814    -5127.461    993.97214      9699.25    80.200487 
   37900    536.60526   -115.27102   0.48553171   -114.78549    5127.6405    4.3026816    4.3026816    4.3026816    5127.6405    7204.5553    9983.3266   -1804.9603    3230.6439    8026.6126    562.79661    79.655842 
   38000    764.72809   -115.47471   0.69194205   -114.78277   -9348.7406    4.3158515    4.3158515    4.3158515   -9348.7406   -6651.2989   -14726.854   -6668.0685   -3572.2234    3265.0969    139.81505    80.389527 
   38100    531.90136   -115.26536   0.48127553   -114.78408   -3965.5483    4.3108824    4.3108824    4.3108824   -3965.5483    1515.9433   -14457.203    1044.6143   -3520.5865    172.68014    5618.5415    80.112175 
   38200    498.98245   -115.23592    0.4514898   -114.78443   -2354.6196      4.30199      4.30199      4.30199   -2354.6196    -3307.699   -2840.0518   -916.10799   -2653.6588    14323.965    4729.6975    79.617438 
   38300    568.01936   -115.29845   0.51395586   -114.78449   -2351.9336    4.3156713    4.3156713    4.3156713   -2351.9336   -266.14659   -3029.7134   -3759.9409   -436.19176    3101.9368    1890.3687     80.37946 
   38400    699.73693   -115.41561   0.63313668   -114.78247   -2000.2571    4.3100985    4.3100985    4.3100985   -2000.2571    1644.2213   -15727.498     8082.505     2728.586   -94.778392    2881.8715    80.068479 
   38500    432.06775   -115.17555   0.39094398   -114.78461    3187.0517    4.3059784    4.3059784    4.3059784    3187.0517    8439.9679   -6881.9331    8003.1203   -2982.7967    10470.902    6646.1707    79.839083 
   38600    619.18471   -115.34403   0.56025134   -114.78378    -8498.721    4.3154627    4.3154627    4.3154627    -8498.721   -6552.3028   -15211.466   -3732.3939    1594.1954    4791.7504   -3219.8985    80.367805 
   38700    693.74454   -115.40909   0.62771464   -114.78138    3540.9013    4.3105135    4.3105135    4.3105135    3540.9013   -4516.3425    -2458.092    17597.138   -2117.7425   -3659.9556   -2057.1149    80.091611 
   38800    556.25549   -115.28773   0.50331166   -114.78442    7680.0934    4.3050644    4.3050644    4.3050644    7680.0934    10994.383    -13867.88    25913.778    -1401.066   -1366.8494    7349.9605    79.788252 
   38900    480.49857   -115.22152   0.43476521   -114.78675   -8804.4151    4.3155273    4.3155273    4.3155273   -8804.4151   -8939.5522   -19527.164    2053.4708    3186.4107     16731.24    5460.8686    80.371413 
   39000    607.71315   -115.33412   0.54987163   -114.78425    1028.8257    4.3072305    4.3072305    4.3072305    1028.8257   -1890.9114   -6943.7935    11921.182   -122.80964    6754.6018   -1885.3782    79.908751 
   39100    594.57679   -115.32375   0.53798558   -114.78576    1426.9395    4.3095517    4.3095517    4.3095517    1426.9395    5642.0688   -8391.2794    7030.0291   -1075.0484   -5510.8041    6115.1935    80.038008 
   39200     403.3465   -115.15248   0.36495639   -114.78753   -7183.5244    4.3145168    4.3145168    4.3145168   -7183.5244    9707.1603   -23899.128   -7358.6051   -2695.2109    5883.5243    8466.5664    80.314967 
   39300    393.34329   -115.14254   0.35590528   -114.78664    228.36348    4.3069957    4.3069957    4.3069957    228.36348   -474.45235   -1661.0996    2820.6423   -650.96555    11289.419    691.86671    79.895681 
   39400    488.08217   -115.22552   0.44162701   -114.78389     493.2635    4.3137663    4.3137663    4.3137663     493.2635   -2390.7851   -16795.989    20666.564   -216.39538   -3919.6405   -4958.7185    80.273065 
   39500    433.08949   -115.17556   0.39186847   -114.78369   -763.60821    4.3137935    4.3137935    4.3137935   -763.60821   -3309.5658    -7784.701    8803.4421    -2990.751   -4854.6046     980.8392    80.274582 
   39600    295.15609   -115.05175   0.26706343   -114.78469    3480.1934    4.3076432    4.3076432    4.3076432    3480.1934   -4961.9979    6169.7734    9232.8048   -2637.1084    15425.753    5344.3045    79.931724 
   39700    576.34675   -115.30394   0.52149065   -114.78245   -8211.0297    4.3129742    4.3129742    4.3129742   -8211.0297   -16549.355   -9370.8634    1287.1294   -2811.0559    8026.8048   -3701.4086    80.228851 
   39800    494.28601   -115.23078   0.44724037   -114.78354   -3222.2918    4.3138573    4.3138573    4.3138573   -3222.2918   -19310.928   -9622.8539    19266.907   -2637.7043   -856.68662    2699.9501    80.278142 
   39900    356.02833   -115.10641   0.32214192   -114.78427    9088.6238    4.3043237    4.3043237    4.3043237    9088.6238   -4454.8613    12919.275    18801.457     1120.898    6206.5658    6575.7528     79.74708 
   40000    285.23309    -115.0435    0.2580849   -114.78542    1853.5865    4.3168629    4.3168629    4.3168629    1853.5865   -17521.852   -10564.573    33647.185    2134.7768    10281.311     3825.624     80.44606 
   40100    515.60905   -115.25137    0.4665339   -114.78484     1177.042      4.30626      4.30626      4.30626     1177.042   -6808.6312   -1205.2155    11544.973   -390.78205    -4939.905   -391.16269    79.854747 
   40200    403.02453   -115.15268   0.36466507   -114.78802    -326.2322    4.3089373    4.3089373    4.3089373    -326.2322   -7236.7223   -7491.1295    13749.155     550.2599   -4013.0855   -13.106772    80.003784 
   40300    336.66072   -115.09024   0.30461769   -114.78562   -9906.2767    4.3186764    4.3186764    4.3186764   -9906.2767   -5650.9234   -8403.9835   -15663.923    2378.4557    12444.947    4555.6673    80.547483 
   40400    388.54805   -115.13385   0.35156644   -114.78228    15387.853    4.3004219    4.3004219    4.3004219    15387.853    7221.7838    8721.0334    30220.741     1938.715    7996.3964   -5495.3653    79.530405 
   40500    437.16032   -115.17882   0.39555185   -114.78327   -10737.367    4.3201402    4.3201402    4.3201402   -10737.367   -17162.437   -29228.191    14178.527   -1975.9063    1736.9695   -2130.7055    80.629419 
   40600    203.64465   -114.96886   0.18426196   -114.78459    2524.2348    4.3097545    4.3097545    4.3097545    2524.2348   -6055.4331   -14531.373    28159.511   -3009.5612    8418.3206    2347.4586    80.049313 
   40700    438.71964    -115.1813   0.39696275   -114.78434   -583.14432    4.3078688    4.3078688    4.3078688   -583.14432   -9581.3416    1628.5782    6203.3305    1130.0928    13646.977    2681.1155    79.944283 
   40800    561.37248   -115.28893   0.50794162   -114.78099   -7985.0734    4.3181622    4.3181622    4.3181622   -7985.0734   -11712.305   -16603.449    4360.5334   -1739.8538   -6462.5862    1422.3333     80.51872 
   40900    549.97852   -115.27847   0.49763212   -114.78084   -12818.683    4.3086538    4.3086538    4.3086538   -12818.683   -13252.196   -17438.388   -7765.4659   -3207.0074    715.84969    3346.3581    79.987993 
   41000    330.22399   -115.08439   0.29879361   -114.78559   -7623.7861    4.3119879    4.3119879    4.3119879   -7623.7861   -26760.099   -9747.0876    13635.828   -745.10933    9609.3837    5084.5993    80.173824 
   41100    553.44706   -115.28503   0.50077053   -114.78426   -1111.8404    4.3123288    4.3123288    4.3123288   -1111.8404   -10872.875   -6540.5746    14077.928   -2987.6293    4789.3809    1159.9011     80.19284 
   41200    465.34222   -115.20487   0.42105142   -114.78382    6885.1394    4.3089938    4.3089938    4.3089938    6885.1394    2485.9776   -11811.772    29981.213   -149.14388   -264.10135   -2075.3136    80.006928 
   41300    401.53784   -115.14998   0.36331987   -114.78666   -7454.2816    4.3125505    4.3125505    4.3125505   -7454.2816   -6846.4914   -10977.413   -4538.9403     1378.313    14840.628   -1742.3497    80.205211 
   41400    437.40064   -115.18149   0.39576929   -114.78572   -2830.2085    4.3131173    4.3131173    4.3131173   -2830.2085    4423.0722   -2300.4841   -10613.214     1775.807    12640.493   -2383.7755    80.236839 
   41500    618.03028   -115.34089   0.55920679   -114.78168    3775.2314    4.3101544    4.3101544    4.3101544    3775.2314    17476.466   -6040.9641   -109.80814    4649.4572   -4894.6788   -3339.6147    80.071594 
   41600     516.0539    -115.2503   0.46693641   -114.78337    -1959.239    4.3129484    4.3129484    4.3129484    -1959.239     4332.408   -5562.5295   -4647.5954    1356.3587   -1851.8138    4689.5588    80.227411 
   41700    415.89925   -115.16124   0.37631438   -114.78492   -422.93446     4.312831     4.312831     4.312831   -422.93446    -10458.69    5286.6769    3903.2099     2150.965    9394.8849    3728.3432    80.220862 
   41800    613.11173   -115.33671   0.55475638   -114.78195    1432.9584     4.313255     4.313255     4.313255    1432.9584   -11939.669   -2960.6183    19199.163    2096.3126   -1640.9356    778.27637    80.244526 
   41900    593.82508   -115.31853   0.53730542   -114.78123    6110.5221    4.3114909    4.3114909    4.3114909    6110.5221   -3945.1453   -51.333142    22328.045   -657.62759     259.5843    5798.7943    80.146106 
   42000    502.78718   -115.23831   0.45493241   -114.78338   -824.73777    4.3148342    4.3148342    4.3148342   -824.73777   -10559.382    8285.8539   -200.68502    269.28542    12935.924    7433.4915    80.332695 
   42100    638.90357   -115.35873   0.57809337   -114.78064   -1894.5845    4.3142586    4.3142586    4.3142586   -1894.5845   -3950.0873    4977.3809    -6711.047   -4598.1894    13223.728    3204.8477    80.300552 
   42200    656.57107   -115.37419    0.5940793   -114.78011    10496.507    4.3081489    4.3081489    4.3081489    10496.507    19937.147    8487.5246    3064.8508   -7431.1501   -1525.2206   -4194.0863    79.959878 
   42300    568.90539    -115.2972   0.51475755   -114.78244   -415.38716    4.3169037    4.3169037    4.3169037   -415.38716    14070.387   -2755.3056   -12561.243   -4948.3984    2359.0818   -1275.2237    80.448342 
   42400    474.25233   -115.21197   0.42911347   -114.78286    8221.9427    4.3114225    4.3114225    4.3114225    8221.9427    10814.372    4995.8446    8855.6116   -4653.2973    6222.9896   -578.57726    80.142293 
   42500    630.33156   -115.35182   0.57033724   -114.78148    8660.4652    4.3090994    4.3090994    4.3090994    8660.4652    14694.069   -366.05177    11653.378   -1418.0675   -5356.8457      -4671.2    80.012813 
   42600    550.02915   -115.27984   0.49767794   -114.78216     2961.959    4.3157614    4.3157614    4.3157614     2961.959    1720.4121   -13271.494    20436.959   -4363.9824   -5971.6677   -2299.7544    80.384494 
   42700    572.40663   -115.30109   0.51792555   -114.78316   -4366.6542    4.3085471    4.3085471    4.3085471   -4366.6542   -7128.8372   -786.70262   -5184.4229    1167.0098    9455.6848   -361.90803    79.982052 
   42800    646.76025   -115.36849   0.58520227   -114.78329   -4433.4631    4.3088684    4.3088684    4.3088684   -4433.4631   -9876.9755    1443.2483   -4866.6621   -302.75377    13518.896    1125.9303    79.999946 
   42900    725.28337   -115.43805   0.65625163    -114.7818   -12200.452    4.3185381    4.3185381    4.3185381   -12200.452    -9877.245   -19626.774   -7097.3377   -4015.8272   -3482.3322    3131.3012    80.539749 
   43000      604.797   -115.33095   0.54723303   -114.78372   -1312.0259    4.3042386    4.3042386    4.3042386   -1312.0259   -2175.6049   -1859.0853    98.612464    3756.3713    11321.924    6212.1704    79.742349 
   43100    526.03951   -115.26072   0.47597161   -114.78475   -1657.8992    4.3108819    4.3108819    4.3108819   -1657.8992   -4726.5504   -4789.9328    4542.7856    1263.5461    9990.5016    531.56681    80.112147 
   43200    577.95126   -115.30596   0.52294245   -114.78302   -5518.0649    4.3194627    4.3194627    4.3194627   -5518.0649   -304.09537   -23668.726    7418.6265   -2070.6697   -4044.0739   -3777.0762    80.591487 
   43300    578.82719   -115.30456   0.52373501   -114.78082    12862.194    4.2997472    4.2997472    4.2997472    12862.194    14734.448   -3275.5648      27127.7   -2102.6823   -4618.4469    541.47554    79.492978 
   43400    526.88055    -115.2606   0.47673259   -114.78386   -6303.1524    4.3171827    4.3171827    4.3171827   -6303.1524   -2447.2712   -11060.226   -5401.9597   -1367.6752     6698.275    1780.1836    80.463939 
   43500    603.89648   -115.32875   0.54641823   -114.78233   -4709.7906    4.3130795    4.3130795    4.3130795   -4709.7906    3481.1014   -10954.362   -6656.1114   -941.88325    6926.0381   -4948.7372    80.234731 
   43600    588.07967   -115.31339   0.53210684   -114.78128    8523.8034    4.3038616    4.3038616    4.3038616    8523.8034    9055.9041   -5044.6366    21560.143   -3316.3912   -2758.4332   -3546.1943    79.721395 
   43700    487.43858   -115.22354   0.44104467    -114.7825   -5286.8607    4.3188308    4.3188308    4.3188308   -5286.8607   -7247.9151   -15427.558    6814.8906   -497.20861    11374.322    6178.3617    80.556128 
   43800    446.46508   -115.18518   0.40397099   -114.78121    6926.6558    4.3075634    4.3075634    4.3075634    6926.6558   -3917.1406   -36.664379    24733.772   -4245.3539    8714.0966    5223.7015    79.927283 
   43900    494.41537   -115.22952   0.44735742   -114.78217    62.973228    4.3112942    4.3112942    4.3112942    62.973228   -10398.886   -9436.1863    20023.992   -4116.1153   -1295.7721    1253.7769    80.135138 
   44000    455.23957   -115.19428   0.41191033   -114.78237   -676.23693    4.3124423    4.3124423    4.3124423   -676.23693    1853.9264    -7132.125    3249.4878    1490.4112   -4709.1089    1396.0446    80.199173 
   44100    505.10826   -115.23912   0.45703257   -114.78209   -6919.0837    4.3097677    4.3097677    4.3097677   -6919.0837   -13488.337    939.66637   -8208.5804    491.90203    5108.2625    4111.2967    80.050047 
   44200    514.51571   -115.24743   0.46554463   -114.78189   -7754.9067     4.311074     4.311074     4.311074   -7754.9067    -16612.35   -2591.1135   -4061.2563    1565.4486    5066.9448   -584.11098    80.122856 
   44300    350.99964   -115.10191   0.31759185   -114.78432    5402.7113    4.3111399    4.3111399    4.3111399    5402.7113    5369.5377   -6532.9987    17371.595   -1225.5964   -5992.3431   -5240.7728    80.126532 
   44400    425.00815    -115.1681   0.38455631   -114.78354   -3676.3253    4.3127306    4.3127306    4.3127306   -3676.3253   -6958.2032    -11373.94    7303.1675    2337.9876    12982.074   -1424.5691     80.21526 
   44500    267.47205   -115.02559   0.24201433   -114.78358    11606.296    4.3062512    4.3062512    4.3062512    11606.296     108.4332    1151.3412    33559.114    3426.4421    10901.996    -2717.532     79.85426 
   44600     363.7655   -115.11307   0.32914266   -114.78393   -5715.5021    4.3175765    4.3175765    4.3175765   -5715.5021   -1938.6845   -23352.075    8144.2535     766.4377    5013.7327   -6205.7114    80.485961 
   44700    318.11148   -115.06958   0.28783395   -114.78175     6198.328     4.310017     4.310017     4.310017     6198.328    20389.479   -11295.287    9500.7915    1291.1523    2132.3349   -1641.3572    80.063939 
   44800    473.21618   -115.20927   0.42817595    -114.7811   -1456.9205    4.3089504    4.3089504    4.3089504   -1456.9205    2970.1156   -3260.9046   -4079.9726    1140.4922    4358.4923     2092.655    80.004514 
   44900    464.32595   -115.20224   0.42013188    -114.7821     -17092.8    4.3182143    4.3182143    4.3182143     -17092.8   -15758.018   -24618.345   -10902.038    787.67069   -462.14707    330.51169    80.521633 
   45000     390.2193   -115.13562   0.35307862   -114.78254   -677.59573    4.3078807    4.3078807    4.3078807   -677.59573    2811.7099   -17939.247     13094.75   -5711.9494   -7933.5091    1803.2906    79.944943 
   45100    511.20058   -115.24428   0.46254503   -114.78173   -7704.1758    4.3142587    4.3142587    4.3142587   -7704.1758   -8631.6059   -15939.685    1458.7635   -1836.8456    2955.5082    3688.3132    80.300553 
   45200    420.55939   -115.16258   0.38053097   -114.78205   -1989.9219    4.3132791    4.3132791    4.3132791   -1989.9219   -8878.3704   -16799.805     19708.41   -4044.7601    4441.7745    947.28259    80.245867 
   45300    268.02686   -115.02585   0.24251634   -114.78333   -454.03784    4.3125178    4.3125178    4.3125178   -454.03784    13586.044   -28726.898    13778.741   -4157.2582    5105.8476   -2535.5649    80.203386 
   45400    285.46923   -115.04199   0.25829855    -114.7837    7988.3668    4.3095295    4.3095295    4.3095295    7988.3668    31926.026   -21272.036     13311.11   -1644.5752     5042.112   -2026.1188    80.036771 
   45500    459.08267   -115.19742   0.41538764   -114.78203    2145.0317    4.3133239    4.3133239    4.3133239    2145.0317    13826.429   -13667.345    6276.0113    87.673534    6651.4943   -376.14595    80.248368 
   45600    368.99563   -115.11739     0.333875   -114.78352    -7126.529    4.3150029    4.3150029    4.3150029    -7126.529    4094.0474   -23582.389   -1891.2455    1549.6679    2102.7194    -6986.902    80.342119 
   45700    397.16567   -115.14303   0.35936384   -114.78366    2310.8202    4.3045836    4.3045836    4.3045836    2310.8202    9259.9034    -9720.374     7392.931   -1817.0316   -5976.8118   -4719.6044    79.761523 
   45800    624.27172   -115.34652   0.56485417   -114.78166   -15135.465    4.3190042    4.3190042    4.3190042   -15135.465   -20425.755   -13753.841   -11226.799    4343.7006    147.89999    1115.1299    80.565828 
   45900    525.32396   -115.25822   0.47532416    -114.7829   -6927.4598    4.3093758    4.3093758    4.3093758   -6927.4598   -9510.0182   -11413.437    141.07554    -1510.951   -2431.7088   -3171.8881    80.028208 
   46000    322.26664   -115.07714   0.29159363   -114.78554    3505.2154    4.3078713    4.3078713    4.3078713    3505.2154    12776.977   -8543.6419    6282.3114   -2420.4884    431.02559   -4510.2147     79.94442 
   46100    400.92931   -115.14724   0.36276927   -114.78447   -1744.1176    4.3200836    4.3200836    4.3200836   -1744.1176    11030.576   -15269.351   -993.57762   -4055.0257    1286.9525    2163.5879    80.626247 
   46200    441.61906   -115.18087    0.3995862   -114.78128    14361.479    4.3009357    4.3009357    4.3009357    14361.479    23872.658    3650.7212    15561.058   -2620.5749    3018.6465     2300.767    79.558912 
   46300    355.63292    -115.1091   0.32178414   -114.78732   -5607.2979    4.3153823    4.3153823    4.3153823   -5607.2979   -917.77606   -20528.408      4624.29   -2581.6336    8179.4325   -998.06759     80.36331 
   46400    362.39948   -115.11104   0.32790666   -114.78314    1204.2554    4.3142932    4.3142932    4.3142932    1204.2554    7566.0427   -8673.1905     4719.914   -6075.2639   -3086.3225    -3253.259     80.30248 
   46500    634.91333   -115.35351   0.57448293   -114.77903    3178.6891    4.3020995    4.3020995    4.3020995    3178.6891    -5803.787    9531.4962    5808.3581    2928.7013   -3515.7779    3756.7117    79.623517 
   46600    487.06108   -115.22332    0.4407031   -114.78261    -16352.47    4.3197348    4.3197348    4.3197348    -16352.47   -16475.742   -17094.876   -15486.793    2106.6028   -2358.6381    1173.9273    80.606723 
   46700    462.63582   -115.20184   0.41860261   -114.78324   -2040.6339    4.3064497    4.3064497    4.3064497   -2040.6339    5200.5425   -6958.2673   -4364.1768   -362.09875   -1165.7006   -7661.2615    79.865302 
   46800     465.5369   -115.20434   0.42122757   -114.78312    5971.9994    4.3083242    4.3083242    4.3083242    5971.9994    10917.755    677.80956    6320.4339   -2470.2765   -3605.0492   -1539.0941    79.969636 
   46900     493.1106   -115.22929   0.44617683   -114.78312   -3274.9236    4.3132136    4.3132136    4.3132136   -3274.9236    4900.7343   -6441.2188   -8284.2862    3300.8178   -4444.4429   -926.32934    80.242215 
   47000    420.56363   -115.16644   0.38053481    -114.7859    913.33351    4.3063176    4.3063176    4.3063176    913.33351     8000.151   -10455.737    5195.5867    311.42879    8256.3046   -3004.9019    79.857955 
   47100    442.93542   -115.18691   0.40077728   -114.78613    4251.1414    4.3102844    4.3102844    4.3102844    4251.1414    3766.6577   -11501.088    20487.854   -6006.6024   -3148.5679   -1371.3703    80.078842 
   47200    602.06297   -115.32744   0.54475923   -114.78268   -4962.5893     4.312167     4.312167     4.312167   -4962.5893   -17961.347   -4678.1977    7751.7769   -2778.5624   -3362.6841    2036.7125    80.183818 
   47300    487.71455   -115.22371   0.44129438   -114.78241   -7100.2126     4.309327     4.309327     4.309327   -7100.2126   -5625.3206   -6889.7188   -8785.5983   -837.43334   -5416.0081    413.88882    80.025492 
   47400     551.8384    -115.2814   0.49931498   -114.78208   -5532.1463    4.3087644    4.3087644    4.3087644   -5532.1463   -3746.5789   -12910.136    60.275599   -10.359412   -1449.6242   -1487.4437    79.994151 
   47500    487.80019   -115.22484   0.44137187   -114.78346    2346.1286    4.3124742    4.3124742    4.3124742    2346.1286    4325.5171   -2615.3534     5328.222   -3124.9214   -3133.3001    2193.1426    80.200954 
   47600    490.70246   -115.22783    0.4439979   -114.78384   -616.12764    4.3063416    4.3063416    4.3063416   -616.12764    6342.1983    3272.3266   -11462.908     2161.518   -7503.6949    3699.3385     79.85929 
   47700    413.19176   -115.15911   0.37386459   -114.78524   -2088.8461    4.3121271    4.3121271    4.3121271   -2088.8461    4045.7666   -10534.029    221.72375    -1559.353    7083.6971   -3980.1315    80.181591 
   47800    499.95728   -115.23499   0.45237185   -114.78262    3719.5754    4.3113097    4.3113097    4.3113097    3719.5754    7650.5742   -3615.9819     7124.134    657.18024    -2291.384   -5062.5134    80.136001 
   47900    501.59688    -115.2361    0.4538554   -114.78224    7420.2187    4.3059063    4.3059063    4.3059063    7420.2187   -1722.5353    6990.3698    16992.822    5111.0041    -2378.044    1802.8885    79.835074 
   48000    432.15608   -115.17428    0.3910239   -114.78326   -9949.7374     4.317046     4.317046     4.317046   -9949.7374   -3576.7535   -10642.314   -15630.145   -1506.1002   -289.84535     255.7684    80.456293 
   48100    572.60812   -115.29916   0.51810786   -114.78105   -462.60889    4.3049243    4.3049243    4.3049243   -462.60889    918.54699   -2035.6487   -270.72498   -1311.1836   -916.53071   -5604.0557    79.780466 
   48200    488.55985   -115.22496   0.44205922    -114.7829    8472.8561    4.3079083    4.3079083    4.3079083    8472.8561    12094.596    4731.5247    8592.4478   -6431.9289     -813.592    2894.9607    79.946483 
   48300    487.66251    -115.2239   0.44124728   -114.78265   -7788.4095    4.3147162    4.3147162    4.3147162   -7788.4095    516.02963   -10888.231   -12993.027    811.22618   -8749.5526     4446.932    80.326104 
   48400    441.97798   -115.18227   0.39991096   -114.78235    1682.8031     4.303552     4.303552     4.303552    1682.8031    7106.5554   -5952.4595    3894.3135   -1350.7333    6512.1699   -1218.0692    79.704194 
   48500    528.49366    -115.2612   0.47819217     -114.783    1618.4403    4.3101878    4.3101878    4.3101878    1618.4403    6611.3296   -7161.6852    5405.6764   -5870.3864   -325.11053    78.374312    80.073459 
   48600    420.82145   -115.16395   0.38076809   -114.78318    2254.7304    4.3125171    4.3125171    4.3125171    2254.7304    1006.2649   -11305.591    17063.518    1813.3048   -3636.7994    5041.4666    80.203349 
   48700    467.68006   -115.20507   0.42316674    -114.7819   -2058.3158    4.3041477    4.3041477    4.3041477   -2058.3158    10285.968   -7379.0901   -9081.8257   -237.99736    130.23426    3883.8861    79.737294 
   48800    559.46109   -115.28815   0.50621215   -114.78193   -8502.3598    4.3115134    4.3115134    4.3115134   -8502.3598   -11619.769   -13430.865   -456.44493    4091.8136   -1592.0176   -4171.2916    80.147359 
   48900    462.18457   -115.20222   0.41819431   -114.78402   -779.07798    4.3095906    4.3095906    4.3095906   -779.07798    13081.295   -7411.1156   -8007.4136   -2223.0199    893.70025    4004.4535    80.040177 
   49000    451.34674   -115.19363   0.40838801   -114.78524    2751.4443    4.3012948    4.3012948    4.3012948    2751.4443    9852.5091   -3237.0778    1638.9015   -72.173035   -8155.2388    8593.9292    79.578842 
   49100    444.88187   -115.18713   0.40253846    -114.7846   -9470.5504    4.3177444    4.3177444    4.3177444   -9470.5504     4998.477   -20297.494   -13112.634   -845.87411    648.39299   -2231.1262    80.495349 
   49200    508.93507   -115.24232   0.46049514   -114.78182    -1398.385    4.3061842    4.3061842    4.3061842    -1398.385    8602.5182   -8267.1613   -4530.5118   -6031.9708    1869.0742    880.64049    79.850534 
   49300    304.31962   -115.05923   0.27535479   -114.78388     11144.14    4.3030658    4.3030658    4.3030658     11144.14    22660.123   -1439.8144    12212.111     2256.525     -3042.11    12658.475    79.677179 
   49400    489.88007   -115.22528   0.44325378   -114.78203   -10402.038    4.3168884    4.3168884    4.3168884   -10402.038    181.85259   -21338.681   -10049.286   -4655.1917    2871.4418    5731.7629    80.447485 
   49500    479.44003   -115.21437   0.43380741   -114.78056    2584.4333     4.303701     4.303701     4.303701    2584.4333    6080.8222   -4231.0984     5903.576   -2121.3874   -789.15044   -3334.8383    79.712472 
   49600    406.71132   -115.15207   0.36800095   -114.78407   -775.65099    4.3069094    4.3069094    4.3069094   -775.65099     7907.376   -3445.4071   -6788.9219    -500.9987    3291.7547     8439.923    79.890882 
   49700    334.91565   -115.08704   0.30303872     -114.784    2298.4171     4.313171     4.313171     4.313171    2298.4171     7194.386   -11571.979    11272.844    1849.9317   -4718.1319    9883.6368    80.239833 
   49800    514.50053   -115.24756   0.46553089   -114.78203    1715.6239     4.304309     4.304309     4.304309    1715.6239    9161.5194   -3279.0145   -735.63325    2356.0769   -3562.7076   -3577.2034    79.746262 
   49900    386.03908   -115.13463   0.34929627   -114.78534    -3846.962    4.3104461    4.3104461    4.3104461    -3846.962    2020.1046   -11376.694   -2184.2966   -4899.7522    7199.2619   -694.83385    80.087855 
   50000     249.5783   -115.01186   0.22582369   -114.78603   -1061.3436    4.3120546    4.3120546    4.3120546   -1061.3436    16240.157   -11180.622   -8243.5657    3437.3329   -3564.3722    12711.086    80.177544 
   50100    489.94956   -115.22543   0.44331666   -114.78211    6510.7036    4.3003009    4.3003009    4.3003009    6510.7036    13663.522   -2399.1963     8267.785   -2195.5245    348.29869    4790.7929    79.523692 
   50200    447.17121   -115.18709   0.40460991   -114.78248   -11123.348    4.3162339    4.3162339    4.3162339   -11123.348   -1205.2881   -22090.068   -10074.687   -1451.4635    1440.1822   -3245.3816    80.410897 
   50300    373.56026   -115.12162   0.33800517   -114.78362   -10688.519     4.308058     4.308058     4.308058   -10688.519    5833.8404   -15023.202   -22876.194   -1489.1846    374.51085      11015.4    79.954816 
   50400    351.97516   -115.10301   0.31847452   -114.78453    7870.4554    4.3014189    4.3014189    4.3014189    7870.4554     22846.48   -2860.5049     3625.391   -1412.7874    558.43859    10738.545    79.585732 
   50500    591.68876   -115.31742   0.53537243   -114.78205   -9303.0307     4.314961     4.314961     4.314961   -9303.0307    692.17706   -22686.727    -5914.542    672.90174   -6329.9909   -3254.2802    80.339775 
   50600    330.57119   -115.08267   0.29910776   -114.78356   -3021.7305     4.308553     4.308553     4.308553   -3021.7305    16824.248   -14774.151   -11115.289   -4392.9116    4411.0294    4897.0076    79.982378 
   50700    326.38415   -115.07981   0.29531924   -114.78449   -1245.9479    4.3050549    4.3050549    4.3050549   -1245.9479    20908.334   -9539.3922   -15106.785     3483.633   -791.24537    14621.324    79.787724 
   50800     427.8222   -115.17067   0.38710252   -114.78357    6236.9783    4.3108118    4.3108118    4.3108118    6236.9783    10527.983   -7936.4584    16119.411    -2221.078    621.51231   -827.39177    80.108238 
   50900    458.62593   -115.19961   0.41497438   -114.78463   -1781.3997     4.307216     4.307216     4.307216   -1781.3997    6087.6768   -8991.8748    -2440.001   -1461.7178    2969.7692   -5378.1709    79.907941 
   51000    312.06933   -115.06958   0.28236689   -114.78721   -4284.8928    4.3065035    4.3065035    4.3065035   -4284.8928    2156.7439    -13280.24    -1731.182   -698.58911   -1826.5789    13332.479    79.868297 
   51100    364.54061    -115.1143   0.32984401   -114.78445   -1721.2632    4.3138105    4.3138105    4.3138105   -1721.2632    12082.417   -10726.626   -6519.5808    -315.9375    3712.2673    8642.5433    80.275534 
   51200    546.74126   -115.27571   0.49470299   -114.78101    5482.0307    4.3015348    4.3015348    4.3015348    5482.0307    5673.2879    -2367.385    13140.189   -1112.6138   -8691.3289    -7748.201    79.592164 
   51300    339.69815   -115.09204   0.30736603   -114.78467   -7697.4312    4.3103888    4.3103888    4.3103888   -7697.4312    11028.043   -25457.435   -8662.9019    -6858.587    4035.2366     5360.675    80.084661 
   51400    397.06477   -115.14319   0.35927255   -114.78392   -12945.208     4.312826     4.312826     4.312826   -12945.208    10061.288   -26419.437   -22477.476     3446.769    2968.3744    15485.004    80.220583 
   51500    436.00016   -115.17624   0.39450211   -114.78173    10856.278    4.3012315    4.3012315    4.3012315    10856.278    24020.997    1379.3359    7168.5006   -2546.1179   -5207.7753   -2026.6798    79.575328 
   51600    499.85205   -115.23464   0.45227664   -114.78236   -6267.1876    4.3104445    4.3104445    4.3104445   -6267.1876    5543.0218   -21798.786   -2545.7985   -3263.8778    4252.4554   -6344.7556    80.087765 
   51700     337.8612   -115.08992   0.30570392   -114.78421   -8537.0389    4.3115891    4.3115891    4.3115891   -8537.0389    9347.1676   -19753.782   -15204.502   -1149.7791   -2293.0783    10236.946    80.151579 
   51800    466.95209   -115.20603   0.42250806   -114.78352    3440.4167     4.303267     4.303267     4.303267    3440.4167    16451.807      916.343   -7046.8998   -351.96817    5794.5219    4544.4437    79.688359 
   51900    505.96866   -115.24139   0.45781108   -114.78358     4439.822    4.3092015    4.3092015    4.3092015     4439.822    8784.4153   -3210.6187    7745.6694    2461.7738   -4860.5841      -8538.7    80.018502 
   52000    357.67029    -115.1084   0.32362759   -114.78478   -1077.7211     4.311071     4.311071     4.311071   -1077.7211    13468.008   -7485.9867   -9215.1848   -6883.0685   -2264.1188    6240.7287    80.122688 
   52100    468.35099   -115.20726   0.42377382   -114.78348   -2417.8411    4.3048895    4.3048895    4.3048895   -2417.8411    9007.2811   -9838.4913   -6422.3132    1038.8862    6165.1611    11016.766    79.778526 
   52200    476.62633     -115.214   0.43126152   -114.78274    4221.2532     4.309651     4.309651     4.309651    4221.2532    20271.683   -4965.3027   -2642.6208   -828.94995     -1708.52   -6846.9511    80.043541 
   52300    468.25451   -115.20844   0.42368652   -114.78475    14.417438    4.3077513    4.3077513    4.3077513    14.417438   -1548.8065   -5280.9208    6872.9796   -2483.7089    5165.3162   -3875.8003    79.937742 
   52400    422.37226   -115.16749    0.3821713   -114.78532   -1958.3879    4.3045139    4.3045139    4.3045139   -1958.3879    9206.7057   -14915.712   -166.15752   -3464.3849   -2729.2569     11293.71    79.757649 
   52500    532.69814   -115.26579   0.48199647   -114.78379   -8136.4359    4.3134116    4.3134116    4.3134116   -8136.4359   -1289.1026   -16920.478    -6199.727   -1659.1439    3592.3117    3154.8957    80.253265 
   52600    524.49611   -115.25692    0.4745751   -114.78235    -40.45955    4.3065662    4.3065662    4.3065662    -40.45955    8293.8762   -4451.9688    -3963.286    1379.6371   -132.62116   -12870.535    79.871782 
   52700    410.02694   -115.15455   0.37100099   -114.78355    5035.3553    4.3035252    4.3035252    4.3035252    5035.3553    11756.833   -6853.6494    10202.882   -7891.0461   -4011.5265    2002.2164    79.702706 
   52800    553.57887   -115.28494   0.50088979   -114.78405   -12896.462    4.3151688    4.3151688    4.3151688   -12896.462     870.5592   -20177.106   -19382.838    1183.0043    6636.1723    12474.638    80.351385 
   52900      485.353   -115.22225   0.43915759    -114.7831    6877.3375    4.3022166    4.3022166    4.3022166    6877.3375    22344.649    3238.3735   -4951.0095    647.64545   -2516.0384   -7126.1625    79.630017 
   53000    516.70355   -115.25206   0.46752423   -114.78454   -2460.3172     4.308588     4.308588     4.308588   -2460.3172    7772.9726   -9303.3969   -5850.5272   -7135.0053    2937.3065   -5316.8756    79.984329 
   53100    489.52124   -115.22663    0.4429291    -114.7837   -414.82475    4.3112966    4.3112966    4.3112966   -414.82475    10256.566   -7713.4578   -3787.5825   -2245.0628    1373.0546    7174.9984     80.13527 
   53200    620.28429     -115.343   0.56124626   -114.78175   -233.56159    4.3042983    4.3042983    4.3042983   -233.56159    681.89285    4512.6567   -5895.2343    66.420676    3444.8881    -352.5551    79.745667 
   53300    520.26993   -115.25479   0.47075116   -114.78404   -734.95667    4.3091896    4.3091896    4.3091896   -734.95667    11940.483    -9040.606   -5104.7473    2577.5462    1589.8533   -6052.0738    80.017839 
   53400    519.61055   -115.25432   0.47015455   -114.78416    2245.1799    4.3085979    4.3085979    4.3085979    2245.1799   -5775.2248    8539.4197    3971.3448   -7225.2463   -8120.8299    4003.1041    79.984878 
   53500    561.62009   -115.29097   0.50816566   -114.78281     2429.999    4.3072669    4.3072669    4.3072669     2429.999    6276.9894    525.30727    487.70022   -3225.0042    7334.4898    5817.3001    79.910775 
   53600    567.59606   -115.29684   0.51357284   -114.78327    466.27729    4.3073573    4.3073573    4.3073573    466.27729    420.05669     1437.865   -459.08985    6742.5231    3523.9527   -7577.2387    79.915809 
   53700    533.38916   -115.26735   0.48262172   -114.78473   -1951.1733    4.3095166    4.3095166    4.3095166   -1951.1733     2340.535   -787.67329   -7406.3817   -4981.9039   -2308.6784   -3679.4446    80.036057 
   53800    553.45787   -115.28571   0.50078031   -114.78493    2703.8714     4.305532     4.305532     4.305532    2703.8714    4155.9473   -3703.6479    7659.3148   -6119.6119    1677.2837    7863.7955    79.814256 
   53900     644.8405   -115.36698   0.58346524   -114.78352   -4361.8159     4.309367     4.309367     4.309367   -4361.8159   -3284.1328   -5097.9407   -4703.3742    485.10334    1842.8232   -997.10923    80.027721 
   54000    586.16097   -115.31341   0.53037077   -114.78304   -6494.9962    4.3109404    4.3109404    4.3109404   -6494.9962   -2186.9199   -10687.139   -6610.9299     2556.005    4746.3255   -9856.3903    80.115407 
   54100     606.0544   -115.33156   0.54837076   -114.78319    -1105.252    4.3034485    4.3034485    4.3034485    -1105.252     1657.902   -5670.3628    696.70476   -8211.3884   -4504.2005    391.07269    79.698442 
   54200    558.35874   -115.28951   0.50521472    -114.7843    2755.9574    4.3095333    4.3095333    4.3095333    2755.9574    6456.7787   -5284.9803    7096.0737   -6168.7413    3008.6118    6178.5858    80.036987 
   54300    663.01755   -115.38421   0.59991221    -114.7843    -4331.849    4.3094078    4.3094078    4.3094078    -4331.849   -3924.5326    2887.3149   -11958.329    7857.6712    5848.2123   -2058.1573    80.029995 
   54400    507.17769   -115.24364   0.45890503   -114.78473    9472.7068    4.3032217    4.3032217    4.3032217    9472.7068    22215.101   -1213.9925    7417.0116   -6104.7785   -3769.5899   -6100.9487    79.685844 
   54500    647.35141   -115.36925   0.58573716   -114.78351   -4030.0833    4.3119645    4.3119645    4.3119645   -4030.0833   -7661.8486    745.19153    -5173.593   -7958.7862    4615.7434    914.27242    80.172519 
   54600     560.0347   -115.28965   0.50673116   -114.78292    9270.2695    4.3061279    4.3061279    4.3061279    9270.2695    11196.686    13703.899    2910.2232    2753.7956    4300.0653   -1676.1306    79.847401 
   54700    686.05301   -115.40405   0.62075518    -114.7833   -1716.3231    4.3061526    4.3061526    4.3061526   -1716.3231   -5325.4806    6083.4418   -5906.9304    1012.3423    995.62396   -4503.3805    79.848772 
   54800    570.18844   -115.30031   0.51591848   -114.78439    669.55714    4.3095843    4.3095843    4.3095843    669.55714   -8412.6943    8500.7716    1920.5941   -6332.6925   -3443.5745    455.28845    80.039828 
   54900     642.6356   -115.36496   0.58147019   -114.78349    1098.8732    4.3066829    4.3066829    4.3066829    1098.8732   -4451.5224    8901.2375   -1153.0956    -7077.593    2716.9471    2510.3147    79.878277 
   55000    607.67623   -115.33322   0.54983822   -114.78338    1429.4353     4.307916     4.307916     4.307916    1429.4353    329.01446    6572.2259   -2612.9345    10918.868    10233.517   -1407.4804    79.946911 
   55100    584.83984   -115.31286   0.52917538   -114.78368    137.22054    4.3083668    4.3083668    4.3083668    137.22054   -4739.1933     1197.034     3953.821   -5762.8792   -6318.5367   -499.60097    79.972008 
   55200    585.98581   -115.31525   0.53021227   -114.78504   -2810.6229    4.3072126    4.3072126    4.3072126   -2810.6229    -4164.211   -7051.5588    2783.9011   -11090.877   -1457.6684    3298.1506    79.907754 
   55300    542.87013   -115.27608    0.4912003   -114.78488    6159.8001    4.3056847    4.3056847    4.3056847    6159.8001     6438.974    3097.5393    8942.8871    7254.4793     7837.602    554.18341    79.822746 
   55400    674.85483   -115.39373   0.61062283   -114.78311   -8137.1406    4.3130874    4.3130874    4.3130874   -8137.1406   -14153.851   -5194.9665   -5062.6048    1844.4889    709.95278   -5475.8493    80.235168 
   55500    520.42392   -115.25416    0.4708905   -114.78327    4623.7358    4.3039129    4.3039129    4.3039129    4623.7358    5737.0577   -2747.4439    10881.594   -8426.9469   -1376.8461   -3112.0374    79.724248 
   55600    648.43578   -115.36987   0.58671832   -114.78316   -5290.2485    4.3074414    4.3074414    4.3074414   -5290.2485   -11335.613   -4132.1849   -402.94801   -8184.4945     1118.452    2875.3577     79.92049 
   55700    529.93527    -115.2637   0.47949657    -114.7842    3124.1975    4.3114548    4.3114548    4.3114548    3124.1975    7983.7058    5533.3438   -4144.4572    9417.2522    7629.9608    25.207934    80.144094 
   55800    630.91316   -115.35353   0.57086348   -114.78266    2021.4549    4.3042016    4.3042016    4.3042016    2021.4549    5239.2632    2652.7781   -1827.6765   -2725.9928   -2772.0766   -1892.9462    79.740293 
   55900    483.35005    -115.2221   0.43734528   -114.78476    1096.0687    4.3088373    4.3088373    4.3088373    1096.0687    -7126.419    265.32137    10149.304   -13364.212   -2291.2132    272.21602    79.998211 
   56000    542.66589   -115.27457    0.4910155   -114.78356    527.71825    4.3096287    4.3096287    4.3096287    527.71825   -1747.0471    9264.8227   -5934.6208    4106.9669    10995.992    1399.0137      80.0423 
   56100     604.9399   -115.32964   0.54736233   -114.78228    1651.5153    4.3053501    4.3053501    4.3053501    1651.5153    178.28872    78.075759    4698.1813    702.07196   -1635.6799    384.50087     79.80414 
   56200     486.4406   -115.22493   0.44014168   -114.78479    170.07481    4.3079538    4.3079538    4.3079538    170.07481   -13937.852    11262.432    3185.6437   -8885.6035   -2385.2096   -2421.2865    79.949015 
   56300    494.80057   -115.23274   0.44770595   -114.78503   -7274.9369    4.3112561    4.3112561    4.3112561   -7274.9369    -15011.49   -9577.1757    2763.8548    -6935.295    7612.9266   -533.91012    80.133012 
   56400    482.77738   -115.22034   0.43682712   -114.78351    6816.8975    4.3039751    4.3039751    4.3039751    6816.8975    18467.173    2983.7243   -1000.2051    7564.6429    8156.8593   -259.66344    79.727702 
   56500     559.3879   -115.28893   0.50614593   -114.78279   -3012.8811    4.3099895    4.3099895    4.3099895   -3012.8811   -5418.6937   -1404.2688   -2215.6809   -3357.9774    -1985.848   -583.98643    80.062406 
   56600    421.38694   -115.16557   0.38127975   -114.78429   -5210.0832    4.3106028    4.3106028    4.3106028   -5210.0832   -4335.6658   -11115.433   -179.15117   -11779.728   -3926.8613    90.443017    80.096591 
   56700    488.37315    -115.2264   0.44189029   -114.78451    2064.6438    4.3015349    4.3015349    4.3015349    2064.6438   -2263.3544    3610.7971    4846.4886    5633.4765    12876.524    564.77265    79.592173 
   56800    569.36101   -115.29829    0.5151698   -114.78312   -4969.5441    4.3138109    4.3138109    4.3138109   -4969.5441    4357.3442   -9921.9309   -9344.0457     831.6312    2202.7571    463.17863    80.275552 
   56900    453.17458   -115.19335   0.41004188   -114.78331   -7456.0107    4.3113914    4.3113914    4.3113914   -7456.0107   -9518.3442   -10702.375   -2147.3131    -12096.52    -5807.112   -1374.2035    80.140555 
   57000    401.59478   -115.14607    0.3633714    -114.7827    3918.8828    4.2996558    4.2996558    4.2996558    3918.8828   -1190.0729    5462.0528    7484.6685   -6389.5311    7585.1176    169.56995     79.48791 
   57100    420.93069   -115.16393   0.38086693   -114.78306    489.60056    4.3155211    4.3155211    4.3155211    489.60056    16720.833   -7040.7361   -8211.2957     3535.861    8414.2405    1001.6197    80.371069 
   57200     517.7125    -115.2514   0.46843715   -114.78297   -1266.4257    4.3071567    4.3071567    4.3071567   -1266.4257    4484.3212   -8588.5763    304.97816   -3347.2977   -1586.2371   -1734.6738    79.904645 
   57300    327.74648   -115.08111   0.29655191   -114.78455    2282.5213    4.3028566    4.3028566    4.3028566    2282.5213   -6563.3276    9421.5078    3989.3838   -13865.303    -205.3279   -265.47716    79.665559 
   57400     472.0526   -115.21082   0.42712311    -114.7837   -9324.9874    4.3153804    4.3153804    4.3153804   -9324.9874   -14089.969   -3983.9817   -9901.0115    1801.6725    11333.117    878.21582    80.363208 
   57500    462.18017   -115.20005   0.41819033   -114.78186    7379.7871    4.3054718    4.3054718    4.3054718    7379.7871    20735.918   -1773.9281    3177.3715    2446.4328    1632.5625    2631.6926    79.810908 
   57600    458.65001   -115.19755   0.41499617   -114.78256    -2718.759    4.3048357    4.3048357    4.3048357    -2718.759   -1455.5577   -6475.9933   -224.72598   -11543.389   -5972.5726     292.2136    79.775537 
   57700    315.68281   -115.07168   0.28563644   -114.78605   -7476.6758    4.3156051    4.3156051    4.3156051   -7476.6758    -3097.493   -873.42123   -18459.113   -3522.1185    7051.1185   -578.61649     80.37576 
   57800    477.36324   -115.21531   0.43192829   -114.78338    7684.0306     4.302247     4.302247     4.302247    7684.0306    19941.691    3326.0724   -215.67188    27.883182    11228.457    1357.3879    79.631703 
   57900    552.08242   -115.28244   0.49953578    -114.7829   -2965.0609    4.3072125    4.3072125    4.3072125   -2965.0609    7295.1143   -9986.2508   -6204.0462   -4924.8125   -1988.0746    -811.2274    79.907747 
   58000    318.42563    -115.0731    0.2881182   -114.78498   -12796.431    4.3162089    4.3162089    4.3162089   -12796.431   -11742.874   -11192.513   -15453.907    -9231.674     2142.715    -866.6869    80.409502 
   58100    486.91757    -115.2234   0.44057325   -114.78283    1324.9849    4.2995928    4.2995928    4.2995928    1324.9849    4539.9101    9396.7792   -9961.7347    1885.7297    12393.918   -658.35586    79.484417 
   58200     400.2819   -115.14531   0.36218348   -114.78312    4383.8767    4.3125583    4.3125583    4.3125583    4383.8767    32233.831   -9917.3773   -9164.8237    4282.0114   -627.53177    3851.0977    80.205646 
   58300    445.52947   -115.18729   0.40312443   -114.78417   -7952.0747    4.3091323    4.3091323    4.3091323   -7952.0747   -2881.5934   -13769.892   -7204.7384    -11386.07   -2620.8765    1769.2426    80.014644 
   58400    351.61988   -115.10362   0.31815306   -114.78547   -2141.3529    4.3035268    4.3035268    4.3035268   -2141.3529   -3750.0223    2422.7281   -5096.7646   -4563.2191    7242.8728   -120.64809    79.702791 
   58500    475.25926   -115.21274   0.43002457   -114.78271   -4008.7924    4.3138751    4.3138751    4.3138751   -4008.7924    14937.403   -5625.9899    -21337.79    1544.7874    8778.7471    7077.1373    80.279139 
   58600    527.37428   -115.25914   0.47717933   -114.78196    1320.7282    4.3052942    4.3052942    4.3052942    1320.7282    7285.4435   -14112.006    10788.747    -6827.373   -4489.0937    1379.3232    79.801031 
   58700     328.6944   -115.08156    0.2974096   -114.78415   -1546.6722    4.3076351    4.3076351    4.3076351   -1546.6722    10555.832   -13684.569   -1511.2798    -9402.468    1990.6327   -1268.3766     79.93127 
   58800    448.75655   -115.19044   0.40604436   -114.78439   -3399.9236    4.3090116    4.3090116    4.3090116   -3399.9236    11346.535   -4526.0773   -17020.229   -1966.6373    16442.364    2434.4469    80.007922 
   58900    477.23661   -115.21502   0.43181371   -114.78321    8170.6403     4.306422     4.306422     4.306422    8170.6403    28062.679    -4199.534    648.77607   -1437.3309    832.84728    971.37826    79.863762 
   59000    485.78785   -115.22277   0.43955106   -114.78322   -5237.3584    4.3112485    4.3112485    4.3112485   -5237.3584   -1129.5206   -19978.581    5396.0264   -9434.9184    295.89818    236.19307    80.132589 
   59100    489.84215   -115.22758   0.44321947   -114.78436   -7004.6716    4.3050937    4.3050937    4.3050937   -7004.6716   -8310.3812   -3768.2213   -8935.4123    425.96102    4355.6117   -2534.7997    79.789881 
   59200    427.40237   -115.17228   0.38672264   -114.78556    3376.6399    4.3088471    4.3088471    4.3088471    3376.6399    16201.887    4601.7573   -10673.725    4609.9942    5277.9581     3339.281    79.998759 
   59300    593.14893   -115.32104   0.53669361   -114.78434    -4413.188    4.3116359    4.3116359    4.3116359    -4413.188    14715.591   -17430.677   -10524.478   -5808.1449    -3802.696     1109.689    80.154194 
   59400    424.39604   -115.16837   0.38400245   -114.78437    8015.1815    4.3031951    4.3031951    4.3031951    8015.1815     16371.07    2367.6483     5306.826   -9513.6035    1125.8523   -2362.9703    79.684363 
   59500    527.98192   -115.26235   0.47772913   -114.78462   -8248.1382    4.3137829    4.3137829    4.3137829   -8248.1382    1570.7984   -703.78321    -25611.43    996.87974    13893.181    5196.7453    80.273992 
   59600    568.51304   -115.29696   0.51440255   -114.78256    1693.9657    4.3084649    4.3084649    4.3084649    1693.9657    22219.359   -4901.6934   -12235.769    130.54951    1598.8195     2833.201    79.977471 
   59700    656.31449   -115.37613   0.59384714   -114.78228    3683.7448    4.3040036    4.3040036    4.3040036    3683.7448    5634.1477    2374.7927    3042.2938   -5849.3989    1190.2674   -1137.6134    79.729287 
   59800    512.82783   -115.24827    0.4640174   -114.78425   -6971.3254    4.3168357    4.3168357    4.3168357   -6971.3254    4175.2656   -7916.0907   -17173.151   -1527.2809    6587.1578    850.42016    80.444539 
   59900     461.4111   -115.20285   0.41749446   -114.78535    7675.3961    4.3030403    4.3030403    4.3030403    7675.3961    32285.753   -410.97555   -8848.5894    847.57053    6561.9077    4130.9854    79.675764 
   60000    595.59954    -115.3234   0.53891098   -114.78449     3760.331    4.3074283    4.3074283    4.3074283     3760.331    14860.987   -3974.2387    394.24421    178.35856   -6266.2387    3062.4989    79.919759 
   60100     587.7624   -115.31462   0.53181977    -114.7828   -4972.5139    4.3160881    4.3160881    4.3160881   -4972.5139    78.488315   -14029.356   -966.67439   -5877.7777   -1521.0485   -802.65514    80.402749 
   60200    502.90822   -115.23981   0.45504192   -114.78477   -675.58858    4.3017848    4.3017848    4.3017848   -675.58858   -1047.9623    2927.1705   -3905.9739    2038.2967    12148.754    6684.2453    79.606046 
   60300    561.49778    -115.2939   0.50805499   -114.78584   -3361.0402     4.308725     4.308725     4.308725   -3361.0402    3915.6024   -7466.6639   -6532.0591    1003.7056    5046.4125    5742.9109    79.991959 
   60400    677.46275   -115.39617   0.61298253   -114.78318    -7991.645    4.3173219    4.3173219    4.3173219    -7991.645    3739.9552   -18828.275   -8886.6146   -7495.5693    3009.3775   -2141.1882    80.471724 
   60500    563.49873   -115.29314   0.50986549   -114.78327    8940.8025    4.2986443    4.2986443    4.2986443    8940.8025    23660.376    5361.1734   -2199.1418   -1798.3875     14090.15    3798.7125     79.43182 
   60600    465.18142   -115.20681   0.42090593   -114.78591   -2451.4658    4.3124526    4.3124526    4.3124526   -2451.4658    25644.831   -8133.9263   -24865.302    928.20988    8798.2775    5840.7541    80.199747 
   60700    721.89599   -115.43603   0.65318666   -114.78284   -8372.8267    4.3142504    4.3142504    4.3142504   -8372.8267    2582.1828   -14722.507   -12978.156    5272.1839   -7381.5296   -330.69758    80.300093 
   60800    718.12135   -115.43119   0.64977129   -114.78142    4245.9415    4.3027776    4.3027776    4.3027776    4245.9415    14725.627    3720.7053   -5708.5078   -2382.3612    418.19655   -1057.9037    79.661174 
   60900    615.02671   -115.34057   0.55648909   -114.78408   -7057.6135    4.3127377    4.3127377    4.3127377   -7057.6135    3913.2678   -7310.0525   -17776.056   -812.34138    9103.2411    2851.9356    80.215655 
   61000    600.89017   -115.32829   0.54369805   -114.78459   -545.00085    4.3112033    4.3112033    4.3112033   -545.00085    8495.3148   -2374.9856   -7755.3318     1523.097    2023.0436    1720.7015    80.130067 
   61100    597.57491   -115.32399   0.54069834   -114.78329    9462.7569    4.3081036    4.3081036    4.3081036    9462.7569    35255.278   -6168.0434   -698.96355   -298.73431   -1542.4722   -278.50974    79.957352 
   61200    584.58397   -115.31319   0.52894386   -114.78425    4676.2356    4.3081315    4.3081315    4.3081315    4676.2356    17262.787   -6962.7118    3728.6313    2696.3829     12454.79     2567.269    79.958906 
   61300    458.29328   -115.20046   0.41467339   -114.78578   -533.10216    4.3137063    4.3137063    4.3137063   -533.10216   -7.1023834   -4796.2754    3204.0713    599.18964    10188.876    1750.7685    80.269715 
   61400    671.27588   -115.38992   0.60738452   -114.78254    3217.1226    4.3071276    4.3071276    4.3071276    3217.1226    1942.8801   -4578.5371    12287.025   -1962.1279   -3310.4743   -607.09856    79.903022 
   61500    685.26846   -115.40262    0.6200453   -114.78257   -547.26871    4.3099691    4.3099691    4.3099691   -547.26871    -3258.917   -10532.245    12149.356   -4575.6665     892.0709    532.28206    80.061267 
   61600    518.68498   -115.25511   0.46931707   -114.78579   -1266.0199    4.3088636    4.3088636    4.3088636   -1266.0199    2197.4423    3831.4414   -9826.9434    124.77533    9842.4327    5717.7018    79.999675 
   61700    553.58055   -115.28674   0.50089132   -114.78585   -4094.1997     4.311403     4.311403     4.311403   -4094.1997    5802.4916   -9332.4463   -8752.6445    5827.8251    504.31281    3257.0681    80.141202 
   61800    625.10707   -115.34943   0.56561002   -114.78382    6093.3506    4.3066746    4.3066746    4.3066746    6093.3506    23866.772   -9116.8934    3530.1729    4568.4728   -1063.7547   -2901.3783    79.877813 
   61900     571.4349   -115.30198   0.51704631   -114.78494   -710.93939    4.3094113    4.3094113    4.3094113   -710.93939    7613.5114   -17.072122   -9729.2575    924.95535    12553.401    291.70287    80.030188 
   62000    443.18053   -115.18698   0.40099906   -114.78598    -11223.76    4.3143199    4.3143199    4.3143199    -11223.76   -16363.258   -10664.226   -6643.7942    2157.1467    15081.871    2355.1931    80.303976 
   62100    569.17234   -115.29852    0.5149991   -114.78352    4931.2142    4.3038917    4.3038917    4.3038917    4931.2142   -690.25568   -6770.8287    22254.727    4334.9237   -7157.6108   -421.88644    79.723069 
   62200    598.43345   -115.32429   0.54147516   -114.78282   -1779.5656    4.3144145    4.3144145    4.3144145   -1779.5656   -2095.5628   -9716.7516    6473.6176   -547.02594    315.01549   -4608.2671    80.309255 
   62300      407.305   -115.15373   0.36853813    -114.7852    1603.0011    4.3074725    4.3074725    4.3074725    1603.0011    4691.9321   -5663.3309     5780.402    451.57437    6996.3815   -44.076079    79.922223 
   62400    408.23714   -115.15538   0.36938155     -114.786   -3976.2567    4.3113645    4.3113645    4.3113645   -3976.2567    6121.7432   -17675.902   -374.61154    3531.0068   -2072.1107    1302.8964    80.139058 
   62500    562.46921   -115.29112   0.50893396   -114.78219    6195.8412    4.3103628    4.3103628    4.3103628    6195.8412    26644.206   -8404.6708    347.98869    656.87351   -5251.9595   -3331.0494    80.083209 
   62600    630.30697   -115.35304   0.57031499   -114.78273   -3863.3625    4.3089742    4.3089742    4.3089742   -3863.3625   -1893.4443   -3697.0985   -5999.5447   -5166.8757    8278.9471    2106.7582     80.00584 
   62700    427.72901   -115.17245    0.3870182   -114.78543   -13469.439    4.3128499    4.3128499    4.3128499   -13469.439   -17559.968   -13937.269   -8911.0796    1219.2273    12028.875    3025.2377    80.221914 
   62800    584.13478   -115.31248   0.52853742   -114.78394    2075.8642    4.3061104    4.3061104    4.3061104    2075.8642    10201.027   -8296.1413    4322.7073    8420.3619   -2207.4282    4674.6879    79.846425 
   62900    654.93179   -115.37429   0.59259605    -114.7817   -3346.2633    4.3149202    4.3149202    4.3149202   -3346.2633   -2939.8776   -10202.788     3103.876    863.75768     718.3712    922.51341    80.337496 
   63000    337.88145   -115.09029   0.30572223   -114.78457    5597.9929    4.3055393    4.3055393    4.3055393    5597.9929    15780.551   -3825.5451    4838.9733    2130.1587    8381.0121    3724.9813     79.81466 
   63100    368.35247    -115.1196   0.33329305   -114.78631   -1387.2909    4.3104729    4.3104729    4.3104729   -1387.2909    8242.2907   -16218.968    3814.8042    5004.9208    439.37062    3463.7894     80.08935 
   63200    540.98586   -115.27182   0.48949537   -114.78233    9273.6637    4.3096915    4.3096915    4.3096915    9273.6637     19422.71   -9229.6777    17627.959    4216.9384   -6463.3207   -3695.0719    80.045799 
   63300    567.76866   -115.29731   0.51372901   -114.78358   -4448.8287     4.308639     4.308639     4.308639   -4448.8287   -5139.1364   -4644.0828   -3563.2668   -2296.6019    5910.8289    3140.9031    79.987167 
   63400    363.35219   -115.11592    0.3287687   -114.78715   -10090.336    4.3077669    4.3077669    4.3077669   -10090.336     -21446.3   -1925.0846   -6899.6253    356.21556    14692.356    3309.4985     79.93861 
   63500      512.456   -115.24992   0.46368096   -114.78624    1962.3548    4.3090601    4.3090601    4.3090601    1962.3548    13498.537   -6010.3368   -1601.1355    7359.1322   -265.72964    304.81519    80.010624 
   63600    638.61028   -115.36162     0.577828    -114.7838   -6230.1738    4.3126893    4.3126893    4.3126893   -6230.1738    3045.4416   -15184.606   -6551.3574   -4451.9717    2207.5334   -2987.1459    80.212954 
   63700    332.39926   -115.08632   0.30076183   -114.78556    10564.765    4.2979592    4.2979592    4.2979592    10564.765    18156.429    13715.483   -177.61808    558.29525    11744.158   -699.99952    79.393851 
   63800    388.73692   -115.13836   0.35173733   -114.78662   -12355.021    4.3203707    4.3203707    4.3203707   -12355.021   -9766.1625     -15921.3   -11377.601    7262.1221    3349.2233    6412.1033    80.642324 
   63900      622.078   -115.34528   0.56286925   -114.78241     10370.82    4.3011382    4.3011382    4.3011382     10370.82    18564.112   -3408.7268    15957.074     4221.258   -7226.9103   -3466.7369     79.57015 
   64000    521.81311   -115.25709   0.47214747   -114.78494    3290.7377    4.3034627    4.3034627    4.3034627    3290.7377   -3814.3159    1273.7585     12412.77   -1613.1776    6268.1924   -1453.3301    79.699231 
   64100    369.50256   -115.11958   0.33433369   -114.78525   -14255.511    4.3189192    4.3189192    4.3189192   -14255.511     -20265.6   -11697.949   -10802.985    692.20079    8849.0208    3350.3012    80.561073 
   64200    468.02731   -115.20472   0.42348094   -114.78123    16242.069    4.2985612    4.2985612    4.2985612    16242.069    36334.945    294.28127    12096.981    8594.6531   -15.053504    1037.1701    79.427217 
   64300    619.43565   -115.34172    0.5604784   -114.78124   -890.24147    4.3103089    4.3103089    4.3103089   -890.24147    10535.531   -12208.571   -997.68482     -5533.01   -297.46007   -346.25781    80.080209 
   64400     315.0134   -115.07023   0.28503075   -114.78519    202.22047     4.310835     4.310835     4.310835    202.22047    7024.1884   -7336.3621    918.83504    -2881.118    8645.9546    1882.3714    80.109535 
   64500    485.19942   -115.22362   0.43901863    -114.7846   -4960.7079    4.3049239    4.3049239    4.3049239   -4960.7079     -2914.37   -7458.3671   -4509.3867    7724.4673    8218.2762    6994.8682    79.780439 
   64600    605.01815   -115.33056   0.54743314   -114.78313    3629.0098    4.3049036    4.3049036    4.3049036    3629.0098     16524.06    -5492.266    -144.7648    870.63387   -5643.3714   -6122.4141    79.779311 
   64700    452.84266   -115.19424   0.40974156    -114.7845   -11011.909    4.3154577    4.3154577    4.3154577   -11011.909   -11853.134   -16235.487    -4947.105   -3895.1585      5280.56   -4714.9112    80.367526 
   64800    347.39343   -115.09991   0.31432888   -114.78558   -5081.4686    4.3035426    4.3035426    4.3035426   -5081.4686     -3089.35   -5848.5585   -6306.4973   -523.03021    7791.6724    9498.3941    79.703669 
   64900    429.25742   -115.17304   0.38840114   -114.78464    9561.7817    4.3030278    4.3030278    4.3030278    9561.7817    31385.221   -93.696613   -2606.1792     7698.335    1769.3357    1303.9835    79.675072 
   65000    577.49372   -115.30537   0.52252845   -114.78284   -14233.847    4.3178644    4.3178644    4.3178644   -14233.847   -2313.7113     -20536.3   -19851.529   -2281.2243    2102.9081   -4798.0363    80.502064 
   65100    250.89927   -115.01148   0.22701893   -114.78446    2095.3385    4.3018394    4.3018394    4.3018394    2095.3385    2651.5232   -285.74189    3920.2343   -3646.0506    8480.5204    1833.5841    79.609078 
   65200    512.19964   -115.24771     0.463449   -114.78426   -6329.0243    4.3058012    4.3058012    4.3058012   -6329.0243    -3984.164    -5045.897   -9957.0119    2750.6562    12515.418    4469.5164    79.829225 
   65300    543.93564   -115.27466    0.4921644    -114.7825   -2470.2387    4.3136361    4.3136361    4.3136361   -2470.2387    10751.608   -2907.0715   -15255.252    897.77322   -7194.1483   -4689.8016    80.265796 
   65400    428.54106   -115.17157   0.38775296   -114.78381   -3411.5953    4.3028728    4.3028728    4.3028728   -3411.5953    3317.1295   -2383.6188   -11168.297   -3308.8488    4919.9609   -1617.4634    79.666458 
   65500    309.21495   -115.06732   0.27978419   -114.78754    110.16039    4.3072042    4.3072042    4.3072042    110.16039    3284.1313    762.86575   -3716.5159   -3726.8322    8198.3367    7833.0859    79.907285 
   65600    468.29576   -115.20719   0.42372385   -114.78346    5113.1241    4.3113854    4.3113854    4.3113854    5113.1241    23757.438    5731.7672   -14149.833    3510.7017   -1722.8263   -2325.0563    80.140222 
   65700    539.10557   -115.27033   0.48779405   -114.78254    1350.4615    4.3022599    4.3022599    4.3022599    1350.4615    10302.703    1218.0832   -7469.4014   -3453.6416    2060.3779   -7939.9856    79.632422 
   65800    299.89049    -115.0584   0.27134722   -114.78706   -3418.0809    4.3074514    4.3074514    4.3074514   -3418.0809   -6542.9718     5672.273   -9383.5438   -2512.6956    6313.5616    3864.8404    79.921048 
   65900    450.98196   -115.19226   0.40805796    -114.7842   -2498.0347    4.3122631    4.3122631    4.3122631   -2498.0347   -11929.752    6821.3183   -2385.6702    299.03843    11140.975    7160.6863    80.189176 
   66000    551.41175    -115.2805   0.49892894   -114.78157    8012.0415    4.3021759    4.3021759    4.3021759    8012.0415    26591.737    156.82234   -2712.4352    940.65586   -3756.0557   -6912.6549    79.627756 
   66100    370.14433   -115.11885   0.33491437   -114.78393   -3058.7048    4.3071859    4.3071859    4.3071859   -3058.7048    811.75966    2299.4945   -12287.368   -603.63377    3603.5594   -5300.0226    79.906271 
   66200     332.1996   -115.08669   0.30058118    -114.7861   -8835.5245    4.3126978    4.3126978    4.3126978   -8835.5245   -4997.0306   -5684.9207   -15824.622   -4273.5586    10514.708    7991.7766    80.213429 
   66300    403.10009   -115.14927   0.36473343   -114.78453    14102.705    4.3010875    4.3010875    4.3010875    14102.705    32316.835    3614.8386    6376.4412    5748.6747   -2151.3091   -26.796162    79.567338 
   66400    568.44657   -115.29749   0.51434241   -114.78314    -5110.748    4.3078281    4.3078281    4.3078281    -5110.748    6349.0053   -7626.7476   -14054.502   -2520.6765   -531.34585   -8327.3307    79.942018 
   66500    312.36672   -115.06758   0.28263598   -114.78494   -12813.997    4.3139163    4.3139163    4.3139163   -12813.997   -9145.6263   -6977.8302   -22318.533   -3237.1887    7321.9838    4187.3436    80.281438 
   66600    482.53412   -115.21947   0.43660701   -114.78286   -2568.5245    4.3013859    4.3013859    4.3013859   -2568.5245   -769.67289   -833.71068   -6102.1899   -1700.1375    10816.522    5807.3507    79.583902 
   66700    488.09236   -115.22508   0.44163623   -114.78344    7421.7529    4.3070921    4.3070921    4.3070921    7421.7529    26098.212   -1110.2468   -2722.7066    411.62255   -4870.0572   -8660.4325    79.901049 
   66800    474.11548   -115.21325   0.42898965   -114.78426   -9671.1141    4.3123344    4.3123344    4.3123344   -9671.1141     2995.787   -10128.795   -21880.335    3862.6619     3299.436   -605.97282    80.193155 
   66900    309.86736   -115.06523    0.2803745   -114.78485   -1684.5502     4.303844     4.303844     4.303844   -1684.5502    12064.493   -218.55544   -16899.588    -6085.798    10684.192    10306.311    79.720415 
   67000    466.14327   -115.20612   0.42177623   -114.78434    3902.5244    4.3076469    4.3076469    4.3076469    3902.5244    20922.808    589.85259   -9805.0872    3536.4406    1145.1585   -5774.7308     79.93193 
   67100    563.56641    -115.2924   0.50992673   -114.78247    823.10733    4.3096518    4.3096518    4.3096518    823.10733     5723.239    3418.5693   -6672.4863   -1829.7631   -1698.7902   -8134.3495     80.04359 
   67200    417.59526   -115.16302   0.37784897   -114.78518   -4505.7056    4.3033289    4.3033289    4.3033289   -4505.7056   -3689.0559    3329.8856   -13157.946    -1803.067     7912.584    5478.9648    79.691797 
   67300    470.60526   -115.21209   0.42581353   -114.78628   -8240.7707    4.3099889    4.3099889    4.3099889   -8240.7707   -9376.8806    7001.8286    -22347.26   -502.24289     11522.76    5468.0046     80.06237 
   67400    495.98465   -115.23219   0.44877733   -114.78342    6769.6715    4.3104158    4.3104158    4.3104158    6769.6715    23348.338    2372.2615    -5411.585   -1780.0053   -5003.4852   -7159.2853    80.086165 
   67500    529.86911   -115.26127    0.4794367   -114.78184    3678.5579    4.3019514    4.3019514    4.3019514    3678.5579     10253.28    1672.5604   -890.16658    4701.1412    6347.0149   -2682.6696    79.615294 
   67600    331.95108   -115.08633   0.30035631   -114.78598   -4277.7776    4.3105666    4.3105666    4.3105666   -4277.7776     694.0414    7193.4939   -20720.868   -5897.5188    11656.235    7822.7369    80.094572 
   67700    528.86458   -115.26258   0.47852779   -114.78405   -862.53528    4.3088116    4.3088116    4.3088116   -862.53528    16073.458   -5988.0186   -12673.045    3932.1233    1397.9803   -4759.1013    79.996783 
   67800    634.56487   -115.35631   0.57416763   -114.78214      4847.12    4.3033183    4.3033183    4.3033183      4847.12    10907.003   -5199.9952    8834.3519    1718.4602    1260.8071   -6567.0615     79.69121 
   67900    447.99995   -115.19079   0.40535977   -114.78543   -5769.3655    4.3109295    4.3109295    4.3109295   -5769.3655    -7897.414     578.5631   -9989.2456   -380.91308    7078.3866    4551.2755    80.114799 
   68000    540.50729   -115.27353   0.48906235   -114.78447    -9133.616    4.3091506    4.3091506    4.3091506    -9133.616   -5136.4421   -11088.929   -11175.477   -2149.9185    9259.4678    1283.4992    80.015666 
   68100    579.27057   -115.30726   0.52413619   -114.78312    9292.2115     4.302835     4.302835     4.302835    9292.2115    32001.197   -9259.3707    5134.8083   -1416.2852   -6267.3452   -5847.6275    79.664359 
   68200    548.14085   -115.28035   0.49596936   -114.78438    -846.8884    4.3095101    4.3095101    4.3095101    -846.8884      3888.38   -7745.6857    1316.6406    6974.3192    6431.3618    157.74511    80.035691 
   68300    409.43971   -115.15655   0.37046966   -114.78608   -4329.9925    4.3098414    4.3098414    4.3098414   -4329.9925    1747.6054   -8998.1883   -5739.3946   -4461.3384    11070.374    10305.412    80.054153 
   68400    557.32046   -115.28825   0.50427527   -114.78398    5194.8209    4.3044737    4.3044737    4.3044737    5194.8209    15417.173   -10070.881    10238.171     198.0446   -1645.0835    -1113.557    79.755414 
   68500     770.9739   -115.47956   0.69759338   -114.78196   -2318.4186    4.3066461    4.3066461    4.3066461   -2318.4186   -1272.4115   -10290.505    4607.6603     1185.427    1876.7039   -6128.8828    79.876229 
   68600     383.7891   -115.13431   0.34726044   -114.78705    475.80048    4.3097505    4.3097505    4.3097505    475.80048   -7309.8455   -2398.5833     11135.83    788.23643    7780.0219    6227.3622    80.049087 
   68700    585.10237   -115.31501   0.52941292    -114.7856   -5553.7291    4.3060196    4.3060196    4.3060196   -5553.7291   -1664.5289   -9641.0869   -5355.5716   -1463.8798    10728.427    4213.0112    79.841373 
   68800    631.59369   -115.35494   0.57147925   -114.78346    11558.458    4.3057711    4.3057711    4.3057711    11558.458    24878.244   -1511.2057    11308.335    819.12322   -5966.8926   -2384.2445    79.827551 
   68900    607.05546   -115.33371   0.54927654   -114.78443   -6022.9665    4.3112158    4.3112158    4.3112158   -6022.9665   -5431.7382   -9974.3142   -2662.8469    8212.2255    3603.1991    1463.5906    80.130764 
   69000    367.30946    -115.1195   0.33234931   -114.78715    1523.0068    4.3028951    4.3028951    4.3028951    1523.0068    6327.9762   -617.43856   -1141.5172   -1796.6114    16018.432    6472.3598    79.667699 
   69100    645.09669    -115.3703   0.58369704   -114.78661     2231.643    4.3067293    4.3067293    4.3067293     2231.643    -593.4802    677.81582    6610.5933   -1144.0085   -351.94245     1121.977     79.88086 
   69200    715.31744   -115.43006   0.64723425   -114.78283   -3400.0338    4.3131798    4.3131798    4.3131798   -3400.0338   -1213.3933   -13939.133    4952.4245    1040.1101     796.5924    -1068.939    80.240326 
   69300    422.79733   -115.16837   0.38255591   -114.78581     -2300.57      4.30258      4.30258      4.30258     -2300.57   -4604.7011   -4104.9588    1807.9498    3269.5971    8548.2266    7265.5489    79.650199 
   69400    516.66132   -115.25374   0.46748602   -114.78625   -3921.4732    4.3061962    4.3061962    4.3061962   -3921.4732    -5852.127   -98.961637   -5813.3311   -3054.5031    8255.5872    5307.3381    79.851201 
   69500    673.10836   -115.39193   0.60904259   -114.78288    1881.6795    4.3127048    4.3127048    4.3127048    1881.6795    6615.6645   -12961.187    11990.561   -2663.2315   -245.08773   -2673.0387     80.21382 
   69600    610.32759   -115.33729   0.55223723   -114.78505     111.1043    4.3005328    4.3005328    4.3005328     111.1043    436.25799   -6691.1317    6588.1866    9015.7132    4502.2875   -1719.4338    79.536557 
   69700    295.48233   -115.05605   0.26735863    -114.7887   -1116.8128     4.308833     4.308833     4.308833   -1116.8128    923.06107   -5269.1674    995.66788     1654.388    13163.677    8302.8264    79.997975 
   69800    680.70474   -115.39904   0.61591596   -114.78312   -7630.8408    4.3138055    4.3138055    4.3138055   -7630.8408   -10831.592   -15425.678    3364.7478    227.64845     -4534.76    4694.3555    80.275251 
   69900    604.96858   -115.32862   0.54738829   -114.78124    12879.758    4.2991754    4.2991754    4.2991754    12879.758    11977.823    -1783.332    28444.783     4069.992    1597.3359   -1617.9732     79.46127 
   70000    478.21858   -115.21838   0.43270222   -114.78568    -8243.073    4.3083286    4.3083286    4.3083286    -8243.073   -12212.682   -10293.303    -2223.234    4333.4613     12553.73    3704.6106     79.96988 
   70100    425.01928   -115.17057   0.38456638   -114.78601   -6620.0787    4.3138877    4.3138877    4.3138877   -6620.0787    2340.8899   -16330.164   -5870.9614   -3480.4789    4190.3758    4404.4192    80.279841 
   70200    645.62939    -115.3658   0.58417904   -114.78162    11964.265    4.2992097    4.2992097    4.2992097    11964.265    12589.721     1194.016    22109.056   -4071.3893   -1317.0751   -1135.4917    79.463171 
   70300    529.26537   -115.26436   0.47889043   -114.78547   -1068.6382    4.3090887    4.3090887    4.3090887   -1068.6382    2484.9992    -10643.91    4952.9958    6070.9095    1194.3396   -488.56903    80.012214 
   70400    284.12054   -115.04371   0.25707823   -114.78664   -6054.6717    4.3131173    4.3131173    4.3131173   -6054.6717    1890.7458   -13952.633   -6102.1281   -1608.3156      13125.1    11458.258    80.236837 
   70500    579.21459   -115.30648   0.52408553   -114.78239    3116.0111    4.2988435    4.2988435    4.2988435    3116.0111      7343.08   -4369.1052    6374.0585   -1334.3303    1214.0417    3783.0547    79.442868 
   70600    511.90024   -115.24717   0.46317809   -114.78399    5127.6143    4.3109244    4.3109244    4.3109244    5127.6143    1703.0519   -6635.8183    20315.609    1372.6756   -3087.9136   -7722.9364     80.11452 
   70700    482.47651   -115.22105   0.43655488    -114.7845   -12397.092    4.3111951    4.3111951    4.3111951   -12397.092    -13403.28   -12558.095   -11229.899    3765.8145    9635.6817    6444.3535    80.129609 
   70800    369.88087   -115.11804   0.33467598   -114.78337    282.35562      4.30192      4.30192      4.30192    282.35562    9347.5081   -3776.7701   -4723.6711   -1301.3953    3448.6135    8700.1579    79.613548 
   70900    645.82493   -115.36627   0.58435597   -114.78192   -4545.0892    4.3100578    4.3100578    4.3100578   -4545.0892   -6404.6868   -10213.536     2982.955   -4436.0436    599.48112   -2839.5656    80.066215 
   71000    439.88895   -115.18286   0.39802076   -114.78484    4252.0949    4.3077774    4.3077774    4.3077774    4252.0949    2713.2853   -265.79824    10308.797    6294.0576    2106.5014   -6513.0322    79.939194 
   71100    362.50948   -115.11406   0.32800619   -114.78605   -3734.1196    4.3033564    4.3033564    4.3033564   -3734.1196     2634.003   -7089.0636   -6747.2982    -1422.914    9052.6368    7717.8214    79.693324 
   71200    461.96089   -115.20348   0.41799192   -114.78548   -3837.9234     4.310806     4.310806     4.310806   -3837.9234     5401.745   -10332.731   -6582.7843    -1025.941    2554.1748    6421.5212    80.107914 
   71300    469.01409   -115.20713   0.42437381   -114.78275    5624.4713    4.3093851    4.3093851    4.3093851    5624.4713    3011.5768    2019.6024    11842.235    1621.9864   -3189.2672     -8154.69    80.028726 
   71400    444.56594   -115.18548   0.40225261   -114.78322    1306.9423    4.3001625    4.3001625    4.3001625    1306.9423    6199.3573   -306.00155   -1972.5289    1412.6946     11900.79    6728.9928    79.516017 
   71500    341.84797   -115.09471   0.30931122    -114.7854    -7624.031    4.3121979    4.3121979    4.3121979    -7624.031    1779.2944   -7612.0142   -17039.373    905.41119    5021.0645    9852.9209     80.18554 
   71600    596.60418   -115.32177      0.53982   -114.78195    -7019.241    4.3086696    4.3086696    4.3086696    -7019.241    2424.9852   -11551.857   -11930.852   -6326.6665   -1958.6969   -6849.9153     79.98887 
   71700    405.82434   -115.15103    0.3671984   -114.78383    13094.328    4.2993796    4.2993796    4.2993796    13094.328    8766.1027    8577.7393    21939.142    5247.0642    1965.1309   -6850.6231    79.472594 
   71800    432.87777   -115.17648    0.3916769    -114.7848   -15098.005    4.3130657    4.3130657    4.3130657   -15098.005   -9338.5833   -11790.975   -24164.457    770.47403    5736.1695    10963.596     80.23396 
   71900    380.64464   -115.12822   0.34441527    -114.7838   -1632.2037    4.3064821    4.3064821    4.3064821   -1632.2037    12553.423   -3333.0261   -14117.008   -1762.4272    4732.3866     6533.383    79.867103 
   72000    595.67861   -115.32119   0.53898252    -114.7822    3372.0814     4.301679     4.301679     4.301679    3372.0814    4489.4709   -1269.1283    6895.9018    3646.3743   -5107.5029    -13026.55    79.600172 
   72100    363.87882   -115.11443   0.32924521   -114.78518    4328.9444    4.3097641    4.3097641    4.3097641    4328.9444     7688.135    6787.9147   -1489.2165     -1383.85    5859.7991    2594.3022    80.049843 
   72200    389.86003   -115.13853   0.35275355   -114.78578   -7759.2531    4.3080985    4.3080985    4.3080985   -7759.2531    3712.8451   -2055.6504   -24934.954    3536.3946    6633.2272    15231.946    79.957068 
   72300    529.14506   -115.26132   0.47878157   -114.78254    1900.7346    4.3023023    4.3023023    4.3023023    1900.7346    14459.104   -1168.1581    -7588.742   -5857.2828   -1379.5046   -2547.0117    79.634776 
   72400    480.79413   -115.21876   0.43503263   -114.78372    6672.2676    4.3093876    4.3093876    4.3093876    6672.2676    3269.0144    11722.002    5025.7863   -1892.3361    3665.0219   -5939.6761    80.028869 
   72500    386.70919   -115.13612    0.3499026   -114.78621   -3911.7914    4.3066139    4.3066139    4.3066139   -3911.7914    2756.2186   -1619.0581   -12872.535    2254.2513    4376.3482    10609.562    79.874436 
   72600    357.15773   -115.10901   0.32316382   -114.78584    766.32838    4.3014133    4.3014133    4.3014133    766.32838     10907.47    3191.5658   -11800.051   -4999.7565    3794.3109    10529.436     79.58542 
   72700    685.55296   -115.40292   0.62030272   -114.78262   -11412.647    4.3127421    4.3127421    4.3127421   -11412.647   -5478.9604   -7513.7064   -21245.275    4000.2277   -4333.9255   -8188.9383    80.215899 
   72800    366.62538   -115.11679   0.33173035   -114.78506    8225.9392    4.3037414    4.3037414    4.3037414    8225.9392     7891.913    7607.7404    9178.1641   -770.82544    3481.9566     2827.347    79.714715 
   72900    421.81416   -115.16796   0.38166632    -114.7863   -8057.1906    4.3016457    4.3016457    4.3016457   -8057.1906    4626.2544    -5155.985   -23641.841     2839.173    8902.1387    18938.209    79.598323 
   73000    474.59269   -115.21448   0.42942144   -114.78506   -7451.2208    4.3134382    4.3134382    4.3134382   -7451.2208    3226.1414   -2103.3395   -23476.464   -1630.2506   -2770.9287   -748.76453    80.254748 
   73100      684.492   -115.40123   0.61934275   -114.78188   -2315.1112    4.3043496    4.3043496    4.3043496   -2315.1112    6518.0167   -3109.4003    -10353.95   -6334.6557    3376.4763   -4514.5833    79.748514 
   73200    299.66325   -115.05788    0.2711416   -114.78674    9564.3031    4.3011648    4.3011648    4.3011648    9564.3031    16295.056    8778.7249    3619.1285    4877.5005       4636.3    14517.704    79.571629 
   73300    451.00773   -115.19462   0.40808127   -114.78654   -9288.8217    4.3123413    4.3123413    4.3123413   -9288.8217    7108.3147    -2613.078   -32361.702   -2873.1107    1261.9383    9942.5443    80.193538 
   73400    602.71014   -115.32803    0.5453448   -114.78268     3974.209    4.3047358    4.3047358    4.3047358     3974.209    12938.083    7022.8038   -8038.2602    86.944341   -3001.6751   -5734.3154    79.769983 
   73500    544.58983   -115.27729   0.49275633   -114.78453    8130.8701    4.3017254    4.3017254    4.3017254    8130.8701    15485.424    10359.356   -1452.1694    160.94907   -79.896149     3616.675    79.602747 
   73600    330.35618   -115.08637   0.29891321   -114.78745   -2481.0402    4.3125991    4.3125991    4.3125991   -2481.0402    7861.2825    -3428.016   -11876.387   -112.28069    7255.1306    15855.379    80.207924 
   73700    524.99461   -115.26001   0.47502615   -114.78498     1705.729     4.302141     4.302141     4.302141     1705.729    5480.0027    11631.447   -11994.263    2503.4568   -2851.6387    1713.7303    79.625821 
   73800    692.13701   -115.40935   0.62626011   -114.78309   -3565.1384    4.3053242    4.3053242    4.3053242   -3565.1384    671.86967    741.44527    -12108.73   -9116.0363   -451.41243   -2569.5689      79.8027 
   73900    379.38785   -115.12907    0.3432781    -114.7858     -723.019    4.3109197    4.3109197    4.3109197     -723.019    6450.8656   -3751.9341   -4867.9885     1435.351    6519.4107    12609.574    80.114256 
   74000    453.01706   -115.19561   0.40989936   -114.78571   -3353.0622    4.3020002    4.3020002    4.3020002   -3353.0622    1081.4951   -834.97446   -10305.707    150.23408    1186.0211    9859.4063    79.618003 
   74100    513.23591   -115.24885   0.46438663   -114.78447    641.49068    4.3059018    4.3059018    4.3059018    641.49068   -837.35022    11189.264   -8427.4416   -4361.4513   -3854.5239   -3846.8936     79.83482 
   74200    617.08429   -115.34155   0.55835083    -114.7832   -12009.618    4.3122925    4.3122925    4.3122925   -12009.618    1306.3861   -15659.716   -21675.525    1155.4689   -1855.3303    5226.5417    80.190816 
   74300    301.54945   -115.05855   0.27284828    -114.7857     7785.498    4.3012961    4.3012961    4.3012961     7785.498    18813.508    3178.4478    1364.5387   -1046.8423    5032.9841    14033.765    79.578919 
   74400    546.49011   -115.27871   0.49447573   -114.78424   -3312.1422    4.3045528    4.3045528    4.3045528   -3312.1422    3906.8711   -221.56739    -13621.73    2049.4555    155.40937    562.14973    79.759811 
   74500    475.63522    -115.2141   0.43036474   -114.78373   -3898.6307     4.313636     4.313636     4.313636   -3898.6307     6012.347    -2449.874   -15258.365   -5068.1451   -2718.1823   -800.09137    80.265789 
   74600    529.72142   -115.26263   0.47930307   -114.78333    2138.4897    4.2990982    4.2990982    4.2990982    2138.4897    24588.623   -5607.9958   -12565.158   -3639.3721     4743.701      13483.8    79.456985 
   74700    391.05276   -115.13902   0.35383275   -114.78519     4445.627    4.3074451    4.3074451    4.3074451     4445.627    13329.375   -2802.0147    2809.5208    2350.1239     2249.529    7961.0715    79.920696 
   74800    555.71205    -115.2859   0.50281994   -114.78308    -7464.785    4.3107044    4.3107044    4.3107044    -7464.785    1560.3984   -7844.4482   -16110.305   -4549.4927   -6481.1024   -4527.4644    80.102251 
   74900      429.008    -115.1713   0.38817546   -114.78312    3271.1727    4.3010802    4.3010802    4.3010802    3271.1727    12068.691    3315.0431    -5570.216   -1337.2757   -1857.3491    6110.9736    79.566932 
   75000     480.9188   -115.21961   0.43514544   -114.78446   -4575.9152    4.3092387    4.3092387    4.3092387   -4575.9152    16689.287   -18746.182    -11670.85    1277.2419    1148.1834    12368.618    80.020575 
   75100    446.56692    -115.1879   0.40406313   -114.78384    2024.1607    4.3080731    4.3080731    4.3080731    2024.1607    628.01084   -4585.6974    10030.169    -1287.958   -626.06727   -901.12651    79.955655 
   75200    486.88733   -115.22352   0.44054589   -114.78298   -2344.4624    4.3015728    4.3015728    4.3015728   -2344.4624    1044.1533    -2371.515   -5706.0256   -3602.0704   -3009.5697   -694.57779    79.594276 
   75300    367.54567   -115.11855   0.33256304   -114.78599   -5772.0692    4.3107154    4.3107154    4.3107154   -5772.0692    9106.4308   -15867.869    -10554.77   -2621.9237   -100.50602    13090.671    80.102863 
   75400    509.26617   -115.24494   0.46079474   -114.78415     191.8817    4.3056064    4.3056064    4.3056064     191.8817    9122.6078   -9396.1929    849.23016     845.9656     7261.324    6277.9483    79.818394 
   75500    498.69042   -115.23425   0.45122557   -114.78303    3540.4271    4.3023193    4.3023193    4.3023193    3540.4271   -1930.8796    793.09342    11759.068   -2369.3127   -4118.9793   -4282.1202    79.635721 
   75600    385.82352   -115.13421   0.34910123   -114.78511   -11387.401    4.3119192    4.3119192    4.3119192   -11387.401   -3741.0286   -19089.795    -11331.38   -5284.6249   -2279.2353    8785.8355    80.169993 
   75700    435.29476    -115.1782   0.39386385   -114.78434   -2952.9292    4.3053455    4.3053455    4.3053455   -2952.9292    13042.339   -6582.2292   -15318.897    2762.2609    2309.4175    11557.812    79.803884 
   75800    540.17056    -115.2714   0.48875767   -114.78264    7207.8511    4.3028609    4.3028609    4.3028609    7207.8511    1561.1697    349.40615    19712.978    1574.5202   -2291.9853    -1042.037    79.665798 
   75900    547.00135   -115.27852   0.49493832   -114.78358    -8255.967    4.3100511    4.3100511    4.3100511    -8255.967   -1554.8324    -13802.55   -9410.5186   -3850.1271   -4.7158705    528.80222    80.065838 
   76000    300.13678   -115.05796   0.27157006   -114.78639   -3707.7454     4.307253     4.307253     4.307253   -3707.7454    12877.093   -12355.695   -11644.634    1149.7921   -3050.9021    14018.281    79.910002 
   76100    556.51584   -115.28812   0.50354723   -114.78457    2705.6718    4.3022463    4.3022463    4.3022463    2705.6718    9202.4981   -1050.8926   -34.590246    1047.7134    5320.6099    5528.3751    79.631667 
   76200    523.05732   -115.25663   0.47327325   -114.78336    9191.2416    4.3087907    4.3087907    4.3087907    9191.2416    10279.635   -2852.2655    20146.356   -17.061573   -765.43352   -5662.6769    79.995619 
   76300    457.49851   -115.19881   0.41395427   -114.78486   -6060.0032    4.3074973    4.3074973    4.3074973   -6060.0032     7066.915   -14424.412   -10822.512   -3529.5643   -4292.1188    12441.248      79.9236 
   76400    360.84927   -115.11341     0.326504    -114.7869   -315.57061    4.3039092    4.3039092    4.3039092   -315.57061     10343.46    -10233.77   -1056.4016    83.242759    1733.9581    11396.528    79.724039 
   76500    599.79939   -115.32707   0.54271109   -114.78436    5552.1362    4.3062871    4.3062871    4.3062871    5552.1362    6131.0207   -2.9363535    10528.324    3843.8977    -1704.853   -3648.9305    79.856258 
   76600    577.44489   -115.30701   0.52248427   -114.78453   -1931.0505    4.3084501    4.3084501    4.3084501   -1931.0505   -4251.5873   -7777.6629    6236.0986    -3521.093    3856.2137    2231.6234    79.976647 
   76700    364.74192   -115.11656   0.33002616   -114.78654   -6934.9196    4.3053698    4.3053698    4.3053698   -6934.9196    1735.5862   -19730.907   -2809.4377    677.01982   -3428.4001    15510.697    79.805234 
   76800    550.52111   -115.28405   0.49812307   -114.78593   -5670.0399    4.3071498    4.3071498    4.3071498   -5670.0399   -3908.7395   -7837.1088   -5264.2715     3041.368    2702.7972    4593.8419    79.904257 
   76900     591.2153   -115.31847   0.53494403   -114.78352    5055.1241    4.3068607    4.3068607    4.3068607    5055.1241   -3257.7288    232.90867    18190.192   -328.95452   -486.13378   -9070.4442     79.88817 
   77000    509.23469   -115.24558   0.46076624   -114.78482   -4431.3142    4.3040148    4.3040148    4.3040148   -4431.3142    2713.3191   -10695.714   -5311.5476   -519.13582    -6243.274    12187.789    79.729912 
   77100    436.60492   -115.18206   0.39504931   -114.78701   -9942.4886    4.3102892    4.3102892    4.3102892   -9942.4886     3175.709   -22662.924   -10340.251    933.77157    4331.9441    13699.513    80.079107 
   77200     616.2042   -115.34054   0.55755451   -114.78299     2545.745    4.3067821    4.3067821    4.3067821     2545.745    6974.9463    1028.4262   -366.13742    3817.4124   -2012.8592   -7272.0476    79.883797 
   77300    559.63176   -115.28922   0.50636658   -114.78286    6595.9002    4.3032225    4.3032225    4.3032225    6595.9002    8879.8153   -1771.6573    12679.543   -977.20888   -1047.0872     2069.046    79.685886 
   77400    428.78967    -115.1735   0.38797791   -114.78552   -5521.4986    4.3098354    4.3098354    4.3098354   -5521.4986    11780.023    -15720.69   -12623.828   -1373.0671   -2367.2675    15548.072    80.053818 
   77500     558.1097   -115.28971   0.50498939   -114.78472   -2234.6534    4.3071677    4.3071677    4.3071677   -2234.6534    6018.6745   -15622.798    2900.1631    1874.6703   -201.42748    2367.7561    79.905256 
   77600    573.65559   -115.30351   0.51905564   -114.78446    11730.624    4.3025065    4.3025065    4.3025065    11730.624    9960.7459    9757.5199    15473.606    1523.3603    5016.2884   -8596.0559    79.646118 
   77700    560.55419   -115.29232   0.50720121   -114.78512   -3683.5061    4.3094799    4.3094799    4.3094799   -3683.5061    6608.8383   -11464.048   -6195.3086   -521.33186   -5948.0035    8926.2912    80.034009 
   77800    497.93245   -115.23528   0.45053975   -114.78474    -5505.819    4.3097143    4.3097143    4.3097143    -5505.819   -361.10193   -11480.737    -4675.618    851.68201   -477.53884    11986.328    80.047068 
   77900    700.90738   -115.41653   0.63419572   -114.78233   -2106.6501    4.3025196    4.3025196    4.3025196   -2106.6501   -2107.0163   -8380.7757    4167.8418     1633.962   -1158.4239     -7861.61    79.646843 
   78000     481.7714    -115.2202   0.43591689   -114.78429    6839.3488    4.3082835    4.3082835    4.3082835    6839.3488    7527.7536    5467.5072    7522.7857    535.06939    905.20495   -507.75501    79.967371 
   78100    598.85079   -115.32635   0.54185278    -114.7845   -11517.241    4.3097983    4.3097983    4.3097983   -11517.241   -3010.2777   -17341.768   -14199.677    623.81906    3231.8424    14153.698    80.051752 
   78200    480.52197   -115.21903   0.43478638   -114.78424    3922.1097     4.302428     4.302428     4.302428    3922.1097    2722.1277   -4166.8396    13211.041   -921.53327   -4545.3669    981.47568    79.641758 
   78300    624.94456    -115.3496   0.56546297   -114.78414   -3765.3392    4.3092663    4.3092663    4.3092663   -3765.3392    4732.5572   -13537.142   -2491.4327    1696.0119    1283.1364   -8792.4252    80.022112 
   78400    438.65413   -115.18248   0.39690347   -114.78558    8059.4914    4.3061313    4.3061313    4.3061313    8059.4914    15557.449    7321.2633    1299.7614   -2123.5164   -7992.9024    4975.3088    79.847587 
   78500    577.88873   -115.30653   0.52288587   -114.78365   -3333.5606    4.3049307    4.3049307    4.3049307   -3333.5606    2334.6722   -8102.9391   -4232.4149    38.414496   -4037.7978     9905.895     79.78082 
   78600    547.82422   -115.27961   0.49568287   -114.78393   -4577.5634    4.3101634    4.3101634    4.3101634   -4577.5634    232.61075   -14081.166    115.86456    3011.3577    2981.6893    -6226.605    80.072099 
   78700    543.41294   -115.27545   0.49169145   -114.78376     4478.643    4.3044789    4.3044789    4.3044789     4478.643    16203.275   -1605.8494   -1161.4969    -1600.103    -3788.909   -4022.9911    79.755706 
   78800    584.57361   -115.31194   0.52893448     -114.783     1960.217    4.3057189    4.3057189    4.3057189     1960.217    3028.6359    6602.3349   -3750.3197    2492.9602     1869.161    8987.7022    79.824648 
   78900    568.68171   -115.29767   0.51455516   -114.78311    -5655.367    4.3099411    4.3099411    4.3099411    -5655.367   -1888.4559   -13116.811   -1960.8343   -2468.7986   -442.58111    503.81218     80.05971 
   79000    545.78167   -115.27772   0.49383472   -114.78389   -3500.0756    4.3058058    4.3058058    4.3058058   -3500.0756    1949.1817   -12514.245    64.836645    1431.4931    2576.7218   -6482.8946    79.829485 
   79100    533.76873   -115.26729   0.48296516   -114.78432    8069.1422    4.3033817    4.3033817    4.3033817    8069.1422    15615.807    6899.4807    1692.1388    2402.2754    981.35036    2495.0815     79.69473 
   79200    629.43035   -115.35254   0.56952181   -114.78302   -1151.2608    4.3086813    4.3086813    4.3086813   -1151.2608    4195.7207   -2408.4705   -5241.0326    -3529.669   -6681.9116    6140.4291    79.989523 
   79300    434.08774   -115.17775   0.39277171   -114.78498   -4576.6939    4.3086642    4.3086642    4.3086642   -4576.6939   -5389.0944    -12265.69    3924.7031    1064.3819    582.83933   -4858.0556    79.988573 
   79400    495.81157   -115.23361   0.44862072   -114.78499    -291.4272    4.3028636    4.3028636    4.3028636    -291.4272    13425.725   -14574.543    274.53716   -3186.6349    -3418.915   -4948.3773    79.665951 
   79500    571.88148   -115.30075   0.51745038    -114.7833    7105.5044    4.3076703    4.3076703    4.3076703    7105.5044    12737.373      8599.71   -20.569925    2788.0838    -1623.615    5676.3583    79.933232 
   79600    599.19969   -115.32584   0.54216847   -114.78367   -7150.7504    4.3087371    4.3087371    4.3087371   -7150.7504   -8605.8965   -10418.087   -2428.2674   -248.97841    2974.0322   -499.49554    79.992633 
   79700    325.87363   -115.08194   0.29485731   -114.78709    -2483.789    4.3040055    4.3040055    4.3040055    -2483.789   -5528.0924   -11710.613    9787.3386     -1754.72   -1891.0749   -6200.8286     79.72939 
   79800    613.26805   -115.33998   0.55489782   -114.78509   -3602.7077    4.3090661    4.3090661    4.3090661   -3602.7077    10065.555   -13264.725   -7608.9527    3981.6841    1803.1235    364.30691    80.010958 
   79900    671.55267   -115.39066   0.60763497   -114.78302    6988.4949    4.3049643    4.3049643    4.3049643    6988.4949   -737.57307    16723.454    4979.6033   -4225.3569   -1914.9035    2938.7415    79.782688 
   80000    457.90625   -115.20022    0.4143232    -114.7859   -5200.5112    4.3050604    4.3050604    4.3050604   -5200.5112    -4267.352   -15800.623    4466.4412    1055.3936    1539.9877   -3714.5922    79.788028 
   80100    318.27029   -115.07619   0.28797765   -114.78822   -2773.7406    4.3120077    4.3120077    4.3120077   -2773.7406    13246.049   -15567.031   -6000.2395    53.177267     2870.092   -5826.8257    80.174931 
   80200    757.60193   -115.46863   0.68549415   -114.78314    8464.9943    4.3006843    4.3006843    4.3006843    8464.9943    22041.802    5299.5915   -1946.4103   -971.10533   -2876.8356    2629.8931    79.544964 
   80300    547.10122   -115.28005   0.49502868   -114.78502    7471.6019    4.3062581    4.3062581    4.3062581    7471.6019    8539.2276    9305.2246    4570.3536    17.238591    689.41874    40.630078    79.854641 
   80400    369.77264    -115.1227   0.33457805   -114.78812   -16754.265    4.3133443    4.3133443    4.3133443   -16754.265    -13470.53   -25905.134    -10887.13   -1626.3694    228.74525   -7740.4477     80.24951 
   80500    464.98098     -115.207   0.42072456   -114.78628    8611.4873    4.3009067    4.3009067    4.3009067    8611.4873    19041.638      2921.39    3871.4343    3739.5276    1178.2156   -3492.4736    79.557307 
   80600    822.02258   -115.52517    0.7437833   -114.78139   -1723.7192    4.3079492    4.3079492    4.3079492   -1723.7192    459.36181   -311.86898   -5318.6505   -3148.1369   -294.22878    1008.8343    79.948756 
   80700    357.29191   -115.11107   0.32328523   -114.78778    2197.0107    4.3071515    4.3071515    4.3071515    2197.0107    5190.7168    925.16475    475.15047   -4428.6356    202.92541   -3203.4252    79.904354 
   80800     338.9474   -115.09609   0.30668673   -114.78941   -6378.0858    4.3075562    4.3075562    4.3075562   -6378.0858    5113.7933   -20065.855   -4182.1956    482.38342    3539.1974   -6005.1819    79.926882 
   80900    585.36284   -115.31368    0.5296486   -114.78403     8892.901    4.3062051    4.3062051    4.3062051     8892.901    25613.391    384.08135    681.23109    3338.5017    2122.2755    1104.4032    79.851695 
   81000    655.43092   -115.37594   0.59304767   -114.78289    -1508.983    4.3072129    4.3072129    4.3072129    -1508.983    562.72633   -1421.6837   -3667.9917     -3220.69    1221.9491   -1792.2724    79.907773 
   81100    310.92223   -115.06917   0.28132897   -114.78784   -7716.1568    4.3072435    4.3072435    4.3072435   -7716.1568   -10754.694    -14395.67    2001.8936     465.8818    2155.8442   -9123.4567    79.909472 
   81200    462.68558   -115.20658   0.41864763   -114.78794    1928.2681    4.3050058    4.3050058    4.3050058    1928.2681    8724.0003   -6194.0827    3254.8866     6615.414   -255.01056   -1408.5591    79.784998 
   81300    696.53867   -115.41331   0.63024283   -114.78306   -3399.8701    4.3108394    4.3108394    4.3108394   -3399.8701    2994.7088   -4347.9127   -8846.4065   -2495.1662   -5032.6739    2519.1367    80.109777 
   81400    394.73622   -115.14312   0.35716562   -114.78595    5221.5739    4.3021374    4.3021374    4.3021374    5221.5739    12601.465    1541.2434    1522.0133   -411.44977   -2569.9563     -4808.37    79.625621 
   81500    386.85852   -115.13711   0.35003771   -114.78707   -8196.3848    4.3117293    4.3117293    4.3117293   -8196.3848   -2573.0405   -16717.121   -5298.9931   -3371.5182   -1010.3989   -7757.7127    80.159401 
   81600    530.55198   -115.26335   0.48005458    -114.7833    7113.1642    4.3068752    4.3068752    4.3068752    7113.1642    18764.634    6041.5939    -3466.735    3104.9218   -1180.0158    296.30108    79.888977 
   81700    639.46171    -115.3613    0.5785984    -114.7827   -1179.9025    4.3036477    4.3036477    4.3036477   -1179.9025    497.96834    2062.5504   -6100.2263   -1362.1636   -2183.5952    295.26867    79.709512 
   81800    404.64819   -115.15203   0.36613418    -114.7859   -6479.6841    4.3109686    4.3109686    4.3109686   -6479.6841   -10528.006   -2600.0104   -6311.0357    -2497.219    76.055825   -5784.6764    80.116981 
   81900    562.13081   -115.29287   0.50862777   -114.78424    3164.3432    4.3052996    4.3052996    4.3052996    3164.3432    7932.5239   -916.56613     2477.072    7377.0422    1374.2383   -784.57732     79.80133 
   82000    615.26907   -115.33883   0.55670838   -114.78212    2617.9829    4.3088914    4.3088914    4.3088914    2617.9829     8954.751    10770.047   -11870.849    -2543.773   -2382.5806    2736.1237    80.001229 
   82100    526.26567   -115.25988   0.47617624   -114.78371   -1092.1146    4.3055237    4.3055237    4.3055237   -1092.1146    12109.047   -2968.3649   -12417.026    2988.3242    1448.7555   -3630.5205    79.813792 
   82200    434.49176   -115.17841   0.39313727   -114.78527     -137.303    4.3095035    4.3095035    4.3095035     -137.303    5259.4346   -3590.5267   -2080.8169    -519.3231    -1010.549   -5457.4377    80.035326 
   82300    640.47026   -115.36248   0.57951095   -114.78297    4543.0016    4.3044038    4.3044038    4.3044038    4543.0016    17386.273    340.21819   -4097.4866   -526.78871   -2535.9162    3612.2414    79.751529 
   82400    547.33481   -115.28015   0.49524004   -114.78491    98.396953    4.3074473    4.3074473    4.3074473    98.396953   -350.51773    12067.894   -11422.185    212.63643   -308.53312    4635.3433    79.920818 
   82500    498.13573    -115.2362   0.45072368   -114.78548   -11407.645    4.3096215    4.3096215    4.3096215   -11407.645   -11354.363   -12158.769   -10709.803   -1678.7863   -1474.9839   -6936.4596    80.041898 
   82600    520.67847   -115.25541   0.47112082   -114.78429    6497.3016    4.3020179    4.3020179    4.3020179    6497.3016    1532.6794    7678.3087    10280.917    8636.3004    2092.3216   -5723.1077    79.618984 
   82700    656.47992   -115.37714   0.59399683   -114.78315   -6100.2097    4.3120608    4.3120608    4.3120608   -6100.2097    310.70194   -3532.3572   -15078.974   -1815.8864   -3223.0641    5581.5606     80.17789 
   82800    413.40099   -115.15898   0.37405391   -114.78493    2708.0916    4.3054619    4.3054619    4.3054619    2708.0916    10075.887    5231.0192   -7182.6319    -483.9777    264.94741    1090.7836    79.810354 
   82900    510.82468   -115.24738   0.46220491   -114.78518   -2861.6632    4.3053159    4.3053159    4.3053159   -2861.6632    3672.5957   -9315.4862   -2942.0991    3520.3029    3479.1307   -5309.5868    79.802238 
   83000    549.55934   -115.28053   0.49725284   -114.78327    5667.3913    4.3089857    4.3089857    4.3089857    5667.3913    15069.058   -3412.6167    5345.7326    270.69916   -249.34189    2712.9129    80.006481 
   83100    591.91636   -115.31859   0.53557836   -114.78301    -703.2504    4.3070177    4.3070177    4.3070177    -703.2504    13050.732    1898.2874    -17058.77   -479.52872     3562.271    6869.5713    79.896908 
   83200    435.39577   -115.17907   0.39395524   -114.78512   -3112.8182    4.3078621    4.3078621    4.3078621   -3112.8182   -1449.0056    2159.6932   -10049.142   -2319.7465   -2596.5495   -4725.2531    79.943911 
   83300    596.80839   -115.32363   0.54000478   -114.78362    7.4922479    4.3042728    4.3042728    4.3042728    7.4922479   -751.12521    -1681.419     2455.021    3140.6747   -47.064449   -3070.8814    79.744248 
   83400    591.40065   -115.31837   0.53511174   -114.78326   -2054.6125    4.3106597    4.3106597    4.3106597   -2054.6125    6745.7966   -6440.8845   -6468.7497    725.53254   -1047.2306    10718.909    80.099761 
   83500    498.40688   -115.23503   0.45096902   -114.78406    -451.0151      4.30508      4.30508      4.30508    -451.0151     6143.444    7045.5959   -14542.085    1307.3351   -6346.0497     3554.315    79.789118 
   83600    500.82125   -115.23794   0.45315359   -114.78478   -2817.2871    4.3075447    4.3075447    4.3075447   -2817.2871    3927.2748   -4790.9558   -7588.1802    1414.2883     3236.417    -10311.22    79.926239 
   83700    496.53462   -115.23342   0.44927496   -114.78414   -894.14824    4.3091946    4.3091946    4.3091946   -894.14824    14959.537   -12883.656   -4758.3266    2355.1568   -2222.1809    2973.1379    80.018115 
   83800    518.34636   -115.25219   0.46901068   -114.78318    3768.5948    4.3026411    4.3026411    4.3026411    3768.5948    23017.151   -7993.2741   -3718.0926   -471.17235    2538.2776    12863.445    79.653595 
   83900    422.26925   -115.16668    0.3820781    -114.7846    -1430.255    4.3125263    4.3125263    4.3125263    -1430.255    11137.655    1978.1898    -17406.61   -1812.9772    2902.2816   -2798.5147     80.20386 
   84000    505.44198   -115.24028   0.45733452   -114.78294   -1971.8973    4.3056395    4.3056395    4.3056395   -1971.8973    1319.3469    -5347.642   -1887.3968    3443.0147    505.60125   -4793.4611    79.820234 
   84100    392.95966   -115.13938   0.35555816   -114.78383    2014.6115     4.303717     4.303717     4.303717    2014.6115     14801.49   -8824.6507    66.994876   -2264.5365      4399.92    13538.147    79.713361 
   84200    559.32656   -115.28965   0.50609043   -114.78356   -10892.413    4.3117986    4.3117986    4.3117986   -10892.413   -2857.4532    -16261.15   -13558.636    1807.3771   -4957.1187    6757.5898    80.163264 
   84300    466.19383   -115.20483   0.42182197   -114.78301    2044.1342    4.3064399    4.3064399    4.3064399    2044.1342   -2921.9549     9771.781   -717.42338    3321.7663    1140.4165   -7361.6941    79.864756 
   84400    454.99561   -115.19538   0.41168959   -114.78369   -4375.1049     4.304988     4.304988     4.304988   -4375.1049    9039.6478   -18254.322   -3910.6399    4623.3742   -317.06278    6997.5512    79.784005 
   84500    368.91648   -115.11874   0.33380339   -114.78494    -3943.927    4.3110471    4.3110471    4.3110471    -3943.927    17406.518   -20666.729   -8571.5701    944.15379   -1773.5118    14099.533    80.121356 
   84600    520.09311   -115.25366   0.47059118   -114.78306    3530.0532    4.3059845    4.3059845    4.3059845    3530.0532    17390.078   -1758.4503   -5041.4685   -3708.1926    1105.4563   -4796.5347     79.83942 
   84700    433.64227   -115.17769   0.39236864   -114.78532    7029.4426    4.3045419    4.3045419    4.3045419    7029.4426     13657.24    8572.8975   -1141.8097    5380.3123   -1361.5479   -4173.5708    79.759203 
   84800    246.61523   -115.01004   0.22314265   -114.78689   -3790.4086    4.3116241    4.3116241    4.3116241   -3790.4086    20929.652   -21724.981   -10575.897    -2626.655     2312.515    15954.962    80.153533 
   84900    497.29268   -115.23318   0.44996087   -114.78322    -4221.298    4.3054767    4.3054767    4.3054767    -4221.298    6281.6168   -13880.632   -5064.8789     1100.753   -684.78487    7361.1359     79.81118 
   85000    563.14202    -115.2918   0.50954273   -114.78226   -983.36826    4.3078919    4.3078919    4.3078919   -983.36826   -2147.5017    1233.3036   -2035.9067   -724.91373     1370.128     -6880.88    79.945569 
   85100    323.22179   -115.07808   0.29245787   -114.78562   -3734.4326    4.3081312    4.3081312    4.3081312   -3734.4326    4036.4989   -9912.6074   -5327.1894    2314.4395     66.53772    9606.9027    79.958892 
   85200    303.07368   -115.06104   0.27422744   -114.78681   -6978.4608    4.3059627    4.3059627    4.3059627   -6978.4608    14967.677   -28653.039   -7250.0205    4098.4251     163.4253    14732.013    79.838209 
   85300    538.42671    -115.2701   0.48717981   -114.78292   -3387.6225    4.3085086    4.3085086    4.3085086   -3387.6225    8264.5245   -17130.575   -1296.8175   -4716.0679   -1616.5892   -3197.7662    79.979909 
   85400    393.39163   -115.14095   0.35594902     -114.785    5141.5418    4.3076673    4.3076673    4.3076673    5141.5418    14112.631    1377.5641   -65.569757    3499.2049   -1867.0739    917.50622    79.933066 
   85500    146.33642    -114.9205   0.13240827   -114.78809   -390.87906    4.3071472    4.3071472    4.3071472   -390.87906    25342.954   -19232.754   -7282.8379   -2154.1876    978.83741    15569.567    79.904117 
   85600    388.38793   -115.13714   0.35142156   -114.78572    -2869.335    4.3045493    4.3045493    4.3045493    -2869.335    7644.7841   -17757.072    1504.2827   -1690.0957   -3624.1971    2783.6283    79.759618 
   85700    586.31476   -115.31334   0.53050991   -114.78283   -10023.282    4.3134285    4.3134285    4.3134285   -10023.282   -3163.1449   -18660.825    -8245.877    10.807878    2118.6432   -4450.4224    80.254205 
   85800    278.44807   -115.03763   0.25194567   -114.78569    2743.3159    4.3036909    4.3036909    4.3036909    2743.3159    9823.9965   -829.02066   -765.02824    2129.0441    793.04743    14848.082    79.711908 
   85900    307.17208   -115.06391   0.27793575   -114.78597   -5749.9776    4.3060038    4.3060038    4.3060038   -5749.9776    9712.7427   -23147.044   -3815.6309    2972.3008    2914.1672    11179.152    79.840497 
   86000     526.0441   -115.25922   0.47597576   -114.78324   -11954.243    4.3131207    4.3131207    4.3131207   -11954.243   -5249.2639   -23480.301   -7133.1648   -3744.6424    1396.2796   -3766.3737    80.237029 
   86100    489.65794   -115.22666    0.4430528    -114.7836    5708.7451    4.2999427    4.2999427    4.2999427    5708.7451    17824.114   -4575.3834    3877.5049    1460.2022    -2497.001    6050.7107    79.503822 
   86200    145.78694   -114.92018   0.13191109   -114.78827    5915.6772    4.3106468    4.3106468    4.3106468    5915.6772    26874.713   -2297.2665   -6830.4154   -1076.3236    4272.1804    13201.723    80.099042 
   86300    388.32196   -115.13685   0.35136187   -114.78549   -3906.3752    4.3090622    4.3090622    4.3090622   -3906.3752    6389.1548   -19617.037     1508.757   -2734.6268   -5250.1136     770.1235     80.01074 
   86400    455.06676   -115.19311   0.41175397   -114.78135    1519.8096    4.3036986    4.3036986    4.3036986    1519.8096    9834.5323   -7612.0118    2336.9084   -1873.6611    1775.7266   -2015.9434    79.712339 
   86500    383.65448   -115.13116   0.34713863   -114.78402   -3775.3964    4.3101584    4.3101584    4.3101584   -3775.3964    6688.8002   -12936.652   -5078.3372    765.86446    1883.8476    11267.755    80.071819 
   86600    294.59682   -115.05203   0.26655739   -114.78547    3459.9587    4.3051282    4.3051282    4.3051282    3459.9587     4519.677   -2394.9753    8255.1743    3874.0607   -1721.4043    5615.5157    79.791799 
   86700    484.40318    -115.2215   0.43829818    -114.7832     -8591.53    4.3075241    4.3075241    4.3075241     -8591.53    -10755.81   -19777.305    4758.5255    63.123186    3273.3268    -4760.317    79.925094 
   86800    509.35004   -115.24378   0.46087062   -114.78291   -10691.041    4.3103042    4.3103042    4.3103042   -10691.041    2512.7653   -19494.322   -15091.567    391.47631   -3204.9137    7844.7471    80.079943 
   86900    296.37256   -115.05343   0.26816412   -114.78526    9108.5219    4.3044494    4.3044494    4.3044494    9108.5219    17373.757   -605.77169     10557.58    1560.0135    4740.7231     10401.92    79.754062 
   87000    392.21275   -115.13987   0.35488234   -114.78499   -259.64757    4.3065498    4.3065498    4.3065498   -259.64757    6346.5623   -7098.0714   -27.433613   -52.417018   -973.92396   -1132.7323    79.870871 
   87100    364.53245   -115.11443   0.32983662    -114.7846   -3205.7933    4.3101639    4.3101639    4.3101639   -3205.7933    9376.0819   -14432.299   -4561.1622   -4523.6064   -2176.4395    -2692.745    80.072123 
   87200    480.65509   -115.21874   0.43490682   -114.78383   -2636.9994    4.3056744    4.3056744    4.3056744   -2636.9994    15003.495   -13090.791   -9823.7019   -735.54449    5010.6687    7432.6342    79.822176 
   87300    333.15967   -115.08592   0.30144987   -114.78447    8189.1638    4.3063084    4.3063084    4.3063084    8189.1638    11775.877    2815.0321    9976.5824    -948.5007   -2250.6288    5513.1183    79.857443 
   87400    489.02046   -115.22586   0.44247599   -114.78339   -9647.8042    4.3091197    4.3091197    4.3091197   -9647.8042   -10727.131   -15329.968   -2886.3136    327.87939    2042.4691    -5020.297    80.013944 
   87500    469.01885     -115.207   0.42437811   -114.78262   -7762.2588     4.307016     4.307016     4.307016   -7762.2588    2468.8134   -14982.489   -10773.101    1349.3678   -960.21301    1505.1969    79.896812 
   87600    537.55178   -115.26976   0.48638814   -114.78337   -2454.7381    4.3061712    4.3061712    4.3061712   -2454.7381    12138.193    -11501.25   -8001.1575   -352.43641    1184.4384    5691.9005     79.84981 
   87700    364.58458   -115.11522   0.32988379   -114.78534     5110.102    4.3074645    4.3074645    4.3074645     5110.102    4972.5234     794.1829    9563.5998    2561.0062     3100.109   -809.60718    79.921777 
   87800    445.14014   -115.18786   0.40277216   -114.78508   -6077.8368    4.3071278    4.3071278    4.3071278   -6077.8368    8082.6851   -16215.188   -10101.008   -2490.7726   -3522.2906   -536.04719    79.903033 
   87900    482.89794   -115.22075   0.43693621   -114.78381   -528.68536     4.307321     4.307321     4.307321   -528.68536     18431.38   -3183.7753    -16833.66     176.0151    5150.0515    2602.5982    79.913785 
   88000    493.50762   -115.22993   0.44653607   -114.78339    2476.7563    4.3073542    4.3073542    4.3073542    2476.7563    11174.616   -6014.6768    2270.3299   -1854.5995    1238.9999    2173.4544    79.915633 
   88100    369.70822   -115.11981   0.33451977   -114.78529    3013.4479    4.3046733    4.3046733    4.3046733    3013.4479   -2787.7746    617.61711    11210.501    -1361.113   -2114.1028   -6044.3025     79.76651 
   88200    514.65288   -115.24985   0.46566874   -114.78419    -8928.677    4.3096751    4.3096751    4.3096751    -8928.677    1136.3682   -12149.526   -15772.873    2500.9756     2110.796   -4212.8613    80.044887 
   88300    624.24646   -115.34723   0.56483132    -114.7824   -1656.8953    4.3062125    4.3062125    4.3062125   -1656.8953    10580.809   -3359.5242    -12191.97    -528.3923   -1986.1611    4126.9958    79.852105 
   88400    445.16392   -115.18852   0.40279367   -114.78573    4080.1646    4.3038853    4.3038853    4.3038853    4080.1646    4436.1404   -6290.6193    14094.973    5727.6497    3275.8445   -562.93903    79.722714 
   88500     338.6416   -115.09379   0.30641004   -114.78738    -2519.299    4.3106599    4.3106599    4.3106599    -2519.299    11322.242   -10238.767   -8641.3716   -2300.4039   -804.25492   -5527.4546     80.09977 
   88600    627.10686   -115.35047   0.56741947   -114.78305    4.4602924    4.3050987    4.3050987    4.3050987    4.4602924    17887.965   -3126.1432    -14748.44   -847.87138    -227.9771   -2900.3589    79.790158 
   88700     580.4748   -115.30885    0.5252258   -114.78362    3882.9082    4.3059604    4.3059604    4.3059604    3882.9082    19223.519    -3301.423    -4273.371    1718.7926    3851.4421    2197.9285     79.83808 
   88800    353.04711   -115.10679   0.31944444   -114.78734   -3418.7354    4.3087303    4.3087303    4.3087303   -3418.7354   -1875.0554   -11079.471    2698.3199   -1656.0654   -3808.5021   -3496.1037    79.992252 
   88900    474.83794   -115.21567   0.42964334   -114.78602    1766.8451    4.3032871    4.3032871    4.3032871    1766.8451    10959.254   -637.85411   -5020.8647   -373.72377    1385.6589   -6240.6231    79.689474 
   89000     708.8581   -115.42371    0.6413897   -114.78232   -1342.8341    4.3096064    4.3096064    4.3096064   -1342.8341    9633.2162   -989.76755   -12671.951   -1857.7604   -14.127083    1823.9895    80.041059 
   89100    474.96911   -115.21522   0.42976203   -114.78546   -2394.5185    4.3070463    4.3070463    4.3070463   -2394.5185    14984.935   -12979.278   -9189.2131    5970.7019   -660.60934   -4115.1695    79.898497 
   89200    244.91764    -115.0102   0.22160662    -114.7886    3621.6253    4.3039081    4.3039081    4.3039081    3621.6253    14143.135   -9583.7812     6305.522    725.40581    2589.9354   -9357.3556    79.723978 
   89300    675.00575   -115.39491   0.61075939   -114.78415   -2066.2258     4.308073     4.308073     4.308073   -2066.2258    9980.2286   -5643.4116   -10535.494   -222.10808   -1750.3804   -1019.9638    79.955653 
   89400    596.12135   -115.32349   0.53938313   -114.78411    1969.0943    4.3079194    4.3079194    4.3079194    1969.0943    18295.875    276.16597   -12664.758    157.93952    938.36053    2356.9908      79.9471 
   89500    413.98035   -115.16284   0.37457812   -114.78826   -8536.8421    4.3029977    4.3029977    4.3029977   -8536.8421   -3094.7617   -17572.598    -4943.167    2377.5753   -761.21984   -4172.6046    79.673399 
   89600    355.04013   -115.10975   0.32124777    -114.7885    3867.8411    4.3088287    4.3088287    4.3088287    3867.8411    12124.341   -4299.4401    3778.6224     180.2424   -3442.6696   -6263.2474    79.997734 
   89700    791.40875   -115.49793   0.71608327   -114.78185    -3520.476    4.3087356    4.3087356    4.3087356    -3520.476    9754.3349    -3103.121   -17212.642    -3059.112    1150.7173    2067.8376    79.992552 
   89800    386.99215   -115.13553   0.35015863   -114.78538    9648.6605    4.3004187    4.3004187    4.3004187    9648.6605     31349.83    2115.5528   -4519.4011    4037.1031   -57.700409   -356.46687    79.530229 
   89900    369.44061   -115.12201   0.33427763   -114.78773   -14042.442    4.3136856    4.3136856    4.3136856   -14042.442   -85.057764   -25294.483   -16747.786   -2265.5665    423.57792   -6592.6389    80.268556 
   90000    558.39802   -115.28859   0.50525026   -114.78334    8085.2064    4.3033181    4.3033181    4.3033181    8085.2064    13996.233    7318.7955    2940.5907    1146.7297    887.41277    2676.5642    79.691198 
   90100    674.43663   -115.39241   0.61024443   -114.78216    432.07278    4.3046078    4.3046078    4.3046078    432.07278    17269.934   -2107.6008   -13866.115   -278.28716   -2391.7863    2235.1845     79.76287 
   90200    363.37038   -115.11524   0.32878516   -114.78646   -9786.6142    4.3114681    4.3114681    4.3114681   -9786.6142   -829.67772   -9559.2474   -18970.917    323.13372    730.64255    -6616.438    80.144832 
   90300    433.68594   -115.17784   0.39240815   -114.78543    185.62924    4.3039257    4.3039257    4.3039257    185.62924    13139.703   -5741.4892   -6841.3264    148.17899   -3969.9262   -3952.7533    79.724957 
   90400    575.38206   -115.30361   0.52061778   -114.78299    4994.5762    4.3071136    4.3071136    4.3071136    4994.5762    15826.721    1360.6945   -2203.6874   -3257.5173   -4061.6981    6969.6353    79.902244 
   90500     472.3145   -115.21153   0.42736009   -114.78417    1712.8499     4.307127     4.307127     4.307127    1712.8499     24193.52   -3422.7556   -15632.215    5383.5346    2593.2416    3740.3601    79.902988 
   90600    327.99637   -115.08316   0.29677801   -114.78639   -5194.0076    4.3090517    4.3090517    4.3090517   -5194.0076    -1694.999   -5130.4204   -8756.6035   -2935.1325   -2038.4945   -7114.6361    80.010153 
   90700    541.06156   -115.27304   0.48956387   -114.78348    2888.1841     4.302604     4.302604     4.302604    2888.1841    9699.6651   -2432.9214    1397.8084   -115.01466    1580.6568    1897.3548    79.651531 
   90800    517.34529   -115.25115   0.46810489   -114.78304    248.52363    4.3115361    4.3115361    4.3115361    248.52363    7431.5352   -2026.6422    -4659.322    166.01691    511.96121    6640.1432    80.148624 
   90900    490.77081   -115.22771   0.44405974   -114.78365   -6694.9602    4.3062526    4.3062526    4.3062526   -6694.9602    3596.3428   -9326.2682   -14354.955    1286.7343   -752.11103   -4805.3986    79.854336 
   91000    405.26294   -115.15127   0.36669043   -114.78458    374.48807    4.3045046    4.3045046    4.3045046    374.48807    9415.8722   -692.77076   -7599.6372     681.8336    1496.2772   -1734.3625     79.75713 
   91100    495.06372   -115.23128   0.44794406   -114.78333   -4436.2281    4.3128629    4.3128629    4.3128629   -4436.2281    8505.6894   -14026.687   -7787.6867   -4300.4449    -4193.541    10481.042    80.222642 
   91200    450.10673   -115.19036   0.40726603   -114.78309    9418.9378    4.3008194    4.3008194    4.3008194    9418.9378    30777.365   -2380.7425   -139.80908    2617.6696    2496.9616    4371.2651    79.552459 
   91300    432.65771   -115.17575   0.39147778   -114.78427    -4760.486    4.3100023    4.3100023    4.3100023    -4760.486    299.54081    -12852.41   -1728.5892    609.59141   -914.91685   -6075.7835    80.063121 
   91400    367.39572   -115.11646   0.33242737   -114.78404   -524.98151    4.3094827    4.3094827    4.3094827   -524.98151    6364.1631   -6539.7004   -1399.4073    355.10609   -1801.1666     8687.147    80.034164 
   91500    448.28387   -115.18854   0.40561666   -114.78292    4492.3942     4.303744     4.303744     4.303744    4492.3942    14428.285   -11705.321    10754.219   -269.69891    1302.3698    17039.887    79.714859 
   91600    558.59491    -115.2876   0.50542841   -114.78217   -5413.9435     4.308038     4.308038     4.308038   -5413.9435    817.55919   -13451.734   -3607.6553    944.96415   -2462.5819   -3521.7475    79.953704 
   91700    437.55798   -115.18051   0.39591165    -114.7846   -9570.1189    4.3094827    4.3094827    4.3094827   -9570.1189   -6771.2807    -13013.82   -8925.2563   -220.68334    2502.6339   -1094.3398    80.034164 
   91800    377.28474   -115.12676   0.34137516   -114.78539   -3395.2386    4.3059077    4.3059077    4.3059077   -3395.2386     10140.92   -11939.615   -8387.0216   -2807.5363    -2402.174     18508.22    79.835148 
   91900    524.18919   -115.25782   0.47429739   -114.78353     2882.588    4.3052695    4.3052695    4.3052695     2882.588    11014.576   -12970.103    10603.291    2114.9844    1532.7914    7216.4197    79.799655 
   92000    520.35065   -115.25393   0.47082421   -114.78311   -6094.2836    4.3099752    4.3099752    4.3099752   -6094.2836   -3086.4644   -16060.333    863.94656    1025.0364    1393.3104   -4637.5183    80.061607 
   92100    316.86265   -115.07297   0.28670399   -114.78626   -2880.9462    4.3057406    4.3057406    4.3057406   -2880.9462    10406.139   -16826.683   -2222.2938   -956.62596   -2358.2048    11188.859    79.825857 
   92200    344.95889   -115.09864   0.31212606   -114.78651    6231.1023    4.3070531    4.3070531    4.3070531    6231.1023    13611.491   -8816.3942     13898.21   -2248.2412    1282.5451    16831.013    79.898877 
   92300    665.82375   -115.38443   0.60245132   -114.78198    1219.2717    4.3055778    4.3055778    4.3055778    1219.2717    7868.5961   -7062.6994    2851.9184    801.33415   -2271.6011   -2814.1775    79.816801 
   92400    387.03539   -115.13637   0.35019776   -114.78618   -4436.2891    4.3081498    4.3081498    4.3081498   -4436.2891    5259.0929   -19530.527    962.56641    2289.5404    1293.5294    3777.6328    79.959925 
   92500    310.26518   -115.06826   0.28073445   -114.78752   -3323.2944    4.3066477    4.3066477    4.3066477   -3323.2944    7262.9542   -11150.389   -6082.4487   -864.98838   -1979.7362    19379.819    79.876319 
   92600    503.06115   -115.23984    0.4551803   -114.78466    10591.394    4.3041072    4.3041072    4.3041072    10591.394    8987.2008   -1662.8348    24449.816    441.59131    785.99849    1295.0291    79.735043 
   92700    632.66291    -115.3556    0.5724467   -114.78315   -4974.7164    4.3087013    4.3087013    4.3087013   -4974.7164   -3589.3104    -14429.77    3094.9314    1165.3068    1844.3547   -3788.5271    79.990639 
   92800    323.55231   -115.08047   0.29275693   -114.78771   -7899.9555    4.3070681    4.3070681    4.3070681   -7899.9555    1188.4933   -22179.105   -2709.2553      128.092   -356.35529    15816.535    79.899713 
   92900    364.77349     -115.117   0.33005472   -114.78695    4228.1866    4.3057403    4.3057403    4.3057403    4228.1866    5488.0603    -2986.702    10183.202    -607.6299    1987.8623    12684.274     79.82584 
   93000    701.65979   -115.41679   0.63487652   -114.78192     1637.856    4.3055974    4.3055974    4.3055974     1637.856   -1417.8542   -5699.2336    12030.656   -65.828117   -2861.2649   -6830.4857    79.817892 
   93100    417.18503   -115.16274   0.37747778   -114.78526   -2760.8512    4.3069537    4.3069537    4.3069537   -2760.8512    -2171.926   -11928.814    5818.1863    1.6796593    1640.2348    4519.5887    79.893346 
   93200    374.40104   -115.12613   0.33876593   -114.78736   -9351.8618    4.3076855    4.3076855    4.3076855   -9351.8618    1733.4057   -25771.425   -4017.5657   -2691.8679   -2043.9237    20125.119     79.93408 
   93300    440.62086   -115.18368   0.39868301     -114.785    11436.089    4.3047965    4.3047965    4.3047965    11436.089    7385.8894    5546.7651    21375.612   -380.56266    1349.6719   -2044.0765    79.773357 
   93400    677.15694   -115.39486   0.61270583   -114.78215   -5658.8316    4.3063968    4.3063968    4.3063968   -5658.8316   -3422.0654   -13347.818   -206.61189    2576.0314     2979.425   -7665.1584    79.862358 
   93500    318.97551   -115.07504   0.28861574   -114.78642   -6217.1608    4.3077154    4.3077154    4.3077154   -6217.1608     5134.306    -24933.67    1147.8818   -1008.6817   -3523.3751     17476.05    79.935742 
   93600    464.04853   -115.20573   0.41988086   -114.78585   -4270.6849    4.3061979    4.3061979    4.3061979   -4270.6849    11605.317   -17667.561    -6749.811    -1247.233    2814.6046    10118.369    79.851293 
   93700    525.90127   -115.25916   0.47584652   -114.78332    8420.2742    4.3051205    4.3051205    4.3051205    8420.2742    5818.2951    3811.6526    15630.875    211.26283   -2594.9542   -12715.601    79.791375 
   93800    520.51066   -115.25485   0.47096898   -114.78388   -5555.2708     4.306301     4.306301     4.306301   -5555.2708    3600.9761   -20255.341    -11.44733    -16.55447    1395.6579    3629.1308    79.857029 
   93900    377.50038   -115.12785   0.34157028   -114.78628   -6629.2761    4.3086077    4.3086077    4.3086077   -6629.2761    9451.1324   -23628.761   -5710.1996    1787.5776   -891.26586    17456.252    79.985424 
   94000      458.448   -115.19943   0.41481339   -114.78461    7164.5755    4.3057012    4.3057012    4.3057012    7164.5755    12600.519   -2112.1304    11005.337   -1659.6004   -4046.3039   -5876.4003    79.823662 
   94100    601.99306   -115.32746   0.54469597   -114.78276    3077.4153    4.3041597    4.3041597    4.3041597    3077.4153    7066.6873   -3099.7556    5265.3141   -1580.7784    5407.4493   -10352.833    79.737963 
   94200    423.47544   -115.16791   0.38316948   -114.78474   -2283.6497    4.3077593    4.3077593    4.3077593   -2283.6497    8115.7206   -14890.049   -76.620295   -1136.2664   -2760.7653    15210.061    79.938188 
   94300    492.44825   -115.23031   0.44557753   -114.78474   -6530.9049    4.3084716    4.3084716    4.3084716   -6530.9049    7414.0693   -24393.958   -2612.8261   -2006.0585    1577.1472    6502.3732    79.977843 
   94400    448.41709   -115.18993   0.40573721   -114.78419    13003.745    4.3031249    4.3031249    4.3031249    13003.745    14789.369    6781.7097    17440.157    1973.0236    281.55163   -15910.223    79.680465 
   94500    601.29588   -115.32695   0.54406515   -114.78288   -2210.3674    4.3067751    4.3067751    4.3067751   -2210.3674     4331.125   -9206.7606   -1755.4666   -334.75481   -2623.2758     1946.317    79.883409 
   94600    441.69831   -115.18383   0.39965791   -114.78417   -5373.1492    4.3092045    4.3092045    4.3092045   -5373.1492     903.4267   -19874.255    2851.3808    1210.7281    3760.2783     15799.76    80.018668 
   94700    495.02538    -115.2322   0.44790936    -114.7843   -2269.0895    4.3049808    4.3049808    4.3049808   -2269.0895    14420.293   -17221.238    -4006.324    1005.1416   -4652.5305   -9712.2707    79.783603 
   94800    541.52541   -115.27351   0.48998357   -114.78352    4400.4175    4.3058183    4.3058183    4.3058183    4400.4175      8130.83    3611.7442    1458.6784   -586.52582    2368.8069   -14162.414    79.830178 
   94900    574.34973    -115.3036   0.51968371   -114.78392   -2991.9751    4.3071966    4.3071966    4.3071966   -2991.9751    7121.2554   -16048.979   -48.201996    144.56846   -498.30431    13776.978    79.906865 
   95000    486.03361   -115.22455   0.43977343   -114.78478        -5399    4.3061605    4.3061605    4.3061605        -5399     6562.136       -21045   -1714.1364   -4904.3674   -2353.2568    5628.1732    79.849212 
   95100    417.84289   -115.16391   0.37807303   -114.78584    2005.6199    4.3090052    4.3090052    4.3090052    2005.6199    19066.031   -16598.026    3548.8551   -527.81267    4570.0335   -19449.567    80.007565 
   95200    615.73588    -115.3399   0.55713077   -114.78277    4636.1692    4.3042428    4.3042428    4.3042428    4636.1692    12265.898   -1060.1344    2702.7442   -39.847551   -4071.0268   -747.18568    79.742582 
   95300    538.41123   -115.27034   0.48716579   -114.78317     1592.685    4.3056496    4.3056496    4.3056496     1592.685    15051.859   -14507.958    4234.1544    1622.8305    2090.2026    13331.211    79.820796 
   95400    480.44517   -115.22016   0.43471689   -114.78545   -9151.7536    4.3105992    4.3105992    4.3105992   -9151.7536    9909.2622   -26183.051   -11181.471    2397.0575   -2221.7369   -12822.171     80.09639 
   95500    496.79992    -115.2342   0.44951501   -114.78468    5615.5607    4.3049575    4.3049575    4.3049575    5615.5607    22121.151   -9240.7639    3966.2952   -257.78716   -279.09195   -14009.628    79.782308 
   95600    683.60421   -115.40093   0.61853946   -114.78239    4291.9974    4.3043627    4.3043627    4.3043627    4291.9974    4895.5019     3758.546    4221.9443    1816.6081    4045.9806    9859.1531    79.749247 
   95700    517.06276   -115.25246   0.46784925   -114.78461   -3139.1916    4.3091103    4.3091103    4.3091103   -3139.1916    7452.0741   -20057.206    3187.5567   -3064.5599   -5679.7399    269.41565    80.013421 
   95800    424.84293   -115.17077   0.38440681   -114.78637   -5393.1278      4.30831      4.30831      4.30831   -5393.1278    10910.762   -22921.644   -4168.5009   -732.30213    2814.5771   -18245.417    79.968844 
   95900    606.76469    -115.3328   0.54901344   -114.78378    5300.3241    4.3036013    4.3036013    4.3036013    5300.3241     7734.961     1163.317    7002.6944   -507.28617   -1884.2785   -731.78412     79.70693 
   96000    640.32434   -115.36236   0.57937892   -114.78298    1547.6699    4.3079967    4.3079967    4.3079967    1547.6699    9564.5671   -5991.4774    1069.9199   -534.34834    613.10102    8960.0517    79.951401 
   96100    485.21197   -115.22455   0.43902999   -114.78552   -8201.6758    4.3079961    4.3079961    4.3079961   -8201.6758    10320.215   -21761.613    -13163.63   -31.789587    2642.0365   -15138.711    79.951372 
   96200    443.01014   -115.18721   0.40084489   -114.78637    -1852.768    4.3069566    4.3069566    4.3069566    -1852.768    16664.371   -21426.841   -795.83347    598.17821   -4636.7374   -12994.741    79.893506 
   96300    704.61231   -115.42017   0.63754803   -114.78262     3376.931    4.3055966    4.3055966    4.3055966     3376.931    5497.9678    1408.5046    3224.3205    5857.3419     3957.466     8212.322    79.817847 
   96400    543.46999   -115.27605   0.49174307    -114.7843    3694.7314     4.306401     4.306401     4.306401    3694.7314    17709.555   -9897.2723    3271.9111   -2381.8533   -3527.7262   -5717.8442    79.862593 
   96500    439.16802   -115.18388   0.39736846   -114.78651   -7298.2126    4.3094118    4.3094118    4.3094118   -7298.2126    5697.6697   -21139.384   -6452.9233    1402.1407    489.18662   -15976.933    80.030214 
   96600    583.54728   -115.31221   0.52800584    -114.7842     1854.829    4.3065422    4.3065422    4.3065422     1854.829    8732.5524   -11338.992    8170.9267    3282.3316   -423.57845    324.49676    79.870448 
   96700    681.02621   -115.39847   0.61620683   -114.78226    7164.5122    4.3047297    4.3047297    4.3047297    7164.5122    7710.2162    10744.526    3038.7942   -302.05445   -4008.0165    2409.9231    79.769644 
   96800    536.62889   -115.27042    0.4855531   -114.78486   -2956.0972    4.3080651    4.3080651    4.3080651   -2956.0972    11147.697   -17401.734   -2614.2543   -347.98807    3295.3545   -16064.315    79.955208 
   96900    452.17612   -115.19501   0.40913846   -114.78587    -3375.108    4.3093759    4.3093759    4.3093759    -3375.108    11911.604   -16418.579   -5618.3491   -990.76368   -1750.3149   -9499.5212    80.028217 
   97000    701.18954     -115.417   0.63445103   -114.78255    1996.1968    4.3044221    4.3044221    4.3044221    1996.1968    4095.9068   -4274.6127    6167.2964    5878.6361    3550.3116    5407.8949    79.752545 
   97100    543.56233   -115.27581   0.49182662   -114.78399    9760.0771    4.3053074    4.3053074    4.3053074    9760.0771    19070.785    8447.5673    1761.8792   -402.30193    646.72554   -10282.559    79.801763 
   97200    521.35192   -115.25685   0.47173018   -114.78512   -6848.6548    4.3103462    4.3103462    4.3103462   -6848.6548    6314.2587   -14496.033   -12364.191    2024.9707   -3530.6249   -13547.397    80.082288 
   97300    494.01785   -115.23152   0.44699773   -114.78452    1329.2781    4.3060909    4.3060909    4.3060909    1329.2781    2951.4715   -4921.4152    5957.7779    3407.7234    771.57751    3096.1796    79.845339 
   97400     662.6169   -115.38223    0.5995497   -114.78268    2479.5408    4.3046734    4.3046734    4.3046734    2479.5408    1774.5643    5943.3734   -279.31525   -913.43472   -3105.3234   -330.22691    79.766514 
   97500    556.91367   -115.28797   0.50390719   -114.78406   -489.33508    4.3089483    4.3089483    4.3089483   -489.33508    13603.127   -2642.0554   -12429.077    1263.5692     789.7403   -14084.751    80.004394 
   97600    537.11778   -115.27072   0.48599545   -114.78472   -3957.3138    4.3057806    4.3057806    4.3057806   -3957.3138   -1488.8435   -10974.647    591.54888   -443.78985   -945.98129   -6820.0444    79.828079 
   97700    611.04727   -115.33745   0.55288841   -114.78456   -4989.5566    4.3079177    4.3079177    4.3079177   -4989.5566    -2886.917   -13267.651    1185.8981    4075.4997   -1454.0191    4711.5225    79.947005 
   97800    580.07484   -115.30887    0.5248639   -114.78401     4547.333    4.3062185    4.3062185    4.3062185     4547.333    11321.475    12754.227   -10433.703   -730.85487    2677.9909   -9498.3806    79.852441 
   97900    608.89868   -115.33453   0.55094432   -114.78359   -238.67142    4.3059379    4.3059379    4.3059379   -238.67142    10161.707   -5789.8876   -5087.8339    1422.2942    645.83836   -10671.064    79.836832 
   98000    493.35072   -115.23082    0.4463941   -114.78443    -932.7027    4.3098822    4.3098822    4.3098822    -932.7027    318.65752   -3571.6998    454.93422    8966.3316    727.29992    1624.5883    80.056427 
   98100    592.84227   -115.32064   0.53641614   -114.78423     732.8007    4.3048066    4.3048066    4.3048066     732.8007    9783.6971   -4621.8648   -2963.4302   -1859.1911   -278.28914   -6809.9871    79.773919 
   98200    592.30195   -115.31982   0.53592725   -114.78389     6787.067    4.3042922    4.3042922    4.3042922     6787.067     18975.38    9708.1458   -8322.3252   -750.59741   -738.10454   -9818.1756    79.745324 
   98300    648.72789    -115.3707   0.58698262   -114.78371   -5613.3351    4.3113424    4.3113424    4.3113424   -5613.3351    378.83231   -11100.403   -6118.4345    2130.9063   -1503.2887     237.1123    80.137827 
   98400    533.42146   -115.26664   0.48265095   -114.78399   -1234.0107    4.3068663    4.3068663    4.3068663   -1234.0107   -116.23862   -5392.0929    1806.2995    438.13496   -1507.3355    3726.5976     79.88848 
   98500     603.5711   -115.32986   0.54612382   -114.78374    3961.3001    4.3026057    4.3026057    4.3026057    3961.3001    5715.4193    12270.048    -6101.567   -1548.4653    267.64784   -10060.247    79.651626 
   98600    688.70148   -115.40681   0.62315157   -114.78366   -3844.0581    4.3115723    4.3115723    4.3115723   -3844.0581      3211.08    1842.8121   -16586.067   -1687.6992    1364.4949   -8518.1147    80.150645 
   98700    587.39307   -115.31562   0.53148559   -114.78413    2583.0263    4.3049165    4.3049165    4.3049165    2583.0263   -2067.1929    4455.2636    5361.0081    8735.9405   -771.94279    5260.5499    79.780029 
   98800     573.1858   -115.30444   0.51863056   -114.78581   -3115.5325    4.3065778    4.3065778    4.3065778   -3115.5325    5572.3301   -10347.977   -4570.9509    2426.0811    -409.5436    -4366.242    79.872431 
   98900    586.01386   -115.31513   0.53023766   -114.78489    3966.4769    4.3081037    4.3081037    4.3081037    3966.4769    11963.678    10860.163    -10924.41   -1588.3516    4047.9022   -9569.3683     79.95736 
   99000    739.43481   -115.45132   0.66905616   -114.78226   -244.33551    4.3060647    4.3060647    4.3060647   -244.33551    8362.9989   -5324.0212   -3771.9842     3623.934   -222.09656   -1824.9738    79.843884 
   99100    503.18638   -115.24049   0.45529361    -114.7852    316.20227    4.3093086    4.3093086    4.3093086    316.20227    79.474539   -1427.9774    2297.1096    552.19175   -485.91205    909.68051    80.024465 
   99200    582.99871   -115.31214   0.52750949   -114.78463    156.69535    4.3045467    4.3045467    4.3045467    156.69535    10276.018   -5085.3001   -4720.6315   -2891.0851    2662.0785   -6022.5812    79.759474 
   99300    641.92818    -115.3641   0.58083011   -114.78327    2768.1931    4.3076391    4.3076391    4.3076391    2768.1931    2577.1581    11261.403    -5533.982   -251.99397    1249.7924   -4313.7133    79.931492 
   99400    715.41577   -115.43039   0.64732322   -114.78307   -3863.8334    4.3074872    4.3074872    4.3074872   -3863.8334    -6779.281   -4643.8494   -168.36995     5106.678    1828.6192    6037.6071    79.923039 
   99500    482.85549    -115.2228   0.43689779    -114.7859    1803.0285    4.3069038    4.3069038    4.3069038    1803.0285    6982.1428    -3603.491    2030.4336    81.739164   -284.25909   -5819.5131    79.890567 
   99600    614.94823   -115.34119   0.55641808   -114.78477   -1505.7594    4.3064346    4.3064346    4.3064346   -1505.7594     4504.419    2145.5931    -11167.29   -4167.8408    5383.1653   -9586.1859     79.86446 
   99700    682.79878   -115.40041   0.61781069    -114.7826    3091.9517    4.3058536    4.3058536    4.3058536    3091.9517    6432.9767    4797.0656   -1954.1871    6309.7155    1438.0822    2435.9848    79.832143 
   99800    600.95972   -115.32791   0.54376098   -114.78415   -2416.0614    4.3094294    4.3094294    4.3094294   -2416.0614    -3228.079   -718.75271   -3301.3526    2172.4459   -5181.7494   -246.95878    80.031197 
   99900    489.18781   -115.22799   0.44262741   -114.78537    2467.9326    4.3048229    4.3048229    4.3048229    2467.9326    12657.173    284.81964   -5538.1947   -5700.3307    3612.0806   -7632.8721    79.774824 
  100000    616.92937   -115.34219   0.55821066   -114.78398    2895.4711    4.3049952    4.3049952    4.3049952    2895.4711    1872.6345     16530.17   -9716.3909   -1933.7897    1170.8017   -3670.6789    79.784408 
Loop time of 22.7059 on 1 procs for 100000 steps with 8 atoms

Pair  time (%) = 7.43657 (32.7517)
Kspce time (%) = 5.42795 (23.9055)
Neigh time (%) = 0 (0)
Comm  time (%) = 1.10399 (4.86213)
Outpt time (%) = 0.0262547 (0.115629)
Other time (%) = 8.71112 (38.365)

Nlocal:    8 ave 8 max 8 min
Histogram: 1 0 0 0 0 0 0 0 0 0
Nghost:    2189 ave 2189 max 2189 min
Histogram: 1 0 0 0 0 0 0 0 0 0
Neighs:    2344 ave 2344 max 2344 min
Histogram: 1 0 0 0 0 0 0 0 0 0

Total # of neighbors = 2344
Ave neighs/atom = 293
Neighbor list builds = 0
Dangerous builds = 0
unfix 20
unfix 21
print "seeds:4271102"
seeds:4271102
