LAMMPS (10 Feb 2015)
# ---- initialize simulations
clear
units metal
dimension 3
boundary p p p
atom_style charge
atom_modify map array
# ---- create atoms
read_data /Users/eugeneragasa/pyflamestk_git/pypospack/tests/tests_integration/workflow/WorkflowLammpsThermalExpansion/param_9837/MgO_NaCl_unit.npt.T1500/lammps.structure
  triclinic box = (0 0 0) to (4.2565 4.2565 4.2565) with tilt (0 0 0)
  1 by 1 by 1 MPI processor grid
  reading atoms ...
  8 atoms
# ---- define interatomic potential
include potential.mod
mass 1 24.305
mass 2 15.999

group Mg type 1
4 atoms in group Mg
group O type 2
4 atoms in group O

set group Mg charge 1.66768155913
  4 settings made for charge
set group O charge -1.66768155913
  4 settings made for charge

variable R_cut equal 10.0

pair_style buck/coul/long ${R_cut}
pair_style buck/coul/long 10
pair_coeff 1 1 0.0 0.5 0.0 ${R_cut}
pair_coeff 1 1 0.0 0.5 0.0 10
pair_coeff 1 2 1248.0823356 0.293822485762 0.0 ${R_cut}
pair_coeff 1 2 1248.0823356 0.293822485762 0.0 10
pair_coeff 2 2 31778.9957117 0.212502502632 34.6036277069 ${R_cut}
pair_coeff 2 2 31778.9957117 0.212502502632 34.6036277069 10

kspace_style pppm 1.0e-5

neighbor 1.0 bin
neigh_modify every 1 delay 0 check yes
# ---- define settings
compute eng all pe/atom
compute eatoms all reduce sum c_eng
# ---- run minimization
reset_timestep 0
fix 1 all box/relax iso 0.0 vmax 0.001
thermo 10
thermo_style custom step pe lx ly lz xy xz yz press pxx pyy pzz pxy pxz pyz c_eatoms
min_style cg
minimize 1e-25 1e-25 5000 10000
PPPM initialization ...
  G vector (1/distance) = 0.352908
  grid = 8 8 8
  stencil order = 5
  estimated absolute RMS force accuracy = 3.98663e-05
  estimated relative force accuracy = 2.76856e-06
  using double precision FFTs
  3d grid and FFT values/proc = 3375 512
Neighbor list info ...
  1 neighbor list requests
  update every 1 steps, delay 0 steps, check yes
  master list distance cutoff = 11
Memory usage per processor = 4.06549 Mbytes
Step PotEng Lx Ly Lz Xy Xz Yz Press Pxx Pyy Pzz Pxy Pxz Pyz eatoms 
       0   -110.76064       4.2565       4.2565       4.2565            0            0            0    174504.14    174504.14    174504.14    174504.14 9.3704156e-11 -1.8744789e-10 -4.5445427e-11   -110.76064 
      10   -110.96575     4.299065     4.299065     4.299065            0            0            0    110293.78    110293.78    110293.78    110293.78 1.4024136e-10 -8.8674493e-11 1.1163093e-10   -110.96575 
      20   -111.08678      4.34163      4.34163      4.34163            0            0            0    53874.038    53874.038    53874.038    53874.038 -1.7149362e-10 -3.6153785e-12 -2.8025662e-10   -111.08678 
      30   -111.12967     4.384195     4.384195     4.384195            0            0            0    4480.0037    4480.0037    4480.0037    4480.0037 2.9824961e-11 1.1991676e-10 2.4884808e-10   -111.12967 
      35   -111.13002    4.3883439    4.3883439    4.3883439            0            0            0  -0.29149971   -0.2914997  -0.29149971  -0.29149971 -2.2034763e-11 5.2889443e-11 3.1711826e-11   -111.13002 
Loop time of 0.0167599 on 1 procs for 35 steps with 8 atoms

Minimization stats:
  Stopping criterion = linesearch alpha is zero
  Energy initial, next-to-last, final = 
        -110.760644492     -111.130018171     -111.130018171
  Force two-norm initial, final = 25.1985 4.50194e-05
  Force max component initial, final = 25.1985 4.47407e-05
  Final line search alpha, max atom move = 0.5 2.23704e-05
  Iterations, force evaluations = 35 47

Pair  time (%) = 0.00447106 (26.6772)
Kspce time (%) = 0.00273538 (16.321)
Neigh time (%) = 0 (0)
Comm  time (%) = 0.00053072 (3.16661)
Outpt time (%) = 4.24385e-05 (0.253215)
Other time (%) = 0.00898027 (53.582)

Nlocal:    8 ave 8 max 8 min
Histogram: 1 0 0 0 0 0 0 0 0 0
Nghost:    2189 ave 2189 max 2189 min
Histogram: 1 0 0 0 0 0 0 0 0 0
Neighs:    2344 ave 2344 max 2344 min
Histogram: 1 0 0 0 0 0 0 0 0 0

Total # of neighbors = 2344
Ave neighs/atom = 293
Neighbor list builds = 0
Dangerous builds = 0
unfix 1
# ---- define output variables ----
variable natoms equal "count(all)"
variable tot_energy equal "c_eatoms"
variable length_x equal "lx"
variable length_y equal "ly"
variable length_z equal "lz"
variable tilt_xy equal "xy"
variable tilt_xz equal "xz"
variable tilt_yz equal "yz"
variable tot_press equal "press"
variable press_xx equal "pxx"
variable press_yy equal "pyy"
variable press_zz equal "pzz"
variable press_xy equal "pxy"
variable press_xz equal "pxz"
variable press_yz equal "pyz"

# ---- output ----
print "pypospack:output_section:begin"
pypospack:output_section:begin
print "tot_energy = ${tot_energy}"
tot_energy = -111.130018170686
print "num_atoms = ${natoms}"
num_atoms = 8
print "xx = ${length_x}"
xx = 4.38834393192064
print "yy = ${length_y}"
yy = 4.38834393192064
print "zz = ${length_z}"
zz = 4.38834393192064
print "xy = ${tilt_xy}"
xy = 0
print "xz = ${tilt_xz}"
xz = 0
print "yz = ${tilt_yz}"
yz = 0
print "tot_press = ${tot_press}"
tot_press = -0.291499705167032
print "pxx = ${press_xx}"
pxx = -0.291499704907524
print "pyy = ${press_yy}"
pyy = -0.291499705134451
print "pzz = ${press_zz}"
pzz = -0.291499705459123
print "pxy = ${press_xy}"
pxy = -2.20347627600699e-11
print "pxz = ${press_xz}"
pxz = 5.28894429779567e-11
print "pyz = ${press_yz}"
pyz = 3.17118260401048e-11
print "pypospack:output_section:done"
pypospack:output_section:done
print "pypospack:lammps_sim:done"
pypospack:lammps_sim:done
#------------------------------------------------------------------------------
# RUN THERMOSTAT
# running using an NPT Nose-Hoover style thermostat
#------------------------------------------------------------------------------
variable tempdamp equal 0.1
variable pressdamp equal 1.0
# set initial velocities
velocity all create 1500 4133634 mom yes dist gaussian loop all
# fix for Nose-Hoover style thermostat
fix 20 all npt temp 1500 1500 0.1 aniso 0.0 0.0 1.0 drag 1.0 couple xyz
variable boxx equal lx
variable boxy equal ly
variable boxz equal lz
variable boxp equal press
variable boxt equal temp
# calculate averages every 10000 steps
reset_timestep 0
fix 21 all ave/time 10 10 100 v_boxx v_boxy v_boxz v_boxp v_boxt file lattice.out
thermo_style custom step temp pe ke etotal press lx ly lz press pxx pyy pzz pxy pxz pyz vol
thermo_modify flush yes
thermo 100
run 100000
PPPM initialization ...
  G vector (1/distance) = 0.351569
  grid = 8 8 8
  stencil order = 5
  estimated absolute RMS force accuracy = 4.24255e-05
  estimated relative force accuracy = 2.94629e-06
  using double precision FFTs
  3d grid and FFT values/proc = 3375 512
Memory usage per processor = 3.06549 Mbytes
Step Temp PotEng KinEng TotEng Press Lx Ly Lz Press Pxx Pyy Pzz Pxy Pxz Pyz Volume 
       0         1500   -111.12999    1.3572315   -109.77276    17158.048    4.3883439    4.3883439    4.3883439    17158.048    16425.963    21366.286    13681.894   -9537.9594    3777.5959    4825.5335    84.508807 
     100    753.03602   -110.28562   0.68136282   -109.60426     8626.524    4.4205526    4.4205526    4.4205526     8626.524   -12889.778    33933.074    4836.2757    3407.5304   -1228.7616    9471.4273    86.383282 
     200    986.77092   -110.11674   0.89285106   -109.22389   -31458.769    4.4614844    4.4614844    4.4614844   -31458.769   -61951.499   -11712.253   -20712.554    14081.693   -4292.9539    9373.6431    88.805147 
     300    958.05481   -109.76812   0.86686812   -108.90125    23266.983    4.4526758    4.4526758    4.4526758    23266.983   -18891.997    109000.02   -20307.077   -11661.164     -1307.34    676.40865    88.280185 
     400    1157.1775   -109.68923    1.0470385   -108.64219   -7446.1863    4.4406602    4.4406602    4.4406602   -7446.1863   -33701.146    6693.4556    4669.1316    11754.058    4337.4248    11768.454    87.567436 
     500    1964.6147   -110.26647    1.7776247   -108.48885   -6089.4174    4.4488036    4.4488036    4.4488036   -6089.4174   -32951.139    2615.7111    12067.176   -761.55409    13975.072    10695.432    88.050069 
     600    1768.5571   -110.02615    1.6002276   -108.42592   -1184.6707    4.4574095    4.4574095    4.4574095   -1184.6707    1418.4943    21282.016   -26254.523   -2745.4915   -7499.0117    12201.488    88.562041 
     700    1094.8231   -109.38451   0.99061894   -108.39389     2405.537    4.4539978    4.4539978    4.4539978     2405.537    8240.3645    6928.0789   -7951.8322    15759.086   -7040.9527    4144.8989    88.358839 
     800    1951.4539   -110.13635    1.7657165   -108.37063   -9723.5329    4.4613141    4.4613141    4.4613141   -9723.5329   -20171.897    16716.865   -25715.567    5853.0652    2738.6316    3113.4015    88.794978 
     900    1374.8507   -109.61013    1.2439938   -108.36614    -16187.93    4.4661917    4.4661917    4.4661917    -16187.93    16695.913   -28301.312   -36958.392    -1983.086   -6957.0375    24829.596    89.086536 
    1000    1431.7238   -109.65183    1.2954538   -108.35637   -2319.9211    4.4493556    4.4493556    4.4493556   -2319.9211      16383.8   -22022.758   -1320.8053    20607.145   -1905.3895   -12509.018    88.082849 
    1100    2011.7564   -110.18519    1.8202795   -108.36491   -7907.1061    4.4457165    4.4457165    4.4457165   -7907.1061   -3705.4231    2079.9028   -22095.798   -7588.4541   -1156.6827   -2938.7916    87.866897 
    1200    1488.1507   -109.73526      1.34651   -108.38875   -17225.081    4.4629271    4.4629271    4.4629271   -17225.081   -13118.603     9851.704   -48408.345   -6768.0065   -26069.069    4235.3406    88.891326 
    1300    1574.4283   -109.80232    1.4245758   -108.37775   -34953.607    4.4741751    4.4741751    4.4741751   -34953.607   -68197.023    8365.8216   -45029.619    21177.332   -4407.6064    3363.2022    89.565125 
    1400    1770.1182   -109.96834    1.6016402    -108.3667   -33911.135    4.4626099    4.4626099    4.4626099   -33911.135   -1934.5611   -56935.013   -42863.831   -8530.8549    3077.0685    24337.147    88.872371 
    1500     1616.564      -109.84    1.4627011    -108.3773    -322.8222    4.4397871    4.4397871    4.4397871    -322.8222    5381.9954    2995.2819   -9345.7439    6822.8573   -13178.223   -1167.7608    87.515792 
    1600    1596.5839   -109.83778    1.4446227   -108.39316    38006.664    4.4324116    4.4324116    4.4324116    38006.664     31289.66    80486.784    2243.5495   -2962.4989    6108.7421    10700.223    87.080369 
    1700    1570.4825    -109.8368    1.4210056    -108.4158   -23400.147    4.4742025    4.4742025    4.4742025   -23400.147   -11676.549   -29958.184   -28565.709    4055.4809    7328.6509    15813.287    89.566771 
    1800    1380.9193   -109.61797    1.2494848   -108.36848    14927.594    4.4779897    4.4779897    4.4779897    14927.594   -7751.9306    78408.719   -25874.007    1688.2183    -2346.174   -10331.374    89.794401 
    1900    1549.0006   -109.74377    1.4015683    -108.3422    11248.478     4.451506     4.451506     4.451506    11248.478     29534.77    18940.373   -14729.709   -4588.7762   -6267.2165    29530.142    88.210621 
    2000    1212.5129   -109.45091    1.0971072   -108.35381   -463.02617    4.4523945    4.4523945    4.4523945   -463.02617    22349.039    6843.6975   -30581.815   -3477.7521     -25128.1   -8584.0176    88.263451 
    2100    1854.7223   -110.04876    1.6781918   -108.37057   -25970.496    4.4610867    4.4610867    4.4610867   -25970.496     1325.178   -32853.198   -46383.467    9560.8509    -735.0344    15936.005    88.781401 
    2200    1220.0304    -109.4848    1.1039091   -108.38089    1893.7167    4.4713458    4.4713458    4.4713458    1893.7167   -3827.4188    46618.739    -37110.17   -3479.2362    2075.8286    11331.877    89.395316 
    2300      1756.27   -109.94869      1.58911   -108.35958    2173.6541    4.4614062    4.4614062    4.4614062    2173.6541   -19206.697    66315.957   -40588.298   -11325.103      3862.24   -9324.0503    88.800478 
    2400    1204.0258   -109.45793    1.0894279    -108.3685     25940.62    4.4493069    4.4493069    4.4493069     25940.62    29102.329    65157.939   -16438.407    22693.167    8395.5998    26729.607    88.079956 
    2500    1831.4454   -110.04116    1.6571303   -108.38403   -7266.5024    4.4568258    4.4568258    4.4568258   -7266.5024   -26166.405    33462.981   -29096.084    1523.7538    6280.6933   -9700.0902    88.527249 
    2600    1555.5067    -109.8104    1.4074551   -108.40294   -20679.729    4.4668335    4.4668335    4.4668335   -20679.729   -3212.3096   -15122.745   -43704.133    9324.1976    5003.7882    7410.0915    89.124948 
    2700    1212.2491   -109.49284    1.0968684   -108.39598     10700.44    4.4543961    4.4543961    4.4543961     10700.44    11122.119    55137.713   -34158.512    5856.9964   -1520.5814      9708.61    88.382542 
    2800    1894.7583   -110.10097    1.7144171   -108.38656   -16432.817    4.4609162    4.4609162    4.4609162   -16432.817   -33174.708    31293.461   -47417.203   -8904.1218   -1368.6905   -3521.4997    88.771222 
    2900    1705.0673   -109.92236    1.5427807   -108.37958   -19573.991    4.4629971    4.4629971    4.4629971   -19573.991   -33773.089   -5505.6549    -19443.23    24962.756   -13946.918    1882.9862    88.895507 
    3000    1444.8549    -109.6869    1.3073351   -108.37957    7439.1088     4.459225     4.459225     4.459225    7439.1088   -25245.247    78820.087   -31257.514   -4860.4808    12803.165   -6737.2749    88.670299 
    3100    1522.2664   -109.75258    1.3773786    -108.3752   -23882.898    4.4704126    4.4704126    4.4704126   -23882.898   -53637.699   -21305.024    3294.0279   -3497.5205    8808.4703   -3020.5502     89.33936 
    3200    1459.7302   -109.68342    1.3207945   -108.36262    14811.438    4.4572921    4.4572921    4.4572921    14811.438    -15080.16     38203.81    21310.663    17726.119   -9196.4058    7889.0693    88.555042 
    3300      1426.38   -109.66226    1.2906186   -108.37164    -7742.348    4.4506196    4.4506196    4.4506196    -7742.348    -31536.54    22267.442   -13957.946    7828.7957    457.61177   -2941.5922    88.157941 
    3400    995.64096   -109.29786   0.90087687   -108.39698   -17180.537    4.4532607    4.4532607    4.4532607   -17180.537   -43027.673   -18771.988     10258.05    23937.043    1442.8876    362.28355    88.314976 
    3500    1878.5504   -110.09465    1.6997519    -108.3949    11982.938    4.4562017    4.4562017    4.4562017    11982.938    -30915.13    53530.304    13333.639   -6341.5893   -928.90176    10127.311    88.490066 
    3600    1718.7475   -109.94917    1.5551589   -108.39401   -7046.6734    4.4658478    4.4658478    4.4658478   -7046.6734   -57522.369   -7882.4205    44264.769    12101.402   -11431.268    21906.698    89.065957 
    3700    1716.6443   -109.93505    1.5532558   -108.38179     1694.182    4.4443182    4.4443182    4.4443182     1694.182   -40916.688    30136.648    15862.586    11896.624    6758.2784   -15248.118    87.784014 
    3800    1636.6476   -109.86648    1.4808731    -108.3856    28419.867    4.4383289    4.4383289    4.4383289    28419.867   -431.36564    24059.683    61631.282   -8129.2463    13076.115    37087.869    87.429589 
    3900    1260.5068   -109.54126    1.1405331   -108.40072   -7092.3656    4.4652137    4.4652137    4.4652137   -7092.3656   -37900.304   -15953.405    32576.612     9501.966    4963.8398    6918.3138    89.028028 
    4000    1186.4571    -109.4618    1.0735313   -108.38826   -2583.2265    4.4690153    4.4690153    4.4690153   -2583.2265   -43073.645   -6754.9086    42078.874   -3612.3821    -16119.09   -13941.006    89.255609 
    4100    1861.5845   -110.05734    1.6844008   -108.37294   -1624.3505    4.4566921    4.4566921    4.4566921   -1624.3505   -38324.035    13693.431    19757.553    5126.0923    17633.286    13952.556    88.519282 
    4200    1538.0455   -109.77422    1.3916559   -108.38256    5316.0022     4.459206     4.459206     4.459206    5316.0022   -21240.601   -12401.411    49590.019    16195.523   -2654.8946   -2861.7756    88.669164 
    4300     1267.444   -109.53272      1.14681   -108.38591    8733.4433    4.4591824    4.4591824    4.4591824    8733.4433   -19257.875    13550.859    31907.345    1071.5542    3297.6972    1723.8208    88.667755 
    4400     1609.489   -109.83497    1.4562994   -108.37867   -4555.0079    4.4671584    4.4671584    4.4671584   -4555.0079   -54204.598   -10730.267    51269.841    13617.788   -657.86877    8188.2238    89.144398 
    4500    1577.6756   -109.79564    1.4275141   -108.36813    13121.856    4.4587937    4.4587937    4.4587937    13121.856   -23859.987    37719.278    25506.277   -1564.6227   -2800.5109   -1794.5768    88.644571 
    4600     1248.601   -109.50335    1.1297604   -108.37359    35161.584    4.4503307    4.4503307    4.4503307    35161.584    -3167.246    81834.072    26817.926   -19115.546    12195.205    8053.1699    88.140774 
    4700    1895.0555   -110.08548     1.714686    -108.3708   -16848.591    4.4771728    4.4771728    4.4771728   -16848.591   -51110.358     8248.362   -7683.7771    477.05433     75.81761    7930.5141    89.745268 
    4800    1201.0756   -109.45263    1.0867585   -108.36587   -13818.844    4.4714156    4.4714156    4.4714156   -13818.844   -49944.134    27902.625   -19415.023   -14088.953    7074.7816   -1198.1123    89.399505 
    4900    1294.6375   -109.52199    1.1714152   -108.35057     29143.52    4.4479272    4.4479272    4.4479272     29143.52    31188.381    42114.692    14127.488   -19999.705   -1510.7794   -1787.0018     87.99804 
    5000    2058.7915   -110.22254    1.8628378   -108.35971    2480.5436    4.4487153    4.4487153    4.4487153    2480.5436        23579   -947.77467   -15189.594    15913.319    13209.071    11558.409    88.044824 
    5100    898.63361   -109.20807   0.81310258   -108.39496    17795.479    4.4655835    4.4655835    4.4655835    17795.479   -16608.259    93434.563   -23439.867   -2322.2799    14125.441   -14744.007    89.050148 
    5200    1435.3386   -109.67326    1.2987245   -108.37454   -15117.848    4.4817633    4.4817633    4.4817633   -15117.848     8810.609   -31262.405   -22901.748   -6961.1999    -525.8498   -15626.415    90.021604 
    5300    1760.6199   -109.95543    1.5930458   -108.36239   -12486.229    4.4594675    4.4594675    4.4594675   -12486.229   -179.15596   -9905.6543   -27373.876    11688.918    3750.8237     7211.792    88.684765 
    5400    1443.6062   -109.67217    1.3062053   -108.36596    14325.941    4.4371119    4.4371119    4.4371119    14325.941   -764.27684   -5419.6482    49161.749   -15054.129     5870.652    -8416.313    87.357689 
    5500    1804.0706   -110.03519     1.632361   -108.40283    1294.3196    4.4668446    4.4668446    4.4668446    1294.3196   -1011.2512    14295.436   -9401.2255    522.03134   -4037.0665   -21421.959    89.125614 
    5600    1922.0203    -110.1137    1.7390844   -108.37461   -36554.939    4.4806796    4.4806796    4.4806796   -36554.939   -66910.771   -16274.399   -26479.646   -4360.6651    1932.9822   -6457.9823    89.956315 
    5700     1318.035   -109.54718    1.1925858   -108.35459    20056.767    4.4533113    4.4533113    4.4533113    20056.767    -12473.82    24533.209    48110.914   -12230.437   -17674.402   -19494.111    88.317987 
    5800    1746.2887   -109.94086    1.5800787   -108.36078    7651.9934    4.4557543    4.4557543    4.4557543    7651.9934     41520.69    9126.7318   -27691.442     4399.068   -7779.0237    7002.8231    88.463417 
    5900    1500.8747   -109.73075     1.358023   -108.37272   -13272.003    4.4672031    4.4672031    4.4672031   -13272.003   -11123.891   -50432.038    21739.919    -10720.33    4017.4816   -6854.3928    89.147072 
    6000    1324.6752   -109.56422     1.198594   -108.36563    5591.4116    4.4745135    4.4745135    4.4745135    5591.4116    19686.341   -30080.953    27168.847    -5608.531   -15362.172     -10964.5    89.585446 
    6100    1687.5029   -109.87544    1.5268881   -108.34855   -27111.078    4.4839808    4.4839808    4.4839808   -27111.078    13063.562   -52340.017   -42056.779   -11084.566   -150.88848    9099.5596    90.155294 
    6200    1365.0217   -109.57867    1.2351003   -108.34357    1435.6899    4.4598237    4.4598237    4.4598237    1435.6899    267.30742   -36625.264    40665.026   -11335.454    26900.347    15228.842    88.706014 
    6300    1489.5362   -109.69133    1.3477637   -108.34356    27577.926    4.4477203    4.4477203    4.4477203    27577.926    42557.006   -22012.978     62189.75    16231.341   -7929.9874   -2556.1226    87.985766 
    6400    1513.8042   -109.75101    1.3697219   -108.38128   -21394.684    4.4751539    4.4751539    4.4751539   -21394.684     4934.764   -69619.306    500.48846    -25584.33    15114.881    -10368.45    89.623916 
    6500    1557.7539   -109.76768    1.4094884   -108.35819    -18933.35    4.4759747    4.4759747    4.4759747    -18933.35   -44879.307   -47153.419    35232.677    13675.657    23247.653     18417.82    89.673244 
    6600    1708.3819   -109.87987    1.5457798   -108.33409     23994.62    4.4519476    4.4519476    4.4519476     23994.62      23866.9    3309.8972    44807.062   -2058.2134    -9128.876    1928.4891    88.236877 
    6700    1315.6663   -109.56501    1.1904426   -108.37457   -1366.3567     4.469163     4.469163     4.469163   -1366.3567    50721.972   -34587.543   -20233.499   -15828.028    21505.424   -9965.8288    89.264463 
    6800    1582.0432   -109.79317     1.431466    -108.3617   -15082.819    4.4715975    4.4715975    4.4715975   -15082.819   -37303.087   -9843.3609    1897.9922      4439.79    8104.1262    3352.7668    89.410413 
    6900    1666.8341   -109.85638    1.5081865    -108.3482    3966.7388    4.4297093    4.4297093    4.4297093    3966.7388   -10385.324    24947.901   -2662.3602   -16231.044    11802.296    3107.6706    86.921194 
    7000    1438.6224   -109.69069    1.3016957   -108.38899    23976.451    4.4454736    4.4454736    4.4454736    23976.451    22621.516    -9550.217    58858.054   -1310.8415    10983.488    13983.683    87.852499 
    7100    1639.3346   -109.86366    1.4833044   -108.38035   -38368.119    4.4815714    4.4815714    4.4815714   -38368.119   -56992.861   -12158.093   -45953.403   -8338.4031    22831.771    -18721.52    90.010043 
    7200     825.5169   -109.10281   0.74694504   -108.35586    32026.557    4.4661191    4.4661191    4.4661191    32026.557   -16436.107    42560.358    69955.421   -7064.1893    3595.4018   -1199.2161    89.082196 
    7300    2358.5135   -110.47237    2.1340326   -108.33834   -30420.586    4.4624621    4.4624621    4.4624621   -30420.586   -35622.006   -30097.936   -25541.817    26.208013   -15946.567    2605.7166    88.863544 
    7400    835.45973   -109.12034   0.75594152    -108.3644    12912.534    4.4636915    4.4636915    4.4636915    12912.534   -41697.725     65392.94    15042.386   -9246.5038    31230.197    3483.7662    88.937008 
    7500    2086.1789    -110.2462    1.8876185   -108.35858   -3241.3665    4.4596875    4.4596875    4.4596875   -3241.3665   -28234.835    2814.6126    15696.123   -12604.625   -14057.917   -7208.3663    88.697889 
    7600    1543.5386   -109.76195    1.3966262   -108.36532   -22487.086    4.4698658    4.4698658    4.4698658   -22487.086    -34066.72   -13789.467   -19605.072    403.41413     24607.23   -15063.544    89.306577 
    7700    1090.6226   -109.34161   0.98681825   -108.35479   -209.20351    4.4706752    4.4706752    4.4706752   -209.20351   -19917.619    17272.598    2017.4103   -8007.9418   -10421.339    17868.715    89.355102 
    7800    1713.1413   -109.89616    1.5500862   -108.34608   -12886.488    4.4610901    4.4610901    4.4610901   -12886.488   -43496.804    44340.072    -39502.73    -4217.722    12103.498   -4281.9874    88.781602 
    7900    1176.8918   -109.41916    1.0648764   -108.35428    20624.536    4.4627332    4.4627332    4.4627332    20624.536   -35225.844    36589.839    60509.613   -1883.4531    32110.562   -1655.9813    88.879741 
    8000    1961.5938   -110.12628    1.7748913   -108.35139   -9258.4875    4.4677746    4.4677746    4.4677746   -9258.4875   -55393.652    10254.205    17363.984   -8030.0772   -9678.4921      15832.5    89.181293 
    8100    1485.6079   -109.70988    1.3442092   -108.36567   -11312.547    4.4628153    4.4628153    4.4628153   -11312.547   -60620.636    11023.354     15659.64    4321.9143    28432.524    8304.9986    88.884643 
    8200    1185.0705   -109.45166    1.0722767   -108.37938    40018.898    4.4562743    4.4562743    4.4562743    40018.898     -9473.44    54529.266     75000.87   -9824.9432   -9158.3287   -13792.356    88.494389 
    8300     1565.492   -109.81494      1.41649   -108.39845   -32393.404    4.4635246    4.4635246    4.4635246   -32393.404    -36065.27    6706.1567   -67821.097   -348.78188    12743.547   -1769.1641    88.927032 
    8400    1298.8601   -109.57626    1.1752359   -108.40103   -14300.609    4.4638395    4.4638395    4.4638395   -14300.609   -58107.704     17278.01   -2072.1325    10231.335    13248.177   -11347.449    88.945857 
    8500    1771.9822   -109.98724    1.6033268   -108.38391    1000.6649    4.4558905    4.4558905    4.4558905    1000.6649   -40967.866    58684.266   -14714.405   -5911.2685    3870.1996   -5254.7147    88.471528 
    8600    1350.1117   -109.60788    1.2216094   -108.38627   -10752.547    4.4684985    4.4684985    4.4684985   -10752.547   -54159.788    16105.321    5796.8269    4097.8405    27112.736   -3326.9191    89.224652 
    8700    1629.9283   -109.83458    1.4747934   -108.35978   -16116.785    4.4723246    4.4723246    4.4723246   -16116.785    -64328.28    17863.175   -1885.2501    20317.563    -5911.258   -9349.1355    89.454036 
    8800    1184.9885   -109.42762    1.0722025   -108.35542    11078.189    4.4554002    4.4554002    4.4554002    11078.189   -33697.498     10639.51    56292.554     3355.644    28642.443    13627.415    88.442327 
    8900    1480.4181   -109.72059    1.3395134   -108.38107    25236.467    4.4553796    4.4553796    4.4553796    25236.467   -34638.778    27381.794    82966.384    2367.8337   -15463.449    -19227.59    88.441099 
    9000    1384.5339   -109.66062    1.2527554   -108.40786   -15350.505     4.484186     4.484186     4.484186   -15350.505   -48318.764    18241.926   -15974.676   -777.84346    12285.575    2933.6609    90.167669 
    9100     1749.509   -109.96327    1.5829926   -108.38028    4628.6665    4.4731558    4.4731558    4.4731558    4628.6665   -44058.863   -31261.828     89206.69    7105.8123    9568.2985    3566.3654    89.503924 
    9200    1854.0873   -110.03851    1.6776172   -108.36089     13805.55      4.44682      4.44682      4.44682     13805.55   -27916.416     10524.12    58808.945    1236.0428   -24863.238    4346.7498    87.932345 
    9300    1171.8467   -109.44443    1.0603115   -108.38411    28381.498    4.4506816    4.4506816    4.4506816    28381.498   -42816.633    67951.041    60010.085   -3618.0163    13285.186    17308.216    88.161623 
    9400    1632.9518   -109.87864    1.4775291   -108.40111   -11074.716    4.4723352    4.4723352    4.4723352   -11074.716   -60407.838     -19049.5    46233.189    -2000.793   -21762.482   -10475.617    89.454674 
    9500    1239.1296   -109.50868    1.1211905   -108.38749    661.17058    4.4776399    4.4776399    4.4776399    661.17058   -43550.619    64212.143   -18678.013    8903.1408   -16772.751    20343.445    89.773362 
    9600    1720.6112   -109.92307    1.5568451   -108.36622    11560.051    4.4698146    4.4698146    4.4698146    11560.051    -16648.43    19114.299    32214.285   -1922.9885    6372.3116    661.32191    89.303513 
    9700    1490.6514   -109.70648    1.3487727   -108.35771   -11985.469    4.4706268    4.4706268    4.4706268   -11985.469   -23273.493   -11465.695   -1217.2196   -10335.737   -13424.104   -8961.6179    89.352201 
    9800    1486.2855   -109.69307    1.3448223   -108.34824    14598.673    4.4650256    4.4650256    4.4650256    14598.673   -34770.805    31704.349    46862.475    10309.075    15437.701    16641.121    89.016775 
    9900    1692.6732   -109.90023    1.5315663   -108.36867   -3713.5789     4.463355     4.463355     4.463355   -3713.5789   -30867.645    60563.135   -40836.227   -9112.8217   -27391.295   -13725.305    88.916893 
   10000      1508.79   -109.75518    1.3651849      -108.39    27100.894    4.4658612    4.4658612    4.4658612    27100.894    510.77956    18163.762    62628.141   -3101.0933     3112.961    22057.891    89.066763 
   10100    1517.3375   -109.76304    1.3729189   -108.39012    2993.3138    4.4800295    4.4800295    4.4800295    2993.3138   -31585.925    87769.872   -47204.006    854.84423   -17886.832   -4896.3397    89.917168 
   10200     1412.289   -109.64976    1.2778687    -108.3719   -12054.634     4.478282     4.478282     4.478282   -12054.634   -32147.587    11892.209   -15908.523    9522.0513   -13448.775    -500.1603    89.811992 
   10300    1655.3096   -109.85182    1.4977589   -108.35406     2215.453    4.4607192    4.4607192    4.4607192     2215.453    -49630.67    73344.504   -17067.475   -2764.0119   -1283.8204   -10445.012    88.759464 
   10400    1677.3939   -109.90693    1.5177413   -108.38919    -34557.06     4.459774     4.459774     4.459774    -34557.06   -61548.657    19434.562   -61557.084    8773.2067   -41166.129   -7456.0149    88.703049 
   10500    1553.4642   -109.80366    1.4056071   -108.39805    18458.133    4.4573729    4.4573729    4.4573729    18458.133   -12059.724    53652.949    13781.173   -1910.1711    19937.419   -22757.466    88.559859 
   10600    1378.6035   -109.64572    1.2473895   -108.39833   -32332.095    4.4790231    4.4790231    4.4790231   -32332.095   -67178.323   -25246.183   -4571.7792   -14423.615   -32957.983   -1471.2596    89.856584 
   10700    1345.1793   -109.57725    1.2171465    -108.3601   -22738.556    4.4772395    4.4772395    4.4772395   -22738.556   -45706.832    17396.132   -39904.969   -1528.0146   -218.10248    707.64927    89.749284 
   10800    1270.3027   -109.49905    1.1493965   -108.34965    25142.907    4.4495828    4.4495828    4.4495828    25142.907   -13782.107    71318.269    17892.557      12524.9   -6898.3104   -12894.391    88.096343 
   10900    1486.5511   -109.72091    1.3450627   -108.37585    -12331.56    4.4564434    4.4564434    4.4564434    -12331.56   -30230.199    15184.934   -21949.414   -6043.2092   -29389.551    9647.3483    88.504467 
   11000     1412.303   -109.65871    1.2778814   -108.38083   -2604.1983    4.4714989    4.4714989    4.4714989   -2604.1983   -3966.7606    -12124.51    8278.6755    1222.4258   -8691.1056    6999.9799      89.4045 
   11100    1463.7051   -109.70064    1.3243911   -108.37625    -21492.69    4.4821157    4.4821157    4.4821157    -21492.69    2760.2269    8985.0255   -76223.321    14788.128   -27465.408    -86.72107    90.042838 
   11200    1814.1105   -110.02364    1.6414453   -108.38219   -12893.549    4.4628895    4.4628895    4.4628895   -12893.549     21136.38   -24844.637   -34972.389    -7586.118   -13209.577    11396.518    88.889077 
   11300    1033.6018   -109.31305   0.93522466   -108.37783    68554.823    4.4386646    4.4386646    4.4386646    68554.823    74985.447    98411.974    32267.047   -1476.6218    1224.6199   -17272.345    87.449429 
   11400    1606.3867   -109.85965    1.4534924   -108.40616   -27941.689    4.4766892    4.4766892    4.4766892   -27941.689   -4300.0184   -40295.163   -39229.885    -1057.597    -27156.59    3661.8494    89.716194 
   11500    1734.8843   -109.92383    1.5697598   -108.35407   -33400.373     4.494495     4.494495     4.494495   -33400.373   -18537.534   -42421.481   -39242.103   -12252.391    4571.2636    -4248.597    90.790983 
   11600    1406.2476   -109.58421    1.2724024    -108.3118    20168.724    4.4726733    4.4726733    4.4726733    20168.724    4410.2535    66618.501   -10522.583   -2378.8376   -332.15249    -5957.067    89.474963 
   11700    1904.3147   -110.04679    1.7230639   -108.32373   -17014.518    4.4760459    4.4760459    4.4760459   -17014.518   -13010.251   -26489.475   -11543.828   -4997.6244    13763.146   -7279.8173    89.677522 
   11800    1655.7751   -109.82362    1.4981801   -108.32544   -29678.913    4.4833587    4.4833587    4.4833587   -29678.913   -16788.235   -14533.034   -57715.471    4002.4748    11891.218   -15451.691    90.117774 
   11900    1339.1565   -109.53861    1.2116969   -108.32691    6336.5739    4.4745113    4.4745113    4.4745113    6336.5739    21004.805    9064.9426   -11060.026    9345.9041   -18790.996    4056.4436    89.585316 
   12000    1621.7853   -109.80918    1.4674254   -108.34176   -10745.442    4.4832776    4.4832776    4.4832776   -10745.442    13287.399   -14009.585   -31514.139     7823.868    -5131.572   -5666.5354    90.112883 
   12100    1447.3712   -109.65235    1.3096119   -108.34274    6118.6428    4.4627165    4.4627165    4.4627165    6118.6428    14430.317    11682.841   -7757.2291    11447.777   -15106.376   -7814.4445    88.878739 
   12200    1501.6225   -109.70704    1.3586996   -108.34834     20109.07    4.4390715    4.4390715    4.4390715     20109.07    30209.869   -1897.8375    32015.178    2124.2402   -20898.056    17631.525    87.473482 
   12300    1771.9884   -109.99255    1.6033324   -108.38921    19966.083    4.4594448    4.4594448    4.4594448    19966.083   -8801.6815     57606.11    11093.821    5614.1962    10406.167    2986.7381    88.683409 
   12400     1443.833   -109.69488    1.3064104   -108.38847    384.55561    4.4661865    4.4661865    4.4661865    384.55561   -8172.6332   -13392.024    22718.324    1863.6141   -18880.212    22584.107    89.086228 
   12500    1306.9018   -109.56044    1.1825122   -108.37793    4343.9453    4.4676304    4.4676304    4.4676304    4343.9453    22052.548    26114.824   -35135.536   -5460.8145   -536.05819   -6557.0443    89.172659 
   12600    1531.2225   -109.75018    1.3854823    -108.3647   -32205.284    4.4675212    4.4675212    4.4675212   -32205.284    -19498.16   -5696.9847   -71420.707    -7981.943   -5672.2141    7714.4003    89.166121 
   12700    1505.8479   -109.73003    1.3625228    -108.3675     8608.892    4.4409888    4.4409888    4.4409888     8608.892   -6633.6601    37811.806   -5351.4696    2641.0446   -19465.888    17052.114    87.586877 
   12800    1798.1474   -110.02135    1.6270015   -108.39434      18444.7    4.4575245    4.4575245    4.4575245      18444.7    61364.067    11299.283   -17329.248   -6118.8007    18013.374    -7176.556    88.568892 
   12900     916.8459   -109.21941   0.82958144   -108.38983   -29166.102    4.4916569    4.4916569    4.4916569   -29166.102   -7579.7147   -12509.945   -67408.647   -22820.034   -8886.7086    22393.038    90.619097 
   13000    1660.3957   -109.84962    1.5023609   -108.34726   -9194.2812    4.4700831    4.4700831    4.4700831   -9194.2812    32728.682   -17649.756   -42661.769    3300.0201   -3648.1837   -1045.2471    89.319605 
   13100    1302.6281     -109.527    1.1786453   -108.34836    25049.213    4.4597641    4.4597641    4.4597641    25049.213    71664.358   -15209.536    18692.815   -10535.706    26209.141   -7646.1224    88.702459 
   13200    1835.1613   -110.02677    1.6604925   -108.36628   -19521.923    4.4843583    4.4843583    4.4843583   -19521.923   -8880.3901   -57719.416    8034.0371    517.15951    1414.6005   -1225.9696    90.178064 
   13300    1808.9001   -109.97799    1.6367308   -108.34126   -22242.614    4.4972717    4.4972717    4.4972717   -22242.614   -64523.777   -44031.595    41827.529    3239.1847   -6393.8028   -9366.8233    90.959354 
   13400    1379.8273   -109.57201    1.2484967   -108.32352   -25255.379    4.4853568    4.4853568    4.4853568   -25255.379   -43827.702   -53701.256    21762.821    -3135.154   -12156.349     10303.26    90.238314 
   13500    1406.0887   -109.59377    1.2722586   -108.32151   -5356.2748    4.4711392    4.4711392    4.4711392   -5356.2748   -4325.0139   -26812.553    15068.742   -5774.8822   -20470.345   -2538.9262    89.382929 
   13600    2188.4157   -110.31781    1.9801245   -108.33768    -25124.02    4.4616458    4.4616458    4.4616458    -25124.02   -18020.886   -40635.497   -16715.677   -2622.8279    -615.2126    18494.323    88.814783 
   13700    1464.9157   -109.69083    1.3254865   -108.36534    23406.228    4.4579352    4.4579352    4.4579352    23406.228    15278.279    28727.472    26212.933   -3958.0934    6608.6728    12182.252    88.593375 
   13800    1573.7494   -109.79776    1.4239615    -108.3738   -8504.9505    4.4713331    4.4713331    4.4713331   -8504.9505   -39350.215   -7809.8472     21645.21    8821.3037    1335.6911   -7418.9899    89.394555 
   13900    1811.3083   -109.99437    1.6389098   -108.35546   -25911.203    4.4759049    4.4759049    4.4759049   -25911.203   -4969.3351    -46863.28   -25900.995    17588.679    -9618.901    17799.924    89.669048 
   14000    1686.2109   -109.87408    1.5257191   -108.34836    12392.203     4.465193     4.465193     4.465193    12392.203   -5305.5501     1367.411    41114.747   -9940.8477   -1082.8392   -6953.9545    89.026789 
   14100    951.38188    -109.2261   0.86083032   -108.36527    21213.679    4.4649217    4.4649217    4.4649217    21213.679   -33541.667    25180.216    72002.488    -4528.866    3425.9435    18168.156    89.010561 
   14200    1651.8316    -109.8609     1.494612   -108.36629   -28298.081    4.4783479    4.4783479    4.4783479   -28298.081    19561.827   -55271.587   -49184.484    5804.1585   -10947.796   -3294.6528    89.815954 
   14300    1993.3149   -110.15632    1.8035932   -108.35273   -14612.818    4.4782063    4.4782063    4.4782063   -14612.818   -21377.618     1817.665   -24278.502    5241.8394    2886.7982   -7037.6763    89.807432 
   14400    967.23149   -109.23612   0.87517138   -108.36095    2280.3974    4.4783303    4.4783303    4.4783303    2280.3974    22967.541    17712.419   -33838.767   -3373.2244   -5525.6213    34737.515    89.814893 
   14500    1670.6825   -109.84568    1.5116686   -108.33401    14108.027     4.465254     4.465254     4.465254    14108.027    58513.175   -5840.5061   -10348.588     -21161.7     19590.09    693.74494    89.030434 
   14600    1500.1736   -109.72063    1.3573886   -108.36324   -7006.7086    4.4651778    4.4651778    4.4651778   -7006.7086    43062.906   -41763.851    -22319.18   -2979.6762   -6854.1118    20946.067    89.025882 
   14700    1275.4575   -109.53011    1.1540608   -108.37605    3845.6927    4.4760269    4.4760269    4.4760269    3845.6927    47973.468     -25345.5   -11090.889    6715.8482   -590.47856    7235.8754    89.676379 
   14800     1837.753   -110.03371    1.6628375   -108.37088   -17317.403    4.4750813    4.4750813    4.4750813   -17317.403   -22457.251   -49053.182    19558.223   -22030.944   -6866.4774    258.91134    89.619555 
   14900    1125.1635   -109.39754    1.0180716   -108.37947    5161.2663    4.4712664    4.4712664    4.4712664    5161.2663    25934.595   -18546.601    8095.8051   -3155.3447    -2017.178    5003.4876    89.390558 
   15000    1672.5316   -109.88465    1.5133417   -108.37131    11685.297    4.4694842    4.4694842    4.4694842    11685.297    11596.617   -16595.288    40054.563    15907.774   -7653.3951   -8073.0134    89.283711 
   15100    1564.7726   -109.78703    1.4158391   -108.37119   -29850.243    4.4752874    4.4752874    4.4752874   -29850.243   -2328.9858   -76753.212    -10468.53   -17006.894    8024.0556    9159.2694    89.631937 
   15200      1339.19    -109.5734    1.2117273   -108.36167   -8534.3312    4.4649013    4.4649013    4.4649013   -8534.3312   -24751.946   -17138.518     16287.47    22086.125   -27674.363    4844.7427    89.009344 
   15300    1345.6201    -109.5833    1.2175454   -108.36576    8489.7501    4.4526312    4.4526312    4.4526312    8489.7501   -10042.989   -6756.8395    42269.079   -2717.5547   -8909.7797    3171.2509    88.277531 
   15400     1318.857   -109.57756    1.1933296   -108.38423    2425.8786    4.4793124    4.4793124    4.4793124    2425.8786    9826.9556   -15367.189    12817.869    11689.362   -12299.508    21184.911       89.874 
   15500    1371.8838   -109.59793    1.2413093   -108.35662   -12933.531    4.4976928    4.4976928    4.4976928   -12933.531    10411.047   -63318.919    14107.279    -1786.923   -26175.166    293.13802    90.984909 
   15600    1915.9008   -110.06309    1.7335473   -108.32955   -37281.305    4.4765347    4.4765347    4.4765347   -37281.305   -47823.268   -47641.045   -16379.601   -9783.6001    14936.905   -980.73443    89.706904 
   15700    1101.3987   -109.31827   0.99656865    -108.3217    40527.073    4.4479961    4.4479961    4.4479961    40527.073    24527.996    48526.372    48526.852    15072.383   -22315.084    819.29095    88.002133 
   15800    2113.5913   -110.26755    1.9124219   -108.35513   -20629.631    4.4485322    4.4485322    4.4485322   -20629.631   -18112.749   -38555.583   -5220.5599   -18757.497    3551.1123   -9776.3294    88.033954 
   15900     809.5263   -109.13395   0.73247641   -108.40147    6037.6993    4.4678421    4.4678421    4.4678421    6037.6993   -19787.682    14491.028    23409.751    2692.9978   -5577.4122    14068.794    89.185337 
   16000    1815.1651   -110.02602    1.6423996   -108.38362   -27963.088    4.4722091    4.4722091    4.4722091   -27963.088   -37607.607   -18490.576    -27791.08    4602.2384   -37586.807    767.94494     89.44711 
   16100    2051.6372   -110.21681    1.8563645   -108.36044   -37849.768    4.4789608    4.4789608    4.4789608   -37849.768   -42471.183   -55027.345   -16050.776   -2043.7586    13117.228   -9553.8999    89.852832 
   16200     660.5205   -108.95349   0.59765282   -108.35584   -991.76713    4.4663129    4.4663129    4.4663129   -991.76713   -43140.178    16019.556    24145.321    11107.471   -36344.939    6095.2928    89.093791 
   16300    2047.8506   -110.19992    1.8529382   -108.34698    10834.928    4.4423681    4.4423681    4.4423681    10834.928    23611.475   -23013.089      31906.4   -3699.9029   -9107.9434   -10638.905     87.66851 
   16400    1497.7103   -109.74944    1.3551598   -108.39428    2047.3371     4.451528     4.451528     4.451528    2047.3371    29123.197   -2679.9274   -20301.258    2313.4404   -6338.0477   -4981.5736    88.211929 
   16500     980.4196   -109.30109   0.88710426   -108.41399     21410.07    4.4635562    4.4635562    4.4635562     21410.07    15635.181    17871.184    30723.846    15026.761   -16897.519    1173.2264    88.928919 
   16600     1730.341   -109.94888    1.5656489   -108.38323   -2851.1764    4.4824441    4.4824441    4.4824441   -2851.1764    64728.627   -39043.834   -34238.323   -10684.828   -7479.7572   -8627.2965    90.062634 
   16700     1472.051   -109.70126    1.3319427   -108.36932   -48071.709     4.462164     4.462164     4.462164   -48071.709   -51869.052   -9877.9693   -82468.107   -4443.5679   -67975.227   -520.92484    88.845736 
   16800    1033.3575   -109.28008   0.93500361   -108.34508    42672.066    4.4212871    4.4212871    4.4212871    42672.066    34173.214    19214.634    74628.351    18335.588    9501.2635    9197.8451    86.426345 
   16900    1783.6213     -110.012     1.613858   -108.39814    8491.4351    4.4415258    4.4415258    4.4415258    8491.4351   -3690.2126     19988.87     9175.648    2746.8653    -7104.646   -3384.1342    87.618654 
   17000    1311.4867    -109.5795    1.1866607   -108.39284   -15154.788    4.4843098    4.4843098    4.4843098   -15154.788    22661.859    -23910.72   -44215.504    -12192.65   -44545.071    6710.9741    90.175143 
   17100    2093.6277   -110.25072    1.8943584   -108.35636   -44264.864    4.4785816    4.4785816    4.4785816   -44264.864    -36662.35   -55395.719   -40736.522    16919.499    19899.145    10258.853    89.830017 
   17200    996.60293   -109.24465   0.90174727    -108.3429     51916.34    4.4249821    4.4249821    4.4249821     51916.34    63315.328     57747.04    34686.652    18993.654   -16408.044   -13830.703    86.643212 
   17300    2147.7929   -110.30625    1.9433682   -108.36288    8833.2632    4.4216501    4.4216501    4.4216501    8833.2632    19672.033     22275.55   -15447.794    -8502.559    3216.0443    26094.932    86.447634 
   17400    977.55661   -109.28146   0.88451376   -108.39695   -32599.529    4.4815461    4.4815461    4.4815461   -32599.529   -50855.498     7561.169   -54504.259    19249.857    15061.745   -5854.1927    90.008516 
   17500    1444.6822   -109.64972    1.3071788   -108.34254   -42763.667    4.4901665    4.4901665    4.4901665   -42763.667   -41926.949   -31383.614   -54980.436   -2739.1829   -21965.285   -262.20607    90.528917 
   17600    1312.4662   -109.50719     1.187547   -108.31964    3126.7425      4.45362      4.45362      4.45362    3126.7425    25878.797    21874.143   -38372.713    6366.5301    15103.485    30329.757    88.336355 
   17700    1546.8438   -109.73247    1.3996167   -108.33286    26327.103    4.4379017    4.4379017    4.4379017    26327.103    13995.983    60759.176    4226.1486    4785.2673    1325.6643   -15812.793    87.404348 
   17800    1482.4488   -109.72211    1.3413508   -108.38076    10180.622    4.4601234    4.4601234    4.4601234    10180.622    31572.403    24969.485   -26000.021   -10188.039   -9212.6104     19043.68    88.723899 
   17900    1419.2623   -109.66356    1.2841784   -108.37938   -15495.581    4.4893179    4.4893179    4.4893179   -15495.581    8536.0104   -841.56003   -54181.194    10762.864    54.509162    2928.6673    90.477604 
   18000    1535.1757   -109.74074    1.3890592   -108.35168   -32441.813    4.4771101    4.4771101    4.4771101   -32441.813   -8280.0087   -43293.479    -45751.95   -14422.692    5501.8918   -16726.133    89.741498 
   18100    1659.7927   -109.82982    1.5018154   -108.32801   -2375.6917    4.4399834    4.4399834    4.4399834   -2375.6917    65721.119    -45705.02   -27143.174    3785.8324   -16476.757    21740.997    87.527405 
   18200    1690.8943   -109.90494    1.5299567   -108.37498   -20776.834    4.4579821    4.4579821    4.4579821   -20776.834     22057.74   -43282.593    -41105.65    1783.5657    3391.8543   -20915.103    88.596174 
   18300    1345.6493   -109.58541    1.2175717   -108.36784   -20927.986    4.4850901    4.4850901    4.4850901   -20927.986    3585.7858   -38262.575   -28107.167   -1990.5611     4117.237    22069.013    90.222219 
   18400    1470.6894   -109.66514    1.3307107   -108.33443      9212.76    4.4778532    4.4778532    4.4778532      9212.76    28534.887   -8651.4285     7754.822    2310.2707   -5098.2836    58.681621    89.786195 
   18500    1417.9695   -109.61648    1.2830086   -108.33347   -5702.1666    4.4532452    4.4532452    4.4532452   -5702.1666   -3988.2343    12127.503   -25245.769   -28450.662     8828.492    4436.0515    88.314053 
   18600    1335.1663   -109.57097    1.2080866   -108.36288    32181.256    4.4509458    4.4509458    4.4509458    32181.256    51383.524    36930.315    8229.9297   -9766.4883    2645.6012    27281.612    88.177326 
   18700    1443.6593   -109.67447    1.3062533   -108.36821    2149.1492    4.4786491    4.4786491    4.4786491    2149.1492   -14305.767    35240.783   -14487.568   -18657.891   -20172.763   -12946.611    89.834078 
   18800    1257.6971     -109.495    1.1379908   -108.35701   -26215.058    4.4682883    4.4682883    4.4682883   -26215.058   -21492.238   -26525.335     -30627.6   -47333.835    2591.0213    8895.0353    89.212056 
   18900    1330.2834   -109.54497    1.2036684    -108.3413    29247.152    4.4455182    4.4455182    4.4455182    29247.152    30680.968    57008.803    51.685065   -10558.861   -5033.2109    5551.2334    87.855143 
   19000    1713.9393   -109.91222    1.5508083   -108.36141   -461.48938    4.4610856    4.4610856    4.4610856   -461.48938    16540.609    5695.5967   -23620.674    -8836.141    -7433.148   -513.73413    88.781335 
   19100    1340.0724   -109.57205    1.2125257   -108.35953   -40819.352    4.4743383    4.4743383    4.4743383   -40819.352   -42047.386   -69067.719   -11342.951    -22807.48   -899.42906    16013.622    89.574928 
   19200    1630.4817   -109.81674    1.4752941   -108.34145     5453.931    4.4650975    4.4650975    4.4650975     5453.931   -3014.9369    3178.7933    16197.937    10307.344   -13795.289   -12684.607    89.021079 
   19300    1588.0057   -109.78231    1.4368609   -108.34544   -32085.495    4.4660411    4.4660411    4.4660411   -32085.495   -30838.837   -65811.786    394.13688   -15124.195    11958.713     8583.105    89.077523 
   19400    1356.8258   -109.57463    1.2276845   -108.34695    1554.4369    4.4590303    4.4590303    4.4590303    1554.4369   -20727.592   -4375.4361    29766.339   -9738.1809   -8104.4717    6563.9588    88.658684 
   19500    1781.3413   -109.96923     1.611795   -108.35743   -14618.038    4.4725236    4.4725236    4.4725236   -14618.038   -25609.345   -14323.142   -3921.6283   -1412.3078   -4630.7207   -2504.6591     89.46598 
   19600    910.73609   -109.17614   0.82405316   -108.35209   -32193.664    4.4876412    4.4876412    4.4876412   -32193.664   -12420.954   -47855.742   -36304.295    -15531.95    38727.708    21128.166    90.376266 
   19700    1795.1535   -109.95285    1.6242927   -108.32855    8174.3161    4.4525332    4.4525332    4.4525332    8174.3161    18634.225    23767.526   -17878.803    -4014.746    14568.032   -3215.3604    88.271702 
   19800    1910.8259   -110.07326    1.7289555    -108.3443   -8044.8875    4.4469831    4.4469831    4.4469831   -8044.8875    1621.1312   -19696.017    -6059.777   -8086.9288   -5903.7455    5271.6437    87.942022 
   19900      887.971   -109.17888   0.80345482   -108.37543    469.61542    4.4782315    4.4782315    4.4782315    469.61542    7883.4484    6424.7161   -12899.318      3649.87    4416.3158    12165.145    89.808948 
   20000    1756.4742   -109.91516    1.5892948   -108.32587   -1936.1259    4.4835221    4.4835221    4.4835221   -1936.1259    19944.934    -17711.71   -8041.6025    1399.2239   -13603.425   -11805.215    90.127627 
   20100    1234.8151   -109.44128    1.1172867     -108.324   -5233.9859    4.4580619    4.4580619    4.4580619   -5233.9859    7355.2202   -28948.723    5891.5449   -6033.1382     13594.75    14246.082    88.600931 
   20200    2379.1028   -110.48305    2.1526622   -108.33039      2037.51    4.4482434    4.4482434    4.4482434      2037.51   -1623.3939    10182.724   -2446.7998    8435.4418    16668.491   -1860.3707     88.01681 
   20300    1454.7915   -109.68287    1.3163259   -108.36654   -5376.3255    4.4634027    4.4634027    4.4634027   -5376.3255    5219.7643   -27921.356    6572.6151   -11412.274   -3186.7291   -2229.1099    88.919749 
   20400    1489.5683   -109.71907    1.3477927   -108.37128   -28576.049    4.4750336    4.4750336    4.4750336   -28576.049   -55839.912   -23113.522   -6774.7116    8984.5133    13741.948    15102.332    89.616693 
   20500    1555.2326   -109.76384    1.4072072   -108.35664    1441.2933     4.471463     4.471463     4.471463    1441.2933   -26099.719    49737.307   -19313.708   -12039.791     1877.653   -2538.9404    89.402347 
   20600    1629.9883   -109.82934    1.4748477    -108.3545    7071.2114    4.4409224    4.4409224    4.4409224    7071.2114    22695.073    13041.856   -14523.294   -13386.345    21987.719    2820.8199    87.582948 
   20700    1773.1571   -109.97533    1.6043898   -108.37094    26111.031    4.4348568    4.4348568    4.4348568    26111.031    16124.571    58253.669    3954.8533    13151.043   -2257.2796    23126.042    87.224561 
   20800    1162.0698   -109.44484    1.0514652   -108.39337   -20636.982    4.4772708    4.4772708    4.4772708   -20636.982   -66518.444    29910.385   -25302.886   -16720.195   -1590.9101   -12866.224    89.751164 
   20900    1274.9554   -109.51583    1.1536064   -108.36222   -26637.621    4.4685827    4.4685827    4.4685827   -26637.621   -18329.814   -14542.946   -47040.103   -3517.7441    30712.278    15390.916    89.229691 
   21000    1974.9996    -110.1232    1.7870211   -108.33618    26468.793    4.4292463    4.4292463    4.4292463    26468.793    50903.652   -4523.3676    33026.094    5878.9583   -14041.424    14473.406    86.893943 
   21100    1485.2447   -109.72643    1.3438806   -108.38255    6474.0568    4.4351629    4.4351629    4.4351629    6474.0568    4047.3574    30955.068   -15580.256   -5728.2587    -11176.61   -7518.2204    87.242623 
   21200    1277.2129   -109.56167    1.1556491   -108.40602    1496.6141    4.4666849    4.4666849    4.4666849    1496.6141    13620.099   -25057.065    15926.809    466.83907    23074.268    14915.145    89.116053 
   21300    1802.0016   -110.00575    1.6304889   -108.37526    -37906.24    4.4802983    4.4802983    4.4802983    -37906.24   -46080.555   -61959.709   -5678.4547   -5280.7122   -27275.903    270.37098    89.933355 
   21400    1032.5493   -109.30835   0.93427231   -108.37407    2122.8688    4.4424179    4.4424179    4.4424179    2122.8688   -5177.6815    19913.873   -8367.5847   -8205.6745    23968.701    -8619.444     87.67146 
   21500    2028.0323   -110.19138    1.8350063   -108.35637    29410.245     4.419323     4.419323     4.419323    29410.245    30763.291    33243.915     24223.53   -6335.3158    21364.566   -525.16898    86.311215 
   21600     1559.196   -109.81658    1.4107934   -108.40579   -798.71785     4.458599     4.458599     4.458599   -798.71785    2878.3693   -5056.1387   -218.38418   -4851.0037    -23344.86    9478.1806    88.632959 
   21700    1084.3586   -109.35755   0.98115046    -108.3764   -14993.017    4.4819137    4.4819137    4.4819137   -14993.017    22551.024   -12841.731   -54688.344    4072.2341     28416.55   -6236.4049    90.030665 
   21800    2037.5004   -110.18472    1.8435732   -108.34115   -31515.661    4.4614668    4.4614668    4.4614668   -31515.661    -29959.14   -29859.491   -34728.352   -7104.6909    -15224.24    7891.3425    88.804093 
   21900    1291.4713   -109.50809    1.1685504   -108.33954    2061.4806    4.4375199    4.4375199    4.4375199    2061.4806    82.295156    17517.692   -11415.545    7572.6596   -2126.5058    51.040228    87.381789 
   22000    1641.1014   -109.85095     1.484903   -108.36605    10913.442    4.4493112    4.4493112    4.4493112    10913.442   -15138.376    48515.357   -636.65631    6733.1716    20391.481     5470.015    88.080211 
   22100    1575.2129   -109.80377    1.4252857   -108.37849   -24099.578    4.4737811    4.4737811    4.4737811   -24099.578   -52857.229    14970.285   -34411.789    -9296.382   -15711.676    3625.4216    89.541463 
   22200    1463.2014   -109.68386    1.3239354   -108.35993   -12023.558    4.4833985    4.4833985    4.4833985   -12023.558   -33010.207    16924.187   -19984.654    3443.1937    9863.1056     8963.234    90.120176 
   22300    1227.8896   -109.46133    1.1110204   -108.35031   -2403.5445    4.4551926    4.4551926    4.4551926   -2403.5445   -44172.432    30445.537    6516.2618    -10064.82   -9046.4685    16823.579    88.429966 
   22400    1529.5459   -109.72943    1.3839653   -108.34547    27413.464    4.4172169    4.4172169    4.4172169    27413.464   -4367.3417    49157.141    37450.592   -2410.8999    3253.6037   -11211.543    86.187877 
   22500    1811.3078   -110.03751    1.6389094    -108.3986    11670.236     4.447581     4.447581     4.447581    11670.236   -42478.672    68577.518    8911.8634   -1022.2335    13786.664    -97.01666    87.977498 
   22600    1558.7488   -109.80245    1.4103887   -108.39206    22635.194    4.4606423    4.4606423    4.4606423    22635.194   -33261.684    34345.274    66821.993   -1546.3168   -9670.5721    25104.088    88.754873 
   22700    1178.9278    -109.4594    1.0667186   -108.39268    16335.138    4.4625141    4.4625141    4.4625141    16335.138   -42779.121    79280.054    12504.481    9779.7623    10478.175   -9242.0766     88.86665 
   22800    1929.8154   -110.11908    1.7461375   -108.37295   -8580.5878     4.455957     4.455957     4.455957   -8580.5878   -47173.612    19930.469    1501.3791    13299.254    -5914.032   -11093.803    88.475491 
   22900    1667.0763   -109.86769    1.5084057   -108.35929    50134.775    4.4159562    4.4159562    4.4159562    50134.775   -5091.7196    95851.744      59644.3   -5187.3667   -741.74146    1353.5617    86.114098 
   23000    1138.8251   -109.46568    1.0304329   -108.43525    -20054.92    4.4470794    4.4470794    4.4470794    -20054.92   -61085.959   -777.89609    1699.0942    22276.112    16323.251    -4299.888    87.947732 
   23100     1833.954   -110.04376    1.6594001   -108.38436    -34279.54    4.4731304    4.4731304    4.4731304    -34279.54   -71442.551   -33342.139    1946.0703    21880.355   -4868.7384   -2896.5448      89.5024 
   23200    1471.6219   -109.70451    1.3315544   -108.37296    38958.524    4.4439796    4.4439796    4.4439796    38958.524    3158.9886    119940.69   -6224.1049   -9321.0293    15202.898    20453.464    87.763952 
   23300    1205.2983   -109.48657    1.0905792   -108.39599    6264.1678    4.4501832    4.4501832    4.4501832    6264.1678   -42450.909    18643.187    42600.225    15959.124    16535.709   -18185.995    88.132007 
   23400    1927.8349   -110.11624    1.7443455    -108.3719   -9837.1666    4.4629976    4.4629976    4.4629976   -9837.1666   -50262.785    11088.375    9662.9105   -22002.336   -7279.3515    8560.7863    88.895539 
   23500    1344.0541   -109.57635    1.2161284   -108.36022    14561.098     4.444394     4.444394     4.444394    14561.098   -5313.0652    29162.747    19833.612    10235.468    20735.204   -1398.0916    87.788503 
   23600    1277.5286   -109.53795    1.1559347   -108.38201   -8180.1249    4.4475859    4.4475859    4.4475859   -8180.1249   -4986.7454   -25813.319    6259.6898   -8483.6498   -11251.247    372.03649    87.977788 
   23700    1190.1058   -109.46591    1.0768328   -108.38908     7634.818    4.4473914    4.4473914    4.4473914     7634.818   -11829.938     38828.91   -4094.5176   -12081.225     15399.74     228.9259    87.966246 
   23800    1891.7752   -110.10426    1.7117179   -108.39254    3925.6933    4.4478474    4.4478474    4.4478474    3925.6933   -4965.3173    39158.609   -22416.212    4367.5038    19958.501    7117.0026    87.993309 
   23900    1451.8028   -109.71576    1.3136217   -108.40214    391.01097    4.4548691    4.4548691    4.4548691    391.01097   -35103.045    45349.617   -9073.5392     5538.335   -4125.5165    8538.4517    88.410706 
   24000    1144.5802   -109.44446    1.0356402   -108.40882    14333.652    4.4394282    4.4394282    4.4394282    14333.652   -18270.535    73312.269   -12040.778    33.716248    36967.319     2593.304    87.494573 
   24100    2113.2894   -110.31487    1.9121486   -108.40272     13320.88    4.4494076    4.4494076    4.4494076     13320.88      19055.9    53215.744   -32309.003    3538.9702   -5651.4077   -2686.0263    88.085934 
   24200    1363.1389   -109.63897    1.2333967   -108.40557   -32439.747    4.4658224    4.4658224    4.4658224   -32439.747   -67978.505    33681.414    -63022.15   -19534.622    22001.927    554.56485    89.064442 
   24300    1336.2844   -109.59104    1.2090982   -108.38194    12191.568    4.4453047    4.4453047    4.4453047    12191.568   -23413.596    80408.441   -20420.141    9336.8093    3532.9195   -2001.7254    87.842486 
   24400    1794.1424   -110.00439    1.6233778   -108.38101   -4590.1706    4.4382534    4.4382534    4.4382534   -4590.1706   -28262.805    17215.044   -2722.7506    7272.2029    5048.5427   -6302.8616    87.425129 
   24500    1079.8999    -109.3803   0.97711616   -108.40318    9732.5275    4.4442505    4.4442505    4.4442505    9732.5275    -56089.77    91555.845   -6268.4926   -19190.236    26224.986   -2222.8181    87.780004 
   24600    1995.1602   -110.20538    1.8052629   -108.40011   -41379.686    4.4648073    4.4648073    4.4648073   -41379.686    -63068.22   -35053.621   -26017.216    19507.625   -8420.0006    962.95907     89.00372 
   24700    1171.1631   -109.43883     1.059693   -108.37914   -33831.995     4.466736     4.466736     4.466736   -33831.995    -41762.32   -14431.068   -45302.597    2470.5957    27595.949    -3113.043    89.119114 
   24800    2055.4745   -110.20333    1.8598366   -108.34349    30045.038      4.42573      4.42573      4.42573    30045.038    -4864.433    31465.114    63534.432    8116.7105    6532.1683    -9247.146    86.687156 
   24900    1321.4462   -109.57144    1.1956723   -108.37577    1945.7171    4.4264446    4.4264446    4.4264446    1945.7171   -18032.265    14792.967    9076.4491    2810.9228    11201.172    9543.5536    86.729155 
   25000    1211.2518   -109.49822    1.0959661   -108.40225   -28738.745    4.4616938    4.4616938    4.4616938   -28738.745   -53713.969   -1693.3823   -30808.884    3220.2463    28178.921   -14681.922    88.817652 
   25100    1913.6018   -110.10109    1.7314672   -108.36962     -13973.9     4.466516     4.466516     4.466516     -13973.9   -52905.856   -23222.607    34206.762    7971.6818   -9553.6478    10777.899    89.105946 
   25200     1286.253   -109.53272    1.1638287   -108.36889   -35.621737    4.4393262    4.4393262    4.4393262   -35.621737   -8994.2221   -15196.612    24083.969    9739.7839    33042.234   -15233.975    87.488542 
   25300    1367.7867   -109.61707    1.2376021   -108.37947    17736.997    4.4361277    4.4361277    4.4361277    17736.997   -18498.476    31719.032    39990.435   -6344.3584    5475.1422    -14629.45    87.299576 
   25400    1828.4589   -110.03534    1.6544281   -108.38091   -1203.4139     4.452288     4.452288     4.452288   -1203.4139   -61435.794     47144.41    10681.143   -2432.5655   -6468.7697    19660.635    88.257122 
   25500    903.70047   -109.20539   0.81768718   -108.38771     29654.39    4.4539842    4.4539842    4.4539842     29654.39   -36083.931    109112.59    15934.514    4382.5169    24124.092    11513.866    88.358028 
   25600    1479.4626   -109.72446    1.3386489   -108.38582   -2610.7697    4.4672809    4.4672809    4.4672809   -2610.7697   -49610.107    14981.013    26796.785   -20864.027   -5515.7985    9172.7915    89.151731 
   25700    1504.9892   -109.73742    1.3617458   -108.37567    25589.211    4.4513421    4.4513421    4.4513421    25589.211   -39890.699    87257.343    29400.988    7124.9795    1960.4478    23789.316    88.200879 
   25800    1079.5916   -109.35514   0.97683713    -108.3783    24008.237    4.4288282    4.4288282    4.4288282    24008.237    9789.4725   -14202.067    76437.304   -10273.606   -11414.923    3725.0633    86.869337 
   25900    1062.1585   -109.36801   0.96106332   -108.40695   -3212.8237    4.4468725    4.4468725    4.4468725   -3212.8237   -24399.318   -50527.145    65287.992    1014.5917   -9303.4137    -6565.836    87.935458 
   26000    1786.6492   -110.00465    1.6165978   -108.38805   -6797.9738    4.4652944    4.4652944    4.4652944   -6797.9738   -53479.339    9408.3307    23677.087    10133.386    12592.266    10201.368    89.032855 
   26100    1507.3225   -109.74743    1.3638571   -108.38357   -5881.7148    4.4621808    4.4621808    4.4621808   -5881.7148   -16541.444    4227.7704   -5331.4712   -5088.9896   -2679.0776    3850.4536    88.846736 
   26200    1394.9689    -109.6281    1.2621972   -108.36591    23177.179    4.4305462    4.4305462    4.4305462    23177.179    9437.0982     15480.28    44614.158    11211.605    8934.5349    -5419.194    86.970466 
   26300    1205.0252   -109.48531    1.0903321   -108.39498    22306.148    4.4392919    4.4392919    4.4392919    22306.148    -1229.485     67451.07    696.85815    14271.401    14799.106    4028.4404    87.486511 
   26400    1833.3227   -110.03923    1.6588289    -108.3804   -17375.612    4.4652083    4.4652083    4.4652083   -17375.612   -37665.963    22373.319   -36834.192    1909.1151   -10339.512    5107.6806    89.027704 
   26500    526.84475   -108.86231    0.4767002   -108.38561    21808.781    4.4552721    4.4552721    4.4552721    21808.781    34573.308    31946.715   -1093.6793    8183.6066    25085.819    8350.9753    88.434697 
   26600    1825.5148   -110.01608    1.6517642   -108.36432    14108.112     4.452837     4.452837     4.452837    14108.112    1111.9959    32815.891    8396.4493    14403.866   -7240.6332    17454.321     88.28977 
   26700    1454.0901    -109.6822    1.3156913   -108.36651    14708.342    4.4476778    4.4476778    4.4476778    14708.342    3319.6362    69842.418   -29037.028    -8526.321    20681.142    3851.8435    87.983238 
   26800    1489.1059   -109.72321    1.3473744   -108.37584   -21654.696    4.4464492    4.4464492    4.4464492   -21654.696   -30238.647    2706.5052   -37431.946    12803.984     16853.18   -7631.0298    87.910351 
   26900    1691.5458   -109.90934    1.5305462   -108.37879    -13454.24    4.4516784    4.4516784    4.4516784    -13454.24    5072.4773   -4318.8299   -41116.369    6082.9513   -374.39176    12849.184    88.220871 
   27000    1324.2279   -109.57422    1.1981893   -108.37603    7484.2437    4.4447167    4.4447167    4.4447167    7484.2437   -10186.044    46957.124   -14318.349    5812.0779    36433.533   -978.36218    87.807629 
   27100    1598.1258    -109.8209    1.4460178   -108.37489   -12723.423    4.4571421    4.4571421    4.4571421   -12723.423    -12829.93   -16091.616   -9248.7218    2788.8736   -13517.473   -4459.6144    88.546101 
   27200    998.17004   -109.28439   0.90316523   -108.38123   -22510.293    4.4574485    4.4574485    4.4574485   -22510.293   -29467.075    11973.059   -50036.861    -5396.383    32275.601   -10079.419     88.56436 
   27300    1714.2117   -109.91726    1.5510547   -108.36621     16577.27    4.4464111    4.4464111    4.4464111     16577.27   -23968.399     73154.51    545.69995    1366.1811    12747.639   -2337.7012    87.908089 
   27400    1298.3934   -109.55036    1.1748136   -108.37555    6438.3987    4.4581765    4.4581765    4.4581765    6438.3987    1148.2618     61481.62   -43314.686     6803.437    13722.372   -3657.4717    88.607763 
   27500    1306.0315   -109.55634    1.1817248   -108.37461    -13384.56    4.4626015    4.4626015    4.4626015    -13384.56   -29165.184    23225.553    -34214.05    -28801.56    18715.946    4748.5466    88.871872 
   27600    1666.1954   -109.86478    1.5076086   -108.35717   -2850.3203    4.4518426    4.4518426    4.4518426   -2850.3203   -26835.314    40767.052   -22482.699   -7124.8185   -5838.0356   -2343.7183    88.230636 
   27700    1254.8926   -109.49438    1.1354532   -108.35893    3061.6775     4.435692     4.435692     4.435692    3061.6775    42020.919    21229.581   -54065.467   -9582.6863    35181.086    8072.3423    87.273852 
   27800    1793.4998   -109.99342    1.6227963   -108.37062    1695.5263    4.4526381    4.4526381    4.4526381    1695.5263   -26134.797    37019.204   -5797.8281   -28944.948     -4564.06   -4891.5496    88.277939 
   27900    1220.0058   -109.47624    1.1038869   -108.37235   -22152.247    4.4687993    4.4687993    4.4687993   -22152.247    25653.319   -43921.851   -48188.211    4190.5502    21278.972    25628.654    89.242671 
   28000    1145.2504   -109.38045    1.0362466    -108.3442     31076.25    4.4528744    4.4528744    4.4528744     31076.25    88526.298    32128.254   -27425.803   -4187.1027    3840.8775   -4199.2284    88.291995 
   28100    1676.1858   -109.86146    1.5166482   -108.34481    10885.924    4.4430138    4.4430138    4.4430138    10885.924     9326.073    37373.275   -14041.575   -10083.709    3429.7828   -2610.5552    87.706742 
   28200    1450.9036   -109.69175    1.3128081   -108.37894   -7597.7071    4.4486531    4.4486531    4.4486531   -7597.7071   -22972.978    42335.886   -42156.029   -5565.8294    414.85033    14447.576    88.041131 
   28300    1297.9601   -109.56107    1.1744216   -108.38665    24125.085    4.4583001    4.4583001    4.4583001    24125.085     14984.38    76445.744   -19054.868   -9707.8414   -4344.9511    -16354.54    88.615133 
   28400     1362.023   -109.61307    1.2323871   -108.38068   -23069.248    4.4676952    4.4676952    4.4676952   -23069.248   -7742.4812   -4284.4113   -57180.853   -9429.2334    6722.7542    18574.487    89.176536 
   28500    1633.9814   -109.83252    1.4784607   -108.35406    3789.0196    4.4498175    4.4498175    4.4498175    3789.0196    27227.481    12211.046   -28071.469   -4799.2812   -7927.6752    7571.4136    88.110285 
   28600     1347.558   -109.56903    1.2192988   -108.34973    31612.501    4.4321247    4.4321247    4.4321247    31612.501    3858.1615    90019.175    960.16747   -11576.651    9287.2795    1012.5546    87.063455 
   28700    1388.2412   -109.64185    1.2561098   -108.38574   -9518.6598    4.4515172    4.4515172    4.4515172   -9518.6598    2753.5303    4891.2672   -36200.777    -6367.962     4662.111    38420.705    88.211291 
   28800    1548.2196    -109.7726    1.4008616   -108.37174   -13468.671    4.4652181    4.4652181    4.4652181   -13468.671   -37625.564    28612.774   -31393.224   -13228.735   -7824.0143    1179.1197    89.028289 
   28900    1213.5159   -109.46922    1.0980147    -108.3712    1009.3328     4.452672     4.452672     4.452672    1009.3328    14987.622   -6322.8363   -5636.7874    -10760.17    11802.364    20694.181    88.279957 
   29000    1875.0707   -110.06464    1.6966033   -108.36804   -6849.5146    4.4481557    4.4481557    4.4481557   -6849.5146   -8202.2517   -4563.3474   -7782.9447    5178.5526   -11457.985    32343.365    88.011605 
   29100    1847.6554   -110.04167    1.6717974   -108.36987    15429.985    4.4431767    4.4431767    4.4431767    15429.985    27167.346    6497.0791    12625.531   -5977.5359    -7504.806    -5736.467    87.716391 
   29200    1051.6477   -109.34007   0.95155294   -108.38852    11184.245    4.4438067    4.4438067    4.4438067    11184.245    18514.515    27059.521     -12021.3   -1515.4387    12072.694    51928.286     87.75371 
   29300    1808.4933   -110.01451    1.6363627   -108.37815      1384.02    4.4636272    4.4636272    4.4636272      1384.02    3719.5368    10556.098   -10123.575    15871.547   -11963.579    -17315.98    88.933164 
   29400     1003.872   -109.27715   0.90832447   -108.36883   -2975.3505    4.4699352    4.4699352    4.4699352   -2975.3505    42632.893   -4464.7669   -47094.177   -17961.691    10601.973     43738.25     89.31074 
   29500    2131.7564   -110.29234     1.928858   -108.36348   -21002.257    4.4482563    4.4482563    4.4482563   -21002.257    -11867.84   -14171.166   -36967.765    14768.835   -4940.1832   -1719.2385    88.017577 
   29600    1692.8221   -109.89562     1.531701   -108.36392      44838.8    4.4273477    4.4273477    4.4273477      44838.8    37275.983     103895.9   -6655.4849   -2145.1137    11371.633    9402.2893    86.782246 
   29700    1219.9239    -109.5114    1.1038128   -108.40759   -20309.951    4.4596477    4.4596477    4.4596477   -20309.951    13970.543   -22981.781   -51918.614   -7994.2295   -5770.2512    47978.879    88.695515 
   29800    1561.5478   -109.76946    1.4129213   -108.35654    17435.284    4.4671532    4.4671532    4.4671532    17435.284     5287.666    68599.237   -21581.051   -6433.2956    2846.9916   -18295.671    89.144087 
   29900    1395.7692    -109.6239    1.2629213   -108.36098    1530.7252    4.4435423    4.4435423    4.4435423    1530.7252    4068.8877    11904.858    -11381.57   -13357.384   -3321.0308    53418.472    87.738047 
   30000    1729.7051   -109.94134    1.5650735   -108.37627    6218.8129    4.4408939    4.4408939    4.4408939    6218.8129   -8943.7475    29294.504   -1694.3183   -6411.1802   -5651.3755   -9588.0881    87.581259 
   30100    1581.4423   -109.83482    1.4309222    -108.4039   -15394.747    4.4644122    4.4644122    4.4644122   -15394.747   -32915.595    35082.181   -48350.828    2496.5339    6471.5338    26039.825    88.980096 
   30200    944.95236   -109.25714   0.85501275   -108.40213   -36133.615     4.469824     4.469824     4.469824   -36133.615   -3215.6359   -29438.965   -75746.244    15427.891    3434.2439     38482.98    89.304071 
   30300     2077.134   -110.23786    1.8794345   -108.35843    12643.371    4.4245751    4.4245751    4.4245751    12643.371    -1246.526    46025.959   -6849.3198   -10835.118    13855.911   -14098.367    86.619308 
   30400    923.17613   -109.23824   0.83530916   -108.40293   -3048.2314    4.4358284    4.4358284    4.4358284   -3048.2314    61553.633    11018.297   -81716.624    11966.941   -2632.0807    56863.504    87.281903 
   30500    1971.9488   -110.17028    1.7842607   -108.38602     -38442.6    4.4719143    4.4719143    4.4719143     -38442.6   -58579.681    10033.495   -66781.613     7149.486    10881.708   -8945.6891    89.429422 
   30600     1325.306   -109.56154    1.1991647   -108.36238   -27920.527    4.4929827    4.4929827    4.4929827   -27920.527     -30102.2   -5560.7897   -48098.591   -1165.3216    3215.1469    18966.575    90.699365 
   30700    1249.5433    -109.4641     1.130613   -108.33349    113.32731    4.4707817    4.4707817    4.4707817    113.32731    -11419.34    18210.067   -6450.7452    2350.6318    694.36615    16342.846    89.361488 
   30800    1556.6493    -109.7358     1.408489   -108.32731    12331.516    4.4341471    4.4341471    4.4341471    12331.516    6196.2345    47335.484   -16537.171   -3076.0646      11088.9   -5932.2506    87.182694 
   30900    1482.9729   -109.71428     1.341825   -108.37246   -2660.6786    4.4298069    4.4298069    4.4298069   -2660.6786    24184.434   -28476.822   -3689.6473   -10107.817    3544.0736    66418.077    86.926938 
   31000    1712.6114   -109.95174    1.5496068   -108.40214     8823.051    4.4496316    4.4496316    4.4496316     8823.051   -26306.862    36866.778    15909.236    7821.1966   -1897.1642   -24889.975    88.099239 
   31100    1184.0991   -109.45888    1.0713978   -108.38748   -30349.817     4.490112     4.490112     4.490112   -30349.817   -14864.706   -42770.382   -33414.362   -2482.8197    6425.3729    12146.501    90.525622 
   31200    1634.0967   -109.82845    1.4785651   -108.34989   -3794.3698    4.4602651    4.4602651    4.4602651   -3794.3698   -20195.546   -29797.087    38609.524    3417.7933    -15379.94     20367.14    88.732357 
   31300    1121.5572   -109.34334    1.0148085   -108.32853    27137.216    4.4192696    4.4192696    4.4192696    27137.216    27132.721     46917.81    7361.1158    8833.1291   -4993.4603   -13550.091    86.308089 
   31400     1761.453   -109.95882    1.5937997   -108.36502   -8259.5983    4.4356639    4.4356639    4.4356639   -8259.5983    15839.981   -12700.961   -27917.814    -5381.519    15807.201    8457.9287    87.272194 
   31500    1433.9866   -109.68051    1.2975012   -108.38301   -9849.1006    4.4565883    4.4565883    4.4565883   -9849.1006   -43681.985   -17299.698    31434.382     2640.592   -36849.221     3417.202    88.513101 
   31600    1665.4762   -109.87879    1.5069579   -108.37183    -6794.343    4.4567766    4.4567766    4.4567766    -6794.343    9329.5036   -27868.141   -1844.3918    3701.9328    9576.7668   -15576.624    88.524321 
   31700    883.18179   -109.16168   0.79912144   -108.36256    37393.305    4.4539138    4.4539138    4.4539138    37393.305   -9740.9196    9182.8925    112737.94   -18763.474   -16374.749    10028.755     88.35384 
   31800     1687.301   -109.88515    1.5267054   -108.35844   -33044.569     4.456314     4.456314     4.456314   -33044.569   -54100.796   -18262.714   -26770.198     14733.43   -36147.911   -1705.9023    88.496759 
   31900     1793.766   -109.97045    1.6230372   -108.34741    5478.7168    4.4450341    4.4450341    4.4450341    5478.7168   -13727.838   -22599.991    52763.979    3675.4945    141.57668   -16106.447     87.82644 
   32000    1278.0597   -109.52901    1.1564153    -108.3726   -30021.696    4.4433277    4.4433277    4.4433277   -30021.696   -43121.226    274.22422   -47218.088   -5602.0589   -46319.897    29728.063    87.725334 
   32100    1754.3379   -109.95525    1.5873618   -108.36789    20286.016    4.4250421    4.4250421    4.4250421    20286.016    23210.389    11629.296    26018.364    354.52556    22104.848    6243.8628    86.646738 
   32200    1491.2216   -109.75506    1.3492887   -108.40577   -15783.104    4.4426664    4.4426664    4.4426664   -15783.104   -27903.063    11160.445   -30606.692   -4922.0439   -36953.231   -10744.841     87.68617 
   32300    1016.3602   -109.30622   0.91962404    -108.3866   -28050.403    4.4617471    4.4617471    4.4617471   -28050.403   -33563.621   -18989.181   -31598.408   -6704.0327   -18333.352    14311.659    88.820834 
   32400     1478.783   -109.69882     1.338034   -108.36078    12952.112    4.4420405    4.4420405    4.4420405    12952.112    4596.0103    10203.065     24057.26   -4313.4317     18404.19    3908.3513    87.649117 
   32500    1959.1167   -110.13449      1.77265   -108.36184   -2071.9461    4.4376006    4.4376006    4.4376006   -2071.9461   -30335.459    12721.366    11398.255    7489.5906   -36116.299   -9233.1786    87.386559 
   32600    1358.8328   -109.60559    1.2295004   -108.37609    16996.137    4.4312566    4.4312566    4.4312566    16996.137    5426.5327    12869.982    32691.896   -5343.7116    15166.244    7508.5814    87.012308 
   32700    1599.9421   -109.83893    1.4476612   -108.39127    10295.682    4.4504843    4.4504843    4.4504843    10295.682    1150.9245     2153.494    27582.626    8326.5766     14296.89   -7247.5083    88.149899 
   32800    1410.1882   -109.64182     1.275968   -108.36585   -2983.0417    4.4712091    4.4712091    4.4712091   -2983.0417   -8484.7956   -6924.6247    6460.2951    -8024.365    11123.921   -673.88251    89.387119 
   32900    1000.8311   -109.25488     0.905573    -108.3493    10320.735    4.4545713    4.4545713    4.4545713    10320.735   -5610.0678    16191.734    20380.539    9730.7943    38420.965    5915.5277    88.392976 
   33000    2257.2753   -110.37016    2.0424301   -108.32773    7407.6454     4.434041     4.434041     4.434041    7407.6454   -3172.9291    5457.5034    19938.362    320.38482   -8005.9731   -4402.3038    87.176436 
   33100     1102.735   -109.36636   0.99777781   -108.36859    5732.8624     4.441251     4.441251     4.441251    5732.8624   -32985.007    13330.011    36853.583   -16735.732    20002.797     18604.31     87.60239 
   33200    1893.8203   -110.07241    1.7135684   -108.35884   -11587.032    4.4627455    4.4627455    4.4627455   -11587.032   -41844.254   -10108.478    17191.636    22048.322    4094.2205    -7193.757    88.880471 
   33300    1257.1824   -109.49616    1.1375251   -108.35863    16972.667    4.4461508    4.4461508    4.4461508    16972.667   -8988.3669    39320.506    20585.863   -30154.006   -22284.414   -6339.1027    87.892652 
   33400    1144.8997   -109.40498    1.0359293   -108.36905    9641.5856    4.4300983    4.4300983    4.4300983    9641.5856     9032.899     -8229.46    28121.318    16465.205    15644.159    24817.151    86.944093 
   33500    1502.0639   -109.74422    1.3590989   -108.38512    20596.957    4.4444967    4.4444967    4.4444967    20596.957   -18.322443    28850.616    32958.576   -8897.9999   -13267.265   -9490.4074    87.794594 
   33600    1527.0954   -109.76009     1.381748   -108.37834   -17922.722    4.4661196    4.4661196    4.4661196   -17922.722   -57675.134   -19198.787    23105.756   -14454.761    -7590.703    7167.8817    89.082224 
   33700    1260.6862   -109.51119    1.1406954    -108.3705   -15320.622    4.4615811    4.4615811    4.4615811   -15320.622   -30636.082   -24975.919    9650.1341    11216.966     10938.13     22507.25    88.810923 
   33800    1750.1685   -109.93674    1.5835892   -108.35315    205.30337    4.4241359    4.4241359    4.4241359    205.30337   -37032.707    22772.291    14876.326   -31706.217   -2501.1211    6683.2539    86.593518 
   33900    1317.1009   -109.56329    1.1917406   -108.37155    32507.112    4.4225731    4.4225731    4.4225731    32507.112    2518.9802    79244.906    15757.451     23038.12    5984.6203    10047.908    86.501782 
   34000    1863.1458   -110.06639    1.6858135   -108.38057   -27126.892    4.4569967    4.4569967    4.4569967   -27126.892   -42721.278   -10095.246   -28564.152   -13859.681    8141.8457   -3726.3688    88.537434 
   34100    1197.2322   -109.45246    1.0832808   -108.36918   -9285.5331    4.4660081    4.4660081    4.4660081   -9285.5331   -73294.715    46768.825   -1330.7092   -16947.574   -9224.1427   -1993.6538    89.075552 
   34200    1763.6636   -109.95565    1.5957999   -108.35985   -13197.745    4.4420763    4.4420763    4.4420763   -13197.745   -18464.152   -17870.192   -3258.8899    30123.282    2676.3823    3788.0681    87.651236 
   34300    1754.8542   -109.94177     1.587829   -108.35394    23822.407    4.4197021    4.4197021    4.4197021    23822.407   -33.765401    76362.856   -4861.8684   -19446.429    363.02339   -21175.294     86.33343 
   34400    911.94481   -109.22459   0.82514683   -108.39945   -17859.543    4.4462948    4.4462948    4.4462948   -17859.543   -50583.904   -3096.2332    101.50716    7251.0473    1217.6762    8647.7631    87.901194 
   34500    1662.7299   -109.87437    1.5044729    -108.3699    13928.194    4.4481993    4.4481993    4.4481993    13928.194    5536.0795    55541.518   -19293.015    19930.262   -517.70053    1705.2711    88.014193 
   34600    1261.4693   -109.51566    1.1414039   -108.37426    4524.8909    4.4451246    4.4451246    4.4451246    4524.8909   -20436.378     33412.28    598.77054   -13422.885   -10967.139   -20280.843    87.831805 
   34700    1303.1578    -109.5525    1.1791246   -108.37338   -4684.6056    4.4449517    4.4449517    4.4449517   -4684.6056   -35109.462   -18676.485    39732.131    24386.455    10924.936    13169.483     87.82156 
   34800    2045.4707   -110.20642    1.8507848   -108.35564    12204.284    4.4291571    4.4291571    4.4291571    12204.284    42132.926    16342.113   -21862.188    306.56742   -13753.763   -6371.5617    86.888692 
   34900    1165.6147   -109.44475    1.0546727   -108.39008    -16608.54    4.4493786    4.4493786    4.4493786    -16608.54   -61167.663   -7943.0401    19285.082    2372.4609   -6845.8561   -11080.576    88.084217 
   35000    1683.1161   -109.89208    1.5229188   -108.36916   -3879.4148    4.4480686    4.4480686    4.4480686   -3879.4148    7051.3605    -28052.96    9363.3546    20411.958    19702.124    24549.316    88.006438 
   35100    1353.2355    -109.5882    1.2244359   -108.36377     37279.23    4.4310411    4.4310411    4.4310411     37279.23    83122.223    57411.204   -28695.738   -6902.1207   -15141.242   -4488.3247    86.999614 
   35200    1663.0919   -109.88479    1.5048005   -108.37999   -21787.375    4.4416971    4.4416971    4.4416971   -21787.375   -51779.723   -24997.255    11414.852     6497.884   -7052.4201   -3351.2387    87.628788 
   35300    1253.2592   -109.51985    1.1339753   -108.38587    20635.746    4.4391434    4.4391434    4.4391434    20635.746    39687.676    7680.8091    14538.753    3168.4982    18241.306    19906.264    87.477736 
   35400    1938.8545    -110.1356    1.7543163   -108.38129    2246.6267    4.4464979    4.4464979    4.4464979    2246.6267    10155.001    22217.595   -25632.716   -842.85867   -5442.0598   -9025.5194    87.913239 
   35500    1694.1342   -109.90247    1.5328882   -108.36958   -29776.094    4.4571615    4.4571615    4.4571615   -29776.094   -50564.243   -23678.599    -15085.44   -3301.7868    637.10614    6267.5408    88.547256 
   35600     1461.968   -109.68142    1.3228194   -108.35861    8451.5422    4.4398203    4.4398203    4.4398203    8451.5422    11177.215    15300.742   -1123.3313    2326.7727    6045.2474    12700.839    87.517756 
   35700    1363.1977   -109.59606      1.23345   -108.36261    33473.855    4.4322933    4.4322933    4.4322933    33473.855    21322.228    58522.201    20577.135   -20021.414   -8025.7653   -16726.775    87.073392 
   35800    1556.7117   -109.78483    1.4085455   -108.37628   -7243.5477     4.454175     4.454175     4.454175   -7243.5477   -25470.848    32483.508   -28743.303   -2558.8269     3409.013    8864.7982    88.369386 
   35900    1941.9497   -110.12509    1.7571169   -108.36797    -19276.62    4.4522839    4.4522839    4.4522839    -19276.62   -7046.3639   -10473.267    -40310.23    17361.532    2439.5339   -1002.9844    88.256874 
   36000    1137.8566   -109.39022    1.0295566   -108.36066    56781.131    4.4226875    4.4226875    4.4226875    56781.131    62265.448     73091.23    34986.716   -32883.518   -8067.2718   -18767.703    86.508498 
   36100    1813.6011   -110.01079    1.6409844    -108.3698    6484.7885    4.4434753    4.4434753    4.4434753    6484.7885   -16423.542    46980.604   -11102.697    4583.0158    4628.8121    10150.141    87.734076 
   36200    1318.4602   -109.55978    1.1929705   -108.36681   -45039.325    4.4590245    4.4590245    4.4590245   -45039.325   -44836.477   -50572.957    -39708.54   -7340.9538   -1606.7391   -22042.305    88.658337 
   36300    1604.8077   -109.80311    1.4520637   -108.35105    9341.7493    4.4340226    4.4340226    4.4340226    9341.7493    21308.367    26837.942   -20121.061   -9364.9531   -12639.069   -13643.484     87.17535 
   36400    1590.7944   -109.79667    1.4393842   -108.35729    16804.245    4.4388006    4.4388006    4.4388006    16804.245   -5285.3401    43236.764    12461.312   -6737.1079    31546.957    22032.936    87.457467 
   36500    961.13854   -109.24896   0.86965835    -108.3793   -10893.235     4.442418     4.442418     4.442418   -10893.235   -36611.484    430.40556    3501.3738   -33651.018   -1876.6539   -16624.731    87.671462 
   36600    1834.6785   -110.03552    1.6600557   -108.37546     1380.348    4.4445473    4.4445473    4.4445473     1380.348    16434.934    330.13978    -12624.03    -1087.764   -18172.449    557.24351    87.797591 
   36700    1371.9481   -109.61394    1.2413675   -108.37258   -6707.7545    4.4568449    4.4568449    4.4568449   -6707.7545    -28110.75    37761.537   -29774.051   -5375.9807    28221.245   -11293.085    88.528386 
   36800    832.47149   -109.13161    0.7532377   -108.37838   -9030.5057    4.4387279    4.4387279    4.4387279   -9030.5057   -47471.115    6870.8246    13508.774   -18986.647    3334.6633   -25828.952    87.453171 
   36900    2323.0245   -110.46572    2.1019214    -108.3638    17854.447    4.4205039    4.4205039    4.4205039    17854.447    204.93087    57681.002   -4322.5919    881.42871   -18402.877    16708.257    86.380427 
   37000    1434.8338   -109.69281    1.2982678   -108.39454   -14053.399    4.4454598    4.4454598    4.4454598   -14053.399   -4325.3515   -25080.711   -12754.135   -18064.915    9783.9964   -21157.389     87.85168 
   37100    926.52116   -109.21689   0.83833582   -108.37856    -11614.58    4.4599398    4.4599398    4.4599398    -11614.58   -56123.198   -7281.7983    28561.256   -4738.7565    11290.659   -12848.734    88.712944 
   37200    1876.9872   -110.03794    1.6983375   -108.33961   -11339.658    4.4542858    4.4542858    4.4542858   -11339.658    -24061.14   -3622.8019   -6335.0321    5365.6421    3411.8248    10117.119    88.375981 
   37300    1105.3728   -109.34965    1.0001645   -108.34949   -24994.362    4.4425393    4.4425393    4.4425393   -24994.362    18835.617   -51648.193   -42170.511    -32894.36   -6839.5274   -46609.802    87.678648 
   37400    2161.9213   -110.30131    1.9561518   -108.34516    14735.879    4.4225315    4.4225315    4.4225315    14735.879    37970.191    5454.0576    783.38861    5893.1668   -3702.0863    10065.806    86.499339 
   37500    1244.1088    -109.5161    1.1256958    -108.3904    4385.8192    4.4446935    4.4446935    4.4446935    4385.8192   -7762.8788    -1756.615    22676.951   -10149.795   -3378.5499      1904.33    87.806256 
   37600    895.43059   -109.19004   0.81020441   -108.37984    -9047.673     4.462201     4.462201     4.462201    -9047.673    1614.8202   -9517.3444   -19240.495    -8600.791    10388.167   -35218.516    88.847947 
   37700    1877.5822   -110.04019    1.6988758   -108.34131    17975.397    4.4446775    4.4446775    4.4446775    17975.397    52663.041    1908.0643   -644.91384    18400.694    3182.4354    17637.067    87.805304 
   37800    1179.6402   -109.41929    1.0673632   -108.35192    14795.803     4.446416     4.446416     4.446416    14795.803    67046.929   -9257.9196   -13401.599   -10534.772   -888.27318   -15589.604    87.908383 
   37900    1446.7277   -109.65909    1.3090296   -108.35006   -4136.1562      4.46156      4.46156      4.46156   -4136.1562    8911.8058    -8278.816   -13041.458    9231.1873    6614.8277    8391.4322    88.809663 
   38000    1679.1893   -109.87116    1.5193658   -108.35179   -11734.835    4.4461061    4.4461061    4.4461061   -11734.835   -91.200712   -24297.363   -10815.943     22594.01   -13956.153   -1477.6495    87.889998 
   38100     1435.866   -109.65763    1.2992017   -108.35843    27149.384    4.4236123    4.4236123    4.4236123    27149.384    24403.754     31761.99    25282.408   -22268.188    14111.056   -9551.4995    86.562773 
   38200    1606.7421   -109.84758     1.453814   -108.39377   -14359.519    4.4446976    4.4446976    4.4446976   -14359.519   -42982.951     5492.052   -5587.6583    7901.2212    3704.5408    6189.2673    87.806496 
   38300    1114.1808   -109.39545    1.0081342   -108.38731   -33990.687    4.4680407    4.4680407    4.4680407   -33990.687   -1501.8184    -37641.39   -62828.853    3009.8117   -2641.5185   -26366.628    89.197226 
   38400    1937.8455   -110.11478    1.7534033   -108.36137    -5845.445    4.4461453    4.4461453    4.4461453    -5845.445    5391.4127   -5524.7578    -17402.99   -6693.4178    9328.9885   -2134.5809    87.892324 
   38500    1613.2803   -109.82048    1.4597299   -108.36075    9247.5157    4.4318074    4.4318074    4.4318074    9247.5157    9341.5151   -9999.9679        28401    7323.4889   -5065.5795   -4662.4126    87.044761 
   38600    942.53743   -109.24092   0.85282767   -108.38809   -3015.9354    4.4435709    4.4435709    4.4435709   -3015.9354    61844.815   -54144.175   -16748.447   -333.16082    11570.213   -19985.554     87.73974 
   38700    1828.8041   -110.02749    1.6547404   -108.37275   -2250.9203    4.4541922    4.4541922    4.4541922   -2250.9203    17146.941   -8423.5428   -15476.159   -1840.9444    15290.813    6241.5694    88.370408 
   38800    1770.4572   -109.96619    1.6019469   -108.36424   -21751.116    4.4621231    4.4621231    4.4621231   -21751.116   -27290.337   -29360.079   -8602.9324    8906.3432   -11274.976   -16724.537    88.843293 
   38900    1023.9978   -109.29582   0.92653476   -108.36928    -27240.85    4.4512761    4.4512761    4.4512761    -27240.85   -11140.888   -37643.694   -32937.968   -5879.5843    661.34459   -8890.5103    88.196955 
   39000    2149.2705    -110.3042    1.9447051   -108.35949    10538.866    4.4248709    4.4248709    4.4248709    10538.866    17195.098    6564.8659    7856.6331   -3729.0436    7012.0193   -2722.3473    86.636684 
   39100    2043.2586   -110.24531    1.8487833   -108.39653    3829.5416    4.4372106    4.4372106    4.4372106    3829.5416   -3683.4703    15989.092    -816.9974    7321.6825   -4169.0261   -8437.5908    87.363522 
   39200    938.19682    -109.2681    0.8489002    -108.4192   -22917.231    4.4507006    4.4507006    4.4507006   -22917.231   -28510.413   -38861.795   -1379.4845   -16196.746    10208.664    -6961.288    88.162751 
   39300    1380.2943   -109.65522    1.2489193    -108.4063    9349.5597    4.4407215    4.4407215    4.4407215    9349.5597   -13607.036   -432.08661    42087.802   -23837.889   -1105.3654   -4650.4227    87.571063 
   39400    2046.8454   -110.24044    1.8520287   -108.38841     16611.18    4.4383872    4.4383872    4.4383872     16611.18    10139.685    13364.201    26329.654    9007.2254    257.92085    3884.1387    87.433034 
   39500    918.72477   -109.23306   0.83128148   -108.40178    11521.644    4.4404039    4.4404039    4.4404039    11521.644    26709.891   -33083.624    40938.664   -30612.678    25692.645    2143.8663    87.552272 
   39600    1322.6882   -109.58546    1.1967961   -108.38866   -14756.596    4.4563595    4.4563595    4.4563595   -14756.596     17587.96   -28566.344   -33291.405   -430.10001   -12192.738   -26783.907    88.499469 
   39700    1918.6853   -110.09284    1.7360668   -108.35678   -17013.207    4.4533471    4.4533471    4.4533471   -17013.207     -24865.6    -21810.74   -4363.2818   -5618.0613    19068.205   -4752.7833    88.320116 
   39800    1379.4327   -109.60581    1.2481397   -108.35767   -6045.4418    4.4353955    4.4353955    4.4353955   -6045.4418   -2180.3692   -29254.897    13298.941   -29854.451    2696.8189    4329.9335    87.256355 
   39900     1340.537   -109.58937     1.212946   -108.37642   -4080.0321    4.4401109    4.4401109    4.4401109   -4080.0321    12615.153   -1373.7868   -23481.462    13535.816   -22514.345   -21754.072    87.534946 
   40000      2006.24   -110.18851    1.8152881   -108.37322   -8424.3536    4.4411211    4.4411211    4.4411211   -8424.3536   -21034.058   -9382.8103    5143.8076   -13822.564    19848.521   -12511.475    87.594706 
   40100    1325.4331   -109.58578    1.1992798    -108.3865   -4075.3568    4.4397639    4.4397639    4.4397639   -4075.3568   -10058.144   -33599.726    31431.799   -4084.7674   -20250.787    5577.0507    87.514421 
   40200    1127.1908   -109.42162    1.0199059   -108.40171   -36005.124    4.4432573    4.4432573    4.4432573   -36005.124   -23037.379    -59902.52   -25075.472    34771.723   -13597.959   -2562.6431    87.721166 
   40300    2192.2732   -110.37308    1.9836148   -108.38947    13103.538    4.4317548    4.4317548    4.4317548    13103.538    -15137.19    1148.1628    53299.642   -9721.0291    3974.5954   -4579.3532    87.041659 
   40400    1195.4988   -109.49893    1.0817124   -108.41721    7597.8577    4.4360713    4.4360713    4.4360713    7597.8577    -31621.46   -3869.7219    58284.755    11102.293   -18580.828    11107.065    87.296246 
   40500    850.93141   -109.19655   0.76994062   -108.42661   -3181.4473    4.4411742    4.4411742    4.4411742   -3181.4473    8468.6125   -62516.379    44503.425    23475.936   -7985.6964     14061.82    87.597846 
   40600    2146.9583   -110.32789     1.942613   -108.38528    2751.3652    4.4436028    4.4436028    4.4436028    2751.3652    4489.5454   -24801.553    28566.103   -12164.751   -3863.3444    4503.7802    87.741627 
   40700    1445.6413   -109.68847    1.3080467   -108.38042   -1063.9054    4.4425078    4.4425078    4.4425078   -1063.9054    -32661.13     771.1475    28698.266    29524.162   -9479.4911   -2617.4004    87.676782 
   40800    1118.1389   -109.39247    1.0117156   -108.38075    1214.0293    4.4377826    4.4377826    4.4377826    1214.0293    8744.1749   -32390.413    27288.326   -22232.969    7528.3958    8604.8155     87.39731 
   40900     1574.697   -109.80274    1.4248189   -108.37792    15906.251     4.428547     4.428547     4.428547    15906.251   -629.19912    104.11249    48243.841    -23928.78     21780.09    7767.6559    86.852789 
   41000    1946.1446   -110.14065    1.7609126   -108.37974   -37.710806    4.4389181    4.4389181    4.4389181   -37.710806   -19572.964   -34108.694    53568.526    12760.264    843.70059   -3176.8354    87.464418 
   41100    715.88736   -109.04393   0.64774993   -108.39618   -29093.036    4.4506978    4.4506978    4.4506978   -29093.036   -26278.134   -91608.641    30607.668   -52385.155    -1092.552   -4131.2714    88.162584 
   41200    1717.7799   -109.92525    1.5542834   -108.37097   -10929.244    4.4390826    4.4390826    4.4390826   -10929.244    17927.618   -16676.096   -34039.252    10326.054    5120.9426    16774.433     87.47414 
   41300     1926.577   -110.10917    1.7432074   -108.36596   -12839.077    4.4286032    4.4286032    4.4286032   -12839.077   -10291.904   -30628.089    2402.7624   -21873.665   -4556.5092   -2756.2495    86.856096 
   41400    1161.0537   -109.44064    1.0505458   -108.39009   -390.88568    4.4258493    4.4258493    4.4258493   -390.88568    5227.3031   -47303.134    40903.173   -43800.651    8719.5415    10180.052    86.694166 
   41500    1508.8105   -109.76757    1.3652034   -108.40236     8706.692    4.4338934    4.4338934    4.4338934     8706.692   -24363.912    24629.536    25854.452    26499.928   -8672.1508    2944.6966    87.167729 
   41600    2020.7098   -110.21302    1.8283807   -108.38464   -14694.333    4.4549727    4.4549727    4.4549727   -14694.333   -8876.9736   -40698.442    5492.4149   -10582.918   -2910.0853   -10342.541    88.416871 
   41700    1051.2023    -109.3332    0.9511499   -108.38205    5977.5233    4.4365131    4.4365131    4.4365131    5977.5233    22736.729   -52139.356    47335.196    783.26899    -4285.642    6574.7589    87.322325 
   41800    1232.4524   -109.49378    1.1151489   -108.37864    29595.389    4.4247809    4.4247809    4.4247809    29595.389    16538.449    10425.947     61821.77    25108.785   -7189.9969    4407.3042    86.631396 
   41900    1978.1068   -110.15976    1.7898326   -108.36993    214.65668    4.4534692    4.4534692    4.4534692    214.65668    14747.748   -13216.328   -887.44994   -17724.457     -5459.64   -510.91927     88.32738 
   42000    860.27648   -109.15844   0.77839624   -108.38005   -21840.204     4.453468     4.453468     4.453468   -21840.204   -26822.536   -47361.142    8663.0672    28773.044   -18604.541     4503.595    88.327313 
   42100    1546.8332   -109.76079    1.3996072   -108.36118    21566.639    4.4237731    4.4237731    4.4237731    21566.639    34844.942   -8779.5474    38634.524   -8232.1364    10178.779   -22389.424    86.572216 
   42200    1549.5998    -109.7828    1.4021105   -108.38069    13333.594     4.429155     4.429155     4.429155    13333.594    16756.162    -556.2457    23800.866   -24365.232    338.24925    17250.371    86.888569 
   42300    1582.0878   -109.82012    1.4315063   -108.38861   -1703.6557    4.4407569    4.4407569    4.4407569   -1703.6557    33081.902     -30623.3   -7569.5691    27119.034   -6287.5702    6888.9656    87.573157 
   42400    1140.8057   -109.42919     1.032225   -108.39696     388.4713    4.4412251    4.4412251    4.4412251     388.4713    18951.277   -11575.917    -6209.946   -28606.495    13784.696   -3595.9462    87.600857 
   42500    1855.5492   -110.06731    1.6789399   -108.38837   -9877.8669    4.4388259    4.4388259    4.4388259   -9877.8669    2694.1626   -3778.8817   -28548.882   -4913.0099   -4321.7211    17008.345    87.458965 
   42600    1866.8351   -110.07356    1.6891516   -108.38441    31728.254    4.4246825    4.4246825    4.4246825    31728.254    71957.141   -2792.0155    26019.637    -5686.259   -1667.7809    -2509.445    86.625614 
   42700    1183.9915   -109.47518    1.0713004   -108.40387   -8166.9928    4.4437114    4.4437114    4.4437114   -8166.9928   -52135.839   -2335.4257    29970.286   -9681.2733    15440.257    -5517.015    87.748064 
   42800      1207.64   -109.48058     1.092698   -108.38788   -21806.644    4.4470671    4.4470671    4.4470671   -21806.644   -22846.447    -10217.85   -32355.635    16501.729   -14929.515    14596.479    87.947003 
   42900    1870.2401   -110.05993    1.6922325    -108.3677    11836.427    4.4238142    4.4238142    4.4238142    11836.427    31426.256   -23335.923    27418.948   -16463.443   -6750.4961    2288.3574    86.574626 
   43000     1476.753     -109.721    1.3361971    -108.3848    1140.7142    4.4269588    4.4269588    4.4269588    1140.7142   -22326.777    13477.419    12271.501    1945.2142    10015.225   -2358.2935    86.759377 
   43100    876.81478   -109.19965   0.79336044   -108.40629   -3115.2164    4.4403029    4.4403029    4.4403029   -3115.2164    -227.9798    31214.736   -40332.405    22012.489   -18426.498    19349.358    87.546299 
   43200    2235.5489   -110.40349    2.0227717   -108.38072   -15251.137    4.4530563    4.4530563    4.4530563   -15251.137    2373.1916   -17375.915   -30750.689    4835.5371    4382.3486   -15908.364    88.302815 
   43300     1163.726   -109.42985    1.0529637   -108.37689   -28077.759    4.4508473    4.4508473    4.4508473   -28077.759   -46801.091    14768.447   -52200.633   -5624.4427   -23422.365   -973.53363    88.171471 
   43400    1652.2054   -109.85294    1.4949502   -108.35799    5184.3246    4.4269428    4.4269428    4.4269428    5184.3246   -2341.3566    9287.8203      8606.51    22749.402   -6147.7258    8704.8291    86.758437 
   43500    1752.6801   -109.95311    1.5858618   -108.36725   -11646.603    4.4216398    4.4216398    4.4216398   -11646.603    27042.377   -30668.469   -31313.716   -5939.0509   -1545.0097    -46480.39     86.44703 
   43600    1216.1262   -109.49087    1.1003765    -108.3905   -4748.6464     4.432051     4.432051     4.432051   -4748.6464   -21598.396    13524.819   -6172.3627    15411.074   -25857.922    17932.216    87.059112 
   43700    1425.7207   -109.67852     1.290022    -108.3885   -13702.912    4.4491694    4.4491694    4.4491694   -13702.912    16186.054    -46400.52   -10894.272    19279.309    8189.5671   -15878.387    88.071791 
   43800    1709.4353   -109.91427     1.546733   -108.36754   -37982.369    4.4523749    4.4523749    4.4523749   -37982.369   -11030.529   -34704.913   -68211.666   -12460.334   -10075.646   -30478.943     88.26229 
   43900    1967.3806    -110.1329    1.7801273   -108.35278   -2134.7819    4.4252202    4.4252202    4.4252202   -2134.7819   -11946.684    11634.039   -6091.7004    24970.739   -15696.244    10000.496    86.657201 
   44000    1616.3766   -109.83561    1.4625316   -108.37308    -3544.612    4.4259929    4.4259929    4.4259929    -3544.612    37984.419    -48059.09   -559.16593    16163.411    5236.7713   -42953.996    86.702604 
   44100    1517.6936   -109.75653     1.373241   -108.38328   -31477.469    4.4537508    4.4537508    4.4537508   -31477.469   -4490.8553   -37234.176   -52707.376   -2895.3727   -8001.2826    3293.9928    88.344141 
   44200    1646.6591   -109.86059    1.4899318   -108.37066   -18318.561    4.4492637    4.4492637    4.4492637   -18318.561   -9666.7022    -26598.31   -18690.671    18416.636   -474.22041    5015.6294     88.07739 
   44300     1226.941   -109.47932     1.110162   -108.36915   -6206.9159    4.4349737    4.4349737    4.4349737   -6206.9159    1188.4025   -3182.3404    -16626.81    11757.119   -5524.9555   -36910.178     87.23146 
   44400    1800.6651   -109.99957    1.6292797   -108.37029   -17326.057    4.4389436    4.4389436    4.4389436   -17326.057   -11174.717   -2818.4915   -37984.962    -7411.695   -5643.2713    30377.798    87.465925 
   44500    1852.0472   -110.03934    1.6757712   -108.36357    -10473.43    4.4476066    4.4476066    4.4476066    -10473.43   -13908.353   -23481.674    5969.7367    9792.3577    6068.1335   -21565.966    87.979016 
   44600    1139.0817   -109.39356    1.0306651    -108.3629   -20595.641    4.4521217    4.4521217    4.4521217   -20595.641    3728.2628   -62536.361   -2978.8232    -10534.16    4085.5192   -6280.6541    88.247232 
   44700    1902.0699   -110.06535    1.7210328   -108.34431    -6229.138    4.4457143    4.4457143    4.4457143    -6229.138    5114.1778   -31486.253    7684.6609   -5465.8523   -199.66843    23612.345    87.866765 
   44800    1429.1342   -109.65428    1.2931106   -108.36117     7548.307    4.4362487    4.4362487    4.4362487     7548.307     27709.64   -3971.7095   -1093.0092    25278.415    1937.1945   -17246.791    87.306719 
   44900    973.75852   -109.26116   0.88107717   -108.38008    22257.227    4.4309444    4.4309444    4.4309444    22257.227    39354.831    2663.7004     24753.15    2721.3428   -12645.807    30698.838    86.993918 
   45000    1524.4548   -109.75842    1.3793587   -108.37907    11583.047    4.4553476    4.4553476    4.4553476    11583.047    43160.625   -9914.2136    1502.7304   -9187.3554    605.80435    -3432.588    88.439192 
   45100    1566.8336   -109.78471    1.4177039   -108.36701   -18875.935    4.4554134    4.4554134    4.4554134   -18875.935    56571.347   -57921.995   -55277.158    8228.2341   -3750.2589    -1933.444    88.443112 
   45200    1182.3856   -109.41791    1.0698473   -108.34807    32203.163    4.4269059    4.4269059    4.4269059    32203.163    87686.439   -11280.754    20203.805   -21135.858   -10107.976    10642.893     86.75627 
   45300     1462.026   -109.68431    1.3228719   -108.36144    10617.341    4.4434261    4.4434261    4.4434261    10617.341    40507.274   -7622.8927   -1032.3576   -16221.004    7800.7321   -6844.6507    87.731162 
   45400    1285.9795   -109.51952    1.1635813   -108.35594   -8572.1372    4.4571763    4.4571763    4.4571763   -8572.1372    83907.979    -48181.28   -61443.111   -7416.4795   -6895.6519    25197.509    88.548139 
   45500    1717.1455   -109.88982    1.5537093   -108.33612    24108.293    4.4454707    4.4454707    4.4454707    24108.293    49944.027    10445.869    11934.982   -45342.357    19398.385   -8856.5211    87.852326 
   45600    1237.6472   -109.46973    1.1198492   -108.34988     17466.38    4.4564629    4.4564629    4.4564629     17466.38    63784.456    4151.2818   -15536.599   -1468.1985    2451.8449    20886.439     88.50563 
   45700    1751.0885   -109.90318    1.5844216   -108.31876   -28815.533    4.4699196    4.4699196    4.4699196   -28815.533   -15475.611   -42139.243   -28831.744   -16943.846   -12808.374   -3300.0505    89.309803 
   45800    1230.5672   -109.43419    1.1134431   -108.32074   -12693.045    4.4474019    4.4474019    4.4474019   -12693.045   -23113.162   -3054.8743   -11911.097   -9695.2289    9191.7057    16219.968     87.96687 
   45900    1764.2667    -109.9304    1.5963456   -108.33405    6549.7739    4.4359845    4.4359845    4.4359845    6549.7739    25713.635   -29731.927    23667.614     15742.62    2834.3282   -744.24018    87.291118 
   46000    2003.9412    -110.1684    1.8132081   -108.35519   -9107.8286    4.4450756    4.4450756    4.4450756   -9107.8286   -42050.036    17007.118   -2280.5669   -14319.189   -4364.8851   -552.32482    87.828902 
   46100    1215.5028   -109.47575    1.0998125   -108.37594    2821.6844    4.4482834    4.4482834    4.4482834    2821.6844    4542.3979     4806.034   -883.37855   -1783.4372    20327.166    21715.019    88.019187 
   46200    1758.1093   -109.95731    1.5907743   -108.36653   -4400.3872    4.4551092    4.4551092    4.4551092   -4400.3872   -17960.764   -22296.048    27055.651    8149.3319   -6080.8995    -5392.319       88.425 
   46300    982.73896   -109.25592   0.88920286   -108.36672    14494.243    4.4426618    4.4426618    4.4426618    14494.243    34951.978    20240.515   -11709.765   -17120.789    2072.3799    7873.8575    87.685901 
   46400    1474.2638   -109.68207    1.3339448   -108.34812    39368.922    4.4282643    4.4282643    4.4282643    39368.922    88041.959    28596.451    1468.3571   -20250.687    3956.1697    2214.6521     86.83616 
   46500    1113.0337   -109.37196    1.0070962   -108.36486   -5202.1639    4.4571387    4.4571387    4.4571387   -5202.1639   -193.91221   -10330.632   -5081.9477   -5677.7482   -16329.495    7186.2436    88.545899 
   46600    1452.4941   -109.65718    1.3142472   -108.34294   -15396.916    4.4609392    4.4609392    4.4609392   -15396.916    547.36634   -24362.124    -22375.99   -3351.2447    7188.7857    211.24108    88.772593 
   46700    1762.3206   -109.91251    1.5945847   -108.31792    13958.533    4.4332541    4.4332541    4.4332541    13958.533    10494.779    30597.782    783.03801    1135.3559   -38341.301   -8833.0219    87.130033 
   46800    1016.8911   -109.27459   0.92010441   -108.35449   -21811.778    4.4376424    4.4376424    4.4376424   -21811.778   -7186.1561   -58141.837   -107.34075    11766.713   -15760.436    12728.919    87.389027 
   46900     2065.308   -110.21088    1.8687341   -108.34214    -4090.959    4.4427879    4.4427879    4.4427879    -4090.959    8369.2504    5985.6681   -26627.796   -3575.8303   -252.15046   -4332.6664    87.693369 
   47000    1141.1981   -109.39571      1.03258   -108.36313    496.18364    4.4468128    4.4468128    4.4468128    496.18364    6010.0409    32823.564   -37345.054      12155.3   -26262.193    11712.541    87.931917 
   47100    2241.2862   -110.36575    2.0279628   -108.33778   -32085.448    4.4526602    4.4526602    4.4526602   -32085.448   -46500.331   -28312.297   -21443.715    17347.443    13867.133   -6117.2324    88.279257 
   47200    1446.3594   -109.64288    1.3086964   -108.33418    14395.643    4.4361407    4.4361407    4.4361407    14395.643    47728.626    36310.424    -40852.12    1778.3806   -27187.495   -8197.9873    87.300342 
   47300    1454.2775   -109.65823    1.3158608   -108.34236     3337.485    4.4426835    4.4426835    4.4426835     3337.485    30375.371   -12833.051   -7529.8644    1062.7094   -4252.9615    8709.8292    87.687182 
   47400    1496.9091   -109.70094    1.3544348   -108.34651   -626.98754    4.4390566    4.4390566    4.4390566   -626.98754    13186.474    31830.174   -46897.611   -400.64498    2234.1749   -4589.5324    87.472605 
   47500    984.34106   -109.24879   0.89065247   -108.35814    29256.812    4.4352339    4.4352339    4.4352339    29256.812     54921.98     66272.32   -33423.865   -17244.003   -18507.674   -4646.6119    87.246816 
   47600    1834.1559   -110.00737    1.6595828   -108.34779   -3754.8738    4.4558026    4.4558026    4.4558026   -3754.8738     1983.905    9590.9335    -22839.46   -12185.987    9350.2911    19496.121     88.46629 
   47700    947.30549   -109.21951   0.85714192   -108.36236    18394.353    4.4409626    4.4409626    4.4409626    18394.353     9085.989    113416.56   -67319.487   -11631.699   -33751.635    8440.4459    87.585324 
   47800    1771.9084   -109.95475      1.60326   -108.35149    22954.047    4.4328479    4.4328479    4.4328479    22954.047    25108.236    66947.221   -23193.315     -31962.7    7124.3975   -2918.1976    87.106081 
   47900    894.36838   -109.18031    0.8092433   -108.37107     12810.23    4.4499207    4.4499207    4.4499207     12810.23     7247.991    76100.897   -44918.198    -9462.199   -21340.259    15918.107    88.116415 
   48000    1453.1747   -109.66613     1.314863   -108.35127    4644.7497    4.4576185    4.4576185    4.4576185    4644.7497   -14061.067    65383.585   -37388.269   -5131.3258   -1712.2501   -12556.556    88.574496 
   48100    1256.9653    -109.4842    1.1373286   -108.34687    249.09472    4.4417654    4.4417654    4.4417654    249.09472    7527.5087    24099.917   -30880.142   -17888.571   -14413.293   -3168.6119    87.632835 
   48200    1126.1705   -109.38073    1.0189827   -108.36175    17093.937    4.4240157    4.4240157    4.4240157    17093.937    33052.914    59454.729   -41225.832   -67.834902   -44821.258    11858.266    86.586458 
   48300    2368.3975   -110.49801    2.1429758   -108.35503    11711.419    4.4306404    4.4306404    4.4306404    11711.419   -1538.8648     31803.09    4870.0337   -15553.265    12812.613   -3612.4786    86.976016 
   48400    909.70114   -109.20854    0.8231167   -108.38543    3789.6394    4.4447963    4.4447963    4.4447963    3789.6394    26947.126    35853.243   -51431.451    -11687.44   -48719.612    8211.1231    87.812346 
   48500    2208.6802   -110.34542    1.9984603   -108.34696   -2841.1725    4.4602183    4.4602183    4.4602183   -2841.1725   -10627.483    32697.537   -30593.571    16214.045    19738.557    9511.7756    88.729563 
   48600    1138.7359   -109.38889    1.0303522   -108.35853   -1729.2693    4.4378612    4.4378612    4.4378612   -1729.2693   -11897.434      7358.67   -649.04458    1474.6484   -43383.103   -11867.914    87.401952 
   48700    1567.2777   -109.75103    1.4181058   -108.33292    47872.874    4.4117295    4.4117295    4.4117295    47872.874    59671.118    42784.856    41162.648   -11274.012   -19348.484    13240.459    85.867066 
   48800    1428.5954   -109.65536    1.2926231   -108.36274    12189.355    4.4348674    4.4348674    4.4348674    12189.355   -3039.3837    37863.208    1744.2403     4546.688   -12438.929   -28783.495    87.225191 
   48900    1331.7118   -109.57769    1.2049608   -108.37273    -16149.66    4.4430695    4.4430695    4.4430695    -16149.66    -25931.88    12372.062   -34889.161   -4310.5555   -47966.987   -12595.419    87.710039 
   49000    2013.2117   -110.18411    1.8215963   -108.36251     22245.69     4.430334     4.430334     4.430334     22245.69    23668.086    42471.733    597.24966     -8211.33    19173.472    4761.3561    86.957974 
   49100    1138.8037   -109.41256    1.0304135   -108.38214    -1572.709    4.4299057    4.4299057    4.4299057    -1572.709   -19175.145    58754.728    -44297.71    23.536008   -57693.409   -32621.985    86.932758 
   49200    1608.1367   -109.83383    1.4550758   -108.37875      6085.27    4.4353922    4.4353922    4.4353922      6085.27    2505.2997    -2607.387    18357.897    175.39554   -4427.1517    953.38644    87.256159 
   49300    1654.0616   -109.85788    1.4966297   -108.36125   -14213.648    4.4468944    4.4468944    4.4468944   -14213.648   -4419.1723   -27387.248   -10834.524    2117.0622    -7550.553   -17336.078    87.936756 
   49400    1218.4485   -109.46619    1.1024778   -108.36371   -5395.0638    4.4443344    4.4443344    4.4443344   -5395.0638   -24132.963    30658.183   -22710.411    2349.2821   -46083.273   -15584.415    87.784973 
   49500    1877.9368   -110.04491    1.6991967   -108.34572    22183.172    4.4413621    4.4413621    4.4413621    22183.172    30924.954   -19818.847    55443.408   -4963.3306    23472.382    1725.8847    87.608962 
   49600    1039.0915    -109.3059   0.94019184    -108.3657   -9648.3993    4.4344987    4.4344987    4.4344987   -9648.3993    7263.4932   -22665.346   -13543.345    66.373858   -49378.486   -44780.099    87.203435 
   49700     1583.464   -109.79391    1.4327515   -108.36116    10028.527    4.4293486    4.4293486    4.4293486    10028.527     14756.26   -11728.608    27057.928   -11830.769   -12730.139    6408.5904    86.899962 
   49800    1580.5728    -109.7983    1.4301354   -108.36816   -16263.886    4.4467292    4.4467292    4.4467292   -16263.886    1206.0231   -44192.893   -5804.7872   -8781.5145    1940.3934   -11106.784    87.926958 
   49900    1446.4968   -109.67954    1.3088207   -108.37072   -12618.836    4.4402419    4.4402419    4.4402419   -12618.836    5942.0391   -17782.563   -26015.983    3157.8375   -39546.351    -28046.55    87.542694 
   50000    1786.6789   -109.97971    1.6166247   -108.36309    25320.863    4.4201493    4.4201493    4.4201493    25320.863    69910.662   -15047.208    21099.136   -12046.586    9738.6198     29366.06     86.35964 
   50100    1425.8402   -109.67122    1.2901301   -108.38109    19965.602    4.4327241    4.4327241    4.4327241    19965.602    27727.507    1775.8223    30393.475    7316.2046   -28247.263   -18007.032    87.098788 
   50200    1633.3549   -109.84943    1.4778938   -108.37154   -6691.6505    4.4453893    4.4453893    4.4453893   -6691.6505   -11147.355   -10482.679    1555.0827   -6436.7494   -11406.087    4985.2953    87.847498 
   50300    1079.3251   -109.34824   0.97659606   -108.37165    2828.3308    4.4404936    4.4404936    4.4404936    2828.3308    53400.498   -25555.343   -19360.163   -10431.508    9936.0282    27211.109    87.557579 
   50400    1634.8543   -109.83768    1.4792505   -108.35843    12749.548    4.4322173    4.4322173    4.4322173    12749.548    4054.8601    3780.7436     30413.04     15607.23   -15347.035   -12712.665    87.068915 
   50500    1563.4379   -109.78409    1.4146315   -108.36946    7762.1676    4.4245046    4.4245046    4.4245046    7762.1676    42327.025   -17364.558   -1675.9645   -9653.2666    1054.0393    39325.145    86.615169 
   50600    1460.6106   -109.70256    1.3215912   -108.38097    16107.515    4.4324821    4.4324821    4.4324821    16107.515    35392.262   -4340.7247    17271.007   -4163.1883   -7137.6459    10864.953    87.084525 
   50700    1824.5197   -110.02596    1.6508638   -108.37509   -2337.7655    4.4429561    4.4429561    4.4429561   -2337.7655       8433.5   -10242.889    -5203.907    11481.536   -11285.065    2123.0363    87.703326 
   50800    1130.0499   -109.40013    1.0224929   -108.37764     97.70496    4.4378963    4.4378963    4.4378963     97.70496    13997.854   -18191.345     4486.605   -11986.122    3312.3632    36001.333     87.40403 
   50900    1793.5628    -109.9848    1.6228533   -108.36195    426.11397    4.4365418    4.4365418    4.4365418    426.11397   -29267.088    14300.601    16244.828    -1378.005   -1793.1223   -14802.086    87.324022 
   51000    1504.7139    -109.7295    1.3614968     -108.368   -9046.0356    4.4333145    4.4333145    4.4333145   -9046.0356   -4289.2544   -363.55659   -22485.296    976.27113    2727.9962    25360.588    87.133592 
   51100    732.50421   -109.05087    0.6627852   -108.38808    14381.302    4.4336544    4.4336544    4.4336544    14381.302   -35046.167    75458.839    2731.2348   -17139.953    6614.1917    4721.2202    87.153636 
   51200    2313.7049   -110.45745    2.0934888   -108.36396   -4095.6366    4.4404454    4.4404454    4.4404454   -4095.6366   -8947.3222   -1094.9883   -2244.5993    -2324.402   -1712.8368   -1704.3425    87.554726 
   51300    1021.7103   -109.30297   0.92446497   -108.37851     15264.82    4.4356755    4.4356755    4.4356755     15264.82    14763.248    44857.003   -13825.791   -1122.6471    944.36172    41890.691    87.272878 
   51400    1857.7557   -110.05445    1.6809364   -108.37351   -19120.059    4.4411243    4.4411243    4.4411243   -19120.059   -47564.999   -6800.8243   -2994.3539   -18304.839    12465.223   -20837.387    87.594892 
   51500    1425.7071   -109.66403    1.2900098   -108.37402    12694.034    4.4315454    4.4315454    4.4315454    12694.034    22651.657    37810.183   -22379.738    1383.2243    -12258.67    38043.418    87.029322 
   51600    1324.3831   -109.58156    1.1983297   -108.38323    1330.3849    4.4323357    4.4323357    4.4323357    1330.3849    25493.877   -345.75366   -21156.969   -13352.046    10450.886    9602.6561     87.07589 
   51700    1368.4085   -109.60693    1.2381648   -108.36876   -9142.5889     4.442736     4.442736     4.442736   -9142.5889   -36572.613    42294.923   -33150.077    9307.3685   -3173.5625   -11033.958    87.690294 
   51800    1804.4219   -109.99521    1.6326789   -108.36253   -8112.9016     4.430342     4.430342     4.430342   -8112.9016     5428.341   -2143.5794   -27623.466   -6139.7362    -19854.35    23034.516    86.958446 
   51900    1276.5413    -109.5378    1.1550414   -108.38275   -6517.6406    4.4282916    4.4282916    4.4282916   -6517.6406   -6419.2134    5018.9008   -18152.609   -24393.413     19291.43   -21342.577    86.837763 
   52000    1749.7386   -109.96657    1.5832003   -108.38337   -16890.072    4.4372637    4.4372637    4.4372637   -16890.072   -24522.203    19871.216   -46019.229    10531.124   -16425.106    3177.0984    87.366658 
   52100    1714.6386   -109.92468     1.551441   -108.37324   -14710.248    4.4547557    4.4547557    4.4547557   -14710.248   -9895.0692   -11691.305   -22544.369   -22068.775    560.82119   -10465.924    88.403952 
   52200    955.04748   -109.23648   0.86414703   -108.37233   -34951.135     4.448457     4.448457     4.448457   -34951.135   -40224.821   -6636.7338   -57991.851   -11131.009   -4922.5926   -18489.181     88.02949 
   52300    1761.2725    -109.9533    1.5936364   -108.35967    35163.273    4.4113684    4.4113684    4.4113684    35163.273    40285.327    80550.475   -15345.983     740.1191   -6077.6527    6649.9228    85.845984 
   52400    1475.5865   -109.71814    1.3351417     -108.383    24581.167    4.4123406    4.4123406    4.4123406    24581.167    7259.1973    29639.629    36844.674   -30377.062   -70.094358    1528.8919    85.902752 
   52500     1297.818   -109.57647     1.174293   -108.40217   -8222.0893    4.4497389    4.4497389    4.4497389   -8222.0893    -7973.407    45033.131   -61725.992   -3663.2038    -1080.175   -6204.9619    88.105613 
   52600    1616.4849   -109.82978    1.4626295   -108.36715   -27179.665    4.4604902    4.4604902    4.4604902   -27179.665    -34417.04   -32636.924    -14485.03   -23862.147     7183.229    12935.979    88.745793 
   52700     1164.966   -109.40689    1.0540857   -108.35281    21627.753    4.4264508    4.4264508    4.4264508    21627.753   -20022.944    25380.964    59525.238   -23836.093   -13057.732    2876.8945    86.729514 
   52800    2180.4888    -110.3084    1.9729521   -108.33545    21015.328    4.4125509    4.4125509    4.4125509    21015.328    14196.691     44730.09    4119.2029    7683.5191   -943.93496     11767.01    85.915039 
   52900    1066.4993   -109.35036   0.96499097   -108.38537    3341.9573    4.4369769    4.4369769    4.4369769    3341.9573   -18884.393   -18579.523    47489.788   -52162.339    3404.7375    9544.0156    87.349714 
   53000    1838.6948   -110.01586    1.6636897   -108.35217   -1752.4176    4.4560781    4.4560781    4.4560781   -1752.4176   -17655.727      28406.7   -16008.226    11303.133   -11554.191    3233.7946    88.482702 
   53100    1223.8847   -109.46358    1.1073966   -108.35618   -8398.7114    4.4385254    4.4385254    4.4385254   -8398.7114   -8220.4098   -12498.228   -4477.4966   -43515.103   -6116.4573    9547.9782    87.441203 
   53200    1356.3449     -109.581    1.2272494   -108.35375    9461.1407    4.4178041    4.4178041    4.4178041    9461.1407    20661.792    1448.4488    6273.1817   -15961.045   -5398.2373    22954.463     86.22225 
   53300    1919.1889   -110.10168    1.7365224   -108.36516   -2975.2554     4.425747     4.425747     4.425747   -2975.2554   -11418.767    27242.129   -24749.128   -7126.4725    -11600.88    3544.2318    86.688153 
   53400    1068.4301   -109.35612   0.96673796   -108.38938   -1231.8012    4.4455666    4.4455666    4.4455666   -1231.8012   -30270.161    14819.894    11754.864   -46807.026   -10114.156   -1989.3621    87.858012 
   53500    1886.3784   -110.07095    1.7068348   -108.36411   -13941.779    4.4542547    4.4542547    4.4542547   -13941.779    7977.6647    2477.0424   -52280.045    9575.7456    1619.2018    20239.926     88.37413 
   53600    1119.7243   -109.37779    1.0131501   -108.36464   -379.22494    4.4383714    4.4383714    4.4383714   -379.22494   -21455.154    16784.382    3533.0967    -50172.44   -15137.657   -1654.0953    87.432104 
   53700    1338.1866   -109.56399    1.2108193   -108.35317     34352.23    4.4328495    4.4328495    4.4328495     34352.23    60523.207    24734.629    17798.855   -20297.047    5222.0134    11385.164     87.10618 
   53800    1402.3067   -109.61627    1.2688365   -108.34743   -8709.3499    4.4509959    4.4509959    4.4509959   -8709.3499    24067.095   -32838.843   -17356.302   -20525.042   -2370.9241    17371.074    88.180302 
   53900    1125.7221   -109.37626    1.0185771   -108.35768   -3851.5859    4.4486228    4.4486228    4.4486228   -3851.5859    9837.1632   -9837.6599   -11554.261   -51063.523   -19009.076   -1722.5027    88.039336 
   54000    2291.7274   -110.40548    2.0736031   -108.33187    6396.3906    4.4389467    4.4389467    4.4389467    6396.3906    25052.046     9648.947   -15511.821    4569.9019   -5238.4656    1557.1048    87.466108 
   54100    720.46095   -109.01813   0.65188821   -108.36624    -1786.356    4.4343866    4.4343866    4.4343866    -1786.356    -14688.25    -38222.25    47551.432    -60813.57   -12525.596    5527.1758    87.196821 
   54200    1919.8952   -110.09712    1.7371615   -108.35995   -7785.2354    4.4454452    4.4454452    4.4454452   -7785.2354   -6878.1257    14850.995   -31328.576    14094.013   -11098.753   -4893.3631    87.850815 
   54300    1548.9982   -109.76086    1.4015661    -108.3593   -12168.842    4.4485356    4.4485356    4.4485356   -12168.842   -14197.981   -23800.379     1491.834   -42239.666    13471.652    19542.055    88.034158 
   54400    1592.3586   -109.79115    1.4407995   -108.35035    16600.031    4.4371998    4.4371998    4.4371998    16600.031   -3596.9488    45233.959    8163.0819   -7087.2213   -16661.179    645.63229    87.362882 
   54500    1863.8985   -110.03632    1.6864945   -108.34983   -8243.3735    4.4481318    4.4481318    4.4481318   -8243.3735   -32480.998   -31368.267    39119.144   -16869.698    8401.2722   -1799.6937    88.010188 
   54600    1062.5878   -109.31308   0.96145176   -108.35163   -5559.9296    4.4476741    4.4476741    4.4476741   -5559.9296   -37772.168   -35422.039    56514.419   -46083.663    -6335.761    -4474.401    87.983019 
   54700    1847.1974   -109.99644     1.671383   -108.32505     21747.74    4.4450695    4.4450695    4.4450695     21747.74     23821.78   -8872.9468    50294.387    6225.3173   -15575.398   -1332.0633    87.828542 
   54800    965.29299   -109.22159   0.87341739   -108.34817   -31836.104    4.4599066    4.4599066    4.4599066   -31836.104   -80807.655   -80355.723    65655.067   -76046.824   -817.23432   -1481.8807     88.71096 
   54900    2145.7013   -110.25642    1.9414756   -108.31494    11356.719    4.4397564    4.4397564    4.4397564    11356.719    1775.7965    39961.043   -7666.6827    22522.963   -9020.0916   -4211.3126     87.51398 
   55000    1318.8458   -109.52766    1.1933194   -108.33434    5736.0168    4.4355038    4.4355038    4.4355038    5736.0168   -18810.162   -12587.835    48606.047   -74466.685   -5154.8231    3407.4433    87.262746 
   55100    2021.6385   -110.15546     1.829221   -108.32624   -25516.354    4.4666899    4.4666899    4.4666899   -25516.354   -27204.946   -13092.245   -36251.871    17947.454    5941.2138    2761.4077    89.116356 
   55200    894.86862   -109.13017   0.80969593   -108.32048   -2821.1171    4.4599088    4.4599088    4.4599088   -2821.1171   -9607.4729   -29949.543    31093.665   -46426.445   -6888.8458    7371.4664    88.711092 
   55300    1964.6772   -110.06826    1.7776812   -108.29058     28140.76    4.4502523    4.4502523    4.4502523     28140.76    28668.258    7679.4305     48074.59    332.24909   -1209.9749   -5927.3665    88.136115 
   55400    904.65096   -109.15505    0.8185472    -108.3365    2465.1409    4.4452077    4.4452077    4.4452077    2465.1409   -42170.489   -45551.731    95117.643   -55822.977    7925.2593    11451.144    87.836735 
   55500    1513.3307    -109.6945    1.3692934   -108.32521    21204.835    4.4323891    4.4323891    4.4323891    21204.835   -2911.9596   -15636.912    82163.375    -7899.949   -14286.167    -4862.918    87.079038 
   55600    1171.7151   -109.41964    1.0601925   -108.35945    24260.322    4.4503062    4.4503062    4.4503062    24260.322   -11178.464     32174.34    51785.091   -18132.922    6646.5946   -19538.904    88.139318 
   55700    1607.5194   -109.79823    1.4545174   -108.34371   -18816.838     4.469489     4.469489     4.469489   -18816.838   -58897.837    -26239.28    28686.604   -8651.5957   -2435.3341     8883.566    89.283993 
   55800    1537.4032   -109.71648    1.3910748   -108.32541   -11224.364     4.455245     4.455245     4.455245   -11224.364   -9326.1851   -13302.004   -11044.901   -9125.2822     3712.207   -2479.4328    88.433088 
   55900    1212.3563   -109.43408    1.0969654   -108.33711   -3090.7274    4.4401815    4.4401815    4.4401815   -3090.7274   -29307.912     9286.061    10749.669   -40187.753    15449.739     -11528.6    87.539117 
   56000    2251.0772   -110.38081     2.036822   -108.34399   -8616.2365    4.4370774    4.4370774    4.4370774   -8616.2365   -24818.615    13423.421   -14453.515    18610.827    17696.594    5320.8843    87.355655 
   56100    1444.4168   -109.67467    1.3069386   -108.36773    8878.4306    4.4367997    4.4367997    4.4367997    8878.4306   -1829.8542    12801.723    15663.423    -47758.22   -1655.6876   -4949.6588    87.339253 
   56200    1835.1973   -110.03762    1.6605251    -108.3771   -19313.938    4.4578874    4.4578874    4.4578874   -19313.938   -2824.4941   -12044.968    -43072.35    15972.067    13000.156     351.1148    88.590527 
   56300     1338.565   -109.56322    1.2111617   -108.35206   -32906.702    4.4612184    4.4612184    4.4612184   -32906.702   -42600.941   -56267.911    148.74624   -40356.119    3060.7184    8238.6008    88.789265 
   56400    1676.0569   -109.84008    1.5165315   -108.32355     18715.43    4.4330572    4.4330572    4.4330572     18715.43    50290.518    20981.288   -15125.516    -7775.697   -14275.758   -11383.777    87.118425 
   56500    1449.7218   -109.65684    1.3117388    -108.3451   -6584.9461     4.440777     4.440777     4.440777   -6584.9461    8819.9646   -29251.237    676.43367   -23811.367     -4079.41    7715.3965    87.574346 
   56600    1306.1239   -109.52933    1.1818083   -108.34752   -12162.155    4.4505207    4.4505207    4.4505207   -12162.155   -36273.415   -35866.576    35653.527   -46045.062   -11217.545    3204.8547    88.152064 
   56700    1881.5117     -110.044    1.7024313   -108.34157    1343.7373    4.4355641    4.4355641    4.4355641    1343.7373   -2569.9112    13673.703   -7072.5799    13278.366   -28698.656   -23402.129    87.266301 
   56800    1144.8626   -109.40314    1.0358958   -108.36724   -13169.254    4.4531326    4.4531326    4.4531326   -13169.254   -45050.701   -52565.779    58108.719   -32893.764    7536.3607    12092.133    88.307357 
   56900    1432.5463    -109.6294     1.296198    -108.3332   -27306.746    4.4675423    4.4675423    4.4675423   -27306.746   -45968.612   -139.16104   -35812.465    13732.055   -22614.093   -13777.393    89.167383 
   57000    1536.3158   -109.71262    1.3900909   -108.32253    57.398213    4.4441683    4.4441683    4.4441683    57.398213     54151.48   -16681.109   -37298.176   -10124.292    5098.0918    7094.8042    87.775135 
   57100    1769.6459   -109.94055    1.6012128   -108.33934    10093.038    4.4351617    4.4351617    4.4351617    10093.038    36829.131   -18050.143    11500.125   -23110.458   -2856.7769   -3101.7269    87.242553 
   57200    1424.2343   -109.65507    1.2886772   -108.36639    7761.4078    4.4457333    4.4457333    4.4457333    7761.4078    25748.579    1320.7327   -3785.0885    16933.648   -13584.683   -20146.591    87.867894 
   57300    1915.3376   -110.09206    1.7330377   -108.35903   -14784.119    4.4645773    4.4645773    4.4645773   -14784.119   -38374.573   -13189.311     7211.526   -23106.497    2449.3829    13110.374    88.989964 
   57400    936.52274   -109.19218   0.84738546   -108.34479   -12693.394    4.4637086    4.4637086    4.4637086   -12693.394   -31539.243     15565.56   -22106.498   -9398.5694   -18695.148   -22776.482    88.938031 
   57500    1724.5568   -109.89286    1.5604152   -108.33244   -2191.6206    4.4406169    4.4406169    4.4406169   -2191.6206   -32318.007    4226.5725    21516.573    13540.695   -14061.621    8166.6525    87.564876 
   57600    1685.2857   -109.86436    1.5248819   -108.33948    23031.427    4.4206828    4.4206828    4.4206828    23031.427   -3240.1252    39324.253    33010.153   -8653.9646   -10101.855   -10470.939    86.390915 
   57700    1072.2915   -109.35424   0.97023192   -108.38401    879.39121    4.4405075    4.4405075    4.4405075    879.39121   -18713.341    42665.658   -21314.144    4208.5453   -18858.269   -22037.096    87.558399 
   57800    2120.2019     -110.271    1.9184032    -108.3526    -41520.56    4.4705061    4.4705061    4.4705061    -41520.56   -58383.662   -41067.904   -25110.114    9888.7292    7394.8704    22501.862    89.344963 
   57900    1120.5241   -109.36106    1.0138738   -108.34719   -27022.805    4.4523923    4.4523923    4.4523923   -27022.805   -52068.064    29034.006   -58034.356   -3780.0632   -32715.867   -18777.985    88.263319 
   58000    1605.5288   -109.79292    1.4527162    -108.3402    26940.703    4.4105682    4.4105682    4.4105682    26940.703    20587.244    40577.538    19657.326    38514.585    4070.9057     9057.084    85.799276 
   58100    1733.6935    -109.9424    1.5686823   -108.37372    16704.621    4.4132843    4.4132843    4.4132843    16704.621    11582.583     47262.71   -8731.4312    5186.0646    -16061.36    10877.397    85.957884 
   58200    1081.1146   -109.38184   0.97821517   -108.40363   -14383.813    4.4571836    4.4571836    4.4571836   -14383.813   -16297.108    33782.994   -60637.324    11491.068   -33887.285    -12744.89    88.548575 
   58300    1549.3399   -109.75672    1.4018753   -108.35484   -7490.0773    4.4669397    4.4669397    4.4669397   -7490.0773    13081.569   -18175.531    -17376.27    33414.104    8962.1781    1256.1495    89.131306 
   58400    1419.5931   -109.62529    1.2844777   -108.34081    29307.647    4.4268188    4.4268188    4.4268188    29307.647    40868.522    51933.022   -4878.6037   -9977.0487   -30938.792    5987.4899    86.751151 
   58500    1413.5833   -109.62436    1.2790399   -108.34532    33172.384    4.4131615    4.4131615    4.4131615    33172.384    45979.312    39333.042      14204.8    38706.567   -953.41199   -8818.7226     85.95071 
   58600    1684.8856   -109.89981    1.5245199   -108.37529    1404.0604    4.4414675    4.4414675    4.4414675    1404.0604   -18403.294    14810.999    7804.4761    4508.8717   -14024.698    2330.7398    87.615203 
   58700    1329.5639    -109.5618    1.2030174   -108.35879   -2699.7013    4.4626721    4.4626721    4.4626721   -2699.7013   -14259.235   -3284.8481    9444.9789   -1185.7161   -26602.774   -1133.1004    88.876089 
   58800    1688.1327   -109.87364    1.5274579   -108.34618     779.8665    4.4429483    4.4429483    4.4429483     779.8665   -29674.505     4007.631    28006.474    31740.725      11570.2   -21931.357    87.702862 
   58900    1335.6662   -109.55851    1.2085388   -108.34997    10091.654    4.4139814    4.4139814    4.4139814    10091.654   -14948.874    41189.013    4034.8224   -12442.405   -9949.6554    16897.815    85.998621 
   59000    1614.3933   -109.84265     1.460737   -108.38191    28107.065    4.4203978    4.4203978    4.4203978    28107.065    20673.853    10705.075    52942.268    716.08328   -17661.516   -7951.6843    86.374206 
   59100    2041.8046   -110.22996    1.8474677    -108.3825   -13330.485     4.451714     4.451714     4.451714   -13330.485   -36470.163   -10062.992    6541.7002    4277.2021    15737.799      -5271.8    88.222989 
   59200    531.25903   -108.87474   0.48069434   -108.39405   -13875.058    4.4475952    4.4475952    4.4475952   -13875.058   -46241.808    42019.087   -37402.452   -10054.592   -10204.487    1412.5168    87.978339 
   59300    2296.6499    -110.4361    2.0780571   -108.35804    17497.628    4.4203191    4.4203191    4.4203191    17497.628    923.89072   -7411.5112    58980.503   -17947.505    -1547.095   -8353.4648     86.36959 
   59400    1417.0204   -109.66651    1.2821499   -108.38436     13360.63    4.4221728    4.4221728    4.4221728     13360.63   -6974.1825    41491.389    5564.6852    5983.6843   -8604.8696    9853.2428    86.478295 
   59500     1283.515   -109.55551    1.1613513   -108.39416   -14737.382    4.4448949    4.4448949    4.4448949   -14737.382   -57697.451    37819.115   -24333.811   -28901.575   -12695.791     1703.951     87.81819 
   59600    1684.1293   -109.88954    1.5238356    -108.3657   -15697.276    4.4552076    4.4552076    4.4552076   -15697.276    -17671.02   -8035.8639   -21384.944    7630.8747    9992.2825   -13525.308    88.430856 
   59700    1134.0592    -109.3983    1.0261206   -108.37218   -10031.707    4.4343333    4.4343333    4.4343333   -10031.707   -20171.655    15675.105   -25598.571    7212.6699   -28109.935      8554.32    87.193679 
   59800    2022.6002   -110.18626    1.8300912   -108.35617    28413.975    4.4049807    4.4049807    4.4049807    28413.975    12032.644    69773.443    3435.8371   -14255.679   -3482.5965   -1480.4254    85.473606 
   59900    1068.5185    -109.3719     0.966818   -108.40509    5042.6457    4.4280954    4.4280954    4.4280954    5042.6457    40252.692   -12674.595    -12450.16    20069.521   -188.47553   -32202.707     86.82622 
   60000    1521.6229    -109.7567    1.3767964    -108.3799   -40801.719    4.4582528    4.4582528    4.4582528   -40801.719   -57201.145   -18838.745   -46365.267   -6243.4683   -18671.432    9262.4115    88.612315 
   60100    2030.4152   -110.18982    1.8371623   -108.35266    -10710.06    4.4418283    4.4418283    4.4418283    -10710.06   -2471.9246   -12493.303   -17164.953   -10527.594    14781.329   -20025.324    87.636556 
   60200    1059.8039   -109.32224   0.95893288    -108.3633   -15270.785    4.4354864    4.4354864    4.4354864   -15270.785     48303.56    -32872.52   -61243.395    13936.205   -24164.658   -4290.5476    87.261717 
   60300    1604.5227   -109.81558    1.4518058   -108.36378    1102.9625    4.4319536    4.4319536    4.4319536    1102.9625   -12039.277     11965.85    3382.3137   -36466.997   -14457.167   -1815.6838    87.053373 
   60400    1846.6992   -110.04432    1.6709322   -108.37339   -6833.8702    4.4347883    4.4347883    4.4347883   -6833.8702    16530.417   -10859.366   -26172.661   -4063.6907    4568.2685   -29123.133    87.220523 
   60500    1392.7977    -109.6403    1.2602327   -108.38007   -41001.787    4.4520923    4.4520923    4.4520923   -41001.787   -39980.141    -48387.88    -34637.34   -1752.9799   -24567.821    10.953487    88.245481 
   60600    1220.1229   -109.48318    1.1039928   -108.37919   -18785.452    4.4450125    4.4450125    4.4450125   -18785.452   -80208.125    8959.6301     14892.14   -39814.578   -15100.503   -10.468037     87.82516 
   60700    2375.5993   -110.50913    2.1494922   -108.35963    8323.5489    4.4315913    4.4315913    4.4315913    8323.5489   -15769.082    24757.123    15982.606    22607.702    10286.579   -4915.5872    87.032028 
   60800    907.56096    -109.2086   0.82118023   -108.38742    -2496.386    4.4363242    4.4363242    4.4363242    -2496.386    -64773.76    12818.414    44466.188   -44951.266   -20334.128     10255.24    87.311173 
   60900    1678.5117    -109.8935    1.5187527   -108.37475   -2389.2078    4.4509652    4.4509652    4.4509652   -2389.2078   -27499.489   -2450.1744     22782.04    10398.746    6237.2022    11642.428    88.178477 
   61000    1569.2802   -109.77023    1.4199177   -108.35031   -19819.445    4.4643264    4.4643264    4.4643264   -19819.445   -25820.242    11536.834   -45174.927   -29609.293    23885.401    5715.7077    88.974966 
   61100     1146.101   -109.37199    1.0370163   -108.33497    3067.1168    4.4540057    4.4540057    4.4540057    3067.1168   -8660.2049    47354.974   -29493.418   -34436.112   -30795.946   -1117.3354    88.359308 
   61200     1882.607   -110.02521    1.7034224   -108.32178    14859.965    4.4361126    4.4361126    4.4361126    14859.965    7071.6287    17983.467    19524.798    9668.9814    7198.4217   -765.43563     87.29868 
   61300    901.52469   -109.17556   0.81571849   -108.35984    13932.514    4.4298092    4.4298092    4.4298092    13932.514    19973.144    12929.876    8894.5235   -37122.254    1643.6766    8623.2065    86.927076 
   61400    1358.7755    -109.6136    1.2294486   -108.38415    6505.6517    4.4480855    4.4480855    4.4480855    6505.6517    59354.931    9379.2259   -49217.202    3341.8843   -46448.048   -6588.5578    88.007438 
   61500    1739.7861   -109.94669     1.574195    -108.3725    468.48455    4.4510388    4.4510388    4.4510388    468.48455    43738.017   -38753.269   -3579.2948   -14347.625   -1372.1576   -3443.6798    88.182853 
   61600    1090.6239   -109.34921   0.98681939   -108.36239    28455.122     4.434056     4.434056     4.434056    28455.122    48782.373    37275.184   -692.19138   -10996.214   -33311.138    9152.4358    87.177321 
   61700    1634.9327   -109.83708    1.4793214   -108.35776   -21823.759    4.4480343    4.4480343    4.4480343   -21823.759   -15057.585   -8013.8817   -42399.811    9096.3465   -8287.0384   -2546.9291    88.004399 
   61800    1536.4982   -109.74504    1.3902559   -108.35478   -10639.173    4.4384995    4.4384995    4.4384995   -10639.173   -36627.977    3979.5884    730.86962   -31552.756    7759.3683    5276.9272    87.439675 
   61900    1650.4168    -109.8452    1.4933318   -108.35187    39785.939    4.4207229    4.4207229    4.4207229    39785.939    25919.689    66969.126    26469.003    7289.0076   -34126.255    8573.0266    86.393264 
   62000    1382.0844   -109.62551     1.250539   -108.37497    3218.1704    4.4560912    4.4560912    4.4560912    3218.1704   -5141.8979    37989.981   -23193.572     -31298.2    10109.735   -3387.0947    88.483486 
   62100    946.77371   -109.20537   0.85666075   -108.34871   -8306.5949    4.4701936    4.4701936    4.4701936   -8306.5949   -46349.672    61707.682   -40277.795   -18915.217   -27160.232    6215.1454    89.326228 
   62200    1766.7564   -109.90843    1.5985983   -108.30984    13986.924    4.4387112    4.4387112    4.4387112    13986.924   -15707.062    38411.021    19256.815    3539.6184    6544.9985   -5716.2237    87.452187 
   62300    1135.4864    -109.3599     1.027412   -108.33248    3045.5508    4.4278084    4.4278084    4.4278084    3045.5508   -41039.408    33849.164    16326.897   -40830.545   -9184.4819   -1886.6111    86.809341 
   62400    1568.1644    -109.7764    1.4189081   -108.35749   -7959.8453    4.4428669    4.4428669    4.4428669   -7959.8453   -56222.537     5723.464    26619.537    38471.569   -21365.729    9434.3142    87.698042 
   62500    1943.1395   -110.12326    1.7581935   -108.36507    3447.4164    4.4415299    4.4415299    4.4415299    3447.4164   -33693.985      10762.5    33273.734   -9468.0202    15681.834    1947.8049    87.618893 
   62600    1178.6396   -109.45851    1.0664579   -108.39205   -20439.127    4.4359782    4.4359782    4.4359782   -20439.127   -55154.655    -4470.111   -1692.6138   -11431.119   -35688.257   -3402.3166    87.290748 
   62700    1035.8315   -109.34095   0.93724209   -108.40371    4492.5858    4.4229907    4.4229907    4.4229907    4492.5858   -39049.194    31929.659    20597.293    47554.447   -4682.5085   -1214.5678    86.526289 
   62800    2155.2783   -110.34456    1.9501411   -108.39442    13685.683    4.4265241    4.4265241    4.4265241    13685.683   -2891.8932    45933.669   -1984.7263   -8965.6359    2125.8068    28034.068    86.733825 
   62900    1042.5872   -109.35604   0.94335484   -108.41268    5897.0606    4.4381352    4.4381352    4.4381352    5897.0606   -46160.158    34686.097    29165.243    42039.487   -19477.791   -1115.8484    87.418147 
   63000    1400.8324   -109.65467    1.2675026   -108.38717    11741.409    4.4400136    4.4400136    4.4400136    11741.409   -20430.243    14371.104    41283.367    13882.314    6650.4035    11801.476    87.529188 
   63100    1705.2047   -109.90861     1.542905   -108.36571   -2318.3416    4.4445441    4.4445441    4.4445441   -2318.3416   -29817.459    4465.2679    18397.167   -4778.0365   -5728.7506    9970.8253    87.797403 
   63200    1167.9859   -109.42103    1.0568182   -108.36421   -25115.681    4.4506653    4.4506653    4.4506653   -25115.681    -35766.03   -30773.954   -8807.0579    47702.414   -1948.2695   -12835.449    88.160655 
   63300    2054.2266   -110.20289    1.8587074   -108.34418   -8271.7016    4.4439715    4.4439715    4.4439715   -8271.7016    11376.898   -7328.5406   -28863.462   -17843.369    12246.825   -2419.6516    87.763469 
   63400    1290.8332   -109.52965     1.167973   -108.36168   -10341.086    4.4353524    4.4353524    4.4353524   -10341.086   -28394.683   -25148.159    22519.585    13103.119   -9751.9205   -5127.0834    87.253806 
   63500     1347.344   -109.58481    1.2191051   -108.36571    41.923275    4.4333663    4.4333663    4.4333663    41.923275    33058.761   -27288.276   -5644.7151    18820.704   -15351.791    2416.5903    87.136648 
   63600    1696.8894   -109.90996    1.5353812   -108.37457    4895.0456     4.437472     4.437472     4.437472    4895.0456    6005.6786    2528.4552    6151.0029   -5992.8612    14778.822    6901.2845    87.378962 
   63700      1572.02   -109.80178    1.4223968   -108.37938   -15813.081    4.4452305    4.4452305    4.4452305   -15813.081   -54528.546   -22645.461    29734.763    10522.809   -13302.759    3153.6574    87.838086 
   63800    1485.4873   -109.70894    1.3441001   -108.36484   -12845.788    4.4434861    4.4434861    4.4434861   -12845.788    36507.164   -19769.099    -55275.43   -5860.0233   -2443.6476   -11998.754    87.734717 
   63900    1348.5831   -109.57839    1.2202263   -108.35816   -10349.112    4.4390044    4.4390044    4.4390044   -10349.112     10026.85   -29678.789   -11395.396    6638.9616    513.16223    1136.2533    87.469515 
   64000    1790.8394   -109.97097    1.6203891   -108.35058    -3154.957    4.4384788    4.4384788    4.4384788    -3154.957    21133.399   -17667.961   -12930.308    5767.1211   -5006.3271   -2993.7607    87.438451 
   64100    1469.5313   -109.68841    1.3296628   -108.35875   -11565.765    4.4526871    4.4526871    4.4526871   -11565.765    21511.691    -44397.08   -11811.906    2228.2163    14288.935   -6985.5236    88.280855 
   64200    1038.4459   -109.30328   0.93960772   -108.36367   -13111.801    4.4437343    4.4437343    4.4437343   -13111.801   -65496.309   -50943.498    77104.403    26708.666   -4235.2079    1368.5846    87.749419 
   64300    1382.8666   -109.60335    1.2512468    -108.3521    15903.804    4.4173132    4.4173132    4.4173132    15903.804    17735.847   -2427.0114    32402.576   -16523.531   -6536.9157   -31491.033    86.193511 
   64400    1866.7965   -110.06223    1.6891167   -108.37312   -13968.944    4.4408367    4.4408367    4.4408367   -13968.944   -21545.306   -42999.306     22637.78    29972.747    4360.1514    599.13775    87.577875 
   64500    1214.8723     -109.464     1.099242   -108.36476   -31386.092    4.4569126    4.4569126    4.4569126   -31386.092   -36593.945   -66337.671    8773.3411    19683.594    2701.4205   -9762.4614    88.532422 
   64600    1970.4234   -110.11079    1.7828805   -108.32791    3810.4042    4.4451166    4.4451166    4.4451166    3810.4042    21531.885    8512.8165   -18613.489    1017.8827    2373.5603   -5708.9529     87.83133 
   64700    1161.7507   -109.38652    1.0511764   -108.33534   -21141.994    4.4598254    4.4598254    4.4598254   -21141.994   -57777.119   -15472.937    9824.0722    39855.297    10982.738   -15066.878    88.706118 
   64800    1241.1839   -109.44337    1.1230493   -108.32032    8431.2413    4.4505875    4.4505875    4.4505875    8431.2413   -7539.8501    20935.669    11897.905   -21699.989   -8245.0757   -47260.954    88.156034 
   64900    1761.7408   -109.90908    1.5940601   -108.31502    15772.942    4.4422367    4.4422367    4.4422367    15772.942    16298.372    11513.951    19506.505    30108.626   -2304.7033    5242.9816    87.660728 
   65000    1002.7532   -109.25421   0.90731217   -108.34689   -31473.411    4.4485425    4.4485425    4.4485425   -31473.411   -25547.327   -45598.213   -23274.692    3756.6542   -6455.7293   -39747.114    88.034566 
   65100    1856.9887   -110.01509    1.6802424   -108.33485    4078.5781    4.4357837    4.4357837    4.4357837    4078.5781    870.05172    22036.415   -10670.733   -13903.378   -1963.1827    6306.0791    87.279268 
   65200    1806.3677   -109.98659    1.6344394   -108.35215   -16245.965    4.4466218    4.4466218    4.4466218   -16245.965    7677.4107   -44334.636    -12080.67    11397.357   -4367.3481    2360.2647    87.920589 
   65300    932.51813   -109.21116     0.843762    -108.3674   -7516.7781    4.4420716    4.4420716    4.4420716   -7516.7781    19181.449   -24273.292   -17458.492   -15630.854    4350.6797   -42386.454    87.650955 
   65400    1827.7839   -110.00068    1.6538173   -108.34686    18606.094    4.4258116    4.4258116    4.4258116    18606.094    8944.4431    26298.839    20574.999    6140.8455    26467.284    40649.145    86.691947 
   65500    1289.8659   -109.53941    1.1670978   -108.37232   -9244.4079    4.4489864    4.4489864    4.4489864   -9244.4079    5774.8274   -61455.885    27947.834    888.82011    4309.3345   -53971.473    88.060923 
   65600    1618.4458   -109.80276    1.4644037   -108.33836   -13514.195    4.4691183    4.4691183    4.4691183   -13514.195   -36419.754   -20217.365    16094.533    7227.7013    12263.625   -194.49744    89.261782 
   65700     939.6673   -109.17737   0.85023072   -108.32713    298.49369    4.4576272    4.4576272    4.4576272    298.49369     6306.974   -29883.255    24471.762   -5519.9036   -8380.8513   -9803.5906    88.575014 
   65800    1248.6041   -109.45428    1.1297633   -108.32451    27469.005    4.4356598    4.4356598    4.4356598    27469.005    10017.287    34766.934    37622.793   -7702.4633   -9253.3536   -55527.327    87.271953 
   65900      1869.65   -110.01511    1.6916986   -108.32341    8519.3735     4.439465     4.439465     4.439465    8519.3735    1789.6204     41913.47    -18144.97   -709.80293      12723.1    13708.391    87.496746 
   66000    833.73137   -109.11399   0.75437767   -108.35961   -9099.5152    4.4484147    4.4484147    4.4484147   -9099.5152    11861.105    22836.406   -61996.057   -3918.7328    5974.0343   -49135.877    88.026978 
   66100    2260.4393    -110.3997     2.045293   -108.35441    -6479.972    4.4525387    4.4525387    4.4525387    -6479.972   -29945.238     24680.25   -14174.928   -901.15519    2954.1767    15140.038    88.272031 
   66200    1599.5518   -109.81236    1.4473081   -108.36505   -19929.032    4.4405916    4.4405916    4.4405916   -19929.032    11692.305    -12786.93   -58692.471    3875.2619    4925.8688   -45431.016    87.563378 
   66300    1273.4259    -109.5207    1.1522225   -108.36848     20242.09    4.4255098    4.4255098    4.4255098     20242.09    33295.047    21849.139    5582.0831   -5643.0685    5324.7432   -3748.6555    86.674214 
   66400    1779.0846   -109.97831    1.6097532   -108.36856   -21157.491    4.4399429    4.4399429    4.4399429   -21157.491   -46354.088   -4449.9811   -12668.405    12127.629   -13657.585    6168.5802    87.525007 
   66500    1558.7418   -109.77592    1.4103824   -108.36554   -7990.9363    4.4410002    4.4410002    4.4410002   -7990.9363   -9570.1833    -26928.71    12526.084   -1144.2949    6661.6933   -43412.197    87.587548 
   66600    1660.4246   -109.86779    1.5023871    -108.3654    -9635.781     4.430705     4.430705     4.430705    -9635.781   -34018.282    12531.982    -7421.043     -1158.76    4120.5107    30147.498    86.979822 
   66700    1474.5563   -109.71097    1.3342095   -108.37676    976.52162    4.4239402    4.4239402    4.4239402    976.52162   -26356.244   -2830.9028    32116.712    24910.509   -9557.6774   -8050.8811    86.582027 
   66800    1700.5083   -109.91418    1.5386556   -108.37553     30753.26    4.4189543    4.4189543    4.4189543     30753.26    19696.703    42575.981    29987.096   -6979.7313     30868.82   -8082.1159    86.289614 
   66900    904.25113    -109.2219   0.81818542   -108.40371     13794.69    4.4390497    4.4390497    4.4390497     13794.69   -17201.719    51128.822    7456.9684    17085.726    2136.9046    17666.647    87.472193 
   67000    1875.9164   -110.06698    1.6973686   -108.36961    -14135.81    4.4512579    4.4512579    4.4512579    -14135.81   -47103.055    -325.8183    5021.4434    14260.264    56.747411    220.93617    88.195872 
   67100    1761.3197   -109.94975    1.5936791   -108.35607    9809.8951    4.4256788    4.4256788    4.4256788    9809.8951   -4085.1082    45709.242   -12194.448   -7844.1266    28913.341    684.41349    86.684143 
   67200    1052.2968   -109.32589   0.95214026   -108.37375    3321.1713    4.4244277    4.4244277    4.4244277    3321.1713   -4553.8816   -8272.8012    22790.197    33843.034    -14425.52    12344.996    86.610652 
   67300    1995.1084   -110.17236     1.805216   -108.36714   -6551.3731    4.4245763    4.4245763    4.4245763   -6551.3731   -18504.685    19966.758   -21116.193    -855.2333    14161.173    7279.7206     86.61938 
   67400    1053.6207   -109.34738   0.95333817   -108.39405   -2951.4016    4.4366807    4.4366807    4.4366807   -2951.4016   -13.096219   -14886.669    6045.5604    20396.472    17763.823   -13257.768    87.332227 
   67500      1570.28   -109.79311    1.4208224   -108.37229   -20892.591    4.4512654    4.4512654    4.4512654   -20892.591   -41799.147   -25044.252    4165.6263    22473.581   -25607.231     5248.781    88.196322 
   67600    1499.9459   -109.72751    1.3571826   -108.37033   -5191.2527     4.421667     4.421667     4.421667   -5191.2527   -20320.164    46510.392   -41763.986     -4988.52   -2014.1648   -7462.8176    86.448624 
   67700    1132.9633   -109.40453     1.025129    -108.3794    16242.908    4.4181905    4.4181905    4.4181905    16242.908     18528.57    5669.8683    24530.287    37256.365    21780.272    -13766.58    86.244879 
   67800    1856.6537   -110.05423    1.6799393   -108.37429    -19676.63     4.436881     4.436881     4.436881    -19676.63   -36173.613    11357.597   -34213.873    5723.8613    -49706.64    13626.055    87.344051 
   67900    1165.8343   -109.43518    1.0548714    -108.3803    342.55973     4.440896     4.440896     4.440896    342.55973    -2169.456    10193.828   -6996.6931    1458.2202    10028.123   -21533.113    87.581385 
   68000    1554.7124   -109.77239    1.4067364   -108.36565   -13254.967    4.4463806    4.4463806    4.4463806   -13254.967   -4841.7326   -10661.974   -24261.193    20759.101    1587.8823    4591.7362     87.90628 
   68100     1826.544   -110.01451    1.6526954   -108.36182    8544.9205    4.4230698    4.4230698    4.4230698    8544.9205    17148.872    24229.974   -15744.085   -5700.1123   -43437.346    17886.614    86.530933 
   68200    1094.2643   -109.36802   0.99011331    -108.3779    22903.444     4.413668     4.413668     4.413668    22903.444    22066.726    2310.1677    44333.437    20919.628    37809.602   -20614.045    85.980306 
   68300    1824.5032   -110.03049    1.6508488   -108.37964   -7692.5941    4.4397895    4.4397895    4.4397895   -7692.5941    14058.711   -13606.703   -23529.789    10279.269   -21624.559    19398.998    87.515937 
   68400    1577.4927   -109.79391    1.4273485   -108.36656    11377.192    4.4469472    4.4469472    4.4469472    11377.192    27921.092   -6646.8366     12857.32    5859.3246    5614.8539   -10273.387    87.939893 
   68500    841.10286   -109.13027   0.76104754   -108.36922   -10668.149    4.4469304    4.4469304    4.4469304   -10668.149   -28012.598    -13169.13    9177.2818    11968.119    17441.024   -1520.1651    87.938891 
   68600    2324.4382   -110.44757    2.1032005   -108.34437    12703.052    4.4275348    4.4275348    4.4275348    12703.052    31389.874   -13282.501    20001.784   -16246.884   -17427.855    12387.361    86.793251 
   68700    924.79808   -109.21672   0.83677674   -108.37994    17137.748    4.4244575    4.4244575    4.4244575    17137.748   -11788.912   -1662.6015    64864.757    40714.006    27957.737   -23910.597    86.612401 
   68800     1945.328   -110.12485    1.7601737   -108.36467    -15393.64    4.4489152    4.4489152    4.4489152    -15393.64   -31624.056   -16502.424    1945.5594   -15199.275   -7579.4571      11306.7    88.056696 
   68900    1677.0355   -109.88291     1.517417   -108.36549    8854.0239    4.4351042    4.4351042    4.4351042    8854.0239   -14103.559   -6221.9093    46887.539    16023.803    -6037.946   -18410.697    87.239164 
   69000    706.29487   -109.03097   0.63907044    -108.3919    5480.1617     4.421757     4.421757     4.421757    5480.1617   -35528.266    14823.974    37144.777    36471.031    23652.171   -20018.132    86.453908 
   69100    2428.1032   -110.56977    2.1969988   -108.37277    5657.0153    4.4291315    4.4291315    4.4291315    5657.0153   -1539.7544    14236.312    4274.4885   -6786.0046    3776.4709    10302.891    86.887187 
   69200    865.93526   -109.18593   0.78351642   -108.40241    18054.405     4.444689     4.444689     4.444689    18054.405    5262.4629    39701.934    9198.8168     29670.33    5734.3274   -18477.677    87.805986 
   69300    1786.3461   -109.97692    1.6163235    -108.3606   -22501.844    4.4656646    4.4656646    4.4656646   -22501.844   -7494.3303   -19589.618   -40421.585    11941.403    17919.305   -3575.7218       89.055 
   69400    1841.6485   -110.01701    1.6663623   -108.35065   -732.30318    4.4347837    4.4347837    4.4347837   -732.30318    2189.9822     1592.217   -5979.1088   -1135.9266    1715.6948    3298.3832     87.22025 
   69500     1066.257   -109.31487   0.96477178    -108.3501    32600.868    4.4068223    4.4068223    4.4068223    32600.868    76859.673    17447.453    3495.4772    43645.508    9945.5933   -24095.924    85.580853 
   69600     1865.823   -110.05277    1.6882359   -108.36454     10139.38    4.4298429    4.4298429    4.4298429     10139.38    18064.451    30865.998   -18512.309   -28527.983    15271.802    7198.9127    86.929058 
   69700    1345.0292   -109.59419    1.2170107   -108.37718    2300.0302    4.4498671    4.4498671    4.4498671    2300.0302    25558.728   -20805.392    2146.7542    19837.836    4219.0415    -9509.182    88.113232 
   69800    1978.6075    -110.1395    1.7902856   -108.34921   -13024.688    4.4582207    4.4582207    4.4582207   -13024.688   -19435.328    19264.506   -38903.243    8018.7085    13150.724    5431.0661    88.610396 
   69900    1263.7226   -109.48846    1.1434428   -108.34502   -8274.6859    4.4484853    4.4484853    4.4484853   -8274.6859    12770.509   -9830.3046   -27764.262   -23155.251   -6502.3374    13629.347    88.031174 
   70000    1693.0536   -109.87105    1.5319105   -108.33914    17813.216    4.4242048    4.4242048    4.4242048    17813.216    3075.0696     33389.22    16975.358    31132.519    8167.7223   -25641.195    86.597561 
   70100    1665.1509   -109.86294    1.5066635   -108.35628     27125.94    4.4152827    4.4152827    4.4152827     27125.94    11246.377    63300.462    6830.9802    -42364.81     6388.004    28580.464    86.074705 
   70200    1279.1154   -109.54824    1.1573705   -108.39087     3643.714    4.4349248    4.4349248    4.4349248     3643.714    31047.556    6250.0376   -26366.452   -1946.4039   -4297.2258   -11202.101    87.228576 
   70300    2019.7838   -110.19078    1.8275429   -108.36324    19060.461    4.4457902    4.4457902    4.4457902    19060.461   -13851.363    69481.165    1551.5804   -1120.8685    5962.9658   -8293.7702    87.871269 
   70400    691.82765   -109.00489    0.6259802   -108.37891   -6953.6826     4.441436     4.441436     4.441436   -6953.6826    35557.467   -59603.359    3184.8437   -41720.206   -4529.9508    11953.446    87.613336 
   70500    2014.8864    -110.1789    1.8231116   -108.35579    11563.337    4.4251894    4.4251894    4.4251894    11563.337    43054.316    15421.514    -23785.82    17788.666   -12869.378   -21989.467    86.655392 
   70600    1301.5098   -109.54846    1.1776334   -108.37083    15407.563    4.4258566    4.4258566    4.4258566    15407.563    37939.408    3375.6745    4907.6071   -41615.412   -4262.8773    12943.794    86.694592 
   70700    1346.2917   -109.59045    1.2181531    -108.3723   -21113.346    4.4498905    4.4498905    4.4498905   -21113.346    25414.471   -51015.073   -37739.436    6367.2749    176.11893   -2386.1766    88.114618 
   70800    1958.4775   -110.11545    1.7720716   -108.34338   -22242.391    4.4504104    4.4504104    4.4504104   -22242.391   -35257.918   -14131.886   -17337.369   -26038.563   -9916.8341   -4592.1907    88.145511 
   70900    811.80597   -109.08812   0.73453911   -108.35358    4885.0719    4.4365258    4.4365258    4.4365258    4885.0719   -3587.2536   -1322.9712     19565.44   -36700.096   -2749.5937    16055.106    87.323079 
   71000    2143.4567   -110.27244    1.9394447   -108.33299    14840.277    4.4298453    4.4298453    4.4298453    14840.277    15626.228    12651.568    16243.036    10998.087    12471.655    5612.8973    86.929199 
   71100    987.60558   -109.26327   0.89360628   -108.36966    -5642.517    4.4451289    4.4451289    4.4451289    -5642.517   -46843.926    25045.956    4870.4196   -71561.569   -4514.9882   -5754.8002    87.832064 
   71200    2115.7946   -110.25893    1.9144155   -108.34452   -8793.3292     4.445955     4.445955     4.445955   -8793.3292   -297.61386    1470.0604   -27552.434    22741.152   -10220.363     13116.71    87.881042 
   71300     859.2699   -109.13314   0.77748546   -108.35566    16335.858    4.4407679    4.4407679    4.4407679    16335.858   -63511.316    24408.816    88110.073   -66691.185   -4278.6552    -2639.661    87.573803 
   71400    2029.9448   -110.17094    1.8367367    -108.3342   -12543.443    4.4494063    4.4494063    4.4494063   -12543.443    -24488.79   -5483.8723   -7657.6673    15779.162   -13464.502    13328.559    88.085857 
   71500    980.94895   -109.23326   0.88758322   -108.34568    13839.009    4.4296541    4.4296541    4.4296541    13839.009   -25039.569    60454.088     6102.508   -52468.883    355.30237    24882.365    86.917943 
   71600    1979.0439     -110.152    1.7906805   -108.36132   -8717.3385    4.4361656    4.4361656    4.4361656   -8717.3385   -27857.508   -4089.0991    5794.5914   -16750.244    8253.7825   -223.15527    87.301809 
   71700    1395.1669   -109.62299    1.2623763   -108.36062     4380.624    4.4460002    4.4460002    4.4460002     4380.624   -25901.982    24856.769    14187.085    -11545.08   -4320.8986    5022.4148    87.883719 
   71800    949.90965   -109.22197   0.85949821   -108.36247    13218.102    4.4435052    4.4435052    4.4435052    13218.102    11391.645   -7745.0132    36007.676   -52437.351   -9810.4657    10749.624    87.735847 
   71900    2050.4344   -110.19048    1.8552761   -108.33521    4154.3255    4.4521933    4.4521933    4.4521933    4154.3255    19649.916    19411.271   -26598.211    9002.4854    1985.4273   -18466.662    88.251489 
   72000    883.90166   -109.14943   0.79977279   -108.34966    15076.357    4.4402262    4.4402262    4.4402262    15076.357    45377.905   -12697.435    12548.601   -70885.042   -6452.9498    7906.3508    87.541764 
   72100    1835.2393     -109.996    1.6605631   -108.33544    24821.957    4.4418411    4.4418411    4.4418411    24821.957    75549.998    10414.602    -11498.73    14990.353    5249.4799    7915.6483    87.637311 
   72200    1146.1861    -109.3848    1.0370933   -108.34771    -6832.427    4.4464803    4.4464803    4.4464803    -6832.427   -496.55276   -58203.521    38202.793   -58295.205    18803.337    -7545.859    87.912192 
   72300    1493.5599   -109.68503    1.3514044   -108.33363    13844.082    4.4370494    4.4370494    4.4370494    13844.082    56717.597   -2483.6932   -12701.657    1612.7158   -5270.3777    32663.287    87.353997 
   72400    1651.6579   -109.83391    1.4944548   -108.33946   -33651.138    4.4539188    4.4539188    4.4539188   -33651.138   -42692.609   -46882.937   -11377.867   -39860.779   -6533.9636   -11684.948    88.354137 
   72500    1392.2334   -109.60284    1.2597221   -108.34312   -16936.769    4.4381582    4.4381582    4.4381582   -16936.769   -14854.097   -52456.633    16500.423   -47535.037   -3483.8089      11751.1    87.419504 
   72600    1877.3555   -110.03581    1.6986707   -108.33714     7219.502    4.4277134    4.4277134    4.4277134     7219.502     21175.93   -7681.8774    8164.4532    13501.707   -21052.487    10256.947    86.803752 
   72700    1018.0717   -109.27174   0.92117271   -108.35056   -33800.852    4.4617631    4.4617631    4.4617631   -33800.852   -80290.687   -61021.233    39909.363   -57683.173   -3201.9247    1563.1051    88.821788 
   72800    1756.8166   -109.89736    1.5896046   -108.30776   -650.96681     4.453151     4.453151     4.453151   -650.96681    7272.7032   -2114.5038   -7111.0999    15975.858    2685.7853    40161.349    88.308449 
   72900    1388.9877   -109.57602    1.2567853   -108.31923    991.47932    4.4373448    4.4373448    4.4373448    991.47932   -30939.132   -3943.1764    37856.746   -47982.364    1726.0022   -2834.4018    87.371445 
   73000    2188.8569   -110.30187    1.9805238   -108.32135   -12493.926     4.442473     4.442473     4.442473   -12493.926    -19528.89    15474.687   -33427.574    8383.7114    3518.8757    15574.847    87.674719 
   73100    876.79642    -109.1396   0.79334383   -108.34626    21417.401     4.450444     4.450444     4.450444    21417.401   -9454.1815     22792.82    50913.565   -52223.014    1095.9521    4225.4441    88.147508 
   73200    1650.8057    -109.8099    1.4936837   -108.31622   -4632.9391    4.4700073    4.4700073    4.4700073   -4632.9391   -4245.0899   -14765.204    5111.4762   -223.90728   -29452.466   -17740.858    89.315062 
   73300    1114.6973   -109.32469    1.0086016   -108.31609    7563.1148    4.4471869    4.4471869    4.4471869    7563.1148    3764.3924   -17126.611    36051.563   -32024.126   -2651.9973    10234.465     87.95411 
   73400    1622.0062   -109.78026    1.4676253   -108.31263     23852.21    4.4291296    4.4291296    4.4291296     23852.21    30105.135   -11374.169    52825.665   -25743.831   -4442.1701    11334.968    86.887075 
   73500    2181.7147    -110.3012    1.9740613   -108.32714   -36446.762    4.4592564    4.4592564    4.4592564   -36446.762   -46970.655   -47291.091   -15078.539    2160.4582    4637.5903    12326.572    88.672167 
   73600    793.70417   -109.04111   0.71816021   -108.32295   -14517.801    4.4696649    4.4696649    4.4696649   -14517.801   -21013.851   -49077.902    26538.351   -58688.332    4911.9408    19337.723    89.294538 
   73700    2065.4391   -110.15964    1.8688527   -108.29079    11355.293    4.4507386    4.4507386    4.4507386    11355.293    26469.291    -24538.39    32134.979    12687.315   -30680.203   -4544.7971     88.16501 
   73800    443.23306   -108.73433   0.40104659   -108.33329   -2224.2534    4.4412507    4.4412507    4.4412507   -2224.2534   -16159.075   -76330.583    85816.897   -63247.825   -7427.7799    403.17993     87.60237 
   73900    2182.1705   -110.29195    1.9744737   -108.31748    6413.4595    4.4348811    4.4348811    4.4348811    6413.4595    14710.293   -239.72055    4769.8065    10038.323    10847.908    13732.688    87.225996 
   74000    1296.7255   -109.52445    1.1733045   -108.35114   -21685.403    4.4577222    4.4577222    4.4577222   -21685.403    -37193.05   -54961.078    27097.919   -49579.486    5780.6925   -10222.066    88.580679 
   74100    1970.0517   -110.10692    1.7825442   -108.32438   -30719.953    4.4635001    4.4635001    4.4635001   -30719.953   -46832.788    -34463.96   -10863.111    3068.0019    4450.3308    2276.8778    88.925568 
   74200    1502.5097   -109.67623    1.3595023   -108.31672    7884.1738    4.4319713    4.4319713    4.4319713    7884.1738   -35372.231    7958.4766    51066.276    -33858.93    7378.5132   -4111.0055     87.05442 
   74300    1135.1176   -109.36196    1.0270783   -108.33488    11931.676    4.4251975    4.4251975    4.4251975    11931.676    1621.8731   -30339.473    64512.628   -27063.732   -9849.6002    2269.3609    86.655865 
   74400    1855.9678   -110.02098    1.6793187   -108.34166    30301.297    4.4402356    4.4402356    4.4402356    30301.297    19441.531    23323.234    48139.128    7046.8631   -21671.339    2611.9512    87.542321 
   74500    710.71957   -109.01245     0.643074   -108.36938   -769.54493    4.4684464    4.4684464    4.4684464   -769.54493   -22629.465   -64294.491    84615.321   -45250.287   -3830.5429    6561.5968    89.221529 
   74600    1968.2101   -110.08048    1.7808779    -108.2996   -33968.101    4.4742981    4.4742981    4.4742981   -33968.101    -41892.94     -23376.6   -36634.763    25353.523    692.88059    4603.3481     89.57251 
   74700    1490.7794   -109.64236    1.3488885   -108.29347   -6177.1313    4.4433027    4.4433027    4.4433027   -6177.1313   -32439.557   -18571.384    32479.547   -56973.769   -2913.6151    15970.563    87.723853 
   74800    2169.4607   -110.26388    1.9629736   -108.30091    18013.877    4.4152202    4.4152202    4.4152202    18013.877   -7615.1982    29191.719    32465.109    34104.092    12629.603   -275.47091    86.071052 
   74900    841.58325   -109.13472   0.76148221   -108.37323    7768.8821    4.4273029    4.4273029    4.4273029    7768.8821    2593.9579   -31136.674    51849.363   -50176.727   -15804.464   -11995.368    86.779613 
   75000    1587.8143   -109.80863    1.4366878   -108.37195   -24074.507    4.4562092    4.4562092    4.4562092   -24074.507   -8058.1285    -57966.72   -6198.6733    -15151.44    -7008.187   -1238.2714    88.490514 
   75100    1390.9291   -109.61335    1.2585418   -108.35481    4369.6613    4.4486283    4.4486283    4.4486283    4369.6613    19156.899   -37838.547    31790.632   -11311.841   -5295.4277    1068.2068    88.039663 
   75200     1297.562   -109.51682    1.1740614   -108.34276    2837.6927    4.4347668    4.4347668    4.4347668    2837.6927    -7878.649   -33762.329    50154.056   -44889.348   -14173.784    891.69595    87.219255 
   75300    1938.9822   -110.07997    1.7544318   -108.32554    4861.3066    4.4354796    4.4354796    4.4354796    4861.3066    54786.751   -30103.182   -10099.649    18462.855    12221.354    21710.003    87.261315 
   75400    1118.6841   -109.35527    1.0122089   -108.34306    484.63783    4.4423176    4.4423176    4.4423176    484.63783   -9559.5724   -40873.531    51887.017     -69767.9     -5179.35   -8958.9271     87.66552 
   75500    2114.2531   -110.23766    1.9130206   -108.32464    15987.652    4.4457293    4.4457293    4.4457293    15987.652    43316.355    428.94714    4217.6537    23335.484     585.3247     10881.96    87.867655 
   75600    973.15138   -109.23365   0.88052782   -108.35312    1732.9774    4.4336579    4.4336579    4.4336579    1732.9774    15830.609   -16851.818    6220.1417   -62405.224    12935.883     11937.09    87.153845 
   75700    1741.1535   -109.92746    1.5754322   -108.35203    35401.137    4.4274821    4.4274821    4.4274821    35401.137    33204.962     39162.18    33836.269   -12870.468   -10329.275   -12053.506     86.79015 
   75800    1165.9076   -109.43121    1.0549377   -108.37628    4704.9894    4.4432283    4.4432283    4.4432283    4704.9894    6618.0532   -16916.354    24413.269   -21003.121    11061.209    10280.087    87.719445 
   75900    1289.1052   -109.53265    1.1664095   -108.36624   -25043.673    4.4496303    4.4496303    4.4496303   -25043.673   -40792.973   -33391.726   -946.31859     -42169.7    7486.5996    3461.8862    88.099164 
   76000    2298.4977   -110.41793     2.079729    -108.3382    11185.238    4.4292736    4.4292736    4.4292736    11185.238    31903.564    8140.9673   -6488.8166    14776.397   -2990.6543   -8243.3172    86.895545 
   76100    697.73203   -108.99945    0.6313226   -108.36813    6868.3009    4.4297001    4.4297001    4.4297001    6868.3009    8092.4611   -38176.601    50689.042   -66531.271    14419.638     17594.03     86.92065 
   76200    2521.1944   -110.62055    2.2812297   -108.33932   -4002.1668    4.4508078    4.4508078    4.4508078   -4002.1668    2992.4118   -8734.9757   -6263.9366    31483.354   -15624.736   -19029.469     88.16912 
   76300    610.14744   -108.89591   0.55207423   -108.34384   -35822.684    4.4687011    4.4687011    4.4687011   -35822.684   -63215.969   -49658.417     5406.335    -47677.73    13665.941    21384.043    89.236784 
   76400     2357.375   -110.43033    2.1330024   -108.29733    -17406.36    4.4501639    4.4501639    4.4501639    -17406.36   -20877.358    -5257.383   -26084.339    8666.1903    1210.7616    6155.1935     88.13086 
   76500    1466.6601   -109.64049    1.3270649   -108.31342   -11028.356    4.4307193    4.4307193    4.4307193   -11028.356    -44677.76    -4878.074    16470.767   -47869.275    8160.1984    7750.6784     86.98066 
   76600    1258.5359   -109.48163    1.1387498   -108.34288   -7548.3374    4.4302706    4.4302706    4.4302706   -7548.3374   -14941.711   -10272.313     2569.012   -19269.022    10939.684    17344.226    86.954238 
   76700    1896.3101   -110.06608    1.7158212   -108.35026   -11152.857    4.4390264    4.4390264    4.4390264   -11152.857   -27683.571    4923.1034   -10698.103    6052.0765   -10708.777    -12454.72    87.470817 
   76800    1102.4981   -109.36677   0.99756341   -108.36921   -14039.874    4.4422009    4.4422009    4.4422009   -14039.874   -50925.812    15903.062   -7096.8724   -51150.604    11962.016    7735.1328     87.65861 
   76900    1910.2629   -110.08562    1.7284461   -108.35717    8910.5173    4.4198339    4.4198339    4.4198339    8910.5173    50075.366     16780.15   -40123.964    21726.724   -1308.3556    11631.847    86.341155 
   77000    947.37507   -109.24234   0.85720487   -108.38513    10535.487    4.4287348    4.4287348    4.4287348    10535.487   -21859.055    39602.663    13862.853   -32791.465     -7959.32   -17453.545    86.863839 
   77100    2014.0969   -110.19528    1.8223972   -108.37288   -12801.593    4.4371437    4.4371437    4.4371437   -12801.593   -16343.982   -18380.039    -3680.757   -25255.811    5254.6031    5224.2711    87.359569 
   77200    1214.1814   -109.47712    1.0986168    -108.3785    36347.849    4.4178495    4.4178495    4.4178495    36347.849    34222.005    80738.052   -5916.5097    14618.831   -7912.7588    1849.4152    86.224913 
   77300    1462.7051   -109.71057    1.3234863   -108.38708   -9676.0948    4.4375814    4.4375814    4.4375814   -9676.0948   -20154.834   -3485.4546   -5387.9962   -23620.927     1247.706   -12758.439    87.385425 
   77400    1694.0201   -109.90087    1.5327849   -108.36808   -15155.994    4.4367643    4.4367643    4.4367643   -15155.994   -7192.4881    25623.999   -63899.491     5656.942    27013.973    27811.562    87.337161 
   77500    1626.8543   -109.83507     1.472012   -108.36306    1926.4859    4.4212911    4.4212911    4.4212911    1926.4859    14327.846    2535.4559   -11083.844   -6728.5249   -13112.471   -17812.918    86.426583 
   77600    1605.5798    -109.8218    1.4527624   -108.36904   -24591.451    4.4382091    4.4382091    4.4382091   -24591.451   -50910.777    20527.895    -43391.47   -23217.161    36337.517    12336.101     87.42251 
   77700     1403.631   -109.63629    1.2700349   -108.36625   -23658.623    4.4393459    4.4393459    4.4393459   -23658.623   -23269.475    3207.8774   -50914.272     18939.44    12331.234    16967.142    87.489707 
   77800    1610.2413   -109.81343    1.4569801   -108.35645   -1069.1696     4.435468     4.435468     4.435468   -1069.1696   -18557.148    29603.777   -14254.137   -2955.5896    15716.962   -8048.2051     87.26063 
   77900    1607.3777   -109.82076    1.4543891   -108.36637   -18085.456    4.4267566    4.4267566    4.4267566   -18085.456   -24693.954    24508.857    -54071.27   -4475.1895    49835.206    13288.188    86.747495 
   78000    1312.3159   -109.55699     1.187411   -108.36958    40501.858    4.4136959    4.4136959    4.4136959    40501.858    54294.333    54142.498    13068.743    18544.981   -17010.038    6442.2658    85.981935 
   78100    1377.7801   -109.63483    1.2466444   -108.38819   -21573.189    4.4459728    4.4459728    4.4459728   -21573.189   -38204.123    19327.009   -45842.452     3072.937    47999.826   -19030.832    87.882094 
   78200    2044.7477   -110.19821    1.8501307   -108.34808   -19491.812    4.4555061    4.4555061    4.4555061   -19491.812   -22416.388     666.2932   -36725.342    2046.2574   -11266.804    13564.578    88.448635 
   78300    1099.8434   -109.35064   0.99516139   -108.35548    11702.111    4.4272619    4.4272619    4.4272619    11702.111    26059.624    34914.858   -25868.148    15151.731    28055.539   -11485.849    86.777201 
   78400    1519.3703    -109.7399    1.3747582   -108.36514     5495.101    4.4201845    4.4201845    4.4201845     5495.101   -1809.1128    53707.945   -35413.529    -10405.35    16562.063   -13564.951      86.3617 
   78500    2060.0261   -110.23395    1.8639549   -108.36999    3071.8269    4.4319596    4.4319596    4.4319596    3071.8269   -7188.0357    2307.3245    14096.192     4410.019   -15242.364    4053.0826    87.053731 
   78600    1075.7299    -109.3587   0.97334306   -108.38535   -20384.197    4.4520189    4.4520189    4.4520189   -20384.197   -8486.8135   -15786.297    -36879.48    20526.474     33216.44   -17840.027    88.241119 
   78700    1585.1071    -109.8089    1.4342383   -108.37466   -24690.089    4.4360838    4.4360838    4.4360838   -24690.089   -29369.093   -10376.739   -34324.434   -29353.843   -25796.718     7964.282    87.296983 
   78800    1385.0071   -109.61995    1.2531835   -108.36676    14925.382    4.4044814    4.4044814    4.4044814    14925.382    5792.3871     6463.661    32520.097    48504.886    5129.0317    9701.0826    85.444545 
   78900    1625.6907   -109.85457    1.4709591   -108.38361    6014.8964    4.4198132    4.4198132    4.4198132    6014.8964    17973.437    11353.258   -11282.005   -7812.7729   -453.35479    -27611.22    86.339941 
   79000    1055.8118   -109.34105   0.95532072   -108.38573   -18342.501    4.4539026    4.4539026    4.4539026   -18342.501   -29438.814    15785.151    -41373.84   -18470.844   -17952.295    10914.528    88.353172 
   79100    1811.1482   -109.98253     1.638765   -108.34377   -12187.665    4.4580086    4.4580086    4.4580086   -12187.665   -581.35981   -11252.349   -24729.287    28262.909    11961.017   -2228.6797    88.597751 
   79200    1207.0879   -109.44296    1.0921985   -108.35077    -3846.979    4.4261243    4.4261243    4.4261243    -3846.979    3274.6789    18115.723   -32931.339   -28939.852   -9268.3339    -29342.31    86.710327 
   79300    1627.7142    -109.8275      1.47279   -108.35471    14493.828    4.4033862    4.4033862    4.4033862    14493.828     5634.363    38683.076   -835.95586    2259.9732   -22832.038    42952.392    85.380823 
   79400     1695.125   -109.91938    1.5337847   -108.38559    14615.888    4.4262732    4.4262732    4.4262732    14615.888    15371.843    35357.553   -6881.7306   -1561.5051    11305.802   -35240.758    86.719079 
   79500    1335.8781   -109.58938    1.2087306   -108.38065   -45109.367    4.4611809    4.4611809    4.4611809   -45109.367   -42853.972   -33672.784   -58801.346   -21303.817   -17412.256    9830.3876    88.787023 
   79600    1541.2081   -109.75938    1.3945175   -108.36486   -13362.314    4.4359614    4.4359614    4.4359614   -13362.314   -12811.328    20254.368   -47529.981    7200.0945    -924.6717    35376.639    87.289757 
   79700    2109.2217   -110.24851    1.9084681   -108.34004     14426.53     4.410304     4.410304     4.410304     14426.53     26575.63    11737.906    4966.0524   -4280.5063    10599.782   -27223.622    85.783858 
   79800     954.8007   -109.24544   0.86392373   -108.38152   -16825.155    4.4234089    4.4234089    4.4234089   -16825.155   -7715.2217    1015.6304   -43775.875    -17657.36   -33171.771    36107.089    86.550837 
   79900    1611.6757   -109.84621     1.458278   -108.38793    3557.4982    4.4369061    4.4369061    4.4369061    3557.4982    3944.0589    39782.909   -33054.473    12632.609    24840.532    20137.385    87.345533 
   80000    1763.8769   -109.96925    1.5959929   -108.37326   -25143.353    4.4539843    4.4539843    4.4539843   -25143.353   -39613.211     7168.157   -42985.006   -2158.8464   -14139.583   -5572.6614    88.358036 
   80100    685.91595    -109.0015   0.62063116   -108.38087   -6583.2505    4.4275934    4.4275934    4.4275934   -6583.2505   -4044.6538    29962.779   -45667.877   -19736.015   -13936.846    48636.216    86.796694 
   80200    2131.5444   -110.27508    1.9286662   -108.34642    32289.965    4.4071571    4.4071571    4.4071571    32289.965    38316.988      45011.3    13541.607   -2545.3694     1663.317   -21255.471     85.60036 
   80300    964.42603    -109.2535   0.87263294   -108.38087   -16554.277    4.4373743    4.4373743    4.4373743   -16554.277   -35925.484    191.77643   -13929.124   -9945.9333   -28567.187   -1949.1378     87.37319 
   80400    2179.3325   -110.30329    1.9719059   -108.33139   -31573.579    4.4572938    4.4572938    4.4572938   -31573.579   -12848.661   -29404.994   -52467.082    721.84733    5028.9322    18907.851    88.555144 
   80500    952.08013   -109.20295   0.86146211   -108.34149   -23906.937     4.442332     4.442332     4.442332   -23906.937    20666.472   -41560.936   -50826.346    3514.2722    -15995.99   -54154.475     87.66637 
   80600    1699.5371   -109.86554    1.5377769   -108.32777    13973.768    4.4114915    4.4114915    4.4114915    13973.768    15592.287    17312.884    9016.1337   -19598.513   -27518.797    25579.148    85.853172 
   80700    1562.6965   -109.76883    1.4139606   -108.35487   -4400.8337    4.4118481    4.4118481    4.4118481   -4400.8337    60058.665   -26658.859   -46602.307    11452.368    14868.722   -65692.847    85.873995 
   80800    1067.3431   -109.34679    0.9657545   -108.38104   -23947.609    4.4340721    4.4340721    4.4340721   -23947.609   -884.20276   -21081.865   -49876.758   -9004.5694   -28255.652   -14173.847    87.178271 
   80900    1807.7603   -109.99482    1.6356995   -108.35912   -5633.9013    4.4419491    4.4419491    4.4419491   -5633.9013    29091.515   -48137.199    2143.9798   -11557.727    1403.5842   -3132.8969    87.643704 
   81000     1253.592   -109.49049    1.1342764   -108.35621   -19359.501      4.43746      4.43746      4.43746   -19359.501    17664.797   -26265.819   -49477.479    9877.4536   -3040.9074   -36768.714    87.378253 
   81100    1687.6774   -109.87251     1.527046   -108.34546    7059.0328    4.4156926    4.4156926    4.4156926    7059.0328    15136.964    1172.0362     4868.098   -17377.917   -22596.993    19554.069    86.098682 
   81200    1466.0912   -109.69109    1.3265502   -108.36454    7396.0277    4.4220582    4.4220582    4.4220582    7396.0277    69384.564   -48327.564    1131.0828    5987.0609    7686.5961   -3314.0335    86.471576 
   81300    1584.7367   -109.79578    1.4339031   -108.36187   -30862.185    4.4426489    4.4426489    4.4426489   -30862.185   -25332.817   -29363.039     -37890.7   -5163.8642   -7291.8345   -23413.578    87.685133 
   81400    1492.3057   -109.70868    1.3502695   -108.35841   -511.72659    4.4291338    4.4291338    4.4291338   -511.72659    57657.085   -55673.301   -3518.9635   -3067.4881    507.99339    51389.814     86.88732 
   81500    1455.9342   -109.67732    1.3173598   -108.35996    5470.7019    4.4246251    4.4246251    4.4246251    5470.7019     65019.34   -34588.048   -14019.187    11082.636    12463.717   -16506.681    86.622243 
   81600    1726.7789   -109.91879    1.5624258   -108.35636   -17627.948     4.432999     4.432999     4.432999   -17627.948    5664.2077   -28730.899   -29817.154   -2332.5105    4114.4573    23679.654    87.114995 
   81700    1233.6454   -109.48698    1.1162283   -108.37075   -14110.171    4.4320341    4.4320341    4.4320341   -14110.171    62223.424   -75811.717   -28742.219    8791.8937   -6253.4513    44606.946    87.058118 
   81800    1878.9112   -110.05723    1.7000783   -108.35715   -3820.2193    4.4301056    4.4301056    4.4301056   -3820.2193   -4198.6455    352.73405   -7614.7464    10155.773    12414.354   -35417.103    86.944525 
   81900    913.06891   -109.20335   0.82616393   -108.37719   -19106.445    4.4246432    4.4246432    4.4246432   -19106.445    26546.901    -11918.45   -71947.785   -1129.1495    16130.522    85620.672     86.62331 
   82000     2300.944   -110.45275    2.0819425   -108.37081    18012.297     4.419626     4.419626     4.419626    18012.297    39541.609    13594.279    901.00374   -8357.8858    -7719.287   -13860.212    86.328972 
   82100    1435.7075   -109.69373    1.2990584   -108.39468    2713.8679     4.424501     4.424501     4.424501    2713.8679    35363.714    12282.031   -39504.141    3779.2174    7985.5383     51381.71    86.614957 
   82200    1119.4588   -109.40947    1.0129098   -108.39656   -2287.1858    4.4276519    4.4276519    4.4276519   -2287.1858    24754.405    11227.375   -42843.337   -3531.4099    3916.8854    30134.467    86.800138 
   82300    1922.1198   -110.10899    1.7391744   -108.36981    -10018.81    4.4355169    4.4355169    4.4355169    -10018.81     17236.43   -11705.504   -35587.355   -3469.5174   -8605.0248    -6985.427    87.263519 
   82400    1270.5891   -109.51608    1.1496558   -108.36643   -3917.9101    4.4328507    4.4328507    4.4328507   -3917.9101    28436.793   -11413.769   -28776.754    1119.9424    13853.733    47255.189    87.106249 
   82500    1640.2864   -109.83251    1.4841656   -108.34834   -371.19707    4.4343667    4.4343667    4.4343667   -371.19707   -11753.832    43985.601    -33345.36   -9440.7251    5121.3543   -16073.496    87.195648 
   82600    1269.4045    -109.5028    1.1485838   -108.35422   -10753.307    4.4307588    4.4307588    4.4307588   -10753.307    54833.286   -45995.003   -41098.205    1582.4698    -5941.565    49084.947    86.982989 
   82700     1612.686   -109.81385    1.4591922   -108.35466    8777.5263    4.4204573    4.4204573    4.4204573    8777.5263    11902.848    19485.675   -5055.9442    2751.6564    29178.939    1539.7327    86.377695 
   82800    1420.9846   -109.64787    1.2857367   -108.36213   -5357.4624    4.4329228    4.4329228    4.4329228   -5357.4624    33214.154   -18791.853   -30494.688   -2503.2335    2639.3435     18140.14    87.110502 
   82900    1340.6162   -109.57096    1.2130177   -108.35794   -14107.259    4.4364304    4.4364304    4.4364304   -14107.259    35789.471   -66494.374   -11616.874    9902.9755    7542.1482    29020.016    87.317444 
   83000    1648.8597    -109.8447    1.4919229   -108.35278    8994.5997    4.4306143    4.4306143    4.4306143    8994.5997   -5561.1058    5609.9957    26934.909    -317.9677    48961.049   -13276.858    86.974477 
   83100    1674.7576   -109.86859    1.5153558   -108.35324    9427.7764    4.4303297    4.4303297    4.4303297    9427.7764    45232.433   -26077.915    9128.8114   -1973.6723   -14975.566    49544.514    86.957717 
   83200    776.13067   -109.07155   0.70225934   -108.36929    1949.3058    4.4333607    4.4333607    4.4333607    1949.3058   -11931.826    37858.896   -20079.152   -338.52801    51718.725    -3734.773    87.136316 
   83300    1952.7151   -110.11924    1.7668576   -108.35239    9342.8933    4.4316176    4.4316176    4.4316176    9342.8933   -17052.379    39251.325     5829.734    2039.7447   -9573.7677    1481.4211    87.033577 
   83400    1402.4069    -109.6321    1.2689272   -108.36317    3836.6635    4.4302931    4.4302931    4.4302931    3836.6635   -264.55511    29897.165    -18122.62    2793.4628    34949.884    30162.437    86.955565 
   83500     1433.601   -109.66196    1.2971523   -108.36481    -9101.746    4.4326069    4.4326069    4.4326069    -9101.746   -15154.615    18397.568    -30548.19    8461.3285    31783.637   -18260.715    87.091878 
   83600    1697.0497    -109.8862    1.5355262   -108.35067   -8936.0957    4.4325422    4.4325422    4.4325422   -8936.0957    3485.9638    6534.4915   -36828.742    682.58021   -27848.761   -2170.6393    87.088064 
   83700    915.98348   -109.20126   0.82880111   -108.37246   -17342.959    4.4298548    4.4298548    4.4298548   -17342.959   -24761.935    43579.409   -70846.353    1085.4157    77386.301      14860.4    86.929761 
   83800    2674.0837   -110.77795    2.4195671   -108.35838    4116.7099    4.4267518    4.4267518    4.4267518    4116.7099    32382.877   -3698.4601   -16334.287    15580.621   -19071.149   -6589.6882    86.747212 
   83900    1322.6061   -109.59333    1.1967218    -108.3966    -5507.222    4.4220529    4.4220529    4.4220529    -5507.222    10294.552     16704.26   -43520.478   -4606.8532    59622.167    6997.8011    86.471265 
   84000    1094.5394   -109.39676   0.99036223    -108.4064    16052.868    4.4156465    4.4156465    4.4156465    16052.868    36676.458    52206.081   -40723.935   -8409.5767      20802.6    18044.382    86.095982 
   84100    1848.0431   -110.06974    1.6721482    -108.3976   -382.29584    4.4259761    4.4259761    4.4259761   -382.29584   -4467.6556    14694.006   -11373.238    21712.039   -14903.461   -15338.053    86.701615 
   84200    1114.6327   -109.40523    1.0085431   -108.39669    2466.8697    4.4318627    4.4318627    4.4318627    2466.8697    21417.236    8177.2719   -22193.899    -6128.338    51754.519    10993.343    87.048022 
   84300    1758.2856   -109.96796    1.5909337   -108.37703    9587.6155    4.4293722    4.4293722    4.4293722    9587.6155    17893.195   -7634.1929    18503.845   -10595.418   -10997.298    15146.385    86.901352 
   84400    1608.2683    -109.8305    1.4551949    -108.3753   -489.23558    4.4243203    4.4243203    4.4243203   -489.23558   -38027.108    34142.235    2417.1663    13776.871    29156.777     -23776.7    86.604343 
   84500    952.92157   -109.24903   0.86222346    -108.3868    2073.0451    4.4243472    4.4243472    4.4243472    2073.0451    1528.1379   -12534.816    17225.813   -30457.785    17692.662    28972.952    86.605926 
   84600    1913.3526   -110.10984    1.7312416   -108.37859   -15332.276     4.433365     4.433365     4.433365   -15332.276   -7409.7807   -33441.139     -5145.91    808.16781   -12121.684    6886.0439    87.136568 
   84700    1155.6247   -109.43094    1.0456335   -108.38531    7232.8205    4.4253694    4.4253694    4.4253694    7232.8205   -30847.104    30923.139    21622.426   -1872.3268    61040.072   -8983.1775    86.665968 
   84800    1643.9573   -109.86422    1.4874871   -108.37674    950.51507    4.4310089    4.4310089    4.4310089    950.51507    1593.2835    -8133.457    9391.7187   -20074.491   -17484.252    26968.221    86.997721 
   84900    1361.0155   -109.58923    1.2314754   -108.35776   -36002.657    4.4519507    4.4519507    4.4519507   -36002.657   -51181.993    16734.805   -73560.784    10153.441    45718.668    2241.3703     88.23706 
   85000     1460.717   -109.67793    1.3216874   -108.35624   -8181.2089    4.4235049    4.4235049    4.4235049   -8181.2089   -10698.377     6792.869   -20638.118   -13536.309    40918.558   -6965.3112    86.556468 
   85100    1967.1835   -110.11859     1.779949   -108.33864    15234.393    4.4004899    4.4004899    4.4004899    15234.393    26810.739    24111.399   -5218.9593   -13074.791   -3319.5627    16891.393    85.212459 
   85200     678.8166   -109.00501   0.61420752    -108.3908   -20446.297    4.4268238    4.4268238    4.4268238   -20446.297   -33806.214    43925.481   -71458.157     20550.46     65742.07   -5984.3523    86.751446 
   85300    2097.3354   -110.26558    1.8977132   -108.36787   -8483.8832    4.4413173    4.4413173    4.4413173   -8483.8832     9427.034   -29283.854   -5594.8296    2993.5924   -23685.439     -18270.6    87.606314 
   85400    1507.1494   -109.73892    1.3637004   -108.37522    1700.1639     4.427735     4.427735     4.427735    1700.1639    -12526.49    48644.589   -31017.607   -19150.186    61521.097    3598.1108    86.805027 
   85500    1379.9707   -109.62028    1.2486265   -108.37165    5163.9425    4.4158787    4.4158787    4.4158787    5163.9425    30030.696    24822.493   -39361.362    15236.289   -17133.302   -16108.794    86.109568 
   85600    1573.8119   -109.80624    1.4240181   -108.38222    7003.3932    4.4215789    4.4215789    4.4215789    7003.3932    7902.1615    22975.412    -9867.394   -1082.4854    -1250.864   -4216.0266    86.443461 
   85700    1718.5396   -109.93122    1.5549708   -108.37625     7397.263    4.4310985    4.4310985    4.4310985     7397.263    19148.235    37969.754   -34926.199   -4861.7821    25961.029    4570.1091    87.002994 
   85800    821.86829   -109.12866    0.7436437   -108.38501   -7025.5308    4.4368884    4.4368884    4.4368884   -7025.5308    6769.6205    23089.464   -50935.677    5380.3711   -50617.342   -7626.1461    87.344493 
   85900     2249.756   -110.39166    2.0356265   -108.35604     369.4771     4.430794     4.430794     4.430794     369.4771    14393.359      5941.37   -19226.298   -567.24902    20141.728   -9549.2466    86.985062 
   86000    1692.7829   -109.90337    1.5316655   -108.37171    8244.5319    4.4155282    4.4155282    4.4155282    8244.5319    11590.599    29118.131   -15975.135    -1383.669   -46806.191    5878.3821    86.089064 
   86100    573.21301   -108.92665   0.51865518     -108.408   -10459.031    4.4127898    4.4127898    4.4127898   -10459.031   -15437.751   -16651.264    711.92102     4451.636   -19648.911   -24313.032    85.928992 
   86200    1911.0075   -110.13336    1.7291197   -108.40425    3967.6315     4.419517     4.419517     4.419517    3967.6315   -7390.2628    21926.888   -2633.7303    2883.6669    36158.369    119.55838    86.322585 
   86300    1756.4258   -109.98516    1.5892509   -108.39591    -15403.62    4.4412938    4.4412938    4.4412938    -15403.62   -14951.929    3551.6953   -34810.627     4772.786   -19237.493   -1159.0133    87.604921 
   86400    711.22281   -109.03362   0.64352935   -108.39009   -3872.6543    4.4356607    4.4356607    4.4356607   -3872.6543   -12607.903    41601.709   -40611.769    11287.983    12179.257   -27010.063    87.272003 
   86500    1819.2912   -109.99967    1.6461329   -108.35353    22286.445    4.4235839    4.4235839    4.4235839    22286.445    37055.545    58302.415   -28498.624    3016.6086    35221.681    10382.755    86.561108 
   86600    1743.0828   -109.92675    1.5771779   -108.34957   -18419.456    4.4362995    4.4362995    4.4362995   -18419.456    15308.256   -34862.798   -35703.825    13078.193   -9726.1315   -16583.766    87.309715 
   86700    936.24565   -109.20889   0.84713474   -108.36175   -1202.6108    4.4294804    4.4294804    4.4294804   -1202.6108    33042.657    14773.556   -51424.045   -3291.2822    56951.079   -5818.2868     86.90772 
   86800    1858.5772   -110.04803    1.6816797   -108.36635    3739.6654    4.4223792    4.4223792    4.4223792    3739.6654    13555.561     24981.66   -27318.225   -379.42764   -41411.985    2404.8172    86.490408 
   86900    1605.6507   -109.83867    1.4528265   -108.38584    11298.591    4.4111599    4.4111599    4.4111599    11298.591    22898.207    14962.043   -3964.4767     3774.602    23992.383   -15644.013     85.83381 
   87000    1207.5423    -109.5007    1.0926096   -108.40809    4736.3667    4.4157907    4.4157907    4.4157907    4736.3667    23943.952    34254.247   -43989.098    14865.363    33397.678    1037.4062    86.104418 
   87100    1617.1401   -109.86461    1.4632224   -108.40139   -20715.701    4.4336477    4.4336477    4.4336477   -20715.701   -34099.319   -1841.3199   -26206.463   -22114.561   -63528.627    6583.4829    87.153239 
   87200    1558.0413   -109.79976    1.4097485   -108.39001    241.11773    4.4256074    4.4256074    4.4256074    241.11773   -13545.216    2373.5551    11895.014   -15110.957    50953.488    -11892.37     86.67995 
   87300    1461.1333   -109.71008    1.3220641   -108.38802   -14137.186    4.4218761    4.4218761    4.4218761   -14137.186   -26230.899    22502.866   -38683.526    29645.478   -3063.2053    7146.3868    86.460891 
   87400    1414.5576   -109.67451    1.2799214   -108.39459   -9505.2173    4.4165162    4.4165162    4.4165162   -9505.2173   -15668.225    -11947.23   -900.19692   -49209.174   -32839.078     14464.79    86.146869 
   87500    1740.8958    -109.9751    1.5751991    -108.3999    6442.7219    4.4200825    4.4200825    4.4200825    6442.7219   -9089.7433   -393.36739    28811.276   -5687.0188    33892.048   -3411.4204    86.355725 
   87600    1565.1898   -109.81468    1.4162166   -108.39847   -21857.106    4.4339006    4.4339006    4.4339006   -21857.106   -15859.035   -28407.371   -21304.912    14326.909   -3402.4104    1454.2305    87.168154 
   87700     813.0627   -109.14265   0.73567622   -108.40697    1553.0065    4.4202759    4.4202759    4.4202759    1553.0065    22162.204   -32692.852    15189.667   -55427.415   -21910.795    27219.245    86.367056 
   87800    2260.5764   -110.43683    2.0454171   -108.39141    16951.075    4.4113294    4.4113294    4.4113294    16951.075    30384.207   -315.11815    20784.137    19536.025    7293.4434   -8901.0378    85.843706 
   87900     1339.558   -109.62539    1.2120603   -108.41333    6621.2731    4.4198908    4.4198908    4.4198908    6621.2731    32074.748   -49458.203    37247.274   -36838.641    2168.4431    -11130.14    86.344487 
   88000    826.41197   -109.16488   0.74775492   -108.41713   -8765.4982    4.4332444    4.4332444    4.4332444   -8765.4982   -15017.963   -20420.688    9142.1561   -21672.367   -30205.876    19648.287     87.12946 
   88100    2221.4808   -110.38699    2.0100425   -108.37695   -12315.086    4.4385636    4.4385636    4.4385636   -12315.086    3501.2114   -24973.502   -15472.967    14116.369   -10041.583   -9708.2392    87.443462 
   88200     1361.932   -109.62017    1.2323047   -108.38786   -5100.0499    4.4185735    4.4185735    4.4185735   -5100.0499    -5314.586    -22832.71    12847.146   -56956.244    1592.3736    2341.5296    86.267307 
   88300    941.27544   -109.24714    0.8516858   -108.39546    10754.143    4.4069068    4.4069068    4.4069068    10754.143    1766.3553      61015.9   -30519.827    13301.019   -27651.585    24672.277    85.585778 
   88400    2195.0184   -110.37794    1.9860988   -108.39184    -2508.859     4.426299     4.426299     4.426299    -2508.859     1712.892    7665.6749   -16905.144    2000.9912      13892.1    -10569.77    86.720591 
   88500    1796.9446   -110.02401    1.6259132   -108.39809   -13026.787    4.4307544    4.4307544    4.4307544   -13026.787    -8526.282   -7499.0288   -23055.049   -23380.611   -28948.048    7886.7977     86.98273 
   88600    787.73275   -109.12153   0.71275714   -108.40877    15496.016    4.4169002    4.4169002    4.4169002    15496.016    10436.523    53607.723   -17556.199    12974.867    -19003.94     19850.84     86.16934 
   88700    1836.9742   -110.05862    1.6621329   -108.39649   -6026.0614    4.4218616    4.4218616    4.4218616   -6026.0614   -7939.2607    -6601.842   -3537.0815    24231.794    30017.488   -19240.159    86.460042 
   88800    1731.7854   -109.96152    1.5669558   -108.39457      5688.22    4.4169905    4.4169905    4.4169905      5688.22    16315.597   -476.62645     1225.689   -9037.5605    -35044.95    3450.4912    86.174621 
   88900      1166.57   -109.46327    1.0555371   -108.40773    19293.464    4.4203483    4.4203483    4.4203483    19293.464     6927.489    10878.263    40074.641    20243.991   -12625.524    28455.145    86.371301 
   89000    2018.1855   -110.20659    1.8260967    -108.3805   -13377.973    4.4376721    4.4376721    4.4376721   -13377.973   -24717.425   -31021.357    15604.862     12490.27    10953.294   -21080.628    87.390784 
   89100    1083.0731   -109.37456   0.97998734   -108.39457   -2338.6639    4.4214063    4.4214063    4.4214063   -2338.6639    22487.922   -19026.689   -10477.224    893.17433    -28466.17    24216.809    86.433337 
   89200    1170.9036   -109.45799    1.0594582   -108.39853    18715.175    4.4104494    4.4104494    4.4104494    18715.175    21409.006   -560.05874    35296.579    18506.065       1730.8    19130.596    85.792346 
   89300    2254.4681   -110.42907    2.0398901   -108.38918   -9813.2799     4.420265     4.420265     4.420265   -9813.2799   -28087.716   -31655.989    30303.866   -8703.4848    2196.6485    -10354.68    86.366417 
   89400    1107.7451   -109.41954    1.0023111   -108.41723    840.36397     4.418538     4.418538     4.418538    840.36397    23031.897    2539.7791   -23050.584    1519.9922   -40534.475    40828.532    86.265229 
   89500    1687.2142   -109.93216    1.5266269   -108.40553   -4764.4077    4.4265954    4.4265954    4.4265954   -4764.4077    1317.1449   -23603.299    7992.9306    18415.298    11187.845   -1596.2702    86.738017 
   89600    1460.0083    -109.7277    1.3210462   -108.40665   -6303.2223    4.4232059    4.4232059    4.4232059   -6303.2223   -8955.6205    8304.8664   -18258.913   -21250.278   -4643.3679   -8496.2869    86.538921 
   89700     892.2082    -109.2253   0.80728873   -108.41801     15239.19    4.4094939    4.4094939    4.4094939     15239.19    34595.948     44042.99   -32921.369    1645.4272   -46078.421    39095.543    85.736596 
   89800    2468.6413   -110.63295    2.2336785   -108.39927    5874.1838    4.4240678    4.4240678    4.4240678    5874.1838        18427   -6514.5684    5710.1195    6271.1134    17426.508    1379.2387    86.589517 
   89900    1168.7545   -109.48066    1.0575136   -108.42315   -4358.0752    4.4273396    4.4273396    4.4273396   -4358.0752    4164.2805    34674.446   -51912.952   -19451.425   -37261.882    6800.0704    86.781768 
   90000    906.00503   -109.23786   0.81977239   -108.41809    -698.8311    4.4235776    4.4235776    4.4235776    -698.8311    13765.944    23170.889   -39033.326      746.313   -15338.499    43971.494    86.560739 
   90100    2403.5689   -110.55993    2.1747997   -108.38513   -4468.3381    4.4251381    4.4251381    4.4251381   -4468.3381    27193.905   -17966.862   -22632.057   -2315.9967    18682.297   -33200.856    86.652377 
   90200    999.46558   -109.30665   0.90433746   -108.40231    7857.0353    4.4188364    4.4188364    4.4188364    7857.0353    20435.617   -15135.319    18270.808   -11351.176   -38500.733    31019.002    86.282706 
   90300    1274.3763   -109.56004    1.1530825   -108.40695   -7864.9558     4.428806     4.428806     4.428806   -7864.9558     5705.986   -33013.367    3712.5137    828.94815   -6517.6207    26147.533    86.868027 
   90400    2209.3783   -110.38597    1.9990919   -108.38688    5117.6739    4.4219287    4.4219287    4.4219287    5117.6739    15744.274   -25539.213     25147.96    360.19287    12737.019   -33354.806    86.463975 
   90500    663.06139   -109.01149   0.59995188   -108.41154    4031.5601    4.4123179    4.4123179    4.4123179    4031.5601    18989.106   -20508.375    13613.949   -10680.688   -30029.193    50770.803    85.901428 
   90600    1682.6043   -109.93181    1.5224557   -108.40935   -9646.1554    4.4255437    4.4255437    4.4255437   -9646.1554   -14601.981   -21295.356    6958.8705   -2427.2292   -13476.447   -2477.5871    86.676208 
   90700    2195.7139   -110.38045    1.9867281   -108.39372    1673.2007    4.4251472    4.4251472    4.4251472    1673.2007    2744.6203   -19558.588     21833.57    9364.5214    15498.047    14068.454    86.652913 
   90800    581.37319   -108.94014   0.52603868   -108.41411    -8191.339    4.4241024    4.4241024    4.4241024    -8191.339     25410.73   -13935.834   -36048.912   -9606.4771   -35579.452    37597.871     86.59155 
   90900    1788.0645   -110.00813    1.6178783   -108.39025   -6490.8161    4.4231613    4.4231613    4.4231613   -6490.8161   -8484.2029   -30166.329    19178.084   -10417.386   -10190.137   -41578.014    86.536303 
   91000    1947.5504   -110.15045    1.7621845   -108.38827    6027.5458    4.4162376    4.4162376    4.4162376    6027.5458    23063.655    1099.7628   -6080.7801    3730.4726    6295.5649    21564.249    86.130563 
   91100    1185.9134   -109.48198    1.0730394   -108.40894    5324.9327    4.4142164    4.4142164    4.4142164    5324.9327   -8298.3662    2844.4291    21428.735   -18253.144   -25712.126    13736.228    86.012361 
   91200     1036.672   -109.35755   0.93800263   -108.41955   -5930.7652    4.4264102    4.4264102    4.4264102   -5930.7652    8751.4932   -47485.376    20941.588   -5649.6391   -2569.1949   -65015.199    86.727128 
   91300    2380.8644   -110.54026    2.1542561     -108.386    143.83735    4.4279757    4.4279757    4.4279757    143.83735    -6216.697   -11669.802    18318.011    11986.632   -4372.6701    16133.522    86.819179 
   91400    1068.2541   -109.36092   0.96657877   -108.39434   -6920.3808     4.429771     4.429771     4.429771   -6920.3808    4392.9981   -29427.932    4273.7916   -25460.313   -23384.552   -37852.322    86.924828 
   91500    1384.2219   -109.63867    1.2524731   -108.38619   -18732.359    4.4271017    4.4271017    4.4271017   -18732.359    24280.777   -63022.491   -17455.364    13673.456    12972.658   -19010.276    86.767784 
   91600    1818.2051   -110.01804    1.6451501   -108.37289    5482.3443    4.4148163    4.4148163    4.4148163    5482.3443    13089.029    10823.757   -7465.7528    3994.0222   -11835.998     31839.89    86.047434 
   91700    1159.9145   -109.44021     1.049515    -108.3907   -9250.8349    4.4246091    4.4246091    4.4246091   -9250.8349    22672.077   -27705.251   -22719.332   -18203.387   -20653.554   -73258.102    86.621305 
   91800    1905.6148   -110.11084    1.7242403    -108.3866   -3332.7095    4.4241706    4.4241706    4.4241706   -3332.7095   -4145.8158   -15206.924    9354.6113    7669.1593    12865.291    26193.152    86.595557 
   91900    1393.4014   -109.66168    1.2607788    -108.4009   -4102.5353    4.4176403    4.4176403    4.4176403   -4102.5353        12409     10045.28   -34761.885    11644.066    -2888.259   -5730.8965    86.212659 
   92000    857.99885   -109.19881   0.77633539   -108.42247   -12088.385    4.4193935    4.4193935    4.4193935   -12088.385    19054.822    -31040.58   -24279.398   -15067.008   -25741.175   -62683.969    86.315344 
   92100    2558.3045   -110.70615    2.3148077   -108.39134    8109.5986    4.4230904    4.4230904    4.4230904    8109.5986    10905.913     10187.32    3235.5634    2135.2996    11056.033    21727.954    86.532142 
   92200    823.15427   -109.15427   0.74480728   -108.40946   -18319.072    4.4367866    4.4367866    4.4367866   -18319.072     54969.77   -39848.401   -70078.584   -3146.9231   -10688.554   -64846.374    87.338481 
   92300     1303.867   -109.56168    1.1797663   -108.38191   -1706.8123    4.4322558    4.4322558    4.4322558   -1706.8123    37419.369   -2970.8332   -39568.972   -2296.9127   -6405.4801    20858.078    87.071182 
   92400    1899.5985   -110.08105    1.7187967   -108.36226   -1670.1781    4.4236367    4.4236367    4.4236367   -1670.1781    39438.267   -29371.624   -15077.177   -10176.827     3024.025   -194.53584    86.564206 
   92500    1301.8768   -109.55852    1.1779655   -108.38056     579.8758     4.414919     4.414919     4.414919     579.8758    3139.0854    10993.553   -12393.011    13393.996   -18629.955   -46612.465    86.053438 
   92600    1092.4163   -109.38916    0.9884412   -108.40072    4257.3562    4.4152028    4.4152028    4.4152028    4257.3562    24956.841    -561.5605   -11623.212   -336.51568   -13609.901    54530.178    86.070031 
   92700    2113.0981   -110.30878    1.9119755   -108.39681   -9497.5517    4.4301598    4.4301598    4.4301598   -9497.5517    1780.7091    1395.2166   -31668.581   -17012.802    9921.3152    16913.075    86.947717 
   92800    1701.3735   -109.94573    1.5394385   -108.40629    4153.5391    4.4204234    4.4204234    4.4204234    4153.5391   -7938.6601    40051.565   -19652.287    24761.682    -32940.16   -5699.9643    86.375706 
   92900    652.61784   -109.00667   0.59050234   -108.41617    11566.838    4.4111055    4.4111055    4.4111055    11566.838    56637.636    9779.1818   -31716.304    -7391.026    8380.4532    50781.738    85.830638 
   93000    2011.1647   -110.21678    1.8197441   -108.39704   -8152.2695    4.4240139    4.4240139    4.4240139   -8152.2695   -10636.439    85.660732    -13906.03   -10532.433     14711.94   -28666.902    86.586352 
   93100    1451.5742   -109.70641    1.3134149   -108.39299   -519.37816     4.431335     4.431335     4.431335   -519.37816    33326.792   -12272.232   -22612.695    16568.504   -13745.554    49786.271    87.016927 
   93200    1434.6836    -109.6741    1.2981318   -108.37596   -4828.3839    4.4320649    4.4320649    4.4320649   -4828.3839    12070.139   -10487.782   -16067.509    -16412.03    4092.5302    13585.828    87.059935 
   93300    1705.6392   -109.91828    1.5432982   -108.37498    82.665773    4.4170843    4.4170843    4.4170843    82.665773    19889.233   -23286.791    3645.5556    -6468.445    6335.6205   -22997.632    86.180114 
   93400    1012.3399   -109.31045   0.91598638   -108.39446    13254.887    4.4084653    4.4084653    4.4084653    13254.887    34369.365   -947.85404    6343.1518    7666.4868   -11124.676    55638.801     85.67661 
   93500     1968.238   -110.17284    1.7809031   -108.39194   -5753.8994    4.4225393    4.4225393    4.4225393   -5753.8994   -35023.708   -5077.4503     22839.46    6497.6096   -18063.939   -1323.5701    86.499798 
   93600    1552.2677   -109.80516    1.4045244   -108.40063   -6540.7484    4.4292815    4.4292815    4.4292815   -6540.7484    1180.1919   -29434.111    8631.6744   -15673.491    14125.639    3817.5235    86.896012 
   93700    1171.7422   -109.46613    1.0602169   -108.40592    -8585.381    4.4178367    4.4178367    4.4178367    -8585.381    6398.5952   -35033.035     2878.297    17621.683   -24648.496    24772.062    86.224159 
   93800    1812.0635   -110.03259    1.6395931   -108.39299    411.85044    4.4126062    4.4126062    4.4126062    411.85044   -40370.767    1815.3424    39790.976    33556.787    8552.5005   -3538.7044    85.918269 
   93900    1434.6716   -109.69795    1.2981211   -108.39983   -481.43966    4.4211323    4.4211323    4.4211323   -481.43966    37168.774   -26088.351   -12524.742   -21475.587    17273.267    29127.031    86.417268 
   94000     1150.907   -109.43833    1.0413649   -108.39697    -10411.55    4.4299851    4.4299851    4.4299851    -10411.55    5535.3249   -62357.684    25587.709     45716.96   -18111.073    5118.2226    86.937432 
   94100    1873.6723   -110.07891    1.6953381   -108.38357   -4681.0116    4.4274895    4.4274895    4.4274895   -4681.0116   -8649.9297   -16307.058    10913.952    21463.015    26025.094   -4419.9669    86.790584 
   94200    1928.0595    -110.1248    1.7445488   -108.38026   -10054.645    4.4241983    4.4241983    4.4241983   -10054.645    28406.057   -41756.664   -16813.327    -2213.297   -7279.0792    35869.781    86.597179 
   94300     526.6369   -108.88504   0.47651214   -108.40853   -11849.271    4.4155055    4.4155055    4.4155055   -11849.271    11560.177   -72407.321    25299.332     58759.97   -9489.1883   -11837.301    86.087737 
   94400    1927.5525    -110.1489      1.74409   -108.40481    5878.8226    4.4159384    4.4159384    4.4159384    5878.8226    23018.572   -20642.028    15259.924   -34974.444    9865.7602   -17666.411     86.11306 
   94500    1941.8067   -110.15393    1.7569875   -108.39694   -14374.215    4.4309653    4.4309653    4.4309653   -14374.215   -11003.284   -45329.059    13209.698     43548.26   -17545.732    6868.2357    86.995153 
   94600    872.78037   -109.19435   0.78971002   -108.40464   -5085.4455    4.4253496    4.4253496    4.4253496   -5085.4455    25965.029   -63735.026     22513.66    7529.7761   -1753.0378   -29426.861    86.664803 
   94700    1416.7031   -109.67217    1.2818627   -108.39031    4080.4359    4.4225077    4.4225077    4.4225077    4080.4359    42145.593   -54136.898    24232.613     -28797.2   -59.146386     12226.91    86.497947 
   94800    2032.8263    -110.2216    1.8393439   -108.38226   -8816.1634     4.423824     4.423824     4.423824   -8816.1634   -7142.2304   -27887.577    8581.3172    19865.513   -18411.494    17470.843    86.575205 
   94900    1496.4451   -109.75363     1.354015   -108.39962    13865.963    4.4077308    4.4077308    4.4077308    13865.963    6799.9204   -29332.304    64130.272   -24285.824    5168.2569   -19130.195    85.633794 
   95000    630.42337   -109.00143   0.57042031   -108.43101   -1553.1797     4.415396     4.415396     4.415396   -1553.1797    81751.027   -80729.471   -5681.0956   -12245.435   -768.69621    49867.884    86.081331 
   95100    2326.0347   -110.49891     2.104645   -108.39426   -1836.3517    4.4275714    4.4275714    4.4275714   -1836.3517   -5225.0847   -23883.765    23599.794    13223.791    4264.0971   -13136.461    86.795403 
   95200    1348.1591   -109.62299    1.2198426   -108.40315   -2448.4634    4.4251256    4.4251256    4.4251256   -2448.4634   -10734.154   -5288.4388    8677.2023   -15920.545    13157.973    36271.715    86.651643 
   95300    1049.0881   -109.35083   0.94923698   -108.40159   -15063.296    4.4217686    4.4217686    4.4217686   -15063.296     24360.88   -46110.768       -23440   -2473.1705   -2221.3133    21260.632    86.454587 
   95400    1746.4353   -109.97321    1.5802114     -108.393    11870.782    4.4099756    4.4099756    4.4099756    11870.782    -8063.035    3505.9911     40169.39    47949.804   -2513.3797   -32335.863    85.764697 
   95500    1735.7834   -109.96889    1.5705733   -108.39832     6797.132    4.4204996    4.4204996    4.4204996     6797.132    37145.473   -2525.7072    -14228.37   -7540.4107    4505.5961    49832.486    86.380174 
   95600    1131.3879    -109.4238    1.0237035    -108.4001   -4409.2959    4.4302049    4.4302049    4.4302049   -4409.2959    19251.454    -40645.49    8166.1483    11104.363    5558.0534   -9164.6303    86.950373 
   95700    1295.1961   -109.56831    1.1719207   -108.39639    968.19695     4.425726     4.425726     4.425726    968.19695    17005.541   -29275.411     15174.46    32350.901   -9533.6556   -22051.161     86.68692 
   95800    2330.7014   -110.48013    2.1088676   -108.37126   -13564.977    4.4261189    4.4261189    4.4261189   -13564.977    5600.0972   -16304.111   -29990.918   -10549.724    20111.144    23513.463     86.71001 
   95900    897.72833   -109.20936   0.81228346   -108.39707    7671.1858    4.4112309    4.4112309    4.4112309    7671.1858    46080.906   -45109.384    22042.036    39373.362    9033.4518   -30952.627    85.837954 
   96000    1414.6319   -109.68504    1.2799887   -108.40505    5409.2156    4.4138296    4.4138296    4.4138296    5409.2156    15579.081   -32724.596    33373.162   -4923.4867   -5973.7071   -11777.894    85.989752 
   96100    1865.5801   -110.08637    1.6880161   -108.39836   -6806.6957    4.4257085    4.4257085    4.4257085   -6806.6957   -10956.209    5384.1311    -14848.01   -14344.476    31052.047    15325.382    86.685889 
   96200    1479.7691   -109.73824    1.3389262   -108.39932    4185.3658    4.4205042    4.4205042    4.4205042    4185.3658    35946.987    -21699.91     -1690.98     34807.02   -8128.0435   -40051.057    86.380444 
   96300    1278.0321   -109.55481    1.1563903   -108.39842   -8819.7387    4.4260104    4.4260104    4.4260104   -8819.7387   -16998.778    -20343.65    10883.213   -10771.105    15964.749    7911.1694     86.70363 
   96400    1599.9042    -109.8348     1.447627   -108.38718    4996.1378    4.4299506    4.4299506    4.4299506    4996.1378    2719.6803    22112.661   -9843.9279   -14994.833    23988.967    17929.234      86.9354 
   96500    1914.0299   -110.10265    1.7318545   -108.37079   -6805.5898    4.4352593    4.4352593    4.4352593   -6805.5898   -958.51087   -5914.3028   -13543.956    16283.434   -8285.3669   -37521.037    87.248315 
   96600    710.57445   -109.03736    0.6429427   -108.39442   -18866.019    4.4261116    4.4261116    4.4261116   -18866.019   -12285.964   -38387.756   -5924.3353   -21929.846     35119.03    23380.499     86.70958 
   96700    1859.7179   -110.07884    1.6827119   -108.39613    19713.563     4.405333     4.405333     4.405333    19713.563    56233.344   -3035.1726    5942.5165    4950.7411   -1351.3164    31637.169    85.494115 
   96800    2114.6301    -110.3162    1.9133617   -108.40284    23306.103    4.4162945    4.4162945    4.4162945    23306.103    28238.433    23871.588    17808.287   -12630.973    4041.5186   -20073.214    86.133891 
   96900    487.95609   -108.86555   0.44151292   -108.42404   -10065.441     4.442459     4.442459     4.442459   -10065.441    27714.272   -37338.917    -20571.68   -24302.617    31974.287    31489.442    87.673893 
   97000    2339.4837   -110.47594     2.116814   -108.35913   -29896.109    4.4461189    4.4461189    4.4461189   -29896.109    -37116.15   -52245.829   -326.34952     32297.91    -14302.03   -11362.595    87.890761 
   97100    991.54822   -109.24745   0.89717367   -108.35027    9967.8182    4.4307275    4.4307275    4.4307275    9967.8182   -30338.748    38938.251    21303.951   -26512.284    33986.284     20310.74    86.981144 
   97200    1571.2305   -109.75637    1.4216824   -108.33469   -966.25643    4.4305794    4.4305794    4.4305794   -966.25643   -7774.5867    15056.108   -10180.291   -3495.5029   -7883.0112    24018.541    86.972425 
   97300    1824.2399    -109.9995    1.6506106   -108.34888   -6337.6131    4.4213786    4.4213786    4.4213786   -6337.6131   -29966.154    1919.9019     9033.413   -1324.2433    905.78815   -30781.106    86.431711 
   97400    812.95444   -109.12475   0.73557827   -108.38917   -5761.5008    4.4157931    4.4157931    4.4157931   -5761.5008    510.40773    6567.5643   -24362.474   -26435.694    26547.186     44067.96    86.104561 
   97500    2011.7081   -110.20951    1.8202358   -108.38927   -5456.5296    4.4255459    4.4255459    4.4255459   -5456.5296   -1883.9176      23829.2   -38314.871    17756.081   -22544.826    15557.165    86.676334 
   97600    1290.7531   -109.56196    1.1679005   -108.39406    6855.6807    4.4286781    4.4286781    4.4286781    6855.6807   -32376.641    24858.237    28085.446   -28315.676    11779.011    1924.5711    86.860503 
   97700    1054.1487   -109.34293   0.95381588   -108.38912   -2231.2661    4.4328246    4.4328246    4.4328246   -2231.2661    -2565.771    3516.2736   -7644.3008   -5851.9667    15549.617    38751.201    87.104713 
   97800    2286.4753   -110.41866    2.0688509   -108.34981   -13450.959    4.4392931    4.4392931    4.4392931   -13450.959   -17270.587   -18396.833    -4685.458     16724.71   -11587.029     -13739.1    87.486582 
   97900    724.68469   -109.01622   0.65570994   -108.36051   -1734.7874    4.4371589    4.4371589    4.4371589   -1734.7874    26494.592   -13261.045   -18437.909   -36046.251    24391.856    38684.951    87.360469 
   98000    2114.0421   -110.25325    1.9128297   -108.34042    6214.7436    4.4275129    4.4275129    4.4275129    6214.7436    41413.547    13242.694    -36012.01    15180.844   -27057.625   -7474.6365     86.79196 
   98100    1492.5357   -109.71532    1.3504777   -108.36484    -828.7906    4.4178903    4.4178903    4.4178903    -828.7906    13145.628   -12604.646   -3027.3543   -24935.587    12182.883    4574.7746      86.2273 
   98200    927.22559   -109.23606    0.8389732   -108.39708   -5412.8758    4.4178432    4.4178432    4.4178432   -5412.8758    15248.066   -27416.394   -4070.2996   -14502.153    7923.5843    54221.568     86.22454 
   98300    2347.9065   -110.50257    2.1244351   -108.37813   -1523.4944    4.4279355    4.4279355    4.4279355   -1523.4944    846.70642    4070.5803   -9487.7699    4441.7991   -26355.427   -16560.004    86.816817 
   98400    866.33274   -109.17569   0.78387607   -108.39182   -14073.527    4.4422973    4.4422973    4.4422973   -14073.527    4854.5527   -42759.172   -4315.9617   -27525.928    19433.073    46409.661    87.664317 
   98500    1706.3848   -109.91182    1.5439728   -108.36784   -12528.172    4.4327113    4.4327113    4.4327113   -12528.172   -11755.826   -45721.277    19892.586    20185.942    487.61759    7632.6345     87.09803 
   98600    1773.1101    -109.9695    1.6043473   -108.36516    19065.796    4.4025858    4.4025858    4.4025858    19065.796   -3304.0568    24581.801    35919.643    11144.381   -6546.4289   -4744.2611     85.33427 
   98700    776.43102   -109.10853   0.70253111     -108.406    1469.2483    4.4082041    4.4082041    4.4082041    1469.2483    4010.5317   -329.52761     726.7409   -34514.043    22254.233    63905.728    85.661381 
   98800    2364.1284   -110.52928     2.139113   -108.39017   -4941.0412     4.432449     4.432449     4.432449   -4941.0412   -21864.593    3528.4064     3513.063    11028.955   -3733.0555   -25888.868    87.082573 
   98900    913.21958   -109.23112   0.82630027   -108.40482   -1986.7889    4.4391587    4.4391587    4.4391587   -1986.7889    3900.7234   -11187.473     1326.383   -11521.812    15716.217     25784.76    87.478637 
   99000    1306.1278   -109.56362    1.1818119   -108.38181   -10831.307    4.4338857    4.4338857    4.4338857   -10831.307   -25866.144    3742.3858   -10370.163   -7739.4429    9308.2622    21036.432    87.167275 
   99100    2021.6928   -110.17333    1.8292701   -108.34406    10558.473    4.4306133    4.4306133    4.4306133    10558.473    32959.402    22316.709   -23600.692    6617.6995   -13314.321    11235.053    86.974422 
   99200    824.95408   -109.08843   0.74643579     -108.342   -1172.6533    4.4474519    4.4474519    4.4474519   -1172.6533    15706.066    8714.9937    -27939.02   -38054.835    18422.739     36499.91    87.969836 
   99300    2271.7992   -110.36308    2.0555717   -108.30751   -16659.512    4.4477526    4.4477526    4.4477526   -16659.512   -6003.4928   -26343.532   -17631.511    35928.103   -8304.8439   -19941.919    87.987683 
   99400     729.6305   -109.00727   0.66018501   -108.34708   -17400.774    4.4214765    4.4214765    4.4214765   -17400.774    12350.314   -50758.871   -13793.764   -32437.766    15403.734    64200.841    86.437451 
   99500    1585.0005   -109.81135    1.4341418   -108.37721     14364.22    4.3959315    4.3959315    4.3959315     14364.22    2780.6925   -6911.1324    47223.099   -41546.499     4098.211   -7615.5843    84.947919 
   99600    2183.5075   -110.37295    1.9756835   -108.39727    21951.857    4.4084452    4.4084452    4.4084452    21951.857    68051.709   -2373.3268    177.18983      16752.3      4518.92    17125.122    85.675437 
   99700    474.93683   -108.84941   0.42973282   -108.41968   -21247.303    4.4481981    4.4481981    4.4481981   -21247.303   -4028.4423   -72174.679    12461.213    -56295.08    7481.4757    34781.752    88.014124 
   99800    2432.0806   -110.53663    2.2005977   -108.33603   -32916.467    4.4523409    4.4523409    4.4523409   -32916.467   -31896.028    -39657.27   -27196.103    28166.325   -9022.0377   -14837.828    88.260267 
   99900    723.52226   -108.98373   0.65465815   -108.32908    180.09201    4.4302703    4.4302703    4.4302703    180.09201    7552.8235   -14214.616    7202.0688   -40634.717    8129.9505    47230.478    86.954222 
  100000    2129.7114   -110.23982    1.9270076   -108.31281    16087.513    4.4185042    4.4185042    4.4185042    16087.513    3970.2607    23555.394    20736.884   -19675.237   -1909.3826   -14519.755    86.263251 
Loop time of 21.6126 on 1 procs for 100000 steps with 8 atoms

Pair  time (%) = 6.29602 (29.1312)
Kspce time (%) = 5.45487 (25.2393)
Neigh time (%) = 0.155885 (0.721268)
Comm  time (%) = 0.813561 (3.76428)
Outpt time (%) = 0.0259168 (0.119915)
Other time (%) = 8.86638 (41.024)

Nlocal:    8 ave 8 max 8 min
Histogram: 1 0 0 0 0 0 0 0 0 0
Nghost:    1582 ave 1582 max 1582 min
Histogram: 1 0 0 0 0 0 0 0 0 0
Neighs:    1973 ave 1973 max 1973 min
Histogram: 1 0 0 0 0 0 0 0 0 0

Total # of neighbors = 1973
Ave neighs/atom = 246.625
Neighbor list builds = 2208
Dangerous builds = 0
unfix 20
unfix 21
print "seeds:4133634"
seeds:4133634
