LAMMPS (10 Feb 2015)
# ---- initialize simulations
clear
units metal
dimension 3
boundary p p p
atom_style charge
atom_modify map array
# ---- create atoms
read_data /Users/eugeneragasa/pyflamestk_git/pypospack/tests/tests_integration/workflow/WorkflowLammpsThermalExpansion/param_9837/MgO_NaCl_unit.npt.T600/lammps.structure
  triclinic box = (0 0 0) to (4.2565 4.2565 4.2565) with tilt (0 0 0)
  1 by 1 by 1 MPI processor grid
  reading atoms ...
  8 atoms
# ---- define interatomic potential
include potential.mod
mass 1 24.305
mass 2 15.999

group Mg type 1
4 atoms in group Mg
group O type 2
4 atoms in group O

set group Mg charge 1.66768155913
  4 settings made for charge
set group O charge -1.66768155913
  4 settings made for charge

variable R_cut equal 10.0

pair_style buck/coul/long ${R_cut}
pair_style buck/coul/long 10
pair_coeff 1 1 0.0 0.5 0.0 ${R_cut}
pair_coeff 1 1 0.0 0.5 0.0 10
pair_coeff 1 2 1248.0823356 0.293822485762 0.0 ${R_cut}
pair_coeff 1 2 1248.0823356 0.293822485762 0.0 10
pair_coeff 2 2 31778.9957117 0.212502502632 34.6036277069 ${R_cut}
pair_coeff 2 2 31778.9957117 0.212502502632 34.6036277069 10

kspace_style pppm 1.0e-5

neighbor 1.0 bin
neigh_modify every 1 delay 0 check yes
# ---- define settings
compute eng all pe/atom
compute eatoms all reduce sum c_eng
# ---- run minimization
reset_timestep 0
fix 1 all box/relax iso 0.0 vmax 0.001
thermo 10
thermo_style custom step pe lx ly lz xy xz yz press pxx pyy pzz pxy pxz pyz c_eatoms
min_style cg
minimize 1e-25 1e-25 5000 10000
PPPM initialization ...
  G vector (1/distance) = 0.352908
  grid = 8 8 8
  stencil order = 5
  estimated absolute RMS force accuracy = 3.98663e-05
  estimated relative force accuracy = 2.76856e-06
  using double precision FFTs
  3d grid and FFT values/proc = 3375 512
Neighbor list info ...
  1 neighbor list requests
  update every 1 steps, delay 0 steps, check yes
  master list distance cutoff = 11
Memory usage per processor = 4.06549 Mbytes
Step PotEng Lx Ly Lz Xy Xz Yz Press Pxx Pyy Pzz Pxy Pxz Pyz eatoms 
       0   -110.76064       4.2565       4.2565       4.2565            0            0            0    174504.14    174504.14    174504.14    174504.14 9.3704156e-11 -1.8744789e-10 -4.5445427e-11   -110.76064 
      10   -110.96575     4.299065     4.299065     4.299065            0            0            0    110293.78    110293.78    110293.78    110293.78 1.4024136e-10 -8.8674493e-11 1.1163093e-10   -110.96575 
      20   -111.08678      4.34163      4.34163      4.34163            0            0            0    53874.038    53874.038    53874.038    53874.038 -1.7149362e-10 -3.6153785e-12 -2.8025662e-10   -111.08678 
      30   -111.12967     4.384195     4.384195     4.384195            0            0            0    4480.0037    4480.0037    4480.0037    4480.0037 2.9824961e-11 1.1991676e-10 2.4884808e-10   -111.12967 
      35   -111.13002    4.3883439    4.3883439    4.3883439            0            0            0  -0.29149971   -0.2914997  -0.29149971  -0.29149971 -2.2034763e-11 5.2889443e-11 3.1711826e-11   -111.13002 
Loop time of 0.016221 on 1 procs for 35 steps with 8 atoms

Minimization stats:
  Stopping criterion = linesearch alpha is zero
  Energy initial, next-to-last, final = 
        -110.760644492     -111.130018171     -111.130018171
  Force two-norm initial, final = 25.1985 4.50194e-05
  Force max component initial, final = 25.1985 4.47407e-05
  Final line search alpha, max atom move = 0.5 2.23704e-05
  Iterations, force evaluations = 35 47

Pair  time (%) = 0.00420427 (25.9186)
Kspce time (%) = 0.00253344 (15.6182)
Neigh time (%) = 0 (0)
Comm  time (%) = 0.00050807 (3.13217)
Outpt time (%) = 3.91006e-05 (0.241049)
Other time (%) = 0.00893617 (55.09)

Nlocal:    8 ave 8 max 8 min
Histogram: 1 0 0 0 0 0 0 0 0 0
Nghost:    2189 ave 2189 max 2189 min
Histogram: 1 0 0 0 0 0 0 0 0 0
Neighs:    2344 ave 2344 max 2344 min
Histogram: 1 0 0 0 0 0 0 0 0 0

Total # of neighbors = 2344
Ave neighs/atom = 293
Neighbor list builds = 0
Dangerous builds = 0
unfix 1
# ---- define output variables ----
variable natoms equal "count(all)"
variable tot_energy equal "c_eatoms"
variable length_x equal "lx"
variable length_y equal "ly"
variable length_z equal "lz"
variable tilt_xy equal "xy"
variable tilt_xz equal "xz"
variable tilt_yz equal "yz"
variable tot_press equal "press"
variable press_xx equal "pxx"
variable press_yy equal "pyy"
variable press_zz equal "pzz"
variable press_xy equal "pxy"
variable press_xz equal "pxz"
variable press_yz equal "pyz"

# ---- output ----
print "pypospack:output_section:begin"
pypospack:output_section:begin
print "tot_energy = ${tot_energy}"
tot_energy = -111.130018170686
print "num_atoms = ${natoms}"
num_atoms = 8
print "xx = ${length_x}"
xx = 4.38834393192064
print "yy = ${length_y}"
yy = 4.38834393192064
print "zz = ${length_z}"
zz = 4.38834393192064
print "xy = ${tilt_xy}"
xy = 0
print "xz = ${tilt_xz}"
xz = 0
print "yz = ${tilt_yz}"
yz = 0
print "tot_press = ${tot_press}"
tot_press = -0.291499705167032
print "pxx = ${press_xx}"
pxx = -0.291499704907524
print "pyy = ${press_yy}"
pyy = -0.291499705134451
print "pzz = ${press_zz}"
pzz = -0.291499705459123
print "pxy = ${press_xy}"
pxy = -2.20347627600699e-11
print "pxz = ${press_xz}"
pxz = 5.28894429779567e-11
print "pyz = ${press_yz}"
pyz = 3.17118260401048e-11
print "pypospack:output_section:done"
pypospack:output_section:done
print "pypospack:lammps_sim:done"
pypospack:lammps_sim:done
#------------------------------------------------------------------------------
# RUN THERMOSTAT
# running using an NPT Nose-Hoover style thermostat
#------------------------------------------------------------------------------
variable tempdamp equal 0.1
variable pressdamp equal 1.0
# set initial velocities
velocity all create 600 9952587 mom yes dist gaussian loop all
# fix for Nose-Hoover style thermostat
fix 20 all npt temp 600 600 0.1 aniso 0.0 0.0 1.0 drag 1.0 couple xyz
variable boxx equal lx
variable boxy equal ly
variable boxz equal lz
variable boxp equal press
variable boxt equal temp
# calculate averages every 10000 steps
reset_timestep 0
fix 21 all ave/time 10 10 100 v_boxx v_boxy v_boxz v_boxp v_boxt file lattice.out
thermo_style custom step temp pe ke etotal press lx ly lz press pxx pyy pzz pxy pxz pyz vol
thermo_modify flush yes
thermo 100
run 100000
PPPM initialization ...
  G vector (1/distance) = 0.351569
  grid = 8 8 8
  stencil order = 5
  estimated absolute RMS force accuracy = 4.24255e-05
  estimated relative force accuracy = 2.94629e-06
  using double precision FFTs
  3d grid and FFT values/proc = 3375 512
Memory usage per processor = 3.06549 Mbytes
Step Temp PotEng KinEng TotEng Press Lx Ly Lz Press Pxx Pyy Pzz Pxy Pxz Pyz Volume 
       0          600   -111.12999   0.54289261    -110.5871    6865.5134    4.3883439    4.3883439    4.3883439    6865.5134    6129.2786    2410.5903    12056.671   -1671.5686    111.51249    489.00828    84.508807 
     100    176.16092    -110.6728    0.1593941   -110.51341     -6180.08    4.4177415    4.4177415    4.4177415     -6180.08   -15037.174   -20835.876    17332.811     3181.239   -6050.3333   -4926.6987    86.218585 
     200    528.39656   -110.84486   0.47810432   -110.36676   -10601.431    4.4110056    4.4110056    4.4110056   -10601.431   -9958.6907   -20719.597   -1126.0043    2518.6981    3198.5685   -2278.8589    85.824803 
     300     486.7357   -110.67975   0.44040869   -110.23934    19576.116      4.40595      4.40595      4.40595    19576.116    12451.954   -5477.2283    51753.623   -1023.2099   -6041.4844     3337.125    85.530045 
     400    524.83605   -110.61678   0.47488269   -110.14189   -18261.387    4.4324689    4.4324689    4.4324689   -18261.387   -19714.653   -37931.136    2861.6272    5075.4388    3463.4902   -9240.2118    87.083744 
     500    534.95836   -110.55539   0.48404157   -110.07135    11145.109     4.411542     4.411542     4.411542    11145.109    3881.2147   -15943.767    45497.881   -818.40835    2504.5572    4200.3651    85.856119 
     600    624.34899   -110.61098   0.56492409   -110.04605   -1184.2843    4.4261974    4.4261974    4.4261974   -1184.2843    6443.3915   -23712.447    13716.203    1642.3523    3668.5415   -1299.2196    86.714624 
     700    651.36452   -110.62925   0.58936831   -110.03988   -12533.685    4.4214376    4.4214376    4.4214376   -12533.685    9184.0704   -35135.139   -11649.986    4966.1805    8128.2273   -7613.2337    86.435174 
     800    450.02701   -110.44857    0.4071939   -110.04137    18571.413    4.4140384    4.4140384    4.4140384    18571.413    32733.723    -14903.23    37883.746   -1292.2609   -4495.9886     5507.256    86.001957 
     900    732.84832   -110.70358   0.66309656   -110.04048   -12555.646    4.4343754    4.4343754    4.4343754   -12555.646   -180.94378   -30689.034   -6796.9597   -1035.6823    5720.8007    3526.3552    87.196162 
    1000    372.28205   -110.37617   0.33684862   -110.03932    30497.631     4.405633     4.405633     4.405633    30497.631    24316.595   -7541.1338    74717.431    3812.6734   -3178.2812   -3577.1435    85.511582 
    1100    684.95741    -110.6652   0.61976386   -110.04543   -15400.126    4.4331499    4.4331499    4.4331499   -15400.126   -13146.282   -32856.455   -197.64029   -176.54368    782.19399    5769.2866    87.123887 
    1200    504.82066   -110.49827   0.45677234   -110.04149    8158.7497    4.4217526    4.4217526    4.4217526    8158.7497    11634.052   -11389.213     24231.41    639.92212   -270.49172    2538.4402    86.453646 
    1300    845.71527   -110.80637   0.76522095   -110.04115     6361.425    4.4036955    4.4036955    4.4036955     6361.425    21587.949   -6896.8278    4393.1534    3432.3069   -161.53092   -8037.6975    85.398815 
    1400    372.97757   -110.38488   0.33747794    -110.0474   -13847.191    4.4422628    4.4422628    4.4422628   -13847.191   -7273.9059    -30292.04   -3975.6277   -3720.4144    9222.3301     9930.442    87.662276 
    1500     906.7943   -110.85377   0.82048654   -110.03328   -324.15138    4.4136716    4.4136716    4.4136716   -324.15138   -2376.5032   -8277.7748    9681.8239    3197.9319   -4564.7767    349.59649    85.980516 
    1600    548.36086   -110.53315   0.49616843   -110.03699    4075.8657    4.4197994    4.4197994    4.4197994    4075.8657    5988.6394   -17821.884    24060.842   -805.63253    6464.5955   -1628.3233     86.33913 
    1700    514.02562   -110.50304   0.46510119   -110.03794   -12952.358    4.4324558    4.4324558    4.4324558   -12952.358    -9232.264   -33102.411    3477.6029   -356.60096   -2753.2696    7904.7647     87.08297 
    1800     729.0566   -110.69419   0.65966573   -110.03452    11663.812     4.412523     4.412523     4.412523    11663.812    4606.9827    -4344.508    34728.961   -378.55162   -4497.3943   -2300.3597    85.913406 
    1900    618.95707   -110.60383   0.56004536   -110.04379   -2222.6152     4.427137     4.427137     4.427137   -2222.6152   -1915.5381   -15382.717    10630.409     870.7962    1718.6846   -271.96998    86.769859 
    2000    557.54211    -110.5479   0.50447581   -110.04342   -212.65504    4.4218533    4.4218533    4.4218533   -212.65504    26310.112   -25372.791   -1575.2867   -457.66968   -5156.9886    5742.4797    86.459554 
    2100    803.70354   -110.76609   0.72720785   -110.03888   -4399.6534    4.4231869    4.4231869    4.4231869   -4399.6534   -4682.7083   -9372.3926    856.14083   -2855.4931    1550.2687   -3044.2684    86.537803 
    2200    555.30453   -110.54148   0.50245121   -110.03902   -833.63985    4.4258647    4.4258647    4.4258647   -833.63985    14995.023   -17234.947   -260.99503    3444.2389   -4003.4989    3699.0868    86.695069 
    2300    617.44935   -110.59921   0.55868114   -110.04053   -4722.3193    4.4198308    4.4198308    4.4198308   -4722.3193   -1541.4344   -24036.297    11410.773    -4490.142    3289.2303    5011.5405    86.340974 
    2400     664.9694   -110.64477   0.60167829   -110.04309    337.45102    4.4215376    4.4215376    4.4215376    337.45102     7824.934   -15608.808    8796.2269     2093.921   -1470.3783   -7628.5812    86.441037 
    2500    518.76803   -110.51289   0.46939221    -110.0435     14838.85    4.4154934    4.4154934    4.4154934     14838.85    4669.2832   -14443.136    54290.401    2231.0841   -3332.5551    4524.5579    86.087029 
    2600     501.7432   -110.50146   0.45398779   -110.04748   -7814.7106     4.429465     4.429465     4.429465   -7814.7106   -9433.7531   -32107.962    18097.583   -5984.4417    670.75725     5852.871    86.906811 
    2700    623.81542   -110.60617    0.5644413   -110.04173   -1738.9406    4.4185616    4.4185616    4.4185616   -1738.9406      4378.46   -23707.476    14112.194    1297.4948   -4011.5622   -8376.0797    86.266613 
    2800    873.42631   -110.83071   0.79029448   -110.04041    4.1517069    4.4112366    4.4112366    4.4112366    4.1517069     11867.55   -14791.359    2936.2643    2639.8343    1105.8513    8261.2225    85.838287 
    2900    394.34234   -110.40093   0.35680924   -110.04412   -17588.687    4.4378991    4.4378991    4.4378991   -17588.687   -18652.665   -37359.609    3246.2115   -5885.6794   -3910.1684   -1026.9771    87.404194 
    3000     805.4389   -110.76438   0.72877804    -110.0356    3254.0968    4.4049333    4.4049333    4.4049333    3254.0968    12293.646   -17859.416    15328.061    1574.2575    -4091.578   -6440.2405    85.470847 
    3100    493.71284   -110.49465   0.44672176   -110.04792    5708.0459      4.42255      4.42255      4.42255    5708.0459   -1485.7178   -17755.973    36365.828   -47.177317   -1711.0544    5131.9735     86.50043 
    3200    589.05177   -110.57591   0.53298642   -110.04293   -21414.192     4.432714     4.432714     4.432714   -21414.192   -33917.165    -42086.76     11761.35   -5120.7524    507.82215   -2330.0302    87.098193 
    3300    550.03908   -110.53317   0.49768692   -110.03548    21628.171    4.4046499    4.4046499    4.4046499    21628.171    15672.628   -7888.8727    57100.756    3279.1783   -1911.3137     -4689.39    85.454353 
    3400    723.87974   -110.69983    0.6549816   -110.04484   -10958.447    4.4294909    4.4294909    4.4294909   -10958.447   -14149.126   -19382.071    655.85608   -770.10798    3345.2695    5620.8499    86.908335 
    3500    600.61849   -110.58517   0.54345223   -110.04172   -13370.687     4.425177     4.425177     4.425177   -13370.687   -18124.351   -23091.771    1104.0601   -3508.1069   -691.34734    -4063.863    86.654665 
    3600    678.34453   -110.65223   0.61378038   -110.03845    9399.1121    4.4092603    4.4092603    4.4092603    9399.1121    5481.6262   -6228.0403     28943.75    3124.9475   -1178.8935   -4350.8294    85.722973 
    3700     640.5346   -110.62118   0.57956917   -110.04161   -9943.4488    4.4325407    4.4325407    4.4325407   -9943.4488   -17563.994   -20282.345    8015.9932   -226.53243    7907.0201    2262.0399    87.087978 
    3800    306.49858   -110.31933   0.27732635     -110.042    11993.548     4.416784     4.416784     4.416784    11993.548   -4093.4064   -9131.7697    49205.821    -833.3325   -5235.7016   -6993.6112    86.162539 
    3900    783.50341   -110.75174   0.70893035   -110.04281    554.25484    4.4125195    4.4125195    4.4125195    554.25484   -8632.2738   -19032.912     29327.95    2620.1892    6694.1065   -1564.9909    85.913206 
    4000    421.14671    -110.4274   0.38106239   -110.04634    5869.0141    4.4294338    4.4294338    4.4294338    5869.0141    -3746.046   -9047.8383    30400.927    3226.3628     2483.576   -2668.9753    86.904976 
    4100    737.76214   -110.70998   0.66754269   -110.04244   -13714.831    4.4208393    4.4208393    4.4208393   -13714.831   -12810.882   -17913.222   -10420.389   -1353.8065    581.63288   -1440.7725    86.400087 
    4200    706.03736    -110.6803   0.63883744   -110.04146    2655.1617     4.413567     4.413567     4.413567    2655.1617   -1590.9062   -10213.171    19769.563   -780.97131    1784.9296   -3015.4451    85.974406 
    4300    570.12593   -110.56184   0.51586193   -110.04597    4567.5679    4.4251696    4.4251696    4.4251696    4567.5679   -12384.944   -4305.3552    30393.003    2779.3035     1355.793    5298.7126    86.654226 
    4400    540.65643    -110.5376    0.4891973   -110.04841    1467.0147    4.4213825    4.4213825    4.4213825    1467.0147   -14266.547   -23045.676    41713.267   -1190.6602   -3794.6049    1646.5268    86.431938 
    4500    446.27594   -110.45093   0.40379985   -110.04713    12485.181     4.415024     4.415024     4.415024    12485.181   -6503.7415   -15526.281    59485.567   -2248.5163    1437.9589    3382.6801    86.059577 
    4600    732.09463   -110.71062    0.6624146   -110.04821   -5939.0832    4.4262192    4.4262192    4.4262192   -5939.0832   -13036.307   -7731.0755    2950.1332     1232.196    61.671527    1502.9163    86.715903 
    4700     546.3161   -110.54182   0.49431829   -110.04751   -669.94477    4.4225163    4.4225163    4.4225163   -669.94477    1004.0795   -17512.015    14498.101    771.00469    -2403.995   -2316.0393    86.498448 
    4800     788.8805   -110.75767   0.71379565   -110.04388   -4527.1389    4.4125337    4.4125337    4.4125337   -4527.1389   -387.13522   -19952.001    6757.7192   -3630.2216   -29.388059   -961.80296    85.914031 
    4900    481.62547   -110.48621   0.43578484   -110.05043    5828.8361    4.4271698    4.4271698    4.4271698    5828.8361   -7252.3717   -6235.7625    30974.643   -56.155175   -5407.4089   -39.148902    86.771785 
    5000    420.20932   -110.42545   0.38021422   -110.04523    11942.381    4.4221651    4.4221651    4.4221651    11942.381     1014.388   -14672.108    49484.861    2663.2198    -4175.128   -3976.9601    86.477848 
    5100    706.24976   -110.68225   0.63902962   -110.04322   -542.97539    4.4131042    4.4131042    4.4131042   -542.97539   -2950.4226   -21874.496    23195.993   -3083.0724   -3496.0818   -1704.3055    85.947359 
    5200    523.63531   -110.52024   0.47379624   -110.04645    7284.2039    4.4266625    4.4266625    4.4266625    7284.2039   -2630.7364    -3263.536    27746.884   -1751.2886   -290.66849   -2233.7775    86.741961 
    5300    773.39753   -110.74447   0.69978634   -110.04469   -9810.1779    4.4214952    4.4214952    4.4214952   -9810.1779   -760.51615   -19226.375   -9443.6425    1579.5599   -603.51297   -1637.7535    86.438551 
    5400    472.46085   -110.47565   0.42749251   -110.04816    10163.878    4.4095391    4.4095391    4.4095391    10163.878    6080.6359    -8223.997    32634.995   -3911.3065    4877.5599    5107.8054    85.739233 
    5500    585.09583   -110.57803   0.52940701   -110.04862   -2774.2391    4.4330399    4.4330399    4.4330399   -2774.2391   -8190.5203   -19797.124    19664.927   -570.03876    4937.2404   -305.42803    87.117402 
    5600    436.49779   -110.43822   0.39495238   -110.04327    10519.273     4.420145     4.420145     4.420145    10519.273   -4103.4644   -10618.289    46279.573    2044.9362    5195.5252    2729.0303    86.359385 
    5700     586.4703    -110.5702   0.53065065   -110.03955    7162.2942    4.4042762    4.4042762    4.4042762    7162.2942    179.97659   -9631.8237     30938.73   -2752.4906    4212.7173    6806.5275    85.432603 
    5800    654.21575   -110.63283   0.59194816   -110.04089   -15374.817    4.4390989    4.4390989    4.4390989   -15374.817   -16674.263   -22999.715   -6450.4731   -1147.2475    6701.5448    -2655.101    87.475103 
    5900    711.02266   -110.68618   0.64334825   -110.04283    1937.0198    4.4120072    4.4120072    4.4120072    1937.0198    4335.2369   -6051.6063    7527.4289    2557.9835    4172.4426    8932.3747    85.883284 
    6000    632.60442   -110.61435   0.57239377   -110.04196    7435.0949    4.4017071    4.4017071    4.4017071    7435.0949    10891.561   -7825.3774    19239.101   -2816.7181    892.39977    3329.5264    85.283184 
    6100    536.01607   -110.52426    0.4849986   -110.03926   -16195.737    4.4488498    4.4488498    4.4488498   -16195.737   -25172.632   -32468.389    9053.8097   -2223.3194    9402.5109    -1342.092    88.052809 
    6200    603.08533   -110.58512   0.54568428   -110.03944    16715.284    4.4021149    4.4021149    4.4021149    16715.284     16982.79    689.59118     32473.47    3096.4257   -9205.7827    8887.8544    85.306893 
    6300    335.69345   -110.34823   0.30374249   -110.04449    14921.175    4.4024417    4.4024417    4.4024417    14921.175    4355.8904   -6117.3682    46525.002   -3553.9731     6600.954    2129.5851    85.325895 
    6400    670.46403   -110.64262   0.60664995   -110.03597   -29157.422    4.4473201    4.4473201    4.4473201   -29157.422   -26299.733   -41583.135     -19589.4   -58.622345   -1179.4591   -7373.7862    87.962017 
    6500    613.85739   -110.58736   0.55543106   -110.03193    28494.855     4.393767     4.393767     4.393767    28494.855    16997.224     16050.96     52436.38    3464.1927   -4493.3949    2311.3396    84.822503 
    6600    645.61631   -110.63203   0.58416721   -110.04786   -16800.866    4.4190562    4.4190562    4.4190562   -16800.866   -12917.268   -30264.888    -7220.442   -5444.8777    7912.7788    3943.5203    86.295587 
    6700    508.24454   -110.49931   0.45987034   -110.03944   -8728.0646     4.438314     4.438314     4.438314   -8728.0646    -12466.51   -28419.078    14701.394    2168.4318   -3541.0935   -5981.6306    87.428712 
    6800    786.21226   -110.73869   0.71138138   -110.02731    16441.859     4.393735     4.393735     4.393735    16441.859    8201.2133    1738.3008    39386.063    4336.5262    2776.5186    7247.1936    84.820647 
    6900    324.91746   -110.34205   0.29399215   -110.04806   -401.05633     4.421768     4.421768     4.421768   -401.05633   -12647.831   -28093.669    39538.331    -3697.772    4975.3374     3605.437    86.454552 
    7000    693.99474   -110.66975   0.62794103    -110.0418   -13377.576    4.4333625    4.4333625    4.4333625   -13377.576   -10670.805   -25441.853   -4020.0703    2670.9316    6503.8666   -2886.0235    87.136425 
    7100    662.13418   -110.63378   0.59911292   -110.03467    20117.038    4.3976223    4.3976223    4.3976223    20117.038    6042.2428    7374.3661    46934.505    4207.3644   -6937.9977     4429.542    85.045977 
    7200    591.44911   -110.58242   0.53515559   -110.04727    -11473.99    4.4219385    4.4219385    4.4219385    -11473.99    -11489.16   -21258.739   -1674.0714   -1223.6363    12810.854    1640.4745    86.464553 
    7300     658.8994   -110.63292   0.59618603   -110.03674   -14282.957    4.4370449    4.4370449    4.4370449   -14282.957   -11912.234   -30764.685   -171.95316    2981.6996   -1921.7667   -2617.5259    87.353736 
    7400    697.87517   -110.66215   0.63145212    -110.0307    20721.544    4.3951643    4.3951643    4.3951643    20721.544    5790.3646    12290.797     44083.47    4271.6388    1116.0914    2202.8694    84.903451 
    7500    532.57409   -110.53433   0.48188423   -110.05244   -11650.637    4.4240263    4.4240263    4.4240263   -11650.637   -21280.247   -30292.709    16621.045    62.694209    11544.077   -1541.7213     86.58708 
    7600    504.72258   -110.50562    0.4566836   -110.04893   -7440.7739    4.4293218    4.4293218    4.4293218   -7440.7739   -11390.851   -33323.928    22392.457    1477.6962   -6535.2328   -9146.0002    86.898381 
    7700    809.85266    -110.7689   0.73277171   -110.03613    23075.468    4.3891541    4.3891541    4.3891541    23075.468    6089.7916    14356.048    48780.564    3960.5293    6169.1129    3510.1763    84.555622 
    7800    471.03835   -110.47576    0.4262054   -110.04956   -28653.446    4.4392457    4.4392457    4.4392457   -28653.446   -30708.419   -37742.049    -17509.87   -1548.2062    5637.6926   -7019.7846     87.48378 
    7900    772.78638   -110.74382   0.69923336   -110.04459   -12290.507    4.4121327    4.4121327    4.4121327   -12290.507   -2453.4254    -22862.46   -11555.635    1942.1218   -598.69319    -10807.06    85.890612 
    8000    625.02499   -110.60814   0.56553575    -110.0426    23472.963    4.3957325    4.3957325    4.3957325    23472.963   -1484.7787    10889.795    61013.872    831.49225   -1083.0619    3691.5765    84.936384 
    8100    485.28208   -110.48173   0.43909342   -110.04263   -13380.147    4.4374128    4.4374128    4.4374128   -13380.147   -29929.928   -36348.889    26138.376    -3009.559    5555.9464    -4131.502    87.375462 
    8200    577.61671   -110.55916   0.52263973   -110.03652    12480.414    4.4107264    4.4107264    4.4107264    12480.414   -1361.2313   -18010.985    56813.459    2524.0576   -3895.2906   -8112.9091     85.80851 
    8300    699.91649   -110.67245   0.63329915   -110.03915   -2958.1639    4.4135448    4.4135448    4.4135448   -2958.1639   -19256.713   -12481.684    22863.906   -1583.4282    2173.4082    6414.9385    85.973105 
    8400    790.68236   -110.75588   0.71542601   -110.04045   -12031.865    4.4202687    4.4202687    4.4202687   -12031.865   -16558.568    -19248.15   -288.87529   -2510.3833    1627.4177   -4320.2473    86.366639 
    8500    552.14128   -110.54666   0.49958903   -110.04708    247.20001    4.4169998    4.4169998    4.4169998    247.20001   -7276.4859   -22948.977    30967.063   -1683.5063    2886.8354   -686.04154    86.175166 
    8600    526.32126   -110.52536   0.47622653   -110.04913   -3595.2682    4.4151825    4.4151825    4.4151825   -3595.2682   -27491.554   -15726.819    32432.568   -3400.3107   -2132.3244    10305.217    86.068848 
    8700    549.97175   -110.54512   0.49762599    -110.0475    5709.4018    4.4163071    4.4163071    4.4163071    5709.4018   -11633.565   -14922.542    43684.312    1746.7602    8146.0402   -194.62811    86.134633 
    8800    578.70411   -110.56906   0.52362364   -110.04543   -11048.698    4.4235874    4.4235874    4.4235874   -11048.698   -20716.717   -33012.353    20582.975   -6873.3196    366.22577   -1522.0228    86.561313 
    8900    625.33601   -110.60869   0.56581716   -110.04287   -2375.2498    4.4065866    4.4065866    4.4065866   -2375.2498   -13361.158   -13122.479    19357.888   -3526.7063   -3163.1087    9259.5872    85.567121 
    9000    709.59538   -110.68947   0.64205681   -110.04741    -4478.482     4.417989     4.417989     4.417989    -4478.482   -11938.561   -18099.074    16602.189    2165.7454    7580.7005   -7717.7518    86.233078 
    9100     674.8874   -110.65748    0.6106523   -110.04683   -12518.331    4.4192945    4.4192945    4.4192945   -12518.331   -20331.828   -25353.051    8129.8868   -6184.4464   -6226.9317   -243.20692    86.309543 
    9200    316.74218   -110.33409   0.28659498   -110.04749    12141.451    4.4123277    4.4123277    4.4123277    12141.451   -19004.601   -14402.036    69830.991    846.95084   -25.258903    3179.8758    85.902002 
    9300    851.59708   -110.81229   0.77054294   -110.04175   -8943.7821    4.4191732    4.4191732    4.4191732   -8943.7821   -22196.037   -21833.358    17198.049   -13.350773   -2458.2192   -8204.7233     86.30244 
    9400    414.87711   -110.42151   0.37538953   -110.04612    7019.9984    4.4114401    4.4114401    4.4114401    7019.9984    -11986.15   -11235.458    44281.604    -4873.213   -4289.9936    675.88341    85.850169 
    9500    564.19752     -110.563   0.51049777    -110.0525   -16873.117    4.4164521    4.4164521    4.4164521   -16873.117   -21171.162   -24829.069   -4619.1195    4246.5338   -17604.157    3818.9629    86.143114 
    9600    870.02634   -110.83474   0.78721811   -110.04752   -4553.7915    4.4168675    4.4168675    4.4168675   -4553.7915   -8820.1059   -16503.111    11661.842    656.52009    3257.5768   -187.87655    86.167424 
    9700    583.22974   -110.57776   0.52771852   -110.05004    -8311.195    4.4211342    4.4211342    4.4211342    -8311.195    -22398.21   -23501.422    20966.047   -1300.7305   -6210.6183   -2897.4164    86.417382 
    9800    448.07369   -110.45606   0.40542649   -110.05063    2432.4422    4.4093216    4.4093216    4.4093216    2432.4422    -15681.41    -12077.97    35056.706    3220.0924   -9058.9948     4272.741    85.726549 
    9900     598.8913    -110.5885   0.54188943   -110.04661    4334.1081    4.4240675    4.4240675    4.4240675    4334.1081   -16361.639   -25258.536      54622.5     1307.479    3397.0908   -4322.5326    86.589499 
   10000    673.35755   -110.65869   0.60926806   -110.04943   -5428.3616    4.4148921    4.4148921    4.4148921   -5428.3616   -17418.784   -11709.271     12842.97    297.42174   -5136.4838    2383.2923    86.051863 
   10100    486.30999   -110.49243    0.4400235   -110.05241    1369.1046    4.4070039    4.4070039    4.4070039    1369.1046   -7199.1733   -2765.1643    14071.651    3952.4336   -2837.3818    2793.4058    85.591435 
   10200    888.23696   -110.84812   0.80369546   -110.04442   -22035.494    4.4349049    4.4349049    4.4349049   -22035.494   -25020.578   -33778.995   -7306.9108   -639.10001    829.57394    2178.6436    87.227399 
   10300     527.4048   -110.52182   0.47720695   -110.04461   -567.05885    4.4100896    4.4100896    4.4100896   -567.05885   -11754.424   -7426.8871    17480.134    -3601.082   -542.37459    5382.8847    85.771351 
   10400    215.92804   -110.24423   0.19537623   -110.04885    14968.116    4.4073364    4.4073364    4.4073364    14968.116   -9220.2778   -5768.8801    59893.506    4286.3792   -4193.4208    9950.9773    85.610808 
   10500    794.12922   -110.76286   0.71854481   -110.04432   -12504.161     4.429367     4.429367     4.429367   -12504.161   -22417.174   -33908.905    18813.596   -1337.4396    8571.5773   -1475.5631    86.901045 
   10600    445.40828   -110.44756   0.40301477   -110.04455    14633.705    4.4054625    4.4054625    4.4054625    14633.705   -3943.2906   -6618.3728    54462.778   -2366.0945   -5527.6684    8372.7659    85.501656 
   10700    651.94524   -110.63919   0.58989375    -110.0493   -20468.414    4.4209557    4.4209557    4.4209557   -20468.414   -23740.896   -27236.206    -10428.14    6360.6379    -5094.863     4892.154    86.406912 
   10800    769.08013   -110.73937   0.69587986   -110.04349   -3671.0575    4.4192694    4.4192694    4.4192694   -3671.0575   -9480.5718   -23632.508    22099.907   -1699.6638   -905.94045   -3859.6531    86.308073 
   10900    503.10563   -110.50005   0.45522055   -110.04483    11281.722     4.404434     4.404434     4.404434    11281.722   -6808.3934   -11400.669    52054.228    2061.2792   -4917.9167    6216.1498    85.441788 
   11000    493.56212   -110.49773   0.44658538   -110.05115   -5428.1567     4.422947     4.422947     4.422947   -5428.1567   -21238.582   -33726.108     38680.22    4760.7503   -8203.6172    2710.2269    86.523724 
   11100     720.1322   -110.69724   0.65159075   -110.04565   -6604.4517     4.419467     4.419467     4.419467   -6604.4517   -15103.683   -27344.809    22635.137   -935.39145    991.88548    -4744.346    86.319651 
   11200    703.35807   -110.68087   0.63641316   -110.04445   -1702.1895    4.4008223    4.4008223    4.4008223   -1702.1895   -9132.1204   -10380.263    14405.815    6092.5108   -6344.9429    1403.2468    85.231768 
   11300    477.04515   -110.48484   0.43164048    -110.0532   -5535.8647     4.424738     4.424738     4.424738   -5535.8647   -13574.797    -31635.33    28602.534     1323.397   -8356.7097   -548.88199    86.628878 
   11400    831.39947   -110.79674   0.75226771   -110.04447   -17387.556    4.4240297    4.4240297    4.4240297   -17387.556   -23907.513   -34386.036    6130.8803    1739.6656    8375.8764   -11530.768    86.587283 
   11500    366.40643   -110.37422   0.33153223   -110.04269    21047.968     4.397637     4.397637     4.397637    21047.968   -5386.6037    -2146.438    70676.947    5565.7529   -3955.3792    820.05939    85.046831 
   11600    577.07297   -110.57229   0.52214775   -110.05015   -10634.476    4.4242421    4.4242421    4.4242421   -10634.476     -13251.3   -29392.082    10739.952   -2003.8484    1190.4521   -4844.3457    86.599753 
   11700    702.99776   -110.68063   0.63608715   -110.04454   -13037.443    4.4219687    4.4219687    4.4219687   -13037.443   -17878.174   -23630.543    2396.3883    467.42537    6340.9466   -7017.8606    86.466326 
   11800    634.44413    -110.6176   0.57405839   -110.04354    6902.8754    4.4036593    4.4036593    4.4036593    6902.8754   -5468.3043    -3608.265    29785.195    2079.6954   -1786.0347    275.95649    85.396707 
   11900    675.76957   -110.65704   0.61145051   -110.04559   -14550.945    4.4246881    4.4246881    4.4246881   -14550.945   -15619.648   -29350.802    1317.6136   -1701.5546   -1865.9347   -1017.1487    86.625943 
   12000    349.83482   -110.36606    0.3165379   -110.04952    10099.534    4.4143282    4.4143282    4.4143282    10099.534   -13055.295   -12405.883    55759.779   -1254.8282    1604.6461   -7920.3734    86.018892 
   12100    656.76866   -110.64347   0.59425809   -110.04922    7760.1193     4.406285     4.406285     4.406285    7760.1193   -9748.6994   -8155.2803    41184.337    1118.7924    -205.1841    5596.8563    85.549552 
   12200    631.39691   -110.62025    0.5713012   -110.04895   -11112.227    4.4263612    4.4263612    4.4263612   -11112.227   -15390.858   -35057.018    17111.196   -3006.7251   -5678.2915   -9153.5123    86.724249 
   12300    704.72655   -110.68382    0.6376514   -110.04617   -8229.9467    4.4161516    4.4161516    4.4161516   -8229.9467   -16080.716   -11836.742    3227.6178   -818.79128    1933.3559    76.355235    86.125533 
   12400    771.79817   -110.74075   0.69833921   -110.04241    1950.6942    4.4083721    4.4083721    4.4083721    1950.6942   -12452.939   -6165.7967    24470.818    96.686361   -4155.9714   -403.27819    85.671175 
   12500    372.62398   -110.38526   0.33715801    -110.0481   -2658.6756    4.4230589    4.4230589    4.4230589   -2658.6756   -18801.077   -35789.389    46614.439   -4816.3066    -2992.019   -4283.5409    86.530292 
   12600     570.0235   -110.56468   0.51576924   -110.04891   -3427.9471    4.4132421    4.4132421    4.4132421   -3427.9471   -22101.932   -11805.037    23623.128    669.79584    11197.196   -1792.7862     85.95542 
   12700    579.37079   -110.57001   0.52422686   -110.04578    7242.8344    4.4126122    4.4126122    4.4126122    7242.8344   -15667.372    -6446.127    43842.002    -2427.529    6907.2091    6191.7988     85.91862 
   12800    720.62168   -110.69816   0.65203364   -110.04613   -21122.779    4.4214911    4.4214911    4.4214911   -21122.779   -18204.455   -33413.651   -11750.232   -4223.2344   -1258.4853   -10321.919    86.438312 
   12900    625.18671   -110.61042   0.56568207   -110.04474   -10597.242    4.4145893    4.4145893    4.4145893   -10597.242   -18884.973   -13586.475    679.72154    2722.3497    16040.004   -565.38436    86.034157 
   13000    574.90407   -110.56422   0.52018529   -110.04404    3987.5656     4.412137     4.412137     4.412137    3987.5656   -19309.071   -19015.424    50287.191   -8680.7149    540.13163    235.92679     85.89086 
   13100    643.98523   -110.62935   0.58269137   -110.04666   -3992.7714    4.4149236    4.4149236    4.4149236   -3992.7714    -14138.95   -28957.607    31118.242   -2874.3924    4971.0906   -4817.0114    86.053705 
   13200    407.86054   -110.41678   0.36904078   -110.04774    -698.7011    4.4197261    4.4197261    4.4197261    -698.7011   -24482.428   -16841.271    39227.595    1469.4989    9412.8131   -1201.8009    86.334836 
   13300    866.22691    -110.8256   0.78378031   -110.04182   -13616.872    4.4114813    4.4114813    4.4114813   -13616.872    -22564.77   -27839.977    9554.1313   -14605.685    1284.1105    626.47914    85.852578 
   13400     489.6519   -110.48999   0.44304733   -110.04695   -1825.6994    4.4128212    4.4128212    4.4128212   -1825.6994   -1788.9683    -15848.63      12160.5    706.16991   -174.82144   -11549.548    85.930824 
   13500    638.04908   -110.62155   0.57732022   -110.04423    -19468.34    4.4230949    4.4230949    4.4230949    -19468.34   -33090.863   -24325.141   -989.01669   -2030.5698    6571.1939   -643.08084    86.532403 
   13600    591.05269   -110.57851    0.5347969   -110.04372    9952.5263    4.4059324    4.4059324    4.4059324    9952.5263   -13886.471   -16550.103    60294.153   -12410.416    432.24165    1982.5973    85.529021 
   13700    519.42505   -110.51781    0.4699867   -110.04782    2812.2194    4.4134419    4.4134419    4.4134419    2812.2194   -7132.6955   -13685.959    29255.313    2140.9613   -4183.2218   -11016.403    85.967092 
   13800    556.03799   -110.54761   0.50311486   -110.04449   -18905.073     4.427902     4.427902     4.427902   -18905.073   -34045.772   -28842.712    6173.2659   -7179.9695    10530.866    4826.7179    86.814845 
   13900    770.87425   -110.73673   0.69750322   -110.03922    12763.293    4.4008939    4.4008939    4.4008939    12763.293     626.4952   -2871.1238    40534.509   -3695.7349   -7501.2843   -6068.7789    85.235927 
   14000    695.97466   -110.67546   0.62973249   -110.04572   -11895.072    4.4175406    4.4175406    4.4175406   -11895.072   -12053.046   -19612.195   -4019.9737    879.05309    8423.5501   -5532.7238    86.206825 
   14100     271.0417   -110.29268   0.24524423   -110.04744    4830.5944    4.4213742    4.4213742    4.4213742    4830.5944   -16298.777   -16571.489     47362.05   -9496.4102    7232.7304    2128.4022    86.431452 
   14200    862.36236   -110.81922   0.78028359   -110.03894     11313.49    4.4017173    4.4017173    4.4017173     11313.49   -265.02994   -72.693486    34278.193    3245.3457    345.89935    1973.2363    85.283779 
   14300    461.91101   -110.46652   0.41794679   -110.04857   -4008.2424    4.4225512    4.4225512    4.4225512   -4008.2424   -19656.544   -16669.004    24300.821   -2362.9048     887.1655   -4871.7614      86.5005 
   14400    530.86903   -110.52874   0.48034146    -110.0484   -432.80455    4.4143733    4.4143733    4.4143733   -432.80455   -4336.5536   -12294.964    15333.104   -6290.7389    8480.6558    4035.9146    86.021533 
   14500    871.03364   -110.83022   0.78812954    -110.0421    4853.7129    4.4106883    4.4106883    4.4106883    4853.7129   -233.60857   -1821.5284    16616.276    5898.4503   -6792.4026    -3274.281    85.806286 
   14600    601.92504   -110.58918   0.54463442   -110.04455   -9099.9275     4.422451     4.422451     4.422451   -9099.9275   -14787.159   -12750.269    237.64482   -6690.3284    6034.9816    1658.2618    86.494622 
   14700    508.31488   -110.50347   0.45993398   -110.04354    4685.0452    4.4088784    4.4088784    4.4088784    4685.0452    1815.9144    -8904.723    21143.944   -1256.9815    5236.1857    3261.7977    85.700698 
   14800    641.88572   -110.62308   0.58079169   -110.04229    8632.0724    4.4158019    4.4158019    4.4158019    8632.0724   -995.25265   -6546.9075    33438.378    6174.9537   -9116.5854    1369.8291    86.105077 
   14900    583.14402   -110.57139   0.52764097   -110.04375   -538.04135    4.4198974    4.4198974    4.4198974   -538.04135   -14539.653   -15404.123    28329.653   -6580.0647    9746.5485    3129.2063    86.344877 
   15000    417.56573   -110.42173   0.37782224   -110.04391     6413.663    4.4120756    4.4120756    4.4120756     6413.663    -1634.341   -14329.289    35204.619    3124.5509   -3433.3647    6324.5795    85.887279 
   15100    831.81505   -110.79423   0.75264374   -110.04159   -3863.4289    4.4125287    4.4125287    4.4125287   -3863.4289   -4859.1139    -2795.348   -3935.8248    1745.0754   -2291.5281    1229.7189    85.913741 
   15200    562.70629   -110.55663   0.50914848   -110.04749    1571.1808    4.4154675    4.4154675    4.4154675    1571.1808   -8336.2891   -10175.458    23225.289   -5404.7986   -135.15227     1575.861    86.085511 
   15300    569.52063   -110.56259   0.51531423   -110.04728    2828.7243    4.4131794    4.4131794    4.4131794    2828.7243   -3878.3341   -15447.649    27812.156    6979.7117     6093.184    45.914147    85.951753 
   15400    537.56988   -110.53264   0.48640453   -110.04624    8402.5738    4.4173128    4.4173128    4.4173128    8402.5738   -7815.0696    -14947.03    47969.821   -2487.0232   -9685.0879   -3618.2738    86.193489 
   15500    558.77888   -110.54995   0.50559487   -110.04436    5641.2355     4.413948     4.413948     4.413948    5641.2355   -9965.5948   -13037.487    39926.789   -3319.2208    7348.0655   -2134.8478    85.996671 
   15600    639.14273   -110.62259   0.57830977   -110.04428    3227.6604    4.4101175    4.4101175    4.4101175    3227.6604   -3425.4168   -12463.415    25571.813    8624.5575   -3187.3276    -4061.322    85.772975 
   15700    536.77212   -110.53453    0.4856827   -110.04885   -5095.2888    4.4190873    4.4190873    4.4190873   -5095.2888   -4256.0176   -19460.721    8430.8721    -5147.243   -6048.4291    2305.3709    86.297405 
   15800     780.2643   -110.74901   0.70599954   -110.04301    567.65364    4.4121713    4.4121713    4.4121713    567.65364   -4470.3979   -13841.433    20014.792    166.42356    3121.6786   -6065.2313    85.892868 
   15900    445.98923   -110.45096   0.40354042   -110.04742    4715.5454    4.4189989    4.4189989    4.4189989    4715.5454   -6500.7139    -23801.51    44448.861    7830.7018   -6995.5665    7081.8808    86.292228 
   16000    550.27769   -110.54442   0.49790282   -110.04652    -3131.648    4.4157357    4.4157357    4.4157357    -3131.648   -10875.014   -25010.414    26490.483   -6492.4641    -2275.974   -1541.2245    86.101205 
   16100     506.6191   -110.50082   0.45839961   -110.04242    7250.6598    4.4140568    4.4140568    4.4140568    7250.6598   -4385.0373   -21416.972    47553.988    8440.3528   -1782.8169    3992.1078    86.003033 
   16200    594.71602   -110.58112   0.53811155   -110.04301   -7820.9862    4.4174243    4.4174243    4.4174243   -7820.9862   -12083.326   -25595.538    14215.905    3674.2115   -2899.1397     4037.563    86.200019 
   16300    648.48151   -110.62833   0.58675969   -110.04157   -681.47506     4.406625     4.406625     4.406625   -681.47506   -491.13972   -16018.587    14465.302     -5953.55   -9134.2544     4504.056    85.569362 
   16400    611.85509   -110.59747   0.55361934   -110.04385     -12285.8    4.4255083    4.4255083    4.4255083     -12285.8   -17845.523   -35522.472    16510.596    14343.495    5043.0897    707.27221    86.674125 
   16500    760.48776   -110.72764    0.6881053   -110.03953   -5967.6028    4.4108811    4.4108811    4.4108811   -5967.6028   -7061.7855   -14070.285    3229.2618   -861.22441   -11087.556    6859.8996    85.817537 
   16600    426.37259   -110.42794   0.38579088   -110.04215    10180.885     4.403894     4.403894     4.403894    10180.885    7545.9653   -14872.602    37869.292    1185.0675   -1448.6474    2769.5659    85.410362 
   16700     621.8373   -110.60575   0.56265146    -110.0431   -23639.241    4.4301613    4.4301613    4.4301613   -23639.241   -34217.632   -44032.165    7332.0725    16188.889   -366.19207   -1946.8065    86.947803 
   16800    604.82259   -110.58267   0.54725619   -110.03541    25481.625    4.3966801    4.3966801    4.3966801    25481.625    17735.612    5127.6968    53581.566   -4705.4652   -6010.4705    4629.7431    84.991324 
   16900    523.43527   -110.52173   0.47361523   -110.04811   -21375.679    4.4253997    4.4253997    4.4253997   -21375.679   -34543.987   -43706.221    14123.172    9362.8856   -2176.0493   -1700.4696    86.667745 
   17000    447.99249   -110.45154   0.40535302   -110.04618   -3281.5555    4.4153902    4.4153902    4.4153902   -3281.5555    -8401.358   -29642.386    28199.077    14330.256   -4142.3887   -733.09757    86.080993 
   17100    1011.3311   -110.95129   0.91507366   -110.03622    10216.538    4.3942343    4.3942343    4.3942343    10216.538    11921.677    4338.9248    14389.013   -3804.5438    2389.4813   -1254.2876    84.849568 
   17200     325.8629   -110.33975    0.2948476    -110.0449    -23687.54    4.4369978    4.4369978    4.4369978    -23687.54   -16034.243   -45647.632   -9380.7465     14925.42   -11663.115    1887.0875    87.350953 
   17300    755.90138   -110.72244   0.68395545   -110.03849    8401.7934    4.3956915    4.3956915    4.3956915    8401.7934    19954.246   -9509.5342    14760.668    8605.0822    10059.196   -8429.0384    84.934006 
   17400    662.84215   -110.64495   0.59975351   -110.04519   -3174.5511    4.4217546    4.4217546    4.4217546   -3174.5511    2167.7456   -19834.342    8142.9427   -1210.5273   -4190.7867    2705.0106    86.453765 
   17500    514.32079     -110.511   0.46536826   -110.04563   -13050.141    4.4194169    4.4194169    4.4194169   -13050.141   -17302.412   -27280.286     5432.274    15372.409   -492.67406   -3670.1637    86.316718 
   17600     498.5237     -110.492   0.45107472   -110.04093    18812.031    4.3984272    4.3984272    4.3984272    18812.031    28835.001   -10580.191    38181.284    1775.1251     9874.575   -1956.7603    85.092687 
   17700    628.54177   -110.60739   0.56871781   -110.03868   -8008.5159    4.4280551    4.4280551    4.4280551   -8008.5159   -22824.937   -23083.433    21882.823   -315.98655   -3055.7194   -2568.7701    86.823852 
   17800     465.0612   -110.45811   0.42079715   -110.03731     21244.67    4.4044013    4.4044013    4.4044013     21244.67    3293.3311   -1416.6046    61857.284     12473.49    1640.4854   -5314.5809    85.439881 
   17900    595.48267   -110.57946   0.53880523   -110.04065   -15558.633    4.4230775    4.4230775    4.4230775   -15558.633   -10586.547   -25966.633   -10122.718   -4802.0792    4121.9076    824.80841    86.531381 
   18000     680.4077   -110.65304   0.61564719   -110.03739    5132.4742    4.4053347    4.4053347    4.4053347    5132.4742    1469.9508    -2449.725    16377.197    5146.6112   -2053.1437   -1165.3179    85.494213 
   18100    641.86297   -110.62518    0.5807711   -110.04441   -3288.7244    4.4126736    4.4126736    4.4126736   -3288.7244   -11248.967   -10739.959    12122.753    10417.248    231.13393   -24.778707    85.922203 
   18200    538.73009   -110.53274   0.48745431   -110.04529   -13487.881    4.4182595    4.4182595    4.4182595   -13487.881    861.71375   -21436.026   -19889.332     -5663.73    3631.1778   -1668.4243     86.24892 
   18300    624.35755   -110.60413   0.56493183   -110.03919    12529.664     4.402744     4.402744     4.402744    12529.664    3662.4023    -8280.338    42206.926    9919.2922   -6091.8419    2104.3315    85.343471 
   18400    622.19948   -110.60176   0.56297916   -110.03878   -12495.079    4.4267774    4.4267774    4.4267774   -12495.079   -23404.475    -26659.26    12578.498    565.52706    3738.6579   -929.86778    86.748718 
   18500    389.72391   -110.39086   0.35263039   -110.03823    21245.333    4.3981569    4.3981569    4.3981569    21245.333    14974.551    3839.3949    44922.054   -4251.7616   -3460.4818     103.3882    85.076997 
   18600    627.80543   -110.61362   0.56805154   -110.04557   -8318.6483    4.4176535    4.4176535    4.4176535   -8318.6483   -19474.889   -29772.358    24291.303    13314.434    1326.9802    1017.1628    86.213436 
   18700    672.57296   -110.64858   0.60855815   -110.04002   -1363.9231    4.4162974    4.4162974    4.4162974   -1363.9231   -14404.037   -15003.277    25315.545   -6707.0311   -675.71949    1950.7632     86.13406 
   18800    652.19982   -110.63008   0.59012411   -110.03996    2514.7908    4.4052561    4.4052561    4.4052561    2514.7908   -833.06928   -7380.2577    15757.699   -246.64445    371.94498   -763.47498    85.489637 
   18900    606.65706   -110.58967   0.54891605   -110.04076   -21027.536    4.4240599    4.4240599    4.4240599   -21027.536   -17862.257   -38608.707   -6611.6441    8990.6618    7747.5334    5694.0161    86.589055 
   19000    722.16058   -110.69053   0.65342606   -110.03711     7975.429    4.4030265    4.4030265    4.4030265     7975.429   -2705.4703     -8811.51    35443.267   -10643.283   -3998.4817   -995.52503    85.359898 
   19100    630.52681   -110.61028   0.57051391   -110.03977   -15070.183    4.4232682    4.4232682    4.4232682   -15070.183   -16362.792   -25699.638   -3148.1186    7385.5401    12917.474    3659.1577    86.542576 
   19200    331.66757   -110.34268   0.30009979   -110.04258    11578.517    4.4077002    4.4077002    4.4077002    11578.517    1991.3084    -20807.05    53551.292   -1768.1759    620.21674    3289.4291    85.632008 
   19300     706.6527   -110.68076   0.63939421   -110.04137    3533.6004    4.4086581    4.4086581    4.4086581    3533.6004   -8491.8719   -19143.829    38236.502   -12834.934    7744.1781   -746.65713     85.68785 
   19400    487.80786   -110.48061    0.4413788   -110.03923   -5923.6265    4.4271057    4.4271057    4.4271057   -5923.6265    -20973.85   -24872.715    28075.685    9322.6019    7001.3362    1667.7502    86.768017 
   19500    493.67955   -110.48579   0.44669163    -110.0391    5594.2124    4.3974422    4.3974422    4.3974422    5594.2124    6290.7089   -18946.302     29438.23   -12050.373    3355.0957    5110.4209    85.035529 
   19600    685.15926   -110.66425    0.6199465    -110.0443   -8865.8042    4.4188691    4.4188691    4.4188691   -8865.8042   -7188.1652   -25692.502    6283.2543   -8203.4166    788.78027    1058.7038    86.284624 
   19700    815.27797   -110.77757   0.73768064   -110.03989   -17196.161    4.4219866    4.4219866    4.4219866   -17196.161   -6803.7128   -29911.961   -14872.809    3991.5514    5384.8117    1373.3769    86.467371 
   19800    402.88576   -110.40585    0.3645395   -110.04131    5759.0896    4.3982492    4.3982492    4.3982492    5759.0896    16937.303   -24160.784     24500.75   -17829.156   -695.54929    9504.0688    85.082351 
   19900    681.63514   -110.66004    0.6167578   -110.04328    -12183.62    4.4251486    4.4251486    4.4251486    -12183.62   -9319.2696   -28668.347    1436.7565    38.540359   -1798.7021    -2768.004    86.652993 
   20000    698.85349   -110.67292   0.63233732   -110.04058    1323.9362    4.4114876    4.4114876    4.4114876    1323.9362     1314.658   -19762.408    22419.559   -1481.4491    3531.8339    6014.8597    85.852941 
   20100    271.14845    -110.2904   0.24534081   -110.04506    14338.799    4.4053917    4.4053917    4.4053917    14338.799    12185.079   -26123.479    56954.796   -16063.589   -11132.975    2111.2575    85.497536 
   20200    656.06777   -110.63165    0.5936239   -110.03802   -5012.9623    4.4271715    4.4271715    4.4271715   -5012.9623    -11429.53   -24272.726     20663.37    4916.4897     3800.148   -302.68768    86.771885 
   20300    543.50985   -110.52742   0.49177914   -110.03564    20690.487    4.4024325    4.4024325    4.4024325    20690.487     17211.21   -11809.387    56669.637   -9200.2897   -2891.0182    1775.6145    85.325355 
   20400    531.62127   -110.52608    0.4810221   -110.04505   -11971.869    4.4126939    4.4126939    4.4126939   -11971.869    -11975.47   -31978.453    8038.3162   -11085.682     -3098.85    2865.9382    85.923389 
   20500    534.59192    -110.5277      0.48371   -110.04399   -3268.1242    4.4139638    4.4139638    4.4139638   -3268.1242    6958.2135   -16552.221   -210.36532    4176.7719   -518.27071   -4713.0134    85.997594 
   20600    907.16912   -110.86095   0.82082569   -110.04013   -9214.1287    4.4115619    4.4115619    4.4115619   -9214.1287    -16369.29   -17853.188    6580.0916   -9972.1765   -2972.6535    851.79863    85.857282 
   20700    424.63395   -110.42807   0.38421772   -110.04385   -12437.295     4.416899     4.416899     4.416899   -12437.295   -1745.1756   -28583.638   -6983.0713   -4093.7235    2203.3359    1022.0506     86.16927 
   20800     627.4758   -110.60925   0.56775329    -110.0415    1371.3016    4.4027793    4.4027793    4.4027793    1371.3016    4869.4041   -4649.9102    3894.4107    4223.6668   -6148.0147   -9208.7665    85.345521 
   20900    835.90139   -110.79609   0.75634115   -110.03975   -10121.698    4.4209713    4.4209713    4.4209713   -10121.698   -16438.343   -20229.096    6302.3457   -7004.5017    1532.4713   -687.66605     86.40783 
   21000    493.49132   -110.48884   0.44652132   -110.04232    15528.904    4.3995364    4.3995364    4.3995364    15528.904    16646.011   -8037.5308     37978.23    1580.8346    -2226.506   -4147.7432     85.15708 
   21100    438.94209   -110.44566   0.39716403    -110.0485   -5353.3936    4.4225101    4.4225101    4.4225101   -5353.3936   -17080.374    -29713.24    30733.433    3587.6101   -3376.5685   -5383.6295    86.498086 
   21200      885.072   -110.83922   0.80083175   -110.03839    4512.3911    4.4102771    4.4102771    4.4102771    4512.3911   -2876.3862   -14104.385    30517.945   -2724.3833    2615.8914   -767.41434    85.782287 
   21300    498.90424   -110.49653   0.45141904   -110.04511    15235.712    4.3956106    4.3956106    4.3956106    15235.712    12981.729   -2471.6295    35197.036    2004.2117   -203.85572   -513.27086     84.92932 
   21400    402.17688   -110.40743    0.3638981   -110.04353   -28615.877     4.433063     4.433063     4.433063   -28615.877   -15462.951   -42533.079   -27851.601    3699.5449   -7484.6988   -3833.5731    87.118766 
   21500    973.18824    -110.9091   0.88056117   -110.02854    18865.484    4.3907777    4.3907777    4.3907777    18865.484    15466.794    18179.594    22950.064   -1494.5632    4269.9918    6428.5324    84.649491 
   21600    424.42767   -110.42875   0.38403108   -110.04472   -19298.785    4.4232331    4.4232331    4.4232331   -19298.785   -8644.6968   -30929.513   -18322.145    4383.3459     2351.856   -1829.0158    86.540515 
   21700    538.86738   -110.52937   0.48757853   -110.04179   -5013.7952    4.4109204    4.4109204    4.4109204   -5013.7952     3227.185   -20702.079    2433.5081    4635.7821   -4318.7713    1755.2413    85.819833 
   21800    760.58583   -110.72353   0.68819404   -110.03533    14868.534    4.4006266    4.4006266    4.4006266    14868.534   -496.26218    5469.3765    39632.487   -4453.8886    12214.069    6917.7528    85.220397 
   21900    467.08399   -110.46296   0.42262741   -110.04033   -13890.702    4.4246291    4.4246291    4.4246291   -13890.702   -16841.715   -32265.816    7435.4241     7098.758    799.33543   -1718.3046    86.622483 
   22000    455.22775   -110.44864   0.41189963   -110.03674    17606.021    4.4018628    4.4018628    4.4018628    17606.021    8813.3821   -4509.2917    48513.974   -2104.8497    1372.2757    5198.3508    85.292236 
   22100    803.12263   -110.76489   0.72668223   -110.03821   -11382.663    4.4165162    4.4165162    4.4165162   -11382.663   -29065.048   -11041.592    5958.6516   -1605.6309    15953.916   -711.27906    86.146869 
   22200    521.73741   -110.51097   0.47207898   -110.03889    2183.5362    4.4144835    4.4144835    4.4144835    2183.5362   -9230.9433   -7214.5594    22996.111    5995.7532   -5078.0502   -741.42703    86.027973 
   22300    721.36089   -110.69126   0.65270249   -110.03855   -12757.812    4.4098523    4.4098523    4.4098523   -12757.812   -9097.6968   -15085.263   -14090.476   -6286.0874    8145.0187   -1362.2899    85.757506 
   22400    584.55375   -110.56894   0.52891651   -110.04002   -4546.1089    4.4146489    4.4146489    4.4146489   -4546.1089   -21516.816    4274.8928    3603.5959    1658.3105    15421.701   -3085.2559    86.037646 
   22500    769.09657   -110.73396   0.69589474   -110.03806   -2598.3144    4.4115814    4.4115814    4.4115814   -2598.3144   -12795.983   -11445.146    16446.186    215.37481   -2511.8919   -7771.6082    85.858423 
   22600    353.29864   -110.36418   0.31967204    -110.0445    6064.7227    4.4146402    4.4146402    4.4146402    6064.7227   -9452.3965   -8271.0672    35917.632   -2980.8854    10517.799   -4227.8591    86.037136 
   22700    562.35014   -110.55045   0.50882622   -110.04162    4763.4313    4.4150618    4.4150618    4.4150618    4763.4313    -25048.31    1083.7063    38254.898    896.69906    11252.028   -7637.9359    86.061786 
   22800    624.73226   -110.60418   0.56527088   -110.03891    11403.775    4.4094839    4.4094839    4.4094839    11403.775   -5628.7112   -275.29706    40115.334    551.30802   -2539.5914   -5358.3876    85.736012 
   22900    318.62349   -110.33394   0.28829723   -110.04564   -5003.6136    4.4159612    4.4159612    4.4159612   -5003.6136   -8241.1495   -1828.8576   -4940.8336    989.89603    9008.2046   -1208.2699    86.114396 
   23000    737.10682   -110.70707   0.66694974   -110.04012   -1521.8731    4.4095502    4.4095502    4.4095502   -1521.8731   -11198.509    12994.933   -6362.0427   -136.01381    11675.998    1607.0669     85.73988 
   23100    598.41458   -110.58324   0.54145809   -110.04178   -6287.3843    4.4162183    4.4162183    4.4162183   -6287.3843   -3161.9978   -5353.0318   -10347.123    5827.0109   -8087.7248   -862.30061    86.129436 
   23200     407.0117   -110.41201   0.36827274   -110.04374   -7034.7747    4.4118796    4.4118796    4.4118796   -7034.7747   -4280.1017   -7760.7156   -9063.5067   -3236.3889    7086.2932    6709.8057    85.875834 
   23300    658.43487   -110.63478   0.59576571   -110.03902    8313.7029    4.4104493    4.4104493    4.4104493    8313.7029   -14430.812    13049.906    26322.015    3905.2339    2732.0802    8833.2767    85.792339 
   23400    572.59708   -110.56012   0.51809787   -110.04202   -678.57681     4.412487     4.412487     4.412487   -678.57681   -11196.513   -11484.736    20645.518    2453.7867    -10444.65    1993.4378    85.911307 
   23500    273.22934   -110.29175   0.24722365   -110.04453    8192.0927    4.4138904    4.4138904    4.4138904    8192.0927   -7011.5285   -4003.7371    35591.544   -3513.4788    7076.0779    12222.439    85.993301 
   23600    851.46124    -110.8077   0.77042003   -110.03728   -870.96815     4.411807     4.411807     4.411807   -870.96815   -21241.637   -2459.9418    21088.675    6011.9231   -8192.3759    3048.8475    85.871591 
   23700    480.89804   -110.47774   0.43512665   -110.04262    996.51444    4.4131457    4.4131457    4.4131457    996.51444   -14992.985    5779.7288    12202.799   -2872.8464   -8428.3151    3859.2646    85.949783 
   23800    695.18422   -110.66977   0.62901729   -110.04075   -15810.419    4.4163274    4.4163274    4.4163274   -15810.419   -13900.868   -16486.099   -17044.291    1306.9621    6449.5393     6213.181    86.135821 
   23900    653.74239   -110.63036   0.59151986   -110.03884    5905.8512    4.4089442    4.4089442    4.4089442    5905.8512   -16764.976    25639.935    8842.5946   -746.68061   -14455.497   -4907.6618    85.704537 
   24000    606.42209   -110.59012   0.54870345   -110.04142   -10018.473    4.4158581    4.4158581    4.4158581   -10018.473   -21403.949   -4386.0991   -4265.3709   -1971.1022   -11049.774    1601.9637    86.108362 
   24100    569.79149    -110.5562   0.51555931   -110.04064    8697.8803     4.407152     4.407152     4.407152    8697.8803   -809.39792    262.36835    26640.671    1187.9573    2283.4368   -2101.9394    85.600061 
   24200    566.45057   -110.55489   0.51253638   -110.04235   -1929.2382    4.4170261    4.4170261    4.4170261   -1929.2382   -30668.561   -1516.3478    26397.194   -1694.7605   -18614.058   -5026.7105    86.176706 
   24300    588.61382   -110.57416   0.53259015   -110.04157    7929.2495    4.4072154    4.4072154    4.4072154    7929.2495    -5989.715   -309.22149    30086.685    1654.3196   -9483.2313     5479.508    85.603757 
   24400    668.04068   -110.64659   0.60445725   -110.04213   -869.64685    4.4090199    4.4090199    4.4090199   -869.64685   -2434.6455   -14512.841    14338.546   -4816.5003    3764.9634    43.651818    85.708949 
   24500    553.66398     -110.543   0.50096681   -110.04203   -15195.406    4.4184687    4.4184687    4.4184687   -15195.406   -29759.459   -948.13937   -14878.621    4443.9176   -27412.324    2888.5958    86.261171 
   24600      772.757   -110.73537   0.69920678   -110.03616    10280.054    4.4000958    4.4000958    4.4000958    10280.054    6631.3464    14006.865    10201.952   -4284.1857   -493.12113    5436.7446    85.189565 
   24700    585.24637   -110.57272   0.52954321   -110.04318    -18975.48    4.4200767    4.4200767    4.4200767    -18975.48   -11930.922   -25766.498   -19229.019   -1052.0979    -2021.744     298.8238    86.355382 
   24800    500.87835   -110.49655   0.45320526   -110.04334   -5633.4368    4.4103883    4.4103883    4.4103883   -5633.4368   -22877.828    10880.729   -4903.2117     4134.083   -23577.858    4204.5184     85.78878 
   24900    865.93819   -110.82139   0.78351907   -110.03787    5380.8735    4.4040215    4.4040215    4.4040215    5380.8735   -4347.6089   -3664.2024    24154.432   -7338.5535    10045.184   -4717.7227    85.417784 
   25000    366.12783   -110.37384   0.33128015   -110.04256   -4680.4118    4.4225922    4.4225922    4.4225922   -4680.4118   -20322.979   -5966.8458    12248.589    3112.0057    -11004.51    3009.6472    86.502905 
   25100    572.45141   -110.55624   0.51796607   -110.03827    3349.2247     4.409429     4.409429     4.409429    3349.2247   -17516.683    6060.2678    21504.089   -2037.9963   -12499.603   -3524.7825    85.732811 
   25200    638.71176   -110.61474   0.57791982   -110.03682    14160.366    4.4060433    4.4060433    4.4060433    14160.366   -8092.0105    22638.887    27934.221    493.39408    14925.479   -5605.8016    85.535479 
   25300    501.14762   -110.49669    0.4534489   -110.04324   -9553.0866    4.4177739    4.4177739    4.4177739   -9553.0866   -23616.055    728.77385   -5771.9791   -1277.2184   -17432.647    1400.8083    86.220483 
   25400    449.35812   -110.44911   0.40658867   -110.04252    3121.0939    4.4110613    4.4110613    4.4110613    3121.0939   -17314.313    29644.069    -2966.474    1864.6711     -2671.36   -9107.9664    85.828056 
   25500    704.83192   -110.67703   0.63774674   -110.03929    1109.6665    4.4084731    4.4084731    4.4084731    1109.6665   -17450.859    26945.641   -6165.7825   -2297.7719    14358.851    3461.1181    85.677065 
   25600    470.85882   -110.46822   0.42604295   -110.04218   -8960.4648    4.4195467    4.4195467    4.4195467   -8960.4648   -21460.966    22343.871     -27764.3   -1960.5015   -18552.017   -101.68089    86.324321 
   25700    626.47301   -110.60608   0.56684594   -110.03924     3272.998    4.4055489    4.4055489    4.4055489     3272.998   -15264.074    39085.473   -14002.405     4355.518    8296.5839    5104.9264    85.506688 
   25800    663.37307   -110.64128    0.6002339   -110.04104   -3591.9392     4.414094     4.414094     4.414094   -3591.9392   -20477.661    24459.306   -14757.463    -7448.472     10930.41     354.2257    86.005205 
   25900    622.16342   -110.60403   0.56294654   -110.04108   -5102.8529    4.4137639    4.4137639    4.4137639   -5102.8529   -8612.6888    5827.9276   -12523.798    2685.2929   -15533.571    5336.1313    85.985908 
   26000    640.01566   -110.61799   0.57909962   -110.03889   -5059.4899    4.4115405    4.4115405    4.4115405   -5059.4899   -20196.003    10251.756   -5234.2228   -2602.4456    18083.596    3734.3702     85.85603 
   26100    690.20304   -110.66282   0.62451021   -110.03831    -4034.423    4.4149122    4.4149122    4.4149122    -4034.423   -14091.115    8605.7985   -6617.9528    212.76864     2714.238   -1005.3497    86.053038 
   26200    704.23577   -110.67488   0.63720732   -110.03767    830.65965    4.4061307    4.4061307    4.4061307    830.65965    1079.2403    2859.9578   -1447.2191   -2566.3801   -8662.7432    9403.5131    85.540569 
   26300    458.74822   -110.45872   0.41508503   -110.04364   -8301.0669    4.4192471    4.4192471    4.4192471   -8301.0669   -27314.004    14602.459   -12191.656    3533.7264    23621.119   -3342.4353    86.306769 
   26400    824.42308   -110.78449   0.74595533   -110.03854    289.49248    4.4075142    4.4075142    4.4075142    289.49248   -11519.299    14846.355   -2458.5785   -6212.9633   -6862.9757    4849.4587    85.621169 
   26500    363.58056   -110.37253   0.32897533   -110.04355     14227.58    4.4078323    4.4078323    4.4078323     14227.58   -6344.9932     53278.47   -4250.7371    2956.8391    1999.8192   -2321.7313    85.639712 
   26600    537.40206    -110.5287   0.48625267   -110.04245   -10592.027    4.4226961    4.4226961    4.4226961   -10592.027   -28219.677    18985.805    -22542.21   -352.44144    17400.602    5963.3596    86.508998 
   26700    667.90562   -110.64012   0.60433504   -110.03578    20580.616    4.3973156    4.3973156    4.3973156    20580.616   -4075.2199    49902.642    15914.425   -4569.7267   -11343.175   -8670.5168    85.028187 
   26800      424.963     -110.431   0.38451545   -110.04649   -68.710722    4.4136145    4.4136145    4.4136145   -68.710722   -12166.468    24980.198   -13019.862    2068.8071    16060.068    5373.5965    85.977179 
   26900     617.9785    -110.5998   0.55915993   -110.04064   -10402.975    4.4204614    4.4204614    4.4204614   -10402.975   -18423.883   -399.09445   -12385.948   -1365.9265     6053.863   -2394.9338    86.377931 
   27000    756.43289   -110.71854   0.68443637   -110.03411    17825.761    4.3944105    4.3944105    4.3944105    17825.761    4506.3735    29212.727    19758.181   -2817.3823   -4837.0346   -3565.9053    84.859776 
   27100    559.89131    -110.5482   0.50660142    -110.0416    -17083.25    4.4220008    4.4220008    4.4220008    -17083.25   -20201.369   -5111.5176   -25936.864    152.48064    21856.445    4249.5353    86.468207 
   27200    643.85776   -110.62316   0.58257604   -110.04058    4065.6484    4.4103097    4.4103097    4.4103097    4065.6484   -565.51031    8211.3522    4551.1032    2304.8631   -3512.9503   -3489.5147    85.784192 
   27300    672.59999   -110.64677    0.6085826   -110.03819    4345.3776    4.4040841    4.4040841    4.4040841    4345.3776   -12667.063    26494.749   -791.55275   -6357.4321    8390.1879    2396.2681    85.421423 
   27400    335.17555    -110.3466   0.30327388   -110.04332    3096.0081    4.4193215    4.4193215    4.4193215    3096.0081   -17183.363     45527.09   -19055.703    6329.7662    15280.191    440.42284    86.311127 
   27500    660.61647   -110.63645   0.59773966   -110.03871    9580.4483    4.4090502    4.4090502    4.4090502    9580.4483   -227.27845    22550.804    6417.8195   -3029.8581   -6082.8247    4602.8894    85.710718 
   27600    416.22084   -110.41821   0.37660536    -110.0416    4872.9375    4.4115916    4.4115916    4.4115916    4872.9375   -20391.249    41919.467   -6909.4055   -408.02513    19898.424    -4197.885    85.859017 
   27700    646.59764   -110.62619   0.58505514   -110.04113    1479.3604    4.4095252    4.4095252    4.4095252    1479.3604    552.20438    10481.417     -6595.54    671.44783    5734.4803    5237.5939    85.738422 
   27800    664.68806   -110.64146   0.60142373   -110.04003   -6237.0819    4.4173905    4.4173905    4.4173905   -6237.0819   -5377.6965   -9495.3445   -3838.2048    3299.6702   -214.33494   -4612.0105     86.19804 
   27900    555.61713   -110.54431   0.50273406   -110.04157   -2649.4315    4.4087099    4.4087099    4.4087099   -2649.4315   -15548.355    13875.951   -6275.8904   -9103.4754    23482.047    4515.4181    85.690871 
   28000    770.27188   -110.73607   0.69695819   -110.03911   -488.75369    4.4092941    4.4092941    4.4092941   -488.75369    3756.8467   -3309.2979   -1913.8099    4201.7439    -2875.834   -501.05217     85.72494 
   28100     482.1669   -110.47729   0.43627474   -110.04102   -9975.5709    4.4209112    4.4209112    4.4209112   -9975.5709    -22131.98    8337.1673   -16131.901   -4402.0489    10606.844    3059.2505    86.404304 
   28200     600.9016   -110.58342    0.5437084   -110.03971    7177.1944    4.3986333    4.3986333    4.3986333    7177.1944   -9745.2661    30756.901    519.94864   -6249.9524    18374.356   -409.63071    85.104644 
   28300    541.58694   -110.53019   0.49003925   -110.04015    8024.7109    4.4154027    4.4154027    4.4154027    8024.7109   -2621.0635    33204.124   -6508.9281   -1073.3057   -8194.6859    982.24276    86.081726 
   28400    558.07152    -110.5463   0.50495484   -110.04135   -7880.8396    4.4146644    4.4146644    4.4146644   -7880.8396   -24172.136    15891.501   -15361.884   -5215.4398    19655.274    4043.7284    86.038547 
   28500    473.02141   -110.46535   0.42799971   -110.03735    13034.792    4.4045657    4.4045657    4.4045657    13034.792   -7906.7969    42035.001    4976.1704   -5272.3888    5751.4281   -3433.7844    85.449451 
   28600    832.29848   -110.78996   0.75308115   -110.03688   -11272.188     4.412409     4.412409     4.412409   -11272.188   -9380.6021   -8388.3255   -16047.636   -4134.6764    -3232.669    9462.8045    85.906749 
   28700    381.78816   -110.38755   0.34544995    -110.0421    675.79643    4.4111848    4.4111848    4.4111848    675.79643   -18442.413    19790.794    679.00769   -1847.1439    19851.935   -5752.7664    85.835267 
   28800    868.35094   -110.82352   0.78570218   -110.03782   -11657.327    4.4115168    4.4115168    4.4115168   -11657.327   -20149.643   -10007.589   -4814.7484   -11709.896   -4014.7703    7637.2381    85.854647 
   28900    573.05933   -110.55928   0.51851612   -110.04077    2875.7254    4.4086171    4.4086171    4.4086171    2875.7254   -2091.3283    12091.735   -1373.2305    2905.0108    5863.0243     4000.532    85.685464 
   29000    567.18065   -110.55535   0.51319697   -110.04215   -7017.3105    4.4150205    4.4150205    4.4150205   -7017.3105   -22708.941    8475.8424   -6818.8329   -9463.0047    12625.654    990.54518    86.059373 
   29100    623.03521    -110.6038   0.56373535   -110.04006    1113.6615    4.4119934    4.4119934    4.4119934    1113.6615   -15817.971    24461.762   -5302.8067   -7463.3308   -9629.5515    2412.1148    85.882479 
   29200    438.80576   -110.43844   0.39704067    -110.0414    8934.8381    4.4073064    4.4073064    4.4073064    8934.8381   -5229.6087    44686.487   -12652.364   -2685.1661     12406.27    3705.3797    85.609063 
   29300    552.49397    -110.5427   0.49990816   -110.04279   -1684.1953    4.4172593    4.4172593    4.4172593   -1684.1953   -26352.726    31184.006   -9883.8658   -1912.0563    5673.8216    1792.3103    86.190358 
   29400    529.93997   -110.51734   0.47950082   -110.03784    2696.8386    4.4138435    4.4138435    4.4138435    2696.8386   -9882.0448    30080.653   -12108.093   -10383.985   -8520.8075    2427.6386    85.990562 
   29500    606.81089   -110.58785   0.54905525   -110.03879    1290.2032    4.4022859    4.4022859    4.4022859    1290.2032   -2735.5967    17048.896    -10442.69    4824.4861    14617.798    5338.9213    85.316837 
   29600    548.37685   -110.53782    0.4961829   -110.04164   -8892.0951    4.4206884    4.4206884    4.4206884   -8892.0951    -16156.67    3657.6712   -14177.286   -8394.5196   -3159.2031   -4853.5049    86.391239 
   29700     741.6937   -110.71031   0.67110005   -110.03921    -8964.729    4.4091928    4.4091928    4.4091928    -8964.729   -5710.1089   -7184.0549   -14000.023   -5613.9672    -3456.702    8091.0428    85.719036 
   29800    500.57339   -110.49478   0.45292932   -110.04185    5219.1027    4.4028046    4.4028046    4.4028046    5219.1027    4725.7742    21039.638   -10108.104    7362.4815    16350.979   -1820.0625    85.346993 
   29900    698.76025   -110.66995   0.63225295    -110.0377   -18358.795    4.4248267    4.4248267    4.4248267   -18358.795   -23653.768   -4100.4505   -27322.168    -6858.989   -13149.878    3123.5326    86.634085 
   30000    550.20177   -110.53414   0.49783412   -110.03631    7984.7585    4.4026962    4.4026962    4.4026962    7984.7585   -558.76657    32665.667   -8152.6249    3396.5323    5086.2634   -2541.1166    85.340691 
   30100    486.73859   -110.47995   0.44041131   -110.03954    2555.8912    4.4062565    4.4062565    4.4062565    2555.8912   -12435.612     34376.86   -14273.574    1856.1451    12879.779    4163.3097    85.547893 
   30200    615.29486    -110.5961   0.55673172   -110.03937   -3717.6787    4.4156035    4.4156035    4.4156035   -3717.6787   -17377.121    24431.482   -18207.397    789.06072   -16213.035   -3694.0399    86.093468 
   30300    516.61856   -110.50672   0.46744733   -110.03928     5511.885    4.4085695    4.4085695    4.4085695     5511.885   -7270.5684     38500.06   -14693.836   -3831.5809     13438.32   -2462.0093    85.682685 
   30400     624.9863   -110.60394   0.56550074   -110.03844   -2465.1137    4.4067497    4.4067497    4.4067497   -2465.1137   -13523.317     19486.87   -13358.894    10535.577    1764.3244    5181.3517    85.576626 
   30500    594.88027   -110.57853   0.53826017   -110.04027    2061.7996    4.4107372    4.4107372    4.4107372    2061.7996   -5597.5613    22694.488   -10911.528   -7586.6448    -13287.38   -5641.4341    85.809137 
   30600    751.42718   -110.71853    0.6799071   -110.03862   -17082.341    4.4147889    4.4147889    4.4147889   -17082.341    -21067.42   -5389.2365   -24790.366    2860.4069    21641.349    7456.2811    86.045832 
   30700    532.59664   -110.52204   0.48190463   -110.04014    12259.854    4.3974071    4.3974071    4.3974071    12259.854    -46.91521    33851.526    2974.9516    3460.3843   -11519.155   -564.32362    85.033492 
   30800    752.31171   -110.72059   0.68070745   -110.03989   -16404.219     4.420189     4.420189     4.420189   -16404.219   -20692.711   -3401.6397   -25118.306   -4439.7502   -6421.6877    5899.2082    86.361966 
   30900     531.3762   -110.52069   0.48080035   -110.03989    3139.3035    4.4093074    4.4093074    4.4093074    3139.3035   -15915.579    36238.316   -10904.826    2300.8112    17868.243   -1437.0962    85.725715 
   31000    565.03988   -110.54917   0.51125996   -110.03791    6395.6549    4.3994352    4.3994352    4.3994352    6395.6549   -5844.0493    26913.828   -1882.8145    -4120.478   -20026.243    7992.1577    85.151203 
   31100    524.06395   -110.51282   0.47418408   -110.03863   -742.36019    4.4199476    4.4199476    4.4199476   -742.36019   -16999.842    32932.319   -18159.558    1523.2385    3028.0016    -903.4902    86.347818 
   31200    666.98341   -110.64053    0.6035006   -110.03703    1502.4807    4.4057967    4.4057967    4.4057967    1502.4807   -18302.581    29071.637   -6261.6141   -7563.4546    5313.6494    2037.2733    85.521115 
   31300    358.07129   -110.36656   0.32399043   -110.04257    4516.2697    4.4078464    4.4078464    4.4078464    4516.2697   -18857.323    39219.099   -6812.9664    5591.7112   -24568.318    7818.4841    85.640532 
   31400    802.41811   -110.76398   0.72604477   -110.03794   -1048.3483    4.4134831    4.4134831    4.4134831   -1048.3483   -16780.427    8500.5592    5134.8225   -4929.7893    10587.376   -5449.9807    85.969503 
   31500    530.00428   -110.52148   0.47955901   -110.04192   -4691.9097    4.4102565    4.4102565    4.4102565   -4691.9097   -25494.034    13218.543   -1800.2377    1050.6502   -8485.3402    11708.381    85.781089 
   31600    384.28814   -110.39466   0.34771199   -110.04694   -2301.7695    4.4035124    4.4035124    4.4035124   -2301.7695   -21652.439    5904.9708      8842.16    3756.4942   -20940.257   -17.343757    85.388163 
   31700    885.11567     -110.841   0.80087126   -110.04013   -5533.1259    4.4155854    4.4155854    4.4155854   -5533.1259   -18128.504   -7658.2458    9187.3715     1962.544    9455.1372    2181.0235     86.09241 
   31800    454.09033   -110.45342   0.41087047   -110.04255   -15312.816    4.4189012    4.4189012    4.4189012   -15312.816    -34232.78   -4590.1275   -7115.5407   -968.29329   -17712.831       -63.79    86.286506 
   31900    525.72143   -110.51215    0.4756838   -110.03647    6416.8069    4.3960952    4.3960952    4.3960952    6416.8069   -8588.6771    12125.781    15713.317    4753.0156   -12781.216    3227.0039    84.957409 
   32000    942.33232   -110.88919   0.85264209   -110.03655   -7612.1753    4.4162942    4.4162942    4.4162942   -7612.1753   -16156.129   -9737.1358    3056.7386    3162.8833    3429.5617   -1336.3158    86.133874 
   32100    483.37854   -110.48475   0.43737106   -110.04737   -7369.2509     4.409193     4.409193     4.409193   -7369.2509   -27292.845    10124.442   -4939.3504   -3764.0824   -20654.554   -4917.6558    85.719043 
   32200    544.47626    -110.5374   0.49265356   -110.04475    6070.9812    4.4000091    4.4000091    4.4000091    6070.9812   -11090.233    1903.5992    27399.577    10941.874   -4422.5971    9112.1253    85.184527 
   32300    861.28974   -110.81616   0.77931306   -110.03684   -12076.797    4.4209875    4.4209875    4.4209875   -12076.797   -24265.024   -10480.765   -1484.6012   -4312.0931    2608.0258   -8717.8438    86.408775 
   32400    381.65314   -110.38506   0.34532778   -110.03973    5150.2707    4.4018815    4.4018815    4.4018815    5150.2707   -14944.796    4286.5316    26109.077    3420.4438   -22259.437    4783.1745    85.293323 
   32500    564.88084   -110.55245   0.51111605   -110.04133    1166.6964    4.4059677    4.4059677    4.4059677    1166.6964   -6769.7301   -4902.5547    15172.374    6057.0499    2609.6786    5171.0802    85.531075 
   32600    751.55102   -110.71656   0.68001916   -110.03654    643.60844     4.412489     4.412489     4.412489    643.60844    -11897.23   -5299.2749    19127.331   -4878.8499    1215.5215   -6912.2471     85.91142 
   32700      524.306    -110.5152   0.47440309    -110.0408   -1445.0073    4.4072052    4.4072052    4.4072052   -1445.0073   -15947.197    276.11571     11336.06    4639.4023   -20153.106    10464.359    85.603166 
   32800    553.45453   -110.54186   0.50077729   -110.04108   -3148.7437    4.4078888    4.4078888    4.4078888   -3148.7437   -13640.253   -12984.216    17178.238    1161.2535    9264.2247     2304.032    85.643005 
   32900    789.42293    -110.7535   0.71428646   -110.03922    1739.5905    4.4048205    4.4048205    4.4048205    1739.5905   -5476.2786    10561.159     133.8913   -770.99926   -605.96378    1310.3948    85.464283 
   33000     518.8323   -110.51338   0.46945037   -110.04393   -7757.7866    4.4137671    4.4137671    4.4137671   -7757.7866   -20455.171   -11737.201    8919.0128     1197.962    -12665.99    2863.4937    85.986096 
   33100    562.66445   -110.55114   0.50911062   -110.04203   -1301.2902    4.4021408    4.4021408    4.4021408   -1301.2902   -7437.4927    1843.9748    1689.6472    2328.9324      11379.6    7363.2445    85.308399 
   33200    622.48453   -110.60248   0.56323709   -110.03925     4440.978    4.4142122    4.4142122    4.4142122     4440.978   -8573.4631    5397.4836    16498.914    60.358762   -1046.3788   -3806.3073    86.012114 
   33300    686.79474   -110.66142   0.62142631      -110.04   -9019.9301    4.4084809    4.4084809    4.4084809   -9019.9301   -18910.176   -14004.359    5854.7446    1960.4108    -8403.714    826.58917    85.677522 
   33400    252.35944   -110.27296   0.22834013   -110.04462    14025.521    4.3986459    4.3986459    4.3986459    14025.521     -3655.66    17741.565    27990.657    2258.5352    15060.006    9275.9889    85.105376 
   33500    884.58736    -110.8398   0.80039323    -110.0394    -13613.83    4.4191526    4.4191526    4.4191526    -13613.83   -23307.707   -9131.7397   -8402.0433   -1632.9709    2134.1583   -10441.135    86.301232 
   33600    516.27068   -110.50859   0.46713256   -110.04146      14186.3    4.3987917    4.3987917    4.3987917      14186.3   -3860.3122    14212.415    32206.796    4743.8949   -5099.5666    4790.9449    85.113839 
   33700    409.11734   -110.41686   0.37017797   -110.04668   -12518.377    4.4120637    4.4120637    4.4120637   -12518.377   -24485.235    2202.7658   -15272.663    1659.4982    17734.855    4648.3898    85.886582 
   33800    826.90065   -110.78601   0.74819708   -110.03781    2793.6543    4.4107857    4.4107857    4.4107857    2793.6543    -14368.01    2394.9497    20354.023   -729.91382   -2129.2987   -7332.3352    85.811972 
   33900    627.29593   -110.60763   0.56759054   -110.04004    8937.3368    4.3980605    4.3980605    4.3980605    8937.3368   -3505.9271    16306.896    14011.041    6407.8655    1614.5491    6001.4428    85.071401 
   34000    310.10481   -110.32915   0.28058935   -110.04856   -12396.234    4.4171354    4.4171354    4.4171354   -12396.234   -26945.669    -4565.282   -5677.7521   -1308.1862    18648.743    8312.3377    86.183104 
   34100    954.32104   -110.90114   0.86348973   -110.03765    5327.8232    4.4013606    4.4013606    4.4013606    5327.8232   -5651.8658    6484.4326    15150.903    2311.7626   -4834.8904    2862.9785     85.26305 
   34200    458.39176   -110.45915   0.41476249   -110.04439    4249.9762    4.4081208    4.4081208    4.4081208    4249.9762   -14090.614   -1871.8935    28712.437    4283.6208    4864.0645    1341.2917    85.656529 
   34300    469.87186   -110.46833   0.42514993   -110.04318   -11092.893    4.4144494    4.4144494    4.4144494   -11092.893   -27204.234   -4790.4964    -1283.948   -110.72323    13941.691    16085.245    86.025982 
   34400    808.50804   -110.76671   0.73155507   -110.03516    16980.462    4.3968557    4.3968557    4.3968557    16980.462   -753.75625    14996.807    36698.335    3628.7227   -5882.3481   -2026.3213     85.00151 
   34500    529.58514   -110.52338   0.47917977    -110.0442   -11058.192    4.4158171    4.4158171    4.4158171   -11058.192    -28949.84   -4522.9306    298.19493    1093.8439    5217.9291    6249.5129    86.105966 
   34600     450.7014   -110.45324    0.4078041   -110.04544   -184.44294    4.4057237    4.4057237    4.4057237   -184.44294   -7027.8309    8335.8143   -1861.3123    2041.0814    13406.504    18604.407    85.516864 
   34700    877.82397   -110.83249   0.79427358   -110.03822    4705.7875    4.4021727    4.4021727    4.4021727    4705.7875   -6501.1759    13870.498    6748.0404    124.42652     -6050.13   -9245.4169    85.310254 
   34800    506.33483   -110.49875   0.45814239   -110.04061   -13874.836    4.4201188    4.4201188    4.4201188   -13874.836   -25670.301   -7409.0149   -8545.1912    2517.8373    6733.4082    13249.545    86.357854 
   34900      533.339   -110.52153   0.48257634   -110.03895    7186.4776    4.3984078    4.3984078    4.3984078    7186.4776    2305.8321    18748.338    505.26311    1881.1304    13044.461     9381.889    85.091561 
   35000    837.38783   -110.79549   0.75768611    -110.0378    755.75647     4.407811     4.407811     4.407811    755.75647   -14619.816    7163.0996    9723.9853   -3916.7314    -8800.472   -5756.1148     85.63847 
   35100    455.98151   -110.45586   0.41258165   -110.04328   -4224.1935    4.4143177    4.4143177    4.4143177   -4224.1935   -17062.767    2661.4413    1728.7451    5127.3448    7494.2287    9057.3367    86.018281 
   35200    496.97575   -110.49249    0.4496741   -110.04282    6076.1026    4.3992869    4.3992869    4.3992869    6076.1026   -5904.4462    19862.277    4270.4767   -3976.8096    9992.9528    3211.4129    85.142588 
   35300    746.00118   -110.71388   0.67499755   -110.03889    3701.6131    4.4125678    4.4125678    4.4125678    3701.6131   -6958.4807    9941.7511     8121.569    -839.3946   -10766.107   -1296.2874    85.916024 
   35400    491.09305   -110.48643   0.44435131   -110.04208    793.11101    4.4094151    4.4094151    4.4094151    793.11101   -8891.4194    10195.849    1074.9036    4942.4755    8969.2543    6578.6054    85.731997 
   35500     444.6983    -110.4442   0.40237237   -110.04183    4776.8753    4.4054908    4.4054908    4.4054908    4776.8753   -4444.7377    11485.254    7290.1092   -5837.6364    6012.9212    7517.8184    85.503303 
   35600    887.13807    -110.8392   0.80270117    -110.0365    2631.9522    4.4083763    4.4083763    4.4083763    2631.9522   -7470.0587    13042.834    2323.0818    5933.5977   -9550.2015   -2870.4392    85.671422 
   35700    498.00565   -110.49596   0.45060598   -110.04535   -3923.6157    4.4075202    4.4075202    4.4075202   -3923.6157   -3732.7724   -1157.0224   -6881.0525    16.118873     10747.82    8962.9844    85.621521 
   35800    429.55274   -110.43603   0.38866835   -110.04737   -3641.7211    4.4069459    4.4069459    4.4069459   -3641.7211   -5984.3993    9679.2751   -14620.039   -1787.4146    2625.2761    10217.679    85.588055 
   35900    961.31684    -110.9081   0.86981968   -110.03828   -991.68345    4.4086422    4.4086422    4.4086422   -991.68345   -9411.9416    3429.0463    3007.8449     8098.263   -7462.8069   -7497.9841    85.686926 
   36000    391.76231   -110.39916   0.35447477   -110.04469   -9450.1964    4.4123509    4.4123509    4.4123509   -9450.1964    2727.3217   -3282.0597   -27795.851   -4742.2732    12512.358    17560.456    85.903356 
   36100    483.59027   -110.48273   0.43756264   -110.04517    3189.5221    4.4001328    4.4001328    4.4001328    3189.5221   -1019.9443    3666.5799    6921.9308    4117.7805   -187.69095    3821.8706    85.191715 
   36200    901.18377   -110.85498   0.81541001   -110.03957    695.16732    4.4105631    4.4105631    4.4105631    695.16732   -6821.4394    6992.1361    1914.8052    2665.9906   -4053.6816   -4242.3992    85.798979 
   36300    372.93399   -110.38476   0.33743851   -110.04732   -4633.4151    4.4111502    4.4111502    4.4111502   -4633.4151   -5825.4085   -3435.8655   -4638.9714   -4428.9075     9925.029    16416.503    85.833248 
   36400    502.45001   -110.49931   0.45462733   -110.04468    9410.3337    4.4004713    4.4004713    4.4004713    9410.3337    -2644.726    20997.052    9878.6754    3251.2329    -1175.806   -4228.6502    85.211375 
   36500    804.42814   -110.76556   0.72786348   -110.03769    544.70235    4.4131506    4.4131506    4.4131506    544.70235   -11850.164    2447.5874    11036.683   -2948.9365   -621.83682    2350.2061    85.950073 
   36600    378.21145   -110.38758   0.34221367   -110.04536    139.56566    4.4059694    4.4059694    4.4059694    139.56566   -5863.6588    16492.292   -10209.936   -1568.1282    7433.0672    13698.355     85.53117 
   36700     588.6285   -110.57592   0.53260344   -110.04332    3113.9009    4.4058477    4.4058477    4.4058477    3113.9009    -5759.469    9937.6652    5163.5064   -555.04247   -536.84265   -2775.3202    85.524086 
   36800    768.00609   -110.73418   0.69490805   -110.03927    2736.2287    4.4103572    4.4103572    4.4103572    2736.2287   -14646.936    22953.165   -97.542201   -2522.9739    1318.9889    2863.1758    85.786964 
   36900    516.85641   -110.51111   0.46766254   -110.04345   -660.72364    4.4047286    4.4047286    4.4047286   -660.72364   -3651.7451    12251.763   -10582.189   -429.05959    6717.4534    13664.769     85.45893 
   37000    670.91673   -110.64799   0.60705956   -110.04093   -714.13649    4.4116344    4.4116344    4.4116344   -714.13649   -13368.304    23036.235    -11810.34    412.62051    -958.0437   -3977.2185    85.861512 
   37100    790.13056   -110.75439   0.71492673   -110.03947    2683.4218    4.4050543    4.4050543    4.4050543    2683.4218   -13337.441    15659.156    5728.5507   -1612.8593    2374.2406    607.41423    85.477891 
   37200     446.1541   -110.44771   0.40368961   -110.04402    105.47453    4.4087398    4.4087398    4.4087398    105.47453   -5860.2961    22575.384   -16398.664   -612.90783    6039.3976    9748.5685    85.692615 
   37300     722.7212   -110.69357   0.65393333   -110.03963     -8830.58    4.4145399    4.4145399    4.4145399     -8830.58   -20373.257   -3129.0965    -2989.386    1677.9249   -2179.7317   -9907.9084    86.031274 
   37400    623.03791   -110.60214   0.56373779    -110.0384    15092.776    4.3971077    4.3971077    4.3971077    15092.776   -5936.8555    34395.354     16819.83   -2008.5153    2833.3149    1568.7492    85.016126 
   37500    391.33997   -110.40022   0.35409263   -110.04613   -6612.1886    4.4163675    4.4163675    4.4163675   -6612.1886   -16513.913    4314.9146   -7637.5671    2006.7808    3727.4498     5764.667    86.138165 
   37600    723.07048   -110.69498   0.65424937   -110.04073    3960.0382    4.4063998    4.4063998    4.4063998    3960.0382   -13060.767     12358.06    12582.822   -2048.4201   -4102.0047   -5359.9705    85.556241 
   37700    513.27098     -110.508   0.46441837   -110.04358    14838.803    4.4010109    4.4010109    4.4010109    14838.803    -12464.76    19000.943    37980.227   -1549.1875    4705.0411   -950.76471    85.242728 
   37800    400.11706   -110.40563   0.36203432   -110.04359   -13698.796    4.4219408    4.4219408    4.4219408   -13698.796    -26008.84   -5965.6326   -9121.9167   -9.8734475    1352.2415    5900.0336    86.464685 
   37900    771.92088   -110.73265   0.69845024    -110.0342    12071.829    4.3981896    4.3981896    4.3981896    12071.829   -4026.2145     7551.927    32689.774   -2494.8899   -3786.4777   -2849.3488    85.078893 
   38000    570.37933   -110.55966   0.51609121   -110.04357   -7220.0941    4.4096893    4.4096893    4.4096893   -7220.0941   -25323.412    3332.7711    330.35841    2285.8661    5935.9764    3207.3394    85.747993 
   38100    469.07753   -110.47008    0.4244312   -110.04565   -12834.709    4.4132479    4.4132479    4.4132479   -12834.709   -19737.084   -10695.735    -8071.309   -3154.0757   -845.07054     13361.37     85.95576 
   38200    977.79389   -110.92321   0.88472846   -110.03848   -2887.5269    4.4051532    4.4051532    4.4051532   -2887.5269   -11137.524   -1830.2478    4305.1908   -615.60481   -3087.8994   -2285.5065    85.483649 
   38300    509.99875   -110.50657   0.46145758   -110.04511   -5350.8304    4.4112709    4.4112709    4.4112709   -5350.8304   -25375.652   -3774.8499    13098.011    1854.7061    7269.6477    9272.2463    85.840291 
   38400    535.37727   -110.53074    0.4844206   -110.04632   -7641.8415    4.4091081    4.4091081    4.4091081   -7641.8415   -19375.947   -3508.0377   -41.540256   -3644.8945   -4095.9352    9347.6221    85.714096 
   38500    870.56465   -110.82896   0.78770519   -110.04125     3849.388    4.4086935    4.4086935    4.4086935     3849.388   -15246.011    4358.2398    22435.935    -46.08922   -2317.0875   -2624.3395    85.689917 
   38600    521.35913   -110.51892    0.4717367   -110.04718    9311.2276    4.4005578    4.4005578    4.4005578    9311.2276   -16541.252    7715.0326    36759.902   -1226.1748    6436.0691    940.03234    85.216399 
   38700    351.03722   -110.36721   0.31762585   -110.04959   -7788.3502    4.4209419    4.4209419    4.4209419   -7788.3502   -26873.274   -34.732942    3542.9561   -3181.2975   -6936.3007    8166.5447    86.406104 
   38800    1014.2025   -110.95371   0.91767172   -110.03604    7937.9804    4.4004058    4.4004058    4.4004058    7937.9804   -10221.197    12061.434    21973.705    2427.4757    387.34219   -4223.2068    85.207571 
   38900    480.97153   -110.48288   0.43519315   -110.04768   -1775.0209    4.4054169    4.4054169    4.4054169   -1775.0209   -14737.333    8616.3522    795.91823   -2632.7245    7014.8711     539.1858    85.498999 
   39000    471.04992   -110.47306   0.42621586   -110.04684    -15902.18    4.4196623    4.4196623    4.4196623    -15902.18   -27336.283    6221.8317    -26592.09   -853.85395   -5235.6583    7150.2454    86.331097 
   39100    915.99696     -110.866    0.8288133   -110.03718    15408.576     4.394737     4.394737     4.394737    15408.576   -1701.4977    14438.464    33488.761    2938.1905     2483.199   -7604.3256    84.878692 
   39200    408.93648   -110.41739   0.37001432   -110.04737   -1591.4481    4.4133258    4.4133258    4.4133258   -1591.4481   -18137.324    10994.544    2368.4352    -2276.478    6223.5776    5006.6949    85.960309 
   39300    411.27592   -110.41668   0.37213109   -110.04455    5503.3076    4.4126739    4.4126739    4.4126739    5503.3076   -23448.759    19345.161    20613.521     2304.118   -5634.0648    6547.4575    85.922222 
   39400    753.32285   -110.71736   0.68162235   -110.03573    9608.6332    4.4053426    4.4053426    4.4053426    9608.6332   -11704.995     4478.027    36052.868    1763.5147    5230.1562   -6174.9457    85.494674 
   39500    495.82006   -110.49193   0.44862841    -110.0433    7033.2762    4.4036048    4.4036048    4.4036048    7033.2762   -10668.633     20214.37    11554.092   -731.37257    2367.5846    11659.668    85.393537 
   39600    434.07685   -110.44064   0.39276186   -110.04788   -2462.1251     4.415519     4.415519     4.415519   -2462.1251   -28535.668    3939.7063    17209.586    4184.3512   -5556.0082    3760.8307    86.088524 
   39700    869.78601    -110.8278   0.78700066    -110.0408   -752.34057    4.4070899    4.4070899    4.4070899   -752.34057   -12040.322   -145.44116    9928.7413    2071.1118    3322.7375      -713.22    85.596443 
   39800    590.89424   -110.57936   0.53465353   -110.04471    10650.873    4.4007497    4.4007497    4.4007497    10650.873   -6887.6935    33392.903    5447.4103   -183.70653   -2395.9599    8804.3946    85.227549 
   39900    571.90585    -110.5594   0.51747244   -110.04193   -21530.601    4.4224974    4.4224974    4.4224974   -21530.601   -36398.917   -12155.769   -16037.117    4180.8367   -6455.3067    6435.2759    86.497339 
   40000    780.85498   -110.74438     0.706534   -110.03784    11397.464    4.3959031    4.3959031    4.3959031    11397.464   -1554.9913      16671.8    19075.584   -283.72403    3742.8436   -1046.9642    84.946272 
   40100    772.97254   -110.74289    0.6994018   -110.04349   -5962.2146    4.4072612    4.4072612    4.4072612   -5962.2146   -14262.474    5667.8845   -9292.0544    621.77387   -3877.3695    5516.9365    85.606426 
   40200    379.01291   -110.38813   0.34293884   -110.04519   -12016.527    4.4218598    4.4218598    4.4218598   -12016.527   -34040.835   -19191.764    17183.019    4221.7937   -4750.7803    11416.815    86.459935 
   40300    881.99503   -110.83348   0.79804764   -110.03543    6559.1694    4.3980806    4.3980806    4.3980806    6559.1694   -13082.178    9773.8531    22985.834   -1117.4795    5870.0857   -6559.7245    85.072572 
   40400    639.52598   -110.61966   0.57865655     -110.041    800.72355    4.4115849    4.4115849    4.4115849    800.72355   -10708.614    9221.6841    3889.1005    4134.8214     -2864.07     9960.833    85.858624 
   40500     409.2837   -110.41528   0.37032849   -110.04495   -7662.9566    4.4158494    4.4158494    4.4158494   -7662.9566   -29573.685   -791.78461    7376.6002    3116.0238   -1798.1047    3720.3743    86.107853 
   40600    675.82131   -110.65025   0.61149732   -110.03876     10190.46    4.4018238    4.4018238    4.4018238     10190.46   -15503.495    32879.143    13195.732     267.3378    6727.0506   -6665.5982    85.289968 
   40700    624.73675   -110.60591   0.56527494   -110.04064    2512.4463    4.4105426    4.4105426    4.4105426    2512.4463   -9973.3458    23699.802   -6189.1172    2924.0214   -4216.4785     13556.22    85.797785 
   40800    340.98616   -110.35458   0.30853145   -110.04605    -2613.782    4.4111666    4.4111666    4.4111666    -2613.782   -30238.409    6429.4065    15967.657     3124.778    578.12675   -1703.8787    85.834204 
   40900    570.62841   -110.56265   0.51631658   -110.04633    3308.6315    4.4003407    4.4003407    4.4003407    3308.6315   -20266.708    18149.233     12043.37   -1466.9001    8849.1445   -881.30078    85.203787 
   41000    740.11604    -110.7149   0.66967254   -110.04523   -408.82465    4.4084881    4.4084881    4.4084881   -408.82465   -7778.5923    2409.8708    4142.2475    3170.3504   -651.73913    5093.1888    85.677943 
   41100    489.22153   -110.48942   0.44265792   -110.04676   -15886.235    4.4149621    4.4149621    4.4149621   -15886.235   -34129.068   -18041.214    4511.5778    246.08023    2450.2151    1986.5294    86.055957 
   41200     502.0844   -110.49799   0.45429652   -110.04369    8933.1084     4.395178     4.395178     4.395178    8933.1084   -14186.863     16815.29    24170.898   -1390.1831    8124.4766   -534.14261    84.904246 
   41300    837.09225    -110.7983   0.75741866   -110.04088   -5711.9051    4.4125943    4.4125943    4.4125943   -5711.9051   -10799.306   -1516.9959    -4819.414    2037.0017    964.69144    868.53948    85.917572 
   41400    484.43415    -110.4838    0.4383262   -110.04548   -4731.0556    4.4100161    4.4100161    4.4100161   -4731.0556   -21808.423   -2085.5051     9700.761   -2986.4973    2299.4922    7939.8953     85.76706 
   41500    385.59427   -110.39564    0.3488938   -110.04674    10346.774    4.3970421    4.3970421    4.3970421    10346.774   -20459.001    35463.097    16036.228    454.70381     5998.401   -3275.2799    85.012322 
   41600    846.66986   -110.80841   0.76608468   -110.04233   -2125.6954     4.411122     4.411122     4.411122   -2125.6954   -5314.7966    7931.6994    -8993.989   -747.33025    563.00265     4404.002    85.831599 
   41700    505.09919   -110.50295   0.45702436   -110.04592    8260.6577    4.4071015    4.4071015    4.4071015    8260.6577   -18029.563    38849.272    3962.2636   -3309.1539    507.53173    5462.9014    85.597119 
   41800    430.01688    -110.4373   0.38908831   -110.04821   -10745.494    4.4079955    4.4079955    4.4079955   -10745.494   -34093.521   -783.82034    2640.8586   -4145.7649     6561.515   -7600.1296     85.64922 
   41900    711.29226    -110.6859   0.64359218    -110.0423     16972.62    4.3979778    4.3979778    4.3979778     16972.62     11582.34    32902.183    6433.3368    637.66172    -2483.586    2413.4524    85.066607 
   42000    759.23075   -110.73336   0.68696794   -110.04639   -19513.922    4.4170359    4.4170359    4.4170359   -19513.922   -34532.309   -18731.768   -5277.6903   -4267.5834   -402.82551    903.85044    86.177282 
   42100    271.43437   -110.29895   0.24559953   -110.05335    7054.4189    4.3964799    4.3964799    4.3964799    7054.4189   -15137.115    9890.2275    26410.144   -1902.0738    5645.2022   -7226.0145    84.979715 
   42200     767.3403   -110.74475   0.69430563   -110.05045    2533.1089    4.4072662    4.4072662    4.4072662    2533.1089   -8555.5998    17301.839   -1146.9124    3042.4017   -7977.2443   -3156.9518    85.606717 
   42300    700.25811   -110.67892   0.63360826   -110.04532   -20102.117     4.421294     4.421294     4.421294   -20102.117   -32672.492   -17289.215   -10344.643    -6041.276    678.54443    2114.8334     86.42675 
   42400    384.86354   -110.38648   0.34823262   -110.03825    23825.238    4.3764715    4.3764715    4.3764715    23825.238    3565.4774    28171.824    39738.413    3185.2091    2361.3041   -5083.8626    83.824761 
   42500    582.91963   -110.57214   0.52743793    -110.0447   -19073.376    4.4279816    4.4279816    4.4279816   -19073.376   -27578.267    3408.1785   -33050.039    71.771037   -11841.627   -3794.0706    86.819531 
   42600    840.36544    -110.8061   0.76038031   -110.04572     7704.224    4.3976403    4.3976403    4.3976403     7704.224    -3872.054    10741.642    16243.084   -2604.7213    2631.0171    4988.0971    85.047022 
   42700    400.16766   -110.40973   0.36208011   -110.04765     14793.55    4.3887616    4.3887616    4.3887616     14793.55   -6029.9166    26010.759    24399.807    1090.9618   -2359.9009   -8653.1401    84.532942 
   42800    468.84584   -110.46165   0.42422157   -110.03743   -26752.452       4.4321       4.4321       4.4321   -26752.452   -36711.059    -9403.688   -34142.608    2365.3517   -10805.229   -3620.5499    87.062004 
   42900    929.77518   -110.86848   0.84128012    -110.0272    21836.149    4.3835022    4.3835022    4.3835022    21836.149    9208.9787    26864.416    29435.051   -1613.9406    6396.8644    210.25505    84.229394 
   43000      447.264   -110.44823   0.40469386   -110.04354   -10170.057    4.4085645    4.4085645    4.4085645   -10170.057   -21066.753   -7455.9763   -1987.4409    0.1494424   -7772.3788   -7569.8467    85.682394 
   43100    393.73819    -110.4026   0.35626259   -110.04634   -8069.7725    4.4119018    4.4119018    4.4119018   -8069.7725   -26026.426    15800.072   -13982.964      3995.07   -6071.6974   -3184.8186    85.877128 
   43200    920.79687   -110.87045   0.83315635   -110.03729    17423.688    4.3930535    4.3930535    4.3930535    17423.688    3234.4286    20198.341    28838.295   -2327.9375    8927.0563   -3802.7899    84.781186 
   43300    599.31499   -110.59021    0.5422728   -110.04794   -1545.9614    4.4077748    4.4077748    4.4077748   -1545.9614   -16331.381    9042.7691    2650.7281    2489.9338   -10394.038   -2905.5542     85.63636 
   43400    276.87579   -110.30271   0.25052304   -110.05219    2389.0431    4.4082787    4.4082787    4.4082787    2389.0431   -24068.945    23214.828     8021.246    2621.7288   -1751.8762   -4682.3284    85.665733 
   43500    894.89397   -110.85224   0.80971887   -110.04252    2696.2464    4.4030299    4.4030299    4.4030299    2696.2464   -11793.083      5547.89    14333.932   -3781.8914    10107.278    1562.0883    85.360097 
   43600    675.26081    -110.6575   0.61099017   -110.04651    13046.984    4.3949125    4.3949125    4.3949125    13046.984    2412.1066    23119.423    13609.424    2240.7169   -10430.048   -632.48133    84.888857 
   43700    265.50255   -110.29292   0.24023229   -110.05269   -16803.093    4.4198298    4.4198298    4.4198298   -16803.093   -35776.422    39.952225    -14672.81    2937.2206    1167.6995   -5512.2238    86.340914 
   43800    827.90326   -110.79475   0.74910427   -110.04564    5942.7022    4.3928796    4.3928796    4.3928796    5942.7022   -11077.663    13386.607    15519.163   -6231.3136    11572.868    6644.1014    84.771119 
   43900    731.08275   -110.70995   0.66149904   -110.04845    5604.0954    4.4006115    4.4006115    4.4006115    5604.0954    4670.5459    8922.1037    3219.6368    2120.0441   -9438.6953   -4730.2092     85.21952 
   44000    387.34071   -110.39665   0.35047402   -110.04618   -24444.906    4.4217469    4.4217469    4.4217469   -24444.906   -42430.362   -10081.572   -20822.785    1352.4127     3054.295   -2356.5979    86.453313 
   44100    606.00782   -110.58619   0.54832861   -110.03786    20077.553    4.3836504    4.3836504    4.3836504    20077.553   -1919.5625    19218.729    42933.492   -8836.8591    10516.039    4635.8984    84.237938 
   44200    816.31875    -110.7796   0.73862236   -110.04098   -13567.428    4.4134251    4.4134251    4.4134251   -13567.428    -13891.92   -13662.049   -13148.316    1316.6582   -7479.3261   -8212.2898    85.966112 
   44300    433.50936     -110.437   0.39224838   -110.04476   -7421.8149    4.4093554    4.4093554    4.4093554   -7421.8149   -26880.041    5658.0934   -1043.4968   -1281.8171    8060.9634    1128.2866    85.728519 
   44400    552.29299   -110.54213   0.49972631   -110.04241    4978.1928    4.3922961    4.3922961    4.3922961    4978.1928   -14306.717    7882.2743    21359.021   -7639.6896    8958.6255   -1707.1775    84.737342 
   44500    714.29228   -110.68724   0.64630666   -110.04093   -6529.1067    4.4122309    4.4122309    4.4122309   -6529.1067    -8369.048   -10716.544   -501.72833   -1424.2102   -4450.5556    -2507.216    85.896345 
   44600    573.28639   -110.56171   0.51872158   -110.04299   -2536.5912    4.4060422    4.4060422    4.4060422   -2536.5912   -19164.905    18149.062   -6593.9307   -3582.9108    10195.409     891.3122    85.535412 
   44700    433.57806   -110.43658   0.39231054   -110.04427    4704.7108     4.400062     4.400062     4.400062    4704.7108   -22484.142    9544.7678    27053.507   -7266.2826     3673.995   -3960.8512    85.187598 
   44800    636.52347   -110.61819   0.57593981   -110.04225   -144.56279    4.4050049    4.4050049    4.4050049   -144.56279   -5612.8865    13323.181   -8143.9831    89.377938   -1631.7151   -650.22226    85.475015 
   44900    491.53145   -110.48923   0.44474798   -110.04448   -5704.9546    4.4115017    4.4115017    4.4115017   -5704.9546   -23674.985    26680.288   -20120.166   -3395.0823     10351.91   -704.84959    85.853766 
   45000    645.75314    -110.6255   0.58429101   -110.04121    9366.8231     4.394733     4.394733     4.394733    9366.8231   -10625.602    26026.736    12699.335   -7046.9061    2011.8158   -1805.4909    84.878461 
   45100    530.07907   -110.52585   0.47962668   -110.04622     353.0053    4.4084206    4.4084206    4.4084206     353.0053   -6154.7315    15907.296   -8693.5483    1566.9794   -527.29872   -2458.8878    85.674002 
   45200    572.27569   -110.56252   0.51780707   -110.04472   -8715.7367    4.4115068    4.4115068    4.4115068   -8715.7367   -15884.369    10174.642   -20437.483   -1147.6966    11576.882   -115.12283    85.854066 
   45300    877.52272   -110.83095     0.794001   -110.03695    15646.267    4.3898256    4.3898256    4.3898256    15646.267    4222.6276    24990.517    17725.656   -3383.9388    146.61689   -637.91106    84.594437 
   45400    478.77512   -110.47929   0.43320579   -110.04608    -15590.83    4.4173352    4.4173352    4.4173352    -15590.83   -17552.008   -7053.7566   -22166.726    2377.6417     804.7187    1146.9824      86.1948 
   45500    517.52021   -110.51509   0.46826316   -110.04683   -3088.1877     4.400405     4.400405     4.400405   -3088.1877   -1952.3328    12952.922   -20265.152    2556.5754    12447.974    1402.3867    85.207523 
   45600    891.68326   -110.84621   0.80681375   -110.03939    7369.7676    4.3992822    4.3992822    4.3992822    7369.7676   -7383.2989    25716.454    3776.1482   -5287.6176   -4392.1392    3777.1738    85.142318 
   45700    420.90048   -110.42708    0.3808396   -110.04624   -11710.933    4.4135492    4.4135492    4.4135492   -11710.933   -13283.211    4412.8491   -26262.437    6960.9503    4447.1333   -3192.9825    85.973366 
   45800    376.89556   -110.38965   0.34102302   -110.04863    11660.493    4.3943219    4.3943219    4.3943219    11660.493    7702.5064    25015.419    2263.5545    2550.4923    12595.923    4104.9093    84.854643 
   45900    935.68859   -110.88849    0.8466307   -110.04186    1460.6022    4.4056223    4.4056223    4.4056223    1460.6022   -11565.883     23855.98   -7908.2903   -4492.7529   -8570.1266    2628.9932    85.510959 
   46000    463.04114   -110.46813   0.41896935   -110.04916   -2441.5012    4.4069486    4.4069486    4.4069486   -2441.5012   -9741.9827    11543.763   -9126.2836    10505.947    4601.2529   -1939.0102    85.588213 
   46100    382.71754    -110.3959   0.34629088    -110.0496   -2894.8569    4.4029095    4.4029095    4.4029095   -2894.8569   -3653.0634    7908.4187   -12939.926   -2328.2754    9751.5963    7963.1319    85.353094 
   46200    853.95227   -110.81363   0.77267396   -110.04096    2526.2166     4.400631     4.400631     4.400631    2526.2166   -8749.2914    21012.947   -4685.0059    354.94002   -13093.211   -2240.7282    85.220654 
   46300    561.73328   -110.55432   0.50826807   -110.04605   -8587.5598     4.407942     4.407942     4.407942   -8587.5598   -15048.659     505.3644   -11219.384    7810.2242    4558.6794    447.10335    85.646105 
   46400    440.44332   -110.44533   0.39852237   -110.04681   -4422.2312    4.4011504    4.4011504    4.4011504   -4422.2312   -33.475711   -2334.2288   -10898.989   -3734.2565    6951.5772    3445.9448    85.250831 
   46500    660.28088   -110.64095   0.59743601   -110.04351    5709.8166    4.4002473    4.4002473    4.4002473    5709.8166   -13485.006    31062.274   -447.81837     959.4752   -17890.733   -929.98724    85.198366 
   46600    777.40353   -110.74548   0.70341105   -110.04207   -8056.9106    4.4089532    4.4089532    4.4089532   -8056.9106   -14357.916    695.12664   -10507.943   -420.50988    4830.1687   -4141.3977     85.70506 
   46700    440.98246   -110.44482    0.3990102   -110.04581    8456.3865    4.3972659    4.3972659    4.3972659    8456.3865    4686.6871    25167.213   -4484.7409   -583.64978    3553.6055    5268.0356      85.0253 
   46800    558.67572   -110.55203   0.50550153   -110.04653    -5752.358    4.4072314    4.4072314    4.4072314    -5752.358   -23163.988    21375.848   -15468.934   -4803.4088   -21505.178    942.12881    85.604688 
   46900    793.74598   -110.75868   0.71819804   -110.04048     5401.132    4.4031325    4.4031325    4.4031325     5401.132   -5124.0789    11848.052    9479.4229   -570.72908    7162.1245   -2796.0177    85.366065 
   47000    585.35217   -110.57508   0.52963895   -110.04545   -3095.0952    4.4013355    4.4013355    4.4013355   -3095.0952   -3405.6892    10199.775   -16079.371    477.67337   -465.82134    11357.497    85.261589 
   47100    327.44113   -110.34527   0.29627561   -110.04899   -780.12187    4.4074679    4.4074679    4.4074679   -780.12187   -21356.195     20462.02   -1446.1909   -8668.3532   -23121.218   -3726.0339    85.618472 
   47200    969.50672   -110.91705   0.87723005   -110.03982    7386.0759    4.3988256    4.3988256    4.3988256    7386.0759   -992.73228    13247.318    9903.6417    5285.2665    8675.9647    4108.7692    85.115808 
   47300    507.40511   -110.50728   0.45911081   -110.04817   -4155.2297     4.406225     4.406225     4.406225   -4155.2297   -7131.9441    14343.839   -19677.584   -1154.4323    -5975.202    6880.9766    85.546061 
   47400    355.38098   -110.37396   0.32155618   -110.05241   -9501.0563    4.4040715    4.4040715    4.4040715   -9501.0563   -16838.946    6159.0439   -17823.267   -5518.8795   -21554.691    -2841.969    85.420694 
   47500    940.21457   -110.89404    0.8507259   -110.04331    4610.8914     4.401393     4.401393     4.401393    4610.8914   -2149.6277    8628.9033    7353.3985    3137.4663     8463.479    5440.4004    85.264932 
   47600    566.23186   -110.56024   0.51233849    -110.0479   -10311.285    4.4115039    4.4115039    4.4115039   -10311.285   -15438.763    2616.8933   -18111.985   -1054.0792   -12315.821    27.113332    85.853893 
   47700    335.63026    -110.3526   0.30368531   -110.04891   -2539.9086    4.4026593    4.4026593    4.4026593   -2539.9086   -10867.632    13885.124   -10637.218   -4268.5048   -15222.996    959.37726    85.338546 
   47800    946.62947   -110.89665   0.85653023   -110.04012    5745.0921     4.400835     4.400835     4.400835    5745.0921    691.74793    9173.7787    7369.7497   -2752.1509    5524.1674   -1400.8205    85.232507 
   47900    597.70665   -110.58969   0.54081753   -110.04888   -3305.0587    4.4058912    4.4058912    4.4058912   -3305.0587   -10103.242    21553.241   -21365.175    3913.9456   -13822.878    2245.3207    85.526622 
   48000    327.62219    -110.3478   0.29643944   -110.05136   -6126.2367    4.4062381    4.4062381    4.4062381   -6126.2367   -5011.5519    10005.442   -23372.601   -11449.824   -9514.9403    -1718.752    85.546824 
   48100    777.23744   -110.74567   0.70326077   -110.04241    1833.4919    4.4038264    4.4038264    4.4038264    1833.4919   -5.3673126    8045.1884   -2539.3456     3782.904    4924.4424   -4411.8417    85.406428 
   48200    654.70905   -110.63546    0.5923945   -110.04306   -1700.3927    4.4046781    4.4046781    4.4046781   -1700.3927   -14123.614    17759.251    -8736.815    5718.1318   -14544.346    2901.5486    85.455996 
   48300    443.20358   -110.44505   0.40101991   -110.04403   -9173.0832    4.4089182    4.4089182    4.4089182   -9173.0832   -7801.8078    1612.1415   -21329.583   -13670.486   -6666.9763   -3376.4989     85.70302 
   48400    689.69561   -110.66498   0.62405108   -110.04093    1833.0744     4.399381     4.399381     4.399381    1833.0744   -5237.0197    6393.8233    4342.4196    10100.405    6756.0714   -4863.6899    85.148051 
   48500     687.5907   -110.66436   0.62214652   -110.04222   -2301.9253    4.4061729    4.4061729    4.4061729   -2301.9253   -10196.339    14753.553    -11462.99    2989.5733   -16223.132     538.5928    85.543024 
   48600    586.61344   -110.57407   0.53078017   -110.04329   -9735.8009    4.4093581    4.4093581    4.4093581   -9735.8009   -11198.714   -2784.4651   -15224.224   -10344.235   -1017.7759   -3906.8317    85.728674 
   48700    518.64934   -110.51177   0.46928482   -110.04248    5522.3371    4.3950652    4.3950652    4.3950652    5522.3371    2925.2999    11021.723    2619.9887    11523.522    6078.6015   -1529.0604    84.897709 
   48800    635.76214   -110.61862   0.57525095   -110.04337   -3366.0557    4.4102781    4.4102781    4.4102781   -3366.0557   -21214.898     8679.267    2437.4641    854.42034   -18172.125     1506.584     85.78235 
   48900     742.3408   -110.71358   0.67168556   -110.04189    371.48559    4.4034478    4.4034478    4.4034478    371.48559   -1822.0859     7676.578   -4740.0354   -4924.4368    3323.4414   -8712.6249    85.384408 
   49000    414.10103   -110.42026   0.37468731   -110.04557    4790.7184    4.3979567    4.3979567    4.3979567    4790.7184   -6694.5749    11522.836     9543.894    7893.4717    2203.6834   -2229.6956    85.065381 
   49100    621.56767   -110.60575   0.56240749   -110.04334    -12200.66    4.4146371    4.4146371    4.4146371    -12200.66       -32285   -11.245406   -4305.7342    2744.0815   -15955.553   -309.56787    86.036956 
   49200       857.49   -110.81307   0.77587497   -110.03719    10179.426    4.3965633    4.3965633    4.3965633    10179.426    11878.281    14194.407    4465.5885   -1695.9865    3897.4194   -8089.0619    84.984551 
   49300    453.73879   -110.45672    0.4105524   -110.04617   -6116.4684    4.4045204    4.4045204    4.4045204   -6116.4684   -18724.029   -3522.9037    3897.5278    8608.5733   -3938.7192    2660.7125    85.446814 
   49400    495.54844   -110.49518   0.44838264   -110.04679   -6301.9831    4.4088295    4.4088295    4.4088295   -6301.9831   -23394.108    3173.8305    1314.3285     4176.825   -11333.673   -2720.8947    85.697849 
   49500    902.76403   -110.85597   0.81683987   -110.03913     10543.65    4.3975802    4.3975802    4.3975802     10543.65     4241.556     13993.02    13396.373    -2438.546    2580.6457   -1121.0214    85.043538 
   49600    533.88507   -110.52989   0.48307043   -110.04682   -8752.7478    4.4082978    4.4082978    4.4082978   -8752.7478   -18349.688   -6080.7438   -1827.8119    8140.6095   -5745.2681    3859.0005    85.666845 
   49700     427.1459   -110.43305   0.38649059   -110.04656   -2252.3598    4.4035425    4.4035425    4.4035425   -2252.3598   -24692.505    6712.9038    11222.522    3479.4984   -12538.012   -688.06591    85.389916 
   49800    871.38286   -110.82818   0.78844553   -110.03973   -3543.3364    4.4065493    4.4065493    4.4065493   -3543.3364   -6197.4496    1859.9543   -6292.5139   -8331.8979    3660.9294    747.89782    85.564951 
   49900    569.34916   -110.55858   0.51515909   -110.04342    425.72924    4.4023933    4.4023933    4.4023933    425.72924   -6271.4836    562.11722    6986.5541    8201.5343   -6006.8006   -79.959755    85.323077 
   50000    426.41444   -110.43271   0.38582875   -110.04688   -4953.8337    4.4039172    4.4039172    4.4039172   -4953.8337   -25202.326    4311.7275    6029.0972   -540.43084   -14966.801    1518.9503    85.411715 
   50100    797.75099   -110.76423   0.72182186   -110.04241   -4596.5129     4.407589     4.407589     4.407589   -4596.5129   -11697.417    65.535413    -2157.657   -13640.095     7454.479   -471.26255    85.625527 
   50200    616.35916   -110.60147   0.55769472   -110.04377     11444.88    4.3971866    4.3971866    4.3971866     11444.88    1869.5995    29735.272    2729.7679    10164.284   -9340.4496   -65.790844    85.020704 
   50300    443.32592   -110.44818   0.40113061   -110.04705   -10759.771    4.4124625    4.4124625    4.4124625   -10759.771   -26450.455    2942.7248   -8771.5831   -9531.3185   -13937.407    4623.1858    85.909871 
   50400    736.65937   -110.70786   0.66654488   -110.04132    5645.6578     4.399991     4.399991     4.399991    5645.6578   -7135.4595    23057.058    1015.3749   -10249.835    10763.573   -2163.2474    85.183479 
   50500    662.83878   -110.64278   0.59975046   -110.04303    3464.8753    4.4004364    4.4004364    4.4004364    3464.8753    4455.6333     17717.84   -11778.848    9391.4986   -10563.473    2450.7803    85.209351 
   50600    413.11206   -110.41961   0.37379248   -110.04582   -13266.733    4.4124656    4.4124656    4.4124656   -13266.733   -26568.382   -6066.9591   -7164.8589   -12558.114   -12059.932    3123.5344    85.910055 
   50700    707.75794   -110.68012   0.64039426   -110.03973    9565.1791    4.3935227    4.3935227    4.3935227    9565.1791   -60.192369    20966.331    7789.3986   -2177.9257    11784.318    1462.2748    84.808354 
   50800    641.80896   -110.62393   0.58072223   -110.04321   -2781.7359     4.408513     4.408513     4.408513   -2781.7359    -5105.139    18056.565   -21296.633    2344.4873   -9197.7707    1329.9578     85.67939 
   50900    351.32221   -110.36445   0.31788372   -110.04657    691.49441    4.4048397    4.4048397    4.4048397    691.49441   -11142.945    9836.1748    3381.2537   -8786.1543   -9491.4746    3498.9165    85.465401 
   51000    668.58209    -110.6475   0.60494712   -110.04255    2143.0754    4.3985294    4.3985294    4.3985294    2143.0754   -10637.074    16642.011    424.28829    128.20198    11543.508   -252.49336    85.098616 
   51100    694.70603   -110.66966   0.62858462   -110.04107   -2999.5563    4.4080628    4.4080628    4.4080628   -2999.5563   -3206.7737     9716.082   -15507.977    899.20156   -5908.6508   -1054.8649    85.653144 
   51200    474.42165   -110.47421   0.42926668   -110.04494    902.13844    4.4007399    4.4007399    4.4007399    902.13844   -11455.044    7772.6819    6388.7772   -9020.6633    -7667.526    5842.1309    85.226981 
   51300    510.22414   -110.50795   0.46166152   -110.04629    -806.0604    4.4043578    4.4043578    4.4043578    -806.0604   -11874.834    12840.051   -3383.3981   -3029.0566    11903.204   -2993.0903    85.437351 
   51400    849.94139   -110.80989   0.76904483   -110.04085    5428.7537    4.4021245    4.4021245    4.4021245    5428.7537    6192.4731    14200.431   -4106.6428    3756.3126   -1424.4819     701.1579    85.307453 
   51500    510.25183   -110.50836   0.46168658   -110.04667   -2833.0645    4.4064448    4.4064448    4.4064448   -2833.0645   -17539.276    3048.6295    5991.4532   -16869.234   -6911.3082    4280.9723    85.558865 
   51600    368.88298   -110.38185   0.33377307   -110.04807    847.14919     4.401792     4.401792     4.401792    847.14919   -13189.313    6302.1321    9428.6285    -762.8965    14567.195   -4508.0891    85.288124 
   51700    900.87254   -110.85606    0.8151284   -110.04093   -109.85065    4.4032103    4.4032103    4.4032103   -109.85065   -1758.9543    6916.4243    -5487.022    2537.4674     1392.662    7044.1947    85.370588 
   51800    530.73969     -110.526   0.48022442   -110.04578     -3801.18    4.4076284    4.4076284    4.4076284     -3801.18   -19728.885   -4987.1626    13312.507    -18612.55   -3048.9149   -1052.8342    85.627829 
   51900    336.46011   -110.35394   0.30443618    -110.0495   -633.88731    4.3978944    4.3978944    4.3978944   -633.88731   -14104.491    14404.376   -2201.5475    5752.2113    20169.111   -821.79188    85.061766 
   52000    830.82244    -110.7963    0.7517456   -110.04455   -3639.3899    4.4065341    4.4065341    4.4065341   -3639.3899   -10974.571    3690.0479   -3633.6469      3014.51    184.30087    2501.4728    85.564065 
   52100    710.55509   -110.68881   0.64292518   -110.04588   -4756.9545    4.4036731    4.4036731    4.4036731   -4756.9545   -17042.579   -643.94161    3415.6573   -15547.403    2924.3769    -3659.776    85.397513 
   52200    213.00948   -110.24484   0.19273545    -110.0521   -1850.9992    4.4019233    4.4019233    4.4019233   -1850.9992   -21760.037    10054.362    6152.6772     8946.383    19874.086    4024.5809    85.295751 
   52300    863.84827    -110.8253   0.78162806   -110.04367   -5347.8323    4.4056982    4.4056982    4.4056982   -5347.8323    -15787.94    1978.8384   -2234.3956     6532.903   -2475.0298   -8043.7393    85.515381 
   52400    737.99586   -110.71185   0.66775417   -110.04409    -286.1312     4.403604     4.403604     4.403604    -286.1312   -12992.366     5977.335    6156.6375   -11498.721     4727.315    689.79587    85.393494 
   52500    276.63463   -110.30187   0.25030482   -110.05156   -10365.143    4.4045036    4.4045036    4.4045036   -10365.143   -32431.897    9023.0016   -7686.5334    13422.286    18232.549     2068.938    85.445836 
   52600    729.04116   -110.70738   0.65965176   -110.04773   -145.69516    4.4023195    4.4023195    4.4023195   -145.69516   -6775.4063    5358.3708    979.94998    6055.4749   -2157.6704   -8039.4786    85.318788 
   52700    866.69245   -110.82813   0.78420155   -110.04392   -1308.2849    4.4050684    4.4050684    4.4050684   -1308.2849   -8495.4168    6697.3032   -2126.7412   -5412.8596    976.88721    6307.0477    85.478715 
   52800    250.56746   -110.27792    0.2267187    -110.0512   -5048.5872    4.4053246    4.4053246    4.4053246   -5048.5872   -20514.253    14790.399    -9421.907    15162.279    16517.058   -3395.8563    85.493626 
   52900    605.37314   -110.59579   0.54775434   -110.04803    2973.2282    4.4035309    4.4035309    4.4035309    2973.2282    -3801.953    6055.1202    6666.5175    1290.0487   -6958.9283   -2306.6666    85.389238 
   53000    876.91638   -110.83463   0.79345237   -110.04118    1047.2759    4.4044604    4.4044604    4.4044604    1047.2759    172.48662    12137.027   -9167.6858    133.58878    1831.1566    5150.5937    85.443325 
   53100    313.71504   -110.33414   0.28385596   -110.05029   -6653.0443    4.4047983    4.4047983    4.4047983   -6653.0443   -15400.127    3474.6157   -8033.6216    14242.517    16126.294   -4567.6489    85.462991 
   53200    554.01042   -110.55063   0.50128027   -110.04935    1681.5193    4.4018434    4.4018434    4.4018434    1681.5193    6968.5164   -1500.3048   -423.65368   -541.67693   -11554.258    153.92076    85.291111 
   53300    845.08618   -110.80654   0.76465174   -110.04189    1593.2299    4.4068836    4.4068836    4.4068836    1593.2299    2859.3634    4302.1612   -2381.8347   -1600.1883    4185.8966   -644.06332    85.584425 
   53400    388.11681    -110.3997   0.35117624   -110.04852   -6055.3194    4.4054789    4.4054789    4.4054789   -6055.3194   -4395.1307   -935.77606   -12835.052    13817.681    10500.766   -4196.0504    85.502608 
   53500    468.60797   -110.47128   0.42400634   -110.04727    2582.5293    4.3992104    4.3992104    4.3992104    2582.5293    4909.5707   -4884.1803    7722.1974     2499.464   -10900.191   -1955.9163    85.138146 
   53600    717.88924    -110.6916   0.64956127   -110.04204   -1665.1406    4.4100064    4.4100064    4.4100064   -1665.1406   -3937.5963    4792.1835   -5850.0089   -11986.083    4148.7908   -528.96108    85.766496 
   53700    565.31611    -110.5566   0.51150989   -110.04509   -1226.2143     4.400614     4.400614     4.400614   -1226.2143   0.60573515    1759.7911   -5439.0398    14862.167     6735.042   -3386.9294    85.219664 
   53800    364.30825   -110.37801   0.32963376   -110.04838     2471.979    4.4014145    4.4014145    4.4014145     2471.979    1691.5183    -3757.146    9481.5648   -2547.5551    -7455.009   -4475.5663     85.26618 
   53900    722.24042   -110.69532   0.65349831   -110.04182   -7980.3438    4.4131827    4.4131827    4.4131827   -7980.3438   -14700.593    333.11067   -9573.5491    -17207.19    281.03048     2525.279    85.951947 
   54000    686.35846   -110.66201   0.62103156   -110.04098    7067.0146    4.3951771    4.3951771    4.3951771    7067.0146    8519.9773    9768.7684    2912.2982    16628.991    5118.3727   -1842.3277    84.904192 
   54100     330.4766   -110.34801   0.29902217   -110.04899   -6198.3472    4.4057668    4.4057668    4.4057668   -6198.3472   -18869.801   -5173.5607    5448.3199   -13163.317   -4748.0532   -2122.7913    85.519377 
   54200    651.26675   -110.63421   0.58927984   -110.04493   -5863.2094    4.4107586    4.4107586    4.4107586   -5863.2094   -18941.421    7836.6396   -6484.8462   -17357.341   -1221.4951    2070.1671    85.810387 
   54300    865.03182    -110.8226   0.78269897    -110.0399    19301.392    4.3902536    4.3902536    4.3902536    19301.392    14145.194    33419.285    10339.696    11967.527    3619.5362    293.60672    84.619182 
   54400    319.96336   -110.34272   0.28950957   -110.05321   -9827.0574    4.4115447    4.4115447    4.4115447   -9827.0574   -35419.776    3577.2005    2361.4038   -18845.179   -4537.9782    228.27128    85.856277 
   54500    588.19392   -110.58117   0.53221022   -110.04896   -2539.1533    4.4073518    4.4073518    4.4073518   -2539.1533   -16754.044     15373.03   -6236.4467   -14384.539   -2274.9358    -412.2452    85.611704 
   54600     1030.387   -110.97105   0.93231577   -110.03874     17453.11    4.3891729    4.3891729    4.3891729     17453.11    11102.561    34568.743    6688.0265    7734.6484    2633.9144    1765.6584    84.556708 
   54700    265.56065   -110.29241   0.24028485   -110.05213   -14614.786    4.4176062    4.4176062    4.4176062   -14614.786   -44398.785    998.79184     -444.365   -23231.113   -5599.6038   -1952.1579    86.210664 
   54800    592.45308   -110.58495     0.536064   -110.04888   -1273.7312    4.3983868    4.3983868    4.3983868   -1273.7312    -8459.565    3928.3181    710.05328   -7724.9821   -2200.1188    394.73158    85.090339 
   54900     885.4923   -110.84446   0.80121204   -110.04325    18101.141    4.3926865    4.3926865    4.3926865    18101.141    13153.472    37711.405    3438.5452    6038.4772    2282.9959    5866.5155    84.759936 
   55000    456.59308   -110.46189   0.41313502   -110.04876   -23289.145    4.4190664    4.4190664    4.4190664   -23289.145   -44588.764   -20393.311   -4885.3583   -24614.239   -5289.0166   -4030.0582     86.29618 
   55100    430.34396   -110.43569   0.38938426   -110.04631    9408.7835    4.3898074    4.3898074    4.3898074    9408.7835    12915.047    7417.9322    7893.3714    4757.6294   -2008.4529    4162.3572    84.593381 
   55200    872.78729   -110.83306   0.78971628   -110.04335   -4170.1247     4.404455     4.404455     4.404455   -4170.1247   -4805.5988     5035.236   -12740.011    1437.4793    763.10081    2531.5018     85.44301 
   55300    590.05736   -110.57927    0.5338963   -110.04537    -9135.384    4.4102657    4.4102657    4.4102657    -9135.384   -21093.872   -6667.8837    355.60361   -17888.796   -3079.7485   -4266.7474    85.781622 
   55400    435.66978   -110.43858   0.39420317   -110.04437     7930.587    4.3918328    4.3918328    4.3918328     7930.587    7511.4958    6362.3613    9917.9039    11480.141   -4183.6212    6903.3227    84.710532 
   55500    708.27274   -110.68326   0.64086006    -110.0424   -6671.6696    4.4103585    4.4103585    4.4103585   -6671.6696    1042.2693   -623.94526   -20433.333   -3844.6147    588.45117   -3996.8409    85.787037 
   55600    707.50915   -110.68133   0.64016914   -110.04116    3877.7542    4.4009683    4.4009683    4.4009683    3877.7542    1619.8632    4904.2683    5109.1312   -5391.6729   -3220.2346   -2447.3843    85.240249 
   55700    353.01501   -110.36625    0.3194154   -110.04683   -3821.5386    4.4000418    4.4000418    4.4000418   -3821.5386   -3471.9385   -5060.2169   -2932.4604    12141.483   -5692.5696    4140.0924     85.18643 
   55800    598.96308   -110.58934   0.54195438   -110.04738   -4450.4229    4.4043562    4.4043562    4.4043562   -4450.4229    8781.2096    1052.3514    -23184.83   -1686.9126    2406.0521   -6510.3536    85.437256 
   55900    845.76245   -110.80753   0.76526364   -110.04226    10279.684    4.4009472    4.4009472    4.4009472    10279.684    6531.1479    17765.918    6541.9864     2460.769   -6050.3381    1456.7218    85.239023 
   56000    439.66528   -110.44784   0.39781838   -110.05002   -4831.8628    4.4047885    4.4047885    4.4047885   -4831.8628   -4621.7441    1041.1015   -10914.946    6805.5493   -5561.3108     2350.324     85.46242 
   56100    456.20631   -110.46173   0.41278506   -110.04894    3543.7619    4.4004214    4.4004214    4.4004214    3543.7619    16944.406    9724.6698    -16037.79    4334.9002    2101.2678    -4023.177     85.20848 
   56200    902.76975   -110.85814   0.81684504    -110.0413    2588.6702     4.404676     4.404676     4.404676    2588.6702    3077.9199    11282.954    -6594.863     -2984.07     -8551.51    2127.8562    85.455869 
   56300    501.82598   -110.50209   0.45406269   -110.04803   -1124.1086    4.4017815    4.4017815    4.4017815   -1124.1086   -4617.3824    6997.6149   -5752.5584    4959.7986   -3598.3493     1307.318     85.28751 
   56400     342.7073   -110.36092   0.31008876   -110.05083   -1347.0788     4.399806     4.399806     4.399806   -1347.0788    21971.852   -5896.1093   -20116.979    7260.7503    -136.4527    -4375.597    85.172734 
   56500    807.93473   -110.77479   0.73103633   -110.04376   -956.71945     4.406404     4.406404     4.406404   -956.71945   -10696.121    9271.0016   -1445.0393   -12694.135    -7297.922    1182.1142    85.556484 
   56600    656.75005   -110.63838   0.59424125   -110.04414   -2161.1304    4.4030986    4.4030986    4.4030986   -2161.1304   -827.31873    1098.7093   -6754.7819    6391.0812   -1431.1307   -373.00457    85.364094 
   56700    394.11521   -110.40449   0.35660372   -110.04789   -2678.8584    4.3971297    4.3971297    4.3971297   -2678.8584    17506.981   -8949.8012   -16593.755    3356.2287   -1080.7658   -5399.1994    85.017402 
   56800    646.39512   -110.63089   0.58487189   -110.04602   -5018.2516    4.4084413    4.4084413    4.4084413   -5018.2516    -18528.68    1151.5268    2322.3982   -15898.717   -5646.6648    2300.1811    85.675213 
   56900    794.71241   -110.76122   0.71907249   -110.04215   -3967.3445    4.4035399    4.4035399    4.4035399   -3967.3445   -3315.4168    3492.7563   -12079.373    5363.2134   -3897.2947   -5028.9463    85.389765 
   57000    424.52089   -110.43003   0.38411542   -110.04591    5811.1551    4.3956224    4.3956224    4.3956224    5811.1551    14694.085    2573.9878    165.39278   -3226.0838    176.06129   -3977.7553    84.929999 
   57100    533.97905   -110.52809   0.48315546   -110.04493   -12232.292    4.4142222    4.4142222    4.4142222   -12232.292   -30928.653   -628.40001   -5139.8214   -13899.989   -6142.6401    1738.3853    86.012696 
   57200    788.56065   -110.75321   0.71350624    -110.0397    4056.1383    4.3976725    4.3976725    4.3976725    4056.1383    1369.5219    9847.2388    951.65429    2962.4817   -4072.6269   -5459.3459     85.04889 
   57300    542.58081   -110.53651   0.49093852   -110.04557    797.14191    4.3980706    4.3980706    4.3980706    797.14191    13015.332    178.78136   -10802.688   -4175.4078    1346.8478    2158.7695    85.071987 
   57400    445.17502   -110.44932   0.40280371   -110.04651   -13679.886    4.4138286    4.4138286    4.4138286   -13679.886   -35918.124   -6045.4309    923.89805    -13253.01   -8097.1153   -1094.8805    85.989694 
   57500    777.45786   -110.74329   0.70346021   -110.03983    6961.0506    4.3958608    4.3958608    4.3958608    6961.0506    2047.3206    14813.334    4022.4967    3574.8922   -3123.0339   -845.89208    84.943818 
   57600    685.31993   -110.66322   0.62009188   -110.04313   -4673.1501    4.4051556    4.4051556    4.4051556   -4673.1501    1736.2254   -3614.9622   -12140.713   -3390.7382   -322.73572    2109.8805    85.483791 
   57700    414.88601   -110.42045   0.37539758   -110.04505   -8015.4115    4.4097603    4.4097603    4.4097603   -8015.4115   -24133.389   -3318.8951    3406.0501   -12136.664   -8506.0358   -1891.9951    85.752139 
   57800    728.68784   -110.69952   0.65933207   -110.04019    1133.2045    4.3972229    4.3972229    4.3972229    1133.2045   -1014.9653    5831.4136   -1416.8349     6234.497    -1770.104    2027.8322    85.022807 
   57900    669.01536   -110.64706   0.60533916   -110.04172   -2965.7068    4.4067719    4.4067719    4.4067719   -2965.7068    5202.3391   -5671.7213   -8427.7381   -3478.2028    208.79971   -5989.0121    85.577918 
   58000    490.34853   -110.48811   0.44367766   -110.04444   -7260.4321    4.4062822    4.4062822    4.4062822   -7260.4321   -19654.797   -3756.8387    1630.3396   -8795.4902   -6933.5682    1633.1165    85.549393 
   58100    513.98792   -110.50976   0.46506707   -110.04469    3487.3604      4.39953      4.39953      4.39953    3487.3604   -5055.4131    6591.4879    8926.0066    10689.322   -3943.6409     333.5507    85.156705 
   58200    791.92829   -110.75824   0.71655336   -110.04169   -4285.0542    4.4058617    4.4058617    4.4058617   -4285.0542    1962.4324   -787.15088   -14030.444   -4889.9364     4980.338   -7886.1096    85.524899 
   58300    486.71208   -110.48539   0.44038732     -110.045   -1417.8579    4.4054923    4.4054923    4.4054923   -1417.8579   -6845.5733    923.51622    1668.4832   -5277.4334   -8566.6031     5379.493    85.503394 
   58400    508.63179   -110.50547   0.46022073   -110.04525   -952.08239      4.40035      4.40035      4.40035   -952.08239   -7643.7858    7133.7311   -2346.1926    13763.008    -2451.862   -6138.4245    85.204329 
   58500    712.70479   -110.68655   0.64487027   -110.04168    1707.3251    4.4063044    4.4063044    4.4063044    1707.3251    6695.6066    2078.5668   -3652.1981   -5879.1958     11281.59    457.51061    85.550683 
   58600     633.8357   -110.61553   0.57350786   -110.04202    397.33623    4.4047977    4.4047977    4.4047977    397.33623   -4283.2114    1842.4693    3632.7508    1068.3931   -10480.598    5608.4467    85.462952 
   58700     423.3074   -110.42882   0.38301743    -110.0458    233.66129    4.4001098    4.4001098    4.4001098    233.66129   -15807.213    11607.988    4900.2092    13452.793    240.04266   -6869.1776    85.190377 
   58800    696.69181   -110.67399   0.63038139   -110.04361   -297.64108    4.4056586    4.4056586    4.4056586   -297.64108   -808.61917     6560.597   -6644.9011   -4851.1582    16165.542    5615.4445    85.513074 
   58900    765.85459   -110.73624   0.69296132   -110.04328    1659.4842    4.4018282    4.4018282    4.4018282    1659.4842   -9656.8173    8753.3551    5881.9147    8044.5305   -8901.6074   -385.94555    85.290225 
   59000    316.08447   -110.33577   0.28599987   -110.04977   -1469.9768    4.4028044    4.4028044    4.4028044   -1469.9768    -18006.76    11513.443    2083.3869    9816.0991    3085.2669   -1327.4807    85.346982 
   59100    677.54284   -110.65751     0.613055   -110.04445   -4089.9861    4.4070186    4.4070186    4.4070186   -4089.9861   -14809.459    8841.6639   -6302.1632    -3358.465    17351.297    3835.1683    85.592291 
   59200    850.79787   -110.80909   0.76981979   -110.03927    3841.4924    4.4004581    4.4004581    4.4004581    3841.4924   -8100.5741     5914.502    13710.549    7391.5137   -8631.0627   -5012.1107    85.210611 
   59300    295.96801   -110.31654   0.26779808   -110.04874   -8880.8766    4.4057332    4.4057332    4.4057332   -8880.8766   -30265.992    6859.9632   -3236.6009    8343.9189    6252.4236    2170.5405    85.517416 
   59400     638.2498   -110.62513   0.57750183   -110.04763   -2971.8078    4.4025997    4.4025997    4.4025997   -2971.8078   -7938.1576    1303.9675   -2281.2334   -3445.7166    15760.442   -2491.1351     85.33508 
   59500     892.9418   -110.85032    0.8079525   -110.04236     4501.824    4.4010495    4.4010495    4.4010495     4501.824   -7132.4513    3188.9731     17448.95   -616.53013   -10752.294    143.02472    85.244968 
   59600    303.35229   -110.32463   0.27447952   -110.05015   -9595.2794    4.4100488    4.4100488    4.4100488   -9595.2794   -21918.107    1067.5218   -7935.2533    9009.5921    10201.586    2481.2949    85.768967 
   59700    552.33862   -110.54684   0.49976759   -110.04707    2596.2043    4.3986387    4.3986387    4.3986387    2596.2043   -9471.1463    6517.5292     10742.23   -9077.5195    11036.157   -4359.5863    85.104961 
   59800    826.25078   -110.78868   0.74760907   -110.04108    1222.7641    4.4043623    4.4043623    4.4043623    1222.7641    969.99249    -6347.587    9045.8868   -4821.6141   -8713.8757    5236.8859    85.437611 
   59900    399.16553   -110.40939   0.36117336   -110.04821   -10954.604     4.408185     4.408185     4.408185   -10954.604    -19717.64    4211.5678   -17357.742    8592.1264    11533.692   -2705.7318    85.660267 
   60000    430.75647   -110.43736   0.38975751    -110.0476    4578.7387    4.3952349    4.3952349    4.3952349    4578.7387   -4725.3978    6334.3823    12127.232   -18336.875    6785.9105    1748.8942    84.907542 
   60100    842.40875   -110.80408   0.76222914   -110.04185   -2988.6545    4.4082674    4.4082674    4.4082674   -2988.6545   -7041.2388   -7642.7154    5717.9908   -6561.8493   -3089.7539    4212.6845    85.665073 
   60200    520.85234   -110.51695   0.47127814   -110.04567   -4457.3564    4.4057937    4.4057937    4.4057937   -4457.3564   -14862.799    11191.853   -9701.1231     3990.195    12259.708   -6662.4549    85.520941 
   60300    361.88725   -110.37423   0.32744319   -110.04679     543.7549    4.3965497    4.3965497    4.3965497     543.7549   -17307.099    1051.3538     17887.01   -22018.413    4765.9199     3298.259    84.983763 
   60400    846.37466   -110.80729   0.76581758   -110.04148   -8709.8245    4.4095656    4.4095656    4.4095656   -8709.8245   -15254.569   -9532.9683   -1341.9356   -3257.6094   -2489.3351   -2396.3259     85.74078 
   60500    632.49657   -110.61738   0.57229619   -110.04509   -2221.8282    4.4012688    4.4012688    4.4012688   -2221.8282   -13570.269    14135.335   -7230.5513   -2976.3648    13464.382   -2179.3045    85.257711 
   60600    346.77759   -110.36356   0.31377165   -110.04979   -3066.3784     4.398398     4.398398     4.398398   -3066.3784   -28484.302     5164.471    14120.696   -22233.083    2456.1164    2441.3234     85.09099 
   60700    795.77993   -110.76336    0.7200384   -110.04332   -6623.2998    4.4101658    4.4101658    4.4101658   -6623.2998    -11777.85   -4057.3111   -4034.7383    4130.9737   -3777.0461   -6137.3703    85.775797 
   60800    742.81562   -110.71513   0.67211518   -110.04302    532.74592    4.3990915    4.3990915    4.3990915    532.74592   -11873.123    15387.058   -1915.6966   -6238.9669    12518.408    2213.0501    85.131244 
   60900    276.79375    -110.3006    0.2504488   -110.05015    -3567.232    4.4012608    4.4012608    4.4012608    -3567.232   -19237.505   -403.14335    8938.9523   -22621.056     184.1257   -834.01565    85.257246 
   61000    722.48131   -110.69767   0.65371627   -110.04396   -7173.3196    4.4078227    4.4078227    4.4078227   -7173.3196   -16993.675   -111.65425   -4414.6299    13039.719   -3594.0972   -403.07593    85.639149 
   61100    664.23646   -110.64296   0.60101511   -110.04194    3304.5482    4.4012305    4.4012305    4.4012305    3304.5482    430.92461    12467.043    -2984.323   -7284.2307    6770.0479    2687.4684    85.255488 
   61200    369.10684   -110.38118   0.33397563   -110.04721   -4600.2603    4.4014476    4.4014476    4.4014476   -4600.2603   -22928.602   -1344.6746    10472.495   -19400.279    108.86975   -4966.3807    85.268104 
   61300    596.34496   -110.58553   0.53958545   -110.04595    1763.6307    4.4039487    4.4039487    4.4039487    1763.6307   -2287.3837    8090.2677   -511.99185    21412.492    -2533.069    2619.7003    85.413548 
   61400    810.36276   -110.77548   0.73323326   -110.04224   -3028.5517    4.4053891    4.4053891    4.4053891   -3028.5517    -5144.844    1724.6875   -5665.4984   -11185.957    1915.2219   -500.36031     85.49738 
   61500    403.53864   -110.41198   0.36513024   -110.04685    1398.6363    4.4001713    4.4001713    4.4001713    1398.6363   -10970.734     6338.654     8827.989   -12327.023    3484.6428   -2588.4104    85.193952 
   61600    622.07797   -110.60815   0.56286922   -110.04528   -3533.1838    4.4049942    4.4049942    4.4049942   -3533.1838   -21137.457    11886.217   -1348.3115    24931.425   -4002.7813    1950.6084    85.474393 
   61700    825.78244   -110.78704    0.7471853   -110.03985    3121.2156    4.4037269    4.4037269    4.4037269    3121.2156      2926.69    7172.1664   -735.20955   -14433.333   -588.89457   -4899.3688    85.400642 
   61800     481.5278   -110.48145   0.43569647   -110.04575    1398.4381    4.3994948    4.3994948    4.3994948    1398.4381   -20596.148    13705.045    11086.417   -2681.2495    4291.1143    1122.9021    85.154663 
   61900    473.36079    -110.4761   0.42830679   -110.04779   -5136.8788    4.4083199    4.4083199    4.4083199   -5136.8788   -20133.288     7685.537   -2962.8854    24331.758   -6197.3503    1131.7781    85.668137 
   62000    922.15524   -110.87419   0.83438544   -110.03981    6027.7896    4.3990786    4.3990786    4.3990786    6027.7896    5068.0653    13445.667   -430.36385   -11610.917   -2095.6119   -3701.2048    85.130498 
   62100    473.41682   -110.47569   0.42835748   -110.04733    123.95788    4.4024959    4.4024959    4.4024959    123.95788   -19224.405     10760.08    8836.1986    8579.3393    4383.3598     1366.158    85.329041 
   62200    363.85712   -110.37881   0.32922557   -110.04958    -5815.892    4.4079822    4.4079822    4.4079822    -5815.892   -21526.556    10758.189   -6679.3092    19821.339   -7855.5028   -1555.1265    85.648446 
   62300    937.92169   -110.88863   0.84865126   -110.03997    7776.8706    4.3976019    4.3976019    4.3976019    7776.8706    6754.4563    17232.274   -656.11817   -7063.0638    -1853.498   -768.47246    85.044794 
   62400    460.33429   -110.46413   0.41652014   -110.04761    1894.8361    4.4052935    4.4052935    4.4052935    1894.8361   -10190.047    1292.3856     14582.17    15638.968    2512.4685    1180.8155    85.491816 
   62500    401.98542   -110.41307   0.36372485   -110.04935   -6444.1132     4.405289     4.405289     4.405289   -6444.1132   -19866.001    4434.2821   -3900.6204     11736.99   -7965.2718    -1669.219    85.491554 
   62600     776.8873   -110.74452   0.70294396   -110.04157    10253.066       4.3985       4.3985       4.3985    10253.066    9983.2757    18318.562    2457.3597   -3644.7445   -1104.6905   -1256.0834    85.096911 
   62700    660.88049   -110.64308   0.59797856    -110.0451   -3287.2536    4.4056622    4.4056622    4.4056622   -3287.2536   -13248.341   -8925.8449    12312.425    18655.642    138.79623   -1898.4705    85.513284 
   62800     351.7209   -110.36554   0.31824447    -110.0473   -461.14853    4.4051858    4.4051858    4.4051858   -461.14853   -15520.629    15396.186   -1259.0033    5797.5539   -8101.6948   -64.530354    85.485546 
   62900    753.99871   -110.72389   0.68223387   -110.04165    2403.9244    4.3989844    4.3989844    4.3989844    2403.9244   -9415.1423    14957.354    1669.5619   -3298.1148    556.99324   -607.30696    85.125026 
   63000    657.84885   -110.63777   0.59523546   -110.04253    4912.8108    4.4044126    4.4044126    4.4044126    4912.8108    2721.6352   -2162.2416    14179.039    15932.763    2440.2252   -2669.2073    85.440542 
   63100    449.28162   -110.45191   0.40651945   -110.04539   -4169.6551    4.4067732    4.4067732    4.4067732   -4169.6551   -30653.506    15467.529    2677.0124    470.08011   -10500.564    806.64499    85.577993 
   63200    550.61745   -110.54207   0.49821024   -110.04386    5702.8199    4.3985827    4.3985827    4.3985827    5702.8199   -3540.6189     15062.67    5586.4084   -4710.8638    3156.7542   -224.29266    85.101708 
   63300    851.80409   -110.81082   0.77073024   -110.04009    723.55077    4.4033102    4.4033102    4.4033102    723.55077   -8421.6067   -409.00313    11001.262    10703.362    2624.6643    -2120.844    85.376399 
   63400    458.35119   -110.46109   0.41472579   -110.04636   -5192.4727    4.4073319    4.4073319    4.4073319   -5192.4727   -26542.429    10803.211    161.80022   -3635.0316   -12929.537    1566.2815    85.610548 
   63500     497.8767   -110.49727   0.45048931   -110.04679    606.58911    4.3983546    4.3983546    4.3983546    606.58911   -16301.843    13738.072    4383.5383   -6530.3587    7055.5323    132.38166    85.088473 
   63600    895.24533   -110.85131   0.81003679   -110.04127    3947.0553    4.4027854    4.4027854    4.4027854    3947.0553    4244.6888   -2736.3707    10332.848    6132.3198     1657.857   -1869.5197    85.345879 
   63700     437.9713   -110.44453   0.39628563   -110.04824   -5031.4997    4.4085007    4.4085007    4.4085007   -5031.4997    -20510.99    7703.5904   -2287.0994   -6313.1161    -10515.25    96.573268    85.678673 
   63800    370.08637   -110.38373   0.33486192   -110.04886    267.93483    4.3979923    4.3979923    4.3979923    267.93483   -15296.001    15110.305     989.5003   -5959.7303    13579.324   -2531.3941    85.067446 
   63900    906.90892   -110.86201   0.82059025   -110.04142    1273.0763    4.4032283    4.4032283    4.4032283    1273.0763    7661.3699   -8746.2421     4904.101     2705.608    398.97753   -1670.4173     85.37164 
   64000    520.52396   -110.51949   0.47098102   -110.04851   -8617.4183    4.4064665    4.4064665    4.4064665   -8617.4183   -23530.096     4426.093   -6748.2523   -5809.6792   -5237.7524    98.758403    85.560127 
   64100    302.30099   -110.32505   0.27352829   -110.05152   -1182.3811     4.399535     4.399535     4.399535   -1182.3811   -16853.232    12748.478    557.61118    -5595.928    16318.156   -2344.0019    85.156993 
   64200    998.62445   -110.94472   0.90357639   -110.04114   -2236.0029    4.4046034    4.4046034    4.4046034   -2236.0029   -1992.8342   -14218.993     9503.818    953.52362   -1614.7994   -1912.1123    85.451646 
   64300    485.01118   -110.48684   0.43884831   -110.04799   -2047.9439    4.4051951    4.4051951    4.4051951   -2047.9439   -9734.7368    3909.9288   -319.02364   -4398.4236    4396.2971   -980.57607    85.486089 
   64400    370.67914   -110.38473   0.33539828   -110.04933   -5327.4561    4.4014595    4.4014595    4.4014595   -5327.4561   -31364.124    11290.799    4090.9566   -6668.1124    16901.399    1917.9192    85.268794 
   64500    872.02615   -110.83011   0.78902759   -110.04109    4376.0718    4.4029104    4.4029104    4.4029104    4376.0718    6655.3449   -5724.7806    12197.651    3653.4451   -4441.4367   -3021.2929    85.353146 
   64600    613.51889   -110.60169   0.55512478   -110.04657   -7903.7043    4.4060537    4.4060537    4.4060537   -7903.7043   -23534.462    1416.9323   -1593.5835   -1478.8631     11320.11   -2268.2368     85.53608 
   64700    379.16446   -110.39124   0.34307597   -110.04817   -531.80479    4.4006043    4.4006043    4.4006043   -531.80479   -20571.214    16148.537    2827.2625   -7060.9335    11239.492    2375.0027    85.219102 
   64800    858.50793   -110.81826   0.77679601   -110.04146    -1497.806    4.4025183    4.4025183    4.4025183    -1497.806   -5285.6868   -11675.764    12468.033    9961.0028   -7379.0413   -6124.8533    85.330349 
   64900    603.97869   -110.59003   0.54649261   -110.04354    -5127.268    4.4069189    4.4069189    4.4069189    -5127.268   -17685.741    3441.8505   -1137.9136   -1855.6178    14930.127    1108.2998     85.58648 
   65000    454.21109   -110.45574   0.41097974   -110.04476   -2688.0431    4.4003538    4.4003538    4.4003538   -2688.0431   -17890.629    7176.6719    2649.8276   -5225.1168    4023.1254    -1780.642    85.204548 
   65100    655.22056   -110.63548   0.59285733   -110.04262   -3371.6347    4.4033292    4.4033292    4.4033292   -3371.6347   -14064.516   -7504.2768    11453.889    15813.834   -6195.8149   -4242.1366    85.377505 
   65200    662.64023    -110.6405   0.59957081   -110.04093   -3151.9024    4.4051365    4.4051365    4.4051365   -3151.9024   -12308.828     6515.384   -3662.2627   -1139.2436     12939.38    5347.4745    85.482678 
   65300    542.07143   -110.53337   0.49047762    -110.0429   -7022.6398    4.4017917    4.4017917    4.4017917   -7022.6398   -21649.443    4149.0508    -3567.527   -2119.0212   -1603.7468    -3359.124    85.288106 
   65400    482.92048   -110.48218    0.4369566   -110.04522   -1724.9218    4.4017608    4.4017608    4.4017608   -1724.9218   -9442.0942   -8834.5664    13101.895    19939.686   -4019.0169   -356.02641    85.286309 
   65500    878.72843   -110.83473   0.79509195   -110.03964   -5945.7952    4.4066022    4.4066022    4.4066022   -5945.7952   -17400.713    9622.8139   -10059.487   -1175.8621    7545.1682    1004.3491    85.568032 
   65600    478.98329   -110.47883   0.43339415   -110.04543    -603.6922    4.4013284    4.4013284    4.4013284    -603.6922    -10302.42    6653.4037    1837.9395    1680.4586   -2131.1842   -1734.0001    85.261178 
   65700    418.37007   -110.42717   0.37855003   -110.04862    -1993.242    4.4002923    4.4002923    4.4002923    -1993.242   -26002.617     5951.387    14071.504    21877.673   -5438.1269    1842.5247    85.200977 
   65800    883.65097    -110.8396   0.79954597   -110.04005   -901.38317    4.4090817    4.4090817    4.4090817   -901.38317    -6408.167     13730.65   -10026.632   -3045.2669    4696.5298   -3827.8757    85.712555 
   65900    497.79898   -110.49792   0.45041898   -110.04751    2008.2992    4.3966925    4.3966925    4.3966925    2008.2992   -17489.471    13871.109    9643.2597     10679.74   -3774.8195    1085.8248    84.992047 
   66000    259.49997    -110.2892   0.23480102    -110.0544    -5111.533     4.404869     4.404869     4.404869    -5111.533   -28459.938    1614.9372    11510.402    18007.431   -6862.5907   -3001.6435    85.467104 
   66100    996.69633   -110.94264   0.90183178   -110.04081    2709.2727    4.4056931    4.4056931    4.4056931    2709.2727   -2314.9851    15658.345   -5215.5417   -7412.2385    4565.2987   -1201.4088    85.515086 
   66200    554.14783   -110.54957    0.5014046   -110.04817    994.31515    4.3973164    4.3973164    4.3973164    994.31515   -17419.993    13599.029    6803.9096    19014.521   -5287.7091    5109.1915    85.028233 
   66300    258.95562   -110.28762   0.23430849   -110.05331   -9354.7126    4.4070723    4.4070723    4.4070723   -9354.7126     -28716.4   -6568.0081    7220.2699    10460.215   -6032.4255   -5517.1305    85.595421 
   66400    1006.7622   -110.95157   0.91093963   -110.04063    838.93276    4.4006992    4.4006992    4.4006992    838.93276   -6312.1859    11645.036   -2816.0522    -10065.02    4105.0341     6064.841    85.224615 
   66500    472.63324   -110.47582   0.42764849   -110.04817   -6334.0797    4.4040094    4.4040094    4.4040094   -6334.0797    -15094.39   -7356.4309    3448.5817    20667.108   -4662.0006    2916.2416    85.417079 
   66600    421.82829   -110.43004    0.3816791   -110.04836   -10756.664    4.4020469    4.4020469    4.4020469   -10756.664   -29478.345   -12876.786     10085.14    3468.8877   -3652.4109   -4931.9686    85.302938 
   66700    764.52153   -110.73371   0.69175515   -110.04196    2051.9732    4.4039715    4.4039715    4.4039715    2051.9732    826.33751    7488.9656   -2159.3836   -9706.2275    3646.2646     10112.27    85.414871 
   66800    648.50741    -110.6312   0.58678313   -110.04442   -7340.6733    4.4030275    4.4030275    4.4030275   -7340.6733    -17830.12    -7633.593    3441.6934    18099.776   -1460.6844   -1372.4155    85.359959 
   66900    456.24284   -110.45896   0.41281811   -110.04614     1801.265     4.398994     4.398994     4.398994     1801.265   -8615.5706    1454.7574    12564.608    1128.2209   -5030.6714   -2244.9925    85.125584 
   67000    691.79208   -110.66883   0.62594802   -110.04288   -7415.9941    4.4086896    4.4086896    4.4086896   -7415.9941   -15976.551    1071.7845   -7343.2153   -9610.2871     6007.151    7318.9477    85.689688 
   67100    645.78389   -110.62631   0.58431884     -110.042    3683.4518    4.3988798    4.3988798    4.3988798    3683.4518     6842.138   -2416.6349    6624.8523     13797.58    602.64286   -332.59317    85.118957 
   67200    520.58696   -110.51452   0.47103802   -110.04349    306.33641    4.4032497    4.4032497    4.4032497    306.33641   -14435.478    3729.3499    11625.137    314.97548   -7040.5191   0.34493051    85.372882 
   67300    548.60927   -110.53938    0.4963932   -110.04299   -1489.2614    4.4065252    4.4065252    4.4065252   -1489.2614   -11048.907     7259.621   -678.49796    -10392.32    10097.765    5484.0605    85.563548 
   67400    670.29319   -110.64689   0.60649537   -110.04039    12449.654     4.398136     4.398136     4.398136    12449.654    16315.178      11158.4    9875.3846    11768.469    -179.1586    4065.3408    85.075783 
   67500    640.77091   -110.62294   0.57978298   -110.04316   -1606.0955    4.4043899    4.4043899    4.4043899   -1606.0955   -20386.714    5245.7208    10322.707   -213.42064   -5369.6249   -4396.6475    85.439222 
   67600    394.98886   -110.40378   0.35739422   -110.04638    2140.9211    4.4045062    4.4045062    4.4045062    2140.9211   -2475.8375    8311.0984    587.50231   -8267.7328     13318.73    10740.704    85.445988 
   67700    810.20136   -110.77374   0.73308721   -110.04065     1415.658    4.4011616    4.4011616    4.4011616     1415.658    3420.5854   -58.986132    885.37489    8478.0582   -2511.9395    3585.9721    85.251483 
   67800    563.08351   -110.55229   0.50948979    -110.0428    4030.1932    4.4035079    4.4035079    4.4035079    4030.1932   -4859.2527    7182.8698    9766.9624   -1358.5126   -1154.4049   -10780.406    85.387901 
   67900    441.93068   -110.44574   0.39986816   -110.04588   -5116.7511    4.4038063    4.4038063    4.4038063   -5116.7511   -8138.2347   -819.27646   -6392.7423    -6832.347    14068.442    17070.516    85.405263 
   68000    724.19486   -110.69667   0.65526673    -110.0414    6484.5706    4.4022556    4.4022556    4.4022556    6484.5706    12433.895    4501.5407    2518.2761     5257.599   -5485.2514   -3421.3548    85.315073 
   68100    686.35457   -110.66379   0.62102804   -110.04276   -3264.0913    4.4034108    4.4034108    4.4034108   -3264.0913   -6309.1144   -4361.3812    878.22169   -1020.5535    5342.4707   -11474.681    85.382252 
   68200    383.37628   -110.39386   0.34688691   -110.04698   -4095.1075    4.4018919    4.4018919    4.4018919   -4095.1075   -7360.0748   -248.39421   -4676.8535   -5664.6236    11171.688    19261.618     85.29393 
   68300    762.59242   -110.73232   0.69000964   -110.04231   -4112.9965    4.4043128    4.4043128    4.4043128   -4112.9965    3864.7412   -10714.647   -5489.0841    636.83338   -4797.5957   -11511.221    85.434734 
   68400    731.76931    -110.7043   0.66212025   -110.04218   -3033.5874    4.4021082    4.4021082    4.4021082   -3033.5874    -7686.124    1468.4466   -2883.0847    417.96467    9491.7393   -5777.4632    85.306504 
   68500    330.92817   -110.34709   0.29943077   -110.04766   -1348.8419    4.4031486    4.4031486    4.4031486   -1348.8419    4619.6525   -229.36112   -8436.8171   -6408.0858    4405.4449    17037.718    85.366999 
   68600    757.59102   -110.72774   0.68548427   -110.04226    -4814.374    4.4057418    4.4057418    4.4057418    -4814.374   -2145.8982   -3124.8285   -9172.3954   -3754.1687   -1266.4824   -10056.839    85.517919 
   68700    741.48494   -110.71264   0.67091116   -110.04173    9259.4651    4.3970626    4.3970626    4.3970626    9259.4651    12790.092    9407.0536    5581.2499    2893.7094    5179.1305   -3132.2289    85.013512 
   68800    353.53277   -110.36993   0.31988388   -110.05004   -6073.8386    4.4071183    4.4071183    4.4071183   -6073.8386   -9770.8595    263.91109   -8714.5673    -9120.167    2124.3402    17694.824    85.598098 
   68900    737.95101   -110.71239   0.66771358   -110.04467    1933.5765     4.402832     4.402832     4.402832    1933.5765     749.8799     403.0296      4647.82   -4939.9627    373.05231   -3734.4612    85.348586 
   69000    764.72942   -110.73363   0.69194325   -110.04169    9526.0494    4.3992843    4.3992843    4.3992843    9526.0494    3156.3561    20958.768    4463.0241    3356.5078     -3624.29   -2635.5979    85.142439 
   69100    321.76907   -110.33958   0.29114341   -110.04843   -7550.7517    4.4089631    4.4089631    4.4089631   -7550.7517   -9286.7371   -7961.4184   -5404.0994    -12432.88    7628.9876     18747.85    85.705638 
   69200    651.61753   -110.63452   0.58959723   -110.04492    15525.388     4.395803     4.395803     4.395803    15525.388    14237.036    16181.659    16157.468   -393.02597   -3266.9133   -2135.4059    84.940471 
   69300    810.03332    -110.7766   0.73293517   -110.04367    250.02201    4.4045138    4.4045138    4.4045138    250.02201   -2650.9223    9627.0672   -6226.0788    1514.2752   -7547.3603   -1158.0813    85.446431 
   69400    222.48948   -110.25156   0.20131316   -110.05024   -2305.4063    4.4067909    4.4067909    4.4067909   -2305.4063   -680.17583    -15954.54     9718.497   -10668.048    10059.264    19898.719    85.579027 
   69500    787.43456   -110.75521   0.71248734   -110.04273    4779.1134    4.3979144    4.3979144    4.3979144    4779.1134   -2925.6937    10471.571    6791.4629    5598.3363   -8873.0461   -1824.0541    85.062927 
   69600    709.78444   -110.68392   0.64222787   -110.04169   -325.82209     4.406813     4.406813     4.406813   -325.82209    3987.3333    316.70916   -5281.5087   -5483.9438   -5107.7434    879.30914    85.580314 
   69700    411.25056   -110.42076   0.37210815   -110.04865   -4498.7136    4.3993866    4.3993866    4.3993866   -4498.7136    -8473.261   -17584.251    12561.372   -8883.8131    6401.0517    18218.723    85.148377 
   69800    614.90044   -110.60358   0.55637484    -110.0472      3048.23    4.4023924    4.4023924    4.4023924      3048.23    3787.0495    10812.932   -5455.2914    4023.9495   -6578.0603   -703.54786    85.323024 
   69900    787.61207   -110.75463   0.71264795   -110.04199   -5598.7459    4.4068695    4.4068695    4.4068695   -5598.7459   -8467.1003   -4222.9949   -4106.1426   -5694.0879   -4134.4117    3287.0692    85.583603 
   70000    384.64496    -110.3935   0.34803484   -110.04546    421.49417    4.3982534    4.3982534    4.3982534    421.49417    4373.1202   -11540.214    8431.5758   -6743.7702    4704.6785    15046.488    85.082597 
   70100    601.49249   -110.58829   0.54424305   -110.04404   -11461.308    4.4061283    4.4061283    4.4061283   -11461.308   -26124.956    7952.7758   -16211.746    173.43117   -6512.6137   -2547.2886    85.540429 
   70200    688.96763   -110.66613   0.62339239   -110.04274    2304.3654    4.4008397    4.4008397    4.4008397    2304.3654    1510.5171    4152.2577    1250.3214   -858.04972   -9555.6991    5180.1731    85.232777 
   70300     619.3797   -110.60552   0.56042777    -110.0451   -2437.8096    4.3999958    4.3999958    4.3999958   -2437.8096   -1133.6253   -10355.478    4175.6747   -7570.5231    5971.2837    12162.647    85.183757 
   70400    492.31994   -110.49157   0.44546143    -110.0461   -10054.189    4.4085492    4.4085492    4.4085492   -10054.189   -29068.239    9191.6147   -10285.943    1278.6477   -11125.651   -4512.2346    85.681506 
   70500    673.53443   -110.65095   0.60942811   -110.04152     5794.202    4.3981337    4.3981337    4.3981337     5794.202    2075.2939    7115.1817    8192.1304    3613.7558   -8613.6889    5808.7872    85.075653 
   70600    734.83958   -110.70613    0.6648983   -110.04123   -4293.5136    4.4035289    4.4035289    4.4035289   -4293.5136   -5016.5261   -9331.7435    1467.7288   -7368.6648    6123.1527    12412.485    85.389125 
   70700    372.15934   -110.38315   0.33673759   -110.04641      -3882.5    4.4045258    4.4045258    4.4045258      -3882.5   -25141.744    14789.999   -1295.7551    7182.2746   -15964.671   -5205.6858    85.447131 
   70800    601.34378   -110.58895   0.54410849   -110.04484   -2709.2237    4.3998095    4.3998095    4.3998095   -2709.2237   -7949.2173    2775.7896   -2954.2434     4080.406   -3918.7035    9661.0678    85.172934 
   70900    720.59655   -110.69345    0.6520109   -110.04144    3085.0393    4.4042739    4.4042739    4.4042739    3085.0393    13477.878   -7035.2265    2812.4668    -3946.925    4088.9722    10372.726    85.432472 
   71000    541.54905   -110.53486   0.49000497   -110.04485   -3603.4409    4.4022684    4.4022684    4.4022684   -3603.4409   -29984.736    13009.547     6164.866    10120.317   -17357.295      -5114.8    85.315816 
   71100    437.23139   -110.44202   0.39561615   -110.04641   -3549.4758    4.4036411    4.4036411    4.4036411   -3549.4758   -2682.0418    1740.6018   -9706.9873    1336.3726    2134.1497    13735.876     85.39565 
   71200    853.47071   -110.81201   0.77223823   -110.03977   -265.60774    4.4018775    4.4018775    4.4018775   -265.60774    1407.4089   -7112.5335    4908.3013    552.92353    496.49128    4971.5289    85.293094 
   71300    563.35636   -110.55383   0.50973667    -110.0441   -4695.1752    4.4034648    4.4034648    4.4034648   -4695.1752     -19446.1    7472.5815   -2112.0069    8021.7681   -14109.144   -4397.6915    85.385396 
   71400    354.67975   -110.36861   0.32092169   -110.04769   -8003.7224    4.4015208    4.4015208    4.4015208   -8003.7224    -5444.017   -1845.4115   -16721.739     1571.958    9464.1105    16858.663    85.272359 
   71500    760.34595   -110.73126   0.68797699   -110.04329   -1521.6446    4.4029173    4.4029173    4.4029173   -1521.6446    7485.7328   -12903.982    853.31527    2188.6695   -2805.7265    1028.9022    85.353549 
   71600    639.31483   -110.62279   0.57846549   -110.04433    952.41792    4.4035414    4.4035414    4.4035414    952.41792   -7180.0798     5598.098    4439.2355     4655.849   -4758.1182   -4097.1689    85.389852 
   71700    414.24426   -110.42275   0.37481691   -110.04794    -2761.428    4.3994241    4.3994241    4.3994241    -2761.428   -1711.5399    392.18822   -6964.9322    5132.2283    11896.347    19012.677    85.150555 
   71800    644.51989   -110.62749   0.58317514   -110.04431   -1151.8924    4.4072549    4.4072549    4.4072549   -1151.8924    1770.3927   -14342.307    9116.2369   -4026.7174   -1705.4087   -737.51631     85.60606 
   71900     809.8141   -110.77446   0.73273682   -110.04172    3501.5736    4.3983721    4.3983721    4.3983721    3501.5736   -1849.4065    4023.2566    8330.8707    7360.9049    2002.4792   -4997.6143    85.089487 
   72000    359.83843   -110.37375   0.32558937   -110.04816    4756.2418    4.4015633    4.4015633    4.4015633    4756.2418     12696.77   -5966.8364    7538.7924    4347.6515    3116.9413    18236.653    85.274829 
   72100    641.05254   -110.62535   0.58003781   -110.04531   -5623.2613    4.4068147    4.4068147    4.4068147   -5623.2613   -17.345779   -18408.655     1556.217   -7490.5112    4820.2417   -5674.3163    85.580411 
   72200    688.78404   -110.66526   0.62322628   -110.04203     15078.46    4.3957949    4.3957949    4.3957949     15078.46     26581.22    776.90868    17877.251    11634.499   -2018.5076   -7919.6727        84.94 
   72300    543.06741   -110.53699    0.4913788   -110.04561   -3490.6112    4.4059347    4.4059347    4.4059347   -3490.6112   -5195.6731   -11930.056    6653.8956   -684.57756    396.74367    17605.697    85.529153 
   72400    480.21694   -110.47884   0.43451038   -110.04433     480.9411    4.4035667    4.4035667    4.4035667     480.9411    11611.945   -9703.7382   -465.38358   -2854.9928    7635.8795   -9746.3229    85.391322 
   72500     754.3495   -110.72406   0.68255128   -110.04151    3664.2953    4.3972987    4.3972987    4.3972987    3664.2953    6308.8824   -6914.5576    11598.561    14535.239   -10485.023   -8178.7493    85.027207 
   72600    588.76276   -110.57528   0.53272492   -110.04256    2247.9912    4.4065887    4.4065887    4.4065887    2247.9912    10142.433   -10153.143    6754.6836   -1091.7163    5887.1347     13285.89    85.567244 
   72700    514.58055   -110.50991   0.46560329    -110.0443   -4030.6694    4.4010168    4.4010168    4.4010168   -4030.6694    10265.433   -11601.836   -10755.605    660.68882    5587.2271   -12244.769    85.243072 
   72800    535.56976   -110.52933   0.48459478   -110.04474    2080.6666    4.4000231    4.4000231    4.4000231    2080.6666    8308.3764   -14604.785    12538.409    16148.023   -10206.953    -4464.642    85.185344 
   72900    827.28999   -110.78875   0.74854937    -110.0402   -6534.0245    4.4061535    4.4061535    4.4061535   -6534.0245   -4040.7608   -11661.806   -3899.5067    2619.5182    11834.326    7509.0114    85.541895 
   73000    392.57341   -110.40153   0.35520867   -110.04632    774.90594    4.3993848    4.3993848    4.3993848    774.90594    16066.026   -3919.3914   -9821.9164    341.41459   -1164.7689    -11505.61    85.148277 
   73100    533.38197   -110.53022   0.48261522    -110.0476   -7642.2856    4.4026327    4.4026327    4.4026327   -7642.2856    -7558.615   -19615.745    4247.5032    19856.408   -4213.7502   -3283.6212       85.337 
   73200    893.30464     -110.849   0.80828081   -110.04072    1816.0854    4.4045041    4.4045041    4.4045041    1816.0854    2801.5148    319.12811    2327.6134     1036.811    8728.4993    4740.4141    85.445865 
   73300    441.92371   -110.44828   0.39986186   -110.04842   -261.47399    4.4005001    4.4005001    4.4005001   -261.47399    13770.896    -7578.734   -6976.5836     5049.263   -3220.2544   -9605.3798    85.213049 
   73400    410.53985    -110.4219   0.37146509   -110.05043    -7130.759     4.403801     4.403801     4.403801    -7130.759   -13652.936   -18588.697    10849.357    22133.071   -2923.0498    -3955.717    85.404954 
   73500    934.98249   -110.88682   0.84599181   -110.04082    3262.1623     4.402321     4.402321     4.402321    3262.1623    2823.9728    3955.3755    3007.1386   -7042.5625   -1341.6149     3741.803    85.318872 
   73600    472.14865   -110.47721   0.42721002      -110.05    1065.0636     4.400894     4.400894     4.400894    1065.0636    9764.8264   -8657.9505    2088.3149    10805.442    1945.3526   -8900.5913    85.235936 
   73700    344.22361   -110.36451   0.31146075   -110.05305   -398.20577    4.4027601    4.4027601    4.4027601   -398.20577   -3233.1119   -12281.486    14319.981    20121.362   -7149.2563   -1102.9243    85.344408 
   73800     950.1165   -110.90187   0.85968538   -110.04219    4135.2328    4.4044979    4.4044979    4.4044979    4135.2328    9785.8787     1971.633     648.1866    -9662.579   -3483.9572    2191.3457    85.445505 
   73900    538.05305   -110.53563    0.4868417   -110.04879    1072.7825    4.4018323    4.4018323    4.4018323    1072.7825    2553.9384   -7019.7552    7684.1644    13224.618    8168.0392   -8247.5938    85.290463 
   74000    362.26843   -110.37902   0.32778809   -110.05123   -1084.1793    4.4006329    4.4006329    4.4006329   -1084.1793   -8361.2525   -10365.842    15474.556     16577.41   -11516.216   -1299.0156    85.220762 
   74100    865.40785    -110.8255   0.78303921   -110.04246    3589.0319    4.4050701    4.4050701    4.4050701    3589.0319    10115.956    3624.9969   -2973.8574   -7285.3833    3274.6097    2195.7202    85.478809 
   74200    604.30109   -110.59373   0.54678433   -110.04695    487.08621    4.4021655    4.4021655    4.4021655    487.08621   -8021.3129   -6972.3537    16454.925     14549.62    5700.1103   -3724.6876    85.309832 
   74300    305.30158   -110.32627   0.27624329   -110.05002    3900.1651    4.3999862    4.3999862    4.3999862    3900.1651    5274.6878   -2770.6926       9196.5    12076.196   -12122.425    -5934.478      85.1832 
   74400    820.08794   -110.78464    0.7420328    -110.0426    -639.4817    4.4058601    4.4058601    4.4058601    -639.4817    2553.2627   -1432.3086   -3039.3992   -6064.9311     4011.713    7327.8566    85.524807 
   74500    656.87055   -110.63888   0.59435028   -110.04453   -3051.3314    4.4020478    4.4020478    4.4020478   -3051.3314    -13745.34   -11466.551    16057.897    16423.808   -937.49679   -2528.7852     85.30299 
   74600    368.77766   -110.38237   0.33367778   -110.04869   -2293.4725    4.4001753    4.4001753    4.4001753   -2293.4725   -2315.9937   -5003.3763    438.95261    9975.4301   -8616.2466   -7263.8017    85.194183 
   74700    777.26264   -110.74574   0.70328357   -110.04246   -3001.3727    4.4065684    4.4065684    4.4065684   -3001.3727    2732.3809   -7638.7967   -4097.7024   -6039.9142   -807.83252    13515.765    85.566061 
   74800    742.42697   -110.71402   0.67176352   -110.04225   -1989.4211    4.4014308    4.4014308    4.4014308   -1989.4211   -15174.099    -5212.947    14418.783    13258.305   -3420.8038   -7970.8999    85.267128 
   74900    411.91197   -110.41972    0.3727066   -110.04701    138.40005    4.3993632    4.3993632    4.3993632    138.40005    5254.1679   -1987.9776   -2850.9901    8925.2657   -7425.3935   -2992.7293     85.14702 
   75000    656.21057   -110.63668   0.59375311   -110.04292   -3459.0134    4.4079463    4.4079463    4.4079463   -3459.0134   -4531.8343   -1849.8192   -3995.3866   -6498.9946   -1265.1092    11480.291    85.646355 
   75100    682.96644   -110.65957   0.61796239   -110.04161   -2666.0175     4.401342     4.401342     4.401342   -2666.0175   -20556.058   -3254.7823    15812.788    10195.126    1034.0775   -8659.0431    85.261967 
   75200    505.50796   -110.50168   0.45739423   -110.04429    1909.4524    4.3974912    4.3974912    4.3974912    1909.4524    1654.6147    4883.2081   -809.46563    5318.8627   -8941.7442    1467.6132    85.038372 
   75300    531.10348   -110.52533   0.48055359   -110.04478   -2601.1401    4.4088457    4.4088457    4.4088457   -2601.1401   -10427.348    -5185.798    7809.7258   -5960.3162    1374.1522    4909.3098    85.698794 
   75400    640.20965   -110.62189   0.57927515   -110.04262    5410.4973     4.400323     4.400323     4.400323    5410.4973   -15759.112    18704.325    13286.279    10774.717    8732.1307   -1501.9779     85.20276 
   75500    669.63945   -110.64739   0.60590385   -110.04149    5853.7035    4.3986813    4.3986813    4.3986813    5853.7035    6334.0542    1995.9807    9231.0756    925.47732   -7744.3033   -2030.2333    85.107433 
   75600    514.22506   -110.50912   0.46528164   -110.04383   -5482.9148    4.4095674    4.4095674    4.4095674   -5482.9148   -16450.415   -1020.9942    1022.6646    -4596.521    6323.3119    685.45351    85.740883 
   75700     555.6252   -110.54775   0.50274136     -110.045    4694.1467    4.3975517    4.3975517    4.3975517    4694.1467   -21005.576    13202.526     21885.49    10145.002    12710.005    5206.7772    85.041882 
   75800    818.22408    -110.7826   0.74034635   -110.04225    4587.3583    4.3990953    4.3990953    4.3990953    4587.3583    413.00041     559.7281    12789.346      3519.55   -5530.6098   -8167.9294    85.131468 
   75900    436.20443   -110.44095   0.39468694   -110.04626   -6963.3884    4.4129531    4.4129531    4.4129531   -6963.3884    -25947.83   -4625.6739    9683.3388   -3043.7875    10667.186    3553.8405    85.938533 
   76000    529.53824   -110.52356   0.47913733   -110.04443     1821.205    4.3945801    4.3945801    4.3945801     1821.205    -21308.12    11864.253    14907.482    5301.0595    11731.571    1627.0468    84.869598 
   76100    729.96892   -110.70235   0.66049122   -110.04186    3395.3452     4.400075     4.400075     4.400075    3395.3452   -220.29536   -3718.2724    14124.603    3692.8145    -6643.455   -8925.8817    85.188355 
   76200    594.27508   -110.58162   0.53771258   -110.04391    -19299.94    4.4138132    4.4138132    4.4138132    -19299.94   -27306.065   -15205.483   -15388.273    -1552.125    10869.241    7604.5792    85.988791 
   76300    427.50287   -110.43081   0.38681358     -110.044    9975.2374    4.3895322    4.3895322    4.3895322    9975.2374    -17020.39    16283.269    30662.834    5577.1944    9403.0369   -4587.0629    84.577477 
   76400    739.20771   -110.71199   0.66885067   -110.04314   -10960.441    4.4093685    4.4093685    4.4093685   -10960.441   -14586.509   -13419.975   -4874.8381    1959.8956   -9676.0942   -3565.6719    85.729281 
   76500    600.11688   -110.58709   0.54299837   -110.04409   -7205.2049    4.4073013    4.4073013    4.4073013   -7205.2049   -16458.851   -8740.3116    3583.5479   -1568.8736     10314.91    5435.6992    85.608765 
   76600     611.3972   -110.59456   0.55320504   -110.04135    11927.946    4.3854659    4.3854659    4.3854659    11927.946   -9908.9933    19613.432    26079.398    7069.9648    1703.4563    533.45933    84.342644 
   76700    502.88262   -110.49905   0.45501877   -110.04403   -12207.385    4.4181411    4.4181411    4.4181411   -12207.385    -23093.64   -18929.534    5401.0185    1394.4208   -11105.999   -7496.4229    86.241983 
   76800    759.68204   -110.72795   0.68737627   -110.04058    4719.1164    4.3984771    4.3984771    4.3984771    4719.1164   -2848.1279   -157.59117    17163.068   -1017.6621    6726.8969    1917.2737    85.095583 
   76900    605.94206    -110.5896   0.54826911   -110.04133     10184.56    4.3911936    4.3911936    4.3911936     10184.56   -12779.792    11420.989    31912.483    7165.0078   -4440.2994    4424.9386     84.67355 
   77000    474.50317   -110.47191   0.42934044   -110.04257   -18129.242    4.4176666    4.4176666    4.4176666   -18129.242   -26266.483   -19193.261   -8927.9821   -583.42783   -11499.026   -14713.008      86.2142 
   77100    773.00375   -110.73967   0.69943004   -110.04024    11592.662    4.3899169    4.3899169    4.3899169    11592.662    10981.978    4744.6576     19051.35    2945.8109    1898.4407     8091.879    84.599714 
   77200    659.01706   -110.64173   0.59629249   -110.04544    1108.2213    4.4003856    4.4003856    4.4003856    1108.2213   -16289.019    5005.5166    14608.166    5717.1239   -4643.8734    3050.6251    85.206397 
   77300    431.46903   -110.43473   0.39040224   -110.04433   -8689.4201     4.412742     4.412742     4.412742   -8689.4201   -17207.155    -11880.44    3019.3342   -1801.4151   -9513.6134   -17386.708    85.926199 
   77400     708.2261    -110.6797   0.64081786   -110.03888     9419.446    4.3911696    4.3911696    4.3911696     9419.446    8276.6338    7401.9241     12579.78    3657.2006    3980.1706    13707.776    84.672158 
   77500    608.48195   -110.59281   0.55056725   -110.04224   -2518.4986    4.4036975    4.4036975    4.4036975   -2518.4986   -18612.915   -347.92086     11405.34    5566.4922    -1805.919   -1194.5321    85.398931 
   77600    557.42426   -110.54784   0.50436918   -110.04347   -8984.9652    4.4074592    4.4074592    4.4074592   -8984.9652   -11918.874   -7026.4584   -8009.5637    592.86605   -8911.6458   -14200.041    85.617965 
   77700    560.45225   -110.54924   0.50710897   -110.04213    6276.7309     4.394337     4.394337     4.394337    6276.7309   -126.35336    13183.167    5773.3786    594.74633    9172.4836    8912.4111    84.855514 
   77800    689.10314   -110.66556     0.623515   -110.04205   -5431.6186    4.4037742    4.4037742    4.4037742   -5431.6186   -19777.943   -2828.0513    6311.1385    7017.7401    2391.0355    -1820.467    85.403391 
   77900    539.75773   -110.53304   0.48838413   -110.04466    91.834487    4.4047225    4.4047225    4.4047225    91.834487   -3868.4982    6037.3903   -1893.3887   -2374.7005   -7428.3972   -16272.409    85.458577 
   78000    585.12969   -110.57266   0.52943764   -110.04322    7443.3954    4.3946056    4.3946056    4.3946056    7443.3954   -1576.6359     13694.16    10212.662    1531.9042    11372.797    442.31784    84.871074 
   78100     592.4953   -110.58043    0.5361022   -110.04433   -3586.0054    4.4069127    4.4069127    4.4069127   -3586.0054   -18137.664    3898.6907     3480.957    6380.4263    6032.1176    4611.8699    85.586123 
   78200    611.59678    -110.5953   0.55338562   -110.04192    3032.1165    4.4018915    4.4018915    4.4018915    3032.1165    1324.0494    9005.0806   -1232.7806   -5489.9124   -3904.1382   -19832.885    85.293905 
   78300    560.80365   -110.54879   0.50742693   -110.04136    7002.1696    4.3980411    4.3980411    4.3980411    7002.1696   -9251.6703    19697.956    10560.223    5975.8019    13069.864   -856.12107     85.07028 
   78400     589.1296   -110.57558   0.53305684   -110.04252   -2692.3547    4.4044306    4.4044306    4.4044306   -2692.3547   -18039.073    2982.9826    6979.0258    4308.0114     6037.481     8468.597    85.441586 
   78500    582.46276    -110.5703   0.52702455   -110.04328    5913.9799     4.397833     4.397833     4.397833    5913.9799   -1768.9093     11312.23    8198.6185   -3955.4321   -1781.3075   -24138.368    85.058202 
   78600    636.28389   -110.61964   0.57572304   -110.04392    -2388.268    4.4056733    4.4056733    4.4056733    -2388.268   -19822.992    8569.9901    4088.1979    4413.1325    14032.435    3139.7097    85.513933 
   78700    631.40215   -110.61446   0.57130594   -110.04315    873.09762    4.3992811    4.3992811    4.3992811    873.09762   -7432.7519    10052.234  -0.18931315    3178.0286    4122.3354    5884.7426    85.142251 
   78800    537.98461   -110.53122   0.48677978   -110.04444   -1330.5732    4.4009405    4.4009405    4.4009405   -1330.5732   -4778.8284   -2000.6225    2787.7314    -3223.377   -1520.6057   -20847.209    85.238634 
   78900     711.5208   -110.68683   0.64379898   -110.04303   -8018.5884    4.4050614    4.4050614    4.4050614   -8018.5884   -20561.829    12530.728   -16024.664    -628.8285    16402.984    7543.9841    85.478303 
   79000    688.38962   -110.66497    0.6228694    -110.0421    7653.0839    4.3953729    4.3953729    4.3953729    7653.0839   -499.85726    14235.578    9223.5306     2955.237   -1003.5989   -678.91759    84.915542 
   79100    468.51175   -110.46979   0.42391928   -110.04588   -12540.682    4.4089721    4.4089721    4.4089721   -12540.682   -18381.437    -6280.662   -12959.947   -5002.6699      2354.84   -14175.807    85.706163 
   79200    610.63832   -110.59494   0.55251839   -110.04243   -1453.3004     4.400173     4.400173     4.400173   -1453.3004   -22934.963    20864.448   -2289.3856   -2768.2921    16955.548    4690.1873     85.19405 
   79300    806.48017   -110.76945    0.7297202   -110.03973     5461.121     4.396845     4.396845     4.396845     5461.121   -2353.0954    16725.793    2010.6649    2350.8048   -5492.4572   -3955.7165     85.00089 
   79400    387.28556   -110.39718   0.35042411   -110.04676   -4110.4683    4.4083474    4.4083474    4.4083474   -4110.4683   -13969.084     7116.198   -5478.5193   -6546.5221    8562.2416   -6918.4259     85.66974 
   79500    593.10559   -110.58134    0.5366544   -110.04468    2288.8549    4.4001193    4.4001193    4.4001193    2288.8549   -23359.665    28379.242     1846.987   -3719.1511    14869.648   -2911.5896     85.19093 
   79600    836.09078   -110.79632    0.7565125   -110.03981    7791.1075    4.3997614    4.3997614    4.3997614    7791.1075   -22.200343     17663.11    5732.4131    1809.3634   -6978.3664   -577.73583    85.170143 
   79700    428.63384   -110.43517    0.3878369   -110.04734   -106.58863    4.4037976    4.4037976    4.4037976   -106.58863   -10109.223    17501.522    -7712.065   -5477.0389    11402.362   -6645.4154    85.404756 
   79800    500.93289   -110.50224   0.45325461   -110.04899   -3537.7726    4.4018564    4.4018564    4.4018564   -3537.7726   -25901.829     16024.45   -735.93921   -7362.7003    15567.699   -1079.0422    85.291867 
   79900    818.94165   -110.78419   0.74099561   -110.04319    10513.438    4.3955924    4.3955924    4.3955924    10513.438   -1779.7383    28231.199    5088.8521    5766.7343   -8738.0541    1944.3649     84.92826 
   80000    412.12654    -110.4229   0.37290075      -110.05   -4942.8045    4.4097763    4.4097763    4.4097763   -4942.8045   -15921.364      13840.8   -12747.849   -3896.0677    13132.855   -10122.394    85.753068 
   80100    491.70825    -110.4915   0.44490795   -110.04659   -480.43088    4.4009098    4.4009098    4.4009098   -480.43088   -16705.393    13135.166    2128.9346   -6678.9927    17119.231    2122.5601    85.236853 
   80200    843.23323   -110.80226   0.76297515   -110.03929    9113.0865    4.3938045    4.3938045    4.3938045    9113.0865    -494.0321    19786.108    8047.1833    10206.359   -9856.5607   -3861.8177    84.824674 
   80300    447.87712   -110.45171   0.40524863   -110.04646   -14966.104    4.4123698    4.4123698    4.4123698   -14966.104   -18340.376    1879.3689   -28437.304    -6202.446    15920.279   -7469.8139     85.90446 
   80400    528.13472   -110.52446   0.47786739    -110.0466    918.16617    4.3939259    4.3939259    4.3939259    918.16617   -6522.9388    8679.0338    598.40351    1113.2173    14754.451    4189.6101    84.831706 
   80500    827.25786   -110.79133    0.7485203   -110.04281    3531.3766    4.3995375    4.3995375    4.3995375    3531.3766   -454.99012      8711.26    2337.8598    6593.0865   -9635.4385   -4606.0018    85.157139 
   80600    519.74603   -110.51713   0.47027713   -110.04685    -10353.24    4.4089956    4.4089956    4.4089956    -10353.24   -12131.792    8858.3225   -27786.251   -5872.5336    18872.897   -3978.6818    85.707532 
   80700    383.55985   -110.39418   0.34705301   -110.04712    7026.5186    4.3950209    4.3950209    4.3950209    7026.5186    14670.016    2694.7364     3714.804    161.42281    9270.2133    5540.6285    84.895144 
   80800     851.3632   -110.81133   0.77033131   -110.04099   -1787.4319    4.4014502    4.4014502    4.4014502   -1787.4319   -9489.5778    3618.2098    509.07241   -184.71737   -5237.1386    510.34173    85.268255 
   80900    528.58852   -110.52301     0.478278   -110.04473    -1613.408    4.4054968    4.4054968    4.4054968    -1613.408     3256.445    15983.792   -24080.461   -747.45539    18032.372   -2720.7547    85.503655 
   81000    453.26745   -110.45724   0.41012591   -110.04711   -4071.8306    4.3992173    4.3992173    4.3992173   -4071.8306   -2840.9265   -3250.6958   -6123.8694   -6786.8561    4349.9946    6888.9277    85.138547 
   81100    721.90427   -110.69725   0.65319415   -110.04405    9693.0892    4.3951504    4.3951504    4.3951504    9693.0892    10137.136    13304.545    5637.5868    982.52542   -1744.1897    1973.8489    84.902645 
   81200    692.51037   -110.67124   0.62659793   -110.04464   -5745.9694     4.409841     4.409841     4.409841   -5745.9694   -5857.4151    13991.175   -25371.669    5072.4668    15785.824   -403.84392    85.756847 
   81300    459.02419    -110.4618   0.41533473   -110.04646    2561.5418    4.3972889    4.3972889    4.3972889    2561.5418    6019.8387    421.17655    1243.6103   -12121.287      1793.97    7819.7859    85.026634 
   81400    575.29663    -110.5656   0.52054048   -110.04506    6210.4892    4.3952484    4.3952484    4.3952484    6210.4892    5233.3553    9809.1811    3588.9312    6023.0078    1016.5527    -711.5867    84.908325 
   81500    655.38904   -110.63454   0.59300978   -110.04153   -10095.497    4.4125267    4.4125267    4.4125267   -10095.497   -10315.661    8068.4312   -28039.261    2414.8374    17944.845     607.7961    85.913621 
   81600    629.71295   -110.61144   0.56977751   -110.04166    8887.7521    4.3906107    4.3906107    4.3906107    8887.7521    1872.5977     15376.03    9414.6283   -12922.387   -3015.8502    5339.3209    84.639831 
   81700    441.76642   -110.44763   0.39971954   -110.04791   -1905.6608    4.4018846    4.4018846    4.4018846   -1905.6608    2163.3874   -908.76531   -6971.6045    7457.2619    5204.7694   -187.10806    85.293506 
   81800    629.43454   -110.61313    0.5695256   -110.04361   -7376.3571    4.4095949    4.4095949    4.4095949   -7376.3571   -6818.8412    9010.7908   -24321.021    588.77693    17950.658   -2179.2866     85.74249 
   81900    828.84255   -110.78847   0.74995415   -110.03852    7596.4391    4.3908217    4.3908217    4.3908217    7596.4391    1822.4351     10283.39    10683.492   -13092.308   -7570.3309    1557.2488    84.652035 
   82000    362.94842    -110.3759   0.32840336    -110.0475   -8005.4901    4.4059895    4.4059895    4.4059895   -8005.4901   -3116.0483   -5958.4783   -14941.944    5032.5836    11090.473    264.62634    85.532342 
   82100    589.18462   -110.57982   0.53310662   -110.04671   -7657.8845    4.4037155    4.4037155    4.4037155   -7657.8845    -9995.871    8333.8504   -21311.633     2813.046    15483.062   -7296.0717    85.399977 
   82200    839.18996   -110.79968   0.75931671   -110.04036    9617.9484     4.395067     4.395067     4.395067    9617.9484    2954.0327    16097.212    9802.6009     -7412.45   -8067.6138    1885.6703    84.897811 
   82300    397.60913    -110.4106    0.3597651   -110.05083   -7431.4321    4.4036343    4.4036343    4.4036343   -7431.4321   -16383.468    4075.1773   -9986.0052    1434.8892      14720.7   -280.50959    85.395254 
   82400    415.66813   -110.42747   0.37610526   -110.05137    827.90414     4.403659     4.403659     4.403659    827.90414   -103.38654    15994.976   -13407.877    3191.6195    13611.443   -8776.9367    85.396691 
   82500    985.48501   -110.93181   0.89168755   -110.04013     3861.537    4.3987831    4.3987831    4.3987831     3861.537   -2431.6089    11794.711    2221.5088   -4700.1103   -8090.7122    6574.1826    85.113343 
   82600    361.76968   -110.37776   0.32733681   -110.05042   -366.46249    4.4010581    4.4010581    4.4010581   -366.46249   -15949.061    21186.339   -6336.6659    3778.4987    16157.325   -5150.7933    85.245469 
   82700    443.87432   -110.45169   0.40162681   -110.05006   -6220.8582     4.408031     4.408031     4.408031   -6220.8582   -12174.573    13809.711   -20297.712    5536.3233    10833.017   -4602.5561    85.651293 
   82800    1050.5215   -110.99056   0.95053396   -110.04003    13055.693    4.3914601    4.3914601    4.3914601    13055.693    7391.2739    22449.868    9325.9385   -1647.9054   -6446.9908    7800.0897    84.688965 
   82900    403.18252   -110.41888   0.36480802   -110.05407   -25.844067    4.4033469    4.4033469    4.4033469   -25.844067   -14522.565    23735.308    -9290.275    3179.7226    16570.571   -7312.4936    85.378538 
   83000    463.09629   -110.47159   0.41901926   -110.05257   -13561.353     4.406975     4.406975     4.406975   -13561.353   -14748.566   -7893.9664   -18041.525    6743.4627    8144.6155   -3431.4374     85.58975 
   83100    877.08216   -110.83473   0.79360237   -110.04113    16583.918    4.3901739    4.3901739    4.3901739    16583.918    16621.957    20198.169    12931.627    54.126061   -4893.1425    3637.8893    84.614576 
   83200    508.12629   -110.50684   0.45976335   -110.04708   -14735.987    4.4121735    4.4121735    4.4121735   -14735.987   -28546.629    9104.4564   -24765.787    1405.1538    17114.655    -5171.416    85.892992 
   83300    449.61278   -110.45229   0.40681909   -110.04547   -1531.3696    4.3969386    4.3969386    4.3969386   -1531.3696   -2888.0165    1738.4778     -3444.57    6911.3857    4241.3419   -8428.7475    85.006315 
   83400    787.01439   -110.75359   0.71210716   -110.04148    545.20173    4.3956144    4.3956144    4.3956144    545.20173   -6115.2653    6275.3697    1475.5009   -6611.0618   -2861.6592    4818.5165    84.929538 
   83500    573.00507    -110.5628   0.51846703   -110.04433   -12087.768     4.409348     4.409348     4.409348   -12087.768    -21061.22    8337.7894   -23539.873   -364.18196    16669.343    -1988.567    85.728087 
   83600     552.0448   -110.54346   0.49950173   -110.04396    4109.2527    4.3942214    4.3942214    4.3942214    4109.2527    11763.361   -1629.3808    2193.7781    8922.1595    17.361539   -15663.653     84.84882 
   83700    667.27609   -110.64654   0.60376543   -110.04278   -7811.6941    4.4045314    4.4045314    4.4045314   -7811.6941   -13852.477   -1773.2609   -7809.3443   -12576.269   -915.93682    9072.8081    85.447455 
   83800    562.00657   -110.55154   0.50851536   -110.04302   -1438.8579    4.4026669    4.4026669    4.4026669   -1438.8579   -3029.5558    12360.843   -13647.861    492.29807    16731.066   -2779.4788    85.338989 
   83900    674.89437   -110.65227   0.61065861   -110.04161    1845.8991     4.397076     4.397076     4.397076    1845.8991     2521.173    486.68406    2529.8403    4557.9677   -5317.0687   -15259.197     85.01429 
   84000    511.10056   -110.50655   0.46245453    -110.0441   -4725.9135    4.4040737    4.4040737    4.4040737   -4725.9135   -15485.154    4318.4583   -3011.0442   -12221.292    5550.5971    9541.8694    85.420822 
   84100    533.30371    -110.5273   0.48254441   -110.04475    -1786.986    4.4016663    4.4016663    4.4016663    -1786.986   -15248.417    16244.467   -6357.0082    2027.9222    14751.168   -3230.8364    85.280815 
   84200      670.693   -110.64901   0.60685712   -110.04215    4294.2364    4.3998226    4.3998226    4.3998226    4294.2364    7684.0358    4780.0804    418.59309   -1891.8794   -8090.5712   -15961.757    85.173699 
   84300    490.64297   -110.48834   0.44394407    -110.0444    4345.1132    4.4022147    4.4022147    4.4022147    4345.1132   -7557.1206    19702.476    889.98432   -9229.2876    11183.719    7118.8772    85.312697 
   84400    538.47819   -110.53215   0.48722639   -110.04492   -386.53342    4.4029194    4.4029194    4.4029194   -386.53342   -12293.067    15981.185   -4847.7183    50.054066     8893.212    261.43617    85.353673 
   84500    685.09025     -110.661   0.61988406   -110.04111    8415.8648    4.3992665    4.3992665    4.3992665    8415.8648    5629.2903    18469.225    1149.0793   -3021.8046    -8331.461   -15336.865    85.141407 
   84600    593.21189   -110.58065   0.53675058   -110.04389   -2709.0987    4.4035292    4.4035292    4.4035292   -2709.0987   -18403.973    10570.929   -294.25182   -6606.4598     12900.38    2896.5717    85.389143 
   84700    499.00565    -110.4963    0.4515108   -110.04479    997.82546    4.3997454    4.3997454    4.3997454    997.82546   -5072.0974    8746.6617   -681.08786   -1042.3889    4732.5456    2497.9871    85.169213 
   84800    669.94305   -110.64987   0.60617855   -110.04369   -2323.3476    4.4013559    4.4013559    4.4013559   -2323.3476   -3349.4806    486.14913   -4106.7114   -1112.0253   -8704.3037   -17550.023    85.262773 
   84900    603.56764   -110.58921   0.54612068   -110.04309   -67.508469    4.4039934    4.4039934    4.4039934   -67.508469   -5255.7902   -337.72602    5390.9908   -7722.1956    7428.3463    2094.3299    85.416147 
   85000    579.80155   -110.56724   0.52461663   -110.04262    2376.4719    4.3978912    4.3978912    4.3978912    2376.4719   -2097.7292    6358.7012    2868.4438     1044.675    885.89928     5105.625    85.061582 
   85100    541.17075   -110.53358   0.48966267   -110.04392   -9727.4261    4.4056489    4.4056489    4.4056489   -9727.4261   -9081.1558   -7846.2426    -12254.88   -1429.4696   -10858.833   -15291.692     85.51251 
   85200    724.13518    -110.6968   0.65521273   -110.04159     120.8151    4.3981884    4.3981884    4.3981884     120.8151   -6632.9356   -5607.4122    12602.793   -9461.6961   -290.10951    1440.9384    85.078826 
   85300    688.24322   -110.66693   0.62273693   -110.04419   -2164.6727    4.4001984    4.4001984    4.4001984   -2164.6727   -2297.5675   -3629.4649   -566.98556     1740.062    447.23853      6320.07    85.195523 
   85400    391.11178   -110.40192   0.35388616   -110.04804   -8817.3284    4.4067745    4.4067745    4.4067745   -8817.3284   -5133.9438   -11044.215   -10273.826   -1947.9925   -14557.785   -13097.924    85.578069 
   85500    799.39269   -110.76462    0.7233073   -110.04132    4661.4661    4.3964294    4.3964294    4.3964294    4661.4661   -5102.9839   -3652.1831    22739.565   -8618.5882   -3571.5608     1413.236    84.976785 
   85600    679.18797    -110.6574   0.61454354   -110.04285    1887.5552    4.4044106    4.4044106    4.4044106    1887.5552    1525.3308    73.693511    4063.6413    3514.0019   -931.45185     2432.116    85.440427 
   85700    337.04089   -110.35408   0.30496168   -110.04912   -4046.5467    4.4005776    4.4005776    4.4005776   -4046.5467   -5029.7148   -8613.2939    1503.3685   -2503.9536   -15289.786   -12194.891    85.217551 
   85800    632.42103   -110.61967   0.57222784   -110.04745    3642.7324    4.3978133    4.3978133    4.3978133    3642.7324   -8801.0473    -1730.105     21459.35   -11859.825    1562.7869    109.59145     85.05706 
   85900    816.76147   -110.78201   0.73902294   -110.04299   -2668.9645    4.4072662    4.4072662    4.4072662   -2668.9645   -7825.1156   -5957.7375    5775.9598    6610.7146   -1771.0687    162.09886    85.606716 
   86000    333.12312   -110.34892    0.3014168    -110.0475    2072.2122     4.400596     4.400596     4.400596    2072.2122    4284.9502   -5300.3148    7232.0011   -5883.2111   -16153.661   -8747.6461    85.218619 
   86100    627.09342   -110.61179    0.5674073   -110.04438    2978.3683    4.3985719    4.3985719    4.3985719    2978.3683   -6344.6436   -220.03076    15499.779   -12046.334    8562.8125    716.76611    85.101083 
   86200    883.68787   -110.84066   0.79957935   -110.04108    2328.8298    4.4034857    4.4034857    4.4034857    2328.8298   -1705.9073    4473.6842    4218.7125    8907.7967    1615.4999   -1374.0215    85.386607 
   86300    420.49035   -110.43029    0.3804685   -110.04982   -2043.6055    4.4008673    4.4008673    4.4008673   -2043.6055    2257.3151   -5911.8654   -2476.2663   -11099.012   -11409.474   -4449.2498    85.234385 
   86400    459.73941   -110.46619   0.41598188    -110.0502   -2075.9293    4.3984637    4.3984637    4.3984637   -2075.9293   -15253.623    4247.6338    4778.2011   -11806.188    11411.389    97.347094    85.094802 
   86500    857.10403   -110.81678   0.77552574   -110.04126   -7656.9987     4.408704     4.408704     4.408704   -7656.9987   -10470.021   -6719.8981    -5781.077    8504.7097    4009.1672    923.79329     85.69053 
   86600    494.54486   -110.49295   0.44747459   -110.04547   -4097.5929      4.39891      4.39891      4.39891   -4097.5929   -991.71516   -9442.1456   -1858.9178   -14319.736    -6209.866   -6346.3062    85.120706 
   86700    408.83044   -110.41811   0.36991837   -110.04819    2991.1129    4.3965182    4.3965182    4.3965182    2991.1129   -2402.5421    6399.3431    4976.5375   -8968.5312    16033.315    327.24924    84.981939 
   86800    928.58281   -110.88156   0.84020124   -110.04136   -9409.8843    4.4100897    4.4100897    4.4100897   -9409.8843   -15191.637   -8539.9473   -4498.0689    7180.5514     4790.794    3289.9292    85.771355 
   86900    586.72577   -110.57697   0.53088181   -110.04608    7419.7016    4.3938694    4.3938694    4.3938694    7419.7016    6273.1479    291.45609    15694.501   -13667.635   -2960.7757   -7676.3108    84.828428 
   87000    412.12987   -110.42327   0.37290377   -110.05037   -6813.6702     4.403884     4.403884     4.403884   -6813.6702   -17351.913   -4945.7741    1856.6765   -9418.0302    16806.791    2858.0613    85.409781 
   87100    787.89017   -110.75602   0.71289959   -110.04312   -2506.2666    4.4054436    4.4054436    4.4054436   -2506.2666   -13848.734   -1161.0665    7491.0005    6143.5862    4700.5228    2144.0055    85.500557 
   87200    663.96957   -110.64284   0.60077362   -110.04207      8361.49    4.3932609    4.3932609    4.3932609      8361.49    2463.6243   -8253.7583    30874.604   -12460.938   -1062.3081   -8898.9374    84.793194 
   87300    292.62498   -110.31248   0.26477323   -110.04771   -6965.4683    4.4096574    4.4096574    4.4096574   -6965.4683   -19669.254   -6304.3463    5077.1956   -5559.2605    15412.346    7723.9734    85.746135 
   87400    669.67276   -110.64941   0.60593398   -110.04348    10623.562    4.3957052    4.3957052    4.3957052    10623.562    4302.3269    7216.4073     20351.95    6412.8536   -577.32585    631.89576    84.934803 
   87500    755.82842   -110.72608   0.68388944   -110.04219    3333.6926    4.3997806    4.3997806    4.3997806    3333.6926   -3766.5787   -11524.965    25292.622   -12760.565   -1151.3135   -5684.1705    85.171256 
   87600    370.80121   -110.38371   0.33550873   -110.04821     -8553.51     4.407106     4.407106     4.407106     -8553.51   -15545.614   -4832.6677    -5282.248   -1914.7264    18358.453    7776.2808    85.597382 
   87700    642.30484   -110.62568   0.58117092   -110.04451    7015.4522    4.3920307    4.3920307    4.3920307    7015.4522     3296.845    5940.6761    11808.835    5063.2716   -3254.6909   -1308.3837    84.721981 
   87800    766.08057   -110.73429    0.6931658   -110.04112     -5403.27    4.4082753    4.4082753    4.4082753     -5403.27    -9514.601   -15397.055    8701.8457   -10954.288   -3480.5846   -1035.0491    85.665536 
   87900    544.82891   -110.53785   0.49297265   -110.04488   -6464.3347    4.4001798    4.4001798    4.4001798   -6464.3347   -11843.017     1089.611   -8639.5983    972.75821    20604.179    6312.2955    85.194444 
   88000    483.71017   -110.48273   0.43767113   -110.04506    5829.5532    4.3955035    4.3955035    4.3955035    5829.5532    9666.6592    4114.9002    3707.1002    1573.4384   -6957.9562   -1112.1553    84.923112 
   88100    740.53849   -110.71069   0.67005479   -110.04063   -10345.501    4.4094257    4.4094257    4.4094257   -10345.501    -13045.09   -18032.412    41.000434   -7522.2221   -3520.3986   -1964.2452    85.732617 
   88200    601.43909   -110.58775   0.54419473   -110.04356    3938.3193     4.392351     4.392351     4.392351    3938.3193   -2949.9277      11241.7    3523.1858    1133.1013    24787.254    3818.9311    84.740518 
   88300    540.55971   -110.53577   0.48910978   -110.04666   -1868.5716    4.4024854    4.4024854    4.4024854   -1868.5716   -6740.2724   -8165.7147    9300.2723   -106.78939   -10489.836    1681.5881    85.328435 
   88400    615.87926   -110.60112    0.5572605   -110.04386   -4281.7501    4.4067912    4.4067912    4.4067912   -4281.7501   -1825.9738   -18886.184    7866.9074   -6399.6891   -2443.4433   -5698.8159    85.579041 
   88500    691.78609   -110.66538   0.62594259   -110.03944    14812.573    4.3902369    4.3902369    4.3902369    14812.573    8948.8019    13297.432    22191.484    375.08397    22980.146    586.42603    84.618214 
   88600    583.90316   -110.57212   0.52832785    -110.0438   -6829.2169    4.4085367    4.4085367    4.4085367   -6829.2169   -7067.8476   -17198.433      3778.63   -697.91351   -14746.514    3041.8087    85.680775 
   88700    436.04787   -110.44161   0.39454528   -110.04707    5164.9032    4.3975173    4.3975173    4.3975173    5164.9032    11949.148   -9516.7551    13062.317   -5078.2611   -1817.0381   -10107.845    85.039885 
   88800     772.6846   -110.74197   0.69914126   -110.04283     6240.942    4.3947242    4.3947242    4.3947242     6240.942   -2840.3971    3554.9107    18008.312   -1172.1326    18736.218   -1475.3978    84.877947 
   88900    587.40704   -110.57475   0.53149823   -110.04325    -12770.75    4.4117964    4.4117964    4.4117964    -12770.75   -12495.247   -18432.037   -7384.9657   -832.41336   -16100.515    2459.3431    85.870975 
   89000    421.70117   -110.42607   0.38156408   -110.04451    3556.3544    4.3923771    4.3923771    4.3923771    3556.3544    13001.594   -10069.509    7736.9789   -5284.6898   -439.07047   -14003.472    84.742028 
   89100    826.85501   -110.78988   0.74815579   -110.04173   -3103.5242    4.4017953    4.4017953    4.4017953   -3103.5242   -7702.2399   -8222.9859    6614.6533   -611.27934    10216.982    1506.6893    85.288313 
   89200    613.87963   -110.60137   0.55545119   -110.04592   -5489.6117    4.4030085    4.4030085    4.4030085   -5489.6117     1013.334   -7512.4196   -9969.7494    1354.5345   -13401.744   -395.56792    85.358855 
   89300    398.80827   -110.40974   0.36085011   -110.04889    1409.3433     4.395225     4.395225     4.395225    1409.3433     10983.15   -18293.445    11538.325   -7269.6731     -1725.53   -15142.335    84.906971 
   89400     731.9647   -110.70516   0.66229704   -110.04287     -5962.43    4.4078209    4.4078209    4.4078209     -5962.43   -16407.351   -16565.474    15085.535    3246.6662    5734.0917    6107.8395    85.639047 
   89500    631.35176   -110.61387   0.57126034   -110.04261    1814.8459    4.3960081    4.3960081    4.3960081    1814.8459    2365.9445   -848.09284    3926.6861    2523.3654   -12533.588   -4836.1611    84.952358 
   89600    386.98909   -110.39734   0.35015586   -110.04718   -6629.9656    4.4019009    4.4019009    4.4019009   -6629.9656     297.8077   -26606.305       6418.6   -8942.7055   -1103.2821   -11300.652     85.29445 
   89700    659.35663   -110.64054   0.59659973   -110.04394   -3479.8781     4.402117     4.402117     4.402117   -3479.8781   -11627.957    -20899.24    22087.563    8274.6078    3809.1232    7174.2821    85.307012 
   89800    701.61618   -110.67713   0.63483707    -110.0423    4480.5588    4.3977053    4.3977053    4.3977053    4480.5588     5761.891   -2199.6345      9879.42     3337.463    -12261.09    -7406.768    85.050795 
   89900     499.7645   -110.49753   0.45219742   -110.04534   -5518.6388    4.4045457    4.4045457    4.4045457   -5518.6388    1542.7992    -25901.63    7802.9146   -8083.6413    493.17701   -5231.0176    85.448287 
   90000    470.50184   -110.47184   0.42571995   -110.04612    2634.8625    4.3971204    4.3971204    4.3971204    2634.8625    2160.2299   -21715.952     27460.31    13861.836    2100.6144    6526.4556    85.016863 
   90100    768.43223    -110.7373   0.69529363     -110.042    -1742.578    4.4029378    4.4029378    4.4029378    -1742.578    2942.8378   -3371.1334   -4799.4386     2269.651   -9411.4931   -4931.1737    85.354744 
   90200    602.20529   -110.59025     0.544888   -110.04536   -1434.7199    4.3998306    4.3998306    4.3998306   -1434.7199    10779.878     -20067.7    4983.6628   -4488.8782    2276.0782   -2773.0013    85.174163 
   90300    244.38724   -110.27316   0.22112671   -110.05204   -3415.3021    4.3998056    4.3998056    4.3998056   -3415.3021    2275.0583   -31732.277    19211.313    16695.487   -1089.0505    7205.3669    85.172707 
   90400    868.34405   -110.82974   0.78569594   -110.04404   -482.39309    4.4036565    4.4036565    4.4036565   -482.39309    5183.3047   -11266.433    4635.9494   -923.21342   -4641.4725    844.61772    85.396546 
   90500    721.55383   -110.69926   0.65287707   -110.04639    4290.5073     4.398201     4.398201     4.398201    4290.5073    14729.589   -16451.542    14593.474    4340.4553    3403.7203   -278.36134    85.079557 
   90600    160.86311    -110.1998   0.14555232   -110.05425   -6733.8467    4.4036265    4.4036265    4.4036265   -6733.8467   -2068.3588   -35231.007    17097.825    13696.739   -129.59616    6147.7055    85.394802 
   90700    855.33886   -110.81956   0.77392858   -110.04563       7481.4    4.3971739    4.3971739    4.3971739       7481.4    18725.915   -7969.4821    11687.767    -3786.457   -4623.4515    3025.9746    85.019964 
   90800    769.81018   -110.74384   0.69654043    -110.0473     1252.482    4.4011896    4.4011896    4.4011896     1252.482    7328.1468   -14086.359    10515.658    8856.8743    1441.9108   -370.35528    85.253108 
   90900    190.61825   -110.22651    0.1724754   -110.05404   -6127.6726    4.4037412    4.4037412    4.4037412   -6127.6726    1275.5163   -35295.904     15637.37    9060.1368    1916.4515      7625.67    85.401473 
   91000    754.82068   -110.72825   0.68297761   -110.04527    6027.9206    4.3956974    4.3956974    4.3956974    6027.9206    19737.388   -14410.339    12756.713   -6127.1501   -1821.1806   -1148.8405    84.934351 
   91100    697.69165   -110.67533   0.63128606   -110.04405    476.30243    4.4040087    4.4040087    4.4040087    476.30243    8208.4435   -19273.999    12494.463    9674.5805    2097.8753   -4549.8315     85.41704 
   91200    397.55272   -110.40794   0.35971406   -110.04823    -2926.744    4.4001186    4.4001186    4.4001186    -2926.744   -5542.4392   -28340.751    25102.958    5190.5962    3054.9115    8495.3352    85.190891 
   91300    535.92087   -110.53095   0.48491247   -110.04603    5672.8389      4.39799      4.39799      4.39799    5672.8389    23788.057   -18803.711     12034.17   -8570.8989    -3165.526   -7609.9377    85.067311 
   91400    730.30216   -110.70313   0.66079274   -110.04234   -4157.8383    4.4037686    4.4037686    4.4037686   -4157.8383    1179.0098   -19560.452    5907.9275    7572.3047    4998.2223    -8478.617    85.403068 
   91500    520.14296   -110.51432   0.47063628   -110.04368   -2654.0695    4.4005683    4.4005683    4.4005683   -2654.0695   -12183.426   -20875.128    25096.346   -693.82695    3079.5918    6723.1213    85.217013 
   91600    508.35414   -110.50485   0.45996951   -110.04488   -6313.6584    4.3994338    4.3994338    4.3994338   -6313.6584    12335.984   -30925.378   -351.58186   -7749.8797   -1841.7356   -14752.177     85.15112 
   91700    715.84102   -110.69048     0.647708   -110.04277   -1445.2727    4.4008587    4.4008587    4.4008587   -1445.2727    8273.4983   -15873.012    3263.6958    5918.0453    5002.0391   -6431.3237    85.233881 
   91800    680.01971    -110.6588   0.61529613    -110.0435    -6406.837    4.4027538    4.4027538    4.4027538    -6406.837   -12183.111   -23271.445    16234.045   -7814.2805   -1355.3181    2324.3916    85.344038 
   91900    483.95588    -110.4849   0.43789345   -110.04701   -3963.1689    4.3965576    4.3965576    4.3965576   -3963.1689    20797.469   -30935.785   -1751.1905   -5513.8932   -338.50949   -19990.673     84.98422 
   92000     661.2101   -110.64269   0.59827679   -110.04442   -2635.4361    4.4029944    4.4029944    4.4029944   -2635.4361    4679.5653   -15553.867    2967.9933    3241.9634    5787.2984    1946.6635    85.358035 
   92100    695.58823   -110.67241   0.62938284   -110.04303   -8170.7795    4.4032767    4.4032767    4.4032767   -8170.7795   -17940.255   -21474.163    14902.079   -8621.6476   -4241.0968   -2329.4032    85.374454 
   92200     471.4176   -110.47048   0.42654855   -110.04393    4884.3631     4.393428     4.393428     4.393428    4884.3631    18865.075   -22967.342    18755.356   -3700.1017    1602.9136   -17229.486    84.802867 
   92300    588.32136   -110.57643   0.53232553   -110.04411   -7503.7681    4.4068839    4.4068839    4.4068839   -7503.7681   -5715.6525   -22841.284    6045.6319    145.69615    204.20885    8452.6955    85.584442 
   92400    590.26511   -110.57834   0.53408428   -110.04426    8832.7405     4.396482     4.396482     4.396482    8832.7405   -2712.8105   -7085.9435    36296.975   -8770.4561   -3464.0926   -2929.3302    84.979838 
   92500    658.33807   -110.63888   0.59567812    -110.0432    3745.6273    4.3986837    4.3986837    4.3986837    3745.6273    12394.644   -21875.164    20717.402   -2434.0233    2209.0289   -7122.2695     85.10757 
   92600    511.67193   -110.50767   0.46297151    -110.0447   -6052.7631    4.4064594    4.4064594    4.4064594   -6052.7631   -1644.9851    -22050.56    5537.2561    -813.4928   -3244.5175    10397.545    85.559714 
   92700    622.14077   -110.60573   0.56292605    -110.0428    5881.1812    4.3947569    4.3947569    4.3947569    5881.1812   -4923.8006   -3856.0977    26423.442   -12395.167   -659.76164   -1727.9855    84.879845 
   92800    811.39145   -110.77444   0.73416404   -110.04027   -3642.4476    4.4041842    4.4041842    4.4041842   -3642.4476    4659.2503   -22196.113    6609.5202   -349.00112   -3459.5953   -529.74013    85.427251 
   92900    503.52572   -110.50166   0.45560065   -110.04606   -2989.2335    4.3994648    4.3994648    4.3994648   -2989.2335    2555.5453    -16188.59    4665.3445   -1499.3991    1625.7739    11588.853    85.152922 
   93000    467.56614   -110.47183   0.42306367   -110.04877    8.4102595    4.3998836    4.3998836    4.3998836    8.4102595    -10908.39    -8441.514    19375.135    -13227.11   -2160.5481    -930.3086    85.177239 
   93100    897.04092   -110.85323   0.81166148   -110.04157    5489.6152    4.4003741    4.4003741    4.4003741    5489.6152     4074.052    -5575.048    17969.842    2103.7112   -5325.7867    3047.5817     85.20573 
   93200    453.06379   -110.45866   0.40994164   -110.04872    3528.7294    4.3992527    4.3992527    4.3992527    3528.7294    1827.6301    -13177.81    21936.368   -5367.9052    4893.9333    10559.326    85.140605 
   93300    329.60035   -110.34899   0.29822932   -110.05077    -5967.837    4.4060715    4.4060715    4.4060715    -5967.837   -18699.399   -15074.144    15870.032   -10851.072   -8209.3996   -3077.7379    85.537122 
   93400     927.9268   -110.88003   0.83960767   -110.04043    15337.511    4.3929659    4.3929659    4.3929659    15337.511    9422.0762    3769.7028    32820.755    4076.2566     293.8538    2336.9142    84.776111 
   93500    506.94466   -110.50827   0.45869418   -110.04957   -5932.9096    4.4048559    4.4048559    4.4048559   -5932.9096   -7273.6855   -21445.192    10920.148   -7357.9533    4212.3132    5988.2029    85.466343 
   93600    285.41524   -110.31067   0.25824971   -110.05242   -7069.0515    4.4013803    4.4013803    4.4013803   -7069.0515   -10995.768   -12671.989    2460.6023   -8446.3409   -5349.7967    -4755.323    85.264192 
   93700    911.84871   -110.86764   0.82505988   -110.04258    11395.963    4.3935269    4.3935269    4.3935269    11395.963    8720.3118   -1095.7643    26563.341    3011.7322    1134.0148   -5352.3867    84.808593 
   93800    647.01032   -110.63234   0.58542853   -110.04691   -6932.2476    4.4074085    4.4074085    4.4074085   -6932.2476   -13467.569   -21865.723    14536.549   -8599.1104    1324.5755    3164.1285    85.615011 
   93900    361.11423   -110.37669   0.32674374   -110.04995    2735.3606    4.3941121    4.3941121    4.3941121    2735.3606     2549.982   -4360.8384    10016.938   -4989.0038   -3690.5984   -6849.5993     84.84249 
   94000    764.99309   -110.73601   0.69218183   -110.04383   -2379.8591    4.4030978    4.4030978    4.4030978   -2379.8591   -733.11224   -16921.797    10515.332    2180.5946   -3805.4482   -10900.812    85.364046 
   94100    659.19099   -110.63902   0.59644986   -110.04257   -1822.7004     4.402908     4.402908     4.402908   -1822.7004   -4813.9297   -19827.954    19173.783   -9122.9763    2907.6652    5567.3597    85.353007 
   94200    508.66712   -110.50311    0.4602527   -110.04285    1171.5692    4.3956463    4.3956463    4.3956463    1171.5692    8530.9392   -9358.9427     4342.711   -2837.3786   -10801.405   -10976.083     84.93139 
   94300    631.43199   -110.61394   0.57133293   -110.04261   -2153.6003    4.4022934    4.4022934    4.4022934   -2153.6003    9128.5158   -22838.901    7249.5843    1631.4758   -795.28412   -7357.6468    85.317271 
   94400    591.00253   -110.57934   0.53475151   -110.04459    3954.4346    4.3983708    4.3983708    4.3983708    3954.4346    10690.936   -24416.311    25588.679   -8319.5512    1678.5418    9603.2149    85.089409 
   94500    646.74665   -110.62896   0.58518996   -110.04377   -447.22291    4.4025578    4.4025578    4.4025578   -447.22291    659.11915   -11714.266     9713.478   -1064.8375   -13073.898   -9494.1854    85.332641 
   94600    686.91076   -110.66405   0.62153129   -110.04252    3046.2496    4.3975774    4.3975774    4.3975774    3046.2496    15101.649   -15797.377    9834.4769   -1577.4316    2886.7903   -179.77245     85.04337 
   94700    382.25882   -110.39401   0.34587582   -110.04813   -1826.6624    4.4012102    4.4012102    4.4012102   -1826.6624    128.57465   -33360.261    27751.699   -8444.7259   -4079.0702    10166.631    85.254306 
   94800    720.32247   -110.69518   0.65176291   -110.04341    1422.7756    4.4022049    4.4022049    4.4022049    1422.7756   -3412.5092   -8356.9892    16037.825    2372.4001   -6264.3668   -3739.4399    85.312124 
   94900    750.76776   -110.72197   0.67931045   -110.04266     4345.806    4.3965435    4.3965435    4.3965435     4345.806    15648.764   -14541.013    11929.667   -4043.4777    1704.6682    4722.0004    84.983402 
   95000    268.94532   -110.29433   0.24334738   -110.05098   -7375.1055    4.4025277    4.4025277    4.4025277   -7375.1055   -3575.2765   -39743.358    21193.318   -7938.0003    -1494.757    10195.109    85.330893 
   95100    726.66582   -110.70427    0.6575025   -110.04677    1757.7077     4.398632     4.398632     4.398632    1757.7077    1125.7283   -8322.8493    12470.244    5490.2826   -7583.1088   -1412.4319    85.104572 
   95200    866.21215   -110.82728   0.78376695   -110.04351     866.1679     4.400964     4.400964     4.400964     866.1679    11373.143   -12326.065    3551.4254   -4831.0094   -4374.8433    4804.8162    85.239999 
   95300    284.92416   -110.31018   0.25780537   -110.05237   -569.28159    4.3990938    4.3990938    4.3990938   -569.28159    4431.3314   -31973.743    25834.567   -5733.6294    2596.5284    9179.0455    85.131379 
   95400    621.77669   -110.61193   0.56259662   -110.04934    1642.4764    4.3993984    4.3993984    4.3993984    1642.4764     8386.351   -10250.992    6792.0704    7749.5918   -11820.992   -3697.0773    85.149063 
   95500    821.12337   -110.78651   0.74296968   -110.04354    2975.7797     4.401242     4.401242     4.401242    2975.7797     11858.63   -6195.5399    3264.2491   -5988.1533    993.26805   -1032.9369    85.256155 
   95600    373.05983   -110.38714   0.33755237   -110.04959    3573.6607    4.3975136    4.3975136    4.3975136    3573.6607    6849.3897   -25071.559    28943.152   -1932.0543    2891.1949    7878.0748    85.039669 
   95700    491.47046   -110.49186    0.4446928   -110.04716   -2534.9043    4.4038696    4.4038696    4.4038696   -2534.9043    14282.182   -17332.059   -4554.8367    7716.5223   -14066.028   -6650.2721    85.408946 
   95800    804.84035   -110.76985   0.72823646   -110.04161    6977.1754     4.396054     4.396054     4.396054    6977.1754    18641.246   -5199.8363    7490.1169   -6096.4609    8410.0215   -8020.7047    84.955021 
   95900    553.21622   -110.54755   0.50056166   -110.04699    480.58912    4.3998974    4.3998974    4.3998974    480.58912    5419.3144   -20224.877     16247.33    155.55285    617.31469    9492.2774    85.178041 
   96000    401.33279   -110.41243   0.36313434   -110.04929   -5669.9439    4.4033242    4.4033242    4.4033242   -5669.9439    15316.413   -20438.906   -11887.339    6944.2466   -8185.4663   -12055.872    85.377214 
   96100    816.09135   -110.78143    0.7384166   -110.04302    5313.5287    4.3957475    4.3957475    4.3957475    5313.5287    14568.395   -4988.6693    6360.8606   -3029.8142    6000.6444   -12411.413    84.937252 
   96200    707.93586   -110.68502   0.64055525   -110.04447   -1446.8105    4.4031033    4.4031033    4.4031033   -1446.8105    2588.8452   -17218.231    10288.955    2515.7716   -3658.4687    10009.895    85.364369 
   96300    306.11333   -110.32812   0.27697777   -110.05115   -4013.9509    4.3983957    4.3983957    4.3983957   -4013.9509    21475.264   -23780.265    -9736.852    5323.1093   -3540.7531   -19645.439    85.090858 
   96400    750.66041   -110.72707   0.67921332   -110.04786    1296.5954    4.3991494    4.3991494    4.3991494    1296.5954    5087.5648   -8562.0938    7364.3152   -3177.3964    556.30976   -9816.4318    85.134607 
   96500    862.78683   -110.82612   0.78066765   -110.04545   -452.72382    4.4015791    4.4015791    4.4015791   -452.72382    7033.6044   -13407.773    5015.9968    6229.5844   -951.86897     6618.514    85.275745 
   96600    149.94611   -110.19049   0.13567439   -110.05482     -4610.73     4.399944     4.399944     4.399944     -4610.73      17628.4   -25161.826   -6298.7643    3269.8303   -6028.8603   -24755.971    85.180747 
   96700    708.47611   -110.69083   0.64104408   -110.04979    341.75157    4.4012415    4.4012415    4.4012415    341.75157    3044.0459   -11020.252    9001.4604   -3511.1542   -1979.9148   -3281.4831    85.256127 
   96800       916.98   -110.87479   0.82970277   -110.04508    6538.8478    4.3961249    4.3961249    4.3961249    6538.8478    14289.507   -5794.6471    11121.683    4290.0945     3134.115   -240.18974    84.959131 
   96900    177.13143    -110.2166   0.16027224   -110.05632   -11377.772    4.4044889    4.4044889    4.4044889   -11377.772    7550.1079   -32839.627   -8843.7974    2505.2397   -8623.3396    -24320.41    85.444983 
   97000    691.08103   -110.67587   0.62530463   -110.05057   -737.56162    4.3986404    4.3986404    4.3986404   -737.56162   -2681.0347   -14052.307    14520.657   -582.27538    2923.9466    3358.5864     85.10506 
   97100    884.36765   -110.84389   0.80019443    -110.0437     5207.424    4.3977327    4.3977327    4.3977327     5207.424    11050.601   -5117.6424    9689.3132   -4603.3081       501.69   -5927.0877     85.05238 
   97200    386.86751   -110.40066   0.35004585   -110.05061   -11711.992    4.4053913    4.4053913    4.4053913   -11711.992    2448.8545   -29529.203   -8055.6268    3318.6621   -9319.2853   -20201.567     85.49751 
   97300    570.72936   -110.56349   0.51640792   -110.04709    5230.3233    4.3943429    4.3943429    4.3943429    5230.3233    2220.6837   -7798.2996    21268.586   -3070.6635    948.26577    7864.3483    84.855857 
   97400    803.52477   -110.76957    0.7270461   -110.04252   -4606.2918    4.4033171    4.4033171    4.4033171   -4606.2918    4237.0915   -21366.656    3310.6888     -5503.35   -744.40252   -8792.9485    85.376801 
   97500    498.25043   -110.49612   0.45082746   -110.04529     -3892.28    4.4019129    4.4019129    4.4019129     -3892.28    11780.038   -20807.509   -2649.3692    2858.3326     -6020.07   -13031.858     85.29515 
   97600    496.03005   -110.49317   0.44881841   -110.04435   -2504.3532    4.3972162    4.3972162    4.3972162   -2504.3532    1114.8854   -24691.669    16063.724   -9346.2735   -1769.2823    9955.5874    85.022421 
   97700    667.61416   -110.64649   0.60407132   -110.04242   -1421.3345    4.4033196    4.4033196    4.4033196   -1421.3345    14439.219   -21759.931    3056.7084   -1135.9825    52.969865   -8230.2016    85.376948 
   97800    698.24166   -110.67447   0.63178372   -110.04269    5791.6022    4.3962366    4.3962366    4.3962366    5791.6022    22991.527   -5228.1198   -388.60058   -312.15171   -3389.2259   -4591.8783    84.965609 
   97900    361.45863   -110.37578   0.32705537   -110.04872   -6678.1528    4.4031432    4.4031432    4.4031432   -6678.1528    7667.1407   -32763.495    5061.8953   -10155.627   -64.933993    10763.118    85.366685 
   98000    635.43676   -110.62047   0.57495653   -110.04551    1455.3907    4.4000243    4.4000243    4.4000243    1455.3907    12620.012    -17059.07    8805.2301    1360.3125    3594.8744   -5192.0238    85.185413 
   98100    828.01572   -110.79108   0.74920602   -110.04187    5976.6173    4.3974108    4.3974108    4.3974108    5976.6173    28825.789   -7427.5791   -3468.3577    -405.8529   -4559.4709    1619.5292    85.033705 
   98200    294.81908   -110.31695    0.2667585   -110.05019   -10139.032    4.4048719    4.4048719    4.4048719   -10139.032    4342.3366   -38675.662    3916.2281   -9147.8008    46.583251    12038.919    85.467276 
   98300    632.85645   -110.61908   0.57262182   -110.04645    3125.8152    4.3956412    4.3956412    4.3956412    3125.8152    11603.709   -19500.951    17274.688    5151.0137    2492.7366   -2515.4726    84.931093 
   98400    885.89726   -110.84289   0.80157846   -110.04131   -1767.6407    4.4045741    4.4045741    4.4045741   -1767.6407    16274.567   -7227.5975   -14349.892   -1281.3722   -2117.6725    5999.8432    85.449938 
   98500    315.53223   -110.33599   0.28550019   -110.05049   -5396.2029    4.3993643    4.3993643    4.3993643   -5396.2029    5683.0003   -29029.558    7157.9494   -7043.1421   -838.62336    10608.935    85.147083 
   98600    578.01963   -110.57241   0.52300431    -110.0494    1863.7361    4.3953507    4.3953507    4.3953507    1863.7361    3801.6336   -15560.885    17350.459    10534.574   -1578.8003   -1917.0094    84.914254 
   98700    890.22824   -110.84651   0.80549722   -110.04102   -5171.5659       4.4095       4.4095       4.4095   -5171.5659      17127.7   -10133.897   -22508.501   -2037.6875    2383.3683    7659.3493    85.736951 
   98800    391.89756   -110.40349   0.35459715    -110.0489    1783.4974    4.3921184    4.3921184    4.3921184    1783.4974    15053.824   -22793.529    13090.198    48.452064   -247.15278    8238.1002    84.727058 
   98900    371.13171   -110.38825   0.33580777   -110.05244   -4250.9161    4.4015352    4.4015352    4.4015352   -4250.9161    2080.4255   -24817.394    9984.2206    9944.7812    2266.5122   -4146.1553    85.273194 
   99000    928.98974   -110.88116   0.84056944    -110.0406   -3940.7201    4.4061723    4.4061723    4.4061723   -3940.7201    21084.942   -13149.654   -19757.449   -325.26533    3198.2632     4093.085     85.54299 
   99100    425.31775   -110.43185   0.38483644   -110.04701     10064.67    4.3915014    4.3915014    4.3915014     10064.67    22477.122   -11747.258    19464.147    3112.0667   -3978.6943    4801.1184    84.691355 
   99200    388.50694   -110.40182   0.35152925   -110.05029   -10611.631       4.4061       4.4061       4.4061   -10611.631   -5038.4995    -32648.67    5852.2761    6024.7119    4310.0985   -5490.8674    85.538779 
   99300    948.85935   -110.89811   0.85854788   -110.03957    3621.9219    4.4020019    4.4020019    4.4020019    3621.9219    26657.813   -4048.7603   -11743.287   -2050.5629    1388.7183   -514.27489    85.300321 
   99400    576.13954   -110.56881   0.52130317   -110.04751   -861.21917    4.3947547    4.3947547    4.3947547   -861.21917     1948.151   -20267.518     15735.71     5786.308   -3745.1675    954.09547    84.879719 
   99500    321.89409   -110.34358   0.29125654   -110.05233   -4940.2953    4.4008734    4.4008734    4.4008734   -4940.2953    3309.4743   -29552.121     11421.76    3917.0893    2623.0909   -7353.4422    85.234735 
   99600    904.78039   -110.86092   0.81866431   -110.04226   -2264.0526    4.4061894    4.4061894    4.4061894   -2264.0526    18835.969   -10978.588   -14649.539   -4607.7948   -4077.4208   -4603.9371    85.543985 
   99700    552.26218   -110.54755   0.49969842   -110.04785    6778.8445    4.3923294    4.3923294    4.3923294    6778.8445    13076.632   -11328.867    18588.768     8426.651   -1856.8989    1961.1906    84.739269 
   99800     261.4665   -110.29006   0.23658039   -110.05348   -125.20295    4.4022785    4.4022785    4.4022785   -125.20295    17225.459   -28588.771    10987.703   -1331.7268    2023.6416   -9211.5195    85.316406 
   99900    877.75095   -110.83626    0.7942075   -110.04206   -5007.4736    4.4071464    4.4071464    4.4071464   -5007.4736    14940.107   -15250.241   -14712.287   -2754.6369   -4259.0802   -4879.8337    85.599738 
  100000    587.05624   -110.57482   0.53118082   -110.04364    12787.353    4.3878798    4.3878798    4.3878798    12787.353    25360.182   -5198.9742    18200.851    5440.2793   -1928.0578    3786.3776    84.481998 
Loop time of 21.3701 on 1 procs for 100000 steps with 8 atoms

Pair  time (%) = 6.34001 (29.6676)
Kspce time (%) = 5.26243 (24.6252)
Neigh time (%) = 0 (0)
Comm  time (%) = 1.05947 (4.95774)
Outpt time (%) = 0.0190361 (0.0890778)
Other time (%) = 8.68918 (40.6604)

Nlocal:    8 ave 8 max 8 min
Histogram: 1 0 0 0 0 0 0 0 0 0
Nghost:    2189 ave 2189 max 2189 min
Histogram: 1 0 0 0 0 0 0 0 0 0
Neighs:    2056 ave 2056 max 2056 min
Histogram: 1 0 0 0 0 0 0 0 0 0

Total # of neighbors = 2056
Ave neighs/atom = 257
Neighbor list builds = 0
Dangerous builds = 0
unfix 20
unfix 21
print "seeds:9952587"
seeds:9952587
