LAMMPS (10 Feb 2015)
# ---- initialize simulations
clear
units metal
dimension 3
boundary p p p
atom_style charge
atom_modify map array
# ---- create atoms
read_data /Users/eugeneragasa/pyflamestk_git/pypospack/tests/tests_integration/workflow/WorkflowLammpsThermalExpansion/param_1902/MgO_NaCl_unit.npt.T700/lammps.structure
  triclinic box = (0 0 0) to (4.2565 4.2565 4.2565) with tilt (0 0 0)
  1 by 1 by 1 MPI processor grid
  reading atoms ...
  8 atoms
# ---- define interatomic potential
include potential.mod
mass 1 24.305
mass 2 15.999

group Mg type 1
4 atoms in group Mg
group O type 2
4 atoms in group O

set group Mg charge 1.69754800024
  4 settings made for charge
set group O charge -1.69754800024
  4 settings made for charge

variable R_cut equal 10.0

pair_style buck/coul/long ${R_cut}
pair_style buck/coul/long 10
pair_coeff 1 1 0.0 0.5 0.0 ${R_cut}
pair_coeff 1 1 0.0 0.5 0.0 10
pair_coeff 1 2 1340.93810979 0.285979914483 0.0 ${R_cut}
pair_coeff 1 2 1340.93810979 0.285979914483 0.0 10
pair_coeff 2 2 11096.6994948 0.145827000496 3.24328494634 ${R_cut}
pair_coeff 2 2 11096.6994948 0.145827000496 3.24328494634 10

kspace_style pppm 1.0e-5

neighbor 1.0 bin
neigh_modify every 1 delay 0 check yes
# ---- define settings
compute eng all pe/atom
compute eatoms all reduce sum c_eng
# ---- run minimization
reset_timestep 0
fix 1 all box/relax iso 0.0 vmax 0.001
thermo 10
thermo_style custom step pe lx ly lz xy xz yz press pxx pyy pzz pxy pxz pyz c_eatoms
min_style cg
minimize 1e-25 1e-25 5000 10000
PPPM initialization ...
  G vector (1/distance) = 0.353134
  grid = 8 8 8
  stencil order = 5
  estimated absolute RMS force accuracy = 4.09436e-05
  estimated relative force accuracy = 2.84338e-06
  using double precision FFTs
  3d grid and FFT values/proc = 3375 512
Neighbor list info ...
  1 neighbor list requests
  update every 1 steps, delay 0 steps, check yes
  master list distance cutoff = 11
Memory usage per processor = 4.06549 Mbytes
Step PotEng Lx Ly Lz Xy Xz Yz Press Pxx Pyy Pzz Pxy Pxz Pyz eatoms 
       0   -117.43599       4.2565       4.2565       4.2565            0            0            0    33717.192    33717.192    33717.192    33717.192 -3.1023281e-11 -2.4163961e-10 -2.0934262e-10   -117.43599 
       8   -117.45138    4.2835821    4.2835821    4.2835821            0            0            0   -5.0124394   -5.0124394   -5.0124394   -5.0124394 6.8970478e-11 -1.4442567e-10 -9.765937e-11   -117.45138 
Loop time of 0.00870991 on 1 procs for 8 steps with 8 atoms

Minimization stats:
  Stopping criterion = linesearch alpha is zero
  Energy initial, next-to-last, final = 
        -117.435990229     -117.451383044     -117.451383044
  Force two-norm initial, final = 4.86878 0.0018005
  Force max component initial, final = 4.86878 0.000733039
  Final line search alpha, max atom move = 0.00390625 2.86343e-06
  Iterations, force evaluations = 8 25

Pair  time (%) = 0.00241351 (27.71)
Kspce time (%) = 0.00138044 (15.8491)
Neigh time (%) = 0 (0)
Comm  time (%) = 0.000358105 (4.11146)
Outpt time (%) = 0 (0)
Other time (%) = 0.00455785 (52.3295)

Nlocal:    8 ave 8 max 8 min
Histogram: 1 0 0 0 0 0 0 0 0 0
Nghost:    2189 ave 2189 max 2189 min
Histogram: 1 0 0 0 0 0 0 0 0 0
Neighs:    2344 ave 2344 max 2344 min
Histogram: 1 0 0 0 0 0 0 0 0 0

Total # of neighbors = 2344
Ave neighs/atom = 293
Neighbor list builds = 0
Dangerous builds = 0
unfix 1
# ---- define output variables ----
variable natoms equal "count(all)"
variable tot_energy equal "c_eatoms"
variable length_x equal "lx"
variable length_y equal "ly"
variable length_z equal "lz"
variable tilt_xy equal "xy"
variable tilt_xz equal "xz"
variable tilt_yz equal "yz"
variable tot_press equal "press"
variable press_xx equal "pxx"
variable press_yy equal "pyy"
variable press_zz equal "pzz"
variable press_xy equal "pxy"
variable press_xz equal "pxz"
variable press_yz equal "pyz"

# ---- output ----
print "pypospack:output_section:begin"
pypospack:output_section:begin
print "tot_energy = ${tot_energy}"
tot_energy = -117.45138304358
print "num_atoms = ${natoms}"
num_atoms = 8
print "xx = ${length_x}"
xx = 4.28358206284588
print "yy = ${length_y}"
yy = 4.28358206284588
print "zz = ${length_z}"
zz = 4.28358206284588
print "xy = ${tilt_xy}"
xy = 0
print "xz = ${tilt_xz}"
xz = 0
print "yz = ${tilt_yz}"
yz = 0
print "tot_press = ${tot_press}"
tot_press = -5.01243937142067
print "pxx = ${press_xx}"
pxx = -5.01243937108414
print "pyy = ${press_yy}"
pyy = -5.01243937158826
print "pzz = ${press_zz}"
pzz = -5.01243937158962
print "pxy = ${press_xy}"
pxy = 6.8970477610601e-11
print "pxz = ${press_xz}"
pxz = -1.44425666326158e-10
print "pyz = ${press_yz}"
pyz = -9.76593698696591e-11
print "pypospack:output_section:done"
pypospack:output_section:done
print "pypospack:lammps_sim:done"
pypospack:lammps_sim:done
#------------------------------------------------------------------------------
# RUN THERMOSTAT
# running using an NPT Nose-Hoover style thermostat
#------------------------------------------------------------------------------
variable tempdamp equal 0.1
variable pressdamp equal 1.0
# set initial velocities
velocity all create 700 9111756 mom yes dist gaussian loop all
# fix for Nose-Hoover style thermostat
fix 20 all npt temp 700 700 0.1 aniso 0.0 0.0 1.0 drag 1.0 couple xyz
variable boxx equal lx
variable boxy equal ly
variable boxz equal lz
variable boxp equal press
variable boxt equal temp
# calculate averages every 10000 steps
reset_timestep 0
fix 21 all ave/time 10 10 100 v_boxx v_boxy v_boxz v_boxp v_boxt file lattice.out
thermo_style custom step temp pe ke etotal press lx ly lz press pxx pyy pzz pxy pxz pyz vol
thermo_modify flush yes
thermo 100
run 100000
PPPM initialization ...
  G vector (1/distance) = 0.352856
  grid = 8 8 8
  stencil order = 5
  estimated absolute RMS force accuracy = 4.14735e-05
  estimated relative force accuracy = 2.88018e-06
  using double precision FFTs
  3d grid and FFT values/proc = 3375 512
Memory usage per processor = 3.06549 Mbytes
Step Temp PotEng KinEng TotEng Press Lx Ly Lz Press Pxx Pyy Pzz Pxy Pxz Pyz Volume 
       0          700   -117.45139   0.63337471   -116.81801    8601.1522    4.2835821    4.2835821    4.2835821    8601.1522    15264.028    6615.3065    3924.1217    4727.1125    5614.0425    255.53836     78.59977 
     100    303.54832   -117.01003    0.2746569   -116.73537    6719.1557     4.309199     4.309199     4.309199    6719.1557    39589.726   -2706.0442   -16726.215   -4545.4121    -4326.356    3173.6097    80.018359 
     200    466.13599   -116.98248   0.42176964   -116.56071   -14573.857    4.3186657    4.3186657    4.3186657   -14573.857    8000.8868   -23955.137   -27767.321   -1827.0745     740.0456    3326.8533    80.546889 
     300    805.37493   -117.13423   0.72872016   -116.40551    16631.817    4.2930118    4.2930118    4.2930118    16631.817    36654.656    7038.9444    6201.8516    4772.1159     486.1206   -3664.8485    79.119994 
     400    896.78555   -117.11801   0.81143041   -116.30658   -11909.675    4.3239507    4.3239507    4.3239507   -11909.675     10470.56    -13840.97   -32358.615    -1011.202   -471.36105    1791.6717    80.842959 
     500    431.46786   -116.61444   0.39040119   -116.22404    4006.7769    4.3271653    4.3271653    4.3271653    4006.7769    54840.835   -23865.339   -18955.166   -3678.0467   -3848.7171    9778.9101    81.023401 
     600     1098.766   -117.17074   0.99418658   -116.17656    3250.3554    4.3000306    4.3000306    4.3000306    3250.3554    23986.673   -6459.3899   -7776.2171   -10972.735    8514.0044    224.22486      79.5087 
     700    756.82994    -116.8639   0.68479564    -116.1791   -148.42174    4.3286113    4.3286113    4.3286113   -148.42174    33788.609   -16998.301   -17235.573    4762.6111   -6064.1286    1592.3897    81.104651 
     800    636.93089   -116.74955   0.57630846   -116.17324   -6354.3736    4.3288385    4.3288385    4.3288385   -6354.3736    44287.337   -33525.371   -29825.087    11.011094    2191.6978    5942.8924    81.117425 
     900    914.89825   -117.00034   0.82781917   -116.17252    2780.2436    4.3015741    4.3015741    4.3015741    2780.2436    28731.533   -12336.469   -8054.3339    1916.4092   -6307.4049   -1428.9457    79.594345 
    1000    974.75235   -117.06901   0.88197641   -116.18703   -6303.0177    4.3182754    4.3182754    4.3182754   -6303.0177    15009.315   -21117.529   -12800.839   -8326.8572    7245.4064    1598.6183    80.525049 
    1100    509.99002   -116.65604   0.46144968   -116.19459   -10677.792    4.3347498    4.3347498    4.3347498   -10677.792    53699.068   -52621.053   -33111.391    -194.6982    -1232.062    9543.4618    81.450193 
    1200    628.62511   -116.76038   0.56879321   -116.19158    30606.216    4.2942812    4.2942812    4.2942812    30606.216    86817.851   -4577.0528    9577.8496    1954.7355   -2893.3245    2375.0611    79.190201 
    1300    672.79072   -116.81593   0.60875518   -116.20717    2905.1183    4.3159029    4.3159029    4.3159029    2905.1183    29839.104    -16104.68   -5019.0698    -6232.842     87.81602    397.56312      80.3924 
    1400    770.88445   -116.88891   0.69751245    -116.1914   -40416.598    4.3390746    4.3390746    4.3390746   -40416.598   -20747.969   -60494.863   -40006.963    -2095.482   -805.28549    7559.6166    81.694222 
    1500    437.75612   -116.57304   0.39609093   -116.17695    38698.867    4.2968705    4.2968705    4.2968705    38698.867    111183.04   -2246.4624    7160.0263    2022.5269    526.22914    2991.8994    79.333533 
    1600    740.05464   -116.85579   0.66961699   -116.18617    500.78697    4.3205089    4.3205089    4.3205089    500.78697    31045.936    -27348.75   -2194.8244   -8962.3088    4837.8639   -1503.2073    80.650065 
    1700    718.37574    -116.8304   0.65000147    -116.1804   -30224.307    4.3347889    4.3347889    4.3347889   -30224.307    -10069.75   -47796.076   -32807.096   -2096.9513   -2962.9389    8730.9973    81.452396 
    1800    660.37667    -116.7764   0.59752269   -116.17887    12479.803    4.2969512    4.2969512    4.2969512    12479.803    56168.725   -15034.732   -3694.5831    2487.6927    2655.5152    10398.161    79.338003 
    1900    532.54355   -116.68312   0.48185659   -116.20127    4800.9748    4.3201349    4.3201349    4.3201349    4800.9748    63710.224   -29577.446   -19729.854   -485.81904    2738.1647    -1803.625    80.629119 
    2000    645.58849   -116.78264   0.58414203    -116.1985   -6993.7299     4.321976     4.321976     4.321976   -6993.7299    26181.742   -37343.562     -9819.37   -552.05243   -426.14142    5540.8803    80.732251 
    2100    774.94728   -116.89139   0.70118859   -116.19021   -165.98503    4.3012699    4.3012699    4.3012699   -165.98503    22068.247   -9960.1622    -12606.04    -6671.228    1502.5114    10252.486     79.57746 
    2200    459.23401   -116.60892   0.41552458   -116.19339   -10164.296     4.320535     4.320535     4.320535   -10164.296     28144.94   -40751.533   -17886.296    19175.606   -1434.0328   -758.76429    80.651526 
    2300    470.25079   -116.61768   0.42549279   -116.19219    8528.4877    4.3124676    4.3124676    4.3124676    8528.4877    67224.619   -26246.031   -15393.125   -4694.9056    -817.5318    4740.0449    80.200587 
    2400    597.46121   -116.73633   0.54059546   -116.19574   -14298.403    4.3205103    4.3205103    4.3205103   -14298.403    25345.981   -40046.274   -28194.916    3837.8165    -4943.764    11352.278    80.650144 
    2500    816.89137   -116.92576   0.73914048   -116.18662   -2344.8176    4.3117244    4.3117244    4.3117244   -2344.8176    24514.108   -21156.517   -10392.045   -4622.6485    6400.2258    232.49038     80.15913 
    2600    595.38466   -116.72693   0.53871656   -116.18821   -1463.2888    4.3168471    4.3168471    4.3168471   -1463.2888    41360.842   -26403.132   -19347.576    8356.5988   -3837.2999   -195.31922    80.445174 
    2700    353.52177   -116.51219   0.31987392   -116.19232   -1876.9786    4.3176677    4.3176677    4.3176677   -1876.9786    77078.659   -45052.912   -37656.683    1150.1258    2296.4305    10437.939    80.491062 
    2800    535.99163   -116.68427   0.48497649    -116.1993     1687.891    4.3122786    4.3122786    4.3122786     1687.891    53425.905   -28155.892    -20206.34    545.17187    -5672.005    2511.7538    80.190041 
    2900    911.32884    -117.0222   0.82458949   -116.19761    -20471.48    4.3163558    4.3163558    4.3163558    -20471.48   -11460.118   -30945.184   -19009.138     8981.051    2985.1398   -143.73929    80.417711 
    3000    500.61523   -116.65431   0.45296718   -116.20134   -11707.593    4.3209929    4.3209929    4.3209929   -11707.593    44653.632    -37327.04   -42449.371    7206.5481   -2979.5449    11992.147    80.677168 
    3100    601.71053   -116.73971   0.54444033   -116.19527     10937.35    4.3048892    4.3048892    4.3048892     10937.35    71664.169   -21421.611    -17430.51   -319.27014   -2369.7467    5471.7775    79.778512 
    3200     572.1724   -116.71765   0.51771361   -116.19994    1626.8231    4.3201675    4.3201675    4.3201675    1626.8231    40897.397   -23848.665   -12168.264    5497.1693   -1686.7197   -6088.4769    80.630949 
    3300    723.06322   -116.84459    0.6542428   -116.19035   -29583.199    4.3245036    4.3245036    4.3245036   -29583.199   -899.49132   -50635.876   -37214.228      3498.02    5556.7158    11826.182    80.873974 
    3400    648.25708   -116.77012   0.58655663   -116.18357    10181.126    4.2983265    4.2983265    4.2983265    10181.126    51417.196   -8766.3717   -12107.447    1885.2902   -2637.9625    13248.583    79.414208 
    3500    744.72954   -116.87026   0.67384694   -116.19642   -10491.778    4.3233338    4.3233338    4.3233338   -10491.778    32043.163   -26101.507    -37416.99   -4099.4442    2621.3799   -3626.7764     80.80836 
    3600    423.69681   -116.58228   0.38336978   -116.19891   -10869.001    4.3271682    4.3271682    4.3271682   -10869.001    50822.334   -50528.622   -32900.716    11373.112    -6643.795    9680.8909     81.02356 
    3700     794.1224     -116.909   0.71853863   -116.19046    9026.5085    4.2896329    4.2896329    4.2896329    9026.5085    29069.244   -6357.6547    4367.9357   -1128.7337    3706.4776    14781.891     78.93332 
    3800    827.59052   -116.95447   0.74882129   -116.20565   -10316.994    4.3245323    4.3245323    4.3245323   -10316.994    26266.943   -23419.905   -33798.019    3324.0404    2650.4957   -4875.3326    80.875585 
    3900    674.09004   -116.80614   0.60993083   -116.19621   -15697.192    4.3237008    4.3237008    4.3237008   -15697.192    24032.131   -31440.472   -39683.236    2852.1846   -6095.2894    6373.8634    80.828943 
    4000    493.11699    -116.6225   0.44618261   -116.17631    30032.926     4.286183     4.286183     4.286183    30032.926    73839.114    4427.1324    11832.532   -2018.7264    2537.6952    17836.682     78.74303 
    4100    815.68521   -116.91687   0.73804912   -116.17882   -29838.009    4.3327531    4.3327531    4.3327531   -29838.009   -11466.459   -41102.186   -36945.384    10499.239   -4387.0322    2352.2049     81.33769 
    4200    820.67238    -116.9179   0.74256161   -116.17533    2447.6636    4.3103743    4.3103743    4.3103743    2447.6636    27529.546   -9129.2576   -11057.297    1803.8872    -2290.624    4313.7309    80.083851 
    4300    475.67752   -116.61245   0.43040301   -116.18205    15842.515    4.3023103    4.3023103    4.3023103    15842.515    78101.328   -16466.694    -14107.09    -10102.87   -1478.0624    15560.878    79.635222 
    4400    802.42771    -116.9088   0.72605345   -116.18274   -19664.901    4.3223569    4.3223569    4.3223569   -19664.901   -818.66169   -20963.977   -37212.064   -3452.6126    10362.321    1185.1256    80.753599 
    4500    976.09531    -117.0606   0.88319155    -116.1774    11093.536    4.2995527    4.2995527    4.2995527    11093.536     31456.23    179.90054    1644.4778    7389.2313   -7290.0551   -3698.6512    79.482192 
    4600    390.11388   -116.54299   0.35298324      -116.19   -13054.797    4.3226333    4.3226333    4.3226333   -13054.797    32562.636   -32837.714   -38889.314    4091.0692    3395.9128     17920.51    80.769088 
    4700    844.48888   -116.95307   0.76411129   -116.18896   -89.422252      4.30101      4.30101      4.30101   -89.422252    23860.929   -5355.2408   -18773.955   -2690.7416   -4394.6008    9522.9625    79.563038 
    4800    862.30473    -116.9774   0.78023144   -116.19717   -4270.3042    4.3120831    4.3120831    4.3120831   -4270.3042    14509.613   -6396.2032   -20924.323   -1338.7799    5326.9417   -2226.1567    80.179133 
    4900    727.81667   -116.84815   0.65854382    -116.1896   -14277.966    4.3197775    4.3197775    4.3197775   -14277.966    11322.138   -29311.582   -24844.454    7637.5628   -4140.1043    11306.248    80.609114 
    5000    625.03625   -116.74412   0.56554593   -116.17857    30775.858    4.2945202    4.2945202    4.2945202    30775.858    81211.173    14827.024   -3710.6225    -8688.434    3355.1849    8771.9394    79.203424 
    5100    895.16229   -116.98956   0.80996165    -116.1796   -25694.514    4.3267103    4.3267103    4.3267103   -25694.514   -12150.464   -22838.821   -42094.259    6024.0644   -7878.6902   -3742.2714    80.997845 
    5200    623.69032   -116.74006   0.56432811   -116.17573    416.83514    4.3110632    4.3110632    4.3110632    416.83514    25048.364   -10846.867   -12950.992    2309.6321   -1536.8187     4861.197    80.122253 
    5300    687.73113    -116.7998   0.62227358   -116.17753     20046.15    4.2980013    4.2980013    4.2980013     20046.15    66010.116    1330.2177   -7201.8843   -4313.6855   -1140.2824    13241.787    79.396183 
    5400     988.0438   -117.07496    0.8940028   -116.18096   -13899.008    4.3208423    4.3208423    4.3208423   -13899.008    1473.9513   -17288.504   -25882.471   -9383.4263    4838.4836    200.88627    80.668737 
    5500    588.70737    -116.7142    0.5326748   -116.18152    11090.942    4.3121074    4.3121074    4.3121074    11090.942     59159.65   -11545.753    -14341.07    7665.8588    1971.1926   -1565.6767    80.180492 
    5600    692.51167   -116.80912   0.62659911   -116.18252   -1286.6645    4.3071718    4.3071718    4.3071718   -1286.6645     18119.37    -4487.847   -17491.517    4100.1295   -1911.4203    9117.2458    79.905484 
    5700    895.62665   -116.99246   0.81038181   -116.18208    5682.0773    4.3079382    4.3079382    4.3079382    5682.0773    18815.617   -8500.7036    6731.3187    2347.5612    3026.4746    5505.1424    79.948144 
    5800    770.22723   -116.88218   0.69691779   -116.18526   -12119.566    4.3238089    4.3238089    4.3238089   -12119.566   -2445.8854   -24326.796   -9586.0161   -11618.071   -4950.2455    511.18139    80.835006 
    5900    549.35215   -116.67853   0.49706537   -116.18146    11776.965    4.3037784    4.3037784    4.3037784    11776.965    45427.799   -3549.5246   -6547.3792    3765.9772   -2077.9908    12974.005     79.71677 
    6000    915.69781   -117.01306   0.82854262   -116.18452   -1008.2203    4.3094735    4.3094735    4.3094735   -1008.2203    11606.674   -5683.4297   -8947.9054    4264.6535    6426.0141    9674.6515    80.033656 
    6100    936.44708   -117.02584   0.84731699   -116.17852   -19254.768     4.329157     4.329157     4.329157   -19254.768   -2030.2144   -29916.939   -25817.151   -5930.9067    -5225.535   -4411.4984    81.135329 
    6200    852.51633   -116.94337   0.77137469     -116.172    26134.984     4.291205     4.291205     4.291205    26134.984    57153.511    14376.378    6875.0626   -6313.2618     1184.359    742.40342    79.020136 
    6300     823.2022    -116.9321   0.74485065   -116.18725   -14579.663    4.3212587    4.3212587    4.3212587   -14579.663    13679.874   -21892.857   -35526.004   -313.70132    2298.7315    9468.6924     80.69206 
    6400    768.77538   -116.87296   0.69560412   -116.17736   -10865.387    4.3243122    4.3243122    4.3243122   -10865.387    14224.697   -22148.214   -24672.645   -275.38078    1722.5272    4069.7816    80.863239 
    6500     1033.261   -117.09989   0.93491624   -116.16498     31192.57    4.2846202    4.2846202    4.2846202     31192.57     27868.44    10761.649    54947.621   -5616.7334   -5090.8199   -6026.1465    78.656931 
    6600    731.81475   -116.84476   0.66216137   -116.18259   -17372.799    4.3284446    4.3284446    4.3284446   -17372.799   -11320.125   -30104.734   -10693.538    5184.2002    5537.2356    2094.6432     81.09528 
    6700    619.27849   -116.74013   0.56033619    -116.1798    7222.9826     4.312996     4.312996     4.312996    7222.9826    27345.961   -13969.796    8292.7836    3531.8354    14874.448    3159.2002    80.230069 
    6800    751.26981   -116.85547   0.67976471    -116.1757    23840.108    4.3049714    4.3049714    4.3049714    23840.108    61260.667   -5633.6392    15893.296    8014.0063    6127.5336    -7116.387    79.783085 
    6900    931.71775   -117.01576    0.8430378   -116.17272    -15716.44    4.3267517    4.3267517    4.3267517    -15716.44   -2227.3504   -32659.794   -12262.175   -8407.3035   -3688.2663    1878.1167    81.000165 
    7000    847.09839   -116.93847   0.76647242     -116.172    12196.803    4.3009912    4.3009912    4.3009912    12196.803     30447.43   -654.33847    6797.3164    2476.5972   -1105.6169    6990.7815    79.561997 
    7100    740.99234   -116.85295   0.67046544   -116.18249   -15120.821    4.3249862    4.3249862    4.3249862   -15120.821    15040.695   -34794.729   -25608.428   -730.96182   -1532.9545   -1969.9064    80.901053 
    7200    806.54306   -116.90805   0.72977711   -116.17827   -4334.6217    4.3152799    4.3152799    4.3152799   -4334.6217    35339.355   -24096.025   -24247.195   -9025.5958   -3306.8476   -5722.8385    80.357591 
    7300    983.75562   -117.06378   0.89012276   -116.17365    14095.442    4.2991109    4.2991109    4.2991109    14095.442    33045.808     -2307.69    11548.208   -4366.7509    5947.0074    4528.6173     79.45769 
    7400    761.82947   -116.86505   0.68931931   -116.17573   -38451.476    4.3372226    4.3372226    4.3372226   -38451.476   -31948.234   -45361.121   -38045.073    -878.5685    10885.598    5388.7862    81.589661 
    7500    599.50919   -116.72123   0.54244851   -116.17879    14107.973    4.2983808    4.2983808    4.2983808    14107.973     42362.99   -12468.449    12429.376    2045.0248    2513.6487   -3651.9757    79.417215 
    7600    662.59509   -116.78355   0.59952996   -116.18402    16509.015    4.3065414    4.3065414    4.3065414    16509.015    53509.164   -23774.349    19792.229   -445.35479   -13756.096    1425.2872    79.870404 
    7700    662.72097   -116.77459   0.59964387   -116.17494   -7725.2371    4.3291358    4.3291358    4.3291358   -7725.2371      25142.9   -46276.204   -2042.4077    6516.1164   -8974.8052    6867.8972     81.13414 
    7800    709.54346   -116.81101   0.64200984     -116.169    10387.447    4.2987164    4.2987164    4.2987164    10387.447     3372.854   -14990.491    42779.978    6586.7733    5093.2853    5255.2117    79.435818 
    7900     557.8965   -116.68566   0.50479647   -116.18087   -8944.2196    4.3158974    4.3158974    4.3158974   -8944.2196    14222.756   -36279.053   -4776.3618   -7053.6959    12101.996   -330.26388     80.39209 
    8000    756.63955   -116.86202   0.68462336    -116.1774   -4599.4796     4.315926     4.315926     4.315926   -4599.4796    30715.989   -32914.082   -11600.346   -298.25524    811.66738    5140.6797    80.393692 
    8100    613.17149   -116.73215   0.55481045   -116.17734    5443.9712    4.3116618    4.3116618    4.3116618    5443.9712    51444.585   -26763.725    -8348.946    3301.9071    7123.4128    4912.8045    80.155634 
    8200    780.03434     -116.882   0.70579146   -116.17621   -18970.052    4.3129862    4.3129862    4.3129862   -18970.052   -1081.0573   -33379.059   -22450.041    365.29404    4869.0873   -6014.0703    80.229521 
    8300    760.97332   -116.86392   0.68854465   -116.17538   -1884.0611     4.307427     4.307427     4.307427   -1884.0611     38681.33   -23727.538   -20605.975    484.16652   -9421.0259    2508.2317    79.919688 
    8400     566.2221   -116.69101   0.51232965   -116.17868   -1370.5283    4.3203184    4.3203184    4.3203184   -1370.5283    36960.108   -32596.487   -8475.2065    206.67751   -3345.0636    6383.2805    80.639398 
    8500    716.01819   -116.82566    0.6478683   -116.17779   -3748.2994    4.3078304    4.3078304    4.3078304   -3748.2994    27016.107   -28625.984   -9635.0213    6998.1322    7493.1069    839.91533    79.942141 
    8600    608.24839   -116.73036   0.55035593      -116.18   -2339.9107    4.3047518    4.3047518    4.3047518   -2339.9107    18957.251   -23024.987   -2951.9962   -3989.1696    8778.0411   -2299.0931    79.770872 
    8700    603.31486   -116.72689   0.54589196     -116.181    -863.7734     4.313871     4.313871     4.313871    -863.7734    1759.9707   -11914.275    7562.9838   -141.86889   -5656.1581   -41.882555    80.278912 
    8800    626.43505    -116.7448   0.56681159   -116.17799    8047.4885    4.3139458    4.3139458    4.3139458    8047.4885    46434.872   -22314.676    22.269354    13584.519   -3296.1297    546.22348    80.283085 
    8900    719.62075   -116.82897   0.65112798   -116.17784    6470.2555    4.3010494    4.3010494    4.3010494    6470.2555    25256.592   -23832.761    17986.935    911.70339    2322.6719   -4417.5681    79.565225 
    9000    507.98609   -116.64629   0.45963649   -116.18666    7491.1543    4.3085349    4.3085349    4.3085349    7491.1543    50381.779   -20506.449   -7401.8673    2068.8986     1899.555   -1524.8346    79.981372 
    9100    773.74275    -116.8772    0.7000987    -116.1771    -22960.96    4.3226729    4.3226729    4.3226729    -22960.96   -26851.021   -19777.007   -22254.852    6140.9165   -3041.2788    2897.0347     80.77131 
    9200    646.67308    -116.7563   0.58512339   -116.17118    29665.426     4.289927     4.289927     4.289927    29665.426    54830.762   -1649.4814    35814.997    6003.1757    5161.3251   -33.546884     78.94956 
    9300    661.47317   -116.78123   0.59851482   -116.18271    -10213.36     4.313001     4.313001     4.313001    -10213.36    22845.755   -25865.788   -27620.047   -5197.3143    2536.6759    -749.6056    80.230347 
    9400    397.40822   -116.53708   0.35958331    -116.1775   -10313.748    4.3241986    4.3241986    4.3241986   -10313.748     14931.26   -22401.837   -23470.667    -2621.156    6619.9384    3045.4152    80.856864 
    9500    798.90289   -116.88757   0.72286412    -116.1647    20070.676    4.2930603    4.2930603    4.2930603    20070.676    36996.582     2249.606    20965.841    9436.7009   -7705.0695   -2895.5163    79.122676 
    9600    759.90894   -116.86055   0.68758158   -116.17297   -9188.9928    4.3168557    4.3168557    4.3168557   -9188.9928     14789.16   -25223.393   -17132.745    210.66306     3035.996   -10808.471    80.445658 
    9700    542.01343   -116.66611   0.49042514   -116.17568    -591.6448    4.3100309    4.3100309    4.3100309    -591.6448     9215.858     1725.882   -12716.674   -5223.5463     12681.25    1327.8315    80.064714 
    9800    647.04819   -116.75975    0.5854628   -116.17429    14343.997    4.2969403    4.2969403    4.2969403    14343.997    51895.862   -8813.2226    -50.64683    7079.6189    7593.1482    10175.063    79.337398 
    9900    789.38689   -116.89167   0.71425384   -116.17741   -12635.121    4.3157219    4.3157219    4.3157219   -12635.121    6243.9343    -28211.27   -15938.026    6660.0859   -8028.2696   -2807.5327    80.382287 
   10000    599.22754   -116.71972   0.54219367   -116.17752    8724.5867    4.3012636    4.3012636    4.3012636    8724.5867    27542.643   -1926.7252    557.84194    1074.4315    731.51877    -5088.533    79.577115 
   10100    622.77201   -116.74376    0.5634972   -116.18027    -11664.39    4.3122779    4.3122779    4.3122779    -11664.39    1916.7788   -16141.927    -20768.02   -8385.1457    11063.679    2247.0215    80.190004 
   10200    721.54129    -116.8288   0.65286572   -116.17593   -9846.1086    4.3115363    4.3115363    4.3115363   -9846.1086    8557.6986    -26364.97   -11731.055    14300.755    368.03642   -2131.4652    80.148636 
   10300    711.96477   -116.81779   0.64420069   -116.17359    13629.048    4.2957931    4.2957931    4.2957931    13629.048    30421.583    2867.5282    7598.0331    8714.5159    1763.6842   -5319.3622     79.27387 
   10400     597.8468    -116.7202   0.54094435   -116.17925   -9851.9283    4.3171238    4.3171238    4.3171238   -9851.9283    8752.8131   -23420.494   -14888.105   -9283.5414    866.94569    4353.8816    80.460643 
   10500    693.59069   -116.80544   0.62757543   -116.17787    3985.0636    4.3051965    4.3051965    4.3051965    3985.0636    28724.311   -4934.4949   -11834.626   -3570.3686    5963.9741    6145.8143    79.795601 
   10600    713.66056   -116.82239   0.64573507   -116.17665    18419.445    4.2974725    4.2974725    4.2974725    18419.445    53277.405    864.99216    1115.9379   -583.10126    1398.3574   -10632.032    79.366881 
   10700    665.19896   -116.78381     0.601886   -116.18192   -10801.682     4.318262     4.318262     4.318262   -10801.682     16255.03   -27088.525   -21571.551    1814.9112    909.13701   -9139.4982    80.524303 
   10800    617.96787   -116.73779   0.55915031   -116.17864   -298.02737    4.3092442    4.3092442    4.3092442   -298.02737    27159.202   -11919.958   -16133.326   -8793.1581    10693.396    7323.7095     80.02088 
   10900    628.72815   -116.74488   0.56888644   -116.17599     3469.155    4.3023798    4.3023798    4.3023798     3469.155     32472.07   -4107.1353    -17957.47   -3427.5191    1136.4834    819.15715    79.639081 
   11000    701.99244   -116.81242   0.63517752   -116.17724   -8342.1997    4.3100251    4.3100251    4.3100251   -8342.1997    24105.777   -23707.244   -25425.132    8246.7438   -1112.7389   -9527.9473    80.064392 
   11100    672.09744   -116.78683   0.60812789    -116.1787   -17309.262    4.3153757    4.3153757    4.3153757   -17309.262     1072.492   -29122.047   -23878.232   -5533.9131   -5036.6785    3524.6757    80.362943 
   11200    569.79503   -116.69365   0.51556251   -116.17808    4708.9733    4.2973704    4.2973704    4.2973704    4708.9733    26680.586   -355.64181   -12198.024   -9344.3708    13080.353    2953.5291    79.361227 
   11300    696.51948   -116.81177   0.63022547   -116.18154    884.39486    4.3035556    4.3035556    4.3035556    884.39486     36650.61   -12249.043   -21748.383   -7601.6789    1292.9845   -11946.309    79.704392 
   11400     601.1103   -116.72141   0.54389723   -116.17752   -17961.769    4.3254563    4.3254563    4.3254563   -17961.769    27397.554    -35079.24   -46203.623    4294.3203   -6216.5217   -1746.3708    80.927435 
   11500    770.17093   -116.87176   0.69686684    -116.1749    8193.2844    4.2895858    4.2895858    4.2895858    8193.2844    20753.678   -1934.2015    5760.3773   -5473.8483    9037.8344    13212.617    78.930725 
   11600    532.84006   -116.66855   0.48212488   -116.18642    5008.7343    4.3047798    4.3047798    4.3047798    5008.7343    43820.547   -8176.0643    -20618.28   -4913.9569    1040.7024   -7005.0751    79.772429 
   11700     616.9284   -116.73512   0.55820978   -116.17691   -29560.429    4.3262094    4.3262094    4.3262094   -29560.429    3973.6382   -38170.102   -54484.824    417.34152    2314.2985   -14573.674    80.969714 
   11800    823.38629   -116.91167   0.74501722   -116.16666    20944.729    4.2807675    4.2807675    4.2807675    20944.729    49331.304    7948.7095    5554.1745   -4041.0942   -10611.899    3107.2945    78.444939 
   11900    612.04617   -116.73912   0.55379223   -116.18533   -12999.718    4.3145617    4.3145617    4.3145617   -12999.718     9470.022   -19752.736   -28716.441   -6858.4976     17244.05   -259.51668    80.317477 
   12000    525.28389   -116.65985    0.4752879   -116.18457   -19393.874    4.3126089    4.3126089    4.3126089   -19393.874   -7111.2983   -12519.001   -38551.324   -3804.6716    11078.544   -10746.804    80.208466 
   12100    671.05172   -116.77654    0.6071817   -116.16936    26494.148    4.2829544    4.2829544    4.2829544    26494.148    67172.217    12455.668   -145.44188    3717.1607   -3077.0231    1246.6057    78.565225 
   12200    809.57932   -116.90367   0.73252438   -116.17115    -24917.03    4.3254087    4.3254087    4.3254087    -24917.03   -12446.655   -26787.477   -35516.957   -4708.4664    1716.3057    4751.3222    80.924764 
   12300    547.73888   -116.67495   0.49560565   -116.17935    12429.414    4.2920978    4.2920978    4.2920978    12429.414    19111.716    19079.706    -903.1809    4067.4064    5324.6813   -13705.944    79.069471 
   12400    543.11381   -116.67615   0.49142079   -116.18473    5748.8061    4.2971332    4.2971332    4.2971332    5748.8061    25780.345    1662.0478   -10195.975    -3237.626    6501.1556    -13627.28    79.348087 
   12500    723.21193   -116.82488   0.65437735    -116.1705    -23297.99    4.3253357    4.3253357    4.3253357    -23297.99   -17022.189   -9831.4069   -43040.373   -103.30218   -12389.418    3863.9284    80.920667 
   12600    753.62458   -116.84471   0.68189536   -116.16281    32521.332    4.2761942    4.2761942    4.2761942    32521.332    47873.569    35654.794    14035.631   -5439.6394   -1371.9769    1543.3153    78.193791 
   12700    431.98551   -116.57594   0.39086957   -116.18507   -19744.981    4.3146132    4.3146132    4.3146132   -19744.981    1980.8589   -28509.561   -32706.242   -3117.6744    11010.521   -17365.093     80.32035 
   12800    484.18695    -116.6174   0.43810252    -116.1793   -18268.389      4.31386      4.31386      4.31386   -18268.389   -5961.0708    -3234.444   -45609.651    7524.8421    805.07039   -8000.5654    80.278296 
   12900    940.33643   -117.01251   0.85083616   -116.16168    27563.254    4.2742439    4.2742439    4.2742439    27563.254    32022.412    41534.553    9132.7979   -1549.0103   -8216.3499     7123.038    78.086852 
   13000    593.82687   -116.71166   0.53730703   -116.17436   -20945.552     4.323409     4.323409     4.323409   -20945.552   -1112.0185   -23175.574   -38549.063   -1691.5407    2253.6281   -10138.665     80.81258 
   13100    387.60112   -116.53194   0.35070964   -116.18123    979.82989     4.299939     4.299939     4.299939    979.82989    13829.851    13442.039     -24332.4    -7175.612    9669.9754   -12116.366    79.503618 
   13200    608.26468   -116.72428   0.55037067   -116.17391     18840.69    4.2873504    4.2873504    4.2873504     18840.69     21846.91    39816.559   -5141.3998    3660.3107   -6160.6719   -1980.8681    78.807388 
   13300    875.12681   -116.96048   0.79183313   -116.16864     -15708.2    4.3191216    4.3191216    4.3191216     -15708.2   -8138.6376   -20191.965   -18793.997    315.23063   -3661.5731    2940.4783    80.572396 
   13400    545.00397   -116.66624   0.49313105   -116.17311    5383.3225     4.297852     4.297852     4.297852    5383.3225    7432.7977    24052.121   -15334.951   -1943.4598    5719.2177   -6143.9137    79.387911 
   13500    480.11642   -116.61195   0.43441943   -116.17753   -8500.5326    4.2967561    4.2967561    4.2967561   -8500.5326   -2307.6271    -6563.682   -16630.289   -2697.9025    1367.7156   -10015.468    79.327198 
   13600     687.1053   -116.79766   0.62170732   -116.17596   -594.23143    4.3067774    4.3067774    4.3067774   -594.23143   -11725.858    20349.379   -10406.216   -2282.5488   -4203.0323    3208.2519    79.883536 
   13700    831.32129   -116.92613   0.75219698   -116.17393    -10150.04    4.3072127    4.3072127    4.3072127    -10150.04     -1443.96   -4883.7359   -24122.425    4945.5767    4440.3863    2549.5512    79.907761 
   13800     273.7153   -116.42853   0.24766336   -116.18086    2099.6765    4.2968998    4.2968998    4.2968998    2099.6765    3269.3278    21581.606   -18551.904   -9115.5275    13248.583   -10369.607    79.335155 
   13900    673.23873   -116.79156   0.60916055    -116.1824   -1803.9653    4.2983646    4.2983646    4.2983646   -1803.9653    5373.7614   -1677.0522   -9108.6051   -294.54021    -5294.308   -6746.4138    79.416317 
   14000    835.65549   -116.93267   0.75611865   -116.17655   -12457.026    4.3152973    4.3152973    4.3152973   -12457.026    569.84137   -15002.102   -22938.816   -2497.2833   -5329.3328    722.89457    80.358562 
   14100    519.21144   -116.64863   0.46979342   -116.17884    17286.852    4.2872834    4.2872834    4.2872834    17286.852    33413.678    14543.193    3903.6865    4935.2469    7086.7555   -7393.7398    78.803695 
   14200     444.8387   -116.58813   0.40249941   -116.18563    2368.2709    4.3014653    4.3014653    4.3014653    2368.2709    11452.715    14056.595   -18404.497   -2983.2069    6343.2015   -6271.8178    79.588305 
   14300    886.71176   -116.97637   0.80231543   -116.17406   -15023.404    4.3159622    4.3159622    4.3159622   -15023.404   -7674.3427   -17058.845   -20337.025   -598.96744   -2708.1394   -268.33154    80.395715 
   14400    680.86315   -116.78673   0.61605929   -116.17067    34487.292    4.2795341    4.2795341    4.2795341    34487.292    29777.466    50795.736    22888.672    5726.3546   -1911.6159    1427.8027    78.377148 
   14500    489.88819   -116.62701   0.44326113   -116.18375   -25172.097    4.3129321    4.3129321    4.3129321   -25172.097   -7359.3995   -32248.356   -35908.534   -447.78292    6723.6783   -6526.6582    80.226503 
   14600     684.9187   -116.79712   0.61972884   -116.17739    -11491.88    4.3065444    4.3065444    4.3065444    -11491.88   -4297.5831   -16452.326   -13725.732    196.39813    2332.6177   -8289.3345     79.87057 
   14700    959.37086   -117.03401   0.86805892   -116.16595    19035.281    4.2839856    4.2839856    4.2839856    19035.281      19116.8    22612.873    15376.171   -4980.2069     -1089.05    5228.5923    78.621987 
   14800    477.26015   -116.60646   0.43183502   -116.17463   -22933.347    4.3161689    4.3161689    4.3161689   -22933.347   -13394.844   -26132.643   -29272.555     13383.33    6426.8744   -7585.1801    80.407268 
   14900    417.47726   -116.55578   0.37774219   -116.17804    7294.5704    4.2942036    4.2942036    4.2942036    7294.5704    12409.435   -1494.8927    10969.169    3764.9491     3513.605   -12907.573    79.185907 
   15000    1004.2566   -117.08169   0.90867247   -116.17302    1309.9052    4.2996049    4.2996049    4.2996049    1309.9052    3950.3324    -2660.916    2640.2992    2562.5089   -2689.1035    4220.9948    79.485086 
   15100    648.41447     -116.762   0.58669904    -116.1753    853.14994    4.3073857    4.3073857    4.3073857    853.14994   -1130.4254   -3328.1066    7017.9818    12590.645    -3177.508    8218.9164    79.917387 
   15200    509.46586   -116.63808   0.46097542    -116.1771    4550.7505    4.2903478    4.2903478    4.2903478    4550.7505    23430.579   -14435.603    4657.2757    4419.3059    6275.3643   -13586.242    78.972794 
   15300    674.35007   -116.78809   0.61016611   -116.17793   -12132.241    4.3126463    4.3126463    4.3126463   -12132.241    -7113.472    -7231.348   -22051.904   -850.83947    9975.4525   -14943.398    80.210555 
   15400    989.95096   -117.06818   0.89572844   -116.17245     9054.417    4.2933189    4.2933189    4.2933189     9054.417    11339.428    2918.9769    12904.846   -1613.9672   -4656.1767    8697.6222    79.136977 
   15500    558.10432   -116.68586   0.50498451   -116.18088    1223.0329    4.2965899    4.2965899    4.2965899    1223.0329    1752.7027    9326.0215   -7409.6255    4849.3071   -171.43021    6322.7935     79.31799 
   15600    534.69473    -116.6617   0.48380302   -116.17789   -21376.977    4.3136944    4.3136944    4.3136944   -21376.977   -14960.233   -17639.948    -31530.75    1621.0583    9292.1718   -17315.511    80.269052 
   15700    1038.9636   -117.10796   0.94007611   -116.16788    16840.637    4.2845506    4.2845506    4.2845506    16840.637    15968.973    6842.2052    27710.734    -253.3023    2040.7084   -6769.5841    78.653097 
   15800    745.68997    -116.8533   0.67471596   -116.17859   -2542.2261    4.3068336    4.3068336    4.3068336   -2542.2261   -10219.516    8114.4309   -5521.5931     7087.806   -5217.5685    7770.8594     79.88666 
   15900    610.38372   -116.72962   0.55228802   -116.17733   -15056.658     4.308792     4.308792     4.308792   -15056.658   -3855.9898   -20194.689   -21119.294    6545.9059   -4594.7445   -7847.3755    79.995691 
   16000    809.15809   -116.90193   0.73214324   -116.16978    21266.916    4.2862161    4.2862161    4.2862161    21266.916    30905.819    2426.4455    30468.484   -1956.5609    2352.5939   -10734.436    78.744853 
   16100    935.97199   -117.01865   0.84688712   -116.17176   -3966.0371    4.3078675    4.3078675    4.3078675   -3966.0371    1609.4932   -4863.7754    -8643.829   -5794.9395   -3831.5747    1862.4568     79.94421 
   16200    585.94377   -116.70592   0.53017423   -116.17575    4224.0098    4.3027672    4.3027672    4.3027672    4224.0098    6100.5941   -5789.6529    12361.088    2222.9284   -3093.4757     1270.787    79.660595 
   16300    703.04822   -116.81149    0.6361328   -116.17536    2631.1207    4.2981087    4.2981087    4.2981087    2631.1207     23614.64   -18516.049    2794.7721    4859.1483    3353.7782   -18032.079    79.402138 
   16400    998.63219   -117.07506   0.90358339   -116.17148    1537.0468    4.3001642    4.3001642    4.3001642    1537.0468    4467.5343   -4325.8844    4469.4904   -1383.8454   -1695.5989   -1420.2316    79.516108 
   16500    810.39277   -116.90957   0.73326041   -116.17631   -987.74654    4.3004125    4.3004125    4.3004125   -987.74654   -2076.3557   -7226.2582    6339.3742    2611.7427   -7882.1586    8663.3787    79.529886 
   16600    586.16533   -116.70945   0.53037471   -116.17907   -12806.589    4.3072477    4.3072477    4.3072477   -12806.589    12279.994   -29434.002   -21265.761    9207.4926    -5113.307   -10360.588    79.909708 
   16700    977.80042   -117.05895   0.88473437   -116.17422    12721.129     4.288568     4.288568     4.288568    12721.129    26411.127    2690.4442    9061.8172    1118.9357    6034.2066   -12299.562    78.874554 
   16800    897.94608   -116.99192   0.81248048   -116.17944   -75.968573    4.3059646    4.3059646    4.3059646   -75.968573    18662.295   -11180.303   -7709.8971   -6312.2801   -6281.1988    2519.8089    79.838316 
   16900    587.82916   -116.71293   0.53188018   -116.18105   -15790.452    4.3084609    4.3084609    4.3084609   -15790.452    -7874.339   -25944.809   -13552.208    1078.5145   -7952.8797    5208.6429    79.977251 
   17000    776.89847   -116.87583   0.70295406   -116.17288    24879.006    4.2797761    4.2797761    4.2797761    24879.006    34364.127    23909.215    16363.676    4335.9408   -629.41985   -10195.993     78.39045 
   17100    1135.1225   -117.19983    1.0270827   -116.17275   -14771.337     4.313204     4.313204     4.313204   -14771.337    -13011.88   -18029.423   -13272.707   -5556.3235    6934.3154   -3695.3866    80.241678 
   17200    625.02677   -116.74523   0.56553736   -116.17969   -5571.9873    4.3031335    4.3031335    4.3031335   -5571.9873   -6752.1824   -9139.9039   -823.87557   -2066.6856    999.81367    10946.458    79.680942 
   17300      681.013    -116.7917   0.61619488   -116.17551    12041.578    4.2832699    4.2832699    4.2832699    12041.578    25028.911    12701.334   -1605.5103   -192.38273   -13194.355   -863.06265    78.582585 
   17400    987.75805   -117.06424   0.89374424    -116.1705   -14488.642    4.3173124    4.3173124    4.3173124   -14488.642    5558.4876   -24869.736   -24154.678    6731.5791   -1322.9237   -7500.1643    80.471192 
   17500    786.93518   -116.88692   0.71203549   -116.17488    6545.9645     4.294191     4.294191     4.294191    6545.9645    10853.251    7340.2824    1444.3601   -2974.7435    10012.912    6746.6723    79.185212 
   17600    576.86779   -116.70065    0.5219621   -116.17869   -1809.1832    4.2901653    4.2901653    4.2901653   -1809.1832     7150.125   -7578.1135   -4999.5612   -1353.7467   -1990.3241    5339.0444    78.962714 
   17700    866.31965   -116.95663   0.78386422   -116.17276   -14685.524    4.3139976    4.3139976    4.3139976   -14685.524   -8523.6127   -16388.083   -19144.876    3456.3719    -6453.186   -4070.5008    80.285976 
   17800    1078.8612   -117.14499   0.97617633   -116.16881    7852.4831     4.291227     4.291227     4.291227    7852.4831    4181.0826     9140.516    10235.851   -5013.2263    8356.8396    2820.1141    79.021351 
   17900    500.99057   -116.63056   0.45330679   -116.17726   -5125.5392     4.298692     4.298692     4.298692   -5125.5392   -3017.4691   -11683.064   -676.08434    5591.3153    1715.2895    10791.286     79.43447 
   18000    782.86575    -116.8837   0.70835339   -116.17534   -10856.825    4.3059002    4.3059002    4.3059002   -10856.825    918.51434   -20190.669   -13298.321   -4348.6441   -7872.8221    2787.0946    79.834733 
   18100    1053.5374   -117.12242   0.95326276   -116.16916    15257.473    4.2950438    4.2950438    4.2950438    15257.473    18630.037    15552.297    11590.087   -67.992065    1542.8567    -4135.059    79.232394 
   18200    671.28196   -116.78361   0.60739003   -116.17622   -839.56358    4.3005803    4.3005803    4.3005803   -839.56358    5916.8922   -10485.997     2050.414     4938.816    14714.635    2712.9075    79.539196 
   18300    544.73378   -116.67238   0.49288657    -116.1795   -4238.4275    4.3005224    4.3005224    4.3005224   -4238.4275   -1487.9062   -9946.3895   -1280.9868   -6115.5188    1077.7222    11572.764    79.535981 
   18400    967.80285   -117.05042   0.87568836   -116.17473    7282.1968    4.2998888    4.2998888    4.2998888    7282.1968    6885.6626    5191.7683    9769.1596    6244.1027   -9139.9071    274.54584    79.500832 
   18500     911.0834   -117.00004   0.82436741   -116.17567    4745.7659     4.297733     4.297733     4.297733    4745.7659    94.044215    8014.9036    6128.3497   -1743.9726    12801.974   -3344.8852    79.381313 
   18600    437.30195   -116.57859   0.39567999   -116.18291    3009.1419    4.2960134    4.2960134    4.2960134    3009.1419    9175.1683   -551.66859    403.92592   -2044.2146    13630.867    1969.1203    79.286069 
   18700    768.26685   -116.87472   0.69514399   -116.17958   -9761.4953    4.3074262    4.3074262    4.3074262   -9761.4953   -3556.3662   -4922.7785   -20805.341   -4749.2631   -3884.1131    9784.6023    79.919644 
   18800    989.62549   -117.06777   0.89543394   -116.17233    8691.2861    4.2974805    4.2974805    4.2974805    8691.2861    22995.776    6450.7502   -3372.6675   -3930.9137   -2936.2084    1240.4476    79.367324 
   18900    603.27489   -116.72338    0.5458558   -116.17753   -236.54832    4.2944902    4.2944902    4.2944902   -236.54832   -4187.6242    12446.269   -8968.2894    6725.8111    20800.338   -858.66844    79.201762 
   19000     502.7654   -116.63525    0.4549127   -116.18034   -13191.073     4.306963     4.306963     4.306963   -13191.073   -16126.741   -2780.1896   -20666.287   -1320.6113    9067.8025    11901.501    79.893862 
   19100    917.84956   -117.00393   0.83048957   -116.17344    5702.2173    4.2991604    4.2991604    4.2991604    5702.2173    21647.877   -9543.6124    5002.3877    2537.7207   -5206.9207     1162.978    79.460435 
   19200    803.60414   -116.90192   0.72711791    -116.1748    8345.9638    4.2935525    4.2935525    4.2935525    8345.9638    3390.6406    19939.945    1707.3055   -1583.3226    7048.2959   -8090.7183    79.149895 
   19300    388.22426   -116.53316   0.35127347   -116.18189   -4958.9599    4.3051649    4.3051649    4.3051649   -4958.9599    5155.0435   -5061.5578   -14970.365    1587.1573    7668.2568    3743.6777    79.793843 
   19400    788.27595   -116.88789   0.71324864   -116.17464   -5966.1088    4.3050887    4.3050887    4.3050887   -5966.1088    6556.0313   -17350.373   -7103.9852     3928.353    1728.8292    7479.9827    79.789606 
   19500    995.24959   -117.07005   0.90052274   -116.16953    10762.346    4.2911751    4.2911751    4.2911751    10762.346    21608.171    12087.179   -1408.3108   -4850.5311   -1619.4924   -3204.0613    79.018484 
   19600    504.30344   -116.63608   0.45630435   -116.17978    634.19739    4.3011537    4.3011537    4.3011537    634.19739    8640.4591    11437.932   -18175.799    4208.2922    10831.916   -7973.1354    79.571015 
   19700    636.89153   -116.75361   0.57627284   -116.17734   -15286.386    4.3095648    4.3095648    4.3095648   -15286.386   -10863.003   -24698.835   -10297.321   -3908.8913     8780.246    5063.6559    80.038739 
   19800    892.31362   -116.97813   0.80738412   -116.17074    20929.083    4.2892299    4.2892299    4.2892299    20929.083    30628.415    10273.585    21885.247   -2926.8512   -6653.2941    4519.6027    78.911079 
   19900     749.1719   -116.85624   0.67786648   -116.17838    1209.7528    4.2988958    4.2988958    4.2988958    1209.7528    6940.6511   -3474.6605    163.26785    4290.2118   -136.00168   -8736.1946    79.445766 
   20000    359.66099   -116.50581   0.32542882   -116.18038   -11257.982     4.310746     4.310746     4.310746   -11257.982   -5427.7209    -18452.45   -9893.7768   -7044.9721    13397.137   -3072.1525    80.104569 
   20100    927.74055   -117.01071   0.83943914   -116.17127    9050.9566    4.2881728    4.2881728    4.2881728    9050.9566    19152.147    2588.7037    5412.0194    2018.0014    7050.7281    1484.6004    78.852749 
   20200     967.9711   -117.04996   0.87584059   -116.17412    1415.7519    4.3002992    4.3002992    4.3002992    1415.7519    16425.057   -6450.9823    -5726.819   -5056.1767   -9124.3673   -357.35788    79.523599 
   20300    439.08579   -116.57663   0.39729405   -116.17934   -17311.723    4.3118205    4.3118205    4.3118205   -17311.723   -2716.6477    -24902.54   -24315.981   -5542.6304    3561.8697   -6304.3918    80.164489 
   20400    722.20688   -116.82875   0.65346796   -116.17528    8322.9485    4.2851034    4.2851034    4.2851034    8322.9485    6226.6716    18733.459    8.7146511    2834.8531    15630.324   -2569.9101    78.683545 
   20500    936.40935     -117.023   0.84728286   -116.17572    10855.707    4.3010287    4.3010287    4.3010287    10855.707     23718.47   -4083.2776    12931.928   -2246.6894   -4108.8404    2043.0557    79.564077 
   20600    666.76984   -116.78163   0.60330736   -116.17832   -16924.622    4.3116953    4.3116953    4.3116953   -16924.622   -13538.955   -23314.319   -13920.591    1431.3834   -6281.8418   -3350.6121    80.157502 
   20700     458.7151   -116.59209   0.41505506   -116.17703    11803.472    4.2831783    4.2831783    4.2831783    11803.472    17235.231     20146.48   -1971.2944    -2968.775    8259.5834   -8784.4804    78.577546 
   20800    988.99169   -117.07356   0.89486046    -116.1787   -2532.5977    4.3019736    4.3019736    4.3019736   -2532.5977    3071.5953    803.71816   -11473.106    2258.6015    8306.0988     332.3231    79.616525 
   20900    921.28436   -117.00851   0.83359745   -116.17491   -16904.513    4.3109147    4.3109147    4.3109147   -16904.513   -541.21667   -20369.073    -29803.25    1625.7049   -11533.346    4513.8891    80.113976 
   21000    475.15934   -116.60481   0.42993416   -116.17488    16962.794    4.2796712    4.2796712    4.2796712    16962.794     29196.95    24240.547   -2549.1155    -2887.113   -5011.2016   -2398.8005    78.384684 
   21100    776.32121   -116.88441   0.70243174   -116.18197    -10476.81      4.30702      4.30702      4.30702    -10476.81   -10617.415   -4524.3665   -16288.647     3418.221    11996.685   -6381.4985    79.897034 
   21200    888.97648   -116.97782    0.8043646   -116.17346    -2562.961    4.3072449    4.3072449    4.3072449    -2562.961    13023.669   -13647.783   -7064.7689   -4506.7416    -1481.313      6064.33     79.90955 
   21300    598.25486   -116.71266   0.54131357   -116.17135    19741.468    4.2790516    4.2790516    4.2790516    19741.468    20967.645    23059.493    15197.267    373.85288    -12150.48    8709.5579    78.350645 
   21400    610.61699   -116.73078   0.55249908   -116.17828   -21255.935    4.3113762    4.3113762    4.3113762   -21255.935   -15052.132   -21842.346   -26873.329   -3343.6407   -285.27275   -12087.245    80.139709 
   21500    931.43764   -117.01349   0.84278435    -116.1707   -1348.1318    4.3007423    4.3007423    4.3007423   -1348.1318    10236.133   -149.93409   -14130.594   -5151.3789    8650.9388    1066.0994    79.548181 
   21600    786.26418   -116.88198   0.71142836   -116.17055    9418.4268    4.2850932    4.2850932    4.2850932    9418.4268    26589.167    5868.1352   -4202.0217    5242.1039    -6942.249    18158.539    78.682983 
   21700    481.01499   -116.61217   0.43523247   -116.17693   -14699.788    4.3088009    4.3088009    4.3088009   -14699.788   -6303.7535   -23075.173   -14720.437   -8438.0696    -9027.422   -1734.4796    79.996188 
   21800    840.57787   -116.93296   0.76057252   -116.17239   -747.42663    4.2991358    4.2991358    4.2991358   -747.42663    3876.2002   -4491.7202   -1626.7599   -63.889949    1570.8996   -8394.6084    79.459074 
   21900    826.30446   -116.91911   0.74765764   -116.17145    10536.492    4.2907572    4.2907572    4.2907572    10536.492    24384.861   -345.98209    7570.5981   -1383.4692   -1612.4243    11878.185    78.995404 
   22000    465.26276   -116.59945   0.42097952   -116.17847   -5283.9546    4.3021206    4.3021206    4.3021206   -5283.9546    6218.3899   -22687.499    617.24535    -1842.635   -5226.2795    15835.957    79.624687 
   22100    664.66847   -116.77919     0.601406   -116.17779   -5357.0926    4.2996136    4.2996136    4.2996136   -5357.0926    6303.9813   -6419.0721   -15956.187    6169.7626    -7416.835   -9993.1852    79.485568 
   22200    940.07797    -117.0231    0.8506023    -116.1725    448.34208     4.296338     4.296338     4.296338    448.34208    11016.296   -299.90615    -9371.364   -4625.0964    2772.7164   -3832.1384    79.304043 
   22300     613.6055   -116.73283   0.55520315   -116.17762    2332.2812    4.2967269    4.2967269    4.2967269    2332.2812    20672.983   -8696.1972   -4979.9423    3983.5857   -1504.6901     20764.14    79.325581 
   22400    445.33548   -116.58324    0.4029489    -116.1803   -3231.1062    4.3021863    4.3021863    4.3021863   -3231.1062    4965.9446   -6955.7849   -7703.4782   -1685.4989   -7100.4837     2159.364    79.628336 
   22500    806.57015   -116.90444   0.72980162   -116.17464   -959.31927    4.2995916    4.2995916    4.2995916   -959.31927   -9767.2593    8385.5599   -1496.2584   -2288.1139   -1669.1658   -9286.1782    79.484349 
   22600    790.20002   -116.88844   0.71498959   -116.17345    11181.233    4.2908297    4.2908297    4.2908297    11181.233    18001.402    9586.3656    5955.9318    6901.4269    1705.7174    10089.094    78.999405 
   22700    375.28851   -116.52062   0.33956893   -116.18105   -4587.5419    4.3049357    4.3049357    4.3049357   -4587.5419    1494.3963   -4833.9025    -10423.12    3255.1206   -3999.5634    17110.835    79.781097 
   22800    654.68236    -116.7705   0.59237036   -116.17813    -8777.149    4.3004885    4.3004885    4.3004885    -8777.149   -18718.519    6003.2595   -13616.187     32.85093   -16314.589   -3427.4279    79.534102 
   22900    894.74202   -116.98129   0.80958139   -116.17171    9337.5434    4.2892208    4.2892208    4.2892208    9337.5434    13045.646    17778.642   -2811.6577    -4614.687   -54.885079   -1828.3479    78.910573 
   23000    570.36119   -116.69418   0.51607479    -116.1781   -13673.453     4.306017     4.306017     4.306017   -13673.453   -5156.9061   -12152.838   -23710.615    4868.8419    6265.6168    19315.506    79.841228 
   23100    345.01844   -116.49313   0.31217994   -116.18095   -788.86837    4.2977279    4.2977279    4.2977279   -788.86837   -7721.7426   -2600.4922    7955.6297    2198.6706   -9126.8166    8830.4566    79.381034 
   23200    849.73614    -116.9424   0.76885911   -116.17354    4901.3981    4.2915087    4.2915087    4.2915087    4901.3981   -3165.0314    12280.339    5588.8872    -3629.309   -8325.7933   -4060.9547    79.036916 
   23300    719.00601   -116.82549   0.65057175   -116.17492    -3141.827    4.3046649    4.3046649    4.3046649    -3141.827    430.20593   -10070.442    214.75535     2909.966    2784.7537    7263.7949    79.766044 
   23400    358.03502   -116.50393   0.32395761   -116.17998   -2050.2102     4.298717     4.298717     4.298717   -2050.2102   -3148.7699   -9101.9628    6100.1021    88.697703    1198.9157    18045.567    79.435853 
   23500    706.53649    -116.8161   0.63928907   -116.17681    3522.0957    4.2913741    4.2913741    4.2913741    3522.0957    10961.931    4726.4783   -5122.1225   -1329.1032   -7246.6564    307.55235    79.029483 
   23600    852.58215   -116.94489   0.77143425   -116.17345    2281.7952    4.3032815    4.3032815    4.3032815    2281.7952    3728.7269   -885.91568    4002.5744    1265.3574   -2790.6043   -3663.3969    79.689165 
   23700    537.58169   -116.66508   0.48641521   -116.17866   -6216.4311    4.3010939    4.3010939    4.3010939   -6216.4311   -2616.7207   -12509.729   -3522.8432    5848.0461    4495.2645    14379.596    79.567692 
   23800    332.48672   -116.48079   0.30084097   -116.17995    13773.704    4.2917929    4.2917929    4.2917929    13773.704    30954.506   -880.18477     11246.79    3908.6621   -64.725031    11643.299    79.052618 
   23900    918.53552   -117.00447   0.83111024   -116.17336   -6348.6254      4.30401      4.30401      4.30401   -6348.6254   -12741.978   -2755.9407    -3547.958   -6062.9627   -47.216723   -4440.4989     79.72964 
   24000    709.73266   -116.81835   0.64218103   -116.17617   -7641.2392    4.2990721    4.2990721    4.2990721   -7641.2392   -208.58927   -8077.0369   -14638.091    2874.5825    244.84831     -1508.34    79.455538 
   24100    346.24807    -116.4939   0.31329253   -116.18061    217.83084    4.2907681    4.2907681    4.2907681    217.83084    20577.591   -17795.583   -2128.5156    10731.927    3645.5018    21008.016    78.996005 
   24200    775.93804   -116.88026   0.70208505   -116.17818   -13118.334    4.3045656    4.3045656    4.3045656   -13118.334   -20143.877   -11444.824   -7766.3015    1740.4686   -5435.1245    4298.7545    79.760521 
   24300    919.05663    -117.0058   0.83158175   -116.17422   -2085.9316    4.2979653    4.2979653    4.2979653   -2085.9316    -1481.972   -626.37739   -4149.4453     658.8616     -3111.62   -8254.6631    79.394189 
   24400    443.11474   -116.58072   0.40093953   -116.17978    1944.5931    4.2918462    4.2918462    4.2918462    1944.5931    2778.3408   -15531.823    18587.262    3811.0246    4875.8953     7060.325    79.055565 
   24500    461.37016   -116.59729   0.41745742   -116.17983   -9206.4003    4.3069621    4.3069621    4.3069621   -9206.4003   -12894.695   -20978.552    6254.0461    2367.8082    5082.0826    15106.232    79.893814 
   24600    946.30888   -117.02834   0.85624016    -116.1721    7711.2643    4.2943164    4.2943164    4.2943164    7711.2643   -2331.0662    20127.477    5337.3818    -369.7863    8171.1534   -182.66103    79.192149 
   24700    727.40448   -116.83451   0.65817086   -116.17634    577.18157    4.2930191    4.2930191    4.2930191    577.18157    -2101.893   -4867.6592    8701.0968    6197.0423   -3694.6144   -8583.8081      79.1204 
   24800    415.90877   -116.55703   0.37632299    -116.1807   -16389.634    4.3056228    4.3056228    4.3056228   -16389.634    -12503.13     -21625.6   -15040.172    9761.9434    6556.6437    10990.004    79.819308 
   24900    685.92256   -116.79714   0.62063714    -116.1765    8726.5175    4.2952905    4.2952905    4.2952905    8726.5175    623.83585    26516.001   -960.28393    -1186.027    10795.905    10041.977    79.246049 
   25000    1003.8753   -117.07994   0.90832745   -116.17162   -1187.3066    4.2957316    4.2957316    4.2957316   -1187.3066   -9382.4862     16.32534    5804.2409   -5129.2637   -8124.2908   -5898.6649    79.270469 
   25100    439.23934   -116.57601   0.39743299   -116.17858   -5101.5025    4.3018813    4.3018813    4.3018813   -5101.5025   -13065.787   -1050.2057    -1188.515    2085.4094    1818.8188   -982.32181    79.611404 
   25200    559.11025   -116.68451   0.50589471   -116.17861   -2742.5942    4.2981907    4.2981907    4.2981907   -2742.5942   -11044.784    3657.9874   -840.98571     7271.129    4054.1197    13511.263    79.406678 
   25300    934.79554   -117.01889   0.84582265   -116.17307    9899.0483    4.2935899    4.2935899    4.2935899    9899.0483    7396.0815    11303.493     10997.57     1191.284     3691.389    695.35425    79.151963 
   25400    722.14508   -116.83023   0.65341205   -116.17682   -3436.2617    4.2998278    4.2998278    4.2998278   -3436.2617   -16654.195    7749.9638   -1404.5534   -2876.8578    921.73554   -8555.0707    79.497449 
   25500     498.9095   -116.63206    0.4514238   -116.18063   -12339.319    4.3000989    4.3000989    4.3000989   -12339.319   -13828.463    -18265.08   -4924.4151    3904.8937    -3353.603    15149.226    79.512485 
   25600    720.91786   -116.82951   0.65230163   -116.17721    10173.967    4.2931215    4.2931215    4.2931215    10173.967    10303.312    7113.5944    13104.995    126.89893    8510.6175     11910.71    79.126061 
   25700    874.00173    -116.9648   0.79081513   -116.17398     -4616.81     4.303467     4.303467     4.303467     -4616.81   -10453.466   -127.36559   -3269.5985   -4618.8924   -6375.6547   -10664.311    79.699469 
   25800    491.08366   -116.62373   0.44434282   -116.17938   -4546.8308    4.2963793    4.2963793    4.2963793   -4546.8308   -12137.968   -5691.1247    4188.6005    5631.6783   -7451.9989   -81.336005    79.306329 
   25900    574.33556   -116.69869   0.51967088   -116.17902    1972.8143    4.2928969    4.2928969    4.2928969    1972.8143    9771.1425   -4903.7829    1051.0834    7359.6193     1031.072    20160.159    79.113641 
   26000    892.27512    -116.9806   0.80734928   -116.17325   -5014.3563    4.3052745    4.3052745    4.3052745   -5014.3563   -14906.376     8267.915   -8404.6076   -7578.9802   -3600.6923     4528.328    79.799938 
   26100    693.60207   -116.80485   0.62758573   -116.17727    4354.1847    4.2920339    4.2920339    4.2920339    4354.1847   -13.703541    10918.635    2157.6224   -9767.5364   -108.48518   -9386.3644     79.06594 
   26200    458.00992   -116.59534     0.414417   -116.18092   -1555.4091    4.2949732    4.2949732    4.2949732   -1555.4091    662.38996    742.64056   -6071.2579    4963.0408   -5044.7469    5500.2416    79.228487 
   26300     735.5831   -116.84173   0.66557105   -116.17616   -6353.3535    4.3057815    4.3057815    4.3057815   -6353.3535   -16218.545    11125.412   -13966.928    7240.3919    4145.8161    12531.511     79.82813 
   26400    898.94674   -116.98588    0.8133859   -116.17249    12826.185    4.2895684    4.2895684    4.2895684    12826.185    9003.5926    17123.706    12351.257   -7414.7104    2732.5825   -986.74482    78.929764 
   26500    459.50878   -116.59581    0.4157732   -116.18004   -67.274738    4.2981242    4.2981242    4.2981242   -67.274738   -8117.7113    8134.7708   -218.88366   -4918.0602   -8706.6928   -8595.5301    79.402997 
   26600      562.337    -116.6881   0.50881433   -116.17928   -11878.879    4.3032857    4.3032857    4.3032857   -11878.879   -11717.569   -10875.799    -13043.27    4899.5207   -2040.6228    11463.921      79.6894 
   26700    848.26003   -116.94071   0.76752351   -116.17319    10149.712    4.2909542    4.2909542    4.2909542    10149.712    3749.7294    13412.505    13286.903   -2185.7881   -3682.4692    5735.5007    79.006283 
   26800    655.10174   -116.76947   0.59274982   -116.17672   -4332.5143    4.3005982    4.3005982    4.3005982   -4332.5143   -5456.1833   -1550.9523   -5990.4072   -7212.0707    291.84421   -7488.4421    79.540184 
   26900    507.48682   -116.63713   0.45918474   -116.17795   -12258.392    4.2992387    4.2992387    4.2992387   -12258.392   -13418.928   -13578.144   -9778.1056    1004.3017   -4886.0946     9274.988    79.464776 
   27000    637.81702   -116.75244   0.57711024   -116.17533    2889.8105    4.2959614    4.2959614    4.2959614    2889.8105   -35.191695    9831.2959   -1126.6728    5480.3448   -3461.7139    11162.973    79.283187 
   27100    845.93138    -116.9387   0.76541649   -116.17328   -9941.7435    4.2996523    4.2996523    4.2996523   -9941.7435   -17576.586   -5422.3546   -6826.2896   -14430.109    9875.6603   -4497.9985    79.487716 
   27200    464.94943   -116.59898   0.42069601   -116.17828    2091.7136    4.2941786    4.2941786    4.2941786    2091.7136   -8372.2216    4392.1829    10255.179   -9972.0753   -4510.8152   -5981.9118    79.184526 
   27300    645.53359   -116.76154   0.58409236   -116.17745   -10825.713    4.3013888    4.3013888    4.3013888   -10825.713   -13848.267   -2849.9237   -15778.948    11426.416   -4946.9227    10698.774     79.58406 
   27400    802.23196   -116.89949   0.72587633   -116.17362    945.83848    4.2965299    4.2965299    4.2965299    945.83848   -11462.532    12518.091    1781.9563   -1589.7192    6337.0621    10118.458    79.314667 
   27500    587.96399   -116.70837   0.53200218   -116.17637    4818.1705    4.2935245    4.2935245    4.2935245    4818.1705   -16498.695    21900.061     9053.146   -11784.369     1224.606   -6775.3535    79.148347 
   27600     567.1875   -116.69034   0.51320317   -116.17714   -10142.681    4.3044514    4.3044514    4.3044514   -10142.681   -5353.5461   -4324.4085   -20750.089   -4088.3956   -3292.4991    217.00065    79.754177 
   27700    758.89594   -116.86052     0.686665   -116.17385    9967.0063    4.2929754    4.2929754    4.2929754    9967.0063    6294.8717    24206.505   -600.35748    2617.6565   -4274.8033    6138.4505    79.117983 
   27800    759.99855   -116.86372   0.68766266   -116.17606    1418.6292     4.295867     4.295867     4.295867    1418.6292   -8966.4319    16364.284   -3141.9651   -4623.4442     12700.17    2231.3404    79.277962 
   27900    473.89025   -116.60759   0.42878586   -116.17881   -8929.9861    4.3041667    4.3041667    4.3041667   -8929.9861   -8671.6201    1447.8472   -19566.185   -11319.871    7514.6344   -5440.0975    79.738352 
   28000    714.29673   -116.82184    0.6463107   -116.17552     8315.619     4.290585     4.290585     4.290585     8315.619    9200.8599    17394.687   -1648.6894    4387.5839   -4927.9773   -4264.0374     78.98589 
   28100      921.385    -117.0084   0.83368851   -116.17471   -1200.2175    4.2998252    4.2998252    4.2998252   -1200.2175   -5153.8235    9920.9193   -8367.7483   -2346.4518    5196.8214    4817.7316    79.497304 
   28200     553.0409   -116.67871   0.50040302    -116.1783   -9318.5828    4.3036355    4.3036355    4.3036355   -9318.5828   -20707.105    9299.4788   -16548.122   -10393.683    7655.1594   -7351.8365    79.708832 
   28300    539.41835   -116.66534   0.48807706   -116.17726    2200.1655    4.2914004    4.2914004    4.2914004    2200.1655    7544.2303   -166.64322    -777.0906   -3315.4577    1361.4727   -5099.6917    79.030934 
   28400    951.05456   -117.03443   0.86053415   -116.17389     -421.387    4.2984096    4.2984096    4.2984096     -421.387   -24.500017    5683.5044   -6923.1653    3999.5361   -2838.4094    8599.3817    79.418811 
   28500    754.02115   -116.85854   0.68225418   -116.17628   -487.40659     4.301111     4.301111     4.301111   -487.40659   -5458.6664    14709.533   -10713.087   -4442.9679    8704.9346   -742.29709    79.568641 
   28600    464.69066   -116.60101   0.42046187   -116.18055   -4130.6887    4.2957123    4.2957123    4.2957123   -4130.6887    -10595.52    5097.4278   -6893.9741   -21789.722    9518.9467   -8772.5791      79.2694 
   28700    755.48599   -116.86191    0.6835796   -116.17833    1834.4009    4.2976408    4.2976408    4.2976408    1834.4009   -2116.1054     6825.784     793.5241    2307.0395   -5554.6156   -6502.4404    79.376207 
   28800     1048.509   -117.12205   0.94871294   -116.17333   -305.47931    4.3008421    4.3008421    4.3008421   -305.47931   -4335.8996    13656.777   -10237.315    6959.5709    2421.4226    2029.4138    79.553719 
   28900    662.88785    -116.7798   0.59979486      -116.18   -7259.6806    4.2959564    4.2959564    4.2959564   -7259.6806   -26517.652    6831.7269   -2093.1166   -10967.943    10851.478    2586.3729    79.282912 
   29000    525.24246   -116.65691   0.47525042   -116.18166    707.08697    4.2944184    4.2944184    4.2944184    707.08697   -8514.2228    1310.5825    9324.9013   -10353.581    3014.4614   -7744.6199    79.197789 
   29100    1040.2807   -117.11695    0.9412678   -116.17568   -3802.4294     4.304421     4.304421     4.304421   -3802.4294    5036.5052   -459.55094   -15984.242   -2325.6665   -3406.7002   -2748.1667    79.752485 
   29200    870.24101   -116.96477   0.78741235   -116.17735    2845.3381    4.2956583    4.2956583    4.2956583    2845.3381   -9560.4631    16699.573     1396.904   -1311.1843    -957.7503    634.04811    79.266409 
   29300    467.91302   -116.60522   0.42337754   -116.18184    3033.8121    4.2928075    4.2928075    4.2928075    3033.8121   -8999.8515    12814.667    5286.6207   -15794.292    6808.9083   -5435.0758    79.108698 
   29400    782.47608   -116.88601    0.7080008   -116.17801   -8744.3244    4.3076886    4.3076886    4.3076886   -8744.3244   -4577.1605    916.35596   -22572.169   -5708.7664    3018.0701    -9694.432    79.934248 
   29500    1049.7051   -117.12217   0.94979522   -116.17237    7706.2497     4.293657     4.293657     4.293657    7706.2497    328.38851    21121.329     1669.032    3757.2579   -9788.1364   -561.00895    79.155672 
   29600    743.64552   -116.85195    0.6728661   -116.17909   -2604.8775     4.293649     4.293649     4.293649   -2604.8775   -17082.799    16060.133   -6791.9665   -6624.3215   -1410.3125   -1254.0871     79.15523 
   29700    634.43415   -116.75407   0.57404935   -116.18002   -11925.265    4.3068769    4.3068769    4.3068769   -11925.265   -13721.475   -4290.2222   -17764.097   -12179.161    11509.022    -8363.946    79.889072 
   29800    1026.5447   -117.10262   0.92883926   -116.17379    9322.0116    4.2926757    4.2926757    4.2926757    9322.0116    13501.105    17839.035   -3374.1053   -1547.5963   -1549.8466   -4780.2911    79.101411 
   29900    916.16908    -117.0045   0.82896903   -116.17553    5741.0129    4.2943653    4.2943653    4.2943653    5741.0129    498.57819    16928.658   -204.19762     3367.282   -5614.4116    4691.6729    79.194851 
   30000    563.05969   -116.68991   0.50946824   -116.18044    88.598601    4.3033877    4.3033877    4.3033877    88.598601    -1468.809    14374.018   -12639.414   -14468.105    2666.6044     3460.412    79.695064 
   30100    866.52803   -116.96055   0.78405277   -116.17649    7961.1788    4.2960388    4.2960388    4.2960388    7961.1788    10661.785    9128.1766    4093.5751   -9633.8067    4424.0174   -4294.9819    79.287475 
   30200    964.20695   -117.04608   0.87243471   -116.17364    14662.305     4.293426     4.293426     4.293426    14662.305    9850.7991    15637.381    18498.735    6056.2842   -7369.3133   -945.11947    79.142897 
   30300    761.79709   -116.86754   0.68929001   -116.17825   -4580.5563    4.3017229    4.3017229    4.3017229   -4580.5563   -6929.8679    7162.3677   -13974.169   -1900.5233     -7151.45     2343.347    79.602606 
   30400    727.16746   -116.83683    0.6579564   -116.17887   -445.58874    4.2980862    4.2980862    4.2980862   -445.58874   -12836.784   -4319.0104    15819.029   -14993.902    9542.2838   -2004.0094    79.400889 
   30500    983.13309   -117.06482   0.88955948   -116.17526    6390.4185     4.292032     4.292032     4.292032    6390.4185    9100.7031   -785.31703    10855.869   -5129.3165   -1146.0345   -5792.0349    79.065833 
   30600    842.81124   -116.94045   0.76259332   -116.17786    -7319.408    4.3014777    4.3014777    4.3014777    -7319.408    -7908.322   -1871.8372   -12178.065    9453.8888   -16509.231    417.33226    79.588993 
   30700    613.25747   -116.73476   0.55488825   -116.17988   -4505.8775    4.2994973    4.2994973    4.2994973   -4505.8775   -19214.335    3918.2874    1778.4151   -13443.553    908.78397    3148.6499    79.479116 
   30800    840.41098   -116.93632   0.76042151    -116.1759    3599.6835    4.2940729    4.2940729    4.2940729    3599.6835    485.74802    8739.6181    1573.6843    -14253.43     11596.47    811.15718    79.178675 
   30900    880.11318   -116.97091    0.7963449   -116.17457   -5116.6806    4.3012467    4.3012467    4.3012467   -5116.6806   -7132.9017    3008.8837   -11226.024    7121.8566   -10228.959   -2964.2693    79.576175 
   31000    632.28702   -116.75041   0.57210658   -116.17831   -3366.1042    4.2964452    4.2964452    4.2964452   -3366.1042   -15825.263    4600.6342     1126.316    1553.1627   -17456.773   -3137.0433    79.309979 
   31100    745.58393   -116.85252   0.67462001    -116.1779   -771.53401    4.2946676    4.2946676    4.2946676   -771.53401   -8426.6332    342.19055    5769.8406   -14943.095    7606.4907    2723.5024     79.21158 
   31200    907.00986   -116.99548   0.82068158    -116.1748   -5409.0235     4.302429     4.302429     4.302429   -5409.0235    5244.7245   -9687.2441   -11784.551   -3815.3626    2474.4237    3687.6957    79.641811 
   31300    723.45908   -116.83088   0.65460098   -116.17628    1344.0597    4.2952368    4.2952368    4.2952368    1344.0597   -4980.2717   -2496.9215    11509.372    9705.5972   -16468.281    124.64373    79.243075 
   31400    626.81323   -116.74516   0.56715379     -116.178    1827.5773    4.2954618    4.2954618    4.2954618    1827.5773   -1519.0078   -167.87228     7169.612   -5253.8202    -3731.135   -2543.9914    79.255532 
   31500    763.58343   -116.86722   0.69090633   -116.17631    2905.2554     4.302409     4.302409     4.302409    2905.2554    7513.6691    2828.3618   -1626.2646   -12621.361    7858.3189    256.65697    79.640704 
   31600    787.40557   -116.88721   0.71246111   -116.17475    13246.257     4.293287     4.293287     4.293287    13246.257    5948.8605    14874.172     18915.74    5412.9612   -8853.0339    3219.6777     79.13521 
   31700       573.13    -116.6967   0.51858007   -116.17812     6160.518    4.2985442    4.2985442    4.2985442     6160.518    664.63519    13530.005    4286.9139    5363.0712   -15630.263    1646.8204    79.426276 
   31800    728.17548   -116.83353   0.65886848   -116.17466    250.32529    4.3016627    4.3016627    4.3016627    250.32529   -3715.9328    227.62971     4239.279   -10028.251    4513.4497    2870.1287    79.599266 
   31900    844.36005   -116.93593   0.76399471   -116.17194     9489.047    4.2922821    4.2922821    4.2922821     9489.047    7613.1822    2259.3951    18594.564   -4794.0374    913.54892    1323.2936    79.079658 
   32000    632.80962   -116.74867   0.57257945   -116.17609   -8425.0523    4.3026021    4.3026021    4.3026021   -8425.0523   -7970.6769   -4439.6898    -12864.79    10585.124   -21126.471   -740.28082    79.651427 
   32100    628.94656   -116.74545   0.56908407   -116.17637   -351.65889    4.2971042    4.2971042    4.2971042   -351.65889    -10439.47    5700.0829    3684.4107   -954.63087   -9889.9326   -3464.7665     79.34648 
   32200    808.43081   -116.90532   0.73148518   -116.17383    1060.0643    4.2963183    4.2963183    4.2963183    1060.0643   -752.55353   -625.13547    4557.8819   -13715.116    9135.7833     773.0813     79.30295 
   32300    566.11541   -116.68709   0.51223312   -116.17486   -12198.899    4.3053618    4.3053618    4.3053618   -12198.899   -12290.031     196.0659   -24502.731   -3577.4516   -13687.352    6744.2711     79.80479 
   32400    534.15374   -116.65868   0.48331353   -116.17537     789.4089    4.2916212    4.2916212    4.2916212     789.4089   -12162.552    23600.835   -9070.0555     7096.561   -24569.061    264.31994    79.043131 
   32500    736.71055    -116.8414   0.66659119   -116.17481   -4567.2485    4.2979882    4.2979882    4.2979882   -4567.2485   -6438.6866   -7254.6983   -8.3605454   -8090.8949     4943.452   -7229.2737     79.39546 
   32600    658.01258   -116.77057   0.59538361   -116.17519   -16180.751    4.3031328    4.3031328    4.3031328   -16180.751   -14512.808   -18058.835   -15970.608   -10254.009   -3544.4255    2925.9383    79.680901 
   32700    491.66344   -116.62228   0.44486741   -116.17741   -6983.0056    4.2921043    4.2921043    4.2921043   -6983.0056   -11885.941    5863.4672   -14926.543    2254.0913   -30233.598    9401.7279    79.069831 
   32800    680.45024   -116.79257   0.61568567   -116.17688   -4636.2946    4.2983937    4.2983937    4.2983937   -4636.2946   -7938.2295   -7945.9256    1975.2713   -833.60256   -4102.7933   -125.27851     79.41793 
   32900    849.71339   -116.94324   0.76883853    -116.1744   -8339.8861    4.2991169    4.2991169    4.2991169   -8339.8861   -3398.6602   -18478.655    -3142.343   -4040.8198    6031.9116   -8019.8052    79.458022 
   33000    424.26984   -116.56346   0.38388827   -116.17957   -439.87447    4.2951139    4.2951139    4.2951139   -439.87447   -8782.3033    24062.696   -16600.016   -2890.3246   -23962.434    4480.2273    79.236273 
   33100    534.92282   -116.66373   0.48400941   -116.17972    -5271.538    4.2993007    4.2993007    4.2993007    -5271.538   -2621.6367    3533.9232     -16726.9    1497.1514   -19176.078    9310.8063    79.468214 
   33200    842.92037   -116.93628   0.76269206   -116.17359    10446.233    4.2951127    4.2951127    4.2951127    10446.233    19298.895    7944.0513    4095.7522   -3791.4687    7274.8938    -2781.487    79.236209 
   33300    641.26039    -116.7574   0.58022587   -116.17717   -1910.2548    4.2995377    4.2995377    4.2995377   -1910.2548    1019.0544    6078.3541   -12828.173   -7629.8927   -11671.733   -2660.6364     79.48136 
   33400    426.03672   -116.56616   0.38548698   -116.18067   -9639.2466     4.297851     4.297851     4.297851   -9639.2466   -120.85405   -5318.0741   -23478.812    108.46251   -27826.241    7314.8048    79.387853 
   33500    737.84972   -116.84529   0.66762193   -116.17767    8924.4756    4.2941155    4.2941155    4.2941155    8924.4756    21450.171    2444.0883    2879.1678    2597.5189   -3288.2944     5196.983    79.181034 
   33600    920.47967   -117.00681   0.83286935   -116.17394    -5878.981    4.3044685    4.3044685    4.3044685    -5878.981    4637.3966    -16423.24   -5851.0996    2101.2424    5091.5299   -3850.7113    79.755124 
   33700    528.24747    -116.6564   0.47796941   -116.17843   -1047.3737    4.2943752    4.2943752    4.2943752   -1047.3737     3001.072    4468.8818   -10612.075   -5722.9127   -21960.164     632.9451    79.195398 
   33800    519.72922   -116.65107   0.47026192   -116.18081    358.81878    4.2979226    4.2979226    4.2979226    358.81878    12627.073   -2284.2243   -9266.3921   -6246.7546   -17311.024    12467.173     79.39182 
   33900    895.00119   -116.98308   0.80981588   -116.17327    2530.6662    4.3026341    4.3026341    4.3026341    2530.6662     13842.39   -7180.0423     929.6508    936.12271    8239.9714    298.97327    79.653202 
   34000     693.2989   -116.80178   0.62731142   -116.17447    10906.012    4.2929582    4.2929582    4.2929582    10906.012    17560.278    12970.083    2187.6747   -4245.4994   -12232.635   -6100.5969     79.11703 
   34100    449.76879    -116.5876   0.40696025   -116.18064   -9771.4562    4.3020174    4.3020174    4.3020174   -9771.4562   -13932.155    3641.5687   -19023.782   -3316.2458    -24650.73    8168.2932    79.618958 
   34200    768.14074   -116.87187   0.69502988   -116.17684    750.03312    4.2966117    4.2966117    4.2966117    750.03312    8845.8986    2458.0968   -9053.8961   -3019.2331   -2711.4431    12577.422    79.319199 
   34300    894.71643   -116.98382   0.80955823   -116.17426    9999.0285    4.2951021    4.2951021    4.2951021    9999.0285    18771.239     3461.143    7764.7035     -3834.51    4024.8048   -4118.7257    79.235626 
   34400    670.80651   -116.78457   0.60695982   -116.17761   -18067.657    4.3054523    4.3054523    4.3054523   -18067.657   -27232.508   -3472.7043    -23497.76    1190.6386   -24851.622   -8158.9055    79.809824 
   34500    624.55977    -116.7419   0.56511481   -116.17679    4734.1025    4.2907926    4.2907926    4.2907926    4734.1025    10822.145    16431.532    -13051.37    1182.4934   -17903.145    10029.137    78.997358 
   34600    925.75989   -117.01203     0.837647   -116.17438    2045.6959    4.3006955    4.3006955    4.3006955    2045.6959    14877.228    -5279.601   -3460.5393    1323.5846    9881.8687     10575.61    79.545585 
   34700     870.6416    -116.9625   0.78777482   -116.17472   -11194.471    4.3023841    4.3023841    4.3023841   -11194.471    -14955.87   -423.05618   -18204.488    -416.3661   -15694.588   -2918.8207    79.639321 
   34800    543.56967   -116.66873   0.49183326    -116.1769    9528.9845    4.2876934    4.2876934    4.2876934    9528.9845    3649.7541     39742.44   -14805.241   -3845.9888   -28589.818   -569.50294    78.826306 
   34900    824.36363   -116.92338   0.74590154   -116.17748   -11061.364    4.3043278    4.3043278    4.3043278   -11061.364   -8096.2259   -4632.1952   -20455.672    123.69268    498.24336    11390.257    79.747303 
   35000    819.75162   -116.91746   0.74172849   -116.17574    2058.8287     4.298154     4.298154     4.298154    2058.8287    1629.4504    4435.1491    111.88657   -3189.4757    1217.1557    4761.0831    79.404647 
   35100    606.78115   -116.72548   0.54902834   -116.17645    5298.4061    4.2911446    4.2911446    4.2911446    5298.4061   -10317.122    35038.729   -8826.3885   -580.97376   -26599.953    -6824.863    79.016805 
   35200    754.61412   -116.85794   0.68279072   -116.17515   -15073.842    4.3042166    4.3042166    4.3042166   -15073.842   -24762.678    -946.0502   -19512.797   -2694.4081   -12428.478     5066.779    79.741127 
   35300    800.97305   -116.89805   0.72473725   -116.17332    6396.2789     4.295428     4.295428     4.295428    6396.2789    9855.7963   -7977.9886    17311.029   -3223.4858    8170.3032    14861.523    79.253663 
   35400    727.17435   -116.83365   0.65796263   -116.17569   -2750.1137    4.2948774    4.2948774    4.2948774   -2750.1137   -12375.212     16843.69   -12718.819    5224.7368   -16497.163     954.2319    79.223186 
   35500    671.32809   -116.78499   0.60743176   -116.17756   -9994.9625    4.3000029    4.3000029    4.3000029   -9994.9625   -27251.447    8407.3815   -11140.822   -964.14199   -20455.887    -10214.74     79.50716 
   35600    803.15426   -116.90236   0.72671086   -116.17565    1362.9385    4.2963865    4.2963865    4.2963865    1362.9385    3779.6453   -8177.8024    8486.9725    -4169.419    1291.7112    7692.0359     79.30673 
   35700    819.01165   -116.91605   0.74105895   -116.17499   -968.92395    4.2969164    4.2969164    4.2969164   -968.92395   -5219.1376    5123.9131   -2811.5474   -1318.4267   -4432.8521    14654.711    79.336077 
   35800    556.34636   -116.68175   0.50339388   -116.17835   -172.71611    4.2962758    4.2962758    4.2962758   -172.71611   -15873.759    13876.546    1479.0642   -131.06497   -21818.307   -4058.4792    79.300597 
   35900    669.09376   -116.78417    0.6054101   -116.17876   -4486.0088    4.2990976    4.2990976    4.2990976   -4486.0088   -11503.482    8447.1417   -10401.686    3856.3137   -4953.9128    -6908.394    79.456954 
   36000    861.94093    -116.9548   0.77990227    -116.1749    3983.7339    4.2958488    4.2958488    4.2958488    3983.7339    680.37372    12167.955    -897.1268   -4038.6406    9963.3509    6359.8633    79.276954 
   36100    634.69301   -116.75168   0.57428357    -116.1774     5291.362    4.2955345    4.2955345    4.2955345     5291.362    4929.4432    9246.1779     1698.465    2325.6809   -16867.118     7717.018    79.259558 
   36200    520.88855   -116.65121    0.4713109    -116.1799    -8977.953    4.2996114    4.2996114    4.2996114    -8977.953   -25363.093    17414.548   -18985.314    2626.4152   -19248.176   -3910.7098    79.485448 
   36300    719.97722   -116.82876   0.65145052   -116.17731    4645.5416    4.2939083    4.2939083    4.2939083    4645.5416    2857.9538    14580.261   -3501.5894    -1947.945    10152.572   -3388.2516    79.169573 
   36400    799.59127   -116.89925   0.72348699   -116.17576    3476.1737    4.2978477    4.2978477    4.2978477    3476.1737    5972.1326    2522.9152    1933.4732    4513.9068    2311.8909    4622.2832    79.387673 
   36500    533.83718   -116.66268    0.4830271   -116.17965   -3587.8298     4.297914     4.297914     4.297914   -3587.8298    -17736.49    11876.379   -4903.3787   -4338.4939   -27643.929    1441.9934    79.391344 
   36600    524.23629    -116.6543   0.47434001   -116.17996   -1274.0566    4.2934167    4.2934167    4.2934167   -1274.0566   -4787.3644    14113.218   -13148.023    761.23043   -9900.4793   -3881.1324    79.142385 
   36700    793.94077   -116.89505   0.71837429   -116.17667   -4539.6464    4.2998566    4.2998566    4.2998566   -4539.6464   -4686.6705    2251.2358   -11183.505   -854.68349    16834.615   -4982.0324    79.499048 
   36800     652.2145   -116.76657   0.59013738   -116.17644    2647.1743    4.2966008    4.2966008    4.2966008    2647.1743    2923.3422    5391.4122    -373.2314   -2620.4432    -11987.88      2506.64    79.318593 
   36900    566.46891   -116.69103   0.51255298   -116.17847   -6897.5452    4.2926627    4.2926627    4.2926627   -6897.5452    -21727.73    17380.621   -16345.526    4131.6563   -27754.824   -461.72827    79.100696 
   37000    541.48867   -116.66962   0.48995033   -116.17967   -5352.4795    4.3001569    4.3001569    4.3001569   -5352.4795   -5035.4132    5499.8784   -16521.904   -2551.0715    8775.5095   -9260.9696    79.515701 
   37100    700.02638   -116.80962   0.63339858   -116.17622   -3138.9081    4.2981043    4.2981043    4.2981043   -3138.9081   -1426.7447   -157.29917   -7832.6805   -1342.2589    9446.6363   -4275.5307    79.401889 
   37200       635.72    -116.7519   0.57521282   -116.17669    75.559024    4.2912011    4.2912011    4.2912011    75.559024   -13248.848     17164.82   -3689.2955   -265.10311   -27033.636     2741.349    79.019925 
   37300    499.67886   -116.63106   0.45211993   -116.17894   -3928.5151    4.2994628    4.2994628    4.2994628   -3928.5151   -5324.1757    11190.431   -17651.801   -2458.3458    -11156.35   -244.02027    79.477207 
   37400     675.6818   -116.78783   0.61137109   -116.17646   -9695.3287    4.3005001    4.3005001    4.3005001   -9695.3287   -12540.526   -2019.3708    -14526.09    3931.4282    21084.577   -7349.6504    79.534743 
   37500    560.92422   -116.68416   0.50753602   -116.17662    9436.2714    4.2894193    4.2894193    4.2894193    9436.2714    13760.103    14483.769    64.941963    -1806.807   -2838.3653   -3373.1922    78.921534 
   37600    620.44835   -116.74013   0.56139471   -116.17874   -2529.5185    4.2974878    4.2974878    4.2974878   -2529.5185   -13850.542    18168.941   -11906.954   -754.81914   -28111.996    2338.4271     79.36773 
   37700    590.55627   -116.71154   0.53434772   -116.17719   -6432.1471    4.3027499    4.3027499    4.3027499   -6432.1471   -2213.9438   -3735.5973     -13346.9    2089.0603    2998.9257   -3895.9606    79.659636 
   37800    542.26452   -116.66689   0.49065234   -116.17624    4667.1732    4.2907037    4.2907037    4.2907037    4667.1732     13140.86    8808.4595   -7947.8002   -5350.7803    20657.138   -7164.0059    78.992449 
   37900    554.86575   -116.67988   0.50205419   -116.17783    790.73647    4.2952384    4.2952384    4.2952384    790.73647   -2076.6529    14386.659   -9937.7962    3219.9432   -13777.517   -1987.7115    79.243169 
   38000    669.69561   -116.78187   0.60595467   -116.17591   -10174.668    4.3025645    4.3025645    4.3025645   -10174.668    -4901.952   -3124.3428    -22497.71    686.76314   -21362.649    1892.4151    79.649339 
   38100    572.28818   -116.69498   0.51781837   -116.17716   -5635.6542    4.2920381    4.2920381    4.2920381   -5635.6542    786.45751   -727.67956   -16965.741    1319.1783    11805.089    -3656.922    79.066171 
   38200    402.14732   -116.54456   0.36387135   -116.18069   -951.63831    4.2941998    4.2941998    4.2941998   -951.63831    9777.5644   -699.64319   -11932.836    4844.9516     13664.28   -9182.9051    79.185697 
   38300    737.92575   -116.84423   0.66769073   -116.17654   -14043.334    4.3020948    4.3020948    4.3020948   -14043.334   -22163.594   -246.73951   -19719.669   -4153.0318   -13630.394    2703.4849    79.623253 
   38400    620.20106    -116.7367   0.56117095   -116.17552   -1673.3854    4.2943807    4.2943807    4.2943807   -1673.3854    5577.0152   -5092.7768   -5504.3945    6692.6046   -7331.4883    1957.2437    79.195704 
   38500      393.073   -116.53538   0.35566071   -116.17972   -6601.0136    4.2936594    4.2936594    4.2936594   -6601.0136   -1204.0623   -10988.715   -7610.2632    6697.6738    15276.791   -7396.5642    79.155807 
   38600    541.10402   -116.67014   0.48960228   -116.18054   -7292.2966    4.2991036    4.2991036    4.2991036   -7292.2966   -8734.3225    241.41667   -13383.984   -4912.1566    7074.5531   -5503.2869    79.457288 
   38700    765.99647   -116.86877   0.69308971   -116.17568    1736.1954    4.2968437    4.2968437    4.2968437    1736.1954    1792.2459    761.43766    2654.9028    6807.9834   -8661.8702    845.78377     79.33205 
   38800    554.86015   -116.68138   0.50204912   -116.17933   -3317.1258    4.2933877    4.2933877    4.2933877   -3317.1258    -2956.752   -7600.2643    605.63875    367.30824    2795.4961   -1199.0201    79.140778 
   38900    273.56831   -116.43106   0.24753035   -116.18353   -5887.7311     4.298225     4.298225     4.298225   -5887.7311    8338.4874   -3738.6323   -22263.048   -1028.7488    19886.584   -10192.069    79.408584 
   39000    696.12457   -116.80818   0.62986814   -116.17831   -3517.7713    4.2992762    4.2992762    4.2992762   -3517.7713   -15244.754    12193.102   -7501.6618    941.11728    6717.5753   -748.58359    79.466857 
   39100    789.14693    -116.8889   0.71403673   -116.17486    6346.6787    4.2926151    4.2926151    4.2926151    6346.6787    12473.012   -1385.3898    7952.4139   -1646.9298   -7152.3632    4969.3911    79.098062 
   39200     378.3682   -116.52505    0.3423555    -116.1827   -6329.1922    4.2960326    4.2960326    4.2960326   -6329.1922   -1801.6174    111.35591   -17297.315    6074.8067    13508.072   -3195.7456    79.287134 
   39300    312.40162   -116.46706   0.28266755    -116.1844   -5518.5764    4.3011889    4.3011889    4.3011889   -5518.5764   -16554.079    13829.422   -13831.073   -4890.1629    20648.665   -6408.7339    79.572968 
   39400    804.14939   -116.90282   0.72761127   -116.17521    7430.6619    4.2939785    4.2939785    4.2939785    7430.6619    8824.9655    4247.5764    9219.4439   -190.73728   -1797.0303    -2762.703    79.173456 
   39500    742.52145     -116.849   0.67184901   -116.17715   -175.84447    4.2942714    4.2942714    4.2942714   -175.84447   -11115.233    7138.0936    3449.6056    7478.4017   -2587.9532    1876.6016    79.189655 
   39600    194.15916   -116.35957   0.17567929   -116.18389   -4581.0201    4.3010546    4.3010546    4.3010546   -4581.0201   -10650.702    5760.2454   -8852.6036    1543.0247    24418.175    -4959.041    79.565514 
   39700    585.82006   -116.70902    0.5300623   -116.17895   -6615.6474    4.2964836    4.2964836    4.2964836   -6615.6474   -15168.379     5482.358   -10160.921   -5.3002306    16189.607   -5947.2734    79.312102 
   39800    781.83571   -116.88242   0.70742138     -116.175    7723.0892    4.2920559    4.2920559    4.2920559    7723.0892   -272.04881    10956.971    12484.346   -1408.8336   -11686.984    3551.6757    79.067157 
   39900    495.90103   -116.62914   0.44870167   -116.18044   -2166.9623    4.2991005    4.2991005    4.2991005   -2166.9623   -15920.595     9696.302   -276.59402    7615.0102    3621.2494    -3364.603    79.457117 
   40000    371.12869   -116.51695   0.33580504   -116.18115   -11151.654    4.3012595    4.3012595    4.3012595   -11151.654   -8506.0054   -1731.6373   -23217.318    545.65083    21702.176   -7405.6672    79.576886 
   40100    612.35324    -116.7306   0.55407008   -116.17653    10872.096    4.2889071    4.2889071    4.2889071    10872.096    974.02763    19125.317    12516.942   -4227.7884    3010.2886   -2884.7675    78.893264 
   40200    731.11971     -116.839   0.66153248   -116.17747    1796.8182    4.2977528    4.2977528    4.2977528    1796.8182   -4163.5024    8924.9639    628.99304    6526.8702   -9476.3641    2647.3052    79.382413 
   40300    382.49185   -116.52555   0.34608666   -116.17946   -12375.936    4.3062193    4.3062193    4.3062193   -12375.936   -4710.5269   -11649.235   -20768.047    1652.3529    13148.428   -2444.9343    79.852482 
   40400    512.10617   -116.63976   0.46336442    -116.1764    8325.6245    4.2828614    4.2828614    4.2828614    8325.6245   -6046.8364    19359.405    11664.305    2194.2389    15276.632   -10714.287    78.560108 
   40500    695.60331   -116.81037    0.6293965   -116.18097   -1166.2765    4.2984042    4.2984042    4.2984042   -1166.2765    398.01071    3196.1187   -7092.9589   -2900.5712   -11311.877   -905.67361    79.418512 
   40600    529.12735   -116.65631   0.47876555   -116.17755   -21348.487    4.3093879    4.3093879    4.3093879   -21348.487   -32442.489   -13427.211    -18175.76    6391.6764   -6312.6749    1207.8603    80.028882 
   40700    425.33207    -116.5591   0.38484939   -116.17425     8653.443    4.2776219    4.2776219    4.2776219     8653.443   -4822.2897     19476.69    11305.929    8415.8436    23159.549   -7744.6779    78.272135 
   40800    631.58261   -116.75169   0.57146921   -116.18022   -16309.513    4.3028924    4.3028924    4.3028924   -16309.513   -26449.569   -27.026448   -22451.945   -4668.5188    3299.5175   -4679.5779    79.667549 
   40900    604.70606   -116.72445   0.54715075    -116.1773   -17461.747    4.3054544    4.3054544    4.3054544   -17461.747   -28865.882   -2937.8692   -20581.489    2278.4434    -24277.86    1886.4251    79.809939 
   41000    502.81877   -116.62742   0.45496099   -116.17246    13836.033    4.2747212    4.2747212    4.2747212    13836.033   -1208.1072    25888.483    16827.724    9362.4021    4519.5416   -1229.4591    78.113012 
   41100    484.52797    -116.6181   0.43841109   -116.17969   -16121.218    4.3077818    4.3077818    4.3077818   -16121.218   -16731.638     -5942.92   -25689.096    4832.3852    19507.705   -8691.5489    79.939439 
   41200    656.86264   -116.77036   0.59434312   -116.17602   -4309.6452    4.2995914    4.2995914    4.2995914   -4309.6452   -13896.816    5808.2697   -4840.3889   -3940.8902   -6585.9712   -2688.5939    79.484338 
   41300    555.30853    -116.6735   0.50245483   -116.17105    21740.978    4.2789642    4.2789642    4.2789642    21740.978    10441.393    24290.918    30490.623     6101.995   -16905.062    2094.2765    78.345842 
   41400    487.91525   -116.61744   0.44147598   -116.17597   -14888.171    4.3067623    4.3067623    4.3067623   -14888.171   -25581.473   -10318.165   -8764.8758    9735.6432     10117.79   -1534.4402    79.882694 
   41500    582.35359   -116.70228   0.52692577   -116.17536     5755.931    4.2930102    4.2930102    4.2930102     5755.931   -15448.762    15279.669    17436.887    -2289.169    11995.282   -5189.4525    79.119904 
   41600    623.66989   -116.73959   0.56430962   -116.17528    7746.7469    4.2902507    4.2902507    4.2902507    7746.7469    547.33765    12772.836    9920.0672    -5005.082   -11816.414   -754.13429    78.967432 
   41700    532.77812   -116.65874   0.48206884   -116.17667   -9756.8616    4.3011108    4.3011108    4.3011108   -9756.8616   -28889.238   -3276.6101    2895.2635    8700.1771    -8693.763   -98.086477     79.56863 
   41800    539.73317   -116.66484   0.48836192   -116.17648    1665.6828    4.2899487    4.2899487    4.2899487    1665.6828   -24141.561    21935.894     7202.716    10421.054    12726.865   -5109.7329    78.950757 
   41900    623.06223    -116.7412   0.56375979   -116.17744   -9635.0286    4.2991812    4.2991812    4.2991812   -9635.0286   -20956.029    16.048815   -7965.1052   -7010.3011    2806.0959   -6725.1067    79.461591 
   42000    593.11467   -116.71508   0.53666262   -116.17842   -1609.5703    4.2929292    4.2929292    4.2929292   -1609.5703       -17541    10556.424    2155.8655    -1974.542   -18084.705   -221.93408    79.115428 
   42100    560.66447   -116.68626   0.50730099   -116.17896   -2510.2914    4.2916612    4.2916612    4.2916612   -2510.2914   -34770.555    18815.842    8423.8392     17693.66    2191.6121    1637.2777    79.045345 
   42200    574.12799   -116.69652   0.51948307   -116.17704   -16253.176    4.3044591    4.3044591    4.3044591   -16253.176   -28225.264   -10579.181   -9955.0824    4909.4748     11070.64   -9272.8119    79.754605 
   42300    669.47937   -116.78091     0.605759   -116.17515    8120.1376    4.2867317    4.2867317    4.2867317    8120.1376    1174.3136    21533.526    1652.5738   -8018.7238   -6171.9183    -4407.551    78.773278 
   42400    568.81426    -116.6933    0.5146751   -116.17863    2232.0004    4.2937065    4.2937065    4.2937065    2232.0004   -19961.288    10596.653    16060.636    7655.3052   -10165.586    2565.1692    79.158411 
   42500    518.99592   -116.64782   0.46959841   -116.17822    -11912.82    4.3041011    4.3041011    4.3041011    -11912.82   -20720.012   -13863.639   -1154.8079    15433.349     4053.335   -3269.4568    79.734705 
   42600     750.7981   -116.85378    0.6793379   -116.17444    7063.7646    4.2854687    4.2854687    4.2854687    7063.7646   -4316.4252     15321.36    10186.359   -613.35677    3937.3043   -4773.0922    78.703671 
   42700    610.25824   -116.73074   0.55217448   -116.17857    4744.1768    4.2955967    4.2955967    4.2955967    4744.1768   -4475.1861    5879.6181    12828.099   -6851.1143   -7559.1081    -962.1385    79.262997 
   42800    544.20389   -116.67152   0.49240712   -116.17912   -13819.113     4.302372     4.302372     4.302372   -13819.113   -31332.756   -13858.898    3734.3142    22109.759    62.150501    2318.2033    79.638649 
   42900    652.79599   -116.76752   0.59066353   -116.17686    5807.5216    4.2851199    4.2851199    4.2851199    5807.5216   -20519.701    13316.077    24626.188    14764.756    7206.4139    1277.4757    78.684453 
   43000    790.89677   -116.89317   0.71562002   -116.17755    437.80006    4.2977315    4.2977315    4.2977315    437.80006   -9239.0532    8166.7939    2385.6595   -11387.683   -2451.2705   -2557.4336    79.381235 
   43100    561.96633   -116.68785   0.50847895   -116.17937   -9923.7119    4.3014405    4.3014405    4.3014405   -9923.7119    -27296.39   -1611.4868   -863.25873    10747.598   -12404.914   -482.83338    79.586929 
   43200    435.16971   -116.57353    0.3937507   -116.17978    6769.6848    4.2846571    4.2846571    4.2846571    6769.6848   -31140.129    15713.387    35735.796    25823.877    326.19047   -35.121914    78.658962 
   43300    888.80257   -116.98151   0.80420724    -116.1773   -4912.3381    4.2982351    4.2982351    4.2982351   -4912.3381   -22470.438    5137.1285    2596.2955    3453.7412    9959.7126   -2452.6779    79.409141 
   43400     789.6798   -116.89233   0.71451888   -116.17781   -1519.8637    4.2994655    4.2994655    4.2994655   -1519.8637   -10085.491    11038.541   -5512.6414    -5191.767   -2589.2956   -1923.8311    79.477357 
   43500    353.49927   -116.50315   0.31985357    -116.1833    2997.1974    4.2846873    4.2846873    4.2846873    2997.1974   -25724.097    106.87384    34608.815     26548.12   -10047.126   -2335.8934    78.660628 
   43600    546.34785   -116.67905   0.49434701    -116.1847    -9131.558    4.2994875    4.2994875    4.2994875    -9131.558    -22323.56    -15520.13    10449.016    15707.054   -2976.3305    1371.1483    79.478574 
   43700    1058.9247   -117.13312   0.95813732   -116.17498   -3520.2202    4.2986341    4.2986341    4.2986341   -3520.2202   -14112.413     9162.284   -5610.5314   -9438.8153    2181.9369    1168.7169    79.431257 
   43800    540.18876   -116.66985   0.48877414   -116.18108    10527.835    4.2854489    4.2854489    4.2854489    10527.835    2148.6871    4799.5163    24635.302    10858.338    -2331.881   -2043.3668    78.702577 
   43900    277.92767   -116.43867    0.2514748    -116.1872   -18679.734    4.2988085    4.2988085    4.2988085   -18679.734   -45122.939   -21573.686    10657.422     27710.61   -5371.1085    1368.3595    79.440928 
   44000    761.58691   -116.87005   0.68909984   -116.18095   -4324.3521    4.2973419    4.2973419    4.2973419   -4324.3521   -26775.555    13923.137    -120.6384    1155.7569    1000.0651   -1038.6703    79.359646 
   44100    941.03991   -117.02728   0.85147269   -116.17581    11476.509    4.2895864    4.2895864    4.2895864    11476.509    4689.1399    19988.281    9752.1054   -2955.9795    90.551954   -353.54214    78.930756 
   44200    415.76664   -116.56111   0.37619439   -116.18491   -7816.4292     4.295759     4.295759     4.295759   -7816.4292   -33633.462    3820.9626    6363.2114    27615.223   -6991.6537    1177.9884    79.271982 
   44300    351.63537   -116.50282   0.31816707   -116.18465   -8308.0872    4.2968422    4.2968422    4.2968422   -8308.0872   -36825.823    8138.5742    3762.9869    17016.123    -6655.779    3099.5141    79.331964 
   44400     855.8936   -116.95184   0.77443052   -116.17741    428.42359    4.2936804    4.2936804    4.2936804    428.42359   -4773.5874    8675.8436   -2616.9854    -12554.91    2148.5321    6333.4776    79.156966 
   44500    733.20082   -116.84248   0.66341551   -116.17907    4915.1997    4.2903057    4.2903057    4.2903057    4915.1997   -7198.9735    19633.904    2310.6686    7763.9248     4510.515   -1355.2941    78.970468 
   44600    391.92823   -116.53811    0.3546249   -116.18348   -13702.904     4.299714     4.299714     4.299714   -13702.904   -33450.093   -7125.8025   -532.81777    27976.675   -5705.1791    2064.9597    79.491137 
   44700    577.61852   -116.70319   0.52264137   -116.18055    -6123.563    4.2954415    4.2954415    4.2954415    -6123.563   -6065.6194   -9112.5129   -3192.5568    -738.8946   -6370.1054    7412.4575    79.254409 
   44800    902.24566    -116.9914   0.81637083   -116.17503    10519.563    4.2858031    4.2858031    4.2858031    10519.563    7892.4108     21954.37    1711.9074   -5445.0124    106.59772   -144.06829    78.722094 
   44900    506.92473   -116.63947   0.45867615   -116.18079   -4203.5415    4.3032003    4.3032003    4.3032003   -4203.5415    790.93825   -7104.6601   -6296.9028    17580.144    741.58664   -3009.4144    79.684653 
   45000    507.84218    -116.6422   0.45950628   -116.18269   -6156.7064    4.2937416    4.2937416    4.2937416   -6156.7064   -17202.871   -1816.3743    549.12603    14988.078   -5798.7104    222.73983     79.16035 
   45100    775.59919   -116.87833   0.70177845   -116.17656    16667.055    4.2828395    4.2828395    4.2828395    16667.055    11945.265    27545.499    10510.402    -7821.097   -1217.1238    4042.6561    78.558902 
   45200    747.62366   -116.85333   0.67646559   -116.17687   -10598.411    4.3074841    4.3074841    4.3074841   -10598.411   -1843.7877     -12146.7   -17804.746    3131.9561    5071.0496   -1149.7239    79.922867 
   45300    534.41683   -116.66551   0.48355158   -116.18196   -3373.8197    4.2898574    4.2898574    4.2898574   -3373.8197   -18728.938    8886.6906   -279.21146    22595.255   -2907.5211   -4808.5027    78.945717 
   45400    664.09882    -116.7803   0.60089057   -116.17941    6532.3665    4.2836303    4.2836303    4.2836303    6532.3665    -6224.241    13825.128    11996.212     4832.939   -15545.497    2759.0116    78.602424 
   45500    840.21428   -116.93459   0.76024354   -116.17435   -17254.907    4.3096937    4.3096937    4.3096937   -17254.907   -12284.798   -15892.605   -23587.318   -8472.8876    764.39611    2599.3775    80.045924 
   45600    660.55711   -116.77596   0.59768595   -116.17828    4930.2662    4.2863263    4.2863263    4.2863263    4930.2662    5546.4684     10613.83   -1369.5001    12269.667    13221.604   -3324.5729    78.750929 
   45700    558.31279   -116.68499   0.50517314   -116.17982   -627.57674    4.2881781    4.2881781    4.2881781   -627.57674   -11849.001    1272.7736    8693.4967    16343.706   -9402.9515   -2109.4931     78.85304 
   45800    796.11456   -116.89596   0.72034119   -116.17562   -14459.291    4.3058588    4.3058588    4.3058588   -14459.291   -14256.005    -10227.42   -18894.448   -3664.2558   -14938.287     1311.267    79.832429 
   45900    929.11284   -117.01514   0.84068083   -116.17446    12309.782    4.2852547    4.2852547    4.2852547    12309.782    16767.854    14611.161    5550.3298   -2653.6639    4944.6181    286.45932    78.691879 
   46000    581.58698   -116.70761   0.52623213   -116.18138   -926.93316    4.2935521    4.2935521    4.2935521   -926.93316   -992.15822   -4064.6322    2275.9909    16438.319    8282.1515   -3445.7515    79.149873 
   46100    638.78606   -116.75863   0.57798705   -116.18064   -9912.6118    4.3000086    4.3000086    4.3000086   -9912.6118   -11582.927   -4837.2244   -13317.684    10801.145    -12961.21   -392.45929    79.507475 
   46200    943.04113    -117.0281   0.85328343   -116.17482    12605.968    4.2885628    4.2885628    4.2885628    12605.968    7971.8873    24550.846    5295.1691   -5309.5068   -8978.7258    5183.7662    78.874265 
   46300    857.14034   -116.95324   0.77555859   -116.17768    2005.7394    4.2954085    4.2954085    4.2954085    2005.7394    7730.4312    1810.1103   -3523.3233    4598.3459    11315.193   -2603.2113    79.252579 
   46400    553.95208    -116.6845   0.50122748   -116.18327   -5066.6845    4.2932365    4.2932365    4.2932365   -5066.6845   -11219.587    4266.9405   -8247.4065    13498.315   -3992.4246   -6477.8414    79.132418 
   46500    694.60952    -116.8107   0.62849729    -116.1822     218.5542    4.2935482    4.2935482    4.2935482     218.5542   -15040.567    21848.748   -6152.5193    3924.2177   -19413.163   -1778.8888    79.149656 
   46600    1050.2706    -117.1257   0.95030693   -116.17539   -1753.8115    4.2979806    4.2979806    4.2979806   -1753.8115    736.48927    3749.8295   -9747.7533   -3721.3755    3536.3213    2436.6322    79.395037 
   46700    778.92296   -116.88427   0.70478587   -116.17948     5164.028    4.2888887    4.2888887    4.2888887     5164.028    2458.8391    14491.577   -1458.3316    6702.0428    15685.533   -1919.2557    78.892249 
   46800    465.00265   -116.60522   0.42074417   -116.18448    -6098.353    4.2952439    4.2952439    4.2952439    -6098.353   -11418.437    7811.3429   -14687.964    12453.884     -16469.8   -7680.7302    79.243473 
   46900    823.48014   -116.92534   0.74510214   -116.18024   -6265.6187    4.2977121    4.2977121    4.2977121   -6265.6187   -439.51505   -801.24044   -17556.101   -791.64574   -22354.355   -342.61602    79.380159 
   47000    1055.0247   -117.13024   0.95460855   -116.17563    12919.187    4.2869289    4.2869289    4.2869289    12919.187    14814.015    18448.726    5494.8203   -3479.2723    12532.882    1238.4387    78.784149 
   47100    649.21014    -116.7703   0.58741898   -116.18288   -4189.9471    4.2983178    4.2983178    4.2983178   -4189.9471   -1829.0694    3185.8059   -13926.578    7290.6735    5535.2384   -2990.9933    79.413727 
   47200    544.92374   -116.67539   0.49305845   -116.18233    -11291.16    4.2974562    4.2974562    4.2974562    -11291.16   -12122.854   -2575.9323   -19174.694    11413.701   -24260.693    -2732.426    79.365977 
   47300    885.74888   -116.97863    0.8014442   -116.17719    13411.679    4.2852973    4.2852973    4.2852973    13411.679    17414.054    18115.262    4705.7212   -526.85871   -9480.4817   -857.75066    78.694229 
   47400    999.54748   -117.08204   0.90441156   -116.17763    1178.5202     4.297794     4.297794     4.297794    1178.5202    6330.7535    462.13679   -3257.3298   -6037.1841    10373.171    382.35839    79.384694 
   47500    567.77088   -116.69702   0.51373103   -116.18329   -8715.2954    4.2984085    4.2984085    4.2984085   -8715.2954   -15300.562   -537.41963   -10307.905    12664.066   -8444.9228    -3694.779    79.418754 
   47600    561.88029   -116.68998   0.50840109   -116.18158    5200.7206     4.284772     4.284772     4.284772    5200.7206    397.33197    15683.184   -478.35396    10533.685   -21292.373   -984.13222    78.665293 
   47700    987.45135   -117.07189   0.89346674   -116.17843     -62.8497    4.2969125    4.2969125    4.2969125     -62.8497    9114.2567   -3597.5907   -5705.2151    -6060.348   -66.782848    3828.7936    79.335859 
   47800    844.65924   -116.94279   0.76426543   -116.17852   -872.75223    4.2991496    4.2991496    4.2991496   -872.75223    4166.7909   -5005.6794   -1779.3682      2859.46    3321.2091   -118.64538    79.459838 
   47900     533.7072   -116.66419   0.48290949   -116.18128    3695.3176    4.2850318    4.2850318    4.2850318    3695.3176   -1829.9793    12536.369     379.5633    11778.359   -20055.377   -2762.8473      78.6796 
   48000    620.91767    -116.7447   0.56181936   -116.18288    -3138.299    4.2969942    4.2969942    4.2969942    -3138.299    14247.805   -7740.9434   -15921.759    485.51936   -12904.029   -2942.2798    79.340384 
   48100    969.15447   -117.05294   0.87691133   -116.17602    -1978.961    4.2977165    4.2977165    4.2977165    -1978.961    8420.0535   -10544.664   -3812.2727   -9811.2176    7084.0223    1984.4841      79.3804 
   48200    804.62345   -116.90622    0.7280402   -116.17818    4833.6714    4.2865518    4.2865518    4.2865518    4833.6714    2344.0724    7336.2657     4820.676     6466.773   -6768.9024   -648.47092    78.763356 
   48300    483.90861    -116.6216   0.43785068   -116.18375   -7638.9949    4.2967514    4.2967514    4.2967514   -7638.9949   -2074.3079   -6853.4857   -13989.191    13746.673   -21726.782   -4973.0008    79.326937 
   48400    761.33853   -116.86801    0.6888751   -116.17913    -5650.396    4.2972008    4.2972008    4.2972008    -5650.396    4820.5564    -8788.976   -12982.768   -5649.4816   -5239.1884    5452.1392     79.35183 
   48500     898.9318   -116.98843   0.81337238   -116.17506    6652.5661     4.289744     4.289744     4.289744    6652.5661    12826.247    3695.6767    3435.7748   -9888.0452    2941.1812    3506.6159    78.939455 
   48600    682.77144   -116.79795   0.61778595   -116.18016    -4460.736    4.2932926    4.2932926    4.2932926    -4460.736   -10080.833    1753.8747   -5055.2491    12045.948   -15368.176   -3393.4049    79.135522 
   48700    514.94769   -116.64862   0.46593549   -116.18269   -5318.6308    4.2966168    4.2966168    4.2966168   -5318.6308   -8044.5226    2503.3641   -10414.734    11278.464   -16364.725   -1268.3113    79.319483 
   48800    861.07378   -116.95746   0.77911765   -116.17834    1128.8418    4.2922485    4.2922485    4.2922485    1128.8418    7719.5472   -1834.4497   -2498.5721    -9301.255    5562.7051    3062.1664    79.077799 
   48900    900.90677   -116.99242   0.81515938   -116.17726    4239.8562    4.2914853    4.2914853    4.2914853    4239.8562    6688.0926    5475.3452    556.13077   -2898.3987   -536.75534    3571.0297    79.035626 
   49000    490.12803   -116.62639   0.44347814   -116.18291   -3471.8571     4.297293     4.297293     4.297293   -3471.8571   -13403.246    6860.5501   -3872.8756    17358.989   -19545.325   -3760.9599     79.35694 
   49100    636.37065     -116.757   0.57580154    -116.1812   -2947.0275    4.2938481    4.2938481    4.2938481   -2947.0275    2952.9896   -7079.5158   -4714.5562    10067.043    -10264.92    1809.7816    79.166242 
   49200    964.28968   -117.04828   0.87250957   -116.17577    8178.1334    4.2896326    4.2896326    4.2896326    8178.1334    26505.784    874.31777   -2845.7014   -5334.1754    6940.0481    5058.1798    78.933308 
   49300    785.94311   -116.89111   0.71113784   -116.17997   -4699.5974    4.2961877    4.2961877    4.2961877   -4699.5974   -11204.059    2352.3057   -5247.0393    3786.9403   -4820.9033   -542.23696     79.29572 
   49400    419.80562   -116.56399   0.37984895   -116.18415   -6779.9388    4.2956839    4.2956839    4.2956839   -6779.9388   -7994.6732   -8000.5216   -4344.6218     12475.46   -20519.403   -229.51566    79.267828 
   49500    746.24241   -116.85598   0.67521582   -116.18076    3526.7235    4.2901162    4.2901162    4.2901162    3526.7235    17242.814   -7700.3136    1037.6703    3680.4072    -2788.603   -3573.8111    78.960003 
   49600    1012.5474   -117.09232   0.91617412   -116.17614    2721.3359    4.2945857    4.2945857    4.2945857    2721.3359    8819.4197     2012.973    -2668.385   -2725.0643    4485.6796    2381.4374    79.207049 
   49700    595.04838   -116.72071   0.53841228    -116.1823   -3708.7421    4.2966987    4.2966987    4.2966987   -3708.7421   -2892.7696   -514.24997   -7719.2068    9012.2481   -11793.389   -866.05042     79.32402 
   49800    498.24494   -116.63439   0.45082249   -116.18357    390.12957    4.2899617    4.2899617    4.2899617    390.12957   -1282.7404    964.97128    1488.1579    12713.221   -12774.356   -3948.3096    78.951474 
   49900    870.73563   -116.96693    0.7878599   -116.17907    5123.7967    4.2929648    4.2929648    4.2929648    5123.7967    17129.659    4850.6433    -6608.912   -2471.2091     955.5491    214.86848    79.117394 
   50000    862.13225   -116.95751   0.78007537   -116.17743   -1083.9071    4.2979518    4.2979518    4.2979518   -1083.9071     1643.434   -795.04104   -4100.1143   -4170.2679   -3584.0024   -23.053925    79.393442 
   50100    551.98168   -116.68056   0.49944463   -116.18111   -476.63498    4.2906807    4.2906807    4.2906807   -476.63498    -12816.29    12502.704   -1116.3184    8394.4958   -15260.784   -1863.1429    78.991175 
   50200    615.87082   -116.73866   0.55725286   -116.18141    1211.2788    4.2916775    4.2916775    4.2916775    1211.2788    7550.7914   -106.95312    -3810.002    8727.5061   -1971.7835   -3392.9163    79.046245 
   50300    831.75191   -116.92973   0.75258661   -116.17714   -4670.2705    4.2977309    4.2977309    4.2977309   -4670.2705    5488.0079   -15931.471   -3567.3483   -8092.4192    4420.5439    1001.5934    79.381198 
   50400    667.43027   -116.78274   0.60390493   -116.17883   -4352.7819     4.292083     4.292083     4.292083   -4352.7819   -6718.3819    2782.3851   -9122.3488   -6747.0019   -8986.7626    3045.2177    79.068653 
   50500    583.96977   -116.70874   0.52838812   -116.18035   -2143.4394    4.2907663    4.2907663    4.2907663   -2143.4394   -6108.2625    6214.0713    -6536.127    10474.784   -12989.986   -1719.1901    78.995907 
   50600    776.24024   -116.88004   0.70235848   -116.17768   -10664.946    4.2980486    4.2980486    4.2980486   -10664.946    1749.1356   -18087.077   -15656.895   -620.35691    43.542953   -6147.0178    79.398802 
   50700     638.1047   -116.75648   0.57737054   -116.17911   -2819.2791    4.2919322    4.2919322    4.2919322   -2819.2791   -61.643842   -8024.2612   -371.93229    -16865.93    1316.1007   -2270.1473    79.060319 
   50800    594.69727   -116.71843   0.53809459   -116.18034   -1445.7214    4.2903724    4.2903724    4.2903724   -1445.7214   -12660.484    12350.743   -4027.4225   -4682.1662   -17593.602    1600.9384    78.974152 
   50900    692.12813   -116.80459   0.62625208   -116.17834   -6112.1638    4.2997859    4.2997859    4.2997859   -6112.1638   -2041.7601   -4113.0512    -12181.68    5369.8699   -7557.3713    -5064.598    79.495125 
   51000    738.34937   -116.84494   0.66807403   -116.17687    3082.0855    4.2900911    4.2900911    4.2900911    3082.0855    11650.943   -1577.6746   -827.01183   -8024.1177    7731.1929   -7385.3648     78.95862 
   51100    578.33384   -116.70318   0.52328861   -116.17989    -651.5606    4.2912058    4.2912058    4.2912058    -651.5606   -1279.5997     2939.987   -3615.0691   -15448.358   -6042.3436     2241.999    79.020183 
   51200    573.74725   -116.69873   0.51913857   -116.17959    -3712.783    4.2996521    4.2996521    4.2996521    -3712.783   -8456.5118    2983.7296   -5665.5669     616.9215    -16898.04    2334.0766    79.487705 
   51300    820.76222   -116.91901   0.74264291   -116.17636    6120.1814    4.2889428    4.2889428    4.2889428    6120.1814    10949.639    7789.0998   -378.19436    3743.5801    -5211.183   -7311.0019    78.895232 
   51400    683.66241   -116.79736   0.61859211   -116.17877    5496.3453    4.2921586    4.2921586    4.2921586    5496.3453    17464.099   -10080.257    9105.1934   -10302.163    4432.0292    -4878.397    79.072831 
   51500     592.4235   -116.71595   0.53603723   -116.17991   -4802.3605    4.2980081    4.2980081    4.2980081   -4802.3605   -11226.843    -3163.791   -16.447639   -12548.056   -12366.027    667.86838    79.396559 
   51600    675.07512   -116.78957   0.61082215   -116.17875     5740.526    4.2900089    4.2900089    4.2900089     5740.526    958.79035    15184.495    1078.2921    1075.3874   -10811.248    1299.9424    78.954082 
   51700    829.33118   -116.92745   0.75039628   -116.17705   -439.15233    4.2941217    4.2941217    4.2941217   -439.15233    13754.574   -7989.0871   -7082.9439   -380.77798    4685.0062   -9588.7915    79.181377 
   51800    728.71645    -116.8377   0.65935796   -116.17834   -3092.1364    4.2951018    4.2951018    4.2951018   -3092.1364    2637.2499   -9724.2686   -2189.3904   -10606.994   -6214.3558    -8170.285    79.235606 
   51900    625.31176   -116.74584   0.56579522   -116.18005     896.0947    4.2913803    4.2913803    4.2913803     896.0947    -5728.009     15232.34   -6816.0468   -4779.4706   -15590.879    3975.5715    79.029824 
   52000    768.31108   -116.87387   0.69518401   -116.17869   -5061.7259    4.2948468    4.2948468    4.2948468   -5061.7259   -4783.7637    4829.1817   -15230.596    3466.5745   -4162.7821   -3500.8747    79.221495 
   52100    842.77765   -116.93989   0.76256293   -116.17733   -229.70549      4.29372      4.29372      4.29372   -229.70549    9365.1249   -12919.109    2864.8673   -1004.1023    7530.8989   -5776.6915    79.159158 
   52200    735.34719    -116.8443   0.66535759   -116.17895   -1688.8271    4.2935804    4.2935804    4.2935804   -1688.8271   -6567.9893    2507.6852   -1006.1773   -9424.3485   -18921.489   -836.12424    79.151436 
   52300    699.21319   -116.81239   0.63266279   -116.17973   -3793.1664    4.2944966    4.2944966    4.2944966   -3793.1664   -18443.189    12306.165   -5242.4755   -1008.2652   -25635.231    233.33735    79.202118 
   52400    899.80544   -116.99153   0.81416287   -116.17737    964.40324      4.29235      4.29235      4.29235    964.40324    2599.4949    414.00186   -120.28704    4495.4775    8206.5817   -3930.4908    79.083411 
   52500    879.77979   -116.97374   0.79604324    -116.1777   -45.984904    4.2937165    4.2937165    4.2937165   -45.984904    -3898.429   -7541.8826    11302.357   -2722.5309    3891.6791   -8396.8979    79.158963 
   52600    653.25436   -116.77224   0.59107827   -116.18116   -2434.0885    4.2941916    4.2941916    4.2941916   -2434.0885   -18399.959    11344.774   -247.08031   -3889.3913    -30362.66    1084.4567    79.185244 
   52700    772.56888   -116.87938   0.69903656   -116.18035   -545.46455    4.2932104    4.2932104    4.2932104   -545.46455   -6192.8343    6882.1801   -2325.7395    364.33089   -20422.831    2167.1709    79.130978 
   52800    997.75389   -117.07955   0.90278869   -116.17676    4996.0791    4.2917493    4.2917493    4.2917493    4996.0791    5659.4385   -439.84931    9768.6479    6561.3339      15206.2   -3561.9785    79.050212 
   52900    722.49561   -116.83472   0.65372921   -116.18099   -2518.0267    4.2943437    4.2943437    4.2943437   -2518.0267   -1441.7835    1745.4579   -7857.7544    -654.7207   -9334.8257   -59.022372    79.193658 
   53000    534.80574   -116.66793   0.48390347   -116.18403   -5236.9524    4.2946665    4.2946665    4.2946665   -5236.9524   -9302.3565    8190.6222   -14599.123   -6981.0435   -34257.581    2701.6339    79.211515 
   53100    977.05775   -117.06325   0.88406239   -116.17919    3245.9487    4.2906985    4.2906985    4.2906985    3245.9487    6017.0905    4096.5898   -375.83419    895.74833    -3732.223    1696.9605    78.992163 
   53200    915.92844   -117.00648    0.8287513   -116.17773    5682.0167    4.2946656    4.2946656    4.2946656    5682.0167    14152.212   -1368.1696    4262.0078    2505.6652    4394.5903   -5154.4648    79.211468 
   53300    497.13229   -116.63459   0.44981574   -116.18477    -9076.126    4.2941428    4.2941428    4.2941428    -9076.126   -19031.946    5545.9622   -13742.394   -1094.9208   -27472.022   -3660.3239    79.182542 
   53400    536.66837   -116.67159   0.48558882     -116.186   -29.431153    4.2909949    4.2909949    4.2909949   -29.431153   -10551.587    3078.4903    7384.8028   -7556.8074    -21432.03     2058.068     79.00853 
   53500     1053.473   -117.13082   0.95320453   -116.17762    2335.0917    4.2953395    4.2953395    4.2953395    2335.0917     8816.601   -7654.6703    5843.3443   -3860.5965    8296.5308   -1275.5455     79.24876 
   53600    749.74675   -116.85942   0.67838661   -116.18103    3053.2626    4.2927624    4.2927624    4.2927624    3053.2626    1481.9631    5537.2188     2140.606    4913.4979   -14505.891   -673.92548    79.106204 
   53700    322.98211   -116.47796     0.292241   -116.18572   -4607.4117    4.2934467    4.2934467    4.2934467   -4607.4117    -11691.91    2083.5398   -4213.8646   -4609.7994   -34759.487    -378.9926     79.14404 
   53800    711.16278   -116.82591   0.64347503   -116.18244   -4199.6892    4.2948413    4.2948413    4.2948413   -4199.6892     491.2105   -12599.936   -490.34256    -7822.136    1017.3921    1457.9372    79.221191 
   53900    902.87243   -116.99367   0.81693795   -116.17673    11236.797    4.2899759    4.2899759    4.2899759    11236.797    19071.452   -3895.5525    18534.491    673.73747    6283.7272    1522.2454    78.952261 
   54000    552.27067    -116.6817   0.49970611   -116.18199   -5011.2294    4.2962163    4.2962163    4.2962163   -5011.2294   -2381.0057    3355.5576    -16008.24     47.94377   -31240.132   -2713.0973    79.297301 
   54100     411.5687   -116.55567   0.37239601   -116.18327   -8560.0563    4.2940103    4.2940103    4.2940103   -8560.0563   -11674.563   -9339.4745   -4666.1318   -6135.9282   -24713.778   -177.51828    79.175215 
   54200    699.57357   -116.81169   0.63298887    -116.1787    2467.5059    4.2893993    4.2893993    4.2893993    2467.5059    5736.2085   -17414.953    19081.263   -7118.1372    12400.486    1817.9994    78.920426 
   54300    728.94173   -116.83702    0.6595618   -116.17746   -10052.211    4.2987109    4.2987109    4.2987109   -10052.211   -11830.547   -11501.677   -6824.4091    2176.6686   -3207.2339   -138.13984    79.435515 
   54400    484.56274    -116.6188   0.43844255   -116.18036   -3136.1396     4.291574     4.291574     4.291574   -3136.1396    -13924.24    5190.4755   -674.65453    574.67218   -30480.139   -2412.5751    79.040527 
   54500    565.78118   -116.69175    0.5119307   -116.17982   -1493.4891    4.2887056    4.2887056    4.2887056   -1493.4891   -9540.3005   -12993.552    18053.385   -12332.643   -6429.9779   -1615.1093    78.882146 
   54600      603.244   -116.72435   0.54582785   -116.17852   -8033.4251    4.3004198    4.3004198    4.3004198   -8033.4251   -12418.681   -30701.676    19020.081    -4231.357    7908.9787     311.3332    79.530289 
   54700    607.37075   -116.72776   0.54956182    -116.1782    2232.6292    4.2896625    4.2896625    4.2896625    2232.6292   -6996.1193    2542.5116    11151.495    6452.0949   -16482.149    398.56809    78.934954 
   54800     573.6981   -116.69809    0.5190941     -116.179    5387.5898    4.2892488    4.2892488    4.2892488    5387.5898   -860.24404    3874.2255    13148.788   -5495.7214    -17388.17   -537.70633     78.91212 
   54900    534.46049   -116.66228   0.48359108   -116.17869   -8911.3977    4.3007617    4.3007617    4.3007617   -8911.3977   -14098.731   -32698.177    20062.714   -12206.784    4504.9089    -521.5827    79.549257 
   55000    606.83745   -116.72689   0.54907928   -116.17781    776.79312    4.2881249    4.2881249    4.2881249    776.79312   -5528.1897   -12998.896    20857.465    1866.1047    1784.7242    255.97444    78.850108 
   55100    605.16672   -116.72624   0.54756757   -116.17867     2390.768    4.2919938    4.2919938    4.2919938     2390.768    778.11078    6636.0644   -241.87116    4567.0116   -12888.482    150.15008    79.063725 
   55200    644.55784   -116.76081   0.58320948    -116.1776   -9164.4909    4.2983986    4.2983986    4.2983986   -9164.4909   -15149.748    -14243.94    1900.2156   -16173.722   -9397.1371    1051.5425    79.418202 
   55300     520.2567   -116.64944    0.4707392    -116.1787    2856.4723    4.2880672    4.2880672    4.2880672    2856.4723   -409.64019   -18548.189    27527.246   -11821.385    10349.543   -981.19974    78.846921 
   55400     629.2072    -116.7483    0.5693199   -116.17898   -5832.9909    4.2943764    4.2943764    4.2943764   -5832.9909   -9410.0892   -8248.3758    159.49225    13491.752   -1294.8937   -1307.0353    79.195469 
   55500    702.90249   -116.81366   0.63600095   -116.17765   -3215.4304      4.29528      4.29528      4.29528   -3215.4304    -14638.77   -839.22937    5831.7082   -857.06654   -15161.504    -783.7784    79.245471 
   55600    563.95023   -116.68964   0.51027402   -116.17936    3879.0524    4.2906623    4.2906623    4.2906623    3879.0524   -8047.9409   -10464.086    30149.184   -25833.861   -1944.1284   -1811.8231    78.990161 
   55700    640.39691   -116.75875   0.57944458   -116.17931   -6183.4511    4.2947253    4.2947253    4.2947253   -6183.4511   -16323.111   -19465.713    17238.471   -3222.0503    7688.2209    863.04959     79.21477 
   55800    709.63847   -116.81953    0.6420958   -116.17743    4513.8578    4.2922843    4.2922843    4.2922843    4513.8578   -4774.2973    189.85803    18126.013    16902.535    2855.9603   -48.620589    79.079776 
   55900    648.40974   -116.76564   0.58669476   -116.17895   -1287.4843    4.2941472    4.2941472    4.2941472   -1287.4843   -13226.873    -3428.086    12792.506   -14709.435   -8788.0731   -33.263497    79.182784 
   56000    577.44776   -116.70257   0.52248687   -116.18008   -4622.1575    4.2938688    4.2938688    4.2938688   -4622.1575   -14648.615   -18121.069    18903.211   -26750.716    -4817.416     1631.346    79.167385 
   56100    752.34889   -116.85835   0.68074109   -116.17761    1358.6029    4.2904896    4.2904896    4.2904896    1358.6029   -11094.876   -2360.4236    17531.108    8787.7287    4875.4513   -324.50355    78.980626 
   56200     736.5482    -116.8444   0.66644429   -116.17796   -7513.3297    4.2965928    4.2965928    4.2965928   -7513.3297   -19183.569   -665.75034   -2690.6696    6866.6788    4414.2051    2135.4548     79.31815 
   56300     458.4565   -116.59637   0.41482107   -116.18155   -4357.0685    4.2931478    4.2931478    4.2931478   -4357.0685   -23497.111   -5224.6699    15650.576    -29965.35   -1484.6352   -813.64563    79.127516 
   56400    656.01184   -116.77377    0.5935733    -116.1802   -46.637096    4.2897071    4.2897071    4.2897071   -46.637096   -17177.916    242.62803    16795.377   -12601.214   -3876.8208   -1138.2817    78.937416 
   56500    832.02441   -116.92955   0.75283317   -116.17671   -3341.1378    4.2976034    4.2976034    4.2976034   -3341.1378   -12249.213    1575.2222     650.5771     16167.48    4388.4025   -966.27003    79.374132 
   56600    494.60052   -116.62876   0.44752494   -116.18123   -2134.4103    4.2922879    4.2922879    4.2922879   -2134.4103   -24399.068     4870.579    13125.258   -16323.966     4979.641   -1717.1277    79.079977 
   56700    381.88955   -116.52911   0.34554169   -116.18357   -3130.2564    4.2909665    4.2909665    4.2909665   -3130.2564   -27174.189    811.89196    16971.528   -33174.446   -6000.1883    825.36208    79.006961 
   56800    762.91737   -116.86849   0.69030367   -116.17819   -661.01377    4.2963872    4.2963872    4.2963872   -661.01377   -14541.907    3808.5193    8750.3465    3960.6102   -3229.7329    1176.6886    79.306767 
   56900     771.4352   -116.87512   0.69801078   -116.17711    1745.8124    4.2925016    4.2925016    4.2925016    1745.8124   -8659.9809    10058.638      3838.78    6954.3384    4888.3601    1843.1297    79.091789 
   57000     271.1003   -116.42996   0.24529725   -116.18466   -7317.5865    4.2922938    4.2922938    4.2922938   -7317.5865   -26324.456   -4405.1743    8776.8706   -28472.381   -610.48483    865.51519    79.080302 
   57100    394.17542   -116.54149    0.3566582   -116.18483   -5006.1176    4.2932543    4.2932543    4.2932543   -5006.1176   -27849.848    8114.2107    4717.2842   -20175.219   -9194.7355   -1241.0136    79.133404 
   57200    851.00943   -116.94717   0.77001122   -116.17716    796.90502    4.2948318    4.2948318    4.2948318    796.90502   -4039.1698    13098.765     -6668.88    9168.5556   -4258.6832    902.06035    79.220664 
   57300    585.33742   -116.70946    0.5296256   -116.17984   -3925.6132    4.2940799    4.2940799    4.2940799   -3925.6132   -15124.184    -2692.032    6039.3766   -12699.217     7029.619   -2626.1649    79.179062 
   57400    240.09138   -116.40092   0.21723972   -116.18368   -6120.4143    4.2904455    4.2904455    4.2904455   -6120.4143   -31595.093    4524.0218    8709.8286   -28812.325   -1442.6953   -1143.7413    78.978187 
   57500    466.66766   -116.60402    0.4222507   -116.18177   -4759.7719    4.2970106    4.2970106    4.2970106   -4759.7719   -22742.099     11492.71   -3029.9267   -334.96079   -12649.499    1822.7446    79.341295 
   57600    715.76408    -116.8247   0.64763839   -116.17706   -643.35014    4.2929444    4.2929444    4.2929444   -643.35014   -10363.094     8231.596    201.44726    1389.7069   -4183.2502    371.31956    79.116268 
   57700    458.15779   -116.59477    0.4145508   -116.18022    1936.6585     4.288633     4.288633     4.288633    1936.6585   -13314.792   -932.41835    20057.186   -24510.234    3966.2024    729.09152    78.878136 
   57800     336.7616   -116.48628   0.30470897   -116.18157   -12920.947    4.3001353    4.3001353    4.3001353   -12920.947   -34486.641   -3194.4853   -1081.7154   -13319.247   -5784.7635   -87.807712    79.514506 
   57900    534.64362     -116.662   0.48375678   -116.17825   -3492.5778    4.2916781    4.2916781    4.2916781   -3492.5778   -20911.196    17524.547   -7091.0839    10998.285   -12573.844    775.10043    79.046279 
   58000    596.99556   -116.71675   0.54017413   -116.17657    2811.3654    4.2883135    4.2883135    4.2883135    2811.3654   -11307.834   -64.020118     19805.95   -7939.4879    350.79523    2240.5636    78.860511 
   58100    511.98729   -116.64135   0.46325686   -116.17809   -12143.223    4.3001064    4.3001064    4.3001064   -12143.223   -24802.307   -15832.319    4204.9573   -23213.916   -1426.3795   -2584.2457    79.512904 
   58200    417.41122   -116.55656   0.37768244   -116.17888    1736.9417    4.2904769    4.2904769    4.2904769    1736.9417   -17547.239    15653.728    7104.3367   -285.31749    -12259.12    254.09188    78.979923 
   58300    494.36233   -116.62572   0.44730942   -116.17841   -1060.8581    4.2906422    4.2906422    4.2906422   -1060.8581   -13309.771    9564.3638    562.83286    7353.9164   -4180.6882    1106.8969     78.98905 
   58400    502.35692   -116.63232    0.4545431   -116.17777   -8305.7543    4.2985146    4.2985146    4.2985146   -8305.7543   -8943.7651   -18429.818    2456.3206   -12960.245    3788.6741   -952.36292    79.424633 
   58500    525.94115   -116.65322    0.4758826   -116.17734    125.30936    4.2896117    4.2896117    4.2896117    125.30936   -10877.097    839.37486     10413.65   -12768.543   -8893.7174    268.33298    78.932154 
   58600    462.24504   -116.59784   0.41824902   -116.17959   -7504.9599    4.2918801    4.2918801    4.2918801   -7504.9599    -21997.13    15487.303   -16005.052    5559.7211   -10752.328   -1549.4825     79.05744 
   58700    457.11875   -116.59328   0.41361066   -116.17967   -8477.7063    4.2958935    4.2958935    4.2958935   -8477.7063   -17339.169    -3125.719   -4968.2313    2251.9361     5264.474    3727.8834    79.279431 
   58800    579.75956   -116.70196   0.52457864   -116.17738   -2548.9958    4.2928167    4.2928167    4.2928167   -2548.9958   -11217.972   -10940.361    14511.345   -12791.165    3780.6683    67.233893    79.109205 
   58900    500.29128   -116.63051   0.45267407   -116.17784    142.13224    4.2920864    4.2920864    4.2920864    142.13224   -13070.141    5292.0383    8204.4991    -4164.844   -14345.176   -3079.3199    79.068839 
   59000    401.04089   -116.54273   0.36287022   -116.17986    50.127345    4.2918281    4.2918281    4.2918281    50.127345   -20855.112    14839.146    6166.3483    8072.0201   -10448.854    2700.1102    79.054563 
   59100    493.05691   -116.62553   0.44612825    -116.1794   -2685.5816    4.2955686    4.2955686    4.2955686   -2685.5816   -20692.027   -6649.2689    19284.551   -2251.0637    8708.6725   -972.15549    79.261444 
   59200    633.94144   -116.75075   0.57360354   -116.17715    2100.0872    4.2909157    4.2909157    4.2909157    2100.0872   -8552.5317    -3813.939    18666.732   -8517.7131   -155.03313   -3090.3664    79.004157 
   59300    459.93072   -116.59586   0.41615498    -116.1797   -3852.5919    4.2925282    4.2925282    4.2925282   -3852.5919   -22720.469    8496.6117    2666.0818     99.13775   -18113.826   -3874.8356    79.093261 
   59400    375.39155   -116.52073   0.33966217   -116.18107   -13989.104    4.2971722    4.2971722    4.2971722   -13989.104    -38307.18    3015.4241   -6675.5566    4928.0685   -1481.7008   -669.75838    79.350247 
   59500    607.85076   -116.72749   0.54999614    -116.1775    1228.3115    4.2886276    4.2886276    4.2886276    1228.3115   -15870.204    2267.0787     17288.06   -2533.3324    12608.749    1900.6751    78.877842 
   59600    622.28757   -116.74044   0.56305887   -116.17738   -4205.1877    4.2954543    4.2954543    4.2954543   -4205.1877   -15892.854    -3196.349    6473.6395    -3725.105   -12142.441   -4404.1452    79.255116 
   59700    364.63368    -116.5121   0.32992822   -116.18217   -15376.083    4.2961328    4.2961328    4.2961328   -15376.083   -32838.983    6963.3596   -20252.626    6371.1768   -18654.653   -1334.0774    79.292679 
   59800    408.75699   -116.55111   0.36985191   -116.18126    2429.2594     4.286256     4.286256     4.286256    2429.2594   -17643.741    16653.278    8278.2405    4788.6091    13553.767    356.22317    78.747052 
   59900    741.66216   -116.84825   0.67107151   -116.17717   -6359.5766     4.298472     4.298472     4.298472   -6359.5766    -19570.36   -4567.0629    5058.6935   -3269.0613    9100.8622   -924.50866    79.422273 
   60000    595.98747   -116.71917   0.53926199   -116.17991   -1284.4495    4.2927623    4.2927623    4.2927623   -1284.4495   -16489.462    6736.6529    5899.4607    -1248.106   -21196.435   -1837.9693    79.106197 
   60100    349.08814   -116.49797   0.31586228   -116.18211   -424.75695    4.2884189    4.2884189    4.2884189   -424.75695   -23025.479    22025.593   -274.38483     4750.121   -4396.5135   -1777.7568    78.866323 
   60200    542.21607   -116.66982   0.49060849   -116.17921   -7148.1857    4.3000742    4.3000742    4.3000742   -7148.1857   -27719.614    128.20243    6146.8542    3691.3502     19252.74    1103.9924    79.511117 
   60300    813.70785   -116.91129   0.73625996   -116.17503     7528.868    4.2885468    4.2885468    4.2885468     7528.868     3034.275     9886.497     9665.832    -1081.199   -5463.3788    690.86462     78.87338 
   60400    520.66512    -116.6516   0.47110874    -116.1805    2000.5718    4.2910553    4.2910553    4.2910553    2000.5718   -13119.945    17514.992    1606.6688   -614.25992    -23568.66    658.24196    79.011868 
   60500    396.25937   -116.54052    0.3585438   -116.18198   -6097.6574    4.2983534    4.2983534    4.2983534   -6097.6574   -25972.046     9515.449   -1836.3753    4072.8306     9903.534   -124.79477    79.415698 
   60600    718.97461   -116.82794   0.65054333    -116.1774    7293.3769    4.2901074    4.2901074    4.2901074    7293.3769   -3539.3524    7901.6289    17517.854    1540.9317    19302.322      2607.54     78.95952 
   60700     799.4282    -116.9003   0.72333944   -116.17696    4092.8678    4.2911268    4.2911268    4.2911268    4092.8678   -10717.482    11366.682    11629.404   -916.69072   -17947.988    2909.8361    79.015818 
   60800     516.7593   -116.64932   0.46757468   -116.18175   -5702.6309     4.296136     4.296136     4.296136   -5702.6309     -24124.9    13436.007   -6418.9993    2876.1871   -15707.601   -1605.6532    79.292856 
   60900    559.17476   -116.68656   0.50595308   -116.18061    -5413.199     4.293788     4.293788     4.293788    -5413.199   -23577.832    8670.4342   -1332.1987    5529.3253    21748.238   -1560.8722    79.162916 
   61000    807.59129   -116.90775   0.73072557   -116.17703    1785.4743    4.2902392    4.2902392    4.2902392    1785.4743   -7738.8375    7076.8905      6018.37    1060.4801    11753.263    2214.3495    78.966797 
   61100    718.52326   -116.82921   0.65013495   -116.17907    -579.1101    4.2943297    4.2943297    4.2943297    -579.1101   -9677.0955    6419.0204    1520.7448    -1380.908   -21943.162    4310.7701    79.192881 
   61200    542.69302   -116.67224   0.49104005    -116.1812   -11313.237    4.2974341    4.2974341    4.2974341   -11313.237     -27102.5    7325.1587   -14162.371    3152.5318    2355.0252   -1290.0756    79.364755 
   61300    654.93341   -116.77186   0.59259751   -116.17926    807.07287    4.2887066    4.2887066    4.2887066    807.07287   -14108.955     12617.04    3913.1334    3692.0464    26535.235    -753.7421      78.8822 
   61400    902.66508   -116.99368   0.81675033   -116.17693   -518.20918    4.2931955    4.2931955    4.2931955   -518.20918   -4936.5707    1297.9827    2083.9605   -1698.5761   -2065.4417    10127.253    79.130154 
   61500    729.48376   -116.83904   0.66005224   -116.17899   -7021.2508    4.2990996    4.2990996    4.2990996   -7021.2508   -16981.777    -1341.663   -2740.3121   -1760.4708   -10882.778    2733.9302    79.457064 
   61600    622.76084   -116.74338    0.5634871    -116.1799    4760.3073    4.2871304    4.2871304    4.2871304    4760.3073   -13667.198     20659.14      7288.98    3870.2844    13785.369    -4340.995    78.795256 
   61700    794.99304   -116.89867   0.71932641   -116.17934    3897.1363    4.2922302    4.2922302    4.2922302    3897.1363   -5262.4179    5701.3497    11252.477   -636.99023    15929.653    4739.1006    79.076785 
   61800    870.79397   -116.96521   0.78791268    -116.1773    -2112.158    4.2993783    4.2993783    4.2993783    -2112.158    3938.3964   -12649.117    2374.2467     -4019.85   -5091.3453    9278.0327     79.47252 
   61900    717.45561   -116.82843   0.64916892   -116.17926    1770.1564    4.2894243    4.2894243    4.2894243    1770.1564   -1542.6218    11540.007   -4686.9156   -673.09421    3158.7572    1966.8581    78.921809 
   62000    727.10208   -116.83804   0.65789724   -116.18014    2500.1934    4.2887966    4.2887966    4.2887966    2500.1934    -8845.455    20226.088   -3880.0528    2967.8735    12926.791   -3527.8062    78.887165 
   62100    855.66432   -116.95201   0.77422306   -116.17779   -6215.4872    4.3006098    4.3006098    4.3006098   -6215.4872    1084.2943   -11773.225    -7957.531    1021.3331    31.011835    11420.698    79.540828 
   62200    821.46444   -116.92084   0.74327829   -116.17756   -905.87635    4.2929084    4.2929084    4.2929084   -905.87635    4359.1038   -7296.7519    220.01905    -2934.169   -3604.3046    15063.886    79.114276 
   62300    759.25426   -116.86524   0.68698921   -116.17825     3172.267     4.286449     4.286449     4.286449     3172.267   -8984.5284    21678.771    -3177.442   -297.71754    13012.407   -3961.1802    78.757692 
   62400    802.57221   -116.90484    0.7261842   -116.17866    -8623.994    4.3001031    4.3001031    4.3001031    -8623.994   -13916.735    559.37611   -12514.623   -1832.5206    12628.317    3535.8291    79.512722 
   62500    881.95758   -116.97579   0.79801375   -116.17778   -1054.7381     4.294072     4.294072     4.294072   -1054.7381    9649.4109   -13242.457    428.83143   -5604.0863   -5737.4163    17346.259    79.178625 
   62600    817.64127    -116.9176     0.739819   -116.17778    9388.0761    4.2859883    4.2859883    4.2859883    9388.0761     11866.21    3604.3922    12693.626   -2560.5714   -974.62926    3722.0474    78.732302 
   62700    760.32134   -116.86758   0.68795473   -116.17963    -865.4963    4.2975931    4.2975931    4.2975931    -865.4963   -14815.765    8353.1778     3866.098    1669.0513     15375.71   -4656.3436    79.373562 
   62800    756.21348   -116.86316   0.68423785   -116.17892   -200.87865    4.2969202    4.2969202    4.2969202   -200.87865    1507.2812   -8131.6626    6021.7455    896.30237    5432.6511    9790.4534    79.336286 
   62900    890.12449   -116.98159   0.80540334   -116.17619    9077.3046    4.2853345    4.2853345    4.2853345    9077.3046    23691.161   -8898.8197    12439.572   -5289.4669   -5609.7729    19575.929    78.696277 
   63000    842.73239   -116.94144   0.76252197   -116.17892   -1633.9418    4.2948763    4.2948763    4.2948763   -1633.9418   -10419.538   -733.65019    6251.3629   -2757.9555    6647.3951    80.848206    79.223126 
   63100    709.73898    -116.8223   0.64218674   -116.18011   -13801.173    4.2994968    4.2994968    4.2994968   -13801.173   -25143.011   -640.52605   -15619.981    2840.4798    15667.124   -2374.1701     79.47909 
   63200    748.33513    -116.8558   0.67710936   -116.17869    2757.7206    4.2846637    4.2846637    4.2846637    2757.7206    12355.427   -4570.5588    488.29405   -775.41476    2039.4227    20563.513    78.659323 
   63300    932.20304   -117.02157    0.8434769    -116.1781   -1614.1981    4.2947467    4.2947467    4.2947467   -1614.1981    3300.9185   -13398.284    5254.7714   -18.654842   -2251.3083    10203.522    79.215957 
   63400     789.1164   -116.89283    0.7140091   -116.17882   -12560.933    4.3002146    4.3002146    4.3002146   -12560.933   -25183.457   -2058.7993   -10440.544    1468.7775    9445.7326   -7158.1736    79.518906 
   63500    573.89633   -116.69928   0.51927346      -116.18    5420.4914    4.2825452    4.2825452    4.2825452    5420.4914    2442.9007    13719.976    98.597537    1308.9877    3522.5275    9451.8116    78.542709 
   63600    787.23058    -116.8927   0.71230278    -116.1804    -1686.811    4.2964843    4.2964843    4.2964843    -1686.811    6940.4464   -17758.533    5757.6538   -1003.1596   -4087.4022    16262.142    79.312146 
   63700    900.71323   -116.99164   0.81498426   -116.17666    2056.1341    4.2975878    4.2975878    4.2975878    2056.1341   -207.53554   -9156.1394    15532.077   -2922.5691    6049.5134   -2599.9764    79.373268 
   63800    601.96526   -116.72373   0.54467081   -116.17906     11143.09    4.2835621    4.2835621    4.2835621     11143.09    2587.0455    14629.247    16212.978    995.07977    9467.3155   -5721.1822    78.598672 
   63900    541.42942   -116.67215   0.48989671   -116.18225   -9833.7056    4.2979358    4.2979358    4.2979358   -9833.7056   -9622.2782   -13210.244   -6668.5951    1920.8692   -3034.8781    12848.889    79.392554 
   64000     885.6567   -116.97762   0.80136079   -116.17626     -104.499    4.2934647    4.2934647    4.2934647     -104.499    5830.4943   -13294.528    7150.5362    1634.9577   -4295.9309    10242.822    79.145036 
   64100     750.7112   -116.85619   0.67925927   -116.17693    1185.1299    4.2899928    4.2899928    4.2899928    1185.1299    4828.7995   -4505.5429    3232.1331    927.76472    6857.7904   -17516.609    78.953189 
   64200    498.74004   -116.63212   0.45127047   -116.18085   -13497.668    4.2953232    4.2953232    4.2953232   -13497.668   -21221.222   -6146.2587   -13125.524    1187.2472    4484.1515   -4593.5788    79.247859 
   64300    652.51399   -116.76988   0.59040838   -116.17947   -2275.5412    4.2906851    4.2906851    4.2906851   -2275.5412   -7064.8069   -3850.8168    4089.0001    741.10977    -7412.877    14449.619     78.99142 
   64400    812.18548   -116.91144   0.73488249   -116.17656   -4055.1001    4.2953958    4.2953958    4.2953958   -4055.1001    2354.5403   -18448.383    3928.5422   -1307.2369    342.27983   -8742.3458    79.251881 
   64500    579.49667   -116.70404   0.52434076    -116.1797   -2832.6599    4.2916159    4.2916159    4.2916159   -2832.6599   -4428.4341   -5898.6961    1829.1505    564.02112    9680.4152    -15791.69    79.042838 
   64600     498.7011   -116.63209   0.45123524   -116.18086    90.167453    4.2915608    4.2915608    4.2915608    90.167453   -13724.452    7548.5509    6446.4036     3433.585   -339.36191    3477.5743    79.039794 
   64700    691.30991    -116.8032   0.62551173   -116.17769   -1719.8598    4.2960798    4.2960798    4.2960798   -1719.8598   -8978.5691   -7135.2659    10954.256    760.80323   -6918.0068     3023.294    79.289747 
   64800    642.53812   -116.75919   0.58138199   -116.17781    7056.0659    4.2893822    4.2893822    4.2893822    7056.0659     9162.051   -13002.551    25008.697   -2350.3873    1321.9419   -18182.449    78.919482 
   64900    497.91755    -116.6312   0.45052626   -116.18067    -1077.584    4.2927436    4.2927436    4.2927436    -1077.584   -7051.9955    5365.8637   -1546.6202    377.32504    5421.6313   -11714.085    79.105165 
   65000    570.63456   -116.69555   0.51632214   -116.17923   -2970.4879    4.2948074    4.2948074    4.2948074   -2970.4879   -22478.605    10304.499    3262.6415     1675.447   -5210.1518    8213.2893    79.219313 
   65100    648.07154   -116.76411   0.58638875   -116.17772   -1656.4157    4.2910941    4.2910941    4.2910941   -1656.4157   -5404.0408   -6338.3284    6773.1221   -643.66775   -5113.6123   -10510.803    79.014015 
   65200    541.27429   -116.66879   0.48975635   -116.17904    -1664.201    4.2920452    4.2920452    4.2920452    -1664.201    2034.6096   -6284.6761   -742.53645   -2438.5363    3473.9647   -24547.731    79.066564 
   65300    599.94894    -116.7209    0.5428464   -116.17805   -3994.5687    4.2948119    4.2948119    4.2948119   -3994.5687   -19542.132    6092.3125    1466.1134    1280.1593    2282.0776   -500.01713    79.219565 
   65400    573.29253   -116.69657   0.51872713   -116.17785   -6131.8588     4.294064     4.294064     4.294064   -6131.8588   -24712.884    4846.4913    1470.8162    1394.8687   -4894.2264    4828.4728    79.178182 
   65500    515.55502   -116.64557   0.46648502   -116.17908    307.41473    4.2873682    4.2873682    4.2873682    307.41473    98.843652    -3896.892    4720.2926   -2912.6901   -4346.3896   -21341.005     78.80837 
   65600    620.74471   -116.74122   0.56166286   -116.17956   -3364.1198    4.2962016    4.2962016    4.2962016   -3364.1198   -3200.1518   -14253.489     7361.281    -577.6859    1563.3058   -17638.278     79.29649 
   65700    697.46523   -116.80911    0.6310812   -116.17803   -827.17562      4.29469      4.29469      4.29469   -827.17562   -17682.695    6804.8413     8396.327    1400.3879   -773.25954     6179.781    79.212815 
   65800     475.1405   -116.60989   0.42991711   -116.17997    7916.3188    4.2850122    4.2850122    4.2850122    7916.3188     -7454.54    10057.359    21146.138   -1308.1556   -3855.6937   -6580.6404    78.678521 
   65900    463.27009   -116.60097   0.41917651    -116.1818   -9375.5487    4.2989556    4.2989556    4.2989556   -9375.5487   -2506.0981   -27769.275    2148.7271   -4037.1637   -106.10554   -25948.679     79.44908 
   66000     761.5162   -116.86621   0.68903586   -116.17717    1449.4747    4.2919631    4.2919631    4.2919631    1449.4747    451.33206   -2853.9041     6750.996   -2534.3861    1244.4393   -4569.7074    79.062026 
   66100    712.46187    -116.8229   0.64465048   -116.17825    5429.4876    4.2865428    4.2865428    4.2865428    5429.4876   -9391.2217    16731.607    8948.0772    3067.4751   -989.10916    6410.8031    78.762865 
   66200    415.93236    -116.5592   0.37634434   -116.18285   -15851.823    4.2985499    4.2985499    4.2985499   -15851.823   -14554.674   -13466.781   -19534.015   -1268.7075   -4260.2372   -21673.947    79.426592 
   66300    567.20403   -116.69486   0.51321813   -116.18164   -1535.5855    4.2902627    4.2902627    4.2902627   -1535.5855    4747.1706    -7223.312    -2130.615   -3279.5374   -905.61528   -17946.744    78.968092 
   66400    877.12019   -116.97099   0.79363678   -116.17736    3073.2551    4.2907351    4.2907351    4.2907351    3073.2551   -3785.1727    3082.3332     9922.605    264.20967    3824.1516    11578.184    78.994181 
   66500    667.80041   -116.78481   0.60423984   -116.18057   -3746.4208    4.2955734    4.2955734    4.2955734   -3746.4208   -13999.604    5520.4293   -2760.0873    1400.4319   -1578.2448   -3331.5861    79.261712 
   66600    464.95656   -116.60287   0.42070246   -116.18216   -4733.1991    4.2922967    4.2922967    4.2922967   -4733.1991   -4604.2788   -4155.0228   -5440.2958   -1665.2809   -4050.2165   -28891.079    79.080461 
   66700    745.41562   -116.85372   0.67446772   -116.17925   -2816.9524    4.2916212    4.2916212    4.2916212   -2816.9524   -1123.0688   -10220.263    2892.4746   -6828.9693   -144.10409   -2094.8916    79.043133 
   66800    888.73045   -116.98158   0.80414199   -116.17744    7691.6797    4.2903754    4.2903754    4.2903754    7691.6797    1273.5964    6385.6998    15415.743   -585.44924    2139.6291    18384.503    78.974318 
   66900    678.23451   -116.79516   0.61368084   -116.18148   -6331.8069    4.2958302    4.2958302    4.2958302   -6331.8069    -7105.037   -7052.4176   -4837.9661    342.59785   -2045.0135   -14411.458    79.275928 
   67000    513.11636   -116.64738   0.46427847    -116.1831   -4887.9157    4.2909268    4.2909268    4.2909268   -4887.9157   -3385.3538   -8162.6102   -3115.7831   -5787.1138   -6637.8618   -20977.558    79.004772 
   67100    802.66894   -116.90583   0.72627173   -116.17956    1019.5714    4.2899728    4.2899728    4.2899728    1019.5714    6913.8536   -3893.5578    38.418585   -1888.9704    -500.2753    13975.009    78.952087 
   67200    925.19439   -117.01431   0.83713533   -116.17718   -4588.2331    4.2973763    4.2973763    4.2973763   -4588.2331    1297.5814   -4102.6681   -10959.613    875.87254    987.84456    13007.093    79.361552 
   67300    646.19156   -116.76626    0.5846877   -116.18158    1674.6429    4.2880935    4.2880935    4.2880935    1674.6429    3531.1135    6831.4128   -5338.5977   -2375.7604   -4745.6742   -20770.204    78.848371 
   67400    556.93981   -116.68703   0.50393085    -116.1831   -2828.6258    4.2922974    4.2922974    4.2922974   -2828.6258    1935.9381    527.44084   -10949.256   -5688.4539   -2359.7282   -10537.136    79.080501 
   67500     846.6538   -116.94504   0.76607015   -116.17897    284.19004    4.2964435    4.2964435    4.2964435    284.19004     4454.443    2073.9829   -5675.8558   -1944.9215    1019.1477    19872.313    79.309887 
   67600    914.70212   -117.00516    0.8276417   -116.17752    14055.502    4.2858825    4.2858825    4.2858825    14055.502    17855.196    22005.976    2305.3331    818.69432   -822.64582   -364.69648    78.726468 
   67700     582.8788   -116.71089   0.52740099   -116.18349   -5821.7061    4.2956438    4.2956438    4.2956438   -5821.7061   -246.16186   -2594.2102   -14624.746   -5896.0813   -5359.5173   -23913.822    79.265605 
   67800     604.1284   -116.72904   0.54662807   -116.18241   -3512.6522     4.293675     4.293675     4.293675   -3512.6522    2922.1509   -1198.4233   -12261.684   -3755.3924    -3982.024   -1768.4554    79.156666 
   67900    975.53789   -117.05935   0.88268718   -116.17667    8087.4826    4.2883874    4.2883874    4.2883874    8087.4826    10377.933    13391.988    492.52716    4318.1506    5292.4655    14229.204    78.864585 
   68000    797.22898   -116.90053   0.72134954   -116.17918   -7907.4353    4.2963567    4.2963567    4.2963567   -7907.4353    1099.3217   -6835.2211   -17986.407    735.44128    1870.1512   -13651.043    79.305078 
   68100    498.41691   -116.63466    0.4509781   -116.18368   -4845.0904    4.2883578    4.2883578    4.2883578   -4845.0904    4744.6814   -9095.5855   -10184.367    -6893.423   -7814.6525   -21550.267    78.862956 
   68200    727.13955   -116.84029   0.65793114   -116.18236   -2846.7754    4.2934221    4.2934221    4.2934221   -2846.7754   -4201.7156    131.84416   -4470.4547   -7482.6855   -4562.8913     8456.176     79.14268 
   68300    956.24255     -117.042   0.86522835   -116.17677   -3087.9896    4.2959354    4.2959354    4.2959354   -3087.9896    -3077.508    3199.5994   -9386.0603     2140.047    4664.0177    4482.3046    79.281752 
   68400    632.46597   -116.75307    0.5722685    -116.1808    3081.6146    4.2859824    4.2859824    4.2859824    3081.6146    12809.693    2153.3225   -5718.1721    673.66525    4294.2082   -21612.285    78.731974 
   68500    520.61843   -116.65416   0.47106649   -116.18309   -8959.3762    4.2968069    4.2968069    4.2968069   -8959.3762   -6584.6275   -6088.3562   -14205.145   -8528.5754   -7234.8789   -10296.193    79.330009 
   68600    859.67049   -116.95629   0.77784793   -116.17844    3945.4564    4.2922506    4.2922506    4.2922506    3945.4564   -7023.5329     12376.15    6483.7527   -2944.8163   -1135.5174    6214.8446    79.077913 
   68700    837.11184    -116.9355   0.75743639   -116.17807    11995.233    4.2861389    4.2861389    4.2861389    11995.233    11833.585    22343.226    1808.8892    1807.9078    9005.2669   -5508.9314      78.7406 
   68800    519.51307   -116.65266   0.47006635    -116.1826   -7232.4049    4.2979293    4.2979293    4.2979293   -7232.4049   -6077.0735   -4216.1388   -11404.002   -3788.1478   -853.93379   -19004.645    79.392194 
   68900    616.54284   -116.73844   0.55786092   -116.18058    3714.3369    4.2913485    4.2913485    4.2913485    3714.3369   -7554.7455    3729.0178    14968.738   -6571.0627    -8164.495   -3165.5239    79.028066 
   69000    880.79998    -116.9736   0.79696633   -116.17663    6808.2548    4.2879498    4.2879498    4.2879498    6808.2548    -3836.649    19737.623    4523.7908    -1435.174      3811.32    5683.0597    78.840445 
   69100    662.10651   -116.77927   0.59908788   -116.18018   -6339.6717    4.2954628    4.2954628    4.2954628   -6339.6717   -11536.213    3122.8949   -10605.698    650.03843    15572.847     -12234.4    79.255587 
   69200    583.53821   -116.70976   0.52799763   -116.18176   -6311.3283    4.2916488    4.2916488    4.2916488   -6311.3283   -9325.6842   -8651.0995   -957.20128   -8115.6248   -4426.6638    -16408.57    79.044656 
   69300    763.69891   -116.86996   0.69101082   -116.17895    1249.4496    4.2903713    4.2903713    4.2903713    1249.4496   -6950.8757    1493.0239    9206.2007    -5792.191   -8390.4296    492.45992    78.974092 
   69400    776.58537   -116.88101   0.70267076   -116.17834   -2181.4684    4.2934015    4.2934015    4.2934015   -2181.4684   -15614.298    7609.2257    1460.6669     3233.548    16318.174     1309.758    79.141544 
   69500    572.38059   -116.69922   0.51790198   -116.18132   -6706.5927    4.2928328    4.2928328    4.2928328   -6706.5927   -7493.3689   -6235.0397   -6391.3694   -245.61684    12205.113   -17952.424    79.110099 
   69600    665.80681     -116.783     0.602436   -116.18056   -667.02526    4.2904621    4.2904621    4.2904621   -667.02526    571.85691   -10973.789     8400.856   -9270.1758   -3972.4999   -11322.279    78.979107 
   69700    888.60512    -116.9817   0.80402858   -116.17767    3441.9335    4.2917614    4.2917614    4.2917614    3441.9335   -11013.221    3049.4521     18289.57   -6849.3675   -1530.4081    6095.8117    79.050882 
   69800    709.77299    -116.8229   0.64221751   -116.18068   -5697.5854    4.2947397    4.2947397    4.2947397   -5697.5854   -11756.456   -1462.4474   -3873.8527    3071.2132    13611.089   -5810.1683    79.215566 
   69900    555.96209   -116.68595   0.50304619    -116.1829   -2955.8035    4.2885464    4.2885464    4.2885464   -2955.8035    6081.6981   -9224.8365   -5724.2721   -3215.1053    9571.9846   -16933.278    78.873361 
   70000    813.67326   -116.91674   0.73622866   -116.18051    1448.7886    4.2927395    4.2927395    4.2927395    1448.7886   -9274.9291   -12789.704    26410.999   -14029.499   -4913.3908   -4409.9241    79.104938 
   70100    943.68183   -117.03187   0.85386315   -116.17801    183.25481    4.2952577    4.2952577    4.2952577    183.25481   -14258.229   -3432.6948    18240.688   -4122.5377    6780.6535    4296.9431    79.244233 
   70200    705.98402   -116.82054   0.63878918   -116.18175    3345.9493    4.2860989    4.2860989    4.2860989    3345.9493     8003.446    2551.9718   -517.56993    3949.4282    10682.397   -12412.557    78.738398 
   70300    628.14756   -116.75192   0.56836111   -116.18356   -6374.3562     4.296019     4.296019     4.296019   -6374.3562   -9050.5424   -22341.915    12269.389   -8791.6133    1247.8856   -14473.113    79.286379 
   70400    936.99139   -117.02707    0.8478095   -116.17926    3689.3212    4.2931636    4.2931636    4.2931636    3689.3212   -7446.2192    -10342.87    28857.053   -14424.757   -2169.2624    3651.4537    79.128389 
   70500    1011.3556   -117.09235   0.91509584   -116.17726    13299.041    4.2851412    4.2851412    4.2851412    13299.041    8647.3306     8696.836    22552.957    213.12719    6572.8886   -1305.0379    78.685627 
   70600    704.79884   -116.82043    0.6377168   -116.18272   -6840.8233    4.2984788    4.2984788    4.2984788   -6840.8233   -6224.6788    -19234.81    4937.0189    1572.0053    13257.015   -14859.067     79.42265 
   70700    739.98122   -116.85225   0.66955056    -116.1827    1353.4546    4.2902438    4.2902438    4.2902438    1353.4546   -1442.1161    -12802.08     18304.56    -13981.53    -2552.389   -7792.5014    78.967052 
   70800    1025.7772   -117.10707   0.92814475   -116.17893    11694.537    4.2863823    4.2863823    4.2863823    11694.537    5336.3813    787.22925    28960.001   -10052.904   -7054.1042    6391.1595    78.754018 
   70900    983.42298    -117.0687   0.88982178   -116.17888   -7089.8795    4.2994303    4.2994303    4.2994303   -7089.8795   -11228.351   -10361.164    319.87663    4710.1602    4361.5148   -7412.1611    79.475404 
   71000     771.6225   -116.87978   0.69818026    -116.1816    750.27526    4.2882118    4.2882118    4.2882118    750.27526    5811.8685   -8078.0666    4517.0239    74.711789    8383.0437   -17030.072    78.854897 
   71100    862.50453   -116.96184   0.78041223   -116.18143     2996.977    4.2890954    4.2890954    4.2890954     2996.977   -199.80355   -12334.778    21525.513   -15133.922   -2851.2964   -2272.7465    78.903656 
   71200    1016.2657   -117.09748   0.91953858   -116.17794   -5526.5048      4.29766      4.29766      4.29766   -5526.5048   -18911.281   -8002.0854    10333.852   -7557.8907    -13269.41    4341.0111    79.377273 
   71300    890.89659   -116.98551   0.80610196   -116.17941     3968.647    4.2875273    4.2875273    4.2875273     3968.647    5960.8858   -1709.3178    7654.3732    7571.6966    4367.4136   -7809.5588    78.817143 
   71400    822.86682   -116.92541   0.74454719   -116.18087   -2652.9941    4.2923979    4.2923979    4.2923979   -2652.9941    1494.0933   -20343.778    10890.702   -3778.3373    9311.3807   -12307.107    79.086054 
   71500    930.01205   -117.02041   0.84149445   -116.17892   -2725.3163    4.2947419    4.2947419    4.2947419   -2725.3163   -16495.182   -9285.1134    17604.346   -12961.308   -11357.536    532.68358    79.215688 
   71600    934.78277   -117.02449   0.84581109   -116.17867    4500.3403     4.288075     4.288075     4.288075    4500.3403   -3065.1335    5389.9384    11176.216   -1158.0613    -14522.64   -4177.2426    78.847354 
   71700    881.10464   -116.97709   0.79724199   -116.17984   -209.31163    4.2926073    4.2926073    4.2926073   -209.31163    7658.6741   -16778.037    8491.4279    5832.3561    4585.8157   -12811.878    79.097633 
   71800    865.33144    -116.9627   0.78297007   -116.17973      2041.78    4.2933578    4.2933578    4.2933578      2041.78   -5998.0646   -9787.6427    21911.047   -3733.0609    5401.0638   -2884.2539    79.139128 
   71900    836.35497   -116.93687   0.75675155   -116.18012    4899.7107    4.2898219    4.2898219    4.2898219    4899.7107   -11395.503    12328.325     13766.31   -10267.394   -20199.849    3498.5671    78.943755 
   72000    852.11065   -116.95088   0.77100762   -116.17987    3226.3988    4.2911618    4.2911618    4.2911618    3226.3988     2179.601   -3554.3041    11053.899     676.5754   -12984.298   -6273.1858    79.017753 
   72100    943.22229   -117.03211   0.85344735   -116.17866    648.61339    4.2931897    4.2931897    4.2931897    648.61339    3298.4383   -10376.042    9023.4438    3082.2054    11789.573    -15097.75    79.129831 
   72200    782.78032   -116.88849   0.70827608   -116.18022     3542.011    4.2905693    4.2905693    4.2905693     3542.011   -7835.7656    10730.102     7731.697   -6276.8702   -4296.7658     -117.987    78.985027 
   72300    728.16338   -116.84028   0.65885753   -116.18142   -2429.3477    4.2914325    4.2914325    4.2914325   -2429.3477   -17195.295    1317.8602    8589.3917   -8249.2398   -26006.701     5508.476    79.032706 
   72400    870.42491   -116.96706   0.78757875   -116.17948    -511.4462     4.293009     4.293009     4.293009    -511.4462   -3787.5077   -8385.1011     10638.27    99.598879   -5766.3162   -8380.1864     79.11984 
   72500    948.59812   -117.03653   0.85831152   -116.17822     4330.801    4.2893613    4.2893613    4.2893613     4330.801    5737.2873   -5465.3997    12720.516    5012.7099    8442.5896   -11223.124    78.918332 
   72600    643.45098   -116.76488   0.58220797   -116.18267   -4415.8117    4.2931272    4.2931272    4.2931272   -4415.8117   -24609.738   -2677.7076    14040.011   -8105.0187   -17849.094   -2159.9142    79.126373 
   72700    634.12281   -116.75688   0.57376764   -116.18312   -5392.8726    4.2926349    4.2926349    4.2926349   -5392.8726   -24060.395   -5161.7545    13043.532   -8945.5824   -22654.549    2953.6767    79.099158 
   72800    998.57566   -117.08115   0.90353224   -116.17762     3878.802     4.288754     4.288754     4.288754     3878.802    8972.4972   -10456.685    13120.594    1526.1334    4670.3353   -7397.1933    78.884812 
   72900    850.89591   -116.94904    0.7699085   -116.17913   -1142.3617    4.2949485    4.2949485    4.2949485   -1142.3617   -8636.7538   -11078.049    16287.718    -1335.654   -3015.3061   -7287.0607    79.227123 
   73000     527.0242   -116.66079   0.47686257   -116.18393   -3214.3471    4.2906892    4.2906892    4.2906892   -3214.3471   -27980.632    4339.3595    13998.231   -9343.8178   -26650.738    1400.7661    78.991648 
   73100    695.62493   -116.81179   0.62941605   -116.18237    1811.9453    4.2883985    4.2883985    4.2883985    1811.9453   -9218.5112    2840.5077    11813.839   -6576.1269   -9625.7776   -6002.0507    78.865199 
   73200    969.37645   -117.05477   0.87711218   -116.17765   -1747.9949    4.2964306    4.2964306    4.2964306   -1747.9949    292.93489   -13598.687    8061.7675    4347.6958    8416.5061    -6727.154    79.309171 
   73300    765.15484   -116.87308   0.69232818   -116.18075     302.3688    4.2898996    4.2898996    4.2898996     302.3688   -6911.6291     5030.578    2788.1575   -3494.2678   -15234.435    471.23038    78.948044 
   73400    570.21846   -116.69922   0.51594565   -116.18327   -181.83375    4.2879533    4.2879533    4.2879533   -181.83375   -19448.703    18548.838    354.36441   -10686.643   -23901.409    2693.4986    78.840637 
   73500    804.65367   -116.90864   0.72806755   -116.18057   -5268.1921    4.2961876    4.2961876    4.2961876   -5268.1921   -11313.344   -3992.5466   -498.68612   -3018.0136     4982.089   -7877.8223    79.295715 
   73600    930.00891   -117.01945    0.8414916   -116.17796    3995.8786    4.2907647    4.2907647    4.2907647    3995.8786    8759.4168   -1336.8719    4565.0908    1330.7065    6666.8448   -13232.994    78.995819 
   73700    704.12553   -116.81797   0.63710758   -116.18086    5956.4558    4.2885474    4.2885474    4.2885474    5956.4558   -11066.005    24186.937    4748.4355   -6699.5819   -21959.122    2390.1537    78.873415 
   73800    707.38832   -116.82128   0.64005982   -116.18122   -5122.7929    4.2952656    4.2952656    4.2952656   -5122.7929   -24346.431    3058.3875     5919.665   -12624.951    -13824.95    3202.5155    79.244674 
   73900    856.10368   -116.95371    0.7746206   -116.17909    2466.7251    4.2908412    4.2908412    4.2908412    2466.7251    2633.2469   -2212.3568    6979.2854     2697.521    11307.591   -7391.8503    79.000045 
   74000    892.27852   -116.98613   0.80735236   -116.17878    3927.5503    4.2889719    4.2889719    4.2889719    3927.5503      386.303     10647.33    749.01797    5511.3485    505.19705    -6361.622    78.896839 
   74100    758.02873   -116.86713   0.68588033   -116.18124   -3874.0431     4.294597     4.294597     4.294597   -3874.0431   -20122.534    5649.6903    2850.7145   -14221.039   -18930.431     458.7492    79.207672 
   74200    785.94706   -116.89166   0.71114142   -116.18052   -1625.4431     4.292325     4.292325     4.292325   -1625.4431   -12900.541   -872.89122    8897.1028   -14373.368   -4774.3045    -116.6802    79.082027 
   74300    940.42363   -117.02872   0.85091506   -116.17781    3973.1473     4.288838     4.288838     4.288838    3973.1473    5467.2928    4348.5883    2103.5607    2346.6836    13706.133   -9305.2115    78.889447 
   74400    865.29601    -116.9628   0.78293802   -116.17986    561.16205    4.2929255    4.2929255    4.2929255    561.16205   -3546.7516    6282.9247   -1052.6869    1125.7496   -3750.2078    -4042.358     79.11522 
   74500    732.65979   -116.84492   0.66292598     -116.182   -1962.4692    4.2932437    4.2932437    4.2932437   -1962.4692   -16313.455    859.59755    9566.4502   -17644.142   -15481.055    2251.0891    79.132815 
   74600    891.83186   -116.98696   0.80694821   -116.18001    2793.8191     4.288783     4.288783     4.288783    2793.8191   -4182.9165    6183.7824    6380.5914   -10849.667    2377.8667   -7060.5787    78.886413 
   74700    1021.9739   -117.10302   0.92470348   -116.17832    3527.6627    4.2923456    4.2923456    4.2923456    3527.6627    9628.3138    8399.4228   -7444.7483    7079.2855    7473.4717   -7648.6435    79.083163 
   74800    804.84742   -116.90947   0.72824286   -116.18123   -4589.8972    4.2945209    4.2945209    4.2945209   -4589.8972   -10452.982   -580.65967   -2736.0497   -10159.786   -8541.2101    3330.4799     79.20346 
   74900    716.04216   -116.83056      0.64789   -116.18267   -1468.5768    4.2885168    4.2885168    4.2885168   -1468.5768   -19708.992    6481.1274    8822.1341   -18249.912   -12522.914    4148.0124    78.871724 
   75000    1005.1034   -117.08928   0.90943872   -116.17984    3171.4128    4.2911675    4.2911675    4.2911675    3171.4128    4503.0616    9224.5708   -4213.3939   -991.50313    2037.8456    -9789.114    79.018069 
   75100    1094.0179   -117.16833   0.98989043   -116.17844   -807.90215    4.2945093    4.2945093    4.2945093   -807.90215     4514.829    782.86046   -7721.3959    815.29864    5135.3958   -8579.5311     79.20282 
   75200     648.0431   -116.77053   0.58636301   -116.18417    4.8695977    4.2895646    4.2895646    4.2895646    4.8695977   -16971.805    7419.2914    9567.1223   -16338.258   -11585.154    4326.8173     78.92955 
   75300    708.07024   -116.82532   0.64067683   -116.18465   -1592.2736    4.2917657    4.2917657    4.2917657   -1592.2736    -9189.386   -114.37427    4526.9396   -13881.226   -10218.146     1702.287    79.051116 
   75400    1129.4423   -117.20037    1.0219431   -116.17843    7076.4969    4.2925902    4.2925902    4.2925902    7076.4969    12055.622    8582.1736    591.69543     7471.052    2552.4644   -3418.7016    79.096685 
   75500    978.35615   -117.06529    0.8852372   -116.18005    7655.6976    4.2899977    4.2899977    4.2899977    7655.6976    3186.9298    11840.229    7939.9333   -3789.9857   -284.44964    627.65659    78.953462 
   75600    547.69455   -116.68203   0.49556554   -116.18646    -5558.367    4.2929069    4.2929069    4.2929069    -5558.367   -13635.015   -6773.7132    3733.6271   -20560.529   -11906.413    4499.1324    79.114194 
   75700     757.8097   -116.87061   0.68568214   -116.18493    3322.2365    4.2905542    4.2905542    4.2905542    3322.2365   -5635.8455    8159.7355    7442.8195   -1710.9119   -10542.065   -2057.3203    78.984194 
   75800    1144.3116   -117.21296    1.0353972   -116.17757    7371.0826    4.2914549    4.2914549    4.2914549    7371.0826    3823.7534    13188.808    5100.6865    4027.8334    5297.6939   -4821.5343    79.033947 
   75900    804.93782   -116.91039   0.72832466   -116.18207    -4868.441    4.2937532    4.2937532    4.2937532    -4868.441   -10221.941   -3732.5831   -650.79919   -17293.473    2078.2633    4341.0418    79.160993 
   76000     520.6596   -116.65637   0.47110375   -116.18527   -1289.4821    4.2884642    4.2884642    4.2884642   -1289.4821   -17347.114    205.62949    13273.038   -14587.129   -12191.148    6336.5444    78.868827 
   76100    858.04212   -116.95807   0.77637454    -116.1817    1219.5898    4.2930564    4.2930564    4.2930564    1219.5898   -6401.9466    6166.8675    3893.8486    9660.8138   -6095.2359      1233.26    79.122459 
   76200    996.40153   -117.07939   0.90156504   -116.17782    421.69274    4.2933982    4.2933982    4.2933982    421.69274   -5050.2157     4759.985     1555.309    1639.6854    9081.9802   -2132.8379    79.141363 
   76300    616.80482   -116.74065   0.55809796   -116.18256    1809.2445      4.28749      4.28749      4.28749    1809.2445   -15483.962    2483.8688    18427.827   -21583.395     1227.263    2832.5721    78.815089 
   76400    562.74071   -116.69315   0.50917962   -116.18397    -2639.319    4.2941877    4.2941877    4.2941877    -2639.319   -9797.8771   -4264.2412    6144.1614   -4452.9849   -15948.562    7316.5949    79.185026 
   76500    853.86959    -116.9512   0.77259915    -116.1786    2742.1161    4.2928422    4.2928422    4.2928422    2742.1161   -1760.1478     7020.308    2966.1882     10980.56   -2957.3073   -456.21316    79.110617 
   76600     786.7816   -116.89012   0.71189653   -116.17822    3440.4394    4.2873591    4.2873591    4.2873591    3440.4394    -13352.57    8701.2151    14972.673   -6658.9869    17394.575   -2789.6243     78.80787 
   76700    538.61923   -116.66958     0.487354   -116.18223   -8428.9314    4.2943594    4.2943594    4.2943594   -8428.9314   -19407.986   -6791.6828     912.8741   -14608.528   -3328.2434    1442.9731    79.194526 
   76800    577.27096    -116.7037   0.52232689   -116.18137    -2972.034    4.2925266    4.2925266    4.2925266    -2972.034    -7468.427    155.89202   -1603.5672    28.518925   -20578.789    4434.9192    79.093168 
   76900    764.85961   -116.87039   0.69206105   -116.17833     194.9323    4.2878433    4.2878433    4.2878433     194.9323   -10751.602    7702.2952    3634.1038    5000.6491    5809.2459     2426.257     78.83457 
   77000    644.77292   -116.76286   0.58340409   -116.17945   -8941.1131    4.2940926    4.2940926    4.2940926   -8941.1131   -22315.382   -4079.7494   -428.20744   -6638.6896     17950.07    116.68267    79.179764 
   77100    472.49104   -116.60875   0.42751983   -116.18123   -7210.9108    4.2930784    4.2930784    4.2930784   -7210.9108   -16336.527   -5266.2033   -30.001861   -5806.3042   -14834.111    4558.8679    79.123678 
   77200    533.98615   -116.66359   0.48316189   -116.18043   -752.18711    4.2882048    4.2882048    4.2882048   -752.18711   -5464.7776    1678.8273    1529.3889    4100.1287   -17271.743    793.32279    78.854516 
   77300     662.3426   -116.77779   0.59930151   -116.17849   -4169.4308    4.2924712    4.2924712    4.2924712   -4169.4308   -8731.6076   -2327.9677   -1448.7171   -974.30414     16519.09   -5539.0085    79.090109 
   77400    603.68424   -116.72522   0.54622619   -116.17899   -5736.1229    4.2936115    4.2936115    4.2936115   -5736.1229   -17119.141   -4198.2793    4109.0511   -8209.3694    5646.2057    861.44625    79.153154 
   77500    405.26568   -116.54809   0.36669291    -116.1814    1274.6748    4.2892405    4.2892405    4.2892405    1274.6748   -788.99922   -2063.7457    6676.7692   -2889.9695   -22377.526    4869.5964    78.911661 
   77600     515.1145   -116.64674   0.46608642   -116.18065    -1518.427    4.2917397    4.2917397    4.2917397    -1518.427     3215.884   -6754.2837   -1016.8814     3998.524    -6583.169    158.05005    79.049683 
   77700    686.38717   -116.79895   0.62105754   -116.17789    813.12319    4.2925448    4.2925448    4.2925448    813.12319   -7076.8739   -3442.8318    12959.075    344.70937     16928.47   -3123.6306    79.094175 
   77800    557.95516   -116.68481   0.50484956   -116.17996     1957.626    4.2902593    4.2902593    4.2902593     1957.626   -10981.829   -610.63352    17465.341   -5069.5194   -6222.0148    271.27752    78.967908 
   77900     347.3715    -116.4973   0.31430903   -116.18299   -2940.1433    4.2920911    4.2920911    4.2920911   -2940.1433   -2089.8657   -8321.0529    1590.4888   -3484.8188   -27689.612    2865.8797    79.069099 
   78000    591.37224   -116.71558   0.53508603   -116.18049    -1825.092     4.291269     4.291269     4.291269    -1825.092   -2496.4531   -10858.815    7879.9916    1031.5917    2766.4791    301.01961    79.023675 
   78100    791.32887   -116.89348     0.716011   -116.17747   -845.52448    4.2914505    4.2914505    4.2914505   -845.52448   -8714.8787   -5566.3414    11744.647    309.38711    11281.904   -484.32208    79.033701 
   78200    491.46128   -116.62735   0.44468449   -116.18266    -4401.574    4.2919971    4.2919971    4.2919971    -4401.574   -15355.315   -1716.2562    3866.8496   -4499.4021   -25822.176    979.35223    79.063907 
   78300     429.7057   -116.57263   0.38880675   -116.18382   -5684.0615     4.290671     4.290671     4.290671   -5684.0615   -7016.8662   -10043.611      8.29242   -2143.7088   -21673.707    808.27196    78.990645 
   78400     788.4914   -116.89226   0.71344358   -116.17882   -4407.3664    4.2932322    4.2932322    4.2932322   -4407.3664    712.22348   -18601.307     4666.984    150.53543    8251.3415   -1779.6983    79.132183 
   78500    790.89115   -116.89486   0.71561493   -116.17924   -1497.1899    4.2910302    4.2910302    4.2910302   -1497.1899   -12450.449   -1422.1563    9381.0352   -3092.4273   -5387.1502   -518.49899    79.010482 
   78600    517.93744   -116.65216   0.46864068   -116.18352   -3881.4364    4.2905436    4.2905436    4.2905436   -3881.4364   -18561.285    4032.1852    2884.7903   -3696.0305    -29378.72    2920.7103    78.983606 
   78700    681.61631   -116.79869   0.61674076   -116.18195   -3806.8086    4.2923739    4.2923739    4.2923739   -3806.8086    2974.5951   -13180.901   -1214.1203   -205.42514   -7226.1156     3724.853    79.084732 
   78800    920.97612   -117.01156   0.83331855   -116.17825    3499.1743    4.2915219    4.2915219    4.2915219    3499.1743    5923.9269   -10880.826    15454.422    3307.4407    5871.6868    1090.2973    79.037648 
   78900    757.54629   -116.86649    0.6854438   -116.18104    929.29384    4.2917498    4.2917498    4.2917498    929.29384   -16186.034     7849.455     11124.46   -1097.4867   -26154.627   -1965.4131    79.050237 
   79000    694.45912    -116.8105    0.6283612   -116.18214    3176.4786    4.2898514    4.2898514    4.2898514    3176.4786   -2595.3515    9141.9677    2982.8195   -5907.0401   -21387.658    2215.3192    78.945383 
   79100    904.94401   -116.99814   0.81881235   -116.17933    1513.9631    4.2929877    4.2929877    4.2929877    1513.9631     7074.499   -13498.127    10965.517   -3023.1248     7766.548     2845.694    79.118663 
   79200    899.54946   -116.99363   0.81393125    -116.1797   -105.05646     4.291951     4.291951     4.291951   -105.05646    4063.3835   -5475.0657    1096.5127    2110.6292   -6356.0541   -1741.7293    79.061357 
   79300    808.63651   -116.91313   0.73167131   -116.18146    4452.5165    4.2884386    4.2884386    4.2884386    4452.5165   -3510.4672    18320.306   -1452.2891   -753.94949    -26719.01   -1817.4015    78.867412 
   79400     898.6236   -116.99322   0.81309352   -116.18013   -835.40631     4.294516     4.294516     4.294516   -835.40631   -5050.4159   -1147.8382    3692.0352   -5252.4512   -7073.4692     3332.683    79.203191 
   79500     919.7379   -117.01183   0.83219818   -116.17963      765.008    4.2915546    4.2915546    4.2915546      765.008    13926.181   -14656.293    3025.1353   -1755.0622    11438.325    7014.7184    79.039455 
   79600    865.63011   -116.96372   0.78324032   -116.18048    3302.3691    4.2884459    4.2884459    4.2884459    3302.3691    7304.5516     5061.111   -2458.5553    2251.3586   -16256.866   -2000.7684    78.867812 
   79700    946.73712    -117.0363   0.85662764   -116.17967   -1409.4924    4.2949097    4.2949097    4.2949097   -1409.4924   -11943.173    5131.1101     2583.586   -2457.8959   -23059.686   -2017.6146    79.224973 
   79800    944.71706   -117.03434   0.85479985   -116.17954    2190.1985    4.2908478    4.2908478    4.2908478    2190.1985    6318.8369    -8039.994    8291.7528   -6718.7245    5975.4107    8624.1603    79.000406 
   79900    803.53529   -116.90834   0.72705562   -116.18129    3114.7408    4.2889251    4.2889251    4.2889251    3114.7408    19899.845   -11372.848    817.22568   -1144.3098    5017.9069    3340.0744    78.894257 
   80000    924.91881   -117.01704   0.83688598   -116.18015    -2400.514    4.2950487    4.2950487    4.2950487    -2400.514   -1777.3605   -5271.8005   -152.38085    1104.1532   -11819.273   -7021.3029    79.232665 
   80100    993.04482   -117.07677   0.89852782   -116.17824    4819.3639    4.2907874    4.2907874    4.2907874    4819.3639    3956.8749   -2641.1081    13142.325   -2402.4333   -6373.8242   -570.20001    78.997072 
   80200     757.5238   -116.86706   0.68542346   -116.18164    11.336099    4.2892294    4.2892294    4.2892294    11.336099     10862.66   -12504.905    1676.2536   -4029.5074    12885.868     12108.41    78.911048 
   80300    756.37861   -116.86755   0.68438726   -116.18316   -6433.3093    4.2937999    4.2937999    4.2937999   -6433.3093     7624.507   -17759.258   -9165.1772    196.96129    2382.2642    2828.4755    79.163579 
   80400    1040.1751   -117.11946   0.94117232   -116.17829    2074.3306    4.2921693    4.2921693    4.2921693    2074.3306    8220.5157   -9349.7473    7352.2235     2383.955   -13078.429   -8144.6962    79.073419 
   80500    908.65216   -117.00125   0.82216757   -116.17908    73.765094    4.2908869    4.2908869    4.2908869    73.765094    1333.5473   -10531.803    9419.5512   -4736.2361    5766.3724    7148.7797    79.002564 
   80600    549.78727   -116.68177   0.49745908   -116.18431   -3095.4498    4.2911911    4.2911911    4.2911911   -3095.4498    7534.6078   -11977.555   -4843.4026   -4232.6478    13474.382    10188.494    79.019368 
   80700     793.4228   -116.90076   0.71790562   -116.18286    -513.1209    4.2930415    4.2930415    4.2930415    -513.1209    16607.287   -17589.895   -556.75496     1985.523    2340.0203   -6170.2137    79.121636 
   80800    1048.6364   -117.12642   0.94882829   -116.17759    6893.9259    4.2910013    4.2910013    4.2910013    6893.9259    11158.207   -8706.7699    18230.341    1478.0781   -2388.9508   -5502.9179    79.008887 
   80900    683.26209   -116.80098    0.6182299   -116.18275    3601.2408    4.2899227    4.2899227    4.2899227    3601.2408    6953.4941   -3017.0152    6867.2433   -4174.9698    8001.3635    12905.336     78.94932 
   81000    499.41306   -116.63712   0.45187943   -116.18524   -4721.1153    4.2946991    4.2946991    4.2946991   -4721.1153    18841.281   -21385.874   -11618.753    -3830.145    12487.154     7470.366    79.213323 
   81100     862.7936   -116.96078   0.78067378    -116.1801    4579.0482    4.2907759    4.2907759    4.2907759    4579.0482    19270.819   -12420.897    6887.2231    3288.8374   -2331.3312   -11105.529    78.996434 
   81200    893.69609   -116.98666   0.80863501   -116.17802    6232.8774    4.2895991    4.2895991    4.2895991    6232.8774    7783.6904    -5979.848     16894.79    2419.3118   -4720.1574   -719.55243    78.931457 
   81300    559.31587   -116.68915   0.50608075   -116.18307   -3473.1682    4.2938631    4.2938631    4.2938631   -3473.1682    7955.9334   -21575.532    3200.0945   -3382.5083    7419.8716    15002.209    79.167072 
   81400     612.7237   -116.73667   0.55440528   -116.18226   -1113.6946    4.2914681    4.2914681    4.2914681   -1113.6946    13807.933   -17041.085   -107.93185   -3394.7415    8351.1961    4871.0045    79.034674 
   81500    827.91823   -116.92743   0.74911781   -116.17831    895.09811    4.2908064    4.2908064    4.2908064    895.09811    5532.6572   -9862.2931    7014.9303    2119.7883   -3629.1138   -11434.901     78.99812 
   81600    668.87184   -116.78464    0.6052093   -116.17943   -4419.9058    4.2934547    4.2934547    4.2934547   -4419.9058   -3686.6289   -17375.817    7802.7286    3465.6441    -7270.091    2197.8161    79.144483 
   81700    586.93721   -116.71198   0.53107312    -116.1809   -4842.7847    4.2917611    4.2917611    4.2917611   -4842.7847    2797.2619   -14994.269   -2331.3466   -2920.5139    9189.6916    15419.273    79.050861 
   81800    719.43321   -116.83048   0.65095829   -116.17952    681.32911    4.2894063    4.2894063    4.2894063    681.32911     12899.13   -6896.4193   -3958.7238    125.65878    4830.6764    1337.4523    78.920814 
   81900    696.78947   -116.81029   0.63046975   -116.17982   -3798.5023    4.2931948    4.2931948    4.2931948   -3798.5023   -8116.0089   -7241.5201     3962.022    4213.8164   -16142.901   -6819.7171    79.130115 
   82000    526.74679    -116.6583   0.47661156   -116.18169   -6007.1719    4.2941032    4.2941032    4.2941032   -6007.1719   -14724.881   -5101.0009    1804.3666     -2873.16    -9459.397    5074.1563    79.180352 
   82100    665.66634   -116.78146    0.6023089   -116.17915    2710.5045    4.2890241    4.2890241    4.2890241    2710.5045    7434.3384   -4208.9613    4906.1364   -4315.0339    7313.0152    14805.716    78.899718 
   82200    768.96705    -116.8736   0.69577754   -116.17783   -1233.8327    4.2922772    4.2922772    4.2922772   -1233.8327   -6622.8545    -1979.859    4901.2155    3120.8469   -3514.8873    2175.7843    79.079387 
   82300    578.69085   -116.70469   0.52361164   -116.18108   -5691.3435    4.2932405    4.2932405    4.2932405   -5691.3435   -25315.643    6244.0591    1997.5535    4274.9352   -20192.463   -5956.3224    79.132639 
   82400    533.06401   -116.66471   0.48232752   -116.18239   -1534.2002    4.2885975    4.2885975    4.2885975   -1534.2002    -4735.393   -6531.1823    6663.9746    -5731.932   -3441.9325    10727.601    78.876179 
   82500    694.67519   -116.80878   0.62855671   -116.18022   -3559.7475    4.2942063    4.2942063    4.2942063   -3559.7475    3573.6053   -15316.113    1063.2653   -5500.5412    5975.8945     14056.25    79.186058 
   82600    705.19562    -116.8163   0.63807582   -116.17823   -4544.5358    4.2933235    4.2933235    4.2933235   -4544.5358   -16147.009    6035.7382   -3522.3366    4544.0339    -16707.11   -319.74742    79.137232 
   82700     539.0978   -116.66773   0.48778702   -116.17994   -832.64685    4.2883143    4.2883143    4.2883143   -832.64685   -13548.727     5630.992    5419.7941    2951.1734   -17578.972   -2288.3128    78.860555 
   82800    521.35325   -116.65266   0.47173138   -116.18093   -3962.4422    4.2936999    4.2936999    4.2936999   -3962.4422   -2764.8545   -16549.615    7427.1425   -4781.5696    2752.7856    12577.507    79.158045 
   82900    625.24931   -116.74515   0.56573871   -116.17941    -1185.053    4.2926287    4.2926287    4.2926287    -1185.053   -7610.0708    2530.9662    1523.9455   -4798.4262   -2479.7654    11819.378    79.098815 
   83000    608.52572   -116.72972   0.55060686   -116.17911    3154.8955    4.2892161    4.2892161    4.2892161    3154.8955   -15580.623    20984.649    4060.6606    2457.6331   -21424.545   -3910.6724    78.910316 
   83100    570.09202   -116.69543   0.51583124    -116.1796   -1035.9723    4.2932043    4.2932043    4.2932043   -1035.9723   -17336.813    8645.5906    5583.3053   -326.23258   -8308.7042    2138.2841    79.130637 
   83200    544.73395   -116.67236   0.49288672   -116.17948    -1316.605    4.2927197    4.2927197    4.2927197    -1316.605   -5381.7453   -1606.3934    3038.3237   -6410.5346      7283.04     13567.65    79.103847 
   83300    490.98438   -116.62463   0.44425299   -116.18038   -2356.9237    4.2897549    4.2897549    4.2897549   -2356.9237   -10855.508    5937.0559   -2152.3189   -1014.6713    -15850.53    6348.9747    78.940057 
   83400    549.14138   -116.67699   0.49687466   -116.18011   -3324.8961    4.2922988    4.2922988    4.2922988   -3324.8961    -25098.11    19868.693   -4745.2715   -144.15412    -22442.19   -4826.0328    79.080577 
   83500    657.71351   -116.77309     0.595113   -116.17798    -4282.512    4.2937015    4.2937015    4.2937015    -4282.512   -14350.924   -3661.2049    5164.5929   -4601.6151    2220.7236    5201.2947    79.158135 
   83600    485.45318    -116.6192   0.43924824   -116.17996   -3762.2896     4.289683     4.289683     4.289683   -3762.2896   -8802.9203    -12474.36    9990.4109   -5605.6217   -514.68631    13757.099    78.936087 
   83700    370.95683   -116.51838   0.33564953   -116.18273   -8000.2198    4.2910071    4.2910071    4.2910071   -8000.2198   -24984.983    10005.169   -9020.8452    709.88171    -28806.24   -115.84966    79.009206 
   83800    618.98772   -116.74053    0.5600731   -116.18045   -5441.8511    4.2948016    4.2948016    4.2948016   -5441.8511   -21207.235    11747.726   -6866.0442    716.13291    -15314.29   -7679.0811    79.218991 
   83900       776.05   -116.87955   0.70218635   -116.17737    650.22136    4.2905357    4.2905357    4.2905357    650.22136   -4514.4286   -5020.9817    11486.074   -6318.5257    9923.3908    6247.5138    78.983168 
   84000    513.12089   -116.64618   0.46428257   -116.18189   -4726.6075    4.2894425    4.2894425    4.2894425   -4726.6075   -15425.779    9161.8183    -7915.862   -2014.2354   -16220.969    11495.661    78.922812 
   84100    458.21285   -116.59856   0.41460062   -116.18396   -7359.2746    4.2950713    4.2950713    4.2950713   -7359.2746   -24336.688     23596.02   -21337.155    1482.2289   -29502.862   -2435.8504    79.233916 
   84200    856.12699   -116.95364   0.77464169   -116.17899    2085.4451    4.2912933    4.2912933    4.2912933    2085.4451   -5798.8687    8609.9123    3445.2918   -2370.6983    1433.6156   -9144.5168    79.025016 
   84300     850.1492   -116.94855   0.76923287   -116.17931     7969.167    4.2876398    4.2876398    4.2876398     7969.167   -3150.9619    17801.304     9257.159   -4562.9506    3728.6462    2415.2015    78.823351 
   84400    506.45008   -116.64318   0.45824667   -116.18493   -6235.9774    4.2964383    4.2964383    4.2964383   -6235.9774   -28440.934    22987.477   -13254.475   -2556.3866   -30595.016     7620.908    79.309594 
   84500    740.40556   -116.85186   0.66993451   -116.18193    -1230.401    4.2924887    4.2924887    4.2924887    -1230.401   -12489.813    15463.756   -6665.1461    2882.9934    -20818.77   -2378.6824    79.091076 
   84600    1103.8511   -117.17523   0.99878763   -116.17644    13204.177    4.2862068    4.2862068    4.2862068    13204.177    9152.3776    19582.111    10878.042   -939.06216    11088.699    -6572.832    78.744342 
   84700    843.98558   -116.94616   0.76365589   -116.18251   -3589.4483    4.2955657    4.2955657    4.2955657   -3589.4483   -20579.192    15544.687   -5733.8392   -3849.8693   -9868.9525    3108.9603    79.261281 
   84800     582.3872   -116.71347   0.52695618   -116.18652   -4137.5637    4.2930833    4.2930833    4.2930833   -4137.5637   -22151.135    18197.049   -8458.6046   -256.46207   -31618.102    5869.4391    79.123946 
   84900     1016.011   -117.10102   0.91930814   -116.18171     9132.499    4.2866531    4.2866531    4.2866531     9132.499    2414.1539     17988.28     6995.063    702.06433    -4130.278   -1822.7449    78.768946 
   85000     1206.613   -117.27023    1.0917688   -116.17846    3418.1431    4.2946319    4.2946319    4.2946319    3418.1431   -9225.7392     9733.161    9747.0073   -1524.9334    7500.2948    -4531.379    79.209604 
   85100    694.77372   -116.81461   0.62864586   -116.18597   -5620.3021    4.2944263    4.2944263    4.2944263   -5620.3021   -24639.117    19114.627   -11336.416   -3716.2605   -22974.831     3179.246    79.198226 
   85200    698.81794   -116.81835   0.63230515   -116.18605    738.07529    4.2859228    4.2859228    4.2859228    738.07529   -10905.488    22657.997   -9538.2835    1218.1807   -24294.077    8294.6207    78.728692 
   85300    1182.8173   -117.25111    1.0702379   -116.18088    4142.9612    4.2939882    4.2939882    4.2939882    4142.9612   -2787.8235     8929.832    6286.8751    3017.0059    5854.5474    1204.5433    79.173994 
   85400    1059.8468   -117.13945   0.95897166   -116.18048    2469.5995    4.2948096    4.2948096    4.2948096    2469.5995   -7414.7992    13618.187     1205.411   -920.98841   -5344.7746   -1490.2955    79.219438 
   85500    581.22992   -116.71153   0.52590904   -116.18563    3012.1836    4.2865406    4.2865406    4.2865406    3012.1836   -13745.826    28733.728   -5951.3513    995.50072   -27767.569    7732.2831    78.762739 
   85600    749.15217   -116.86387   0.67784863   -116.18602    -1678.525    4.2935421    4.2935421    4.2935421    -1678.525   -13022.159    12547.911    -4561.327    2100.9698   -6927.6906    7664.5414    79.149318 
   85700    1141.8547   -117.21122    1.0331742   -116.17805     5312.238    4.2932111    4.2932111    4.2932111     5312.238   -254.68504    2096.2671    14095.132    1698.4883    6933.4352   -2293.7864    79.131014 
   85800     872.9774   -116.97109   0.78988829    -116.1812    1313.3072    4.2896609    4.2896609    4.2896609    1313.3072   -13969.123    17211.525    697.51988   -2822.3125   -20717.136   -4165.0722    78.934866 
   85900    524.24969   -116.65986   0.47435213    -116.1855    -4680.988    4.2909754    4.2909754    4.2909754    -4680.988   -20347.204    21975.829   -15671.589   -654.61307   -24945.054    7783.6478    79.007457 
   86000    780.39218    -116.8894   0.70611524   -116.18328   -2268.5733    4.2928581    4.2928581    4.2928581   -2268.5733   -5165.1345   -7056.0753    5415.4898    7535.4207     6937.322    11917.927    79.111495 
   86100    940.93815   -117.02961   0.85138061   -116.17823   -2509.3724    4.2936704    4.2936704    4.2936704   -2509.3724   -8125.7097   -8606.3911    9203.9836    4832.8066    318.42619   -300.21172    79.156414 
   86200    654.07651   -116.77284   0.59182217   -116.18102    686.03306     4.287117     4.287117     4.287117    686.03306   -9698.4027    15497.316   -3740.8138   -1023.9381   -26637.504   -639.64857    78.794519 
   86300     516.9014   -116.65147   0.46770325   -116.18377   -7350.1912    4.2934281    4.2934281    4.2934281   -7350.1912   -8481.3288   -4234.8933   -9334.3516   -1988.8491     -8837.47    9959.4547    79.143014 
   86400    701.19367   -116.81487   0.63445477   -116.18042   -8513.4863    4.2960409    4.2960409    4.2960409   -8513.4863   -9152.8556   -24488.871    8101.2682    3871.7399    10809.766    4304.9967    79.287593 
   86500    774.69274   -116.87866   0.70095827    -116.1777    4711.0082    4.2847044    4.2847044    4.2847044    4711.0082   -1423.8451    1751.6035    13805.266    4306.3388   -8587.2611   -6300.0685     78.66157 
   86600    598.83476   -116.72279   0.54183828   -116.18095   -1779.3618    4.2930589    4.2930589    4.2930589   -1779.3618   -6007.6934     1161.302   -491.69397   -1531.8775   -20081.468    5453.6619    79.122598 
   86700    495.81847   -116.63019   0.44862697   -116.18156   -6959.6703    4.2969697    4.2969697    4.2969697   -6959.6703   -9699.9885   -17093.985    5914.9629    4128.4719    764.62655    16387.594    79.339025 
   86800    622.42997   -116.74253   0.56318771   -116.17934    5024.2996    4.2846737    4.2846737    4.2846737    5024.2996    331.80659    -7068.623    21809.715    6047.9589    10022.034    -74.03272    78.659877 
   86900     708.4993   -116.82019   0.64106505   -116.17912    1394.2989    4.2916136    4.2916136    4.2916136    1394.2989   -999.71435    -7793.178    12975.789    630.68931   -7564.3085   -8659.6286    79.042711 
   87000    604.21869   -116.72651   0.54670976    -116.1798   -4139.6145    4.2970219    4.2970219    4.2970219   -4139.6145   -1730.3211    -7159.869   -3528.6535    -1626.217   -10844.239    10946.542    79.341921 
   87100    459.35292   -116.59713   0.41563218    -116.1815   -322.08125    4.2865718    4.2865718    4.2865718   -322.08125    2122.5414   -10743.433    7654.6482    3142.4879    5143.4159    15644.999    78.764459 
   87200    603.69939   -116.72767    0.5462399   -116.18143   -2034.3931    4.2904133    4.2904133    4.2904133   -2034.3931   -2792.8593   -20722.081    17411.761    6948.8736     5794.379   -6265.3536    78.976411 
   87300    771.27381   -116.87563   0.69786475   -116.17777    -2992.685    4.2969827    4.2969827    4.2969827    -2992.685   -2768.7608   -9435.7505    3226.4562   -230.40062     -7678.46   -3156.2845    79.339749 
   87400    597.13655   -116.72086    0.5403017   -116.18056    1637.4204    4.2878253    4.2878253    4.2878253    1637.4204    7564.1183   -7515.9221     4864.065   -1123.9296   -6818.2096    20015.866    78.833579 
   87500    460.05219   -116.59977   0.41626489   -116.18351   -4616.9061    4.2887028    4.2887028    4.2887028   -4616.9061   -4489.2652   -25387.162    16025.709    6389.7263    5002.0953    10978.946    78.881989 
   87600    737.28444   -116.84764   0.66711046   -116.18053   -7880.5806    4.2972678    4.2972678    4.2972678   -7880.5806   -16725.424   -18097.962    11181.645    4566.5582    5924.0004   -9626.6629     79.35554 
   87700    850.67389   -116.94741   0.76970761   -116.17771    4180.9449    4.2898516    4.2898516    4.2898516    4180.9449    5682.1875    -947.9402    7808.5875   -1093.1042   -2450.6946    4385.7421    78.945398 
   87800    640.30683   -116.76026   0.57936308    -116.1809    1138.5194    4.2873721    4.2873721    4.2873721    1138.5194    8502.6249   -12193.952    7106.8853    698.32863   -1377.0352    23355.974    78.808587 
   87900    580.15835   -116.70751   0.52493947   -116.18257   -8697.5993     4.297054     4.297054     4.297054   -8697.5993    -19670.54    -16102.71     9680.452    7750.6188    6387.5024    1527.2333    79.343695 
   88000    834.90019   -116.93461   0.75543524   -116.17918    2393.8774    4.2908002    4.2908002    4.2908002    2393.8774   -9448.8424   -64.050979    16694.526     3661.338    5020.9777   -7759.7429    78.997776 
   88100    853.15868   -116.95028    0.7719559   -116.17832     9528.534    4.2861116    4.2861116    4.2861116     9528.534    16242.301     3595.946    8747.3549   -2726.4684   -2862.8945    18046.965    78.739098 
   88200    675.43014   -116.79256   0.61114338   -116.18142   -7209.2265    4.2969226    4.2969226    4.2969226   -7209.2265   -3153.8472   -17844.647   -629.18488    4841.1978    -614.3979    19438.738    79.336416 
   88300    698.76283   -116.81317   0.63225529   -116.18091   -3522.8019    4.2918856    4.2918856    4.2918856   -3522.8019   -17749.954   -8118.4284    15299.977     8787.089    8937.3678   -3581.8278    79.057742 
   88400    794.91324   -116.89837    0.7192542   -116.17911    5939.5656    4.2866112    4.2866112    4.2866112    5939.5656    1502.4034    5972.1351    10344.158     1075.766     5804.684    2299.7719    78.766634 
   88500    830.28731   -116.93033    0.7512614   -116.17907   -5101.3226     4.295459     4.295459     4.295459   -5101.3226    10289.946   -13604.943   -11988.971   -2615.2508   -3148.4866    23050.878    79.255374 
   88600    789.89609   -116.89408   0.71471458   -116.17936   -2231.1909     4.291557     4.291557     4.291557   -2231.1909   -2579.6405   -10274.963    6161.0307     8191.846     1784.576    7154.5664    79.039585 
   88700    758.25593   -116.86591    0.6860859   -116.17982    307.32824    4.2887749    4.2887749    4.2887749    307.32824   -16770.351    2838.9636    14853.372    9494.5538    10042.738    -5774.398    78.885969 
   88800    713.20414   -116.82616   0.64532209   -116.18084   -2642.8221    4.2939923    4.2939923    4.2939923   -2642.8221   -3030.0462   -3637.9703     -1260.45   -2855.2607    3626.8326    15415.196    79.174217 
   88900    817.48574   -116.91989   0.73967828   -116.18022    2568.8904    4.2905842    4.2905842    4.2905842    2568.8904    10975.858   -4059.5401    790.35295   -1861.3598   -3222.2667    19881.666    78.985846 
   89000    866.87011   -116.96331   0.78436229   -116.17895     4677.829    4.2898334    4.2898334    4.2898334     4677.829   -8929.0665    9766.9306    13195.623    8749.9772    3718.7438   -1012.4774     78.94439 
   89100    682.02252   -116.79826   0.61710831   -116.18116   -758.17547    4.2931126    4.2931126    4.2931126   -758.17547   -18613.933    5808.6201    10530.787    7483.9689    8571.6408    1118.7327    79.125568 
   89200    597.20405   -116.72277   0.54036278   -116.18241   -920.51813    4.2914229    4.2914229    4.2914229   -920.51813    1430.8757   -801.04019   -3391.3898   -5127.8782    40.634763    22660.008    79.032177 
   89300    813.05998   -116.91554   0.73567376   -116.17986    1632.7074    4.2904998    4.2904998    4.2904998    1632.7074    5538.8752    2154.4979   -2795.2507    -1854.085   -2543.8789    9808.8359    78.981188 
   89400    872.50784   -116.96789   0.78946343   -116.17842   -456.73815    4.2917854    4.2917854    4.2917854   -456.73815   -9901.6003    5520.9196    3010.4662    10879.202    6302.6233   -10328.543    79.052208 
   89500    558.04969   -116.68752   0.50493509   -116.18258   -2369.0942       4.2908       4.2908       4.2908   -2369.0942   -7179.1121    4342.3119   -4270.4825    2949.6581    7668.5071    11020.528    78.997764 
   89600    542.40459   -116.67444   0.49077907   -116.18366   -4745.8885     4.292327     4.292327     4.292327   -4745.8885    3971.3188    -6185.786   -12023.198   -6245.4922   -3802.6786    24313.589    79.082138 
   89700    799.08999   -116.90214   0.72303342   -116.17911    554.02347    4.2922302    4.2922302    4.2922302    554.02347    2987.0403    3074.7209   -4399.6907   -423.10091   -1397.4341    1492.0629    79.076785 
   89800    758.09412   -116.86466   0.68593949   -116.17872    2800.7703    4.2891499    4.2891499    4.2891499    2800.7703   -4290.9811    15091.655   -2398.3625    6399.3297    13748.338   -5723.6935    78.906662 
   89900    479.30071   -116.61651   0.43368135   -116.18283   -6437.9662    4.2933107    4.2933107    4.2933107   -6437.9662   -5481.1097    -375.1232   -13457.666    65.946645     8074.589    19606.089     79.13652 
   90000    576.14844   -116.70362   0.52131122   -116.18231   -4302.9268    4.2914843    4.2914843    4.2914843   -4302.9268     4520.907   -7295.4672    -10134.22    -7236.471   -6222.4869    17646.831     79.03557 
   90100    799.94369   -116.90251   0.72380586   -116.17871    2476.0558    4.2886637    4.2886637    4.2886637    2476.0558    1603.9772    11261.499   -5437.3088    -1026.948    -829.1361   -10083.873    78.879832 
   90200    632.76432   -116.75243   0.57253845   -116.17989     -7064.28    4.2954208    4.2954208    4.2954208     -7064.28   -11656.854     6902.805   -16438.791    4974.4397    13380.467    2950.7862    79.253262 
   90300    514.11918   -116.64659   0.46518584    -116.1814   -5213.2706    4.2903957    4.2903957    4.2903957   -5213.2706    2699.2946   -4646.9632   -13692.143    1812.2522    4949.2086    22453.276    78.975439 
   90400    657.46509   -116.77463   0.59488823   -116.17974    470.33663    4.2885126    4.2885126    4.2885126    470.33663    6472.2037    2159.6007   -7220.7945   -4206.2906   -11021.956    3732.4552    78.871495 
   90500    669.02041   -116.78426   0.60534373   -116.17891    -5937.846    4.2954282    4.2954282    4.2954282    -5937.846   -8390.9123    8065.3978   -17488.023   -2473.1775    4481.8149    -9438.308    79.253674 
   90600    537.54853    -116.6676   0.48638521   -116.18122   -923.91816    4.2891001    4.2891001    4.2891001   -923.91816    3769.2817    9504.1481   -16045.184    2575.9906    16522.706    10210.397    78.903913 
   90700    576.88924   -116.70284    0.5219815   -116.18085   -384.11288    4.2897974    4.2897974    4.2897974   -384.11288    7783.3377    1821.1833    -10756.86   -210.07951   -187.04998    18968.831    78.942404 
   90800    660.17963    -116.7761   0.59734441   -116.17876   -5256.7417    4.2953898    4.2953898    4.2953898   -5256.7417   -1127.5824    3522.2465   -18164.889   -4146.6978   -7874.4608   -4429.4638    79.251547 
   90900    560.81852   -116.68739   0.50744038   -116.17995   -825.18291    4.2892777    4.2892777    4.2892777   -825.18291    7035.0082    12931.421   -22441.978   -1551.5517    10476.077   -9860.4291    78.913715 
   91000    562.43507   -116.68949   0.50890307   -116.18059   -74.419659    4.2893865    4.2893865    4.2893865   -74.419659    6597.9538    8288.7534   -15109.966    5116.8907    15070.348    9887.2586    78.919723 
   91100    683.94517   -116.79789   0.61884797   -116.17904    -2865.527    4.2942816    4.2942816    4.2942816    -2865.527    2875.4343   -171.73473   -11300.281    3952.7548   -9025.9235    8581.8215    79.190221 
   91200    601.09521   -116.72326   0.54388358   -116.17938   -929.13521    4.2907012    4.2907012    4.2907012   -929.13521    8303.6684    8838.0505   -19929.125   -3348.1381   -6907.0363   -6939.2605     78.99231 
   91300    485.76339   -116.62082   0.43952892   -116.18129   -1534.8782    4.2898645    4.2898645    4.2898645   -1534.8782     3257.551    11708.942   -19571.127   -1624.9195    18179.492   -5434.1853    78.946109 
   91400    612.99066   -116.73457   0.55464683   -116.17993   -1624.3905    4.2928624    4.2928624    4.2928624   -1624.3905     5966.807    3060.5463   -13900.525    6028.2291    10148.307    7529.7305    79.111733 
   91500    678.19306   -116.79194   0.61364333   -116.17829     247.8264    4.2909049    4.2909049    4.2909049     247.8264    13179.345    3119.8835   -15555.749    5010.9125   -10141.678    4187.0758    79.003561 
   91600    468.52773    -116.6051   0.42393374   -116.18116   -4111.9327    4.2909735    4.2909735    4.2909735   -4111.9327    7692.9672    11314.953   -31343.719    -4580.259    1362.5505   -8718.0626     79.00735 
   91700      470.962   -116.60797   0.42613631   -116.18183   -5614.9601    4.2918638    4.2918638    4.2918638   -5614.9601    3862.4298    11071.175   -31778.485   -2984.5554    19999.277   -3893.4903    79.056536 
   91800    657.71166   -116.77404   0.59511133   -116.17893    -146.0501    4.2912648    4.2912648    4.2912648    -146.0501    8642.4249    5791.8952    -14872.47    9096.5257    1034.9849    5037.4969     79.02344 
   91900    613.24607   -116.73358   0.55487793    -116.1787    -4540.292    4.2921089    4.2921089    4.2921089    -4540.292      6699.38    4889.1762   -25209.432    7713.6113    -11944.22   -1156.5036    79.070084 
   92000    384.24642   -116.52947   0.34767424    -116.1818   -5756.0063    4.2907386    4.2907386    4.2907386   -5756.0063    9541.7078    15211.096   -42020.823   -4339.6159    14020.499   -9450.4434    78.994373 
   92100    458.54083   -116.59665   0.41489738   -116.18175   -2515.0581    4.2917966    4.2917966    4.2917966   -2515.0581    9310.2745    10868.739   -27724.188    1887.7502    16824.106   -3897.4817    79.052823 
   92200    664.07871    -116.7791   0.60087237   -116.17823   -75.993223     4.291637     4.291637     4.291637   -75.993223    11291.628   -1047.6711   -10471.936    15734.758   -3893.0559    3343.8891    79.044005 
   92300    515.71621    -116.6466   0.46663087   -116.17997    -2251.133    4.2900278    4.2900278    4.2900278    -2251.133    15320.113    9216.7811   -31290.294    4941.5959    211.56719   -1671.2943    78.955122 
   92400    341.31343    -116.4914   0.30882756   -116.18257   -10314.141    4.2931673    4.2931673    4.2931673   -10314.141    1763.7843    15518.465   -48224.671   -5034.8104    18847.566   -8041.7386    79.128593 
   92500     508.4323   -116.64001   0.46004023   -116.17997   -4165.6961    4.2920435    4.2920435    4.2920435   -4165.6961    6313.1221    3038.0566   -21848.267    6675.2548    8002.3226   -2396.7997    79.066467 
   92600    654.83408   -116.76964   0.59250764   -116.17713   -2212.2234    4.2907062    4.2907062    4.2907062   -2212.2234    11992.845   -2752.0374   -15877.477    15284.565   -6837.9808    2369.8017    78.992586 
   92700    457.61639   -116.59406   0.41406093      -116.18   -5473.9008    4.2908469    4.2908469    4.2908469   -5473.9008    9315.9917    12876.504   -38614.199    1568.2297    11588.551   -4056.5553     79.00036 
   92800    345.87431   -116.49528   0.31295434   -116.18233    -5420.429    4.2921439    4.2921439    4.2921439    -5420.429    14132.936    13939.798   -44334.021   -2992.8017    18600.532   -8209.7247    79.072018 
   92900    508.24544   -116.63992   0.45987116   -116.18005   -2106.4677    4.2926536    4.2926536    4.2926536   -2106.4677    14376.905   -1543.2006   -19153.108    15807.815   -1316.7134   -174.20142    79.100189 
   93000    569.93496   -116.69369   0.51568913     -116.178    2478.1971    4.2892279    4.2892279    4.2892279    2478.1971    13895.018    7070.3646   -13530.791     13976.62    563.64509    1828.0174     78.91097 
   93100    431.95869   -116.57085    0.3908453      -116.18   -6943.9973    4.2940883    4.2940883    4.2940883   -6943.9973     9277.582    15585.091   -45694.665   -3576.2706    18779.392   -8033.1512     79.17953 
   93200    405.79938   -116.54744    0.3671758   -116.18026   -5601.5701    4.2922072    4.2922072    4.2922072   -5601.5701    8365.1843    10518.217   -35688.112    2207.4419    9581.3654   -7950.8735    79.075518 
   93300    519.19552   -116.64894   0.46977901   -116.17916    1803.7185    4.2873545    4.2873545    4.2873545    1803.7185    10222.979    4074.6198   -8886.4437    16509.018   -7923.9544    2973.4618    78.807617 
   93400    540.30165   -116.66813   0.48887629   -116.17925   -8259.3627    4.2954038    4.2954038    4.2954038   -8259.3627     7356.958    1396.1955   -33531.242    7301.7904    5633.3494    3379.3354    79.252321 
   93500    486.02365   -116.61913   0.43976441   -116.17936   -6557.8557     4.292693     4.292693     4.292693   -6557.8557    10962.853    12944.102   -43580.522   -5760.6644     18029.76    -9453.619     79.10237 
   93600    502.69839   -116.63347   0.45485207   -116.17862   -1204.6256    4.2883997    4.2883997    4.2883997   -1204.6256    10913.493    5304.7839   -19832.154    8236.8371    760.65614   -5806.5635    78.865266 
   93700    547.50325   -116.67429   0.49539244    -116.1789   -6054.5245    4.2937879    4.2937879    4.2937879   -6054.5245    5531.5702   -7706.8912   -15988.253      18507.2   -4921.5668    8500.8118    79.162913 
   93800    542.72083   -116.67004   0.49106522   -116.17898   -3707.7656    4.2924372    4.2924372    4.2924372   -3707.7656    7052.2609    6911.1707   -25086.728    2422.8734    12195.711    2765.1081    79.088227 
   93900      545.244   -116.67269   0.49334823   -116.17934    299.77617    4.2897194    4.2897194    4.2897194    299.77617    9281.2972     15493.68   -23875.649    -3796.598     11743.11   -11040.056      78.9381 
   94000    526.76214   -116.65631   0.47662546   -116.17969    846.82568    4.2916174    4.2916174    4.2916174    846.82568    8470.1233    4294.6508   -10224.297    11804.122   -5130.1538   -5998.8839    79.042926 
   94100    520.05774   -116.65016   0.47055917    -116.1796   -3350.2073    4.2940645    4.2940645    4.2940645   -3350.2073    1878.2307   -170.40288    -11758.45      14463.9   -2023.2605    9311.7938     79.17821 
   94200    564.07942   -116.68959   0.51039091    -116.1792   -1755.2644    4.2900068    4.2900068    4.2900068   -1755.2644    7907.7002    14583.097    -27756.59   -3304.9119    14862.225    1723.3486    78.953963 
   94300    612.46071   -116.73322   0.55416732   -116.17905    -158.5201    4.2896597    4.2896597    4.2896597    -158.5201    11087.775    8410.8816   -19974.216    1.8286393    8764.2305   -13283.304    78.934801 
   94400    588.97825   -116.71249    0.5329199   -116.17957   -8939.0449    4.2956242    4.2956242    4.2956242   -8939.0449    -1353.658    -15716.02   -9747.4563    16792.138   -4053.9833    959.75983    79.264519 
   94500    568.06743   -116.69368   0.51399934   -116.17968   -4499.9952    4.2895375    4.2895375    4.2895375   -4499.9952    3056.6825   -1207.9667   -15348.702    10435.079    4928.1746    13999.862    78.928056 
   94600    605.79414    -116.7274   0.54813527   -116.17927   -1508.7848    4.2899116    4.2899116    4.2899116   -1508.7848    6868.4922    10617.121   -22011.968    -4426.749    12738.027   -2269.2508    78.948709 
   94700    621.98728   -116.74153   0.56278716   -116.17875   -4311.2079    4.2952946    4.2952946    4.2952946   -4311.2079   -1247.6021   -3198.0327    -8487.989    5832.8516    1634.8912   -14088.415    79.246277 
   94800    565.48254   -116.69121   0.51166048   -116.17955    728.50038    4.2892972    4.2892972    4.2892972    728.50038    936.37008    676.71071    572.42033    18787.517   -3986.1414    2842.8069    78.914793 
   94900    573.42348   -116.69887   0.51884562   -116.18002   -2172.6965    4.2908688    4.2908688    4.2908688   -2172.6965    1718.9829     6512.065   -14749.138    3604.2986    9157.0598    12946.055    79.001566 
   95000    659.33251   -116.77548   0.59657791    -116.1789   -1403.7937    4.2932058    4.2932058    4.2932058   -1403.7937    3730.0111    5459.6541   -13401.046   -4917.6555    10878.626   -7426.4655    79.130719 
   95100    673.20773   -116.78795   0.60913251   -116.17882   -1112.2652    4.2912934    4.2912934    4.2912934   -1112.2652    3163.5417    -8163.842    1663.5046    12184.842   -1726.5802   -11184.575     79.02502 
   95200    613.57115   -116.73495   0.55517207   -116.17978   -4207.2894    4.2905728    4.2905728    4.2905728   -4207.2894   -1807.2448   -11867.206    1052.5827    17604.959    483.54349    9328.1205    78.985217 
   95300     657.3281   -116.77432   0.59476428   -116.17955   -1629.0657    4.2916901    4.2916901    4.2916901   -1629.0657    1633.3997    3179.5214    -9700.118   -1490.3095     9611.729     11431.74     79.04694 
   95400    689.41704    -116.8029   0.62379903    -116.1791   -1763.5235    4.2935878    4.2935878    4.2935878   -1763.5235    3587.7373   -1717.6565   -7160.6514   -2487.0775    6057.2701   -8922.9295    79.151847 
   95500    643.61313     -116.762   0.58235468   -116.17965    3040.3004      4.28828      4.28828      4.28828    3040.3004    1523.2191   -4712.7579     12310.44    19523.127    -4385.092   -10369.569     78.85866 
   95600    629.77424   -116.75038   0.56983297   -116.18055    -1314.675    4.2924258    4.2924258    4.2924258    -1314.675   -4676.3459    1520.5673   -788.24638    12490.386     2341.922    8822.9136    79.087597 
   95700    742.70742   -116.85106   0.67201728   -116.17904   -3544.2634    4.2941144    4.2941144    4.2941144   -3544.2634    1862.0094    3628.7599    -16123.56   -6970.4876    14333.923    5522.0679    79.180972 
   95800    750.17791   -116.85754   0.67877674   -116.17876    4188.0351    4.2872209    4.2872209    4.2872209    4188.0351    5227.5263   -2198.8581     9535.437      6483.72    4022.1981   -8928.1329    78.800249 
   95900     702.8567   -116.81654   0.63595951   -116.18058   -6513.3682    4.2939613    4.2939613    4.2939613   -6513.3682   -9648.7579   -20104.072    10212.725    22659.328   -3135.3757   -1870.9656    79.172506 
   96000    769.84587   -116.87626   0.69657272   -116.17969   -2790.4994    4.2921576    4.2921576    4.2921576   -2790.4994   -628.27367   -3110.3408   -4632.8838    5966.4012    5373.1277    10767.774    79.072774 
   96100    853.19457   -116.95036   0.77198837   -116.17837    3725.9272    4.2890288    4.2890288    4.2890288    3725.9272      5206.93     5010.523    960.32861   -8252.7329    9215.6874    4524.9755    78.899977 
   96200    756.33629   -116.86446   0.68434897   -116.18011   -1562.5776    4.2936754    4.2936754    4.2936754   -1562.5776   -6916.8821   -13140.146    15369.295    15338.254   -163.98231   -8718.1342    79.156691 
   96300    730.09207   -116.84161   0.66060265   -116.18101    2305.7369    4.2901539    4.2901539    4.2901539    2305.7369   -2241.6227   -6392.1388    15550.972    21739.465   -1734.3931   -2062.8072    78.962084 
   96400    878.67555   -116.97421    0.7950441   -116.17917    1768.1583    4.2918763    4.2918763    4.2918763    1768.1583   -178.32311    5441.6663    41.131837   -2781.8741    12980.076    6946.9975    79.057227 
   96500    914.21761   -117.00621   0.82720331     -116.179    1921.1153    4.2917541    4.2917541    4.2917541    1921.1153    717.18237    -2767.814    7813.9776   -303.27667    9668.5698   -1483.3535    79.050478 
   96600    813.33741   -116.91694   0.73592478   -116.18102    1036.3983    4.2907328    4.2907328    4.2907328    1036.3983    1907.7572   -21574.003     22775.44    22491.868   -3863.9493   -6918.3229    78.994056 
   96700    846.94634   -116.94687   0.76633485   -116.18054   -1937.7606    4.2926705    4.2926705    4.2926705   -1937.7606    -2392.514   -14201.092    10780.324    14511.692    3839.3648    1245.7491    79.101124 
   96800    999.45052   -117.08322   0.90432383    -116.1789    4561.6809    4.2894033    4.2894033    4.2894033    4561.6809    9034.5375    5492.9074   -842.40222   -7419.4682    11488.756    9197.6299    78.920651 
   96900    925.53392   -117.01753   0.83744254   -116.18009   -325.11897    4.2932649    4.2932649    4.2932649   -325.11897    3522.3898   -12877.186    8379.4391    8733.4544    1720.9575   -761.19399    79.133988 
   97000    853.78396   -116.95344   0.77252167   -116.18091   -1388.8302    4.2919896    4.2919896    4.2919896   -1388.8302   -6642.2212   -20112.284    22588.015    24641.737   -4250.3822   -6094.5847    79.063489 
   97100    949.49984   -117.03865   0.85912741   -116.17952     4888.981    4.2890014    4.2890014    4.2890014     4888.981    2567.9612    1083.2724    11015.709    1878.8666    8309.3385    2638.2042    78.898469 
   97200    985.44708   -117.07078   0.89165323   -116.17913   -725.05799    4.2942223    4.2942223    4.2942223   -725.05799    2282.3074    1116.9857    -5574.467   -4390.8251    14437.804     3852.439     79.18694 
   97300    892.04593   -116.98746   0.80714191   -116.18031    4668.8291    4.2898217    4.2898217    4.2898217    4668.8291    3781.5839   -9081.4101    19306.314    19290.446   -317.39572   -2624.6774    78.943745 
   97400    900.20065   -116.99518   0.81452046   -116.18066    3591.0375    4.2914343    4.2914343    4.2914343    3591.0375    5047.6207   -17166.057    22891.548    17294.219    -164.5735   -3200.5629    79.032808 
   97500    952.01143   -117.04078   0.86139995   -116.17938   -103.38718    4.2935424    4.2935424    4.2935424   -103.38718    1291.2245   -4453.8461    2852.4601   -8033.7238    9968.8113     5064.381    79.149335 
   97600     914.6104   -117.00734   0.82755871   -116.17978    4206.5055    4.2884319    4.2884319    4.2884319    4206.5055    1550.8293    3387.9647    7680.7226    762.06769    2664.4347    3428.4515    78.867043 
   97700    940.38434   -117.03079   0.85087951   -116.17991   -2425.0646     4.294024     4.294024     4.294024   -2425.0646   -4582.5937   -18317.565    15624.964    21717.179   -5864.6045    -3055.553    79.175973 
   97800    976.21919   -117.06205   0.88330364   -116.17875    2037.6272    4.2915781    4.2915781    4.2915781    2037.6272    3760.6014   -13144.238    15496.518    2522.3472     3183.995   -93.790616     79.04075 
   97900    831.12918   -116.93238   0.75202315   -116.18035    4101.2963    4.2890012    4.2890012    4.2890012    4101.2963    7259.9192     3006.879    2037.0905   -13047.655    9226.4425    3260.2654    78.898455 
   98000    823.97697   -116.92686   0.74555168   -116.18131   -2412.5031    4.2944967    4.2944967    4.2944967   -2412.5031    1703.3234   -3414.8387   -5525.9941    7743.9358   -420.39701    830.04852    79.202122 
   98100     1002.178    -117.0853    0.9067917    -116.1785    6124.6715    4.2896725    4.2896725    4.2896725    6124.6715    10045.891   -4352.3551    12680.478    14505.579   -3517.5613    5.4861545    78.935509 
   98200    871.92455    -116.9686   0.78893566   -116.17966    1598.1713    4.2911973    4.2911973    4.2911973    1598.1713    2681.8189   -5373.5257    7486.2207   -9081.6715    8216.4662    3798.0552    79.019715 
   98300    632.31213   -116.75517    0.5721293   -116.18304   -5415.3659    4.2938115    4.2938115    4.2938115   -5415.3659   -6799.9814    976.17036   -10422.287   -12446.366    4221.3142    3068.4665    79.164216 
   98400    844.44812   -116.94532   0.76407441   -116.18125     4571.037    4.2893104    4.2893104    4.2893104     4571.037    6667.5291    9351.6372   -2306.0554    8097.9492   -9140.6074   -3194.0944     78.91552 
   98500    1009.1004   -117.09036   0.91305522    -116.1773     4552.388    4.2923843    4.2923843    4.2923843     4552.388    13909.604   -4577.6688    4325.2293    1699.6872    -2870.189    -1826.551    79.085306 
   98600    626.34979    -116.7495   0.56673445   -116.18277   -2486.0323    4.2921144    4.2921144    4.2921144   -2486.0323    5268.3641   -7030.6368   -5695.8242   -17750.376    7371.3863    3713.0221    79.070385 
   98700    497.68661   -116.63613   0.45031731   -116.18581   -4733.2061    4.2903867    4.2903867    4.2903867   -4733.2061   -3889.7452    9526.6463   -19836.519   -6660.6639   -747.70279    3631.3686    78.974942 
   98800    946.99336   -117.03698    0.8568595   -116.18012   -456.34005    4.2924103    4.2924103    4.2924103   -456.34005     4983.274    7375.6751   -13727.969    4733.2589   -8129.9233    129.72212    79.086741 
   98900    933.03574   -117.02256   0.84423034   -116.17833    1356.6402    4.2914731    4.2914731    4.2914731    1356.6402    13398.372   -4868.1018   -4460.3492   -5528.4531    2896.6515    1461.0801    79.034951 
   99000    450.19572    -116.5919   0.40734655   -116.18456   -6650.5624    4.2911938    4.2911938    4.2911938   -6650.5624    89.641721   -1462.6073   -18578.722   -14462.811    3880.9351    4176.0327    79.019518 
   99100    507.00946   -116.64368   0.45875281   -116.18492    -4708.594    4.2924637    4.2924637    4.2924637    -4708.594   -1687.4685     12577.16   -25015.474   -4425.6104   -5444.5269    1102.7701    79.089692 
   99200    873.40339   -116.96905   0.79027374   -116.17877    4819.7755    4.2902655    4.2902655    4.2902655    4819.7755    15929.943    8300.5166   -9771.1334    7227.6637   -5332.6295   -1956.2463    78.968247 
   99300     688.4707   -116.80286   0.62294276   -116.17992    1977.7688    4.2906839    4.2906839    4.2906839    1977.7688    13644.908   -1988.7182   -5722.8829   -5479.6377    548.00009    782.28417    78.991354 
   99400    439.19028   -116.58053    0.3973886   -116.18315   -8103.4787    4.2938714    4.2938714    4.2938714   -8103.4787   -5991.9355    4669.6302   -22988.131   -12878.931    891.69763    2843.9651    79.167532 
   99500    584.51066   -116.70947   0.52887753   -116.18059     151.5736     4.289361     4.289361     4.289361     151.5736    794.53913    19283.712    -19623.53    998.79727   -3117.4009   -640.00609    78.918313 
   99600    677.55307   -116.79187   0.61306426   -116.17881    671.91837    4.2909343    4.2909343    4.2909343    671.91837    11900.523    203.52768   -10088.296     11364.41   -430.13367    -2562.294    79.005186 
   99700    584.59479   -116.70858   0.52895365   -116.17962   -4792.9914    4.2931241    4.2931241    4.2931241   -4792.9914    9432.4811   -6693.9125   -17117.543    1758.1595    3414.9414    222.84939    79.126204 
   99800    553.15986   -116.67981   0.50051067    -116.1793   -57.962694     4.289533     4.289533     4.289533   -57.962694    9050.9157     16857.54   -26082.344   -9555.9386    1648.7935    2795.9634    78.927808 
   99900    501.65005   -116.63379   0.45390351   -116.17989   -5334.3202    4.2924736    4.2924736    4.2924736   -5334.3202    2880.9437    6262.1246   -25146.029    8661.6998    -1422.996   -2575.8221    79.090242 
  100000    465.82956   -116.60233   0.42149238   -116.18084   -2958.1895    4.2905414    4.2905414    4.2905414   -2958.1895    11165.871   -10726.229   -9314.2101    19947.071   -2675.5329   -4814.5659    78.983486 
Loop time of 22.478 on 1 procs for 100000 steps with 8 atoms

Pair  time (%) = 7.29311 (32.4456)
Kspce time (%) = 5.3627 (23.8576)
Neigh time (%) = 0 (0)
Comm  time (%) = 1.08908 (4.8451)
Outpt time (%) = 0.0252602 (0.112378)
Other time (%) = 8.70782 (38.7394)

Nlocal:    8 ave 8 max 8 min
Histogram: 1 0 0 0 0 0 0 0 0 0
Nghost:    2189 ave 2189 max 2189 min
Histogram: 1 0 0 0 0 0 0 0 0 0
Neighs:    2344 ave 2344 max 2344 min
Histogram: 1 0 0 0 0 0 0 0 0 0

Total # of neighbors = 2344
Ave neighs/atom = 293
Neighbor list builds = 0
Dangerous builds = 0
unfix 20
unfix 21
print "seeds:9111756"
seeds:9111756
