LAMMPS (10 Feb 2015)
# ---- initialize simulations
clear
units metal
dimension 3
boundary p p p
atom_style charge
atom_modify map array
# ---- create atoms
read_data /Users/eugeneragasa/pyflamestk_git/pypospack/tests/tests_integration/workflow/WorkflowLammpsThermalExpansion/MgO_NaCl_unit.npt.T1400/lammps.structure
  triclinic box = (0 0 0) to (4.2565 4.2565 4.2565) with tilt (0 0 0)
  1 by 1 by 1 MPI processor grid
  reading atoms ...
  8 atoms
# ---- define interatomic potential
include potential.mod
mass 1 24.305
mass 2 15.999

group Mg type 1
4 atoms in group Mg
group O type 2
4 atoms in group O

set group Mg charge 2.0
  4 settings made for charge
set group O charge -2.0
  4 settings made for charge

variable R_cut equal 10.0

pair_style buck/coul/long ${R_cut}
pair_style buck/coul/long 10
pair_coeff 1 1 0.0 0.5 0.0 ${R_cut}
pair_coeff 1 1 0.0 0.5 0.0 10
pair_coeff 1 2 1279.69 0.29969 0.0 ${R_cut}
pair_coeff 1 2 1279.69 0.29969 0.0 10
pair_coeff 2 2 9547.96 0.21916 32.0 ${R_cut}
pair_coeff 2 2 9547.96 0.21916 32.0 10

kspace_style pppm 1.0e-5

neighbor 1.0 bin
neigh_modify every 1 delay 0 check yes
# ---- define settings
compute eng all pe/atom
compute eatoms all reduce sum c_eng
# ---- run minimization
reset_timestep 0
fix 1 all box/relax iso 0.0 vmax 0.001
thermo 10
thermo_style custom step pe lx ly lz xy xz yz press pxx pyy pzz pxy pxz pyz c_eatoms
min_style cg
minimize 1e-25 1e-25 5000 10000
PPPM initialization ...
  G vector (1/distance) = 0.354854
  grid = 8 8 8
  stencil order = 5
  estimated absolute RMS force accuracy = 5.34408e-05
  estimated relative force accuracy = 3.71126e-06
  using double precision FFTs
  3d grid and FFT values/proc = 3375 512
Neighbor list info ...
  1 neighbor list requests
  update every 1 steps, delay 0 steps, check yes
  master list distance cutoff = 11
Memory usage per processor = 4.06549 Mbytes
Step PotEng Lx Ly Lz Xy Xz Yz Press Pxx Pyy Pzz Pxy Pxz Pyz eatoms 
       0    -164.6599       4.2565       4.2565       4.2565            0            0            0   -75586.685   -75586.685   -75586.685   -75586.685 9.4798587e-11 1.6226154e-10 -3.4446142e-11    -164.6599 
      10   -164.72135     4.213935     4.213935     4.213935            0            0            0   -8637.4527   -8637.4527   -8637.4527   -8637.4527 -1.5549588e-10 2.0227431e-10 -1.1495762e-10   -164.72135 
      15   -164.72214      4.20883      4.20883      4.20883            0            0            0    5.5876567    5.5876567    5.5876567    5.5876567 2.0554645e-10 4.244052e-10 1.3955449e-10   -164.72214 
Loop time of 0.0202339 on 1 procs for 15 steps with 8 atoms

Minimization stats:
  Stopping criterion = linesearch alpha is zero
  Energy initial, next-to-last, final = 
        -164.659901251     -164.722138416     -164.722138416
  Force two-norm initial, final = 10.9148 0.000791362
  Force max component initial, final = 10.9148 0.000788889
  Final line search alpha, max atom move = 0.015625 1.23264e-05
  Iterations, force evaluations = 15 55

Pair  time (%) = 0.00542641 (26.8184)
Kspce time (%) = 0.00328898 (16.2548)
Neigh time (%) = 0 (0)
Comm  time (%) = 0.000602007 (2.97524)
Outpt time (%) = 2.21729e-05 (0.109583)
Other time (%) = 0.0108943 (53.8419)

Nlocal:    8 ave 8 max 8 min
Histogram: 1 0 0 0 0 0 0 0 0 0
Nghost:    2189 ave 2189 max 2189 min
Histogram: 1 0 0 0 0 0 0 0 0 0
Neighs:    2344 ave 2344 max 2344 min
Histogram: 1 0 0 0 0 0 0 0 0 0

Total # of neighbors = 2344
Ave neighs/atom = 293
Neighbor list builds = 0
Dangerous builds = 0
unfix 1
# ---- define output variables ----
variable natoms equal "count(all)"
variable tot_energy equal "c_eatoms"
variable length_x equal "lx"
variable length_y equal "ly"
variable length_z equal "lz"
variable tilt_xy equal "xy"
variable tilt_xz equal "xz"
variable tilt_yz equal "yz"
variable tot_press equal "press"
variable press_xx equal "pxx"
variable press_yy equal "pyy"
variable press_zz equal "pzz"
variable press_xy equal "pxy"
variable press_xz equal "pxz"
variable press_yz equal "pyz"

# ---- output ----
print "pypospack:output_section:begin"
pypospack:output_section:begin
print "tot_energy = ${tot_energy}"
tot_energy = -164.722138415744
print "num_atoms = ${natoms}"
num_atoms = 8
print "xx = ${length_x}"
xx = 4.20883001371435
print "yy = ${length_y}"
yy = 4.20883001371435
print "zz = ${length_z}"
zz = 4.20883001371435
print "xy = ${tilt_xy}"
xy = 0
print "xz = ${tilt_xz}"
xz = 0
print "yz = ${tilt_yz}"
yz = 0
print "tot_press = ${tot_press}"
tot_press = 5.58765665687492
print "pxx = ${press_xx}"
pxx = 5.58765665651822
print "pyy = ${press_yy}"
pyy = 5.58765665647238
print "pzz = ${press_zz}"
pzz = 5.58765665763416
print "pxy = ${press_xy}"
pxy = 2.0554645346851e-10
print "pxz = ${press_xz}"
pxz = 4.24405202668874e-10
print "pyz = ${press_yz}"
pyz = 1.39554488680613e-10
print "pypospack:output_section:done"
pypospack:output_section:done
print "pypospack:lammps_sim:done"
pypospack:lammps_sim:done
#------------------------------------------------------------------------------
# RUN THERMOSTAT
# running using an NPT Nose-Hoover style thermostat
#------------------------------------------------------------------------------
variable tempdamp equal 0.1
variable pressdamp equal 1.0
# set initial velocities
velocity all create 1400 1142977 mom yes dist gaussian loop all
# fix for Nose-Hoover style thermostat
fix 20 all npt temp 1400 1400 0.1 aniso 0.0 0.0 1.0 drag 1.0 couple xyz
variable boxx equal lx
variable boxy equal ly
variable boxz equal lz
variable boxp equal press
variable boxt equal temp
# calculate averages every 10000 steps
reset_timestep 0
fix 21 all ave/time 10 10 100 v_boxx v_boxy v_boxz v_boxp v_boxt file lattice.out
thermo_style custom step temp pe ke etotal press lx ly lz press pxx pyy pzz pxy pxz pyz vol
thermo_modify flush yes
thermo 100
run 100000
PPPM initialization ...
  G vector (1/distance) = 0.355405
  grid = 8 8 8
  stencil order = 5
  estimated absolute RMS force accuracy = 5.20839e-05
  estimated relative force accuracy = 3.61703e-06
  using double precision FFTs
  3d grid and FFT values/proc = 3375 512
Memory usage per processor = 3.06549 Mbytes
Step Temp PotEng KinEng TotEng Press Lx Ly Lz Press Pxx Pyy Pzz Pxy Pxz Pyz Volume 
       0         1400   -164.72213    1.2667494   -163.45538    18154.357      4.20883      4.20883      4.20883    18154.357    13666.573    7798.0365    32998.462    1076.9586   -5262.8156    3192.2112    74.556267 
     100    1101.2505    -164.2765   0.99643462   -163.28007    -2239.364    4.2365745    4.2365745    4.2365745    -2239.364   -17447.011   -25232.848    35961.767   -3850.3843     -3407.53   -2996.6618    76.040428 
     200    1115.7465   -163.94278    1.0095509   -162.93322   -24221.863    4.2574624    4.2574624    4.2574624   -24221.863   -19129.394    -53805.79    269.59388   -12692.831    5563.4425    11190.964    77.170704 
     300    1435.5123    -163.9289    1.2988817   -162.63002    261.53962    4.2395322    4.2395322    4.2395322    261.53962    -21967.79   -25470.115    48222.524    6633.2454   -1670.9778    3973.4585    76.199798 
     400    1081.3438   -163.38241   0.97842257   -162.40399    7866.8678    4.2375323    4.2375323    4.2375323    7866.8678   -478.09824    15602.048    8476.6534   -10958.683    3313.7177    -1703.176     76.09201 
     500    1195.0143   -163.34228     1.081274   -162.26101   -22375.437    4.2626311    4.2626311    4.2626311   -22375.437    17045.487   -61653.164   -22518.634   -8480.2445    6111.2923    10514.923    77.452112 
     600    1319.2438   -163.37346    1.1936795   -162.17978   -24499.849    4.2530697    4.2530697    4.2530697   -24499.849    -18120.09   -55462.239     82.78232    20445.129    20816.241    5749.5513    76.932087 
     700     1348.647   -163.36863    1.2202842   -162.14834    19530.499     4.235541     4.235541     4.235541    19530.499    22258.167    -1314.829    37648.157   -4560.7929    17091.966    6647.9866    75.984789 
     800     1392.609   -163.42594    1.2600618   -162.16588   -4994.5799    4.2623799    4.2623799    4.2623799   -4994.5799    1809.8945   -58162.299    41368.665    3965.8797    14162.082    13883.265    77.438416 
     900    1813.4532   -163.80058    1.6408506   -162.15973   -8879.3244    4.2553669    4.2553669    4.2553669   -8879.3244   -35599.271   -18159.799    27121.097    10424.586    6088.2646   -1310.6722     77.05681 
    1000     1781.015    -163.7727    1.6114998    -162.1612    21466.996     4.245984     4.245984     4.245984    21466.996   -20018.591    29999.668    54419.911    1462.7465    18533.629    14785.653    76.548212 
    1100    1742.1175   -163.73957    1.5763046   -162.16327   -9450.2203    4.2690228    4.2690228    4.2690228   -9450.2203   -40269.782   -32449.882    44369.003    -3504.628        10536   -20061.032    77.801046 
    1200    2096.0944   -164.04915    1.8965902   -162.15256   -8014.6969    4.2511768    4.2511768    4.2511768   -8014.6969   -29274.765   -10896.815    16127.489    9746.1594    8612.3087   -7205.5985    76.829411 
    1300    1406.0172   -163.42934    1.2721939   -162.15715    40804.587    4.2374515    4.2374515    4.2374515    40804.587    24883.704    39580.278    57949.778   -20718.343     17571.78   -12913.658    76.087657 
    1400    1394.3758   -163.43093    1.2616605   -162.16927   -29615.182    4.2679651    4.2679651    4.2679651   -29615.182   -54162.664   -26144.134   -8538.7474     3771.193    10753.979    -6077.173    77.743232 
    1500    1462.3637   -163.47319    1.3231774   -162.15001   -43248.078    4.2634991    4.2634991    4.2634991   -43248.078   -54118.113   -23733.788   -51892.333   -4185.4741     21391.78    7992.3981    77.499436 
    1600    1148.5806   -163.18198    1.0392599   -162.14272     19492.27    4.2284345    4.2284345    4.2284345     19492.27   -3175.2534     72282.84   -10630.777   -18351.261    2289.5232     16719.56    75.602964 
    1700    1565.6809   -163.59875     1.416661   -162.18209    1784.6325    4.2484915    4.2484915    4.2484915    1784.6325   -46576.374    31276.502    20653.769    736.64185    7490.9158     25859.38     76.68391 
    1800    1475.3233    -163.5004    1.3349036    -162.1655   -61803.891     4.278887     4.278887     4.278887   -61803.891   -87287.435    -77446.48   -20677.757    2637.8028    1355.6669    21866.639    78.341602 
    1900    1682.1121   -163.67686    1.5220104   -162.15485    5498.7222    4.2490477    4.2490477    4.2490477    5498.7222   -26274.153    12272.676    30497.643   -7155.0628   -6390.3499    19987.938    76.714034 
    2000     1877.871   -163.84957    1.6991371   -162.15043    34008.717    4.2328993    4.2328993    4.2328993    34008.717     24607.34    18588.958    58829.855    4658.3189    -15950.75    5100.3034    75.842702 
    2100    1720.8061   -163.73819    1.5570216   -162.18117   -25160.036    4.2613288    4.2613288    4.2613288   -25160.036   -34245.894   -54544.146    13309.933   -7954.8889   -5395.5221    13215.965    77.381143 
    2200    1893.6798   -163.87389    1.7134413   -162.16045   -30401.092    4.2755832    4.2755832    4.2755832   -30401.092   -49941.599   -5046.4889   -36215.189    244.65055    -16869.61   -15295.025    78.160276 
    2300    1596.9084   -163.58859    1.4449163   -162.14367    13647.057    4.2382178    4.2382178    4.2382178    13647.057    44793.468   -25916.141    22063.843    6609.1662    -14482.97   -33371.888    76.128945 
    2400    1659.3711   -163.65202    1.5014338   -162.15059    26260.639    4.2276894    4.2276894    4.2276894    26260.639    51428.041   -33027.358    60381.234   -13046.896   -3549.6448   -27536.801    75.563007 
    2500      1578.23   -163.60634    1.4280156   -162.17832   -33706.017    4.2678477    4.2678477    4.2678477   -33706.017    12510.415   -59608.589   -54019.879   -5805.1598    -18605.26   -39713.711    77.736813 
    2600    1117.9718   -163.16999    1.0115644   -162.15842    -25090.55    4.2694176    4.2694176    4.2694176    -25090.55   -9039.1024   -69964.951    3732.4028   -2229.9721   -8462.1978   -42868.539    77.822629 
    2700    1156.3473   -163.19523    1.0462874   -162.14894    18011.653    4.2350048    4.2350048    4.2350048    18011.653    56869.048   -13086.308    10252.219   -10719.813    5926.7227   -37646.245    75.955934 
    2800    1139.7878   -163.20342     1.031304   -162.17211    19524.382    4.2438955    4.2438955    4.2438955    19524.382     59803.75   -13201.713     11971.11    6690.3732    4628.6095   -44075.613    76.435311 
    2900    1051.7862   -163.12125   0.95167824   -162.16958   -44542.492    4.2771595    4.2771595    4.2771595   -44542.492   -13909.952   -77559.986   -42157.537   -4758.9291    9701.6363   -40619.428    78.246753 
    3000    1130.0737   -163.17849    1.0225145   -162.15597    914.61697    4.2551636    4.2551636    4.2551636    914.61697    11584.022   -5933.1053   -2907.0662    2237.7828    22790.094   -41130.845    77.045769 
    3100     1014.634   -163.05552   0.91806215   -162.13746    28505.734    4.2272404    4.2272404    4.2272404    28505.734    44119.964    44666.288   -3269.0503    13996.395     37618.04   -56963.336    75.538931 
    3200    646.39936   -162.76419   0.58487573   -162.17931    13698.926    4.2619858    4.2619858    4.2619858    13698.926    116209.29   -27393.114     -47719.4   -11864.616    5310.1913   -41213.216    77.416939 
    3300    1353.3687    -163.3885    1.2245564   -162.16395   -58177.863    4.2664026    4.2664026    4.2664026   -58177.863   -43116.064   -38035.023   -93382.501     5416.202    9940.3055   -33965.501    77.657876 
    3400    1494.0878   -163.49232     1.351882   -162.14043     10515.77    4.2292348    4.2292348    4.2292348     10515.77    12133.893    26482.963    -7069.545    4495.1335    12105.903   -49475.562    75.645899 
    3500    1092.4236   -163.16578   0.98844787   -162.17734   -20725.994    4.2524624    4.2524624    4.2524624   -20725.994    51770.812   -61147.082   -52801.712   -1502.4538    3912.1722   -42408.287    76.899135 
    3600    1025.3053   -163.08992   0.92771778    -162.1622   -28994.385     4.262563     4.262563     4.262563   -28994.385   -25134.918   -1976.7154   -59871.521    8131.5205   -28373.982   -31262.864    77.448394 
    3700    1483.7919   -163.48693    1.3425661   -162.14437    30582.203    4.2347756    4.2347756    4.2347756    30582.203    41192.114   -3538.2166     54092.71   -16293.788   -10735.956   -35135.233    75.943602 
    3800    1291.7175    -163.3324    1.1687731   -162.16363   -31069.067    4.2569516    4.2569516    4.2569516   -31069.067    41790.282    -65419.03   -69578.455    13308.652   -2248.7416   -59078.159     77.14293 
    3900    1247.7265   -163.28563    1.1289692   -162.15666   -1229.7247    4.2481454    4.2481454    4.2481454   -1229.7247    44922.324   -1633.9773    -46977.52   -11100.233   -21752.985    -11621.28    76.665175 
    4000    1197.7454   -163.24131    1.0837452   -162.15756    40724.952    4.2373277    4.2373277    4.2373277    40724.952    46596.158    5585.0695    69993.627   -2469.8862    4107.8514   -5819.2392    76.080988 
    4100    956.62622   -163.03407   0.86557551   -162.16849   -47018.404    4.2729556    4.2729556    4.2729556   -47018.404   -744.39226   -46695.532   -93615.288    6730.1225   -13488.773   -11302.031    78.016263 
    4200    1084.6169   -163.14581   0.98138417   -162.16442    24588.256    4.2450733    4.2450733    4.2450733    24588.256    66802.708   -39103.676    46065.737    3374.6011    8381.8639    9433.9632     76.49897 
    4300     1186.733   -163.24221    1.0737809   -162.16843    41550.999    4.2409513    4.2409513    4.2409513    41550.999    86503.775    16081.779    22067.444   -26993.787    640.31658    4551.5907    76.276339 
    4400    1133.8395    -163.1806    1.0259218   -162.15468    -44548.49    4.2806186    4.2806186    4.2806186    -44548.49   -22002.677    -31140.93   -80501.862   -21249.854     10743.62    27823.082    78.436751 
    4500    1390.4584   -163.39024     1.258116   -162.13213    42740.877    4.2437007    4.2437007    4.2437007    42740.877    19318.228    13938.615    94965.787    1002.9353    6568.9933    6408.2919     76.42479 
    4600    1785.3376   -163.75752     1.615411   -162.14211   -17674.868    4.2505188    4.2505188    4.2505188   -17674.868    6368.1791   -31043.261   -28349.521    46.682631    5966.7579    15675.711    76.793739 
    4700    2040.5311   -163.98273    1.8463154   -162.13642   -50885.361    4.2729775    4.2729775    4.2729775   -50885.361   -73702.791   -57404.117   -21549.177      7110.64    15700.694    9396.1986     78.01746 
    4800    1703.9394   -163.67274    1.5417602   -162.13098    45811.739    4.2358708    4.2358708    4.2358708    45811.739    -13089.95    102812.02    47713.143    2380.8342   -3183.6716    12271.591    76.002544 
    4900    2000.5381   -163.97354    1.8101289   -162.16341    3506.6114    4.2473188    4.2473188    4.2473188    3506.6114   -28684.817   -9319.4689     48524.12    343.32437    12050.694    6833.6515    76.620431 
    5000    2025.1225    -163.9917    1.8323734   -162.15932   -16894.175    4.2617399    4.2617399    4.2617399   -16894.175   -30353.639   -8553.6176   -11775.268   -10671.595    3824.1699   -17179.243    77.403541 
    5100    1809.4894   -163.79296    1.6372641   -162.15569   -11419.227    4.2641562    4.2641562    4.2641562   -11419.227   -52062.196   -20287.809    38092.324   -22.318986   -3799.5837   -7008.0883    77.535272 
    5200     1615.669   -163.61275    1.4618913   -162.15086   -5912.4062    4.2527263    4.2527263    4.2527263   -5912.4062   -30752.076   -3737.9888    16752.846   -9809.5371    13993.509   -14760.758     76.91345 
    5300    1748.1124   -163.72446    1.5817288   -162.14273    34240.411    4.2319365    4.2319365    4.2319365    34240.411   -1890.1743    41999.155    62612.252    1006.6118     3659.982   -29895.135    75.790965 
    5400     1345.127   -163.39062    1.2170992   -162.17352   -17842.942    4.2575473    4.2575473    4.2575473   -17842.942   -33540.802    24604.026    -44592.05    9390.7134    2941.5992   -21303.736    77.175321 
    5500    1153.6602   -163.20779     1.043856   -162.16393    6217.6763    4.2575605    4.2575605    4.2575605    6217.6763    4114.9469    25297.885   -10759.803    1464.1549    6655.4474    2885.8751    77.176039 
    5600    1561.1758   -163.57428    1.4125847   -162.16169   -21165.468    4.2437069    4.2437069    4.2437069   -21165.468   -5206.6615   -17691.777   -40597.965   -6030.3686    6326.2104   -7681.5117    76.425123 
    5700    1368.9064   -163.41385    1.2386153   -162.17524    13445.132    4.2434855    4.2434855    4.2434855    13445.132   -4505.6192    -36704.37    81545.385   -14192.762   -9401.9102    16718.293     76.41316 
    5800     1361.751   -163.41147    1.2321409   -162.17933   -8850.9526    4.2455573    4.2455573    4.2455573   -8850.9526     19002.49   -30626.483   -14928.864    9399.3802   -8001.3515    40290.511    76.525135 
    5900    1256.3289    -163.3157    1.1367528   -162.17895   -4589.2588    4.2539005    4.2539005    4.2539005   -4589.2588    720.49283   -248.35399   -14239.915   -4963.2488   -4694.2487    39350.243    76.977178 
    6000    887.92187   -162.97283   0.80341037   -162.16942    584.86448    4.2504934    4.2504934    4.2504934    584.86448   -18181.074   -57505.561    77441.228   -36688.265    -8456.176    26171.093    76.792364 
    6100    947.80151   -163.01925   0.85759073   -162.16166    10985.031    4.2414382    4.2414382    4.2414382    10985.031    11570.714    17997.811    3386.5691   -15809.814   -7703.1634     44337.23    76.302615 
    6200    923.21647   -163.00613   0.83534567   -162.17079    555.49696    4.2459522    4.2459522    4.2459522    555.49696    339.79802    -44750.01    46076.702   -13802.609   -2884.1959    9212.2753    76.546492 
    6300    1083.9477   -163.15195   0.98077864   -162.17117   -10169.983     4.250332     4.250332     4.250332   -10169.983   -35983.631    1657.6677    3816.0141   -41969.456    11373.717    33527.241    76.783619 
    6400    1426.5519   -163.46032    1.2907742   -162.16955   -17692.714    4.2540001    4.2540001    4.2540001   -17692.714   -33962.817   -14173.597   -4941.7262    -16847.89    4533.1377    25042.521    76.982586 
    6500    865.75386   -162.94412   0.78335228   -162.16076    4376.8697    4.2481289    4.2481289    4.2481289    4376.8697    34700.924   -9796.6825   -11773.632   -16404.274    15594.025    2142.1542    76.664282 
    6600    968.74744   -163.02902   0.87654304   -162.15248     24354.25    4.2404195    4.2404195    4.2404195     24354.25   -15837.478    20302.689    68597.538   -17501.359    11226.424    9586.8793    76.247649 
    6700    1683.5471   -163.68842    1.5233088   -162.16511   -14358.668    4.2508825    4.2508825    4.2508825   -14358.668   -36781.924   -4781.3051   -1512.7739   -17778.033    15342.565    1013.9123    76.813458 
    6800    1927.1222   -163.90599    1.7437007   -162.16229   -6622.2364     4.256262     4.256262     4.256262   -6622.2364   -558.55322    4594.2082   -23902.364   -11770.868    13763.982   -12359.746    77.105449 
    6900    1892.7317   -163.86717    1.7125834   -162.15459     4137.179    4.2447118    4.2447118    4.2447118     4137.179   -51029.708    18796.695     44644.55    12355.765   -6822.0454   -18190.279    76.479428 
    7000    1662.5115   -163.66905    1.5042753   -162.16477     13562.95    4.2467023    4.2467023    4.2467023     13562.95   -18403.728    29568.656    29523.922    8654.3135   -8237.5707   -7995.5623     76.58707 
    7100    1544.6519   -163.56686    1.3976335   -162.16923    2525.1739    4.2472963    4.2472963    4.2472963    2525.1739   -6522.2495    -15562.94    29660.711    13821.647   -1249.0197   -9911.7116    76.619213 
    7200    1137.9212   -163.20346     1.029615   -162.17385    11586.637    4.2581547    4.2581547    4.2581547    11586.637   -44801.942    21184.765     58377.09    23618.631    2180.6623   -23680.906    77.208356 
    7300     1407.035   -163.43912    1.2731149   -162.16601   -37256.619    4.2516456    4.2516456    4.2516456   -37256.619   -68618.419   -48600.762    5449.3244    38035.688   -8998.8343    644.74541    76.854828 
    7400    1410.1481   -163.43409    1.2759316   -162.15816    19422.174    4.2319454    4.2319454    4.2319454    19422.174    13637.967    31266.633    13361.923    19671.258   -9045.6089    6936.3637    75.791442 
    7500    917.15762   -163.01333   0.82986349   -162.18347   -21141.071    4.2581108    4.2581108    4.2581108   -21141.071      1638.28   -61023.021   -4038.4705    13860.136   -2026.2564    24095.789    77.205966 
    7600    908.89462   -162.99579   0.82238695    -162.1734   -19902.046    4.2541113    4.2541113    4.2541113   -19902.046   -44154.657   -23671.681    8120.2019    38229.474   -1109.5498    10720.112    76.988619 
    7700    1281.8962   -163.30971    1.1598866   -162.14982    30900.173    4.2251526    4.2251526    4.2251526    30900.173    31469.513    20188.411    41042.594     41954.58   -13363.766    25622.903    75.427065 
    7800    1342.4184   -163.39108    1.2146484   -162.17643   -14521.785    4.2552215    4.2552215    4.2552215   -14521.785    30437.303   -48131.138   -25871.521    27256.965    820.61712    24633.904    77.048912 
    7900    958.47132    -163.0222   0.86724499   -162.15496    -28003.09    4.2662499    4.2662499    4.2662499    -28003.09   -72305.512   -19556.148    7852.3891    29422.469   -590.95826    18555.843    77.649539 
    8000    1494.3102   -163.49284    1.3520833   -162.14075    5823.8937    4.2277266    4.2277266    4.2277266    5823.8937    29550.315    -38174.73    26096.097     38287.43    2853.0412    31566.073    75.564999 
    8100    1611.7252   -163.61846    1.4583228   -162.16014    1523.9973    4.2322006    4.2322006    4.2322006    1523.9973    11422.451   -21559.639     14709.18    7497.4963   -5935.0723    23889.842    75.805156 
    8200    1356.6267   -163.38975    1.2275044   -162.16224   -53310.812    4.2633365    4.2633365    4.2633365   -53310.812   -55364.302   -79041.059   -25527.073    22481.446   -1261.9292     6600.887    77.490569 
    8300    1336.1511    -163.3666    1.2089776   -162.15762    31375.777    4.2420613    4.2420613    4.2420613    31375.777    95821.432   -5904.5226    4210.4214   -10639.726   -2193.0998    4052.1919    76.336247 
    8400    1402.4977   -163.42609    1.2690094   -162.15708    5137.0632    4.2362838    4.2362838    4.2362838    5137.0632    10389.303    13041.625    -8019.739   -18287.122    4531.8197    5158.8815    76.024777 
    8500    1604.2695   -163.60658    1.4515768     -162.155   -11199.327    4.2582217    4.2582217    4.2582217   -11199.327   -6979.2884   -12616.438   -14002.254   -8736.7564    4182.9102    -10831.97    77.211999 
    8600    2026.7813   -163.98263    1.8338743   -162.14876    8836.0259    4.2447936    4.2447936    4.2447936    8836.0259    33988.644    1136.6958   -8617.2623   -24125.433   -8698.0382   -3498.0956    76.483847 
    8700    1911.5374   -163.88175    1.7295992   -162.15215    5223.0779    4.2411675    4.2411675    4.2411675    5223.0779    45089.346   -13160.936   -16259.177   -16984.997    10108.186   -10960.635    76.288006 
    8800     1908.162   -163.88387     1.726545   -162.15733    1026.5818    4.2512835    4.2512835    4.2512835    1026.5818     13347.55    31827.805    -42095.61   -22175.367   -15681.957   -13391.888    76.835197 
    8900    1994.7917   -163.96357    1.8049294   -162.15864   -7592.5992    4.2425563    4.2425563    4.2425563   -7592.5992    20094.126   -16473.641   -26398.282    1970.3101    698.19766   -6357.0798    76.362977 
    9000    1751.6943   -163.74937    1.5849698   -162.16441    11255.658     4.238122     4.238122     4.238122    11255.658    31891.433   -15758.059      17633.6    19478.263    1113.2893   -15875.847    76.123782 
    9100    1553.6454   -163.57218     1.405771    -162.1664    4958.8195    4.2454553    4.2454553    4.2454553    4958.8195    11632.723   -13698.058    16941.793    9670.4796   -16538.578   -1771.3733    76.519624 
    9200    1335.5421   -163.36952    1.2084266   -162.16109    10219.618    4.2481536    4.2481536    4.2481536    10219.618     77866.79   -44709.799   -2498.1357    20061.383    18344.229    -202.2405    76.665615 
    9300    1347.4572   -163.38206    1.2192076   -162.16285    2420.2088    4.2415203    4.2415203    4.2415203    2420.2088    11497.567   -33085.407    28848.466    37344.995   -6276.3271   -3598.1471    76.307046 
    9400      1366.49   -163.40741    1.2364289   -162.17098     4524.982    4.2485409    4.2485409    4.2485409     4524.982    35844.823   -31470.262    9200.3844    27547.966      2750.98   -1128.2893    76.686588 
    9500    1389.6495   -163.42103    1.2573841   -162.16364    -41274.94    4.2580262    4.2580262    4.2580262    -41274.94   -35606.881   -68175.832   -20042.107    32120.249    15099.725    10938.042    77.201369 
    9600    1304.4051   -163.33301    1.1802532   -162.15275    3312.8523    4.2511169    4.2511169    4.2511169    3312.8523    11782.859   -33559.518    31715.216    36442.311   -4152.3628    8758.9571    76.826161 
    9700    1344.6043    -163.3737    1.2166262   -162.15707   -18531.739    4.2428576    4.2428576    4.2428576   -18531.739   -34782.427   -38475.443    17662.651    36914.216    7939.1573    1855.1532    76.379247 
    9800    1350.2074   -163.38401     1.221696   -162.16231    10033.128    4.2343932    4.2343932    4.2343932    10033.128    18514.538   -29416.756    41001.602    51532.321    5499.7479    20293.231    75.923035 
    9900    1237.5411   -163.29564    1.1197532   -162.17588   -16959.912    4.2515996    4.2515996    4.2515996   -16959.912   -60987.983   -41814.825    51923.073     51119.76   -11499.635    7664.3201    76.852338 
   10000    1189.4547   -163.24225    1.0762436   -162.16601   -36622.612    4.2518525    4.2518525    4.2518525   -36622.612   -46836.907   -56852.335   -6178.5954     48054.33   -1427.4019    12668.445    76.866053 
   10100    1063.0874     -163.121   0.96190383    -162.1591    21122.435    4.2354274    4.2354274    4.2354274    21122.435   -16373.093    31835.329     47905.07    45104.766   -10111.126   -3221.6883    75.978678 
   10200     1069.596   -163.13868   0.96779298   -162.17089   -10677.582    4.2397259    4.2397259    4.2397259   -10677.582   -21719.855   -55866.392    45553.499     36557.81    6397.1578   -7693.3131    76.210241 
   10300    1134.5221   -163.19855    1.0265394   -162.17201    3316.9197    4.2453894    4.2453894    4.2453894    3316.9197   -18620.062    1033.7502    27537.071    29020.535   -8372.0422    297.26605    76.516059 
   10400    977.97277   -163.05633   0.88489031   -162.17143   -4638.2559    4.2668115    4.2668115    4.2668115   -4638.2559   -71092.247    12397.271    44780.208    19864.217   -85.634382   -11633.622    77.680209 
   10500    865.44651   -162.93673   0.78307419   -162.15366   -28944.535    4.2548498    4.2548498    4.2548498   -28944.535   -61768.488   -72339.847    47274.732    21997.395    5952.5347   -3723.9318    77.028724 
   10600    1384.2286   -163.38619    1.2524791   -162.13371     29336.09    4.2187818    4.2187818    4.2187818     29336.09   -23704.363    25247.508    86465.125    21642.066    2750.8887   -17504.015    75.086384 
   10700    1601.7983   -163.62846    1.4493408   -162.17912   -13437.248    4.2498819    4.2498819    4.2498819   -13437.248   -54575.799   -6682.1257     20946.18    17090.109   -5568.2663    2001.6255    76.759224 
   10800     1465.446   -163.48031    1.3259664   -162.15434   -58550.607    4.2674108    4.2674108    4.2674108   -58550.607   -64551.199   -56914.644   -54185.979    18522.242    1690.9278    11692.294    77.712943 
   10900    1637.6093   -163.62537    1.4817433   -162.14362    44961.862    4.2218537    4.2218537    4.2218537    44961.862    21236.338    77752.367    35896.882    25760.372    5351.5687    3125.8254    75.250526 
   11000    1684.3331   -163.69257      1.52402   -162.16855   -12815.494    4.2322837    4.2322837    4.2322837   -12815.494    8153.7672    -5347.552   -41252.697     1334.776    78.719415    51526.456     75.80962 
   11100    1449.6194   -163.48035    1.3116461    -162.1687   -23089.137    4.2539746    4.2539746    4.2539746   -23089.137   -1070.3482   -13991.604   -54205.461    3717.3727   -2795.4348    35651.688    76.981198 
   11200    1294.5983   -163.33728    1.1713798    -162.1659    6642.1783    4.2504461    4.2504461    4.2504461    6642.1783    7007.5538    35633.174   -22714.193   -1258.2018    4858.0155    29473.273    76.789799 
   11300    827.72238   -162.92262    0.7489406   -162.17368   -20322.996     4.243913     4.243913     4.243913   -20322.996    2239.1208   -2144.9319   -61063.178   -8762.5951     1484.651    54989.246    76.436259 
   11400    604.81265    -162.7258    0.5472472   -162.17855     5449.069    4.2401474    4.2401474    4.2401474     5449.069    46919.511    14209.941   -44782.245   -24401.258   -916.68946    33144.383    76.232974 
   11500    927.28957    -163.0203   0.83903109   -162.18127     -5351.83    4.2584922    4.2584922    4.2584922     -5351.83    48785.185   -35051.534   -29789.141   -16140.958   -146.17042    20684.827    77.226719 
   11600    1098.1049   -163.15171   0.99358841   -162.15812   -28733.242    4.2600149    4.2600149    4.2600149   -28733.242    3858.2774   -30365.188   -59692.816    -7683.957    3317.2535    44191.232    77.309587 
   11700    1454.0556   -163.46025    1.3156601   -162.14459      20425.8     4.230044     4.230044     4.230044      20425.8     39336.78    42963.288   -21022.669    2427.7901    6977.5336    38727.441    75.689328 
   11800    1544.5386   -163.56096     1.397531   -162.16343    11941.868    4.2395533    4.2395533    4.2395533    11941.868    19947.266    8520.0811    7358.2584   -2843.0142     10902.42    34050.615    76.200936 
   11900    1394.3566   -163.42701    1.2616431   -162.16537   -26616.093    4.2595094    4.2595094    4.2595094   -26616.093    1100.5228   -11867.562    -69081.24    19001.833     10469.47    11677.252    77.282068 
   12000    1550.7668   -163.55693    1.4031664   -162.15376    37876.488    4.2387421    4.2387421    4.2387421    37876.488     74897.66    41033.646   -2301.8411    30882.518    4754.6413    13714.429      76.1572 
   12100      1673.01   -163.67974    1.5137746   -162.16597   -8422.6403    4.2442167    4.2442167    4.2442167   -8422.6403   -27136.383   -7032.9114    8901.3733    31063.146     6951.349    7301.6083    76.452671 
   12200    1678.6197   -163.68576    1.5188504   -162.16691   -12112.596    4.2484096    4.2484096    4.2484096   -12112.596   -13993.654    1151.2425   -23495.375    6792.5969    7888.9584   -4794.8042    76.679477 
   12300    1114.1771   -163.17395    1.0081309   -162.16582    19193.704    4.2458346    4.2458346    4.2458346    19193.704   -3391.2279    42219.341    18752.997    12974.973    8337.0843   -1951.0819    76.540133 
   12400    664.78695   -162.76518    0.6015132   -162.16366   -18627.782    4.2566794    4.2566794    4.2566794   -18627.782   -71391.255   -16046.181     31554.09    37904.953    2107.1958    362.84311    77.128134 
   12500    969.54985   -163.02925   0.87726908   -162.15198   -4999.4273    4.2396347    4.2396347    4.2396347   -4999.4273   -62577.169     3417.122    44161.765    13186.743    1325.7135   -13556.464    76.205323 
   12600    676.52681   -162.77214   0.61213568   -162.16001    30222.384    4.2343755    4.2343755    4.2343755    30222.384    24204.671    9193.3251    57269.156    102.63294    -10177.08   -2137.7687    75.922079 
   12700    946.05563   -163.02112   0.85601102   -162.16511   -18873.853    4.2650247    4.2650247    4.2650247   -18873.853   -63110.068   -8180.8158    14669.323    30682.456   -10861.023   -17774.998    77.582656 
   12800    1279.2581   -163.30981    1.1574996   -162.15231   -18772.935    4.2538425    4.2538425    4.2538425   -18772.935   -27069.959   -35662.476    6413.6312    37215.391    -9428.916   -14167.765    76.974027 
   12900    1530.8632   -163.51835    1.3851572    -162.1332     41456.49    4.2247456    4.2247456    4.2247456     41456.49    45141.394    32010.199    47217.878    7913.2127   -2126.0576   -19136.528    75.405266 
   13000    1714.9646   -163.71539     1.551736   -162.16365   -6343.8738    4.2530312    4.2530312    4.2530312   -6343.8738   -34965.103    11402.342    4531.1399    11741.912    12496.396   -17522.031    76.929996 
   13100    1951.8104   -163.90711    1.7660391   -162.14107   -53294.049    4.2711354    4.2711354    4.2711354   -53294.049   -51498.733   -54787.313   -53596.102    19182.711    3330.2679   -1126.6581    77.916602 
   13200    2000.6792   -163.94328    1.8102566   -162.13303    16233.887    4.2301036    4.2301036    4.2301036    16233.887    46785.714    22409.215   -20493.268   -3261.7134    6280.9033   -1572.5456    75.692527 
   13300    1983.8674   -163.94424    1.7950449    -162.1492    25791.385    4.2272109    4.2272109    4.2272109    25791.385    43427.835    23488.235    10458.085    1840.8281   -5159.0393    3147.6998    75.537352 
   13400    1579.9968   -163.58814    1.4296143   -162.15853   -28230.415    4.2649979    4.2649979    4.2649979   -28230.415    2516.5586   -35510.657   -51697.146    4771.5209    11706.424    12495.212    77.581193 
   13500    1449.6029   -163.46013    1.3116312    -162.1485   -18172.703    4.2509008    4.2509008    4.2509008   -18172.703    7001.0445    5252.8062   -66771.958    -1739.406    16014.705    2351.8029    76.814448 
   13600    1288.5213   -163.30446    1.1658812   -162.13858    19508.147    4.2301562    4.2301562    4.2301562    19508.147    49158.905    22925.171   -13559.635    4976.1465    10182.896   -6816.3009    75.695353 
   13700    1177.8571   -163.22419    1.0657498   -162.15844   -688.61293    4.2334186    4.2334186    4.2334186   -688.61293    37415.827   -30133.545   -9348.1205    83.414269   -6629.7547    25444.919     75.87062 
   13800    1330.2567   -163.37587    1.2036442   -162.17222   -10322.333     4.251334     4.251334     4.251334   -10322.333    13743.159     4397.287   -49107.444    8627.6177   -5145.0495    1895.3313    76.837936 
   13900    1222.6761   -163.27121     1.106303    -162.1649   -3178.7754    4.2582627    4.2582627    4.2582627   -3178.7754    31814.922   -14511.262   -26839.986   -2031.2115   -1763.2671     12226.37    77.214229 
   14000    1305.6262   -163.33571     1.181358   -162.15436    14090.014      4.23415      4.23415      4.23415    14090.014    48726.944   -3942.4049   -2514.4969   -4834.5397   -14984.557    21324.859     75.90995 
   14100    1433.7296   -163.45622    1.2972687   -162.15895    23289.806    4.2317729    4.2317729    4.2317729    23289.806    39538.395    48590.182   -18259.159     6861.536   -21894.228    18717.897    75.782174 
   14200    1534.9935   -163.55089    1.3888944     -162.162   -30044.461     4.258645     4.258645     4.258645   -30044.461    -15622.82   -27678.872   -46831.692    1569.8903   -28390.455    25497.394    77.235027 
   14300     1871.906   -163.84755    1.6937399   -162.15381   -23947.777    4.2471122    4.2471122    4.2471122   -23947.777   -29225.615    495.68617   -43113.403    19254.476    -21736.34    14429.587    76.609249 
   14400    1978.2563   -163.93729    1.7899678   -162.14732     32830.35    4.2239447    4.2239447    4.2239447     32830.35    27051.105     34868.67    36571.274   -15364.254   -15866.604    13657.996    75.362391 
   14500    2163.4186   -164.12643    1.9575066   -162.16893    1413.8659    4.2425605    4.2425605    4.2425605    1413.8659   -6536.3006    14169.697   -3391.7989    8742.2006   -6143.2524    18732.609    76.363202 
   14600    2249.3714   -164.19458    2.0352785    -162.1593   -33322.548    4.2582316    4.2582316    4.2582316   -33322.548   -44845.625   -17239.723   -37882.297   -14972.736   -11457.916    15870.686    77.212541 
   14700    2238.7626   -164.17355    2.0256795   -162.14787   -8844.3771    4.2475189    4.2475189    4.2475189   -8844.3771   -16014.908   -1200.9564   -9317.2673    9153.6406    6916.5906    17830.687    76.631261 
   14800    1955.0974   -163.91412    1.7690133    -162.1451    16051.241    4.2376566    4.2376566    4.2376566    16051.241    40340.338    4771.0096    3042.3753   -19987.449     7098.249    19279.854    76.098708 
   14900    1767.0208   -163.75565    1.5988376   -162.15681     3212.345    4.2425502    4.2425502    4.2425502     3212.345    18905.931    7664.3446   -16933.241    9414.0852    13995.887    32431.528    76.362647 
   15000    1624.0985   -163.63016    1.4695185   -162.16064   -6226.9539    4.2471775    4.2471775    4.2471775   -6226.9539   -13712.244    15458.282     -20426.9   -12454.856   -10918.684    20519.561     76.61278 
   15100    1298.5682   -163.33462    1.1749718   -162.15965   -31683.154    4.2460349    4.2460349    4.2460349   -31683.154   -31291.754   -12479.693   -51278.015    432.99236    2056.0822    25591.688    76.550968 
   15200    1096.9629   -163.15598   0.99255508   -162.16342    3684.4598    4.2392593    4.2392593    4.2392593    3684.4598    5517.1239    19774.007   -14237.751    6039.8044   -8721.4378    18634.468    76.185085 
   15300    1328.2271   -163.36877    1.2018078   -162.16696    4573.5876    4.2356699    4.2356699    4.2356699    4573.5876    18829.593    9562.2875   -14671.118     8471.047   -16055.466    7569.1823    75.991728 
   15400     1482.857   -163.51799    1.3417201   -162.17627    1753.1389    4.2433893    4.2433893    4.2433893    1753.1389    40448.688   -41836.679    6647.4071    33007.399   -19750.107   -10201.546    76.407963 
   15500    1485.1058   -163.51481     1.343755   -162.17105    12049.089    4.2384832    4.2384832    4.2384832    12049.089    44409.448    2460.7617   -10722.944    21053.884    -21257.99   -12595.799    76.143246 
   15600    1368.4798   -163.40658    1.2382293   -162.16835    10033.477    4.2351776    4.2351776    4.2351776    10033.477    28993.109   -32675.195    33782.516    37030.859   -2868.7164   -17190.922    75.965234 
   15700    1273.3592   -163.32044    1.1521622   -162.16827    5832.6163    4.2468632    4.2468632    4.2468632    5832.6163    21128.481   -47363.263    43732.631    36733.128   -14383.819   -5942.5313    76.595776 
   15800     1138.639   -163.19349    1.0302645   -162.16322    9558.8128    4.2446581    4.2446581    4.2446581    9558.8128    48388.447   -26666.864    6954.8557    31447.891    10377.991   -4680.0976    76.476524 
   15900    1438.4387   -163.46609    1.3015296   -162.16457   -4799.1419    4.2408369    4.2408369    4.2408369   -4799.1419    18196.398   -31695.227   -898.59704    37573.583    14555.308   -3725.0982    76.270167 
   16000    1349.1698   -163.39363    1.2207572   -162.17287   -16359.884    4.2412465    4.2412465    4.2412465   -16359.884    7763.5305   -36449.558   -20393.625    21398.325    17168.645    2664.5297    76.292273 
   16100    1114.6762   -163.18873    1.0085825   -162.18015   -3818.5831    4.2349624    4.2349624    4.2349624   -3818.5831    25457.543     -9332.86   -27580.433    14549.426    34495.129    2509.1254    75.953656 
   16200     1126.892   -163.20335    1.0196356   -162.18372    15668.798     4.238937     4.238937     4.238937    15668.798    35125.342    12026.995   -145.94414    8606.8102     29985.35    13023.841    76.167707 
   16300     1083.284   -163.16066   0.98017809   -162.18048    -24107.39    4.2509499    4.2509499    4.2509499    -24107.39   -17163.198    -17611.94   -37547.033   -10704.092    24138.247    5361.3068    76.817112 
   16400    1294.1182   -163.34356    1.1709454   -162.17262    14559.349    4.2355859    4.2355859    4.2355859    14559.349    36698.084    18266.646   -11286.682   -17314.422    26589.488    15692.514    75.987205 
   16500    1326.7875   -163.36659    1.2005052   -162.16608    9863.6848    4.2302045    4.2302045    4.2302045    9863.6848    15154.954    8776.7687    5659.3319   -28596.364     12555.57    614.20279    75.697947 
   16600     1335.602   -163.37043    1.2084807   -162.16194   -36741.656    4.2503417    4.2503417    4.2503417   -36741.656   -26101.715     -54422.7   -29700.553   -43611.726    24892.428    4489.9995    76.784142 
   16700    1208.9521   -163.24869    1.0938853    -162.1548    16456.909    4.2387615    4.2387615    4.2387615    16456.909    40093.013   -19541.119    28818.832   -45808.793    6971.9061    14207.194     76.15825 
   16800    954.02805   -163.02519   0.86322463   -162.16196    -10543.13      4.24317      4.24317      4.24317    -10543.13   -29552.641   -14296.541    12219.793   -52001.271    4675.9488    16233.881    76.396121 
   16900    963.58212   -163.03695   0.87186935   -162.16508   -17272.988    4.2452087    4.2452087    4.2452087   -17272.988   -7861.3151   -40773.649   -3184.0008   -55026.027    -4753.339    16949.624    76.506289 
   17000    907.06138   -162.98437   0.82072819   -162.16364    20467.393    4.2302666    4.2302666    4.2302666    20467.393    36490.001   -37270.979    62183.158   -49613.173   -4071.2376      4924.87    75.701278 
   17100    607.16935   -162.72622   0.54937959   -162.17684   -3459.7672    4.2506223    4.2506223    4.2506223   -3459.7672    6418.2428   -32130.697    15333.153   -52045.362    5553.9528    9100.5512     76.79935 
   17200    835.58822   -162.92006   0.75605778   -162.16401   -30121.999    4.2515336    4.2515336    4.2515336   -30121.999   -11921.249   -86592.603    8147.8544   -42463.681   -21692.792   -2101.9306    76.848759 
   17300    648.13659    -162.7406   0.58644761   -162.15415    31280.443     4.237405     4.237405     4.237405    31280.443    67092.633   -28417.098    55165.793   -43403.724    5617.8004    8687.0744    76.085152 
   17400    515.10404   -162.62622   0.46607696   -162.16014   -8900.9866     4.259208     4.259208     4.259208   -8900.9866    16210.187   -30582.467   -12330.681   -53116.863    1174.3199   -2352.7147    77.265664 
   17500    724.23924   -162.79819   0.65530688   -162.14288    7412.4283    4.2546605    4.2546605    4.2546605    7412.4283    19113.189   -1763.4246    4887.5199   -58738.081   -6706.4372   -1806.5592    77.018442 
   17600    989.57477     -163.027   0.89538805   -162.13161    10610.347    4.2364096    4.2364096    4.2364096    10610.347   -911.13448    -10724.68    43466.855   -39074.896    -2907.334   -1539.9567    76.031547 
   17700    1179.1352   -163.21861    1.0669063    -162.1517   -9736.1609     4.255599     4.255599     4.255599   -9736.1609    122.58753   -20770.173    -8560.897    -33246.11   -15754.586   -22269.245    77.069421 
   17800    998.87616   -163.04541   0.90380415    -162.1416   -34667.994    4.2677242    4.2677242    4.2677242   -34667.994   -9763.9143    -49952.74   -44287.329   -45739.505    9849.9191   -19560.254    77.730068 
   17900    897.44759   -162.94805   0.81202944   -162.13602    26690.296    4.2322064    4.2322064    4.2322064    26690.296    27811.919    44796.046     7462.922   -45179.651    2734.4239   -13523.564    75.805464 
   18000    1111.1948   -163.15529    1.0054324   -162.14986    23897.367    4.2342869    4.2342869    4.2342869    23897.367    21443.726   -17301.387    67549.763   -34249.621    17013.107    1282.8707    75.917318 
   18100    1370.4513   -163.39288    1.2400131   -162.15286   -26668.351     4.266603     4.266603     4.266603   -26668.351   -30631.966   -77635.172    28262.085    -22663.51     2088.531   -16357.959    77.668817 
   18200    1463.8403   -163.45739    1.3245134   -162.13288   -23738.898    4.2584464    4.2584464    4.2584464   -23738.898   -30713.945    -46561.24    6058.4902   -23980.302   -590.65163   -8308.0923    77.224225 
   18300    1212.5963   -163.22842    1.0971826   -162.13124   -1359.5703     4.241579     4.241579     4.241579   -1359.5703   -8531.3169   -37329.825    41782.431   -40324.197   -12576.094    -5758.872    76.310214 
   18400    742.71005    -162.8176   0.67201966   -162.14558     24952.95    4.2383243    4.2383243    4.2383243     24952.95    5445.1848    159.35455    69254.309   -41206.281   -12232.039    9560.7076    76.134685 
   18500    801.41855   -162.88534   0.72514035    -162.1602    11788.848     4.253909     4.253909     4.253909    11788.848   -11838.047    3970.8656    43233.725   -48429.984   -7490.4594     14631.65    76.977637 
   18600    938.37506   -162.99786   0.84906147    -162.1488   -13206.833    4.2609645    4.2609645    4.2609645   -13206.833   -25540.924   -4716.5637   -9363.0113   -60535.551   -11640.459    9754.3306    77.361301 
   18700    1409.0036   -163.40823    1.2748961   -162.13334    1441.0687    4.2386393    4.2386393    4.2386393    1441.0687   -20488.724    18026.276    6785.6548   -50803.815    -26260.75   -524.46327    76.151663 
   18800    1723.3694    -163.7006    1.5593409   -162.14126   -24421.275     4.242043     4.242043     4.242043   -24421.275   -41750.837   -32813.358    1300.3692    -38346.95   -17412.856   -6435.1724     76.33526 
   18900    1343.9421   -163.36302    1.2160271   -162.14699    2174.7172    4.2515518    4.2515518    4.2515518    2174.7172    6990.0541    25044.493   -25510.395   -36728.104    -8014.533   -5393.8258    76.849745 
   19000    1129.2843   -163.16997    1.0218002   -162.14817   -9543.1643    4.2614381    4.2614381    4.2614381   -9543.1643    4293.4478    13283.111   -46206.052   -50921.435   -3987.8426   -178.81309    77.387097 
   19100    1330.4587   -163.34175     1.203827   -162.13792    14581.617    4.2480514    4.2480514    4.2480514    14581.617    47218.175   -6740.2239    3266.9014   -36169.807    19645.289    4790.7898    76.660082 
   19200    1503.9121   -163.49936    1.3607712   -162.13859    12982.354    4.2479013    4.2479013    4.2479013    12982.354   -440.62593    21654.097     17733.59   -14073.528    10940.831   -5113.2403    76.651956 
   19300         1321    -163.3327    1.1952685   -162.13743   -44784.344    4.2619767    4.2619767    4.2619767   -44784.344   -74792.366   -51220.162   -8340.5045   -14839.767    14294.146     2880.647    77.416445 
   19400    1151.2221   -163.17103    1.0416499   -162.12938    26753.194    4.2374322    4.2374322    4.2374322    26753.194    12612.171    29264.049    38383.363   -21975.377   -3607.7628   -1862.6309    76.086619 
   19500    773.17404   -162.85283   0.69958412   -162.15325    17975.816    4.2479278    4.2479278    4.2479278    17975.816    54007.738    15483.793   -15564.083   -35689.239   -3582.3907    95.960979    76.653395 
   19600    797.09817   -162.85961   0.72123117   -162.13838   -24550.399    4.2699937    4.2699937    4.2699937   -24550.399   -45496.164    2312.4393   -30467.472   -49313.782    11588.465    1864.7321    77.854138 
   19700    1077.3288   -163.09543   0.97478977   -162.12064    17395.649    4.2477792    4.2477792    4.2477792    17395.649   -9978.9691    17577.094    44588.822   -26472.464    7315.9863    -17693.27    76.645349 
   19800    1325.6864   -163.32365    1.1995089   -162.12414   -7105.2728    4.2414173    4.2414173    4.2414173   -7105.2728   -60119.677   -31593.467    70397.326   -44962.661     13633.74    11172.878    76.301491 
   19900    1530.8572   -163.51862    1.3851518   -162.13346    -14002.32    4.2481873    4.2481873    4.2481873    -14002.32   -40182.998    2188.8247   -4012.7871    -53429.77    7354.7025    11545.732    76.667441 
   20000     1331.611   -163.34881    1.2048696   -162.14394   -10970.665    4.2575692    4.2575692    4.2575692   -10970.665   -23786.416    1011.8939   -10137.472   -48052.349    2913.4712    5801.5691    77.176511 
   20100    1163.6943   -163.19331    1.0529351   -162.14037   -19249.146    4.2554821    4.2554821    4.2554821   -19249.146   -42859.359   -42980.586    28092.508   -59319.578   -11249.055   -6252.9195    77.063067 
   20200    1100.5264     -163.129   0.99577941   -162.13322    27852.407    4.2348707    4.2348707    4.2348707    27852.407   -35905.858   -17770.864    137233.94   -46628.451   -1973.3658   -3054.2909    75.948721 
   20300    1380.9073    -163.3947    1.2494739   -162.14523   -15061.278    4.2530065    4.2530065    4.2530065   -15061.278   -28736.722   -31457.165    15010.053   -55923.012   -3428.4517    4680.9049    76.928654 
   20400     1298.376   -163.30806    1.1747979   -162.13326   -22862.559     4.263528     4.263528     4.263528   -22862.559   -8931.2151   -49330.093   -10326.369   -51508.446   -4808.6759    10332.731    77.501012 
   20500     1192.359    -163.2048    1.0788715   -162.12593   -12567.153     4.243613     4.243613     4.243613   -12567.153   -40890.183   -45517.098     48705.82   -64492.865   -10648.872    6937.2844    76.420047 
   20600    764.35401    -162.8256   0.69160358   -162.13399    30898.305     4.237505     4.237505     4.237505    30898.305   -17413.966    19570.746    90538.135   -61739.501   -5132.1751   -12968.967    76.090541 
   20700    659.94844   -162.74214   0.59713522   -162.14501    19001.593    4.2576516    4.2576516    4.2576516    19001.593   -2679.5445   -3850.6765    63534.999   -50534.447    1616.9712   -30623.444    77.180991 
   20800    948.28192    -162.9857    0.8580254   -162.12768   -4605.4756    4.2652336    4.2652336    4.2652336   -4605.4756   -33466.465   -32024.106    51674.144   -48328.308    5524.6244   -19120.935    77.594057 
   20900    921.09517   -162.95386   0.83342626   -162.12043   -11802.795    4.2479939    4.2479939    4.2479939   -11802.795   -34217.851   -55735.798    54545.263    -67002.92   -2660.9057   -8629.9851    76.656969 
   21000    850.73285   -162.89944   0.76976096   -162.12968    10963.116    4.2343517    4.2343517    4.2343517    10963.116    9109.6742   -15715.243    39494.916   -52745.635    6675.2971   -8668.8709    75.920799 
   21100    758.33724   -162.83583   0.68615947   -162.14967   -4087.7416    4.2509476    4.2509476    4.2509476   -4087.7416   -1685.7647   -43772.747    33195.287   -55879.723    8322.9416   -18486.584    76.816985 
   21200    910.94472   -162.96553   0.82424192   -162.14129   -16106.849    4.2623291    4.2623291    4.2623291   -16106.849   -57942.169   -55645.281    65266.903   -57071.932    12105.093    -8134.038    77.435648 
   21300      805.215   -162.85617   0.72857545    -162.1276    16507.182    4.2534139    4.2534139    4.2534139    16507.182    25304.919   -19537.956    43754.584   -51753.223   -4469.8016    -17825.92    76.950762 
   21400    583.62617   -162.64884   0.52807723   -162.12076    22124.374     4.247409     4.247409     4.247409    22124.374    26763.248    2040.1544     37569.72   -55474.373    -8645.665   -26923.907    76.625312 
   21500    731.55624   -162.78121   0.66192746   -162.11928    23042.218    4.2489348    4.2489348    4.2489348    23042.218   -14750.251     23450.95    60425.957   -54318.303   -4829.6988   -26141.162     76.70792 
   21600    1059.3377   -163.08511   0.95851106    -162.1266   -7402.0855    4.2661619    4.2661619    4.2661619   -7402.0855   -31953.777   -30035.617    39783.137   -33627.201   -3641.9868   -16167.797    77.644732 
   21700    1315.8405   -163.30929    1.1906002   -162.11869   -22965.477    4.2582579    4.2582579    4.2582579   -22965.477   -20553.005   -43509.309   -4834.1175   -23026.495   -2782.5799   -265.29885     77.21397 
   21800    1367.7735   -163.35373    1.2375902   -162.11614    33933.905    4.2285632    4.2285632    4.2285632    33933.905    25035.248    39109.184    37657.282   -22396.704    11264.517    16656.048    75.609867 
   21900    1313.1823   -163.33073     1.188195   -162.14254   -18155.665    4.2408102    4.2408102    4.2408102   -18155.665   -25280.895   -42292.433    13106.333   -14237.458    3720.1143     20214.72    76.268727 
   22000    1206.6748     -163.231    1.0918247   -162.13918     -5340.04    4.2617937    4.2617937    4.2617937     -5340.04    7406.0537   -73211.828    49785.655      5110.87   -15216.089    15032.606    77.406469 
   22100    1350.9795   -163.35471    1.2223947   -162.13231    21710.363     4.245653     4.245653     4.245653    21710.363    23256.167    20269.593    21605.328    6514.7078   -3612.6858    8904.2692    76.530314 
   22200    1843.7757   -163.79437     1.668287   -162.12608    11275.207    4.2276825    4.2276825    4.2276825    11275.207    27994.406   -5958.8368     11790.05     7785.006    6860.5163    29708.349    75.562636 
   22300    2149.4068    -164.0861    1.9448285   -162.14127   -14454.267    4.2459447    4.2459447    4.2459447   -14454.267   -12082.578   -18890.917   -12389.307    10960.989    8713.9969     13591.11    76.546089 
   22400    2060.8737   -163.99497    1.8647218   -162.13025   -22183.295    4.2566801    4.2566801    4.2566801   -22183.295   -48703.778     2688.885   -20534.991    17778.694    13003.361      11456.2     77.12817 
   22500    2061.5363   -163.98559    1.8653214   -162.12026    1164.3637    4.2480711    4.2480711    4.2480711    1164.3637   -17830.736    1967.8512    19355.976    26596.762    5247.6737    5107.8296    76.661149 
   22600    2034.2526   -163.95786    1.8406345   -162.11723    573.97623    4.2462323    4.2462323    4.2462323    573.97623   -13966.198     28532.96   -12844.833    28699.494    7437.8585   -9156.2344    76.561644 
   22700    2217.5535   -164.12937     2.006489   -162.12288    4185.8106     4.240302     4.240302     4.240302    4185.8106   -11821.993    30229.051    -5849.626    29844.227    6111.4698   -7368.9333    76.241312 
   22800    2352.8554   -164.26501    2.1289131    -162.1361    3821.6467    4.2337518    4.2337518    4.2337518    3821.6467   -886.57695    23800.521   -11449.004    22624.285   -11538.561     1481.724    75.888539 
   22900    2172.4481   -164.11303    1.9656767   -162.14736   -16561.512    4.2421313    4.2421313    4.2421313   -16561.512   -4174.5073   -4700.9466   -40809.083    30543.188    2151.5154    12138.814    76.340027 
   23000    1959.3399    -163.9183    1.7728519   -162.14545   -4072.0144    4.2485215    4.2485215    4.2485215   -4072.0144   -20052.887   -13672.146    21508.991    27110.773   -6322.4752    9408.0951    76.685539 
   23100    1993.5046   -163.95089    1.8037649   -162.14712    2269.8934    4.2361129    4.2361129    4.2361129    2269.8934    14591.697    12059.462   -19841.479    24166.141   -18932.793    4956.3342    76.015572 
   23200    1910.4072   -163.87879    1.7285766   -162.15022    25038.314     4.229453     4.229453     4.229453    25038.314    53895.092    33142.395   -11922.545    33150.369   -16983.478    20630.259    75.657606 
   23300     1993.554   -163.96232    1.8038095   -162.15851    9599.0419    4.2447584    4.2447584    4.2447584    9599.0419    3010.5664    19846.341     5940.218    16467.502   -4397.6531    4779.0494    76.481947 
   23400    2032.4293   -163.98779    1.8389847   -162.14881   -27443.963    4.2560523    4.2560523    4.2560523   -27443.963   -48954.301    1294.8441   -34672.431    19136.681    12763.243   -1480.2079    77.094053 
   23500    1721.7626   -163.70277     1.557887   -162.14489    2099.9805    4.2376465    4.2376465    4.2376465    2099.9805   -12499.393    31387.319   -12587.985    27059.582    13000.732    17381.575    76.098165 
   23600    1641.4251   -163.62963    1.4851959   -162.14443    26429.095    4.2301771    4.2301771    4.2301771    26429.095    28179.091    55320.325   -4212.1313    29369.982    14411.558    2140.1526    75.696473 
   23700    1768.0242    -163.7467    1.5997455   -162.14695   -31672.523    4.2562979    4.2562979    4.2562979   -31672.523   -52663.431   -28632.234   -13721.903    26174.149    17732.709    5945.2652    77.107399 
   23800    1554.9338   -163.54841    1.4069368   -162.14148   -7757.5425    4.2439562    4.2439562    4.2439562   -7757.5425   -55322.369    16875.091     15174.65    29087.453    12543.016   -6080.3451    76.438591 
   23900     1502.677   -163.49803    1.3596537   -162.13838    16810.898    4.2254002    4.2254002    4.2254002    16810.898    -26698.03    87388.603   -10257.879    27175.591    27629.139   -4176.8408    75.440325 
   24000    1712.4325   -163.70325    1.5494449    -162.1538   -11344.613    4.2393898    4.2393898    4.2393898   -11344.613   -44332.435   -8417.7319    18716.327    10941.181    13628.011     9109.258    76.192116 
   24100    1682.3716   -163.67809    1.5222451   -162.15584   -11941.863    4.2475115    4.2475115    4.2475115   -11941.863   -43153.797   -7029.3718     14357.58    5437.6726    17373.456   -1380.9699     76.63086 
   24200    1488.7845     -163.506    1.3470835   -162.15892    3868.1542    4.2434167    4.2434167    4.2434167    3868.1542   -24367.981     12405.17    23567.274    5207.4232    4594.3433   -3939.1046    76.409443 
   24300    1725.5141   -163.71753    1.5612814   -162.15625    5442.8773    4.2291761    4.2291761    4.2291761    5442.8773   -10829.802    5318.5001    21839.933    3166.3562    20913.776     6585.716    75.642748 
   24400    2028.2935   -163.99619    1.8352426   -162.16095    11053.516    4.2343755    4.2343755    4.2343755    11053.516   -27589.619    4756.7779     55993.39   -2870.8566    3787.5241    13171.616    75.922081 
   24500    2270.6473   -164.21298    2.0545294   -162.15845    -24200.51    4.2516414    4.2516414    4.2516414    -24200.51   -43958.188   -47852.369    19209.026   -4463.5561    5697.2695    4517.7831    76.854605 
   24600    2408.9147   -164.32777    2.1796367   -162.14814   -6695.5552    4.2438474    4.2438474    4.2438474   -6695.5552   -14002.193   -36626.195    30541.722    -1105.416    2184.2687   -9730.9516    76.432711 
   24700     2065.514   -164.01369    1.8689205   -162.14477    6796.1007    4.2349823    4.2349823    4.2349823    6796.1007    5857.8237   -17227.086    31757.565   -2425.2505   -5990.4985    15235.095    75.954726 
   24800    1906.7704   -163.87474     1.725286   -162.14945    26247.088     4.229107     4.229107     4.229107    26247.088   -435.26608     9581.632    69594.899   -5644.9414   -6053.4982    7842.7758    75.639041 
   24900    1871.3654   -163.85769    1.6932507   -162.16444    14479.597    4.2415406    4.2415406    4.2415406    14479.597    4179.5595    1463.5509     37795.68   -11736.017     -6196.06    2267.6619    76.308142 
   25000    1931.1713    -163.9052    1.7473644   -162.15784   -14773.507    4.2505561    4.2505561    4.2505561   -14773.507   -22805.218   -23214.489    1699.1862    -11468.38   -17742.824    2063.6611    76.795763 
   25100    2133.9929    -164.0761    1.9308817   -162.14521    13654.678    4.2254346    4.2254346    4.2254346    13654.678    17845.937    6856.3152    16261.782   -6352.4534   -14789.489    4697.2229    75.442166 
   25200    2061.8959   -164.01966    1.8656467   -162.15401    3458.4058    4.2390351    4.2390351    4.2390351    3458.4058    -3484.476   -21916.464    35776.157    604.60246    -2018.818    6918.5759    76.172998 
   25300    1813.7892   -163.78726    1.6411546    -162.1461    -26883.42    4.2501983    4.2501983    4.2501983    -26883.42    21219.005    -47355.54   -54513.724    7072.8691   -8332.4595   -2501.0641    76.776373 
   25400     1778.199   -163.74913    1.6089518   -162.14018    35353.927    4.2319603    4.2319603    4.2319603    35353.927    39845.292    21696.664    44519.824    4570.2507   -9657.1796    716.76919     75.79224 
   25500    1772.9441   -163.75693     1.604197   -162.15273   -7133.6078    4.2451633    4.2451633    4.2451633   -7133.6078   -4026.9493    1225.5122   -18599.386    26500.787   -6258.5902   -2602.1075    76.503835 
   25600    1723.7876   -163.71751    1.5597193   -162.15779    -4735.616    4.2358478    4.2358478    4.2358478    -4735.616    23703.764   -28312.071   -9598.5417    42923.643    8754.3853   -11588.231    76.001302 
   25700    1684.7929   -163.68572     1.524436   -162.16128    24774.944    4.2277877    4.2277877    4.2277877    24774.944    53847.924   -35139.841     55616.75    34626.871   -7128.9859    5865.0135    75.568276 
   25800    1350.1472   -163.39112    1.2216416   -162.16948    -34150.42    4.2541241    4.2541241    4.2541241    -34150.42   -28723.515   -68247.933   -5479.8103    44264.818    1225.2131    3046.5081    76.989318 
   25900     1022.613   -163.09418   0.92528169    -162.1689   -8364.5897    4.2346866    4.2346866    4.2346866   -8364.5897   -5016.1548   -40832.934     20755.32    43177.392    8517.2123    5141.7448    75.938815 
   26000    866.92878   -162.94974   0.78441538   -162.16532    27848.299    4.2265776    4.2265776    4.2265776    27848.299    22400.432   -22081.147    83225.611    32887.917    15044.946   -2678.4793    75.503406 
   26100    745.03898   -162.83624   0.67412693   -162.16212   -29890.577    4.2572459    4.2572459    4.2572459   -29890.577   -48187.694   -75936.093    34452.056    26286.089     5837.641   -7770.2798     77.15893 
   26200    857.60206   -162.92766   0.77597637   -162.15168   -4096.6029    4.2427157    4.2427157    4.2427157   -4096.6029    14528.573   -93129.424    66311.042    23839.693    2299.2652   -1431.8608    76.371585 
   26300    968.36947   -163.02104   0.87620105   -162.14484    6847.8261    4.2300224    4.2300224    4.2300224    6847.8261   -15105.026   -67091.511    102740.01     34411.62    9736.1603    6826.5836    75.688169 
   26400    858.47516   -162.92788   0.77676637   -162.15112   -10759.487    4.2481223    4.2481223    4.2481223   -10759.487   -4864.4312   -57422.689    30008.659    43321.099    6540.2408    16063.073    76.663921 
   26500    985.49576   -163.03823   0.89169728   -162.14653   -15197.493     4.251862     4.251862     4.251862   -15197.493   -48543.988   -33390.547    36342.056    35697.617    9161.0894   -6611.0131    76.866564 
   26600    995.27168   -163.04765   0.90054273   -162.14711    6098.3404    4.2383425    4.2383425    4.2383425    6098.3404   -4979.2561   -26019.094    49293.371    49053.269    -2576.881   -7974.3372    76.135666 
   26700    856.80336   -162.92695   0.77525369   -162.15169    10702.795    4.2259501    4.2259501    4.2259501    10702.795   -4400.0505   -39064.041    75572.477    55287.497   -7600.6233   -4294.6002    75.469783 
   26800    828.09697   -162.91422   0.74927954   -162.16494   -15256.922     4.239515     4.239515     4.239515   -15256.922   -60871.977   -38442.382    53543.595    49314.233   -12890.837     114.7905     76.19887 
   26900    783.21079   -162.86272   0.70866558   -162.15406   -12645.291     4.256596     4.256596     4.256596   -12645.291   -12858.167   -52315.336     27237.63    59787.334   -9240.3109    11444.494    77.123601 
   27000    865.89589   -162.92955    0.7834808   -162.14607   -9894.0381    4.2416725    4.2416725    4.2416725   -9894.0381   -54424.228   -911.99207    25654.106    58803.138   -22911.432   -4553.7066    76.315261 
   27100    709.00782   -162.78525   0.64152518   -162.14373    18635.778    4.2261543    4.2261543    4.2261543    18635.778   -52158.581    22756.185    85309.731    67270.987   -30245.247   -7255.8512    75.480725 
   27200    663.94718   -162.75884   0.60075337   -162.15808   -10440.438    4.2453729    4.2453729    4.2453729   -10440.438   -43853.404   -33268.238    45800.327    55898.454   -27817.167    2193.8294    76.515169 
   27300    606.68002    -162.6954   0.54893683   -162.14646   -24212.147    4.2534575    4.2534575    4.2534575   -24212.147   -71667.586   -20688.387    19719.531    50979.993    -46027.87    4651.8834    76.953128 
   27400    646.45479    -162.7252   0.58492588   -162.14028   -8254.5378    4.2421596    4.2421596    4.2421596   -8254.5378   -14708.515       -23954    13898.901    55802.314   -38195.178    11068.577    76.341554 
   27500    562.99647   -162.65836   0.50941104   -162.14895   -13447.461    4.2400593    4.2400593    4.2400593   -13447.461   -73250.075   -905.62618    33813.317    58210.749   -35299.211    1957.1832    76.228222 
   27600    509.20418   -162.61603   0.46073865    -162.1553    20272.074    4.2367547    4.2367547    4.2367547    20272.074   -16999.744    41259.858    36556.109    58846.938   -29126.062   -10566.343    76.050127 
   27700    476.44897    -162.5932   0.43110104    -162.1621    6317.3751    4.2535607    4.2535607    4.2535607    6317.3751   -25335.129    41171.461    3115.7932    54007.807   -28705.525   -4017.5922    76.958731 
   27800    548.05578   -162.64048   0.49589239   -162.14459   -38733.306    4.2570061    4.2570061    4.2570061   -38733.306   -65764.564   -57492.931    7057.5768    50556.018   -33488.177    9342.6907    77.145895 
   27900    875.08174    -162.9232   0.79179235   -162.13141     9044.582    4.2264112    4.2264112    4.2264112     9044.582   -11445.151   -14076.586    52655.483    37877.885   -24949.224    3295.4249    75.494486 
   28000    984.56419   -163.04005   0.89085437   -162.14919   -323.60715    4.2369564    4.2369564    4.2369564   -323.60715   -18992.347   -19938.346    37959.872    34200.986   -25855.731   -100.01403     76.06099 
   28100    895.43308   -162.95646   0.81020667   -162.14625   -13712.888    4.2557176    4.2557176    4.2557176   -13712.888   -22190.959   -54060.108    35112.402    35223.794   -3735.6753    -9517.198    77.075867 
   28200    946.37108   -162.99386   0.85629644   -162.13757    19307.392    4.2382539    4.2382539    4.2382539    19307.392   -28717.473    31855.799     54783.85    37980.034   -12368.057   -12636.238    76.130892 
   28300    1103.4171   -163.13649   0.99839494   -162.13809    10788.349    4.2351162    4.2351162    4.2351162    10788.349   -4790.3499   -2203.7565    39359.155    31925.696    7918.5796    -6597.321    75.961928 
   28400    1264.6794   -163.28863    1.1443085   -162.14432   -10545.104    4.2412702    4.2412702    4.2412702   -10545.104   -29339.705   -23280.951    20985.344    32246.767     9253.302   -1228.4609    76.293549 
   28500    1445.2161   -163.45584    1.3076619   -162.14818   -13121.427    4.2410972    4.2410972    4.2410972   -13121.427   -19201.662   -8675.4209   -11487.199    29699.417     24073.63   -9374.1481    76.284214 
   28600    1437.8225   -163.45481     1.300972   -162.15384   -3441.4462    4.2350503    4.2350503    4.2350503   -3441.4462    -9711.805    13988.585   -14601.118    22073.044    37964.135   -8589.1704    75.958382 
   28700    1309.7055   -163.33925    1.1850491    -162.1542    19578.792    4.2278277    4.2278277    4.2278277    19578.792    315.15473    67752.711   -9331.4908    21294.139     36400.16   -7448.4602    75.570421 
   28800    1332.8866   -163.36659    1.2060238   -162.16057    1050.7556    4.2415295    4.2415295    4.2415295    1050.7556    3787.8471    27860.076   -28495.657   -2212.4923     45669.62   -982.08291    76.307543 
   28900    1434.0087     -163.451    1.2975212   -162.15348   -18350.231    4.2438551    4.2438551    4.2438551   -18350.231   -39659.686    16591.581   -31982.588    6379.2395    45441.567   -1368.8774    76.433128 
   29000    1425.0366   -163.44029     1.289403   -162.15089    13490.669    4.2344346    4.2344346    4.2344346    13490.669    9012.0414    77126.884   -45666.919   -8386.2056    45156.665     -2896.47    75.925259 
   29100    1339.0907    -163.3642    1.2116374   -162.15256   -1034.1143    4.2352658    4.2352658    4.2352658   -1034.1143   -6816.0683    70664.373   -66950.648    618.06323    47826.387   -2561.9674    75.969979 
   29200    1243.3422   -163.28076    1.1250022   -162.15575    8529.9399    4.2339581    4.2339581    4.2339581    8529.9399    33976.043    48351.084   -56737.307   -21104.468    44690.632    10747.474    75.899629 
   29300     1252.202    -163.2888    1.1330187   -162.15578   -32878.353    4.2482774    4.2482774    4.2482774   -32878.353   -31171.775    15607.857   -83071.141   -19161.194    49603.028    1940.3528    76.672318 
   29400    1225.1949   -163.26089    1.1085821   -162.15231    504.19965    4.2378296    4.2378296    4.2378296    504.19965   -1284.2638    59977.661   -57180.799   -13445.168    37316.049    12394.276    76.108026 
   29500    1399.2927   -163.41176    1.2661095   -162.14565     26829.64    4.2307999    4.2307999    4.2307999     26829.64    14724.929    92533.883   -26769.892   -15765.959     41229.59    555.33488    75.729913 
   29600    1503.7779   -163.50483    1.3606498   -162.14418    -28695.62    4.2478471    4.2478471    4.2478471    -28695.62   -33824.192    42248.353    -94511.02   -10715.026    54852.341   -3583.9174    76.649021 
   29700    1465.7184   -163.46407    1.3262128   -162.13785   -740.81025    4.2407421    4.2407421    4.2407421   -740.81025    8246.9246    40055.339   -50524.694   -27392.874     44602.85   -4555.6882    76.265056 
   29800    1272.6707   -163.29432    1.1515392   -162.14278    -7162.594    4.2339257    4.2339257    4.2339257    -7162.594   -445.95902    26475.513   -47517.336   -4920.4291    54776.608   -16544.283    75.897887 
   29900    1123.7231    -163.1728    1.0167683   -162.15603   -8794.1629    4.2280813    4.2280813    4.2280813   -8794.1629   -11393.951    42417.038   -57405.576   -11548.262    52816.466   -6599.0859     75.58402 
   30000    1159.2561   -163.21508    1.0489192   -162.16617      20751.4    4.2321436    4.2321436    4.2321436      20751.4    15621.298    42486.557    4146.3442    2362.4845    52058.845   -24916.454     75.80209 
   30100    1175.9125     -163.231    1.0639903   -162.16701   -37218.478    4.2471915    4.2471915    4.2471915   -37218.478   -24780.297   -37886.982   -48988.155    6498.7361    45167.485   -19716.946    76.613537 
   30200    1194.5891   -163.23939    1.0808893    -162.1585   -4079.6728    4.2368047    4.2368047    4.2368047   -4079.6728   -1047.7721    2925.5225   -14116.769     6251.018    46748.041   -22448.961    76.052824 
   30300    1163.1634   -163.20596    1.0524547   -162.15351    11985.754    4.2334557    4.2334557    4.2334557    11985.754   -15941.935    57766.566   -5867.3697    24208.204    39463.791     -13670.7    75.872616 
   30400    1001.5243   -163.05819   0.90620025   -162.15199   -21299.641    4.2472054    4.2472054    4.2472054   -21299.641   -48359.539    -2236.827   -13302.558    14573.162    38678.634   -22899.129    76.614292 
   30500    951.92157   -163.00185   0.86131864   -162.14053    17813.189    4.2447281    4.2447281    4.2447281    17813.189   -6152.7775    25238.422    34353.922     24555.51     51552.24   -17094.554    76.480306 
   30600    973.32734   -163.01502   0.88068703   -162.13433   -13846.782    4.2450147    4.2450147    4.2450147   -13846.782   -27478.183   -12430.589   -1631.5727    17220.549    56115.465   -1344.8041    76.495801 
   30700    889.67233   -162.93889   0.80499422    -162.1339   -1596.0257    4.2321654    4.2321654    4.2321654   -1596.0257   -15532.452   -36342.185     47086.56    31120.203    37968.924   -7358.0235    75.803264 
   30800     1150.177   -163.18529    1.0407043   -162.14459    922.62263    4.2331812    4.2331812    4.2331812    922.62263   -13650.983    4124.8091    12294.042    18599.888     23075.46    7862.4687     75.85786 
   30900    884.61647   -162.94873   0.80041957   -162.14831   -36182.032    4.2560697    4.2560697    4.2560697   -36182.032   -48862.826   -30318.287   -29364.982     22665.74    28727.471    5297.8897    77.094998 
   31000    695.20589   -162.78121    0.6290369   -162.15217     732.4702    4.2328707    4.2328707    4.2328707     732.4702   -17841.252   -46233.031    66271.693      39024.2    23107.258   -2611.4261    75.841166 
   31100    812.74404    -162.8805   0.73538789   -162.14511    10348.033    4.2160619    4.2160619    4.2160619    10348.033   -2057.3135    -4845.195    37946.609    32862.595    3787.3535     8115.065    74.941249 
   31200    717.93484   -162.81301   0.64960253    -162.1634   -25102.406    4.2471009    4.2471009    4.2471009   -25102.406   -31234.902   -53103.594    9031.2764    35002.564   -9585.4722    7293.1129     76.60864 
   31300    597.70834   -162.69509   0.54081906   -162.15427    -15483.13    4.2471142    4.2471142    4.2471142    -15483.13   -41016.458    -70540.97    65108.038    42187.355   -16548.493    11927.978    76.609355 
   31400    549.81999   -162.64788   0.49748868   -162.15039    242.44221    4.2281687    4.2281687    4.2281687    242.44221   -9073.4847   -21233.556    31034.367    35245.715   -12957.066    5723.5657    75.588709 
   31500    531.91845   -162.63782   0.48129099   -162.15653    -8630.149     4.225373     4.225373     4.225373    -8630.149   -42703.332   -33050.021    49862.906    38913.299   -29729.916    6227.5992    75.438866 
   31600    546.47445   -162.66374   0.49446157   -162.16927    11172.224    4.2368274    4.2368274    4.2368274    11172.224    11355.899   -53962.722    76123.494     46192.32   -21369.982   -3052.0188    76.054046 
   31700    590.67756    -162.6942   0.53445747   -162.15974   -40933.934    4.2510963    4.2510963    4.2510963   -40933.934   -61733.964   -61666.194    598.35381    47892.641   -14204.031    640.78601    76.825044 
   31800    538.09932   -162.64231   0.48688357   -162.15542    19455.654     4.225695     4.225695     4.225695    19455.654    33815.237   -10446.689    34998.414    48966.742   -29144.994   -726.50152    75.456115 
   31900    627.37713   -162.72705   0.56766401   -162.15938   -4872.8152    4.2209551    4.2209551    4.2209551   -4872.8152   -32948.786   -34252.817    52583.156    66989.641   -5588.8053    9951.4974    75.202487 
   32000    669.48011   -162.77153   0.60575967   -162.16577    -10846.85    4.2406018    4.2406018    4.2406018    -10846.85    -35381.92   -11214.788    14056.158    60255.405   -1881.0751    3773.5594    76.257483 
   32100    626.85333   -162.72579   0.56719007    -162.1586     7769.236    4.2515724    4.2515724    4.2515724     7769.236    4439.4069   -13424.988    32293.289    43279.032    5354.3063   -85.457825    76.850861 
   32200    545.90608    -162.6421    0.4939473   -162.14815   -17507.122    4.2425234    4.2425234    4.2425234   -17507.122   -45289.033    -21321.42    14089.088    45721.393    20289.456    14004.607    76.361197 
   32300    444.37195   -162.54208   0.40207708      -162.14     35592.88    4.2197984    4.2197984    4.2197984     35592.88    22051.848    26267.761     58459.03      56738.1    24069.267    7481.3682    75.140676 
   32400    518.96774   -162.62674   0.46957292   -162.15717   -5377.7444    4.2405395    4.2405395    4.2405395   -5377.7444   -9433.0786    -17798.43    11098.276    39658.273    24450.082    14258.053    76.254124 
   32500    788.00409    -162.8581   0.71300266    -162.1451   -28768.239    4.2483981    4.2483981    4.2483981   -28768.239   -11955.448    -32444.32    -41904.95    46510.692    23282.676    3822.7092    76.678856 
   32600    935.67556   -162.98738   0.84661891   -162.14076    17703.644    4.2278325    4.2278325    4.2278325    17703.644    36093.333    20301.637   -3284.0372    38916.407    15004.232   -1340.0694    75.570678 
   32700    916.63898   -162.97877   0.82939421   -162.14938   -19813.239    4.2312652    4.2312652    4.2312652   -19813.239    612.51177   -60081.108    28.879707    37207.373    20213.663   -12095.505    75.754904 
   32800    902.29623   -162.97277   0.81641659   -162.15635    3584.1083     4.233453     4.233453     4.233453    3584.1083    14669.483    3084.5746   -7001.7329    27665.624    4540.7161   -13240.091    75.872471 
   32900    1028.9903   -163.09087   0.93105206   -162.15982   -12351.062    4.2411952    4.2411952    4.2411952   -12351.062     33748.49   -40897.426    -29904.25    8869.2239    12018.279   -17867.136    76.289505 
   33000    1096.2953   -163.14376   0.99195104   -162.15181   -18144.093    4.2372809    4.2372809    4.2372809   -18144.093   -3681.2342   -41789.414   -8961.6316    10691.029    1139.6368   -18797.305    76.078472 
   33100    1061.0892   -163.11094   0.96009585   -162.15085     18445.21    4.2321087    4.2321087    4.2321087     18445.21    44272.359    20786.619   -9723.3491   -10885.398   -2112.9061   -9174.9408    75.800216 
   33200     944.4522   -163.01239    0.8545602   -162.15783   -28065.691    4.2370167    4.2370167    4.2370167   -28065.691    563.77072   -63130.493    -21630.35   -19787.176   -8682.6812   -20741.108    76.064237 
   33300    748.09593   -162.84085   0.67689292   -162.16396    13877.284    4.2308582    4.2308582    4.2308582    13877.284    18949.465    9207.8087    13474.577   -21604.533   -20758.949   -15388.386    75.733042 
   33400    640.75392   -162.74768   0.57976762   -162.16791   -10789.501    4.2404502    4.2404502    4.2404502   -10789.501   -2406.7358   -24911.987   -5049.7811    -34878.73   -23382.633    -20537.16    76.249309 
   33500    583.34236   -162.69429   0.52782043   -162.16647   -13078.757    4.2368402    4.2368402    4.2368402   -13078.757   -42929.573    4561.4202   -868.11703   -40241.162   -23562.478    -26029.63    76.054732 
   33600    556.36848   -162.66985   0.50341389   -162.16644    10241.072    4.2348649    4.2348649    4.2348649    10241.072   -7345.1796   -965.48685    39033.882   -39921.592   -15428.434   -25612.418    75.948406 
   33700    677.96066   -162.77251   0.61343306   -162.15908   -5573.0332    4.2417548    4.2417548    4.2417548   -5573.0332   -14995.466    22894.192   -24617.827   -54177.482   -25030.103   -16154.779    76.319702 
   33800    872.72031   -162.94133   0.78965567   -162.15167    7870.0595    4.2370411    4.2370411    4.2370411    7870.0595    6898.4226   -17691.373    34403.129   -42175.684   -10524.202   -18284.241    76.065555 
   33900    989.41853   -163.04289   0.89524668   -162.14764   -700.18454    4.2396841    4.2396841    4.2396841   -700.18454   -3378.7364   -10579.215    11857.397   -36746.667   -21415.694    -5006.462     76.20799 
   34000    1049.6531   -163.09653   0.94974819   -162.14678    -5483.807    4.2365491    4.2365491    4.2365491    -5483.807   -17108.228    15686.285   -15029.478   -18747.387   -20961.119   -15455.728     76.03906 
   34100    1108.7084   -163.15295    1.0031826   -162.14976   -1721.8655    4.2322681    4.2322681    4.2322681   -1721.8655   -40441.773   -10571.756    45847.933   -19110.331   -13291.514   -9186.5842    75.808782 
   34200    1300.1831   -163.33031     1.176433   -162.15388   -13908.224     4.235585     4.235585     4.235585   -13908.224   -48465.721    5514.5493     1226.501   -8672.5457   -20548.314   -9091.6278    75.987158 
   34300    1321.2367   -163.35372    1.1954828   -162.15823   -4106.4884    4.2349924    4.2349924    4.2349924   -4106.4884   -18919.084     7473.777   -874.15791    4242.0788   -7392.3894    -4040.527    75.955269 
   34400    1048.7432   -163.11027   0.94892487   -162.16135    4963.2069    4.2375761    4.2375761    4.2375761    4963.2069    -37337.33    1880.7344    50346.216     6238.302   -2792.5051    4063.9312    76.094371 
   34500    820.34358    -162.9037   0.74226411   -162.16143   -8287.1547    4.2375019    4.2375019    4.2375019   -8287.1547   -37856.164    24702.297   -11707.597    16204.626   -5329.0084    4622.7595    76.090374 
   34600    875.77599   -162.95211   0.79242052   -162.15969    2063.8887    4.2350232    4.2350232    4.2350232    2063.8887   -27386.835    10913.808    22664.693    20760.411    511.90856    8148.7782    75.956928 
   34700    855.25642   -162.92901   0.77385398   -162.15516    473.09976    4.2431261    4.2431261    4.2431261    473.09976   -31340.565    -14441.87    47201.734    20692.846    682.48275    5056.3739    76.393747 
   34800    986.98779   -163.04374    0.8930473    -162.1507   -5165.5316    4.2392312    4.2392312    4.2392312   -5165.5316     18902.45   -39638.319    5239.2741    26071.584   -8113.6656    9256.9488    76.183568 
   34900    1189.9486   -163.22873    1.0766905   -162.15204    1271.7964    4.2289187    4.2289187    4.2289187    1271.7964   -11.363213   -35801.893    39628.645    23108.297   -7093.7044    4958.4069     75.62894 
   35000    944.53392   -163.01183   0.85463414   -162.15719    1183.7062    4.2405658    4.2405658    4.2405658    1183.7062    15928.006   -48685.915    36309.027    13058.149   -6022.3861     11672.24    76.255544 
   35100     1071.433   -163.11864   0.96945505   -162.14919   -11689.063     4.241319     4.241319     4.241319   -11689.063   -5363.0356   -50696.408    20992.254    32111.673   -5312.6864    4307.8093    76.296185 
   35200    991.09434   -163.04917   0.89676298   -162.15241    13210.029    4.2295755    4.2295755    4.2295755    13210.029    7814.8586   -9809.1514    41624.379    19625.275   -12281.409    812.80478    75.664183 
   35300    921.98523   -162.99561   0.83423161   -162.16138   -6044.2955    4.2361735    4.2361735    4.2361735   -6044.2955   -24158.567   -23135.014    29160.695     30368.15   -7926.2539    -3309.578    76.018835 
   35400    980.41368   -163.05044    0.8870989   -162.16335    -3892.346    4.2346517    4.2346517    4.2346517    -3892.346    10616.466   -43710.672    21417.168    46515.814   -4209.6783   -7396.5784    75.936939 
   35500    765.06406   -162.85692   0.69224604   -162.16467   -4355.2835    4.2403119    4.2403119    4.2403119   -4355.2835   -32750.182   -28643.434    48327.765    48975.202    1648.9671    -145.8378    76.241849 
   35600    690.37628   -162.77981   0.62466697   -162.15515    -6734.824    4.2420736    4.2420736    4.2420736    -6734.824   -17045.725   -35231.268    32072.522    47377.022    6263.4242   -5968.9045    76.336911 
   35700    790.91934   -162.86927   0.71564044   -162.15363   -13667.534    4.2318882    4.2318882    4.2318882   -13667.534   -42770.903   -13479.051    15247.351    62160.968    18363.262   -7297.5212    75.788367 
   35800    551.54462   -162.66934   0.49904916   -162.17029   -7922.5002    4.2333043    4.2333043    4.2333043   -7922.5002   -22535.106     -15378.8    14146.406    67695.635    22543.356   -16192.248    75.864476 
   35900    606.10826    -162.7217   0.54841949   -162.17328   -5768.9853    4.2367869    4.2367869    4.2367869   -5768.9853   -14427.119   -34805.894    31926.057    64715.557    20390.667   -14888.702    76.051862 
   36000    721.52487   -162.82474   0.65285086   -162.17189   -14345.124      4.24207      4.24207      4.24207   -14345.124   -17183.615   -10721.201   -15130.555    65097.773    34283.043   -8647.3125    76.336721 
   36100    379.02494   -162.51347   0.34294973   -162.17052   -12730.059    4.2410408    4.2410408    4.2410408   -12730.059   -8768.1426   -34535.576    5113.5406    69334.013    29621.058   -6908.6435    76.281171 
   36200    424.21473   -162.54123   0.38383841    -162.1574    27313.734     4.232003     4.232003     4.232003    27313.734    34356.906    -12647.28    60231.576    65804.569    40504.695   -107.42563    75.794534 
   36300     650.6694   -162.74089   0.58873935   -162.15215   -25221.663    4.2514026    4.2514026    4.2514026   -25221.663   -42242.413   -47811.809    14389.233    56308.493    27842.452   -6476.7846    76.841656 
   36400     650.9655   -162.73247   0.58900726   -162.14347    3892.3035    4.2460586    4.2460586    4.2460586    3892.3035    1818.0946   -11062.351    20921.167    46141.977    10236.763   -10494.598    76.552247 
   36500    792.84257   -162.84977   0.71738062   -162.13239    14277.834    4.2296835    4.2296835    4.2296835    14277.834    4473.9167   -41175.145     79534.73    59326.671    6270.6599   -8202.6959     75.66998 
   36600      821.463   -162.88758   0.74327698    -162.1443   -10466.718    4.2398081    4.2398081    4.2398081   -10466.718   -4658.4482   -35259.333    8517.6279    57506.386    5162.0953   -6262.9803    76.214676 
   36700    656.21664   -162.74281   0.59375861   -162.14905   -6528.5539    4.2411867    4.2411867    4.2411867   -6528.5539     1670.855   -21978.417    721.90005    55826.244   -1920.5494   -9742.6305    76.289046 
   36800     696.1149   -162.78259   0.62985939   -162.15273   -3836.5772     4.230995     4.230995     4.230995   -3836.5772    16282.235    -47334.84    19542.873    59440.872    -13837.11   -4502.6956    75.740387 
   36900    770.58308   -162.85813   0.69723977   -162.16089   -13812.416    4.2357653    4.2357653    4.2357653   -13812.416   -3094.3707   -19503.835   -18839.044    58155.501   -18763.733   -11570.894    75.996862 
   37000    801.33634   -162.88614   0.72506596   -162.16108   -2061.4856    4.2356211    4.2356211    4.2356211   -2061.4856    35799.406   -43185.336    1201.4731    44785.277   -3337.5221   -14427.722      75.9891 
   37100    791.52166   -162.87482   0.71618543   -162.15863   -8382.4396    4.2351224    4.2351224    4.2351224   -8382.4396   -7311.2523   -47475.297     29639.23    56984.184   -7573.3252     -6801.63    75.962265 
   37200    604.18141   -162.70578   0.54667603   -162.15911    1911.1297    4.2414294    4.2414294    4.2414294    1911.1297    34816.159   -25039.829   -4042.9415    39598.802   -6769.1412   -10715.118     76.30214 
   37300    774.95344    -162.8583   0.70119416    -162.1571   -15116.152    4.2346177    4.2346177    4.2346177   -15116.152    11415.738   -54941.517   -1822.6778    25242.331    2589.0094   -16340.484    75.935112 
   37400    859.05496   -162.93368   0.77729098   -162.15639    18990.218    4.2251494    4.2251494    4.2251494    18990.218    44202.977   -6685.7066    19453.383    19674.678     4669.393   -4246.7836    75.426891 
   37500    844.66401   -162.92668   0.76426975   -162.16241    -31376.85    4.2490515    4.2490515    4.2490515    -31376.85    32455.837   -72567.875   -54018.513    2497.1699    8178.7915   -4775.1245    76.714237 
   37600    871.08183   -162.94442   0.78817315   -162.15624   -11763.551    4.2362208    4.2362208    4.2362208   -11763.551    12909.847   -16276.477   -31924.024    708.84942    2791.2686   -9519.5767    76.021383 
   37700     757.5159   -162.83585    0.6854163   -162.15044    23617.095    4.2232195    4.2232195    4.2232195    23617.095    72927.828   -10228.965    8152.4228   -14434.793   -1048.2378     1647.956     75.32358 
   37800    743.09307    -162.8261   0.67236623   -162.15374   -35597.425    4.2465333    4.2465333    4.2465333   -35597.425   -3455.0984   -70615.257    -32721.92   -16856.638     4925.251   -7007.9647    76.577927 
   37900    853.44536   -162.91643   0.77221529   -162.14422    15305.726    4.2410094    4.2410094    4.2410094    15305.726    30278.568     27211.08   -11572.469   -23034.322   -3224.1495    322.77196    76.279476 
   38000    1014.0785   -163.06038   0.91755951   -162.14282    480.83986    4.2327675    4.2327675    4.2327675    480.83986    51951.236   -63209.622    12700.906   -21091.598    254.38647    3870.3209    75.835621 
   38100    968.41665   -163.02725   0.87624374     -162.151   -9966.2509    4.2330428    4.2330428    4.2330428   -9966.2509    7629.3482   -30408.736   -7119.3652   -21246.366   -11328.901   -1306.4385    75.850419 
   38200    802.05393   -162.88671   0.72571525   -162.16099     8466.752     4.234618     4.234618     4.234618     8466.752    55601.463   -18675.977    -11525.23   -27876.863   -10734.712    10259.989    75.935128 
   38300    592.74732   -162.70056   0.53633023   -162.16423   -24863.743    4.2391647    4.2391647    4.2391647   -24863.743   -17797.832   -44319.142   -12474.255   -40518.595     3890.784    21058.599    76.179983 
   38400    561.38806   -162.67231   0.50795571   -162.16435    184.07902    4.2322147    4.2322147    4.2322147    184.07902    13219.939   -24324.938    11657.236    -37021.98   -2645.2878    6790.2915    75.805909 
   38500    641.40588   -162.74658   0.58035752   -162.16622   -11467.163    4.2386788    4.2386788    4.2386788   -11467.163    31340.156   -62915.089   -2826.5548   -46668.226   -237.26653    13328.212    76.153788 
   38600    754.58883   -162.84453   0.68276783   -162.16176   -3640.2874    4.2354653    4.2354653    4.2354653   -3640.2874    19555.097   -43040.639    12564.681     -29800.7    5881.9742    16798.913    75.980716 
   38700    843.73061    -162.9199   0.76342518   -162.15647    3037.1144    4.2286389    4.2286389    4.2286389    3037.1144    45152.649   -72524.583    36483.278   -40637.704    5107.5371    3477.1674    75.613929 
   38800    784.11032   -162.86933    0.7094795   -162.15985   -8898.7894    4.2383058    4.2383058    4.2383058   -8898.7894    4984.1711   -50129.492    18448.953   -45519.722    14653.687     6037.527    76.133688 
   38900    767.19497   -162.85327   0.69417413    -162.1591   -1775.0253    4.2371881    4.2371881    4.2371881   -1775.0253    20747.779   -35361.445    9288.5899   -38153.701    5425.7871    3037.3548    76.073473 
   39000     742.7604   -162.83161   0.67206522   -162.15954    104.77203    4.2322742    4.2322742    4.2322742    104.77203    53397.201   -55268.797    2185.9118   -41642.826    10329.989   -9120.1016    75.809107 
   39100    832.97386    -162.9191   0.75369225    -162.1654   -6064.7102    4.2307339    4.2307339    4.2307339   -6064.7102   -449.73809    -4949.501   -12794.892       -47605     7466.408   -6363.8147    75.726369 
   39200    1029.8159   -163.10254   0.93179903   -162.17074    11050.973     4.230662     4.230662     4.230662    11050.973    85212.685   -36135.347   -15924.419   -38552.808    5002.4064   -4156.6461     75.72251 
   39300    1129.1127   -163.18853    1.0216449   -162.16689   -21722.654    4.2433248    4.2433248    4.2433248   -21722.654    -1392.672   -31890.539   -31884.752   -30239.576    5829.6114      -7485.2    76.404481 
   39400    1192.6698   -163.24168    1.0791527   -162.16253    2069.9808    4.2321262    4.2321262    4.2321262    2069.9808    42234.486   -20151.243   -15873.301   -32877.125   -4300.4473   -7209.3229    75.801157 
   39500    1376.9167   -163.40593    1.2458632   -162.16007    9282.7841     4.223936     4.223936     4.223936    9282.7841    35084.173    9455.6496    -16691.47   -20055.931   -8126.5721    3174.4682    75.361928 
   39600    1518.7468   -163.53839     1.374194    -162.1642   -15529.585    4.2401032    4.2401032    4.2401032   -15529.585    1610.3372   -139.21535   -48059.876   -10886.871   -15184.491   -557.96545    76.230588 
   39700    1493.8201   -163.51184    1.3516398    -162.1602    10458.232    4.2368583    4.2368583    4.2368583    10458.232    56650.157    13143.471   -38418.932   -9824.9602    -10897.11   -2744.0235    76.055707 
   39800    1672.4566   -163.66875    1.5132739   -162.15548   -16702.359    4.2355361    4.2355361    4.2355361   -16702.359   -16584.119    10181.229   -43704.185   -5736.9296   -10364.367   -1526.5665    75.984526 
   39900    1875.6443   -163.85569    1.6971224   -162.15857    12576.835    4.2271386    4.2271386    4.2271386    12576.835    45053.694        11704    -19027.19    13547.928   -10017.173   -1136.9781    75.533473 
   40000    2029.4585   -163.99741    1.8362967   -162.16111    18503.563    4.2261819    4.2261819    4.2261819    18503.563    17068.728    32453.977    5987.9839    17016.927    5662.9027    1622.0938    75.482201 
   40100    2084.7367   -164.04173    1.8863136   -162.15542    -30611.04    4.2486115    4.2486115    4.2486115    -30611.04   -33540.192   -18718.006   -39574.923    17770.333    3365.2245   -4400.6772    76.690412 
   40200    2089.0579   -164.04268    1.8902234   -162.15246    10377.694    4.2288659    4.2288659    4.2288659    10377.694      37841.6    9348.2777   -16056.795    20285.289    14297.162   -3193.3001    75.626106 
   40300    2042.1755   -163.99598    1.8478033   -162.14818     24599.22    4.2192391    4.2192391    4.2192391     24599.22    34802.904    38497.289    497.46758     23707.42    18923.722   -7306.1366    75.110806 
   40400    1923.2928   -163.89144    1.7402357    -162.1512   -14177.271    4.2400458    4.2400458    4.2400458   -14177.271   -310.65044    8498.9521   -50720.115    13123.067     20321.17   -6759.5445    76.227497 
   40500    1961.7557   -163.91973    1.7750378   -162.14469   -658.08161     4.239394     4.239394     4.239394   -658.08161    37042.521   -9572.8551   -29443.911    13140.414    17730.268   -8353.9779    76.192345 
   40600    2268.1792   -164.19456    2.0522962   -162.14227   -666.64855    4.2364114    4.2364114    4.2364114   -666.64855    17595.225   -9266.6269   -10328.544    8048.3811    4523.6754   -10661.979    76.031646 
   40700    2429.0963   -164.34036    2.1978974   -162.14246    5441.7418    4.2280589    4.2280589    4.2280589    5441.7418    35346.936   -6511.3358   -12510.375    4901.0947     7622.359   -11314.057     75.58282 
   40800    2183.0131   -164.12645    1.9752361   -162.15122    7541.7802    4.2338301    4.2338301    4.2338301    7541.7802    31918.926   -16645.271    7351.6854    6457.0858   -7332.5846   -8819.9039    75.892747 
   40900    1957.2503   -163.92213    1.7709612   -162.15117   -14908.168    4.2415372    4.2415372    4.2415372   -14908.168   -3304.0858   -18861.679    -22558.74    5758.5064    1297.0529   -8945.4697    76.307958 
   41000    1791.4553   -163.76761    1.6209464   -162.14666    8477.4278    4.2257368    4.2257368    4.2257368    8477.4278    32510.583    14218.857   -21297.157   -1104.1666   -1683.3185   -5117.5997    75.458356 
   41100    1643.9545   -163.63954    1.4874846   -162.15206     8524.845    4.2311258    4.2311258    4.2311258     8524.845   -5550.5461    21419.523    9705.5576   -7488.5383    -13966.36    1926.7012    75.747415 
   41200    1864.0903   -163.83612    1.6866681   -162.14945   -11599.147    4.2412002    4.2412002    4.2412002   -11599.147   -22779.956   -4187.8103   -7829.6746   -8176.8414    1105.0491    15071.954    76.289775 
   41300    2060.7276   -164.00669    1.8645896    -162.1421   -11365.097    4.2412027    4.2412027    4.2412027   -11365.097    887.58298   -19717.095   -15265.779   -12521.887   -10905.155    12312.762    76.289906 
   41400    1908.9125   -163.86737    1.7272242   -162.14014    2203.2989    4.2367889    4.2367889    4.2367889    2203.2989    1540.0443     3883.749    1186.1034   -8398.9624   -4112.7406     16820.26    76.051972 
   41500    1783.5556   -163.75326    1.6137986   -162.13946    13129.089    4.2209011    4.2209011    4.2209011    13129.089    7907.4261    11562.676    19917.165   -28442.558   -4472.2708    29841.178      75.1996 
   41600    1626.6403   -163.62525    1.4718183   -162.15343   -13889.691    4.2366201    4.2366201    4.2366201   -13889.691   -17109.571   -13158.526   -11400.976   -29881.812    2642.2784     23848.81    76.042884 
   41700    1567.0846   -163.57147    1.4179311   -162.15354   -1007.6459    4.2371012    4.2371012    4.2371012   -1007.6459   -7272.7344   -10401.378    14651.175   -27289.602    11256.073    32701.006    76.068789 
   41800    1767.6502   -163.74902     1.599407   -162.14961    1787.0738    4.2234707    4.2234707    4.2234707    1787.0738   -16367.412   -17471.228    39199.861   -39993.943   -488.27276    32577.989    75.337021 
   41900    1800.7141   -163.78234     1.629324   -162.15302   -11275.792    4.2389919    4.2389919    4.2389919   -11275.792   -16676.747   -31569.995    14419.365   -31713.832    5881.0366    27518.584    76.170667 
   42000     1797.828   -163.77651    1.6267125    -162.1498    15851.612    4.2287137    4.2287137    4.2287137    15851.612    8862.6481     4024.711    34667.477   -31481.968   -6615.6611    27125.131    75.617943 
   42100    1892.0386   -163.86286    1.7119563   -162.15091   -9749.7548    4.2290475    4.2290475    4.2290475   -9749.7548   -28031.142   -22267.907    21049.785   -26068.267   -5711.3419    27553.827    75.635848 
   42200    1986.3632   -163.94656    1.7973032   -162.14925   -13149.124    4.2410617    4.2410617    4.2410617   -13149.124   -20274.088   -15605.927   -3567.3573   -19587.892   -4965.1844    30170.375    76.282298 
   42300    2235.2595   -164.16828    2.0225098   -162.14577    17406.764    4.2239775    4.2239775    4.2239775    17406.764   -2695.6525    21555.879    33360.066   -9906.4924   -6861.0704    26778.509    75.364146 
   42400     2310.003   -164.24347    2.0901392   -162.15333    1029.1801    4.2354262    4.2354262    4.2354262    1029.1801   -14931.012    -14328.59    32347.143   -2998.8023    268.40695    34009.743    75.978612 
   42500     2183.261   -164.11983    1.9754604   -162.14437    -6403.721     4.241531     4.241531     4.241531    -6403.721   -10381.509    3735.2537   -12564.908   -1371.2481    8681.9693        32826    76.307623 
   42600    2086.2601   -164.02296     1.887692   -162.13527    8488.8057    4.2345044    4.2345044    4.2345044    8488.8057     5359.737    6641.9571    13464.723    7534.6062    15118.871    31597.773    75.929014 
   42700    1957.0661   -163.90499    1.7707945   -162.13419   -4163.8284    4.2397402    4.2397402    4.2397402   -4163.8284   -14259.472    15069.568   -13301.581    8787.8799    22842.633    30669.951    76.211014 
   42800    2043.4959   -163.98241    1.8489981   -162.13341    13709.537    4.2289564    4.2289564    4.2289564    13709.537   -14905.277    27031.292    29002.596    7240.8604    32120.119    23368.456    75.630962 
   42900    2095.5437   -164.03677     1.896092   -162.14068   -9486.6842    4.2404281    4.2404281    4.2404281   -9486.6842   -20493.723    12037.638   -20003.968    4251.1588    33506.322    19104.968    76.248116 
   43000    1952.0624   -163.90613    1.7662671   -162.13986   -13392.436    4.2399362    4.2399362    4.2399362   -13392.436   -45137.886    34523.866   -29563.287    3107.4708    32045.333    21857.667    76.221582 
   43100    1890.9125   -163.84486    1.7109373   -162.13392    14838.476     4.220389     4.220389     4.220389    14838.476    7881.5496    37671.284   -1037.4046   -13498.704    30022.978    24659.701    75.172231 
   43200    1797.7928   -163.77214    1.6266807   -162.14546     -15557.3    4.2378646    4.2378646    4.2378646     -15557.3   -33184.556     18121.09   -31608.435   -8700.8348    26076.184    23231.008    76.109915 
   43300    1920.4165   -163.88255    1.7376332   -162.14492    1988.7053    4.2350354    4.2350354    4.2350354    1988.7053   -33097.077     24241.48    14821.713   -16661.452     5448.312    22090.476    75.957581 
   43400    2087.7738    -164.0342    1.8890616   -162.14514    10582.651    4.2293245    4.2293245    4.2293245    10582.651   -980.07877    12322.425    20405.605   -13928.991    1465.3955    30067.155    75.650713 
   43500    2055.0382   -164.00685    1.8594418   -162.14741   -5842.6335    4.2345017    4.2345017    4.2345017   -5842.6335   -39168.288    22027.581   -387.19304   -12527.614   -15927.169    23662.982    75.928871 
   43600    2060.7777   -164.01191     1.864635   -162.14727    2956.5612    4.2238233    4.2238233    4.2238233    2956.5612   -18317.688    28456.091   -1268.7199   -12771.104   -14802.277    30782.135    75.355896 
   43700    2120.6115   -164.06974    1.9187738   -162.15096   -4966.0114    4.2358516    4.2358516    4.2358516   -4966.0114   -16654.189    14848.326   -13092.171   -3173.1925   -13352.672     26727.19     76.00151 
   43800    2312.5931   -164.23898    2.0924828   -162.14649   -8917.0178    4.2356102    4.2356102    4.2356102   -8917.0178   -23387.696    14678.154   -18041.511    701.52715   -7156.4642    28690.887    75.988515 
   43900    2317.2063   -164.24204     2.096657   -162.14539    9416.9182    4.2319327    4.2319327    4.2319327    9416.9182   -6883.7986    6085.4393    29049.114    2315.6059    7003.8259    36004.478    75.790759 
   44000    2209.6428   -164.14317    1.9993312   -162.14384   -5810.1117    4.2342806    4.2342806    4.2342806   -5810.1117   -26979.961   -859.57538    10409.202    32.065196    3849.1284    31041.213    75.916978 
   44100    2080.1775   -164.02439    1.8821883    -162.1422   -1138.4237     4.227999     4.227999     4.227999   -1138.4237   -7543.9929    8177.1546   -4048.4329    3448.3906    26645.768    35385.105    75.579607 
   44200    1853.3814   -163.82179    1.6769784   -162.14481    4720.7882    4.2386624    4.2386624    4.2386624    4720.7882    1647.5945   -2692.2696     15207.04   -7610.3504     10456.99    25731.656    76.152904 
   44300    1903.1983   -163.86022    1.7220538   -162.13817   -15974.765    4.2407999    4.2407999    4.2407999   -15974.765   -27265.347    -11315.11   -9343.8372    1470.7792    34768.114    17226.895    76.268174 
   44400     1891.891    -163.8456    1.7118228   -162.13377    1189.1139      4.23036      4.23036      4.23036    1189.1139   -18331.782    9753.0442     12146.08   -14812.718    14681.916    15202.803    75.706294 
   44500     1738.539      -163.71    1.5730666   -162.13693     1655.232    4.2355055    4.2355055    4.2355055     1655.232   -3009.8771    1757.0332    6218.5399   -6202.6272    18740.511     9834.986     75.98288 
   44600     1694.352    -163.6725    1.5330853   -162.13941   -6676.6301     4.236769     4.236769     4.236769   -6676.6301   -25318.809    11872.177   -6583.2589   -14618.635    13558.309    14661.541    76.050898 
   44700    1669.7595   -163.65187    1.5108335   -162.14104   -1913.7218    4.2328475    4.2328475    4.2328475   -1913.7218   -16980.019    35085.338   -23846.484   -3274.2917    4635.6763      9935.02     75.83992 
   44800    1890.6656   -163.85524     1.710714   -162.14453    1059.5242     4.234572     4.234572     4.234572    1059.5242    6418.7438    21802.724   -25042.896    5703.4046    7643.2201    2757.0459    75.932653 
   44900    2105.5706   -164.05281    1.9051646   -162.14765   -391.37765    4.2345869    4.2345869    4.2345869   -391.37765   -1853.0718    5324.2463   -4645.3074   -6066.1789   -8437.1843   -3699.5021    75.933452 
   45000    2073.6752   -164.02466    1.8763049   -162.14836    15748.942    4.2313567    4.2313567    4.2313567    15748.942    743.06477    26649.591     19854.17    15350.655    2180.8292   -1674.8296    75.759816 
   45100    1944.6389   -163.90924    1.7595502   -162.14969   -17932.291    4.2368886    4.2368886    4.2368886   -17932.291   -14805.324   -18790.202   -20201.348     2302.958   -7931.2248   -8014.8757    76.057343 
   45200    1580.2234     -163.578    1.4298193   -162.14818    5110.0741    4.2307639    4.2307639    4.2307639    5110.0741   -13213.153     -965.287    29508.662    13820.087   -1579.2069   -5484.1005     75.72798 
   45300    1495.3601    -163.5008    1.3530333   -162.14777     4576.517    4.2273107    4.2273107    4.2273107     4576.517    4516.6096    547.29214    8665.6493    7776.3784    2429.0468   -2524.4365    75.542702 
   45400    1470.5225   -163.47988    1.3305597   -162.14932   -8257.1424    4.2399298    4.2399298    4.2399298   -8257.1424   -14453.398   -14331.019    4012.9904   -4406.2985    4462.8055   -8493.4017     76.22124 
   45500    1486.7696   -163.49054    1.3452604   -162.14528    -3545.043    4.2328743    4.2328743    4.2328743    -3545.043   -28443.703    2800.3328    15008.241   -4961.9209    19401.138   -7923.5099    75.841359 
   45600    1449.2028   -163.45798    1.3112691   -162.14671    5316.9146    4.2258364    4.2258364    4.2258364    5316.9146    27950.641   -15942.589    3942.6926   -17909.422    11550.105   -2182.3086     75.46369 
   45700    1221.3003   -163.25733    1.1050582   -162.15228   -613.84304    4.2354471    4.2354471    4.2354471   -613.84304   -353.51197   -1369.8884   -118.12871   -17993.995     16745.46   -4978.2126    75.979737 
   45800    1144.3146   -163.18693    1.0353999   -162.15153   -12637.376    4.2352733    4.2352733    4.2352733   -12637.376   -18597.369    764.41115   -20079.169    -27939.82     7414.631    5225.8441    75.970386 
   45900    1031.9313   -163.08636   0.93371309   -162.15264   -7108.7577    4.2304715    4.2304715    4.2304715   -7108.7577    5782.4772   -7645.2241   -19463.526   -8247.0635    6724.2452    3677.1249     75.71228 
   46000    1137.2283   -163.18202    1.0289881   -162.15303    1674.2816    4.2311913    4.2311913    4.2311913    1674.2816   -4228.8887    14359.625   -5107.8917   -13516.322   -15541.142     3781.476    75.750933 
   46100    1304.9943   -163.33411    1.1807863   -162.15332   -336.00926    4.2364482    4.2364482    4.2364482   -336.00926    11694.736   -23.425599   -12679.338   -2445.3351   -13969.988    13619.083    76.033625 
   46200    1180.2614   -163.21675    1.0679253   -162.14882   -22318.965    4.2365371    4.2365371    4.2365371   -22318.965    -24428.22    815.58035   -43344.254    12205.469   -27743.737    8383.3819    76.038414 
   46300    900.26894   -162.96145   0.81458225   -162.14687    18945.688    4.2277024    4.2277024    4.2277024    18945.688    22862.951    60938.991   -26964.877    4040.9431    -32933.64    17663.865      75.5637 
   46400    734.20759   -162.81515   0.66432646   -162.15083   -8670.0867    4.2335511    4.2335511    4.2335511   -8670.0867    -21512.17    20793.268   -25291.358     29084.59   -34903.015     18050.34    75.877745 
   46500    728.04658   -162.81118   0.65875184   -162.15243   -4954.2147    4.2357001    4.2357001    4.2357001   -4954.2147   -7198.2726    26573.192   -34237.564    16616.584   -42864.277    23018.366    75.993356 
   46600    696.14252   -162.78436   0.62988438   -162.15447    3437.3454    4.2358657    4.2358657    4.2358657    3437.3454   -19834.675    37852.366   -7705.6545    28488.169   -45911.888    19659.895    76.002266 
   46700    627.95049   -162.72443    0.5681828   -162.15625   -3515.0938    4.2315961    4.2315961    4.2315961   -3515.0938   -8886.7586    15724.218   -17382.741    38947.916   -49311.892    15866.691    75.772677 
   46800     539.3485   -162.64688   0.48801385   -162.15886    3217.7278    4.2301656    4.2301656    4.2301656    3217.7278    892.99599    10165.263   -1405.0752    40223.222   -49097.094    17677.986    75.695859 
   46900    422.79932    -162.5461   0.38255771   -162.16354   -11636.305    4.2421013    4.2421013    4.2421013   -11636.305   -44777.206    35746.684   -25878.391    42877.944   -46697.897    11351.072     76.33841 
   47000    318.59416   -162.44333   0.28827069   -162.15506   -13181.188    4.2370331    4.2370331    4.2370331   -13181.188    -38122.89    3150.5018   -4571.1751    58571.297   -46231.081    17165.031    76.065123 
   47100    428.77499   -162.54161   0.38796462   -162.15364    6351.6175    4.2271634    4.2271634    4.2271634    6351.6175   -38432.149    27554.434    29932.567     49802.38    -39251.84    11765.867    75.534802 
   47200    492.81557   -162.60177   0.44590989   -162.15586   -21182.953    4.2371601    4.2371601    4.2371601   -21182.953   -45516.001   -13641.703   -4391.1564    56151.875   -41792.825    12825.999    76.071965 
   47300     523.7846   -162.63017   0.47393132   -162.15624    11244.467     4.234964     4.234964     4.234964    11244.467    5102.7721   -966.17088      29596.8    57214.454   -34618.218    799.61497    75.953739 
   47400    530.35204   -162.63525   0.47987367   -162.15538   -14995.513    4.2388198    4.2388198    4.2388198   -14995.513   -41279.337    -15248.13    11540.927    55848.095   -35921.645    1314.9389    76.161391 
   47500    596.02139    -162.6946   0.53929268   -162.15531   -5082.2471    4.2326607    4.2326607    4.2326607   -5082.2471   -22259.205   -1889.5209    8901.9845    55274.279   -24653.221     4677.892     75.82988 
   47600    669.05436    -162.7609   0.60537445   -162.15552    6716.1961     4.228725     4.228725     4.228725    6716.1961   -24497.461     16339.34    28306.709    54145.536   -16763.673    1256.2241    75.618545 
   47700    667.36612   -162.75741   0.60384689   -162.15356   -14643.269    4.2400015    4.2400015    4.2400015   -14643.269   -67500.473   -22224.437    45795.102    62626.394    -6643.803    5948.8921    76.225105 
   47800    664.48002   -162.75336   0.60123549   -162.15213   -2196.9515    4.2320245    4.2320245    4.2320245   -2196.9515   -13680.059    939.82928    6149.3748    40101.095      572.925    2298.3664    75.795693 
   47900    741.30244    -162.8258   0.67074603   -162.15506    -16121.98     4.229812     4.229812     4.229812    -16121.98   -70863.899   -8080.0511    30578.011    50626.882     6750.148   -1895.4594    75.676875 
   48000    665.03477   -162.76046   0.60173743   -162.15872    6179.2705    4.2307447    4.2307447    4.2307447    6179.2705   -45065.215   -10802.686    74405.712    37550.604    14529.351    808.24503    75.726946 
   48100    617.36868   -162.71844   0.55860815   -162.15983   -9213.8191    4.2370077    4.2370077    4.2370077   -9213.8191   -78018.606    27542.698    22834.451    27860.049    16044.047    1757.1673    76.063757 
   48200    511.06983    -162.6285   0.46242673   -162.16607   -28375.369    4.2318429    4.2318429    4.2318429   -28375.369   -95585.138   -14507.614    24966.644    25831.342     19991.87   -2839.3078    75.785933 
   48300    494.39113   -162.61401   0.44733548   -162.16668    27466.749    4.2194942    4.2194942    4.2194942    27466.749   -23397.413    26217.018    79580.643    22851.505    17634.808   -1031.9377    75.124428 
   48400    840.96286   -162.92979   0.76092087   -162.16887   -20764.119    4.2391872    4.2391872    4.2391872   -20764.119   -60541.956   -5922.1398    4171.7394    19837.167    9381.8344    1680.2067    76.181198 
   48500    1047.5405   -163.10969    0.9478367   -162.16185   -16047.967    4.2340618    4.2340618    4.2340618   -16047.967   -39876.333   -14220.516    5952.9487    20551.711    3628.7051   -6941.6179    75.905208 
   48600    1047.5992   -163.10449    0.9478898    -162.1566    32857.612    4.2230114    4.2230114    4.2230114    32857.612    22282.942    3392.5854    72897.309    18548.562   -6181.5311   -5714.1067    75.312447 
   48700    937.97883    -163.0047   0.84870295   -162.15599   -27854.987    4.2380725    4.2380725    4.2380725   -27854.987   -20816.806   -31479.731   -31268.424    18191.791   -10999.129   -10065.054    76.121116 
   48800    806.37882   -162.88391   0.72962851   -162.15429    10284.822    4.2277503    4.2277503    4.2277503    10284.822     15153.39   -11199.852    26900.927    6743.4179   -12692.294    -14932.06    75.566272 
   48900    741.78869   -162.83091   0.67118599   -162.15973    2298.8067    4.2376096    4.2376096    4.2376096    2298.8067    38406.268   -22161.328   -9348.5205    13116.692   -16797.682   -6632.3114    76.096177 
   49000    912.96776   -162.97491   0.82607242   -162.14883    -26438.91    4.2438519    4.2438519    4.2438519    -26438.91    9565.0689   -47961.681   -40920.118    1903.9373   -12674.039   -20352.379    76.432958 
   49100    1104.7628   -163.14163   0.99961257   -162.14201    20901.342     4.220803     4.220803     4.220803    20901.342    64966.413   -23832.566     21570.18   -7488.2711   -15924.575   -12912.783    75.194354 
   49200    1142.0226   -163.18704     1.033326   -162.15372   -9936.2818    4.2331722    4.2331722    4.2331722   -9936.2818    46237.871   -31877.005   -44169.712   -12673.004   -9559.6549   -320.59202    75.857374 
   49300    1021.7984   -163.07732   0.92454469   -162.15278   -7565.1433    4.2391831    4.2391831    4.2391831   -7565.1433    7891.3571   -27615.235   -2971.5523   -12117.582   -1452.0784   -11187.208    76.180976 
   49400    805.81206   -162.88231   0.72911569   -162.15319    5328.7467    4.2294438    4.2294438    4.2294438    5328.7467    54368.382   -22674.813    -15707.33   -9492.1772    9381.2667   -3741.2585    75.657113 
   49500     710.6305   -162.80048   0.64299341   -162.15749   -13854.779    4.2309242    4.2309242    4.2309242   -13854.779    29063.743   -23769.995   -46858.085   -4768.5274    16522.303    9087.2846    75.736586 
   49600    858.59134   -162.93592   0.77687148   -162.15905    15078.291    4.2275043    4.2275043    4.2275043    15078.291    40767.624   -10358.002     14825.25    2354.5601    37214.987    2091.2556    75.553078 
   49700    1035.3952   -163.09906   0.93684735   -162.16222   -16380.187    4.2392801    4.2392801    4.2392801   -16380.187      16842.5   -18469.162     -47513.9    2512.2272    40686.846     2278.262    76.186206 
   49800    1263.2953   -163.29949    1.1430561   -162.15643   -3600.7791    4.2315673    4.2315673    4.2315673   -3600.7791    -3226.838    4790.0789   -12365.578    3272.4474    50528.661    9859.0704    75.771129 
   49900    1288.5998   -163.31903    1.1659522   -162.15307    14714.524    4.2206269    4.2206269    4.2206269    14714.524    22224.402    33666.466   -11747.295    4884.0116    61137.485    8804.8632    75.184946 
   50000    1106.7122   -163.16131    1.0013764   -162.15994   -18882.101    4.2378989    4.2378989    4.2378989   -18882.101   -62196.986    17685.024   -12134.339    1227.2803    72749.204    1210.2346    76.111762 
   50100    1092.6112   -163.14742    0.9886176   -162.15881    4378.5925    4.2316404    4.2316404    4.2316404    4378.5925    5615.2354    10873.871   -3353.3284    398.82275    69065.125    2664.3882    75.775055 
   50200    982.54958   -163.05366   0.88903151   -162.16463    6612.6818    4.2312319    4.2312319    4.2312319    6612.6818   -33747.222    7091.5782    46493.689    1365.0638    58788.309   -1068.1601    75.753112 
   50300     923.8877    -163.0031   0.83595301   -162.16715   -26233.184    4.2336624    4.2336624    4.2336624   -26233.184   -38264.836    6238.8308   -46673.548   -450.15415    59515.313   -153.07044    75.883732 
   50400    823.17917   -162.91088   0.74482981   -162.16605    19939.183    4.2293108    4.2293108    4.2293108    19939.183     -6846.41    18402.421    48261.537   -6807.5177     62063.07   -1184.9013    75.649977 
   50500    938.57115   -163.01113    0.8492389   -162.16189    -17441.71    4.2394816    4.2394816    4.2394816    -17441.71   -5606.2887   -9065.2517    -37653.59    -8277.879    55980.258   -9349.2812    76.197067 
   50600    1207.9492   -163.24511    1.0929778   -162.15213   -935.02555    4.2319881    4.2319881    4.2319881   -935.02555   -5907.9036    3937.8434   -835.01643    -9772.636    51060.858   -6666.4231    75.793737 
   50700    1225.2703   -163.26147    1.1086503   -162.15282    242.93897     4.232944     4.232944     4.232944    242.93897    3850.3388    4370.3181     -7491.84   -5779.4481    51586.188   -3284.4992    75.845108 
   50800    1300.1577   -163.32558      1.17641   -162.14917   -4037.6965     4.233259     4.233259     4.233259   -4037.6965    2214.2975   -1830.7028   -12496.684   -6239.2217    56169.276   -2985.0638     75.86204 
   50900    1422.9157   -163.43591     1.287484   -162.14843    8801.1224    4.2303735    4.2303735    4.2303735    8801.1224    16494.031   -1248.7169    11158.053    -2177.453     44040.07    384.19878    75.707019 
   51000    1654.8267   -163.64519     1.497322   -162.14787   -16027.541    4.2425208    4.2425208    4.2425208   -16027.541   -15934.557    -6581.183   -25566.883    5665.4597    32799.924    484.46892    76.361056 
   51100    1803.1874   -163.77407    1.6315619    -162.1425   -5096.9248    4.2336393    4.2336393    4.2336393   -5096.9248   -17739.749    6024.9615   -3575.9872    1178.0965     30814.75    3317.5159    75.882487 
   51200    1702.7511   -163.68536    1.5406849   -162.14467    10430.649    4.2341874    4.2341874    4.2341874    10430.649    24213.626    -3850.962    10929.282    12211.346    30324.333    1178.4437    75.911966 
   51300     1581.738   -163.57129    1.4311898    -162.1401   -12260.386    4.2386099    4.2386099    4.2386099   -12260.386   -20648.799   -21364.085    5231.7249    7442.3061    21457.305    4818.4236    76.150078 
   51400     1473.173   -163.47057    1.3329578   -162.13761     5540.347    4.2370505    4.2370505    4.2370505     5540.347    51942.052   -26242.021   -9078.9902    11689.539    9346.8552    -1046.828    76.066059 
   51500    1533.0062   -163.52408    1.3870962   -162.13698   -22200.571    4.2401269    4.2401269    4.2401269   -22200.571   -18277.287   -36948.482   -11375.944     13546.21   -2693.9384   -2051.2659     76.23187 
   51600    1686.3246   -163.66063    1.5258219    -162.1348    11899.488    4.2259682    4.2259682    4.2259682    11899.488    32591.728    94.710186    3012.0268    8181.9354   -3124.6658    6215.7737    75.470753 
   51700    1820.6342   -163.79159    1.6473481   -162.14425    5418.1122    4.2309381    4.2309381    4.2309381    5418.1122    22759.276    6041.3937   -12546.334    11601.002     974.4029   -6146.7732    75.737334 
   51800    1918.3551    -163.8804     1.735768   -162.14463   -12719.042    4.2414581    4.2414581    4.2414581   -12719.042   -2077.6891   -8193.1292   -27886.307   -9500.3858   -9930.7597    9114.4325    76.303691 
   51900     1867.039   -163.83132    1.6893361   -162.14199    11077.421    4.2320291    4.2320291    4.2320291    11077.421    35815.364   -387.15188   -2195.9488    -8098.793   -9901.2846   -1128.3252    75.795939 
   52000    1812.4971   -163.78596    1.6399855   -162.14598   -2746.7353    4.2297135    4.2297135    4.2297135   -2746.7353    11477.419   -3733.6974   -15983.927   -10587.985   -2474.2063    4826.5715    75.671589 
   52100    1701.8568   -163.69122    1.5398758   -162.15134   -2836.6944    4.2305162    4.2305162    4.2305162   -2836.6944    9796.7615    -13339.53   -4967.3144   -10569.158    2405.7284    3486.2435    75.714679 
   52200    1878.2456   -163.85463    1.6994761   -162.15515    1165.0861    4.2364312    4.2364312    4.2364312    1165.0861    20363.344    -16521.25   -346.83567   -6252.3844    6608.8424     -4218.07     76.03271 
   52300    2015.3477   -163.97496    1.8235289   -162.15143   -23928.011    4.2450652    4.2450652    4.2450652   -23928.011   -33290.848   -24820.206   -13672.979   -6896.9032    11519.017    1677.6683    76.498528 
   52400    2021.5751   -163.97438    1.8291636   -162.14521    7092.9551    4.2269422    4.2269422    4.2269422    7092.9551   -21354.017    25205.849    17427.033    162.27697    7720.1477   -1845.8085    75.522949 
   52500    1996.1053   -163.95225     1.806118   -162.14613    1559.9325    4.2325037    4.2325037    4.2325037    1559.9325   -30318.382    5759.5796      29238.6    2364.9035   -579.39476    10842.342    75.821443 
   52600    1896.5523   -163.85292    1.7160403   -162.13688   -29977.187     4.247803     4.247803     4.247803   -29977.187   -59941.134   -30123.342    132.91426    9731.0275   -11666.969    5728.7487    76.646637 
   52700    1895.6297   -163.84673    1.7152056   -162.13153    7949.7521    4.2321465    4.2321465    4.2321465    7949.7521    53.825923    16149.318    7646.1125    6392.3679   -20073.805    11637.874    75.802247 
   52800    2015.6871   -163.95645    1.8238361   -162.13261    9465.1908    4.2269819    4.2269819    4.2269819    9465.1908    6988.5709    5391.7637    16015.238    16578.852   -17471.849    5658.4592    75.525074 
   52900    1998.4299   -163.94883    1.8082214   -162.14061    1607.4588    4.2367976    4.2367976    4.2367976    1607.4588     32944.77    -19263.92   -8858.4732    16263.758     -19183.7    6791.0448     76.05244 
   53000    1881.9553    -163.8466    1.7028327   -162.14377    2184.1201    4.2370988    4.2370988    4.2370988    2184.1201    4602.9402   -9703.7136    11653.134    12367.033   -18083.667    916.85553    76.068663 
   53100      1835.54   -163.80658    1.6608352   -162.14575    7971.0398    4.2303703    4.2303703    4.2303703    7971.0398     15395.82   -4681.4955    13198.795    10215.723   -25393.296   -5719.1691    75.706844 
   53200    1760.6642   -163.74286     1.593086   -162.14978    3290.9905    4.2280361    4.2280361    4.2280361    3290.9905    24317.104    -23605.08    9160.9473    6825.2163   -22910.155   -19433.985    75.581595 
   53300    1872.0794   -163.84746    1.6938968   -162.15356    4264.6604    4.2290583    4.2290583    4.2290583    4264.6604    24965.694   -23475.245    11303.532    1450.8129   -20673.584   -18558.561    75.636429 
   53400    1867.2565   -163.84281    1.6895329   -162.15328   -5318.0353    4.2359895    4.2359895    4.2359895   -5318.0353    6475.0416   -14508.677    -7920.471   -3318.7428   -13882.056   -11342.159    76.008931 
   53500    1669.2534   -163.66145    1.5103756   -162.15107    345.51695    4.2317524    4.2317524    4.2317524    345.51695    273.90496   -12025.044     12787.69   -6895.5217   -3763.0593   -8908.5043    75.781075 
   53600    1640.5514   -163.63582    1.4844054   -162.15141    929.71789    4.2243959    4.2243959    4.2243959    929.71789    -8555.873     -15129.4    26474.427   -12414.788   -402.50295    6032.8976    75.386547 
   53700    1625.5904   -163.62769    1.4708683   -162.15682    1590.6371    4.2305272    4.2305272    4.2305272    1590.6371   -5667.6162   -12916.474    23356.002   -15522.924    12651.489    13130.791     75.71527 
   53800    1624.8006   -163.62842    1.4701538   -162.15827    364.59805    4.2300776    4.2300776    4.2300776    364.59805    7452.5461   -4809.8641   -1548.8879    -12265.64    15114.604    19540.229    75.691134 
   53900    1627.0082   -163.63074    1.4721512   -162.15859   -6529.0664    4.2325592    4.2325592    4.2325592   -6529.0664    731.04138   -29920.354    9602.1138   -11872.925    15526.642    22960.644    75.824423 
   54000    1557.4789    -163.5662    1.4092397   -162.15696   -3859.0072    4.2302981    4.2302981    4.2302981   -3859.0072   -14417.416   -2850.1182    5690.5124   -6173.0826    19695.535    12846.611    75.702972 
   54100    1523.6663   -163.53386    1.3786453   -162.15522    7089.8758     4.223094     4.223094     4.223094    7089.8758   -29010.332    43171.218    7108.7414    3529.3526    28686.367    6094.9426    75.316868 
   54200    1536.9414   -163.55002    1.3906569   -162.15937    -8458.615    4.2346477    4.2346477    4.2346477    -8458.615   -23469.691   -2136.9708    230.81628    6459.3799    27025.708   -6840.8806    75.936722 
   54300    1559.9317   -163.56808     1.411459   -162.15663   -4651.4029    4.2348648    4.2348648    4.2348648   -4651.4029   -18042.673   -1835.8272    5924.2913    17689.697    35355.379   -8883.5193    75.948401 
   54400     1439.573   -163.46086    1.3025559    -162.1583    8911.6844    4.2253273    4.2253273    4.2253273    8911.6844    21112.317    32827.493   -27204.757    19721.554    48185.977   -9040.2879    75.436419 
   54500      1313.47   -163.34969    1.1884553   -162.16124   -3930.9568    4.2253925    4.2253925    4.2253925   -3930.9568   -7098.3024    403.76596    -5098.334    24707.117    47602.707   -17267.335    75.439909 
   54600    1132.8653   -163.18937    1.0250404   -162.16433    1545.9607    4.2310494    4.2310494    4.2310494    1545.9607    14687.288   -1464.9149   -8584.4913    27627.025    50922.428   -12390.862    75.743312 
   54700    976.53066   -163.04752   0.88358546   -162.16393   -19128.226    4.2377753    4.2377753    4.2377753   -19128.226   -43827.764     15167.57   -28724.484    20575.744     58545.03   -7286.8021    76.105103 
   54800    1054.0972    -163.1131   0.95376926   -162.15933    2805.7697    4.2249403    4.2249403    4.2249403    2805.7697   -11761.257    14911.106    5267.4599     23196.99    58883.177   -8309.8834    75.415694 
   54900    1075.2605   -163.13527   0.97291834   -162.16235     2592.426    4.2294782    4.2294782    4.2294782     2592.426   -8467.7053    8389.7573    7855.2262    16862.905    57956.376   -8074.4291    75.658963 
   55000    992.89561   -163.05336   0.89839281   -162.15497   -14776.108    4.2400241    4.2400241    4.2400241   -14776.108   -37598.366    21370.687   -28100.644    8694.2829    66902.695   -7793.4789    76.226324 
   55100    989.41843   -163.04301   0.89524659   -162.14776    7260.7179    4.2336237    4.2336237    4.2336237    7260.7179   -8415.8706    21999.242    8198.7827    6590.5736    66584.909   -6560.0628    75.881651 
   55200    973.70215   -163.02983   0.88102617   -162.14881   -11697.565    4.2321187    4.2321187    4.2321187   -11697.565   -65191.356    28685.427    1413.2349     799.0824    70934.663   -747.95477    75.800752 
   55300    1050.7762   -163.10229    0.9507644   -162.15153    12319.814    4.2231047    4.2231047    4.2231047    12319.814   -28022.216    66112.198   -1130.5398    2852.2029     69282.61   -1889.1531    75.317439 
   55400    1014.7629   -163.08045   0.91817878   -162.16227   -7464.0516    4.2352223    4.2352223    4.2352223   -7464.0516   -71647.433    34313.673    14941.605   -9245.6795    60523.154    6033.3265    75.967641 
   55500    750.58899     -162.844   0.67914869   -162.16485     -21115.2    4.2344365    4.2344365    4.2344365     -21115.2   -73308.679    35811.782   -25848.702   -5261.4752     48492.99    4541.5735    75.925361 
   55600    541.68842   -162.65333   0.49013107    -162.1632    14290.324    4.2178249    4.2178249    4.2178249    14290.324   -56999.542    77323.945     22546.57   -9201.9056    39748.254     7847.693    75.035303 
   55700    549.88932   -162.66594   0.49755141   -162.16839   -22268.747    4.2346647    4.2346647    4.2346647   -22268.747    -98092.98    53220.245   -21933.504   -8265.5391    38597.496    8867.7556    75.937639 
   55800    734.17227   -162.82865    0.6642945   -162.16435   -6457.5796    4.2316738    4.2316738    4.2316738   -6457.5796   -72244.954    38574.315      14297.9     -893.036    23538.574    3436.0913     75.77685 
   55900    1034.9579   -163.09796   0.93645169   -162.16151    5772.9549     4.223634     4.223634     4.223634    5772.9549   -45055.275    68807.686   -6433.5469   -4154.1455    26777.168    4573.0623    75.345764 
   56000     1132.768   -163.18716    1.0249523   -162.16221   -8987.1837    4.2334774    4.2334774    4.2334774   -8987.1837   -43910.266    27188.695    -10239.98    6132.1211    32094.244   -8793.8288    75.873785 
   56100     1197.818   -163.24407    1.0838109   -162.16026    -2252.194    4.2269548    4.2269548    4.2269548    -2252.194   -6371.7055    17698.973   -18083.849    4718.5819    19789.737    -13368.13    75.523624 
   56200     1127.296   -163.18134    1.0200012   -162.16134    9723.6736    4.2278242    4.2278242    4.2278242    9723.6736    5701.5737    30181.611   -6712.1636    9044.0257    17968.441   -25058.597    75.570234 
   56300    1071.3841   -163.12701   0.96941083    -162.1576   -15923.524    4.2361225    4.2361225    4.2361225   -15923.524   -1523.3801   -19913.298   -26333.895    5842.1699    12255.885   -38283.096    76.016091 
   56400    1190.7754   -163.23111    1.0774386   -162.15367    7192.5386    4.2292324    4.2292324    4.2292324    7192.5386    36496.167   -4582.5066   -10336.045    2368.6689    1908.9405   -44221.117    75.645768 
   56500    1300.4698   -163.33028    1.1766924   -162.15359    4542.1225     4.229529     4.229529     4.229529    4542.1225     27107.64   -13657.045    175.77287   -700.67624   -4894.9824   -57896.346    75.661689 
   56600     1307.151   -163.33608    1.1827377   -162.15335   -9598.9194    4.2341207    4.2341207    4.2341207   -9598.9194    34248.741   -34124.302   -28921.197    -6506.571    -15581.44   -65107.089    75.908379 
   56700    1276.4362   -163.30962    1.1549463   -162.15467   -1222.3948    4.2314899    4.2314899    4.2314899   -1222.3948     42158.53   -36664.408    -9161.307    238.23839   -14899.145   -68922.086    75.766973 
   56800    1153.3308   -163.19801     1.043558   -162.15446    5922.4059    4.2281396    4.2281396    4.2281396    5922.4059     51753.22   -26367.293   -7618.7099   -14271.467   -20982.759   -64527.717    75.587148 
   56900    1016.8301   -163.07866   0.92004927   -162.15861     227.1269    4.2353749    4.2353749    4.2353749     227.1269    58269.655   -49037.971   -8550.3035   -1748.6803   -6341.0129   -68314.908    75.975852 
   57000    967.02598   -163.03204   0.87498543   -162.15706   -8235.2977    4.2352345    4.2352345    4.2352345   -8235.2977    53393.177    -40141.49   -37957.581    792.79876   -2628.6894   -65193.634    75.968295 
   57100    950.83105   -163.01494   0.86033191   -162.15461    12713.897    4.2290892    4.2290892    4.2290892    12713.897    41414.561    4600.0113   -7872.8828    3228.4901    10825.468   -62195.364    75.638087 
   57200     1037.176   -163.09668   0.93845866   -162.15822   -12332.952    4.2360752    4.2360752    4.2360752   -12332.952     24284.36   -8765.1416   -52518.075    1777.6268    17215.413   -59742.723    76.013542 
   57300    1138.9069   -163.18774    1.0305069   -162.15723   -9439.1361    4.2316041    4.2316041    4.2316041   -9439.1361    29370.208   -6669.3558    -51018.26    2117.8092    21011.516   -54772.924    75.773107 
   57400    1170.5272    -163.2163    1.0591176   -162.15718   -321.79158    4.2339174    4.2339174    4.2339174   -321.79158    28013.193   -79.764653   -28898.803    1620.3511    26481.559   -40709.976    75.897441 
   57500     1198.027   -163.22792        1.084   -162.14392   -17278.729    4.2418205    4.2418205    4.2418205   -17278.729    12053.046   -20437.844    -43451.39   -1816.0833    26564.934   -28857.355    76.323253 
   57600    1165.5952   -163.18808     1.054655   -162.13342    9046.5324    4.2333411    4.2333411    4.2333411    9046.5324    20634.663   -9067.5816    15572.515     1829.697    28908.152   -23262.079    75.866457 
   57700    1350.2828   -163.35469    1.2217643   -162.13292   -4092.3894    4.2338163    4.2338163    4.2338163   -4092.3894    5992.9464   -4454.4814   -13815.633   -277.76571    28603.164   -13266.522    75.892007 
   57800    1575.2025   -163.56316    1.4252763   -162.13788   -4132.9524    4.2318752    4.2318752    4.2318752   -4132.9524    858.65322   -3848.1696   -9409.3407    978.93352    9712.9721   -10765.515    75.787672 
   57900    1791.8644   -163.76576    1.6213166   -162.14444    6625.7605    4.2285533    4.2285533    4.2285533    6625.7605    17292.147   -8796.3575    11381.492   -990.01414    13398.224   -7108.0684    75.609335 
   58000    1907.8972   -163.87237    1.7263055   -162.14607   -10645.539    4.2361013    4.2361013    4.2361013   -10645.539    12327.426   -33358.939   -10905.105   -5401.0514    1079.3138   -5000.4627    76.014949 
   58100    1895.7687   -163.85504    1.7153314    -162.1397    2565.6015    4.2351496    4.2351496    4.2351496    2565.6015     19414.16   -27363.053    15645.698     6744.097   -6750.2735    2155.4318    75.963729 
   58200    1977.2888   -163.92413    1.7890925   -162.13504   -2271.3717    4.2369061    4.2369061    4.2369061   -2271.3717    10240.426   -15061.069   -1993.4727   -1415.6405   -12940.998    12484.286    76.058283 
   58300    2088.0769   -164.02372    1.8893358   -162.13439   -11491.594    4.2392738    4.2392738    4.2392738   -11491.594   -20609.884   -9876.7734   -3988.1261    11877.749   -7923.8404    11402.893    76.185864 
   58400    2169.5843   -164.10191    1.9630854   -162.13882    15978.406    4.2253219    4.2253219    4.2253219    15978.406    8224.4098    13954.623    25756.186    282.75028   -6793.7745    17146.311    75.436131 
   58500    2156.8202   -164.10108    1.9515362   -162.14954    3765.0327    4.2278862    4.2278862    4.2278862    3765.0327    6093.5283   -2834.2402    8035.8099   -45.833797   -7519.2019    11984.166    75.573559 
   58600    1987.9123   -163.95228    1.7987048   -162.15357   -11490.863     4.235029     4.235029     4.235029   -11490.863   -10139.179   -10092.537   -14240.873   -4444.3929    6110.4488    14681.615    75.957236 
   58700     1843.041    -163.8186    1.6676222   -162.15098    289.99516      4.23606      4.23606      4.23606    289.99516     -10410.6   -4614.5369    15895.122   -6458.3478    19630.719    18875.416    76.012724 
   58800    1790.6639   -163.77077    1.6202304   -162.15054   -2535.3424    4.2313343    4.2313343    4.2313343   -2535.3424   -12897.901    19744.462   -14452.588    1383.6821    35976.143    15809.448    75.758612 
   58900    1679.0708   -163.67103    1.5192586   -162.15177    19497.548     4.222562     4.222562     4.222562    19497.548   -979.54071    46812.247    12659.938    2133.6614    34811.353    19992.467    75.288409 
   59000    1672.5243   -163.66832    1.5133351   -162.15498   -6710.2423    4.2366588    4.2366588    4.2366588   -6710.2423   -22876.504    20303.798   -17558.021     4734.568    37512.673    14266.499    76.044965 
   59100    1745.2472   -163.72441    1.5791364   -162.14528   -19347.464    4.2391792    4.2391792    4.2391792   -19347.464   -38580.984    4895.4255   -24356.833    2731.9114    37068.575    12329.546    76.180765 
   59200    1693.1918   -163.66708    1.5320355   -162.13504    3416.3018    4.2338349    4.2338349    4.2338349    3416.3018   -19132.869    23234.341    6147.4329    6484.3243    24284.516    21362.144    75.893009 
   59300    1819.7131   -163.77525    1.6465147   -162.12873   -6512.7839    4.2396185    4.2396185    4.2396185   -6512.7839   -16077.909    21538.237   -24998.679    12779.135    13159.806     23240.62     76.20445 
   59400    2005.7929   -163.94219    1.8148836   -162.12731   -2945.3517    4.2356216    4.2356216    4.2356216   -2945.3517   -26640.187    18025.718   -221.58624    7911.8197    12598.861    28820.779    75.989127 
   59500    2115.4332   -164.04576    1.9140884   -162.13167    15642.614    4.2305207    4.2305207    4.2305207    15642.614   -6929.5194    32173.479    21683.883   -5215.6571     7789.519    36150.736    75.714921 
   59600    2336.5744   -164.25231    2.1141816   -162.13813    2102.2157    4.2301177    4.2301177    4.2301177    2102.2157   -14300.525     13221.91    7385.2616   -1187.5432     -2453.42    34435.183    75.693285 
   59700    2339.1885   -164.25858    2.1165469   -162.14204   -303.11398    4.2365725    4.2365725    4.2365725   -303.11398    -23145.11    -10991.01    33226.779   -9837.2969    -14174.34    34894.402     76.04032 
   59800    2388.9882   -164.29846    2.1616067   -162.13686   -14201.902    4.2411799    4.2411799    4.2411799   -14201.902   -29661.181     -21628.5    8683.9747    4859.2712    631.77814     33013.15    76.288678 
   59900    2396.2201   -164.30013    2.1681503   -162.13198   -2398.9003    4.2304314    4.2304314    4.2304314   -2398.9003   -24889.138    4168.6579    13523.779   -2742.6836    616.44141    28139.612    75.710125 
   60000    2119.0541    -164.0513    1.9173647   -162.13393     2282.587    4.2315528    4.2315528    4.2315528     2282.587   -22338.473     13950.18    15236.053    9685.1127    8397.5444    28725.229     75.77035 
   60100    1949.9433    -163.9016    1.7643497   -162.13725   -10129.315    4.2387596    4.2387596    4.2387596   -10129.315   -43994.087    5676.8877    7929.2532     7088.704    5878.6676    25755.433    76.158144 
   60200    1929.8792    -163.8856    1.7461953    -162.1394    5291.3708       4.2291       4.2291       4.2291    5291.3708   -21537.017    35856.811    1554.3182   -2494.7089    7765.7801    20870.848    75.638668 
   60300    1863.9282   -163.83126    1.6865214   -162.14474    11939.896    4.2295877    4.2295877    4.2295877    11939.896    3351.5873    35429.177   -2961.0765   -2870.4772    16418.578    23667.684    75.664839 
   60400    1856.1243   -163.82626    1.6794603    -162.1468    -2833.664    4.2370467    4.2370467    4.2370467    -2833.664    -20369.47    22251.379   -10382.902   -13042.685    12041.542    17641.231    76.065858 
   60500    1807.5618   -163.77929    1.6355199   -162.14377   -2108.7279    4.2342643    4.2342643    4.2342643   -2108.7279   -23060.146    27622.952    -10888.99   -4631.3696    10731.788    15624.551    75.916102 
   60600    1704.5912   -163.68398    1.5423499   -162.14163   -1105.5084    4.2365809    4.2365809    4.2365809   -1105.5084    -20047.87    9766.2317    6965.1135   -15604.251    2965.7784    14112.429    76.040772 
   60700    1740.3499    -163.7122    1.5747052   -162.13749   -17765.871    4.2386807    4.2386807    4.2386807   -17765.871   -30514.874   -23207.662    424.92458   -12772.909    4053.4445    9928.7732    76.153894 
   60800     1741.479   -163.71376    1.5757268   -162.13803   -1413.3524    4.2310744    4.2310744    4.2310744   -1413.3524   -14255.613   -11132.249    21147.805   -11885.142   -2715.1048    4699.0596    75.744653 
   60900    1822.2922   -163.79105    1.6488483    -162.1422    3026.0984    4.2332324    4.2332324    4.2332324    3026.0984   -1901.0556    346.31472    10633.036   -1323.0329   -2675.3656   -12269.433    75.860611 
   61000     1906.563   -163.87023    1.7250983   -162.14513   -1544.2741    4.2396272    4.2396272    4.2396272   -1544.2741   -13970.803   -13073.115    22411.096    3958.4334   -3660.3361   -20648.765     76.20492 
   61100    1928.3495   -163.88756    1.7448111   -162.14275    2957.2691    4.2338897    4.2338897    4.2338897    2957.2691    1018.8256    1759.9459    6093.0356    5489.4149   -3138.2545   -9414.1335    75.895952 
   61200    1777.6096   -163.74884    1.6084185   -162.14042    -6427.262    4.2339105    4.2339105    4.2339105    -6427.262    13060.758   -4962.2186   -27380.325    11319.948    12225.694    -5783.436    75.897072 
   61300    1390.4244   -163.39632    1.2580852   -162.13823   -3733.2404    4.2383779    4.2383779    4.2383779   -3733.2404    5860.8932    16524.163   -33584.778    9289.3418    13416.606   -11117.081    76.137571 
   61400    1260.0317   -163.27779    1.1401032   -162.13768    -4752.049    4.2388037    4.2388037    4.2388037    -4752.049    -3725.834     22026.62   -32556.933     4279.523    19436.758   -18369.276     76.16052 
   61500    1373.9181   -163.38306      1.24315   -162.13991   -8599.0619    4.2332086    4.2332086    4.2332086   -8599.0619    -11555.16     13778.56   -28020.586   -5773.4724    20571.935   -23668.627    75.859333 
   61600    1552.8616   -163.54726    1.4050618    -162.1422    1295.7481    4.2273949    4.2273949    4.2273949    1295.7481   -6399.3267     30490.21   -20203.639    -4954.257    13212.284   -20417.846    75.547216 
   61700    1410.0673   -163.42516    1.2758585    -162.1493   -7479.0673    4.2377164    4.2377164    4.2377164   -7479.0673   -20452.354    12092.292    -14077.14   -7810.2976    6480.1146   -26912.129    76.101931 
   61800     1135.506   -163.17319    1.0274297   -162.14576   -6930.5986    4.2438141    4.2438141    4.2438141   -6930.5986   -24217.964    3830.1842    -404.0164   -4424.2016    3296.8193   -38809.111    76.430915 
   61900    1210.5165   -163.23752    1.0953008   -162.14222   -3752.7124    4.2310296    4.2310296    4.2310296   -3752.7124   -6228.6168    8474.1322   -13503.653    2475.6862    2307.0365   -44467.234     75.74225 
   62000     1398.085   -163.41077    1.2650167   -162.14575   -3012.6597    4.2278505    4.2278505    4.2278505   -3012.6597   -1331.3474    7705.1302   -15411.762   -2954.9112   -4310.7822   -34620.816    75.571646 
   62100    1385.5057   -163.40588    1.2536347   -162.15225   -1687.4479    4.2393328    4.2393328    4.2393328   -1687.4479   -6455.1914    6121.4728    -4728.625    4257.4712   -4455.5521   -41546.917    76.189044 
   62200    1125.3331    -163.1677     1.018225   -162.14947   -4622.3576    4.2437527    4.2437527    4.2437527   -4622.3576    8895.1404   -1082.2857   -21679.927   -6813.5658   -7258.6289   -51001.115    76.427599 
   62300    968.14564   -163.01941   0.87599852   -162.14342     414.7341    4.2335816    4.2335816    4.2335816     414.7341    62299.581   -26727.047   -34328.332    -1340.282   -6615.3158   -55698.594    75.879383 
   62400    972.84458   -163.01891   0.88025022   -162.13866    16832.539    4.2277602    4.2277602    4.2277602    16832.539    106041.74   -12272.212    -43271.91   -383.06944   -7710.5108   -54997.848    75.566801 
   62500    1060.7101    -163.1019    0.9597528   -162.14214   -3282.5934    4.2430905    4.2430905    4.2430905   -3282.5934    53074.609   -5016.1812   -57906.208    12389.938    -4589.945   -57381.416    76.391826 
   62600    1011.8506   -163.04789   0.91554371   -162.13235    -25861.08    4.2508698    4.2508698    4.2508698    -25861.08    22778.905   -14628.971   -85733.175   -69.731917   -4336.5778   -75565.039    76.812767 
   62700    874.99651     -162.923   0.79171523   -162.13128    1983.6752    4.2282307    4.2282307    4.2282307    1983.6752    49363.404   -13013.341   -30399.037    1047.2513    1276.6588   -91195.673    75.592035 
   62800    809.08137   -162.86738   0.73207382    -162.1353    7925.9529     4.217251     4.217251     4.217251    7925.9529    62756.644   -10381.372   -28597.413   -3423.8864   -1302.3069   -104947.31    75.004676 
   62900    797.73651   -162.87492   0.72180875   -162.15311   -12295.785    4.2352911    4.2352911    4.2352911   -12295.785    30491.784   -38779.602   -28599.536   -3006.0133    4702.9021   -102335.39    75.971342 
   63000    687.51815   -162.77714   0.62208087   -162.15506   -6174.8823    4.2429825    4.2429825    4.2429825   -6174.8823    29338.559   -20310.816    -27552.39   -1040.7381    9082.3649   -97298.064    76.385993 
   63100     623.8965     -162.716   0.56451466   -162.15148    1713.9118    4.2303296    4.2303296    4.2303296    1713.9118    61880.388    -37497.23   -19241.423   -5517.3578    5630.0373   -101112.97     75.70466 
   63200    568.95984   -162.66661   0.51480682    -162.1518     1030.669    4.2272236    4.2272236    4.2272236     1030.669    92079.166   -64812.103   -24175.057   -2505.8273    3242.8202   -101573.98    75.538032 
   63300    568.58718    -162.6673   0.51446962   -162.15283    7988.1644    4.2347585    4.2347585    4.2347585    7988.1644     86382.27   -51273.013   -11144.763     452.1942   -5127.1331   -84410.557    75.942687 
   63400    708.56978    -162.7857   0.64112883   -162.14457   -6401.2958     4.242937     4.242937     4.242937   -6401.2958    54008.994   -63772.245   -9440.6371    3336.2604   -153.72706   -83439.866    76.383536 
   63500    947.67031   -162.99855   0.85747202   -162.14108   -12482.981    4.2347624    4.2347624    4.2347624   -12482.981    50073.606   -51077.799   -36444.749    2300.1927   -3272.1341   -85655.451    75.942896 
   63600    1129.1388   -163.16436    1.0216685    -162.1427     10122.89    4.2224625    4.2224625    4.2224625     10122.89    39817.201   -21210.103    11761.574     13344.79    2924.7751   -78357.139    75.283084 
   63700    1330.6906   -163.35707    1.2040368   -162.15303   -10733.302    4.2310291    4.2310291    4.2310291   -10733.302    22911.955    -39259.46   -15852.402    17326.822   -7884.1403   -74564.229    75.742224 
   63800    1333.4887   -163.35531    1.2065686   -162.14874   -7440.3713    4.2440679    4.2440679    4.2440679   -7440.3713    17189.464   -36966.682   -2543.8952    13113.512     535.3381   -53389.135    76.444629 
   63900    1345.3777   -163.35251     1.217326   -162.13518   -1306.2438     4.240477     4.240477     4.240477   -1306.2438    26846.828   -38287.557    7521.9977    6226.8185   -1492.7255   -44251.556    76.250755 
   64000    1619.8581   -163.59011    1.4656817   -162.12442    13653.319    4.2311691    4.2311691    4.2311691    13653.319    61923.558     -17354.3   -3609.3014    11982.531    -1398.751   -38720.662     75.74974 
   64100    2026.8862   -163.96003    1.8339692   -162.12606   -4221.0329    4.2372752    4.2372752    4.2372752   -4221.0329    14159.583   -12491.012   -14331.669    4447.8708   -11261.186   -30849.393    76.078161 
   64200    2342.0129   -164.24016    2.1191025   -162.12106   -23172.418    4.2462422    4.2462422    4.2462422   -23172.418   -25026.307   -30810.889   -13680.059    10523.143   -16339.213   -27332.813    76.562177 
   64300    2384.9061   -164.27335    2.1579132   -162.11544   -12040.787     4.240848     4.240848     4.240848   -12040.787   -11311.906   -29733.425    4922.9688    4612.9824   -4716.2639   -14611.172    76.270767 
   64400    2292.8869      -164.19    2.0746522   -162.11535    7602.7892    4.2310218    4.2310218    4.2310218    7602.7892    16742.863   -12991.518    19057.022    11285.278   -15638.907   -14889.721    75.741828 
   64500    2182.1304   -164.10087    1.9744374   -162.12644    9843.0499    4.2293604    4.2293604    4.2293604    9843.0499     13597.89   -3601.9319    19533.192    5107.4856   -8854.8006   -8700.1408    75.652639 
   64600    2098.3006   -164.03787    1.8985865   -162.13928   -3202.3556    4.2358277    4.2358277    4.2358277   -3202.3556   -20393.561    7901.7006     2884.793    4051.5368   -10646.858   -15849.341    76.000222 
   64700    2060.9506   -164.00794    1.8647914   -162.14315   -11248.077    4.2324849    4.2324849    4.2324849   -11248.077   -33742.027    13404.057   -13406.262    5100.7893   -5725.3953   -18221.037    75.820432 
   64800    2098.5787    -164.0443    1.8988381   -162.14547    13655.418    4.2269082    4.2269082    4.2269082    13655.418   -10224.239    35782.779    15407.714    412.77012    507.23896   -16936.888    75.521125 
   64900    2162.0507    -164.1051    1.9562689   -162.14883   -3923.9785    4.2319781    4.2319781    4.2319781   -3923.9785   -18620.628    26551.317   -19702.625     4007.698    9428.0672   -16997.146    75.793199 
   65000    2240.4725   -164.17514    2.0272266   -162.14792   -1880.6822    4.2315513    4.2315513    4.2315513   -1880.6822   -4795.4542     24044.14   -24890.732   -4882.4192    22548.812   -11364.082    75.770269 
   65100    2155.6867    -164.0966    1.9505106   -162.14609    4342.8517    4.2320978    4.2320978    4.2320978    4342.8517   -10406.452    36057.999   -12622.992     2352.905    23315.742   -8946.0884    75.799631 
   65200    2034.8068   -163.98463     1.841136    -162.1435   -9211.6796    4.2332137    4.2332137    4.2332137   -9211.6796   -11852.605    35333.856    -51116.29   -5186.7259    28691.493   -7671.7903    75.859603 
   65300    2042.1268    -163.9908    1.8477592   -162.14304    1581.0327    4.2293368    4.2293368    4.2293368    1581.0327   -5380.7022     45763.23    -35639.43   -1008.4954    19910.881   -6761.8226    75.651371 
   65400    2231.8497    -164.1652    2.0194245   -162.14578    3257.3599    4.2305969    4.2305969    4.2305969    3257.3599   -5264.5077    35890.171   -20853.584   -603.13938    6769.3075   -8189.0695    75.719014 
   65500    2416.7114   -164.33544    2.1866913   -162.14875   -3587.6438     4.232678     4.232678     4.232678   -3587.6438   -5667.8702    19270.048   -24365.109   -4456.7145    12195.766   -4709.8469     75.83081 
   65600    2364.2108   -164.28986    2.1391876   -162.15067   -139.19084    4.2292445    4.2292445    4.2292445   -139.19084    18886.899    5269.5391   -24574.011     3411.858    5713.0997   -7393.0579    75.646419 
   65700    2041.9921   -164.00107    1.8476373   -162.15343    3545.7936    4.2289927    4.2289927    4.2289927    3545.7936    37507.388    9343.4639   -36213.471   -5576.7799    17658.828   -1066.5257     75.63291 
   65800    1850.9707   -163.82847    1.6747972   -162.15367   -2771.5611     4.230574     4.230574     4.230574   -2771.5611    25301.881    5497.6171   -39114.182    6147.4762    11284.307    6405.4092    75.717783 
   65900    1892.6175   -163.86214    1.7124801   -162.14966   -2544.0973    4.2327562    4.2327562    4.2327562   -2544.0973    15298.354    10432.329   -33362.975     1711.809    18112.628    3413.0548     75.83501 
   66000    1869.0334   -163.83609    1.6911407   -162.14495   -3746.2036    4.2322376    4.2322376    4.2322376   -3746.2036    7974.0163    6667.9487   -25880.576    3661.6114    17638.888    12965.746    75.807144 
   66100    1827.2861   -163.79849    1.6533668   -162.14513    3197.1907    4.2300695    4.2300695    4.2300695    3197.1907    30953.531   -7155.5874   -14206.372    8987.7384    10325.618    10126.203    75.690698 
   66200    1911.9433    -163.8771    1.7299665   -162.14713    117.13565    4.2280164    4.2280164    4.2280164    117.13565    17019.726   -21118.294    4449.9753    581.39483    9304.3851    19427.014    75.580538 
   66300    1944.4384   -163.90912    1.7593687   -162.14975   -5930.3899    4.2329292    4.2329292    4.2329292   -5930.3899    10331.131   -31827.388    3705.0873     5102.249    -1571.492    12659.217    75.844312 
   66400    1962.0676   -163.92396      1.77532   -162.14864   -2698.7894     4.232296     4.232296     4.232296   -2698.7894    5625.6587   -28456.747     14734.72   -5517.9455   -7775.6679     17736.62    75.810283 
   66500    2084.3175    -164.0324    1.8859343   -162.14646    1682.6435    4.2266358    4.2266358    4.2266358    1682.6435   -13055.988   -10303.081    28406.999   -7167.1095   -8790.3772    12425.927    75.506526 
   66600    2051.6889   -164.00672    1.8564112   -162.15031   -3005.9197    4.2316689    4.2316689    4.2316689   -3005.9197   -21619.526   -17902.038    30503.805   -11388.008   -9009.6092    4147.2073    75.776588 
   66700    2073.1951   -164.02731    1.8758705   -162.15144    7828.9655    4.2273311    4.2273311    4.2273311    7828.9655    369.78807   -25411.208    48528.317     -24873.8   -13909.965    10263.958    75.543795 
   66800    2115.4009   -164.06581    1.9140592   -162.15175   -768.34401    4.2325008    4.2325008    4.2325008   -768.34401     4171.968   -36007.208    29530.208   -12423.059   -12325.402    1076.2176    75.821287 
   66900    2014.4073   -163.96758     1.822678    -162.1449   -7451.9532    4.2390799    4.2390799    4.2390799   -7451.9532   -5883.8882   -35778.722    19306.751   -20797.911   -13897.389    11829.665    76.175411 
   67000    1905.1026   -163.86095    1.7237769   -162.13717   -906.81328    4.2300935    4.2300935    4.2300935   -906.81328   -13735.302   -28026.961    39041.823   -13414.785   -17348.301    3973.8095    75.691987 
   67100    1948.8781   -163.90023    1.7633859   -162.13685   -5826.3656    4.2318268    4.2318268    4.2318268   -5826.3656    -26333.46   -19181.555    28035.918   -12758.243    -15756.24    2808.7621     75.78507 
   67200    2110.1769   -164.05083    1.9093324   -162.14149    7824.2671    4.2265468    4.2265468    4.2265468    7824.2671   -9360.4305    721.01274    32112.219   -9856.2643   -16357.724   -4502.3445    75.501758 
   67300    2215.4518   -164.15414    2.0045873   -162.14955    5918.7258     4.229979     4.229979     4.229979    5918.7258   -14417.415    6056.8654    26116.727     1098.668   -15088.987   -5277.8696     75.68584 
   67400    2226.4165   -164.16385    2.0145085   -162.14934   -10584.749    4.2352495    4.2352495    4.2352495   -10584.749   -23662.755   -1235.3463    -6856.145    9307.6728   -14502.054    -9099.899    75.969103 
   67500    2169.3244   -164.10969    1.9628503   -162.14684    1563.0741    4.2300439    4.2300439    4.2300439    1563.0741   -20085.547    13171.935    11602.834     22674.64   -8962.6559   -10736.608    75.689324 
   67600    2081.8286   -164.03134    1.8836822   -162.14766   -3283.0075    4.2295945    4.2295945    4.2295945   -3283.0075   -40853.451    25826.169    5178.2589      18636.5   -4014.9213   -11254.521    75.665201 
   67700    2085.8496   -164.03707    1.8873205   -162.14975     5263.986    4.2259331    4.2259331    4.2259331     5263.986   -27055.939    30556.505    12291.393    8627.4596   -1808.4996   -5839.8157    75.468873 
   67800    2132.4934   -164.08495    1.9295248   -162.15542     3270.728    4.2325094    4.2325094    4.2325094     3270.728   -26818.365    29438.893    7191.6563    10067.801   -1734.6017   -9546.4932     75.82175 
   67900      2214.68   -164.15722     2.003889   -162.15333   -11807.401    4.2368007    4.2368007    4.2368007   -11807.401   -30012.151    15139.618    -20549.67   -5182.9905    4834.7432      2571.93    76.052606 
   68000    2086.6735   -164.04295     1.888066   -162.15488    9659.5926    4.2243667    4.2243667    4.2243667    9659.5926    2175.5911    16371.207     10431.98    4747.2927     8547.154   -3584.7791    75.384982 
   68100    1854.9918   -163.83593    1.6784356    -162.1575    10330.079    4.2268764    4.2268764    4.2268764    10330.079   -9256.5294    17704.904    22541.863   -6920.9239    15263.363    10032.983     75.51942 
   68200    1740.9438   -163.72785    1.5752426   -162.15261   -17387.335     4.241143     4.241143     4.241143   -17387.335   -54881.049    6688.2627   -3969.2182    1128.4394    21767.567    2522.4372    76.286683 
   68300    1692.3484   -163.67614    1.5312724   -162.14487   -14619.551    4.2379831    4.2379831    4.2379831   -14619.551    -50245.28   -4589.3163    10975.944    3693.3826    22132.133    14928.009    76.116298 
   68400    1732.1483   -163.70788    1.5672842    -162.1406    9466.9045    4.2250307    4.2250307    4.2250307    9466.9045   -6722.2676    30309.558    4813.4237   -6015.8348    26654.081    6594.3594    75.420533 
   68500    1769.2279    -163.7474    1.6008346   -162.14657    6143.3541    4.2295465    4.2295465    4.2295465    6143.3541   -6102.0434    15515.821    9016.2841   -3298.1473    32348.895    13636.061    75.662624 
   68600    1834.5886   -163.80656    1.6599743   -162.14658   -9981.4419    4.2385464    4.2385464    4.2385464   -9981.4419   -10731.723   -5902.2998   -13310.303   -12640.478    29976.718    14264.927    76.146652 
   68700    1902.6195   -163.86281    1.7215301   -162.14128   -6304.6389     4.234652     4.234652     4.234652   -6304.6389   -27092.671    6186.6167    1992.1378   -4928.1363     27180.44    8235.4771    75.936957 
   68800    1945.3037   -163.89876    1.7601517   -162.13861   -10.490967    4.2293587    4.2293587    4.2293587   -10.490967   -33716.816    14124.906    19560.437   -9048.8946    20711.444    13039.878    75.652551 
   68900    1895.6763   -163.85581    1.7152477   -162.14056    6642.4836    4.2288333    4.2288333    4.2288333    6642.4836    -13434.27    28834.767    4526.9537   -4794.8832    19283.655    12660.385    75.624358 
   69000    2013.5988   -163.96245    1.8219465    -162.1405   -3695.6761    4.2394389    4.2394389    4.2394389   -3695.6761   -17870.729   -2906.9316    9690.6329   -1512.2626     7590.602    13439.419    76.194768 
   69100    2116.6685   -164.04973    1.9152061   -162.13452   -14446.415    4.2399434    4.2399434    4.2399434   -14446.415   -25678.327   -5693.0818   -11967.837   -2446.3034    897.35832    13424.954     76.22197 
   69200    2143.6195   -164.07093     1.939592   -162.13134    5146.8184    4.2237798    4.2237798    4.2237798    5146.8184   -4251.8144    29480.923   -9788.6534      2558.05   -8392.1153    14680.021    75.353565 
   69300    2114.2621   -164.05245    1.9130288   -162.13942    9042.7699    4.2260102    4.2260102    4.2260102    9042.7699    8654.9068    26271.421   -7798.0179    8882.7136   -13342.021    13653.618    75.473003 
   69400    2106.8444   -164.04808    1.9063171   -162.14176    -10965.96    4.2376007    4.2376007    4.2376007    -10965.96   -32908.353    14182.682   -14172.209    11764.051   -4241.6274    12492.605    76.095698 
   69500    2150.1394   -164.08537    1.9454913   -162.13988   -8360.5474    4.2374961    4.2374961    4.2374961   -8360.5474   -21541.342    14122.671   -17662.971    20417.429   -9339.6077    5911.5514    76.090059 
   69600    2167.1067   -164.09831    1.9608436   -162.13747    17618.272    4.2223109    4.2223109    4.2223109    17618.272    25156.082    28770.222   -1071.4866     15235.06   -5608.2971    6756.5611    75.274976 
   69700    2112.4412   -164.05382    1.9113812   -162.14244    11873.825    4.2254873    4.2254873    4.2254873    11873.825    38343.185    17193.661   -19915.372     24158.03   -8883.4347     4476.877    75.444992 
   69800    2166.1114   -164.10136    1.9599432   -162.14142   -19258.818    4.2414466    4.2414466    4.2414466   -19258.818    1881.2501   -13824.647   -45833.058    15271.408   -6658.1658    3246.1778    76.303068 
   69900    2190.8964   -164.12421    1.9823691   -162.14184    10014.182    4.2269994    4.2269994    4.2269994    10014.182    22206.164    13518.808    -5682.427    14061.754    482.73632      4309.25    75.526015 
   70000    2177.0187   -164.11153    1.9698123   -162.14172    15002.659    4.2221539    4.2221539    4.2221539    15002.659    25937.817    21527.287   -2457.1269    5996.6634   -4186.3851    1219.1252    75.266578 
   70100    2159.3242   -164.09771    1.9538019   -162.14391    -11376.15    4.2344654    4.2344654    4.2344654    -11376.15   -11860.719     358.7667   -22626.498    -2468.424    8882.8157     1502.633    75.926919 
   70200    2059.2778   -164.00657    1.8632778   -162.14329    4751.4331    4.2300482    4.2300482    4.2300482    4751.4331    16933.933    3319.8866   -5999.5201   -4234.7605    7201.3229   -2181.6646    75.689554 
   70300    2036.9964   -163.98604    1.8431171   -162.14292   -1156.8526    4.2302741    4.2302741    4.2302741   -1156.8526    18543.961    9464.2804   -31478.799   -15460.748    17082.984   -1327.8828    75.701682 
   70400    2102.0824    -164.0445    1.9020083    -162.1425   -288.99268    4.2307964    4.2307964    4.2307964   -288.99268    8184.0892    20638.328   -29689.395   -8818.0511     12473.73     -5802.64    75.729726 
   70500    2104.2473    -164.0468    1.9039672   -162.14284    12942.034     4.225207     4.225207     4.225207    12942.034    4299.0148    29216.858    5310.2297    -15980.15    4778.7975   -8897.5493    75.429977 
   70600    2062.5741   -164.01141    1.8662604   -162.14515   -765.27001    4.2330405    4.2330405    4.2330405   -765.27001   -10765.702    19619.803   -11149.911   -4509.1641   -425.20922   -6250.0921    75.850294 
   70700    2034.7348   -163.98306    1.8410709   -162.14199   -3493.0729    4.2334465    4.2334465    4.2334465   -3493.0729   -26708.165    27451.667   -11222.721   -6583.8256   -10455.549   -7410.9653     75.87212 
   70800    2002.9813   -163.95127    1.8123396   -162.13893    2636.5519     4.230805     4.230805     4.230805    2636.5519    -14795.89    27971.877   -5266.3316   -1222.9892   -12117.577   -5317.1496    75.730185 
   70900    1987.1141   -163.93826    1.7979826   -162.14028   -5291.9153    4.2308068    4.2308068    4.2308068   -5291.9153   -28160.119    31678.078   -19393.705    2793.7313   -30160.109   -8377.1374    75.730285 
   71000    1863.0447   -163.82687     1.685722   -162.14115    3645.5408    4.2281134    4.2281134    4.2281134    3645.5408   -25506.029    45129.887   -8687.2358    1950.9532   -37515.511   -3089.8187    75.585743 
   71100    1678.0514   -163.66229    1.5183362   -162.14396    2128.3955    4.2332941    4.2332941    4.2332941    2128.3955   -24688.039    30261.447    811.77833    5264.9877   -37646.132   -3886.5975    75.863927 
   71200    1665.9947   -163.65093     1.507427   -162.14351   -11199.856    4.2335101    4.2335101    4.2335101   -11199.856   -58881.182    30016.016   -4734.4009    4731.9091   -42328.252   -474.84676     75.87554 
   71300    1660.1418   -163.64387    1.5021312   -162.14174   -5328.5453    4.2282083    4.2282083    4.2282083   -5328.5453   -47180.253    34223.716   -3029.0992    2996.6439   -43631.035    1708.5325    75.590833 
   71400    1620.1333   -163.60978    1.4659306   -162.14385    10080.574    4.2322143    4.2322143    4.2322143    10080.574   -12743.947    25428.671    17556.998    7884.7012   -43477.235    1720.7032     75.80589 
   71500    1580.8332   -163.57462    1.4303711   -162.14425    -10796.79    4.2357606    4.2357606    4.2357606    -10796.79   -27591.736    18600.339   -23398.972    6182.6942   -55298.714    5647.7813    75.996609 
   71600    1478.1476   -163.48278     1.337459   -162.14532   -363.01951    4.2274923    4.2274923    4.2274923   -363.01951   -31356.931    44062.591   -13794.718    13118.977   -56037.139    1264.4621    75.552439 
   71700    1304.3225   -163.32632    1.1801784   -162.14614    19394.095    4.2276822    4.2276822    4.2276822    19394.095   -12147.406    53366.554    16963.137    4567.5749   -59400.494    491.91183    75.562617 
   71800    1128.3245   -163.16666    1.0209318   -162.14573   -16267.548    4.2403083    4.2403083    4.2403083   -16267.548   -39373.343    21950.383   -31379.684    580.36472   -65784.821   -2896.7819    76.241653 
   71900     1058.297   -163.09967   0.95756937   -162.14211    -7478.452    4.2329323    4.2329323    4.2329323    -7478.452   -13466.171    39516.525    -48485.71    2229.2015   -78047.282   -3579.8525    75.844476 
   72000    925.57725    -162.9787   0.83748175   -162.14121    8748.5086    4.2259605    4.2259605    4.2259605    8748.5086    17250.257    53747.287   -44752.018    -5155.934   -82908.411   -9627.4532    75.470338 
   72100    658.57003   -162.74562   0.59588801   -162.14973   -16679.771    4.2322669    4.2322669    4.2322669   -16679.771   -4439.8251    25784.156   -71383.644   -6492.7606   -85922.249   -10512.794    75.808718 
   72200    513.23225   -162.62155   0.46438333   -162.15717   -3206.6535    4.2284973    4.2284973    4.2284973   -3206.6535    4804.3525    34723.338   -49147.652     -9438.13   -93290.777   -11341.007    75.606335 
   72300    469.50038   -162.58925   0.42481381   -162.16443   -559.51539    4.2262474    4.2262474    4.2262474   -559.51539   -26104.014    45791.431   -21365.963   -7182.9425   -94636.909   -6548.0931    75.485711 
   72400    611.80002   -162.71874   0.55356951   -162.16517   -1741.1414    4.2306281    4.2306281    4.2306281   -1741.1414    5667.6303    28102.077   -38993.131   -6726.3414   -102179.35   -2928.1445    75.720688 
   72500    647.18538   -162.74732   0.58558693   -162.16173   -13746.452    4.2341884    4.2341884    4.2341884   -13746.452   -35144.515    27252.841   -33347.681   -5064.2169   -100435.29   -6133.6831    75.912016 
   72600    647.22464   -162.74338   0.58562245   -162.15776    1460.0814    4.2280453    4.2280453    4.2280453    1460.0814   -10382.762    55730.889   -40967.882    1387.0152    -93818.79    3526.7803    75.582088 
   72700    711.45185   -162.79851   0.64373658   -162.15477    970.02042    4.2304065    4.2304065    4.2304065    970.02042   -43020.253    70511.368   -24581.054    846.13833   -93744.475    3184.0319    75.708792 
   72800    744.09503   -162.82032   0.67327282   -162.14705   -8728.2186    4.2422476    4.2422476    4.2422476   -8728.2186   -84815.872    76580.158   -17948.942    2978.9644   -95426.401    9016.8342     76.34631 
   72900    851.21449   -162.90689   0.77019676   -162.13669     10141.95    4.2350702    4.2350702    4.2350702     10141.95   -35360.661    85667.813   -19881.304    4272.5248   -87510.256    6674.5488    75.959457 
   73000    820.75437   -162.87596    0.7426358   -162.13332    5539.4214     4.229688     4.229688     4.229688    5539.4214   -37542.909     62566.38   -8405.2062    15616.032    -90465.43    1770.7083    75.670223 
   73100    733.49315   -162.80458   0.66368002    -162.1409   -12900.631     4.235307     4.235307     4.235307   -12900.631   -29761.293    40520.521   -49461.121    7419.7233   -95099.664    4078.3385    75.972199 
   73200    755.35772   -162.83418   0.68346354   -162.15072   -6578.3489    4.2277683    4.2277683    4.2277683   -6578.3489   -27380.174    31920.751   -24275.624    3583.3152    -92308.27   -81.622106    75.567237 
   73300    763.36026    -162.8506   0.69070441    -162.1599    7717.9636    4.2273281    4.2273281    4.2273281    7717.9636   -8966.3662    26870.988    5249.2692    250.42064   -84012.575   -7300.6457    75.543632 
   73400    786.85309   -162.87408   0.71196121   -162.16212   -20425.957    4.2355464    4.2355464    4.2355464   -20425.957   -48328.018    24185.763   -37135.614   -9095.2742   -91865.351   -8581.3652    75.985079 
   73500    738.91972   -162.83029   0.66859009    -162.1617    3387.1343    4.2244267    4.2244267    4.2244267    3387.1343   -19755.916    34268.216   -4350.8965   -13983.133   -82393.573   -14080.386    75.388192 
   73600    629.56185   -162.73139   0.56964079   -162.16175    -1150.289    4.2296325    4.2296325    4.2296325    -1150.289    2266.6494    27480.606   -33198.122   -15166.353    -78638.22   -15948.467    75.667241 
   73700    719.08006   -162.80801   0.65063875   -162.15737   -18108.442    4.2339717    4.2339717    4.2339717   -18108.442   -35079.138    31873.743   -51119.932   -5261.4875   -83952.391   -6585.7909    75.900363 
   73800    872.51924   -162.94356   0.78947375   -162.15409     10127.28    4.2278362    4.2278362    4.2278362     10127.28     9765.121    37901.371   -17284.652   -6942.5206   -72076.102   -8627.4181    75.570878 
   73900    1113.2681   -163.16184    1.0073084   -162.15453   -10265.119    4.2355805    4.2355805    4.2355805   -10265.119   -31431.194    19061.043   -18425.205    5648.5183   -71362.349    170.60127    75.986916 
   74000    1177.9425   -163.21692    1.0658271   -162.15109    316.30879    4.2304911    4.2304911    4.2304911    316.30879   -18962.803    38222.487   -18310.757     9051.273   -58895.414    953.99066    75.713332 
   74100    1152.3614   -163.19164    1.0426808   -162.14896    3933.1536    4.2300189    4.2300189    4.2300189    3933.1536   -20870.983     39777.67   -7107.2259    13075.422   -56169.633    6959.5661     75.68798 
   74200    1182.0957   -163.21856     1.069585   -162.14897   -12369.066    4.2323909    4.2323909    4.2323909   -12369.066   -31207.097    29668.841   -35568.942    12252.279   -51755.351    8219.7368    75.815382 
   74300    1252.9484   -163.28434    1.1336941   -162.15064    7609.1665    4.2269765    4.2269765    4.2269765    7609.1665      663.874    25894.697   -3731.0715   -729.90997   -45111.593    6112.5013    75.524783 
   74400    1491.9765   -163.50477    1.3499717    -162.1548   -9719.5423    4.2317879    4.2317879    4.2317879   -9719.5423   -44189.415    10736.839    4293.9491   -252.69562   -44688.623     2012.854    75.782978 
   74500    1646.3407   -163.64279    1.4896436   -162.15315   -5176.7391    4.2323208    4.2323208    4.2323208   -5176.7391   -19459.722    8670.2495   -4740.7447   -12585.627   -36534.997   -5412.9271    75.811613 
   74600    1539.0457    -163.5425    1.3925609   -162.14994   -4517.9282    4.2374539    4.2374539    4.2374539   -4517.9282   -30265.083    6311.0633    10400.235   -9070.2413   -29728.694   -3104.9586    76.087789 
   74700    1414.6786   -163.42516    1.2800309   -162.14512   -9629.2758    4.2334928    4.2334928    4.2334928   -9629.2758   -12553.661    18939.299   -35273.465   -15320.614   -33419.323   -10713.832    75.874612 
   74800    1291.5583   -163.31524    1.1686291   -162.14661    13265.965    4.2260794    4.2260794    4.2260794    13265.965    18292.553    42890.413   -21385.073    -14028.86   -27372.391    -1968.639    75.476707 
   74900    1449.4391   -163.46213    1.3114829   -162.15065   -10035.651    4.2367723    4.2367723    4.2367723   -10035.651   -8199.7319    7757.5831   -29664.805   -13923.684   -23263.652   -6517.8613    76.051077 
   75000    1657.7169   -163.64886    1.4999371   -162.14892   -726.57897    4.2323157    4.2323157    4.2323157   -726.57897   -11391.081     6887.955     2323.389    -9452.504   -22676.457   -5149.0796    75.811339 
   75100    1602.6623   -163.59893    1.4501225    -162.1488    9854.3248    4.2298563    4.2298563    4.2298563    9854.3248   -12338.046     17950.22      23950.8    -3476.301   -13355.874    1871.0236    75.679255 
   75200    1599.2748   -163.59302    1.4470574   -162.14597   -14272.474    4.2308118    4.2308118    4.2308118   -14272.474   -22713.428    1407.8272   -21511.821   -4600.1165   -16089.256    3876.8051    75.730551 
   75300    1646.6701   -163.63626    1.4899417   -162.14632    6181.2528    4.2294469    4.2294469    4.2294469    6181.2528   -5279.6512    26705.817   -2882.4071    4297.7978   -2411.5085     12682.49    75.657283 
   75400    1854.4866   -163.82162    1.6779785   -162.14364   -9712.8308    4.2356168    4.2356168    4.2356168   -9712.8308   -22322.285     6184.418   -13000.625    6052.9668    9187.3278    2976.1704    75.988869 
   75500    2130.8858   -164.06816    1.9280702   -162.14009    946.18084    4.2334804    4.2334804    4.2334804    946.18084   -20213.716    8311.6418    14740.617    8415.3029    15894.811    8195.2151    75.873943 
   75600    2105.9428   -164.04628    1.9055013   -162.14077    5900.3846    4.2291006    4.2291006    4.2291006    5900.3846    3484.1544   -2108.9473    16325.947   -3224.5502    24145.108    5689.1269      75.6387 
   75700    2064.6009   -164.00991    1.8680943   -162.14181     6899.366    4.2263076    4.2263076    4.2263076     6899.366    9841.2712    2105.7604    8751.0665   -6767.7895    19143.487    2042.7578    75.488939 
   75800    1946.8537   -163.90739    1.7615541   -162.14584    1701.1876    4.2340752    4.2340752    4.2340752    1701.1876    23176.083   -4036.4648   -14036.055   -10233.523     19756.76   -5109.1567     75.90593 
   75900    1990.7152   -163.94435    1.8012409   -162.14311   -9807.5313    4.2349625    4.2349625    4.2349625   -9807.5313    5698.0346   -21043.938    -14076.69   -19660.882    21353.745   -7858.6415     75.95366 
   76000    2258.0609   -164.18138     2.043141   -162.13824    1461.2402    4.2298852    4.2298852    4.2298852    1461.2402     9434.988   -21325.868    16274.601   -25740.466    24137.124   -3313.5073    75.680805 
   76100    2287.5048   -164.20356    2.0697824   -162.13378   -2501.6227    4.2364806    4.2364806    4.2364806   -2501.6227    8294.0354    -28382.87    12583.967   -18174.058    28703.827   -618.75749    76.035373 
   76200    2101.9434   -164.02729    1.9018826    -162.1254   -8990.4966    4.2362053    4.2362053    4.2362053   -8990.4966   -5854.4713   -21627.874    510.85508   -14328.684    30376.462    3387.4908    76.020547 
   76300     1899.041   -163.84323    1.7182922   -162.12494   -1330.4823     4.234849     4.234849     4.234849   -1330.4823    17030.431   -14378.385   -6643.4936   -8557.5084    26740.099    7848.3269    75.947556 
   76400    1908.5291   -163.85561    1.7268772   -162.12873    6412.4849    4.2287672    4.2287672    4.2287672    6412.4849    22012.684    3063.4546   -5838.6838   -4169.0124    29229.261    15586.636    75.620812 
   76500    2208.3155   -164.13585    1.9981303   -162.13771     5694.179    4.2268147    4.2268147    4.2268147     5694.179    18334.524   -13194.735    11942.749    1424.3957    27121.703    21481.979    75.516111 
   76600    2384.2891   -164.30245    2.1573549    -162.1451    455.38052     4.232864     4.232864     4.232864    455.38052    17654.258     -24463.6    8175.4833    8520.0992    27643.955    18203.136    75.840805 
   76700    2384.1767   -164.30291    2.1572532   -162.14566   -1418.0599    4.2307908    4.2307908    4.2307908   -1418.0599    17911.744   -22000.513     -165.411    6202.3064    29206.938    19849.894    75.729426 
   76800    2219.0888     -164.153    2.0078782   -162.14513    952.42957    4.2283319    4.2283319    4.2283319    952.42957    18085.443     -15022.8   -205.35469    3380.0638    25528.169    11070.123    75.597462 
   76900    2008.6288   -163.96271    1.8174496   -162.14526    1504.2367    4.2290423    4.2290423    4.2290423    1504.2367    17734.135   -5634.6202   -7586.8048   -3768.2149    28251.254    2851.6784     75.63557 
   77000    2009.6222   -163.96416    1.8183484   -162.14582    544.43966    4.2317118    4.2317118    4.2317118    544.43966    11229.703   -4396.8061   -5199.5783   -8737.1504    26042.929    4593.1584     75.77889 
   77100    2081.0688   -164.02649    1.8829948    -162.1435   -1535.7324    4.2342461    4.2342461    4.2342461   -1535.7324   -18613.403   -14388.679    28394.885   -20525.986    20780.657   -6037.2592    75.915119 
   77200    2035.5599   -163.98211    1.8418174   -162.14029    3298.0703    4.2307328    4.2307328    4.2307328    3298.0703   -19214.911    -4961.476    34070.598   -23392.866    19364.777   -1159.5134    75.726309 
   77300    1858.9806   -163.82193    1.6820448   -162.13989    3774.2501    4.2290815    4.2290815    4.2290815    3774.2501   -7951.7399    -4902.476    24176.966    -25389.47    10365.649   -4204.4056    75.637673 
   77400     1607.669   -163.59498    1.4546527   -162.14032   -9374.7564    4.2338857    4.2338857    4.2338857   -9374.7564   -28294.661   -4569.5955    4739.9874   -24774.312    10849.458    1172.0927    75.895737 
   77500    1517.9807   -163.51478    1.3735009   -162.14128     3116.457    4.2313962    4.2313962    4.2313962     3116.457    2958.4609    7058.5637   -667.65365   -23127.065    8987.5444    5978.7587    75.761936 
   77600    1635.8867   -163.62546    1.4801847   -162.14527   -4743.7644    4.2295329    4.2295329    4.2295329   -4743.7644   -6648.2527    2964.4314   -10547.472   -16648.765    13159.467    11619.158    75.661899 
   77700    1753.4075   -163.73562    1.5865199    -162.1491    7313.8748    4.2297664    4.2297664    4.2297664    7313.8748     6714.705    6101.5953     9125.324   -7876.7658    14212.067    9154.0643    75.674428 
   77800    1816.2651   -163.79493    1.6433948   -162.15154    -73.33603    4.2304279    4.2304279    4.2304279    -73.33603    928.66922    1041.5386   -2190.2159   -5751.0352    18695.827    10787.107    75.709939 
   77900     1615.821   -163.61331    1.4620288   -162.15129   -7712.8897    4.2311721    4.2311721    4.2311721   -7712.8897    19486.447   -7056.4273   -35568.689    5462.7605    14211.156    8882.5183    75.749899 
   78000    1495.1597    -163.5008     1.352852   -162.14795     6211.994     4.228208     4.228208     4.228208     6211.994    25621.751    16.430771   -7002.2001    10933.247    11760.599   -1910.4867    75.590815 
   78100    1573.9606    -163.5735    1.4241527   -162.14935   -5971.2074    4.2322985    4.2322985    4.2322985   -5971.2074    22532.098   -11166.206   -29279.514    18854.326    15055.298    -8726.478    75.810415 
   78200    1663.9239   -163.65576    1.5055533   -162.15021   -475.30615    4.2290316    4.2290316    4.2290316   -475.30615    32150.199   -25197.764   -8378.3537     18695.83    12572.463    -23296.77    75.634994 
   78300    1716.9903   -163.70519    1.5535689   -162.15162    1710.0303    4.2281802    4.2281802    4.2281802    1710.0303    7005.4074   -33684.065    31808.749    22386.101    17069.198   -20046.923    75.589326 
   78400    1700.2038   -163.69205    1.5383802   -162.15367   -5677.1005    4.2308781    4.2308781    4.2308781   -5677.1005    18568.235   -22869.322   -12730.214    12802.882    19192.605   -27424.075    75.734111 
   78500    1661.9423   -163.65554    1.5037603   -162.15178    7349.5248    4.2267376    4.2267376    4.2267376    7349.5248    36821.039    -12557.14   -2215.3248    9353.3816    25293.357   -21627.821    75.511981 
   78600     1745.662   -163.73058    1.5795116   -162.15107   -12500.228    4.2350345    4.2350345    4.2350345   -12500.228    13298.082   -27993.969   -22804.797    -619.2951    25962.653   -22430.293    75.957534 
   78700    1909.7468   -163.87585     1.727979   -162.14787    6885.3348    4.2314445    4.2314445    4.2314445    6885.3348     32160.08   -2732.5863   -8771.4888   -3075.9537    26292.941   -19778.449     75.76453 
   78800    1926.5735   -163.88889    1.7432042   -162.14568    6551.6152    4.2266256    4.2266256    4.2266256    6551.6152    15203.747   -20275.681     24726.78   -10828.486    32634.439   -8435.1795    75.505979 
   78900    1839.9946   -163.80911    1.6648658   -162.14424   -13745.705    4.2355524    4.2355524    4.2355524   -13745.705   -5701.3733   -36630.269    1094.5268   -23677.366    24110.262     -7360.28    75.985406 
   79000    1720.9893   -163.69804    1.5571873   -162.14085    4002.7384    4.2307993    4.2307993    4.2307993    4002.7384    18224.924   -13333.952    7117.2428    -20047.73    25613.922    9489.8739    75.729879 
   79100     1634.787   -163.62155    1.4791897   -162.14236   -11602.245    4.2334552    4.2334552    4.2334552   -11602.245    11421.627   -32614.677   -13613.684   -27543.294    27634.958    5783.8032    75.872592 
   79200    1609.5518   -163.59929    1.4563563   -162.14293   -8888.3014    4.2329554    4.2329554    4.2329554   -8888.3014    7257.7366   -28689.658   -5232.9832   -17634.978    24982.185    14854.211     75.84572 
   79300    1635.4345   -163.62405    1.4797755   -162.14428    15876.871    4.2260787    4.2260787    4.2260787    15876.871    15071.078   -3872.2133    36431.749    -22547.34    33529.947    10515.881    75.476674 
   79400     1524.593   -163.52834    1.3794838   -162.14886   -11458.837    4.2363098    4.2363098    4.2363098   -11458.837   -7766.3024     -37756.7     11146.49   -11660.205    26798.785    8400.1386    76.026172 
   79500    1344.1739   -163.36252    1.2162368   -162.14628   -93.364591    4.2338616    4.2338616    4.2338616   -93.364591   -16073.535   -18832.362    34625.803   -5282.9373    31573.434    15881.067    75.894444 
   79600    1043.0892   -163.09093   0.94380903   -162.14712   -7847.8132    4.2298582    4.2298582    4.2298582   -7847.8132   -39217.963    18943.146   -3268.6226    5178.8987    23804.113    6194.3975    75.679353 
   79700    882.47785   -162.95225   0.79848451   -162.15376   -10691.795    4.2286962    4.2286962    4.2286962   -10691.795   -26411.216   -882.58376   -4781.5864    15440.514    19005.001     18316.47    75.617004 
   79800    1018.3575   -163.08125   0.92143125   -162.15982    9123.7566    4.2263161    4.2263161    4.2263161    9123.7566   -20278.816    26286.334    21363.752    22253.654    9528.7217    6603.7777    75.489391 
   79900    1310.5303   -163.34702    1.1857954   -162.16122   -21543.407    4.2382771    4.2382771    4.2382771   -21543.407   -49965.351    -9867.551   -4797.3178    22227.992    2608.6995    4025.8575    76.132143 
   80000    1511.4443   -163.52543    1.3675866   -162.15785    15168.858     4.226927     4.226927     4.226927    15168.858    -3716.492    15950.102    33272.964    24521.568   -9599.2437    4225.0792    75.522133 
   80100    1367.6109   -163.39249    1.2374431   -162.15504    1212.3371    4.2251111    4.2251111    4.2251111    1212.3371   -4841.9574    5625.2201    2853.7485    15412.127   -28900.843   -15910.678    75.424842 
   80200    1021.1213   -163.07712   0.92393202   -162.15319   -13514.081    4.2346689    4.2346689    4.2346689   -13514.081   -20068.178    8632.4232   -29106.489    12670.751   -38637.403   -9404.0603    75.937866 
   80300    770.82773   -162.84908   0.69746113   -162.15162    9671.0642    4.2292512    4.2292512    4.2292512    9671.0642     29163.36    23920.915   -24071.082    5473.8183   -49493.856   -23489.739    75.646782 
   80400    813.52506   -162.88829   0.73609457   -162.15219   -16231.729    4.2342642    4.2342642    4.2342642   -16231.729   -8562.4612    2768.9372   -42901.662    2842.0887   -57597.511   -18582.233    75.916097 
   80500     1073.314     -163.124   0.97115711   -162.15284   -3665.6496    4.2287173    4.2287173    4.2287173   -3665.6496   -8038.8478    16418.467   -19376.568   -1528.1809   -63603.555   -20411.011    75.618136 
   80600    1114.7234   -163.16347    1.0086252   -162.15484    13671.051    4.2239982    4.2239982    4.2239982    13671.051    21049.855    28601.418   -8638.1212   -5751.3364   -66947.433    -20947.46    75.365256 
   80700    920.08778   -162.98868   0.83251476   -162.15616   -15003.357    4.2359235    4.2359235    4.2359235   -15003.357   -32726.586    21673.041   -33956.528   -1145.1065   -68288.563   -12262.081    76.005376 
   80800    818.82892   -162.89349   0.74089361    -162.1526   -536.71858    4.2298398    4.2298398    4.2298398   -536.71858    16233.971    37873.734   -55717.861   -12260.382   -69202.469   -11443.977    75.678371 
   80900    857.41364   -162.92847   0.77580588   -162.15267    1488.4667    4.2247362    4.2247362    4.2247362    1488.4667    338.44982    46100.741    -41973.79   -4558.0331   -69568.107   -1804.4762    75.404764 
   81000    1066.6588   -163.12128   0.96513533   -162.15614    -8543.628    4.2306335    4.2306335    4.2306335    -8543.628   -23800.785    36978.285   -38808.384   -5560.6153   -76813.335    4596.6231    75.720977 
   81100    1255.5178    -163.2916    1.1360189   -162.15558    3595.9984    4.2299356    4.2299356    4.2299356    3595.9984    987.66659    40441.601   -30641.273   -4187.4196   -82656.676    4474.9033     75.68351 
   81200     1153.374    -163.1986     1.043597   -162.15501   -2832.0645    4.2330985    4.2330985    4.2330985   -2832.0645   -39887.657    44697.225   -13305.761     5646.582    -84975.12        10717    75.853412 
   81300    946.02659   -163.00779   0.85598474    -162.1518   -5716.9156     4.229078     4.229078     4.229078   -5716.9156   -21102.438    62302.844   -58351.153    980.52498   -93601.713    4812.8603    75.637486 
   81400    809.17333   -162.88324   0.73215703   -162.15109    4334.7029    4.2265465    4.2265465    4.2265465    4334.7029   -25278.026    71299.263   -33017.129    5990.2116   -92062.359    8382.9649    75.501737 
   81500    805.68531   -162.88435     0.729001   -162.15535   -11835.412    4.2345681    4.2345681    4.2345681   -11835.412   -48023.866    50751.122   -38233.492    1819.1142   -86237.628   -385.03323    75.932439 
   81600    988.31293    -163.0483   0.89424631   -162.15405   -1338.8665    4.2313639    4.2313639    4.2313639   -1338.8665   -36440.873     43981.11   -11556.837    3163.8953   -86884.761   -3276.5698    75.760203 
   81700    938.91983   -163.00406   0.84955439   -162.15451   -3329.7952    4.2295135    4.2295135    4.2295135   -3329.7952   -51466.279    49331.358   -7854.4643   -252.61135   -83772.007   -11585.671    75.660854 
   81800    741.20871   -162.82655   0.67066122   -162.15589    -7714.731    4.2303194    4.2303194    4.2303194    -7714.731   -38957.327    51167.936   -35354.802   -3263.7605   -86923.478   -16227.944    75.704112 
   81900    480.31335   -162.59121   0.43459761   -162.15662   -520.71241    4.2307364    4.2307364    4.2307364   -520.71241   -9971.0308    51701.073    -43292.18   -9682.5558   -87855.093   -13195.965    75.726505 
   82000    448.44096   -162.56521   0.40575881   -162.15945   -15110.571    4.2332978    4.2332978    4.2332978   -15110.571   -20938.324    51306.255   -75699.645    -12381.54   -87395.955   -16298.257    75.864124 
   82100    582.88692   -162.68592   0.52740833   -162.15851    1647.3201    4.2312184    4.2312184    4.2312184    1647.3201   -14068.393    59824.437   -40814.084   -17574.862   -88048.148   -10381.203    75.752389 
   82200    624.25216   -162.72445   0.56483647   -162.15962   -85.769355     4.232264     4.232264     4.232264   -85.769355   -5953.2441    26421.467   -20725.531   -16707.979   -85080.992    -5965.313    75.808563 
   82300     627.6393   -162.72416   0.56790123   -162.15625   -4650.9206    4.2325667    4.2325667    4.2325667   -4650.9206   -29857.528    47940.574   -32035.807   -15845.544   -84740.132   -12334.543    75.824826 
   82400    634.45811   -162.72571   0.57407103   -162.15164    5888.3262    4.2317498    4.2317498    4.2317498    5888.3262    -16774.66    51005.127   -16565.488   -19810.057   -83263.152   -5031.6419    75.780934 
   82500    720.15778   -162.80157   0.65161389   -162.14995   -11161.697    4.2355572    4.2355572    4.2355572   -11161.697   -42572.712    46056.324   -36968.704   -13123.231     -81041.3   -4735.0213    75.985663 
   82600    896.03518   -162.96034   0.81075146   -162.14959    2489.5184    4.2279124    4.2279124    4.2279124    2489.5184   -52472.975    60417.503   -475.97247   -13944.573   -81200.327   -4633.3692    75.574962 
   82700    930.46534   -162.99811    0.8419046    -162.1562    5094.4206    4.2265883    4.2265883    4.2265883    5094.4206   -55144.845     52242.48    18185.626   -2870.9787   -76577.997    735.43644    75.503979 
   82800     762.8472   -162.85037   0.69024017   -162.16013   -16569.059    4.2329919    4.2329919    4.2329919   -16569.059   -89887.532    36884.359    3295.9949    -1472.892    -71678.08   -3336.3727    75.847683 
   82900    541.61093   -162.65129   0.49006095   -162.16123   -1004.0293    4.2271918    4.2271918    4.2271918   -1004.0293   -64169.758    46043.856    15113.815    6264.9137   -65041.542    2756.9366    75.536324 
   83000    411.59118   -162.53645   0.37241634   -162.16404    -13439.23    4.2280524    4.2280524    4.2280524    -13439.23   -64598.247    49297.277    -25016.72    7136.1946   -67608.451    4884.7087    75.582473 
   83100    523.78064   -162.63797   0.47392773   -162.16405   -11077.682    4.2282649    4.2282649    4.2282649   -11077.682   -67322.672    47024.137   -12934.511    7253.5829   -77120.725   -618.71191    75.593869 
   83200    747.42324   -162.84159   0.67628425   -162.16531    5044.9488    4.2281378    4.2281378    4.2281378    5044.9488   -28261.728    30581.479    12815.096    10437.301   -73692.792    7426.0945     75.58705 
   83300    836.69205     -162.921   0.75705655   -162.16394   -12700.018    4.2339321    4.2339321    4.2339321   -12700.018   -61495.132    13714.509    9680.5689    6305.6831   -83293.578   -5031.7896    75.898232 
   83400    714.05143   -162.80967   0.64608874   -162.16359    5221.6067    4.2254821    4.2254821    4.2254821    5221.6067   -13028.166    26992.461    1700.5251    41.659497   -81892.947   -1342.2333    75.444713 
   83500    593.68917   -162.70058   0.53718244    -162.1634   -5330.2912    4.2271344    4.2271344    4.2271344   -5330.2912    -24994.31    17841.737   -8838.3013   -2121.6469   -79749.366   -5383.5921    75.533249 
   83600    614.88662   -162.71565   0.55636233   -162.15929   -13421.165    4.2340541    4.2340541    4.2340541   -13421.165   -14013.426    17278.124   -43528.192   -3021.7143    -82332.63   -3804.4276    75.904795 
   83700    890.26464   -162.96023   0.80553016    -162.1547   -307.24551    4.2291613    4.2291613    4.2291613   -307.24551   -7166.6172    30431.111   -24186.231   -7327.9349   -77780.425   -987.81967    75.641954 
   83800    1221.2743     -163.257    1.1050347   -162.15197   -1408.4603    4.2294567    4.2294567    4.2294567   -1408.4603   -19805.649    32092.682   -16512.414   -10829.215   -72943.651   -2311.4079    75.657806 
   83900    1367.7711   -163.38792     1.237588   -162.15033    3591.3972    4.2316252    4.2316252    4.2316252    3591.3972   -12287.703    49145.665    -26083.77    -5626.987   -69613.322    4147.8749    75.774237 
   84000    1254.8762   -163.28306    1.1354384   -162.14762    3641.4719    4.2340854    4.2340854    4.2340854    3641.4719   -22002.241    45440.847   -12514.189   -2688.0926   -59218.737    4296.6765    75.906476 
   84100    1089.7272   -163.13158   0.98600807   -162.14557    -8018.143    4.2321729    4.2321729    4.2321729    -8018.143   -5851.6313    30351.425   -48554.223    4239.9787   -64900.765    11795.052    75.803664 
   84200    1118.1465   -163.15885    1.0117224   -162.14713    7065.2829    4.2259213    4.2259213    4.2259213    7065.2829   -1066.1278     33425.54   -11163.563   -2240.0007   -60231.182    1330.4586    75.468241 
   84300    1282.4263   -163.31215    1.1603662   -162.15178   -6507.8398    4.2304707    4.2304707    4.2304707   -6507.8398   -21309.679    18513.376   -16727.216     8157.326   -63894.813    3202.0245    75.712236 
   84400    1489.0207   -163.50045    1.3472972   -162.15316   -8596.1556    4.2331161    4.2331161    4.2331161   -8596.1556    -34403.29    11924.782   -3309.9593     8814.392   -63614.286    -3499.351    75.854357 
   84500    1496.6163   -163.50303    1.3541699   -162.14886    5589.4361    4.2315911    4.2315911    4.2315911    5589.4361   -23241.611    35337.374     4672.545    5004.7137    -58322.89    126.42317     75.77241 
   84600    1386.9326   -163.40074    1.2549257   -162.14581   -4007.4877    4.2314993    4.2314993    4.2314993   -4007.4877    -31311.19    42093.077   -22804.351    11254.655   -57849.578   -1276.9002    75.767478 
   84700     1420.314   -163.42904      1.28513   -162.14391   -2745.1886    4.2295337    4.2295337    4.2295337   -2745.1886   -26406.544    40435.373   -22264.394    722.85072     -55601.9   -5348.0966    75.661937 
   84800    1695.4088   -163.67894    1.5340415    -162.1449   -160.56694    4.2310547    4.2310547    4.2310547   -160.56694   -16488.363    26739.766   -10733.104    3440.5782   -37592.927     997.7817    75.743594 
   84900    2103.6554   -164.04775    1.9034317   -162.14432    -1257.802     4.232305     4.232305     4.232305    -1257.802   -27784.031     16858.36    7152.2652   -2778.0974   -30080.974    -4413.504    75.810765 
   85000    2250.1556   -164.17901    2.0359881   -162.14302    5432.4449    4.2303381    4.2303381    4.2303381    5432.4449   -23539.332    37952.431     1884.236     3723.413   -6961.1608    2647.4478    75.705118 
   85100    2242.6445   -164.17088    2.0291918   -162.14169   -6638.4101    4.2341599    4.2341599    4.2341599   -6638.4101   -21519.301    24283.547   -22679.476    512.99896   -5024.0142   -5979.1273    75.910484 
   85200    2152.6319   -164.08277    1.9477465   -162.13503   -12380.864    4.2349054    4.2349054    4.2349054   -12380.864   -11624.042    16568.179   -42086.728   -1168.5287   -1731.4618     5142.638     75.95059 
   85300    2102.8297   -164.03332    1.9026845   -162.13064    2860.5715    4.2319728    4.2319728    4.2319728    2860.5715    8869.1705    39742.582   -40030.038    4992.6601    1451.5722   -623.52995    75.792916 
   85400    2217.5348   -164.13773    2.0064721   -162.13126   -991.96279    4.2318577    4.2318577    4.2318577   -991.96279     394.6821    25478.317   -28848.887   -2176.4607   -10488.504    7438.5103    75.786732 
   85500    2300.2231   -164.21396    2.0812902   -162.13267   -5782.7017    4.2343836    4.2343836    4.2343836   -5782.7017   -480.29317   -4151.0737   -12716.738    7436.7946    2315.4474   -6121.8329     75.92252 
   85600    2201.1462   -164.12587    1.9916434   -162.13423   -426.62346    4.2329356    4.2329356    4.2329356   -426.62346    14561.002   -4949.8176   -10891.055   -3317.5832   -15663.514    1174.0156    75.844658 
   85700    2029.0038   -163.97238    1.8358853   -162.13649   -3563.5617    4.2283253    4.2283253    4.2283253   -3563.5617     12056.54    3188.6753     -25935.9   -345.93106   -4427.1756   -6568.7515    75.597107 
   85800     1960.309   -163.91369    1.7737288   -162.13996   -2337.0639    4.2288415    4.2288415    4.2288415   -2337.0639    17986.872    5693.3473   -30691.411   -5359.7862    -7026.321   -6385.6384    75.624797 
   85900    2063.1102   -164.01107    1.8667454   -162.14433    292.20666    4.2298653    4.2298653    4.2298653    292.20666    14539.628    641.54583   -14304.554   -3956.8993     6149.162   -3730.9176    75.679734 
   86000    2271.6745   -164.20173    2.0554588   -162.14627    -7664.567    4.2305145    4.2305145    4.2305145    -7664.567   -6949.1133   -8816.4653   -7228.1224   -8656.5277     17534.93   -8392.9211     75.71459 
   86100    2397.2421   -164.31478     2.169075    -162.1457    4823.8568     4.229505     4.229505     4.229505    4823.8568   -5828.3958   -7517.4948    27817.461   -5333.5091    12272.115    3328.9951    75.660399 
   86200    2319.4499   -164.24424     2.098687   -162.14556    9836.1421    4.2270015    4.2270015    4.2270015    9836.1421   -5882.9453   -2435.2265    37826.598   -4198.1942    28483.455   -5192.6017    75.526125 
   86300     2139.975   -164.08002    1.9362944   -162.14372    1598.3934    4.2324015    4.2324015    4.2324015    1598.3934   -7386.7266   -1897.9306    14079.837   -3108.4301    14766.492     2170.471    75.815949 
   86400    2059.8481   -164.00204    1.8637939   -162.13824    3947.0714    4.2338788    4.2338788    4.2338788    3947.0714   -7852.0198    7222.5031    12470.731   -5766.8609    15452.725    1161.1734    75.895368 
   86500    2261.6628   -164.18117       2.0464   -162.13477   -3404.0354    4.2335849    4.2335849    4.2335849   -3404.0354   -15488.364   -11978.233    17254.491   -8616.6145    13571.243    402.92227    75.879561 
   86600    2515.5132   -164.40877    2.2760892   -162.13268     28.88881    4.2323067    4.2323067    4.2323067     28.88881   -13272.044   -22118.552    35477.262   -4726.6422    6713.5208    2076.0076    75.810856 
   86700     2479.215   -164.37452    2.2432458   -162.13128    925.59377    4.2318252    4.2318252    4.2318252    925.59377   -18453.456   -18146.265    39376.503    -5750.135    7736.9644   -5932.2923    75.784986 
   86800    2074.8946   -164.00967    1.8774082   -162.13226   -7223.6825     4.236982     4.236982     4.236982   -7223.6825   -14945.755   -23953.674    17228.381   -2434.3774    4440.7797   -471.60384    76.062369 
   86900    1719.6976   -163.68737    1.5560185   -162.13135    6057.2651     4.230521     4.230521     4.230521    6057.2651    21786.344   -8912.7256    5298.1772    -4068.555     1982.895   -4522.5693    75.714938 
   87000    1657.9211   -163.63551    1.5001218   -162.13539    1527.7442    4.2285418    4.2285418    4.2285418    1527.7442    26408.065   -20365.257   -1459.5749    5992.5696    10117.522   -4687.6708    75.608717 
   87100    1771.2567   -163.74421    1.6026703   -162.14154    1603.5485    4.2300396    4.2300396    4.2300396    1603.5485    18957.631   -23344.501    9197.5148    616.73878   -1489.3111    4778.7471    75.689095 
   87200    1865.9724   -163.83364     1.688371   -162.14527    6802.7806    4.2298979    4.2298979    4.2298979    6802.7806    26718.703   -23365.054    17054.693     12848.43    11704.976    10927.233    75.681488 
   87300    1656.3196   -163.64474    1.4986728   -162.14607   -13257.513    4.2363628    4.2363628    4.2363628   -13257.513    8982.8279   -36362.799   -12392.568    11905.896   -7523.1691    19257.331    76.029025 
   87400    1307.1457   -163.32739    1.1827329   -162.14465   -2948.6101    4.2284819    4.2284819    4.2284819   -2948.6101    30814.863   -1175.8522   -38484.841    9610.3602    1922.9234    20428.716    75.605508 
   87500    1212.2243   -163.24255     1.096846    -162.1457   -6454.7736    4.2259314    4.2259314    4.2259314   -6454.7736    40304.905   -17043.542   -42625.684    13756.018   -5697.0135    21288.469    75.468779 
   87600    1307.5033   -163.33139    1.1830564   -162.14834   -5017.5877    4.2335432    4.2335432    4.2335432   -5017.5877    30802.837   -548.16968   -45307.431    3961.7096   -4759.1579    17450.934    75.877321 
   87700    1514.7802    -163.5177     1.370605   -162.14709   -6296.6323     4.235272     4.235272     4.235272   -6296.6323    26592.205   -4484.5936   -40997.508    6988.3967     7219.553    13975.825    75.970311 
   87800    1549.6284   -163.54919    1.4021364   -162.14706   -8960.8432    4.2315079    4.2315079    4.2315079   -8960.8432    27836.198   -27014.605   -27704.123   -7237.1461   -7681.4844    15799.075    75.767939 
   87900     1397.811   -163.41083    1.2647688   -162.14606    10360.512    4.2250327    4.2250327    4.2250327    10360.512    31530.446    25889.324   -26338.233   -2735.3031     4922.052    10395.807    75.420644 
   88000    1094.7662    -163.1407   0.99056749   -162.15013   -10349.657    4.2322604    4.2322604    4.2322604   -10349.657    27714.689    9137.5234   -67901.184   -14050.823   -5857.4538    14036.413    75.808368 
   88100    1029.1869   -163.07961   0.93122997   -162.14838   -13137.135    4.2355097    4.2355097    4.2355097   -13137.135    24802.206   -3085.6213    -61127.99   -11984.039    1323.9228    15449.732    75.983108 
   88200    1222.6604   -163.25196    1.1062889   -162.14567    6227.4909    4.2303772    4.2303772    4.2303772    6227.4909    18674.661    13428.159   -13420.348   -15231.363    7676.2778    12848.726    75.707214 
   88300    1430.0211   -163.44166    1.2939132   -162.14774    -7882.598    4.2316818    4.2316818    4.2316818    -7882.598    14868.844    -18137.37   -20379.268   -13102.883     4268.522    14120.483    75.777278 
   88400    1465.6995   -163.47501    1.3261957   -162.14882    3758.3281    4.2285584    4.2285584    4.2285584    3758.3281    12965.995   -5212.7574    3521.7465   -8083.4615    12646.643    16186.655    75.609608 
   88500    1211.5595   -163.24616    1.0962445   -162.14991   -1280.8024    4.2331849    4.2331849    4.2331849   -1280.8024   -1044.1936   -2321.8296   -476.38387   -8482.5521   -590.20773    7921.9168    75.858055 
   88600    940.73846   -162.99834   0.85119993   -162.14714   -17092.363    4.2342711    4.2342711    4.2342711   -17092.363   -4919.5159   -501.36586   -45856.207    3971.1309    4945.3127    7320.1053    75.916463 
   88700    1059.1013   -163.10353   0.95829712   -162.14523    5830.3871    4.2251745    4.2251745    4.2251745    5830.3871    9392.5491    2068.6767    6029.9354    5851.7712    2286.5527    5259.9289    75.428236 
   88800    1264.9439    -163.2941    1.1445479   -162.14955   -5494.6571    4.2328034    4.2328034    4.2328034   -5494.6571   -18349.418   -9979.7544    11845.201    12820.718   -4648.9032   -4370.2884    75.837549 
   88900    1233.6561   -163.26488     1.116238   -162.14865   -8458.2701    4.2344163    4.2344163    4.2344163   -8458.2701   -17907.215   -457.40768   -7010.1881    18315.219    1825.8888   -3779.1025    75.924275 
   89000    879.53079   -162.94521   0.79581794    -162.1494    10269.186     4.230466     4.230466     4.230466    10269.186   -28664.126    6076.5275    53395.157      23635.5   -6454.9345   -12880.843    75.711985 
   89100    604.62858   -162.69892   0.54708065   -162.15184   -16439.245    4.2323167    4.2323167    4.2323167   -16439.245   -42842.123    8666.4939   -15142.107    18689.388   -13438.375   -8408.6271    75.811391 
   89200    466.74131   -162.57494   0.42231735   -162.15263    5465.2875    4.2264085    4.2264085    4.2264085    5465.2875   -25787.841    27923.625    14260.079    9454.7653    -15585.32   -1654.4034    75.494343 
   89300    530.78798   -162.64023   0.48026812   -162.15996   -20001.761      4.23531      4.23531      4.23531   -20001.761   -64163.884   -465.01865    4623.6182    9742.0178   -17746.114   -2563.9046    75.972359 
   89400    761.52609   -162.84711   0.68904481   -162.15806   -8491.2832    4.2318237    4.2318237    4.2318237   -8491.2832    -53385.59    12320.275    15591.465    6127.6488    -31647.76   -283.85734    75.784905 
   89500    705.08454   -162.79544   0.63797531   -162.15746       7314.7    4.2294867    4.2294867    4.2294867       7314.7   -53480.765    19711.298    55713.566    2574.3008   -27692.375    5332.4403    75.659418 
   89600    447.10841   -162.56021   0.40455308   -162.15565    -26785.47    4.2379193    4.2379193    4.2379193    -26785.47    -81343.86    15243.049     -14255.6   -3124.3985   -26348.357    3604.0817    76.112862 
   89700    224.60237   -162.35353   0.20322495   -162.15031    26777.792    4.2267556    4.2267556    4.2267556    26777.792   -13654.027    44091.391    49896.012   -9847.1019   -28598.423    4588.3234    75.512943 
   89800    243.87423   -162.37338   0.22066253   -162.15272   -19389.154    4.2386835    4.2386835    4.2386835   -19389.154   -53211.204   -1655.0541   -3301.2033   -21229.133   -25648.338     2491.542    76.154043 
   89900    486.46027   -162.59315   0.44015947   -162.15299   -11332.987    4.2320039    4.2320039    4.2320039   -11332.987   -48716.533   -6526.0885    21243.661   -16537.026   -27998.359    3300.1396    75.794583 
   90000    688.54408   -162.77493   0.62300915   -162.15192    21133.479    4.2239777    4.2239777    4.2239777    21133.479   -1586.5559   -7695.6065    72682.601   -20900.461   -21516.395    6930.8315    75.364159 
   90100    625.52733   -162.71971   0.56599028   -162.15372   -38747.649    4.2401863    4.2401863    4.2401863   -38747.649     -90367.2   -50599.232    24723.486   -25150.789   -18543.916    3901.2148    76.235072 
   90200    497.47386    -162.6007    0.4501248   -162.15058    12449.087    4.2284181    4.2284181    4.2284181    12449.087   -7099.9718   -13874.558     58321.79   -21747.833   -14136.798    4323.9956    75.602084 
   90300    429.20657   -162.54218   0.38835513   -162.15382   -12126.618    4.2319251    4.2319251    4.2319251   -12126.618   -34001.133   -23020.966    20642.245   -20018.846   -5232.8362    466.45416    75.790351 
   90400    386.52834    -162.5047   0.34973896   -162.15497   -12008.635    4.2311214    4.2311214    4.2311214   -12008.635   -27638.652   -26324.815    17937.562   -32963.059    -4088.699    -3085.298     75.74718 
   90500    461.49906    -162.5764   0.41757405   -162.15882     18200.65    4.2308785    4.2308785    4.2308785     18200.65    21466.947   -18488.846     51623.85   -25468.799    5072.7859   -4078.1387    75.734136 
   90600    691.19187   -162.77929   0.62540493   -162.15389   -32208.617     4.242596     4.242596     4.242596   -32208.617   -57086.647   -60588.317    21049.114   -31195.401    5034.9074   -9718.4367     76.36512 
   90700    843.83983   -162.91298   0.76352401   -162.14945    15494.231    4.2240717    4.2240717    4.2240717    15494.231    13610.795   -31323.011     64194.91   -34422.511    6759.4107   -8542.8277    75.369191 
   90800     879.6951    -162.9485   0.79596661   -162.15253   -4323.1456    4.2297486    4.2297486    4.2297486   -4323.1456   -34107.129   -20805.643    41943.334   -30183.679    4508.1496   -13028.802    75.673474 
   90900    851.64765    -162.9154   0.77058869   -162.14481   -22511.001    4.2388555    4.2388555    4.2388555   -22511.001   -23428.573   -23280.427   -20824.004   -27874.868   -2038.6665   -9355.0703    76.163313 
   91000    923.92802   -162.97501   0.83598949   -162.13902    13873.347    4.2345479    4.2345479    4.2345479    13873.347    10396.295    12404.404    18819.342   -18903.747    3790.1897   -13569.721    75.931354 
   91100    1215.3096   -163.23607    1.0996376   -162.13643   -16261.976    4.2368862    4.2368862    4.2368862   -16261.976   -41877.144    -22119.38    15210.598   -24622.233    8383.2568   -13863.608    76.057209 
   91200    1563.0553   -163.55164    1.4142853   -162.13735    13868.162    4.2219702    4.2219702    4.2219702    13868.162    5964.1008    9762.4541    25877.931   -12142.307    3201.1319   -17884.934    75.256755 
   91300    1652.3187   -163.64291    1.4950527   -162.14786    6822.1201    4.2300306    4.2300306    4.2300306    6822.1201   -21858.735    8567.1777    33757.917   -14881.812    9402.7678   -11659.258    75.688609 
   91400    1541.5017   -163.53952    1.3947831   -162.14473   -24946.045     4.239762     4.239762     4.239762   -24946.045   -51575.289   -254.02491    -23008.82    -9552.893    8401.4382   -14700.041    76.212188 
   91500     1426.179   -163.43178    1.2904367   -162.14134    14684.441    4.2243804    4.2243804    4.2243804    14684.441    3786.8105    44573.307    -4306.794    2498.6339    3647.5454   -17943.929    75.385714 
   91600    1430.9734   -163.44173    1.2947748   -162.14696   -3161.6824    4.2274504    4.2274504    4.2274504   -3161.6824   -10059.358    20527.882   -19953.571    6813.3154     5850.996   -17006.459     75.55019 
   91700    1535.1428   -163.53955    1.3890295   -162.15052   -10881.435    4.2297518    4.2297518    4.2297518   -10881.435   -21216.012    5367.7437   -16796.037    17699.784   -345.25477   -17939.814    75.673647 
   91800    1626.5141   -163.62454    1.4717042   -162.15284    7504.5463    4.2298862    4.2298862    4.2298862    7504.5463   -15444.033    22361.267    15596.405    13352.621   -5993.0591   -20621.039    75.680859 
   91900    1744.2293   -163.72665    1.5782153   -162.14843   -6890.6306    4.2328422    4.2328422    4.2328422   -6890.6306   -21427.301    14618.312   -13862.903    12135.192    -7434.462   -24105.418    75.839637 
   92000    1595.7646   -163.58646    1.4438814   -162.14258    3849.6026    4.2248968    4.2248968    4.2248968    3849.6026   -4697.9241    22641.178    -6394.446    4976.2007   -1055.2212   -21727.868    75.413365 
   92100    1622.2108   -163.61027    1.4678104   -162.14246   -8647.8279    4.2349804    4.2349804    4.2349804   -8647.8279   -22067.005    13887.459   -17763.938     1779.933   -8877.4959   -23166.011    75.954622 
   92200    2041.1225   -163.98098    1.8468505   -162.13413   -12706.328    4.2369224    4.2369224    4.2369224   -12706.328   -23841.451   -11068.183   -3209.3498    572.48119   -7578.7626   -21450.918    76.059161 
   92300    2500.6869   -164.39196     2.262674   -162.12929    12370.415    4.2257288    4.2257288    4.2257288    12370.415   -5380.5177   -3806.5876    46298.352   -492.08242    1034.0866   -26327.624    75.457924 
   92400     2632.609   -164.51403      2.38204   -162.13199   -4813.7556    4.2334303    4.2334303    4.2334303   -4813.7556    -27453.13   -16081.244    29093.107   -726.89938    2950.0572   -27596.454    75.871248 
   92500    2377.0684   -164.27974    2.1508214   -162.12892   -9714.2415    4.2350579    4.2350579    4.2350579   -9714.2415   -24653.885   -1838.6177    -2650.222   -5858.5719    17259.661   -31915.806    75.958794 
   92600    2077.0703   -164.00845    1.8793769   -162.12907   -1581.7159    4.2337752    4.2337752    4.2337752   -1581.7159   -1456.0041    9237.8799   -12527.023    -3399.772    9308.9473   -38843.596    75.889797 
   92700    2141.5754   -164.06693    1.9377424   -162.12919   -6278.0947    4.2305902    4.2305902    4.2305902   -6278.0947   -19632.811    9370.4183   -8571.8911   -4584.4005    16585.143   -38751.048    75.718655 
   92800    2288.4353   -164.20201    2.0706243   -162.13138    3224.9015    4.2288314    4.2288314    4.2288314    3224.9015   -31785.561    32282.234    9178.0314   -1185.9687    15198.246   -39208.851    75.624253 
   92900    2329.9675   -164.24242    2.1082036   -162.13422   -1608.7976    4.2358243    4.2358243    4.2358243   -1608.7976    -29933.15    23725.946    1380.8104    1634.5253     4502.322   -31489.931     76.00004 
   93000    2190.7339   -164.11535    1.9822221   -162.13313   -7886.2277    4.2329073    4.2329073    4.2329073   -7886.2277   -32007.793     6140.677    2208.4331    6460.3229    1509.6676   -27310.185    75.843136 
   93100    1957.8674   -163.90566    1.7715196   -162.13414    4778.3931    4.2282095    4.2282095    4.2282095    4778.3931   -12955.533     31433.16   -4142.4472    8090.7451   -5872.2257   -23367.313    75.590898 
   93200    1997.8487   -163.94609    1.8076954   -162.13839    2851.7187    4.2256146    4.2256146    4.2256146    2851.7187   -6653.7856    1695.6374    13513.304    9451.2352   -8827.2141    -23038.25     75.45181 
   93300    2062.3883    -164.0102    1.8660923   -162.14411   -2818.7688     4.230837     4.230837     4.230837   -2818.7688   -17591.278   -5804.3982     14939.37    12192.922   -9864.5292   -21075.785    75.731903 
   93400     2148.162   -164.08728    1.9437021   -162.14358    1031.7525    4.2345481    4.2345481    4.2345481    1031.7525   -24351.511    2721.6918    24725.077    8538.4484   -1934.4489   -15475.055    75.931368 
   93500     2030.239   -163.97828     1.837003   -162.14128    1428.3535    4.2301912    4.2301912    4.2301912    1428.3535   -12259.389   -3154.5487    19698.998    12489.963    2269.3238   -10528.183    75.697232 
   93600    1743.4984    -163.7192     1.577554   -162.14165     5995.831    4.2258731    4.2258731    4.2258731     5995.831   -10245.285    29062.568   -829.79048    7321.4291    9732.5007   -6646.1647    75.465658 
   93700    1648.6052   -163.63641    1.4916926   -162.14472   -3012.0408    4.2275363    4.2275363    4.2275363   -3012.0408   -4948.8921    9566.4659   -13653.696    1674.1304     17876.27   -5051.0972    75.554798 
   93800    1610.8494   -163.60356    1.4575304   -162.14603    6075.0933    4.2334141    4.2334141    4.2334141    6075.0933    5803.1155    18556.593    -6134.429   -373.96474    14786.482   -3237.7807    75.870377 
   93900    1849.8692   -163.81847    1.6738006   -162.14466   -4295.6089    4.2342699    4.2342699    4.2342699   -4295.6089   -14588.016    4122.4158   -2421.2265   -4846.0026    22787.849    1164.5916      75.9164 
   94000    1901.2886   -163.86553    1.7203259   -162.14521   -9177.5006    4.2288948    4.2288948    4.2288948   -9177.5006   -9817.4711   -2721.1827   -14993.848   -3949.8453    20716.766    13815.922    75.627658 
   94100    1683.4932   -163.66994      1.52326   -162.14668    27230.247    4.2200054    4.2200054    4.2200054    27230.247    28624.416    39420.421    13645.903   -873.36477     18197.99     5478.708    75.151737 
   94200    1464.8657   -163.47872    1.3254412   -162.15328   -18886.537    4.2347496    4.2347496    4.2347496   -18886.537   -6888.1147    -12561.11   -37210.385    2731.4728    13427.627    11768.611    75.942204 
   94300      1293.75   -163.31887    1.1706122   -162.14826   -15087.605    4.2371505    4.2371505    4.2371505   -15087.605   -6420.9409   -15238.771   -23603.104    6671.8317    2500.4901    16451.567    76.071448 
   94400    1548.9798   -163.54519    1.4015495   -162.14365    9465.7513    4.2238599    4.2238599    4.2238599    9465.7513    30317.134   -6003.4904    4083.6097    9135.9237    4010.2311    19462.489    75.357854 
   94500    1765.5958    -163.7456    1.5975482   -162.14805   -9588.4349    4.2300215    4.2300215    4.2300215   -9588.4349   -1896.8995   -40831.743    13963.338    14596.431    513.88429    26839.138    75.688123 
   94600    1681.4014   -163.67206    1.5213673   -162.15069     11322.28    4.2288851    4.2288851    4.2288851     11322.28    10887.283    335.83437    22743.721    13073.977   -4280.2737    21326.323    75.627134 
   94700    1418.2396   -163.43458     1.283253   -162.15133   -15998.251    4.2340957    4.2340957    4.2340957   -15998.251    14321.711   -37562.251   -24754.212    6007.0518   -5048.5337    37055.361    75.907032 
   94800    1180.9893   -163.21547    1.0685839   -162.14689   -8711.3125    4.2338093    4.2338093    4.2338093   -8711.3125     10884.19   -19691.722   -17326.405    11094.397   -6396.5089     37692.38     75.89163 
   94900    1314.3153   -163.33396    1.1892201   -162.14474    5812.3809    4.2261294    4.2261294    4.2261294    5812.3809    30936.692   -9483.1089   -4016.4406    5401.3105   -1018.0414    39769.334    75.479388 
   95000    1426.1644   -163.43911    1.2904235   -162.14869   -6671.1518    4.2342276    4.2342276    4.2342276   -6671.1518    36052.834   -46348.694   -9717.5962    332.16604   -2787.7251    50778.213    75.914128 
   95100    1281.5338   -163.30546    1.1595587   -162.14591    14910.164    4.2347708    4.2347708    4.2347708    14910.164    48211.809    2393.4245   -5874.7415   -7283.0493   -1679.4888    52108.005    75.943344 
   95200    909.16897   -162.96509   0.82263519   -162.14246   -5170.6669    4.2379575    4.2379575    4.2379575   -5170.6669    64551.579   -42954.019   -37109.561    -3151.607    4414.8657    69554.523    76.114918 
   95300    632.02048   -162.70733   0.57186541   -162.13546    390.84822    4.2365078    4.2365078    4.2365078    390.84822    62000.166   -27340.007   -33487.614   -373.39665    6458.1227    86019.801    76.036832 
   95400     656.0784   -162.72581   0.59363352   -162.13217    -3060.099    4.2334007    4.2334007    4.2334007    -3060.099     50449.47   -20569.583   -39060.183    -953.9424    5261.5707    96365.428    75.869657 
   95500    869.28255   -162.92241   0.78654512   -162.13587   -12567.992    4.2349562    4.2349562    4.2349562   -12567.992    39652.215   -44451.359   -32904.833   -1044.9575   -1476.2141    104920.69    75.953321 
   95600    888.22712   -162.94489   0.80368657   -162.14121    6160.2758    4.2278305    4.2278305    4.2278305    6160.2758    44228.683    2017.2781   -27765.134    276.39975    112.93603    108196.59    75.570573 
   95700    726.89817   -162.80923   0.65771274   -162.15151   -8066.2426    4.2315091    4.2315091    4.2315091   -8066.2426    39287.755   -22522.009   -40964.474    4288.3734   -325.56377    112170.21    75.768002 
   95800    509.11421   -162.61754   0.46065723   -162.15689    -9135.563    4.2312985    4.2312985    4.2312985    -9135.563    41262.262   -18775.402   -49893.549    980.22882   -1723.4078    108533.37    75.756693 
   95900    364.29347   -162.48701   0.32962038   -162.15739    6669.5683    4.2296092    4.2296092    4.2296092    6669.5683    49257.511   -15685.033   -13563.773    1875.4761   -3097.2716    99847.933    75.665989 
   96000    420.82913   -162.53549   0.38077504   -162.15471   -21240.829    4.2372011    4.2372011    4.2372011   -21240.829    42956.763   -60207.496   -46471.753    4036.6978    -4208.904    103623.17    76.074172 
   96100    663.94589   -162.74966   0.60075219   -162.14891     9787.307    4.2315802    4.2315802    4.2315802     9787.307    60500.319   -24373.401   -6764.9978    2516.1637    653.62481    85887.913     75.77182 
   96200    929.01819   -162.98505   0.84059518   -162.14445    5914.3217    4.2345485    4.2345485    4.2345485    5914.3217    65205.712   -35418.011   -12044.736    5168.5932    7171.9977    81109.517    75.931386 
   96300    1075.4353   -163.11314    0.9730765   -162.14007    -9409.736    4.2353198    4.2353198    4.2353198    -9409.736    64048.966   -47071.842   -45206.332   -4200.4451    3191.2275     72088.05    75.972885 
   96400    1040.5701   -163.07924   0.94152968   -162.13771    9624.9957     4.230043     4.230043     4.230043    9624.9957    63513.289   -37479.099    2840.7971    -6152.028    6485.2631    63105.386    75.689273 
   96500    1068.0426   -163.10844   0.96638734   -162.14205   -17009.123    4.2362953    4.2362953    4.2362953   -17009.123    35906.993   -63491.142    -23443.22   -3427.7993    6257.6987    63384.293    76.025392 
   96600    1214.4268   -163.24165    1.0988389   -162.14282   -11113.628    4.2327305    4.2327305    4.2327305   -11113.628     30083.01   -55541.325   -7882.5682   -4990.3331    6655.3627    50102.853    75.833632 
   96700    1569.4069   -163.56342    1.4200323   -162.14339   -4511.1541    4.2354021    4.2354021    4.2354021   -4511.1541    20955.666   -33582.692     -906.436   -33.092836   -323.00545    44934.632    75.977317 
   96800    1730.1005   -163.70619    1.5654313   -162.14076   -9457.8523    4.2375458    4.2375458    4.2375458   -9457.8523    26252.156   -10287.943    -44337.77   -32.794983   -9603.7012    22624.684     76.09274 
   96900    1628.6659   -163.60521    1.4736511   -162.13156     4118.876    4.2382948    4.2382948    4.2382948     4118.876    42843.533   -1351.6969   -29135.208    2561.0613   -4828.0237    7023.7877    76.133092 
   97000    1461.4284   -163.45178    1.3223311   -162.12945   -6100.2936    4.2361578    4.2361578    4.2361578   -6100.2936    20517.602   -12633.947   -26184.536    1819.9322   -10048.007   -2960.1596    76.017993 
   97100    1481.1031    -163.4735    1.3401332   -162.13337    2458.7869    4.2256535    4.2256535    4.2256535    2458.7869    6885.4266   -939.96068    1430.8949     5061.804   -17270.021   -11814.234    75.453891 
   97200    1699.5094   -163.68079    1.5377518   -162.14304    1693.4303     4.230158     4.230158     4.230158    1693.4303   -5522.7549   -5790.4276    16393.473    8157.4074   -18504.738   -9875.3878    75.695449 
   97300    1855.4936   -163.82471    1.6788896   -162.14582   -2187.7492    4.2328862    4.2328862    4.2328862   -2187.7492   -28034.835    12835.646    8635.9419    10936.238   -16375.764   -7080.2912    75.842001 
   97400    1900.0666   -163.86261    1.7192202   -162.14339   -5232.2191    4.2337718    4.2337718    4.2337718   -5232.2191   -43367.787    7163.8164    20507.314    13833.746   -13753.068   -10473.685    75.889614 
   97500     1760.373   -163.73328    1.5928225   -162.14046      507.644    4.2308425    4.2308425    4.2308425      507.644   -16663.145    2301.1378    15884.939    7730.0419   -372.26205   -11386.142    75.732199 
   97600    1727.7086   -163.70319    1.5632671   -162.13993    4600.4832    4.2234774    4.2234774    4.2234774    4600.4832   -1756.8819   -10522.188    26080.519    9646.3278   -942.15154   -12878.001    75.337382 
   97700    1880.4118   -163.84622    1.7014361   -162.14478   -5852.2525    4.2325383    4.2325383    4.2325383   -5852.2525   -17783.406   -10645.976    10872.624     2381.425    14571.103   -15303.086    75.823302 
   97800    2227.7734   -164.15687    2.0157362   -162.14114    252.01583    4.2367573    4.2367573    4.2367573    252.01583   -13727.035    15294.149   -811.06585    7054.8581    9150.6806   -19783.791    76.050271 
   97900    2462.9294   -164.36596    2.2285103   -162.13745    8074.8545    4.2290698    4.2290698    4.2290698    8074.8545   -9683.0521    28468.172    5439.4432   -2026.3655    11476.091   -21573.549    75.637046 
   98000    2330.3011   -164.24727    2.1085054   -162.13877    4796.8172     4.228893     4.228893     4.228893    4796.8172   -5753.2431    19960.541    183.15404   -2369.3166    5636.5557   -26332.558    75.627559 
   98100    2071.7739   -164.01423    1.8745846   -162.13964    9018.3203    4.2306364    4.2306364    4.2306364    9018.3203    245.28729    8631.5253    18178.148   -7888.9657    1994.9996   -28269.573    75.721135 
   98200    2025.5685   -163.97178     1.832777   -162.13901   -4822.8391    4.2358622    4.2358622    4.2358622   -4822.8391   -11235.166   -14995.628    11762.277   -6601.1936    2476.7222   -27494.807     76.00208 
   98300    2322.7774   -164.23361    2.1016978   -162.13191   -2736.2399    4.2356861    4.2356861    4.2356861   -2736.2399   -19567.723   -13012.924    24371.928     6147.297   -6334.2841   -28362.478    75.992598 
   98400    2567.1498   -164.44804    2.3228111   -162.12523   -5722.0235    4.2347328    4.2347328    4.2347328   -5722.0235   -30079.823    -4007.656    16921.409    6631.6585   -4438.4641    -24926.03    75.941303 
   98500    2398.0567   -164.29308    2.1698121   -162.12327   -13501.292    4.2364451    4.2364451    4.2364451   -13501.292   -30164.518   -20021.249    9681.8892    17852.909   -11514.308   -20313.647    76.033461 
   98600     1994.608   -163.92795    1.8047632   -162.12318    3957.0976    4.2290423    4.2290423    4.2290423    3957.0976    6430.2087   -21014.058    26455.142    6938.5737    6910.4955   -17804.917    75.635572 
   98700    1728.0447   -163.69511    1.5635712   -162.13154   -1816.3782    4.2336181    4.2336181    4.2336181   -1816.3782    9833.3616   -23367.487    8084.9902    11510.725   -1787.1044    -13947.13     75.88135 
   98800    1749.7905   -163.72048    1.5832472   -162.13723   -7273.2247    4.2336242    4.2336242    4.2336242   -7273.2247    2715.1458   -15488.738    -9046.082    4315.1399    12834.963   -21143.883    75.881675 
   98900    1845.4269   -163.81133     1.669781   -162.14155     14442.59    4.2251237    4.2251237    4.2251237     14442.59    21497.993    23106.072   -1276.2938    9034.3972    2941.6111   -23277.485    75.425517 
   99000    1772.7334   -163.75057    1.6040064   -162.14657   -6347.0351    4.2331905    4.2331905    4.2331905   -6347.0351   -12547.037    19877.482    -26371.55    2491.8862    19009.965   -20885.723    75.858358 
   99100    1424.4158   -163.43358    1.2888414   -162.14474   -6564.5725    4.2340662    4.2340662    4.2340662   -6564.5725   -15708.282    28487.847   -32473.282    6121.1787    14035.246   -22044.195    75.905445 
   99200    1272.9538   -163.29463    1.1517953   -162.14283   -13976.645    4.2311192    4.2311192    4.2311192   -13976.645   -14106.273     4184.447    -32008.11   -6724.8022    14575.487   -13552.282    75.747058 
   99300    1320.2769   -163.33838    1.1946143   -162.14377   -5858.7635    4.2290764    4.2290764    4.2290764   -5858.7635   -19838.806    25809.112   -23546.596   -3774.2769    10257.273   -11596.884    75.637402 
   99400    1579.9405   -163.57697    1.4295634   -162.14741    2261.3502    4.2274268    4.2274268    4.2274268    2261.3502   -34373.762    51385.217   -10227.404     3145.128   -2420.2716   -10404.623    75.548926 
   99500    1770.3916   -163.75363    1.6018875   -162.15175   -11455.622    4.2327171    4.2327171    4.2327171   -11455.622   -51840.746    36424.383   -18950.502    -8572.865   -5541.4954   -9845.9134    75.832912 
   99600    1660.2738   -163.65586    1.5022506   -162.15361    11065.025    4.2273186    4.2273186    4.2273186    11065.025   -39910.175    63741.633    9363.6164    5309.9595   -14563.259   -11816.457    75.543127 
   99700    1511.1912    -163.5216    1.3673576   -162.15424    -2434.976    4.2284843    4.2284843    4.2284843    -2434.976   -40401.448    41612.183   -8515.6628   -6213.1966   -13255.943   -17728.677    75.605636 
   99800    1330.5505   -163.35687    1.2039101   -162.15296   -6771.3379    4.2320219    4.2320219    4.2320219   -6771.3379   -42052.669    10271.028    11467.627    1909.9422   -20661.317   -17902.032    75.795554 
   99900    1479.8009   -163.49068     1.338955   -162.15173    3934.5709    4.2261815    4.2261815    4.2261815    3934.5709   -26526.911    25788.257    12542.367    5036.1158   -25461.025   -26861.189    75.482178 
  100000    1692.4362   -163.68456    1.5313519   -162.15321   -5926.8262    4.2294289    4.2294289    4.2294289   -5926.8262   -23938.441    6425.9269   -267.96431   -887.05436   -16595.963   -33107.237    75.656316 
Loop time of 40.026 on 1 procs for 100000 steps with 8 atoms

Pair  time (%) = 13.3553 (33.3665)
Kspce time (%) = 9.79624 (24.4747)
Neigh time (%) = 0 (0)
Comm  time (%) = 1.90661 (4.76342)
Outpt time (%) = 0.0480125 (0.119953)
Other time (%) = 14.9199 (37.2754)

Nlocal:    8 ave 8 max 8 min
Histogram: 1 0 0 0 0 0 0 0 0 0
Nghost:    2189 ave 2189 max 2189 min
Histogram: 1 0 0 0 0 0 0 0 0 0
Neighs:    2472 ave 2472 max 2472 min
Histogram: 1 0 0 0 0 0 0 0 0 0

Total # of neighbors = 2472
Ave neighs/atom = 309
Neighbor list builds = 0
Dangerous builds = 0
unfix 20
unfix 21
print "seeds:1142977"
seeds:1142977
