LAMMPS (10 Feb 2015)
# ---- initialize simulations
clear
units metal
dimension 3
boundary p p p
atom_style charge
atom_modify map array
# ---- create atoms
read_data /Users/eugeneragasa/pyflamestk_git/pypospack/tests/tests_integration/workflow/WorkflowLammpsThermalExpansion/param_7521/MgO_NaCl_unit.npt.T1200/lammps.structure
  triclinic box = (0 0 0) to (4.2565 4.2565 4.2565) with tilt (0 0 0)
  1 by 1 by 1 MPI processor grid
  reading atoms ...
  8 atoms
# ---- define interatomic potential
include potential.mod
mass 1 24.305
mass 2 15.999

group Mg type 1
4 atoms in group Mg
group O type 2
4 atoms in group O

set group Mg charge 1.63791250839
  4 settings made for charge
set group O charge -1.63791250839
  4 settings made for charge

variable R_cut equal 10.0

pair_style buck/coul/long ${R_cut}
pair_style buck/coul/long 10
pair_coeff 1 1 0.0 0.5 0.0 ${R_cut}
pair_coeff 1 1 0.0 0.5 0.0 10
pair_coeff 1 2 1465.92328509 0.282476486176 0.0 ${R_cut}
pair_coeff 1 2 1465.92328509 0.282476486176 0.0 10
pair_coeff 2 2 5816.20442115 0.096233749689 18.932341092 ${R_cut}
pair_coeff 2 2 5816.20442115 0.096233749689 18.932341092 10

kspace_style pppm 1.0e-5

neighbor 1.0 bin
neigh_modify every 1 delay 0 check yes
# ---- define settings
compute eng all pe/atom
compute eatoms all reduce sum c_eng
# ---- run minimization
reset_timestep 0
fix 1 all box/relax iso 0.0 vmax 0.001
thermo 10
thermo_style custom step pe lx ly lz xy xz yz press pxx pyy pzz pxy pxz pyz c_eatoms
min_style cg
minimize 1e-25 1e-25 5000 10000
PPPM initialization ...
  G vector (1/distance) = 0.35267
  grid = 8 8 8
  stencil order = 5
  estimated absolute RMS force accuracy = 3.88211e-05
  estimated relative force accuracy = 2.69597e-06
  using double precision FFTs
  3d grid and FFT values/proc = 3375 512
Neighbor list info ...
  1 neighbor list requests
  update every 1 steps, delay 0 steps, check yes
  master list distance cutoff = 11
Memory usage per processor = 4.06549 Mbytes
Step PotEng Lx Ly Lz Xy Xz Yz Press Pxx Pyy Pzz Pxy Pxz Pyz eatoms 
       0   -108.70031       4.2565       4.2565       4.2565            0            0            0    82041.316    82041.316    82041.316    82041.316 -4.6499549e-11 -1.1702618e-10 1.7098221e-10   -108.70031 
      10   -108.77917     4.299065     4.299065     4.299065            0            0            0    28384.418    28384.418    28384.418    28384.418 -2.893711e-10 1.1285336e-10 8.1895601e-11   -108.77917 
      19   -108.79132    4.3240425    4.3240425    4.3240425            0            0            0 -0.024351241 -0.024351241 -0.024351241 -0.024351241 1.5580285e-11 -3.1606067e-12 1.2588801e-10   -108.79132 
Loop time of 0.0118659 on 1 procs for 19 steps with 8 atoms

Minimization stats:
  Stopping criterion = linesearch alpha is zero
  Energy initial, next-to-last, final = 
        -108.700309346      -108.79131697      -108.79131697
  Force two-norm initial, final = 11.8468 7.13952e-05
  Force max component initial, final = 11.8468 1.5084e-05
  Final line search alpha, max atom move = 0.5 7.54202e-06
  Iterations, force evaluations = 19 24

Pair  time (%) = 0.00329304 (27.7522)
Kspce time (%) = 0.00181174 (15.2685)
Neigh time (%) = 0 (0)
Comm  time (%) = 0.000406265 (3.42382)
Outpt time (%) = 2.88486e-05 (0.243123)
Other time (%) = 0.00632596 (53.3123)

Nlocal:    8 ave 8 max 8 min
Histogram: 1 0 0 0 0 0 0 0 0 0
Nghost:    2189 ave 2189 max 2189 min
Histogram: 1 0 0 0 0 0 0 0 0 0
Neighs:    2344 ave 2344 max 2344 min
Histogram: 1 0 0 0 0 0 0 0 0 0

Total # of neighbors = 2344
Ave neighs/atom = 293
Neighbor list builds = 0
Dangerous builds = 0
unfix 1
# ---- define output variables ----
variable natoms equal "count(all)"
variable tot_energy equal "c_eatoms"
variable length_x equal "lx"
variable length_y equal "ly"
variable length_z equal "lz"
variable tilt_xy equal "xy"
variable tilt_xz equal "xz"
variable tilt_yz equal "yz"
variable tot_press equal "press"
variable press_xx equal "pxx"
variable press_yy equal "pyy"
variable press_zz equal "pzz"
variable press_xy equal "pxy"
variable press_xz equal "pxz"
variable press_yz equal "pyz"

# ---- output ----
print "pypospack:output_section:begin"
pypospack:output_section:begin
print "tot_energy = ${tot_energy}"
tot_energy = -108.791316969709
print "num_atoms = ${natoms}"
num_atoms = 8
print "xx = ${length_x}"
xx = 4.32404254484564
print "yy = ${length_y}"
yy = 4.32404254484564
print "zz = ${length_z}"
zz = 4.32404254484564
print "xy = ${tilt_xy}"
xy = 0
print "xz = ${tilt_xz}"
xz = 0
print "yz = ${tilt_yz}"
yz = 0
print "tot_press = ${tot_press}"
tot_press = -0.0243512411551094
print "pxx = ${press_xx}"
pxx = -0.0243512413415371
print "pyy = ${press_yy}"
pyy = -0.0243512409516822
print "pzz = ${press_zz}"
pzz = -0.024351241172109
print "pxy = ${press_xy}"
pxy = 1.55802849425254e-11
print "pxz = ${press_xz}"
pxz = -3.16060668162342e-12
print "pyz = ${press_yz}"
pyz = 1.25888006757422e-10
print "pypospack:output_section:done"
pypospack:output_section:done
print "pypospack:lammps_sim:done"
pypospack:lammps_sim:done
#------------------------------------------------------------------------------
# RUN THERMOSTAT
# running using an NPT Nose-Hoover style thermostat
#------------------------------------------------------------------------------
variable tempdamp equal 0.1
variable pressdamp equal 1.0
# set initial velocities
velocity all create 1200 5518055 mom yes dist gaussian loop all
# fix for Nose-Hoover style thermostat
fix 20 all npt temp 1200 1200 0.1 aniso 0.0 0.0 1.0 drag 1.0 couple xyz
variable boxx equal lx
variable boxy equal ly
variable boxz equal lz
variable boxp equal press
variable boxt equal temp
# calculate averages every 10000 steps
reset_timestep 0
fix 21 all ave/time 10 10 100 v_boxx v_boxy v_boxz v_boxp v_boxt file lattice.out
thermo_style custom step temp pe ke etotal press lx ly lz press pxx pyy pzz pxy pxz pyz vol
thermo_modify flush yes
thermo 100
run 100000
PPPM initialization ...
  G vector (1/distance) = 0.351996
  grid = 8 8 8
  stencil order = 5
  estimated absolute RMS force accuracy = 4.00454e-05
  estimated relative force accuracy = 2.781e-06
  using double precision FFTs
  3d grid and FFT values/proc = 3375 512
Memory usage per processor = 3.06549 Mbytes
Step Temp PotEng KinEng TotEng Press Lx Ly Lz Press Pxx Pyy Pzz Pxy Pxz Pyz Volume 
       0         1200   -108.79133    1.0857852   -107.70554    14342.956    4.3240425    4.3240425    4.3240425    14342.956    14229.344    12896.997    15902.527    5807.8506    -3795.254    955.07625    80.848111 
     100    235.25985   -107.80589   0.21286806   -107.59302    24599.817    4.3686691    4.3686691    4.3686691    24599.817    924.88275    37482.659    35391.909    -7104.033    5333.2182   -1271.0681    83.377231 
     200    1151.4413   -108.31509    1.0418482   -107.27325    -52147.26    4.4154626    4.4154626    4.4154626    -52147.26   -68624.165   -60408.471   -27409.144    4483.2925   -3321.4298    1197.6769     86.08523 
     300    801.63277   -107.74818   0.72533417   -107.02284    16992.705    4.3909215    4.3909215    4.3909215    16992.705    29005.933    19737.372    2234.8102   -8842.5857    4391.3054    1911.1254    84.657806 
     400    903.39471   -107.62712   0.81741052   -106.80971    35350.139    4.3766932    4.3766932    4.3766932    35350.139    6811.6441    6329.5467    92909.227    267.86558    8189.8555   -6277.1939    83.837497 
     500     1205.702   -107.79107    1.0909445   -106.70013   -9949.3802    4.4124501    4.4124501    4.4124501   -9949.3802   -21846.291   -11547.079    3545.2294   -8085.2145   -11191.632    4857.3171     85.90915 
     600    1419.8927   -107.90042    1.2847488   -106.61567   -36048.739    4.4270862    4.4270862    4.4270862   -36048.739   -36835.132   -11411.532   -59899.552    3309.6101    799.71247    3867.3299    86.766873 
     700    1680.0727   -108.10969    1.5201651   -106.58952   -12881.936    4.4017597    4.4017597    4.4017597   -12881.936   -40491.048    -20078.45    21923.691   -14464.431    4014.5745   -9687.6269    85.286245 
     800    637.72706   -107.18877   0.57702885   -106.61174    36026.129    4.3932999    4.3932999    4.3932999    36026.129    2435.5536    24641.336    81001.498    4796.7328   -1240.0828    13360.954    84.795451 
     900    1207.3556   -107.72264    1.0924408    -106.6302    -19242.63    4.4142071    4.4142071    4.4142071    -19242.63   -58531.985   -30675.875    31479.971   -4799.7774    431.09953   -3582.4711    86.011816 
    1000    1208.5793   -107.70919    1.0935479   -106.61564   -11123.118    4.4203608    4.4203608    4.4203608   -11123.118   -10612.492    13484.379   -36241.241    2535.0435    5321.6714   -1441.1272    86.372037 
    1100    1252.1416   -107.73897     1.132964   -106.60601   -5504.8344    4.4049758    4.4049758    4.4049758   -5504.8344   -57617.327   -27939.482    69042.305    619.71763    3642.7654    7414.1055     85.47332 
    1200    814.02024   -107.35663   0.73654262   -106.62009    27303.217    4.3945592    4.3945592    4.3945592    27303.217    -11390.79    1445.8942    91854.548    1973.8575     4070.139   -22085.923    84.868387 
    1300    841.38766   -107.40125   0.76130523   -106.63994    6197.7667    4.4081175    4.4081175    4.4081175    6197.7667   -27544.925   -8925.9798    55064.205    -1625.432    5796.3098    20808.064    85.656335 
    1400    1538.6145   -108.02764    1.3921708   -106.63547   -27555.896    4.4105823    4.4105823    4.4105823   -27555.896   -59286.037   -44324.852    20943.201    3859.7283   -1489.6668   -16997.099    85.800102 
    1500     1250.548   -107.76079    1.1315221   -106.62927    6369.8872    4.4008789    4.4008789    4.4008789    6369.8872   -254.69813    30227.647   -10863.287   -2397.9285   -4345.1684    2104.7327    85.235058 
    1600    1748.9206   -108.21205    1.5824601   -106.62959   -27234.237    4.4037124    4.4037124    4.4037124   -27234.237   -47548.986   -7440.8093   -26712.917    3890.6521    7493.4243    10360.472      85.3998 
    1700    1075.4639   -107.60144   0.97310232   -106.62833   -1084.4087     4.418672     4.418672     4.418672   -1084.4087    2355.8225    -25851.49    20242.441    2708.6498   -4054.9524   -2016.3297    86.273081 
    1800    865.84849   -107.38644   0.78343791     -106.603    2822.6646    4.4157143    4.4157143    4.4157143    2822.6646   -35019.094   -23507.168    66994.256   -3801.8439    719.05831    17243.141     86.09995 
    1900    784.64452   -107.31387   0.70996285   -106.60391    29643.776    4.3954562    4.3954562    4.3954562    29643.776   -10058.883    1591.7327    97398.479    309.22676    13067.852   -12125.438    84.920368 
    2000    1175.8459   -107.68688    1.0639301   -106.62295     13355.64    4.3944219    4.3944219    4.3944219     13355.64   -19913.341    -8323.479     68303.74    2368.0318    2371.3151    19770.842    84.860433 
    2100    1356.2065   -107.86627    1.2271241   -106.63915   -22767.288    4.4180868    4.4180868    4.4180868   -22767.288   -16163.914    -58096.99    5959.0409    3862.7581   -6767.0033   -8737.7673    86.238803 
    2200    1327.0013   -107.81323    1.2006987   -106.61253   -8747.3289    4.4169282    4.4169282    4.4169282   -8747.3289   -42765.214   -16142.162    32665.389    1529.7821    2344.6854    10233.843    86.170977 
    2300    887.89791   -107.39629   0.80338868    -106.5929    25196.528    4.3977607    4.3977607    4.3977607    25196.528    2341.2788   -22443.172    95691.477   -7002.3963    11604.956    2413.9104     85.05401 
    2400    954.23777   -107.47686   0.86341439   -106.61344    8950.0497    4.4008158    4.4008158    4.4008158    8950.0497   -28245.665   -19102.615    74198.429    1581.7257    -5443.867   -6330.3327     85.23139 
    2500    1171.9058   -107.68064     1.060365   -106.62027   -1630.0406    4.4087694    4.4087694    4.4087694   -1630.0406   -9467.3383   -31435.348    36012.565   -2306.3719    10428.017   -4655.9017    85.694344 
    2600    1801.0555   -108.24203    1.6296328   -106.61239   -33910.166    4.4069601    4.4069601    4.4069601   -33910.166   -25107.751   -50778.419   -25844.327     3796.297   -13802.008   -7269.3125    85.588884 
    2700    1162.1819   -107.66027    1.0515666    -106.6087     11551.25    4.4002151    4.4002151    4.4002151     11551.25        18158   -30029.734    46525.483   -5516.8943      16717.8   -4430.2725    85.196493 
    2800    989.17075   -107.50591   0.89502249   -106.61089   -6677.6245    4.4111965    4.4111965    4.4111965   -6677.6245   -32601.161   -16803.072     29371.36   -6266.4177   -1069.1011     9409.457    85.835948 
    2900    1477.7715   -107.93189    1.3371187   -106.59478   -27117.369    4.4184256    4.4184256    4.4184256   -27117.369    9034.3815   -53152.673   -37233.815    4680.1004    13249.058   -4067.1452    86.258648 
    3000    1509.9414   -107.94564    1.3662267   -106.57942   -27712.705    4.4114659    4.4114659    4.4114659   -27712.705   -34816.785   -50958.929    2637.5978   -834.11265   -10465.848   -1502.3936    85.851677 
    3100    1100.6532   -107.58462   0.99589416   -106.58873    14916.703    4.3973884    4.3973884    4.3973884    14916.703   -23288.936    -8942.265    76981.311    5741.4365    1295.4678   -9301.6307    85.032409 
    3200    922.40336   -107.45324   0.83460994   -106.61863    10748.217    4.4038883    4.4038883    4.4038883    10748.217   -3395.8414    -23552.32    59192.813   -445.72538   -11476.892    5237.8596    85.410033 
    3300    1089.0511   -107.60769    0.9853963   -106.62229   -2198.8038    4.4119982    4.4119982    4.4119982   -2198.8038    -26979.84    -26057.11    46440.538    2794.8787    2589.2261    3612.2287    85.882758 
    3400    1461.3661   -107.93747    1.3222748   -106.61519   -8885.9489     4.409647     4.409647     4.409647   -8885.9489   -13089.379    -34937.76    21369.293   -136.49592    3524.2527    5448.8396    85.745527 
    3500    1458.4931    -107.9334    1.3196752   -106.61372   -11524.196    4.4038502    4.4038502    4.4038502   -11524.196    14345.528   -20330.819   -28587.297   -5296.4035    3343.4712   -8811.9113    85.407813 
    3600    1510.2437   -107.98554    1.3665002   -106.61904    -9295.068    4.4035826    4.4035826    4.4035826    -9295.068   -8740.5854   -22176.707    3032.0886   -1135.2967   -3866.4666    3323.6708    85.392246 
    3700    734.94413   -107.28259    0.6649929    -106.6176    28728.902    4.4076114    4.4076114    4.4076114    28728.902    35047.955   -17312.901    68451.652   -5059.9044   -7197.5482   -4300.0781    85.626833 
    3800    1188.7673   -107.67999    1.0756217   -106.60437   -9355.8595     4.411654     4.411654     4.411654   -9355.8595   -40482.274   -24651.529    37066.224    1490.3965   -1265.7759    10344.867    85.862661 
    3900    1599.1276   -108.03866    1.4469243   -106.59174   -21819.101    4.4068334    4.4068334    4.4068334   -21819.101   -6563.8211   -31833.064   -27060.417    -956.8785   -6314.6864   -10878.405      85.5815 
    4000    1325.8459   -107.79695    1.1996532   -106.59729   -13234.413    4.4078379    4.4078379    4.4078379   -13234.413   -35473.046    -42820.93    38590.738    51.950596    6190.6513    15165.759    85.640039 
    4100    679.65164   -107.21647   0.61496309   -106.60151    29938.532    4.4085565    4.4085565    4.4085565    29938.532    6742.1266     14138.21     68935.26   -2418.0824    2469.9248    -3856.028    85.681928 
    4200     1670.123   -108.10902    1.5111624   -106.59785   -31308.857     4.413623     4.413623     4.413623   -31308.857   -52746.991    -53390.99     12211.41   -2019.8172   -2089.3032    3610.0562    85.977674 
    4300    1308.6231    -107.7886    1.1840697   -106.60453   -4009.5004    4.4053992    4.4053992    4.4053992   -4009.5004    30538.532   -26628.172   -15938.861      4902.38    4679.1098   -5920.1837    85.497973 
    4400    1398.6554   -107.88003    1.2655328   -106.61449   -12467.202    4.4041566    4.4041566    4.4041566   -12467.202   -13556.439   -45322.249    21477.083    543.54048    2206.1215    6276.0396    85.425645 
    4500    555.81459   -107.11362   0.50291272   -106.61071     31490.62    4.4089887    4.4089887    4.4089887     31490.62    40332.975   -27367.552    81506.438   -4111.8428    778.77365   -4441.8999     85.70713 
    4600    1708.8454   -108.14652    1.5461992   -106.60032    -32301.87    4.4153896    4.4153896    4.4153896    -32301.87   -20106.005   -44320.904     -32478.7    7663.1891    5608.9824    3938.5961     86.08096 
    4700    1640.7632    -108.0771     1.484597    -106.5925   -22698.755    4.4040619    4.4040619    4.4040619   -22698.755   -6708.1072   -54029.155   -7359.0034   -5283.7802    -9500.496   -8291.1147    85.420133 
    4800    833.34855   -107.35799   0.75403128   -106.60396    21094.576     4.394032     4.394032     4.394032    21094.576    14184.951    288.58054    48810.195   -3387.4282    18602.875    10353.162    84.837851 
    4900    1161.1763   -107.67435    1.0506567    -106.6237   -3590.5541    4.4098758    4.4098758    4.4098758   -3590.5541   -39628.297    -33200.86    62057.495    -323.0786   -12138.976   -4100.4354    85.758875 
    5000    1080.4289   -107.59234   0.97759481   -106.61475    -7123.904    4.4209534    4.4209534    4.4209534    -7123.904    10654.328    -41098.25    9072.2102    -10093.82   -10702.347   -33.609157    86.406779 
    5100    1813.6759   -108.23065    1.6410521    -106.5896   -40014.938    4.4078175    4.4078175    4.4078175   -40014.938   -57756.982   -41837.866   -20449.965   -1603.7784      2489.93   -1280.1002    85.638845 
    5200    790.10006   -107.31246   0.71489914   -106.59756    36859.126    4.3962035    4.3962035    4.3962035    36859.126    40926.788   -11263.087    80913.677    9259.9767    2287.8351     2553.138    84.963689 
    5300    1256.2574   -107.75526    1.1366881   -106.61857   -10388.598    4.4104075    4.4104075    4.4104075   -10388.598   -13978.808   -40298.399    23111.414   -2135.2574   -2435.3844    1541.6513    85.789897 
    5400    1349.9672   -107.83499    1.2214787   -106.61352   -27265.949    4.4164978    4.4164978    4.4164978   -27265.949   -29952.995   -16616.602   -35228.252   -785.94041    13009.869   -1365.4945    86.145788 
    5500    1018.4746   -107.51852   0.92153721   -106.59699    4484.1083    4.4056559    4.4056559    4.4056559    4484.1083    672.81196   -39191.251    51970.764     4194.405   -19262.107   -16364.652    85.512914 
    5600    825.66442   -107.35628   0.74707852   -106.60921    19185.729    4.4021978    4.4021978    4.4021978    19185.729   -11256.361   -9581.0415    78394.589   -4949.2403    26785.748    10303.252    85.311714 
    5700    1411.3049   -107.89167    1.2769783   -106.61469   -14859.508    4.4037607    4.4037607    4.4037607   -14859.508   -13247.959   -26175.509   -5155.0555   -3599.0597   -6963.2744    7317.3882    85.402609 
    5800    1152.4729   -107.65694    1.0427817   -106.61416   -4539.8285    4.4092795    4.4092795    4.4092795   -4539.8285    7635.5391   -25494.456    4239.4314    7231.4633    4593.0478   -8843.4301    85.724093 
    5900    1019.7454   -107.52062   0.92268707   -106.59794    10480.025    4.4100059    4.4100059    4.4100059    10480.025    41772.288   -13459.322    3127.1081     3322.804    37329.182    2106.4963    85.766468 
    6000    1400.9149   -107.85312    1.2675772   -106.58554   -2854.4015    4.4017374    4.4017374    4.4017374   -2854.4015    18800.957   -43897.339    16533.178    6963.5636   -15375.129    4220.4707    85.284947 
    6100    934.10653    -107.4404   0.84519922    -106.5952    4600.7485    4.4107537    4.4107537    4.4107537    4600.7485    23508.454    -26623.26    16917.051    7329.5228     13321.77   -3046.1497    85.810104 
    6200    1894.7079   -108.30438    1.7143715   -106.59001   -39080.023    4.4107599    4.4107599    4.4107599   -39080.023   -47563.884   -49034.194   -20641.992   -6963.9175   -8162.0562    6987.4998    85.810464 
    6300    813.04896   -107.33442   0.73566379   -106.59875    21752.549     4.403276     4.403276     4.403276    21752.549    38300.281   -7824.8872    34782.255     6303.501    12992.942    9834.0011    85.374414 
    6400    1270.4022   -107.74224    1.1494866   -106.59276   -7986.4586    4.4070163    4.4070163    4.4070163   -7986.4586    -4468.097   -60927.659     41436.38    4325.2215   -8107.1073   -1324.7591    85.592159 
    6500    1450.9206   -107.90266    1.3128234   -106.58983   -15788.078    4.4097549    4.4097549    4.4097549   -15788.078    -28869.11   -27117.148    8622.0238   -5050.3153   -8925.5031    9341.3413    85.751822 
    6600    1326.9626   -107.79181    1.2006636   -106.59115   -13783.709    4.4065244    4.4065244    4.4065244   -13783.709    10261.544   -42305.296   -9307.3749    8640.7054   -182.13448   -1379.3231    85.563499 
    6700     964.1621   -107.47287   0.87239413   -106.60047    7938.4329    4.4019791    4.4019791    4.4019791    7938.4329    25947.582   -20043.005    17910.722   -3981.3274     11058.88    7692.9964    85.298999 
    6800    1256.9264    -107.7393    1.1372935   -106.60201    12886.988    4.4011264    4.4011264    4.4011264    12886.988    22870.692   -9031.0738    24821.347    752.84472     9741.521   -4679.3993    85.249439 
    6900    1395.2696   -107.86351    1.2624692   -106.60104   -9579.2984    4.4111138    4.4111138    4.4111138   -9579.2984   -6232.2542   -13460.521   -9045.1196    13619.094    7328.1652    1790.5629    85.831122 
    7000    886.72896   -107.39227     0.802331   -106.58994    10976.296    4.4136719    4.4136719    4.4136719    10976.296    39461.659   -24407.932    17875.159    10268.276   -52.284117   -2550.1119    85.980535 
    7100    1594.8968   -108.01523    1.4430962   -106.57213   -6981.1519    4.4010317    4.4010317    4.4010317   -6981.1519    12534.511   -17469.307    -16008.66    2058.9712    -8896.268    7421.3397    85.243936 
    7200    1046.8337   -107.53407   0.94719715   -106.58687    13836.037    4.4021268    4.4021268    4.4021268    13836.037     9165.016    20638.082    11705.013     12368.39   -899.76103   -4396.4621    85.307585 
    7300    1450.7676   -107.90352     1.312685   -106.59083   -37317.755    4.4128956    4.4128956    4.4128956   -37317.755    16961.348   -70349.803    -58564.81    1092.7853   -3167.1568   -1662.8049    85.935172 
    7400     1056.292   -107.54461   0.95575516   -106.58885    14899.372    4.3997089    4.3997089    4.3997089    14899.372    54617.222   -36030.689    26111.583   -7226.5124    1857.9627     13997.23    85.167092 
    7500     1252.685   -107.73173    1.1334558   -106.59827    6879.7481    4.3984102    4.3984102    4.3984102    6879.7481    42055.938   -8068.7593   -13347.934   -2421.2823   -2085.3441   -5790.3815    85.091696 
    7600    1137.2839   -107.63518    1.0290383   -106.60614   -17845.027    4.4127719    4.4127719    4.4127719   -17845.027    8267.6195   -63305.412    1502.7112    -3789.854    5095.9711    506.74551     85.92795 
    7700    1413.2539   -107.87455    1.2787418   -106.59581   -3836.0224    4.4063459    4.4063459    4.4063459   -3836.0224    35793.013   -25039.721   -22261.359    15124.952   -5237.0151   -4004.9482    85.553105 
    7800       1057.3    -107.5533   0.95666729   -106.59663      13120.1    4.4012732    4.4012732    4.4012732      13120.1    53989.995    -27519.33    12889.635    4423.4832    3973.2221   -7040.8692    85.257966 
    7900    1172.0935   -107.65901    1.0605348   -106.59848   -9085.0639    4.4063552    4.4063552    4.4063552   -9085.0639    17200.614   -26074.501   -18381.305    11618.338    44.358258    2284.5666    85.553641 
    8000    1286.8298   -107.76222    1.1643506   -106.59787   -3650.5801    4.4083668    4.4083668    4.4083668   -3650.5801    66533.003   -39859.535   -37625.208    -32.69617    7640.2221     3112.452     85.67087 
    8100    1967.0647   -108.37598    1.7798415   -106.59614   -40660.103    4.4067509    4.4067509    4.4067509   -40660.103   -15295.999   -48102.541   -58581.769   -11340.551   -10472.751    3760.5299    85.576695 
    8200    986.93569   -107.50798   0.89300015   -106.61498    11369.048    4.4008085    4.4008085    4.4008085    11369.048    91042.734   -22519.029    -34416.56   -8823.0811    9944.4037    343.36659    85.230965 
    8300     1074.525   -107.58598   0.97225284   -106.61373    17129.309    4.4011766    4.4011766    4.4011766    17129.309    81928.993   -12825.036    -17716.03    15638.445    -15054.08     -4741.92    85.252354 
    8400    1346.8858   -107.82347    1.2186906   -106.60478   -12027.427    4.4116456    4.4116456    4.4116456   -12027.427    15143.178   -14280.889    -36944.57   -7002.1965   -316.37537   -1677.4654    85.862171 
    8500    919.94041    -107.4209   0.83238142   -106.58852    1292.8974    4.4115735    4.4115735    4.4115735    1292.8974    75804.889   -46402.701   -25523.495   -6748.6037    -3803.429   -3651.0134     85.85796 
    8600    1425.3571   -107.86787     1.289693   -106.57817   -9301.1962    4.3981824    4.3981824    4.3981824   -9301.1962    18324.281   -36660.653   -9567.2162    15263.427   -3021.7282   -14207.646    85.078478 
    8700    1289.8471   -107.75614    1.1670808   -106.58906    7146.1789    4.4014473    4.4014473    4.4014473    7146.1789    44753.233    7724.5323   -31039.229   -8133.0755    3929.2991   -336.47995    85.268085 
    8800    1046.8814   -107.54192   0.94724033   -106.59468   -9066.0366    4.4135676    4.4135676    4.4135676   -9066.0366   -5741.8736   -36659.432    15203.196    4253.9883    11379.191    1795.0148    85.974439 
    8900    1246.8222   -107.72419    1.1281509   -106.59603   -10190.983    4.4023018    4.4023018    4.4023018   -10190.983    66523.133   -54939.062    -42157.02    12648.833    1529.2365   -8191.2209    85.317761 
    9000    1222.2352   -107.71055    1.1059041   -106.60464    28805.606    4.3864365    4.3864365    4.3864365    28805.606    93006.241   -14665.904    8076.4814   -2410.3861   -1162.6924    3320.5949    84.398656 
    9100    1373.4291   -107.87557    1.2427075   -106.63286   -29333.477    4.4086349    4.4086349    4.4086349   -29333.477   -42823.374   -3540.5205   -41636.536   -10644.141    10456.752     2699.291    85.686499 
    9200    724.57214   -107.28025    0.6556081   -106.62464     11144.82    4.4052633    4.4052633    4.4052633     11144.82    110405.35   -46124.675   -30846.214   -4931.5103    2500.3859   -5392.8946    85.490057 
    9300    1873.1849   -108.30202    1.6948971   -106.60712   -16067.601    4.3895549    4.3895549    4.3895549   -16067.601    26693.301   -35906.385    -38989.72    7338.1429   -11104.553    2818.1362    84.578787 
    9400    864.25232   -107.40771   0.78199366   -106.62571   -5299.2561    4.4013368    4.4013368    4.4013368   -5299.2561    13396.569   -17644.876   -11649.461   -21382.678    11258.541    14655.193    85.261667 
    9500    1323.6206   -107.80444    1.1976398    -106.6068   -19595.702    4.4035323    4.4035323    4.4035323   -19595.702   -5948.2518   -31610.896   -21227.958    7692.5689   -1659.9321     3507.948    85.389322 
    9600    1233.8047   -107.70969    1.1163724   -106.59332    4821.0052    4.3989857    4.3989857    4.3989857    4821.0052    38970.912    -7261.708   -17246.188     14162.57    7357.9057     4594.996      85.1251 
    9700    1236.8537   -107.70876    1.1191312   -106.58963   -22188.455    4.4048601    4.4048601    4.4048601   -22188.455   -22527.998   -6557.6438   -37479.722   -9406.9597   -2228.0169    6162.2411    85.466587 
    9800    696.58353    -107.2137   0.63028342   -106.58342    26659.497    4.4033724    4.4033724    4.4033724    26659.497    63422.188   -34486.889     51043.19    1441.0134    4461.8383   -8839.6414    85.380019 
    9900    1787.4087   -108.20205    1.6172849   -106.58477   -27005.849    4.4043341    4.4043341    4.4043341   -27005.849   -5441.5177   -39752.223   -35823.805    -3392.384     15043.09    3039.3592    85.435972 
   10000    792.80685   -107.31341    0.7173483   -106.59606    24297.266    4.4014439    4.4014439    4.4014439    24297.266    46866.522   -11647.851    37673.125    19255.101   -1355.6599    1284.7549    85.267889 
   10100    1339.3375   -107.79964    1.2118608   -106.58778    517.43423    4.3951943    4.3951943    4.3951943    517.43423     18974.46    212.13215    -17634.29   -9668.0464    10074.246    -13086.12    84.905191 
   10200     1229.855   -107.70109    1.1127986   -106.58829   -1205.6113     4.406413     4.406413     4.406413   -1205.6113    35393.984   -54566.561    15555.743    13863.123   -258.76806    5234.9586    85.557009 
   10300    1345.7956   -107.79012    1.2177041   -106.57241   -348.18207    4.3991279    4.3991279    4.3991279   -348.18207   -6902.9451    19199.187   -13340.788    2532.1341   -6511.6455   -665.53298    85.133356 
   10400    672.64337   -107.20072   0.60862185    -106.5921    25228.843    4.3969332    4.3969332    4.3969332    25228.843    87257.477   -28125.194    16554.246   -12956.799    1438.9901   -4677.3444    85.006006 
   10500    1721.6767   -108.16028    1.5578093   -106.60247   -25828.009    4.4034239    4.4034239    4.4034239   -25828.009   -13987.585    -40141.72   -23354.721   -1848.0816   -11104.149    3230.7837    85.383013 
   10600    1006.4489   -107.51026   0.91065609    -106.5996    13808.299    4.3938638    4.3938638    4.3938638    13808.299    71514.826   -18049.102   -12040.828    -13506.77    6349.8924    6503.0484    84.828105 
   10700    1011.5208   -107.50556   0.91524525   -106.59031     7574.078    4.3956166    4.3956166    4.3956166     7574.078    -16730.35    -2649.235    42101.819    7524.5264   -2382.0109   -4232.3458    84.929666 
   10800    1140.2848   -107.61284    1.0317537   -106.58109    7480.7704    4.4038141    4.4038141    4.4038141    7480.7704    72331.757   -41394.246   -8495.1998    7039.3887   -752.37099     7895.291    85.405717 
   10900    1470.5557   -107.89864    1.3305897   -106.56805   -2332.9291    4.3988416    4.3988416    4.3988416   -2332.9291   -30812.605   -21634.453    45448.271    3714.4901    11273.395    5039.8715     85.11674 
   11000     871.5091   -107.37263   0.78855975   -106.58407   -7208.6624    4.3999895    4.3999895    4.3999895   -7208.6624    14139.207   -48174.916    12409.722       6265.8    -4271.187   -3735.2243    85.183392 
   11100    1665.8914   -108.09123    1.5073335    -106.5839    -13410.15    4.3958529    4.3958529    4.3958529    -13410.15    12254.377    -37608.41   -14876.418   -6081.7978   -471.42556    -8890.651    84.943364 
   11200    1050.8262   -107.54777   0.95080962   -106.59696    19188.488    4.3935993    4.3935993    4.3935993    19188.488    2087.1163   -9486.2324     64964.58    -97.02243    15237.665    10886.542    84.812788 
   11300    1203.0879   -107.69084    1.0885792   -106.60226   -104.27676    4.3991868    4.3991868    4.3991868   -104.27676    20655.248   -33021.865    12053.786    -6766.947   -8456.2894    3830.3592    85.136781 
   11400    964.74561   -107.47203   0.87292211   -106.59911    2573.9529    4.4015845    4.4015845    4.4015845    2573.9529    207.45239   -42532.978    50047.385   -747.79433   -3741.8774    3901.6804    85.276063 
   11500    1657.5569   -108.09096    1.4997923   -106.59117   -9192.0157    4.3862057    4.3862057    4.3862057   -9192.0157    -7810.975   -18037.402   -1727.6701    476.99396     10321.61   -4164.6428    84.385335 
   11600    1172.8252   -107.67309    1.0611969    -106.6119   -7036.5915    4.4017062    4.4017062    4.4017062   -7036.5915   -41123.331   -48946.676    68960.233    2164.9203   -5277.9713   -9771.3774    85.283137 
   11700    1227.6943    -107.7218    1.1108436   -106.61096       -23202    4.4028466    4.4028466    4.4028466       -23202   -5412.2917   -54048.229   -10145.478   -6382.9556    7115.2868     8128.879    85.349437 
   11800    1536.6771   -107.99112    1.3904178   -106.60071   -7590.1569    4.3827151    4.3827151    4.3827151   -7590.1569    -25326.95   -33741.165    36297.644   -1379.7151    4630.8477    1650.4811    84.184033 
   11900    809.37754   -107.34977   0.73234181   -106.61743    25734.091    4.3863769    4.3863769    4.3863769    25734.091    31676.249   -27779.923    73305.947   -1697.4681   -5618.9654   -572.47676    84.395219 
   12000     1237.415   -107.73558    1.1196391   -106.61595   -27214.747    4.4058183    4.4058183    4.4058183   -27214.747   -26165.427   -28207.068   -27271.746   -8816.8379    3397.0104   -2403.9501    85.522374 
   12100    1273.3354   -107.75056    1.1521406   -106.59842    15314.235    4.3830804    4.3830804    4.3830804    15314.235    14953.349   -17948.887    48938.243   -4657.7747    629.26676   -5660.8751    84.205081 
   12200    1339.8587   -107.81419    1.2123323   -106.60186   -7646.7932    4.3767721    4.3767721    4.3767721   -7646.7932      20307.7   -32540.778   -10707.302    3691.7679    5412.0224   -2123.0825    83.842035 
   12300    1004.3915   -107.52272   0.90879453   -106.61393    4810.7409     4.398637     4.398637     4.398637    4810.7409    5433.5719   -56360.439    65359.089   -3969.6356   -7718.0215   -12434.335    85.104864 
   12400    1313.1231    -107.7902    1.1881414   -106.60206    7052.9895    4.3959342    4.3959342    4.3959342    7052.9895    6013.5602    10520.715    4624.6929    2034.4004    785.50774    24.369733    84.948079 
   12500    869.87758   -107.38922   0.78708351   -106.60213    10822.969    4.3887154    4.3887154    4.3887154    10822.969   -9982.7845   -23901.225    66352.917   -2346.8773    3163.7706    16135.842    84.530272 
   12600    1425.2919   -107.90562    1.2896341   -106.61599    -12854.95    4.3937842    4.3937842    4.3937842    -12854.95    -1300.733   -58605.092    21340.975   -1132.9708    4698.0546   -8259.6066    84.823494 
   12700      1691.09    -108.1495    1.5301338   -106.61937   -29314.908    4.3973558    4.3973558    4.3973558   -29314.908   -30093.525    -52545.72   -5305.4775    3100.7918   -7420.4683   -13985.802    85.030515 
   12800    1196.9384   -107.69615     1.083015   -106.61313    4994.9805     4.389855     4.389855     4.389855    4994.9805    38876.788   -46501.436     22609.59   -7550.5243    3912.0747   -613.61566    84.596134 
   12900    922.41959   -107.44068   0.83462463   -106.60606   -10858.021    4.4001638    4.4001638    4.4001638   -10858.021   -12389.214   -51391.734    31206.884    6466.4764   -5458.7455   -8692.1241    85.193515 
   13000    1298.1679   -107.76518    1.1746096   -106.59057    10022.069    4.3879147    4.3879147    4.3879147    10022.069    43092.563   -20591.003    7564.6466    4143.4496     4719.838    14074.417    84.484013 
   13100    1178.7626   -107.66276    1.0665691   -106.59619    7820.0123    4.3846326    4.3846326    4.3846326    7820.0123    14110.874   -10949.912    20299.075   -4609.9279    14432.681    -4781.851    84.294576 
   13200    1061.5563    -107.5618   0.96051849   -106.60128   -2105.1219    4.3975222    4.3975222    4.3975222   -2105.1219   -2274.1075   -57386.867    53345.608    7691.9288   -24197.322   -9305.8976    85.040173 
   13300    1600.5943   -108.03663    1.4482513   -106.58838   -8648.0016    4.3866673    4.3866673    4.3866673   -8648.0016     29148.16   -22879.342   -32212.822   -4204.0863    8614.2382   -4256.8385    84.411981 
   13400    824.28769   -107.33994   0.74583282    -106.5941    32886.321    4.3726964    4.3726964    4.3726964    32886.321    52467.149   -3412.2333    49604.047   -4955.5989   -13316.928    -11923.11    83.608027 
   13500     1368.536   -107.84937    1.2382802   -106.61109   -20131.254    4.3984676    4.3984676    4.3984676   -20131.254    17371.088   -53878.339   -23886.511   -989.18429    4979.7191    1754.6075    85.095031 
   13600     1230.703   -107.71401    1.1135659   -106.60044   -6367.6005    4.4001032    4.4001032    4.4001032   -6367.6005    18293.509    -42890.76    5494.4503   -11948.415   -2179.4207   -4900.1668    85.189996 
   13700    1409.1901   -107.86358    1.2750648   -106.58851   -3009.2196    4.3887991    4.3887991    4.3887991   -3009.2196    18188.618   -9139.9202   -18076.356    9707.8085    -1425.854   -4076.6296    84.535107 
   13800    1103.4282   -107.59462   0.99840501   -106.59621   -5681.1853    4.3941283    4.3941283    4.3941283   -5681.1853    55004.427   -45492.904   -26555.079    4358.1485    2897.3579    9321.5464    84.843428 
   13900    1157.8051   -107.64349    1.0476064   -106.59588    13351.906    4.3971654    4.3971654    4.3971654    13351.906    29048.297   -20767.662    31775.082    5435.3883   -11621.268   -8024.9679    85.019474 
   14000    1216.4444   -107.68781    1.1006645   -106.58715   -1169.0951    4.4053124    4.4053124    4.4053124   -1169.0951    26094.095   -27087.584    -2513.797    -13084.85    1322.7274     6401.492    85.492917 
   14100    713.19473    -107.2254   0.64531358   -106.58008    24149.317    4.3919231    4.3919231    4.3919231    24149.317    88757.326   -33450.787    17141.412   -2837.4246    -20707.99   -5043.7626    84.715753 
   14200    1203.7494   -107.68999    1.0891777   -106.60081    9130.2761    4.3899613    4.3899613    4.3899613    9130.2761     59282.59   -44529.145    12637.384    6413.2189    5041.5066   -1154.8336     84.60228 
   14300    1613.7742   -108.06424    1.4601768   -106.60406   -27106.851    4.4076896    4.4076896    4.4076896   -27106.851   -23189.479   -49424.426    -8706.647    -5781.861   -6968.1666    9489.7932    85.631395 
   14400    859.52884   -107.36354   0.77771975   -106.58582    11240.657    4.4000754    4.4000754    4.4000754    11240.657    70280.623   -51182.861    14624.209   -9830.9913     4435.218   -449.04007    85.188381 
   14500    1324.2915   -107.78928    1.1982467   -106.59103   -7307.8454    4.3966292    4.3966292    4.3966292   -7307.8454    52349.446   -45345.993   -28926.989    15799.009   -3082.5779    4986.8985    84.988375 
   14600     1157.043   -107.65737    1.0469168   -106.61045    14416.774    4.4010568    4.4010568    4.4010568    14416.774    29057.321   -34663.813    48856.815    8025.3061   -9587.2246    11939.189    85.245393 
   14700    1281.8481    -107.7695    1.1598431   -106.60966   -17486.146    4.4095356    4.4095356    4.4095356   -17486.146     17276.39    -31166.41   -38568.418   -3336.3127    2071.0422    7468.1972    85.739028 
   14800    905.91166   -107.41012   0.81968791   -106.59043    23671.603    4.4035818    4.4035818    4.4035818    23671.603    61578.005    2351.0156    7085.7883    6213.4488   -3325.8692   -8052.2442    85.392201 
   14900    1524.2591   -107.96047    1.3791816   -106.58129     -6653.38    4.3990823    4.3990823    4.3990823     -6653.38    8690.7832   -53235.889    24584.966   -3753.8914   -5011.9942    2423.4337     85.13071 
   15000    1172.5734   -107.64777    1.0609691   -106.58681   -3029.0298    4.4053155    4.4053155    4.4053155   -3029.0298    25747.215   -13549.831   -21284.473    1493.4283    3204.8827   -3119.4584      85.4931 
   15100    936.92595   -107.43459   0.84775029   -106.58684    8894.3351    4.4061784    4.4061784    4.4061784    8894.3351    34146.317    -40339.48    32876.169   -14638.263   -6057.7723   -10907.961    85.543348 
   15200    1685.8497    -108.1173    1.5253923   -106.59191   -34697.189    4.4025467    4.4025467    4.4025467   -34697.189    -2225.379   -41597.826   -60268.363   -9046.2219    877.95284     3266.531    85.331999 
   15300    1346.6535   -107.82406    1.2184804   -106.60558    2408.9643    4.3907135    4.3907135    4.3907135    2408.9643    7534.9998    -42014.42    41706.313     6140.393   -2366.1691   -1229.2768    84.645779 
   15400    1217.6757   -107.72251    1.1017786   -106.62073    697.59777    4.3967367    4.3967367    4.3967367    697.59777    61976.704   -28173.023   -31710.887    9046.6604    1883.7842   -1162.6349    84.994607 
   15500    1157.9509   -107.65324    1.0477383    -106.6055   -19484.998    4.4114541    4.4114541    4.4114541   -19484.998    712.29543   -46727.776   -12439.514     10587.39   -5121.0186    4091.6556    85.850989 
   15600    1369.3911   -107.81857    1.2390538   -106.57952    107.18529    4.3950854    4.3950854    4.3950854    107.18529    53270.284   -46069.475    -6879.253   -6927.7485    7817.2191   -163.63527    84.898877 
   15700    1589.6318   -108.02942    1.4383322   -106.59109   -20368.049    4.3894658    4.3894658    4.3894658   -20368.049   -3302.4192   -43604.285   -14197.444    7136.7962    1522.7117   -8745.5077    84.573637 
   15800    737.72433   -107.27569   0.66750848   -106.60818    21603.073    4.3991458    4.3991458    4.3991458    21603.073    72143.832   -27922.608    20587.994   -3926.2952   -5870.6008     141.1315    85.134398 
   15900    1438.9029   -107.89363    1.3019496   -106.59168   -16887.148    4.3990585    4.3990585    4.3990585   -16887.148   -24039.614   -16691.059   -9930.7704    -1587.228    3321.0684   -4299.0211    85.129329 
   16000    962.42897   -107.45543   0.87082595    -106.5846    15768.386    4.3922037    4.3922037    4.3922037    15768.386    25806.619   -40216.462        61715    4943.7596   -2184.1184   -7059.3313    84.731994 
   16100    1339.9547   -107.80109    1.2124191   -106.58867    6249.0795    4.3979135    4.3979135    4.3979135    6249.0795    40586.906   -48889.206    27049.538    -7164.709   -1162.4263   -579.81022    85.062872 
   16200    1547.5261   -107.98553    1.4002342   -106.58529   -30236.676    4.4037761    4.4037761    4.4037761   -30236.676    14018.617   -55448.374   -49280.271   -17082.996     5059.849   -10058.121    85.403506 
   16300    649.62867   -107.17112   0.58779768   -106.58332    23439.595    4.3899235    4.3899235    4.3899235    23439.595    53054.447   -38157.598    55421.936   -3496.8343    -10901.04    1096.9718    84.600097 
   16400    1448.0433   -107.89594      1.31022   -106.58572    5422.6304    4.3854643    4.3854643    4.3854643    5422.6304   -920.94197   -16972.444    34161.277   -8405.7409    6539.9153    3666.4129    84.342555 
   16500    1203.9482   -107.68953    1.0893577   -106.60017   -11167.326    4.4044425    4.4044425    4.4044425   -11167.326     33850.98   -42145.132   -25207.824   -3497.4548   -14509.075    9434.7495    85.442283 
   16600    1164.8086    -107.6385    1.0539433   -106.58455   -5846.4387    4.3975389    4.3975389    4.3975389   -5846.4387    5605.6698   -55594.414    32449.428    4210.6832   -2037.1701    8738.3153     85.04114 
   16700    859.80311   -107.37146   0.77796793   -106.59349     24084.09     4.383722     4.383722     4.383722     24084.09    93385.753   -41193.031    20059.547    2012.9282    18447.575    3732.8448    84.242065 
   16800    1702.2263   -108.14427    1.5402101   -106.60406   -14809.251    4.3875812    4.3875812    4.3875812   -14809.251     6837.045    -35569.85   -15694.949   -3099.0143    779.00644   -6151.6751    84.464748 
   16900    1155.2032   -107.65228    1.0452522   -106.60703   -2175.9495    4.3913938    4.3913938    4.3913938   -2175.9495    40929.912   -42116.522   -5341.2388   -12742.966   -4199.9209   -1807.7463    84.685128 
   17000    1096.7628   -107.60235   0.99237401   -106.60997   -10611.368    4.3996458    4.3996458    4.3996458   -10611.368    56223.396   -58356.971   -29700.529    347.91547    1386.8875    3748.2531    85.163429 
   17100    1611.6195   -108.06559    1.4582271   -106.60736   -11892.768    4.3952688    4.3952688    4.3952688   -11892.768   -10890.636   -46542.761    21755.093    2941.9201    3671.4236    5302.8768    84.909507 
   17200    933.47367   -107.45691    0.8446266   -106.61228    9913.6152    4.3918502    4.3918502    4.3918502    9913.6152    64459.168    -55484.43    20766.108   -585.94894    1270.2601    10995.109    84.711534 
   17300    787.92207   -107.32386   0.71292845   -106.61094     16704.26    4.3922761    4.3922761    4.3922761     16704.26    70139.311   -22849.989    2823.4574    11470.989   -7056.1524    6710.6263    84.736181 
   17400    1261.5617   -107.74971    1.1414875   -106.60823   -2400.3719    4.3994062    4.3994062    4.3994062   -2400.3719   -2126.6915    -14858.46     9784.036   -15535.842    1001.8017     6657.498    85.149515 
   17500    1048.8325   -107.54561   0.94900568    -106.5966    12076.901    4.3916171    4.3916171    4.3916171    12076.901    66133.828   -17521.722   -12381.403   -20704.283    9991.7404    12351.109    84.698046 
   17600    1054.0382   -107.54672   0.95371592     -106.593   -19.481432    4.3884825    4.3884825    4.3884825   -19.481432   -21324.887   -27507.325    48773.768    -4250.748    -135.7585    4376.8005    84.516816 
   17700    1256.9682   -107.73608    1.1373313   -106.59875   -11335.216    4.3998649    4.3998649    4.3998649   -11335.216    23074.123   -18588.698   -38491.074    4985.1186   -987.49031    9399.4462    85.176155 
   17800     1586.272   -108.02115    1.4352922   -106.58586   -9455.4408    4.3913914    4.3913914    4.3913914   -9455.4408   -25605.483   -11033.292     8272.453     8146.767    1149.0198    2839.3713    84.684992 
   17900    554.79633   -107.09411   0.50199138   -106.59212    12715.849     4.396778     4.396778     4.396778    12715.849    60407.274   -44583.062    22323.336    5169.3753   -9383.7259   -9238.7477    84.997003 
   18000    1421.1954   -107.86773    1.2859274   -106.58181   -17598.205    4.3948294    4.3948294    4.3948294   -17598.205     1183.594   -25172.058    -28806.15    17215.142    15046.971    5265.3936    84.884046 
   18100    1074.5109   -107.55616   0.97224008   -106.58392    33611.481    4.3888487    4.3888487    4.3888487    33611.481    25380.831    16578.138    58875.475    1965.0348     -13016.9   -4356.9119    84.537974 
   18200    1367.6023   -107.82262    1.2374353   -106.58518   -17839.771    4.3984728    4.3984728    4.3984728   -17839.771   -20569.947   -33674.272    724.90637    1886.4068    6986.3767   -7293.3381    85.095331 
   18300    837.17557   -107.33141   0.75749405   -106.57391    17284.515    4.3918602    4.3918602    4.3918602    17284.515   -13436.943    1924.9625    63365.524    4603.9017   -7422.1014   -16362.023    84.712112 
   18400    1349.9839   -107.80444    1.2214938   -106.58295   -5648.4379    4.3864688    4.3864688    4.3864688   -5648.4379    5241.2124    1188.3735     -23374.9   -5561.6728   -2666.0939    -379.1268    84.400521 
   18500    1386.1142   -107.84787    1.2541852   -106.59368    213.93208    4.3856574    4.3856574    4.3856574    213.93208   -11111.643    7354.4659    4398.9736   -2954.8673   -7533.6977    6783.2824    84.353692 
   18600    1249.4995    -107.7223    1.1305734   -106.59173   -26277.081    4.3971756    4.3971756    4.3971756   -26277.081   -27412.434   -15649.661   -35769.149   -3561.0242    8233.4099    3194.4682    85.020064 
   18700    1055.1559   -107.53471   0.95472721   -106.57998   -8285.7844    4.3884641    4.3884641    4.3884641   -8285.7844    10410.838    -47727.37    12459.179    1819.6974    -6612.158    12669.232    84.515749 
   18800    1151.6324    -107.6155    1.0420212   -106.57348    29699.467    4.3790061    4.3790061    4.3790061    29699.467    18090.877    9587.5745    61419.949   -15030.915    10966.645    127.88436    83.970484 
   18900    1411.7744   -107.86417    1.2774032   -106.58676   -24718.797    4.3931251    4.3931251    4.3931251   -24718.797    -17697.51     -51305.4   -5153.4822    1744.7048    10281.199    6376.4287    84.785328 
   19000    873.63833   -107.38323   0.79048632   -106.59275    18361.208    4.3930813    4.3930813    4.3930813    18361.208    47562.385   -51563.895    59085.136    5589.9856    245.69584    -800.8045    84.782791 
   19100    1453.6721   -107.90403    1.3153131   -106.58871   -17647.229     4.385281     4.385281     4.385281   -17647.229    10072.334   -22043.618   -40970.404    1070.7326   -23010.316   -7633.7523    84.331978 
   19200    1045.1279   -107.53624   0.94565368   -106.59058    13353.174    4.3800327    4.3800327    4.3800327    13353.174    15079.038     -14929.6    39910.084    9169.6007    1430.6682    5874.5149    84.029554 
   19300    1045.7508   -107.53898   0.94621726   -106.59276   -17411.255     4.400423     4.400423     4.400423   -17411.255   -15316.393   -59815.296    22897.926   -2363.5782   -9948.3546     4419.805     85.20857 
   19400    1441.6119   -107.87994    1.3044007   -106.57553   -19873.356     4.393973     4.393973     4.393973   -19873.356    -28898.88    -6197.929    -24523.26    573.27609   -9817.4487    3624.8196    84.834431 
   19500    1379.6339   -107.81802    1.2483218    -106.5697    14365.869    4.3811978    4.3811978    4.3811978    14365.869    12487.512    2406.8519    28203.244    3583.2407     4210.328    2619.6586     84.09663 
   19600    984.24902   -107.47224    0.8905692   -106.58167    3724.1356    4.3920498    4.3920498    4.3920498    3724.1356    12665.123   -64362.867    62870.151   -1886.5369   -14672.019   -837.16183    84.723085 
   19700    1226.2995   -107.69394    1.1095816   -106.58436   -11192.528    4.3996115    4.3996115    4.3996115   -11192.528   -46589.294   -46561.781     59573.49   -5789.7585   -1448.8551     2763.001    85.161439 
   19800    1738.8184    -108.1488    1.5733194   -106.57548   -23486.696    4.3909779    4.3909779    4.3909779   -23486.696   -10291.892   -25270.611   -34897.583   -3319.6754    14163.926   -1648.1363    84.661072 
   19900    676.59602   -107.19811    0.6121983   -106.58592    19035.617    4.3826023    4.3826023    4.3826023    19035.617    -10795.77   -37133.504    105036.13    7285.8412   -12658.298   -2863.9966    84.177534 
   20000    1293.1635   -107.76255    1.1700815   -106.59247   -14737.426    4.3975208    4.3975208    4.3975208   -14737.426   -42505.992   -24124.822    22418.536   -2730.4943   -1270.3228   -35.153208    85.040091 
   20100    1769.2881    -108.1837     1.600889   -106.58281   -20464.274    4.3932935    4.3932935    4.3932935   -20464.274    -38176.67   -28591.129    5374.9781    2533.0128   -4203.2466   -5098.8076    84.795079 
   20200    1011.7096   -107.50661   0.91541612   -106.59119    20740.128    4.3717446    4.3717446    4.3717446    20740.128    19095.612    5927.8299    37196.943    10499.736    -3574.907    18092.464    83.553441 
   20300    988.94703   -107.50647   0.89482005   -106.61165    5356.1172    4.3861809    4.3861809    4.3861809    5356.1172   -9334.4483   -26567.422    51970.222   -4693.3336    3638.6283    3206.9757    84.383903 
   20400    1131.6712   -107.62033    1.0239599   -106.59637    -15374.82    4.4120999    4.4120999    4.4120999    -15374.82   -19315.406   -42487.588    15678.533    7278.9655   -15062.985   -2689.5236    85.888696 
   20500    1284.4673   -107.72958     1.162213   -106.56737    7399.8284    4.3943859    4.3943859    4.3943859    7399.8284    23022.148   -5273.3194    4450.6562    9881.7724    5506.0725    8178.4296    84.858352 
   20600    1326.4496   -107.75575    1.2001995   -106.55555    8508.9468    4.3749179    4.3749179    4.3749179    8508.9468    18083.731   -22067.946    29511.056    1446.2282    6193.4187   -8373.6779    83.735518 
   20700    919.93366   -107.42031    0.8323753   -106.58794    9711.6245    4.3872466    4.3872466    4.3872466    9711.6245     49807.16   -36600.843    15928.557   -7699.8753    8874.7379   -485.87746    84.445429 
   20800    1389.9144   -107.85447    1.2576238   -106.59685   -5025.0568    4.4006434    4.4006434    4.4006434   -5025.0568   -31570.926   -18852.788    35348.543   -7179.2484   -3921.8086    416.16168    85.221375 
   20900    1215.8345   -107.68453    1.1001126   -106.58441    4461.8354    4.3877997    4.3877997    4.3877997    4461.8354    18069.318   -40996.235    36312.424   -7301.7046    -6520.245   -10458.319    84.477371 
   21000    896.41237   -107.39401   0.81109275   -106.58291    -11595.89    4.3827223    4.3827223    4.3827223    -11595.89   -2828.3344   -43930.736    11971.399    1560.6549   -2134.0875     6358.725    84.184447 
   21100    1685.3118   -108.11037    1.5249056   -106.58547   -25527.284    4.3954797    4.3954797    4.3954797   -25527.284   -22642.911   -43929.047   -10009.895   -6025.0792    6470.4685   -5219.2604    84.921732 
   21200    1133.6186   -107.61175    1.0257219   -106.58603    1709.3933     4.397645     4.397645     4.397645    1709.3933    10523.786   -20882.953    15487.347   -3896.8557     9332.345    11011.648    85.047295 
   21300    1004.6833   -107.50408   0.90905858   -106.59502   -5963.4075    4.3839185    4.3839185    4.3839185   -5963.4075     22509.33   -46371.548    5971.9957    15512.095    3472.5769   -2215.6631    84.253396 
   21400    1226.5973   -107.71203     1.109851   -106.60218    22905.872    4.3727049    4.3727049    4.3727049    22905.872   -14206.003    34525.918    48397.702    1665.3527    1948.3147   -7043.8349    83.608514 
   21500    1245.1025   -107.75064    1.1265949   -106.62405   -25248.744    4.3998116    4.3998116    4.3998116   -25248.744   -19094.065   -38194.991   -18457.176    5906.4082   -2627.6073    9773.8224    85.173057 
   21600    1297.2315   -107.76675    1.1737623   -106.59299   -18542.374    4.4043267    4.4043267    4.4043267   -18542.374   -45890.018   -336.64474   -9400.4593    4690.9001    890.67724   -7004.2032     85.43554 
   21700     1254.342   -107.71308     1.134955   -106.57813    -6091.217     4.378363     4.378363     4.378363    -6091.217   -9534.2257    -9825.032    1085.6067   -163.67039   -12923.193     8337.058    83.933491 
   21800    902.83548    -107.4104   0.81690452   -106.59349    9660.1528     4.373858     4.373858     4.373858    9660.1528    60446.618   -2401.6079   -29064.552    4087.3064    1617.8525   -12548.885    83.674675 
   21900    1660.4691   -108.10235    1.5024273   -106.59992   -7832.6888    4.3959869    4.3959869    4.3959869   -7832.6888   -13495.688   -30612.676    20610.298   -2243.7782   -10641.806    251.06075    84.951134 
   22000    995.52581   -107.50473   0.90077268   -106.60396   -19639.571    4.4002828    4.4002828    4.4002828   -19639.571   -13666.134   -40895.907    -4356.672   -878.49714    14634.662   -1785.9076    85.200424 
   22100    1010.4634   -107.51288   0.91428851   -106.59859    4756.4319    4.3666806    4.3666806    4.3666806    4756.4319    16608.507   -21519.097    19179.886    3835.5417   -12423.559    4173.1487    83.263426 
   22200    1352.9691   -107.83787    1.2241949   -106.61367    14459.817     4.369567     4.369567     4.369567    14459.817   -3179.6924    25161.285    21397.858    -5384.818     7280.567   -1940.1964    83.428649 
   22300    1472.3549   -107.95158    1.3322177   -106.61936   -28816.419    4.3971742    4.3971742    4.3971742   -28816.419   -26074.073   -30961.576   -29413.608   -1633.4749    1311.6747    1906.0979    85.019985 
   22400    866.53391   -107.38382   0.78405809   -106.59976    7768.2327    4.3912635    4.3912635    4.3912635    7768.2327     32183.23   -24938.253     16059.72   -13999.126   -2979.4713    7970.7984    84.677591 
   22500    1512.2593   -107.95029     1.368324   -106.58197   -16212.095    4.3783941    4.3783941    4.3783941   -16212.095   -9917.7747    1762.1245   -40480.634    3512.7074   -469.21149    3214.4882    83.935281 
   22600    778.43486   -107.30467   0.70434422   -106.60033    43191.461      4.37366      4.37366      4.37366    43191.461    44899.279    8688.0035    75987.101    -13839.08   -10197.551   -4612.5184    83.663311 
   22700    1568.5443   -108.02579    1.4192518   -106.60654   -18872.239    4.3962051    4.3962051    4.3962051   -18872.239   -31304.288   -25464.092     151.6625   -8583.2432   -2349.8455    6093.7655    84.963782 
   22800    878.65773   -107.39349   0.79502798   -106.59846   -2570.6089    4.3942772    4.3942772    4.3942772   -2570.6089   -11229.588   -23106.923    26624.684    5245.4088   -6348.7655   -9282.6815    84.852054 
   22900    1097.8904   -107.58335   0.99339429   -106.58995   -7932.1501    4.3818146    4.3818146    4.3818146   -7932.1501     -10068.6   -23081.429     9353.579   -21544.123   -2713.2568    352.70748    84.132153 
   23000    1919.2294    -108.3275    1.7365591   -106.59094   -7269.1666    4.3740054    4.3740054    4.3740054   -7269.1666   -1557.6097   -11390.404   -8859.4858     6538.279    7482.8185   -8395.0249    83.683134 
   23100     686.6591   -107.24833   0.62130359   -106.62703    20248.233    4.3862529    4.3862529    4.3862529    20248.233    55244.859   -25752.358    31252.198   -5360.4274     3895.396   -274.21248    84.388059 
   23200    1014.8295   -107.54075   0.91823907   -106.62251   -18183.284    4.3995082    4.3995082    4.3995082   -18183.284   -4695.2913   -32641.123   -17213.436   -2560.1219    5923.9087   -8069.0525    85.155438 
   23300    1606.1093   -108.05655    1.4532415   -106.60331    4662.0336    4.3725766    4.3725766    4.3725766    4662.0336    4191.2387   -6060.6751    15855.537   -7352.5323     5457.922    3247.0418    83.601153 
   23400    1251.8179   -107.73915    1.1326712   -106.60648    13528.162    4.3751903    4.3751903    4.3751903    13528.162     13045.22   -8249.1491    35788.417   -8487.4687    -15000.01    772.44525    83.751163 
   23500    887.18365   -107.41077   0.80274241   -106.60802    558.33113     4.395883     4.395883     4.395883    558.33113     61845.85   -23981.968   -36188.888    625.05395   -3105.5103   -2762.5885    84.945108 
   23600    1277.2188   -107.76327    1.1556544   -106.60761   -11808.323    4.3829174    4.3829174    4.3829174   -11808.323   -20956.592   -26083.812    11615.435    8328.6864   -2026.2459   -1011.7677    84.195688 
   23700    1666.1096   -108.11264    1.5075309   -106.60511     1822.419    4.3642163    4.3642163    4.3642163     1822.419    1416.6381    6414.2541   -2363.6351   -14346.686   -1461.6578    5530.4457    83.122537 
   23800    1151.0004    -107.6639    1.0414493   -106.62245    80.764788    4.3907034    4.3907034    4.3907034    80.764788    27291.963   -26626.225   -423.44346    11238.199    11473.021   -1508.9647    84.645196 
   23900    883.51996    -107.4063   0.79942742   -106.60687   -19759.067    4.4049574    4.4049574    4.4049574   -19759.067    13120.351   -47124.904   -25272.647   -14917.255   -3815.9168   -2999.6374    85.472249 
   24000    1167.1213   -107.64826    1.0560359   -106.59223   -1557.7937    4.3769965    4.3769965    4.3769965   -1557.7937   -11562.021   -22604.792    29493.431   -7190.9209   -6832.8326   -8991.1992    83.854928 
   24100     1668.285   -108.09159    1.5094993   -106.58209    11748.147    4.3650157    4.3650157    4.3650157    11748.147    24883.211   -7406.9962    17768.225    -2399.898   -3075.3359   -11749.722    83.168224 
   24200    701.69161   -107.24781   0.63490532   -106.61291   -5082.6927    4.3953903    4.3953903    4.3953903   -5082.6927   -1943.7938   -23817.249    10512.964   -12814.511   -1868.0427   -3746.7972    84.916551 
   24300    1347.6998   -107.82249    1.2194271   -106.60306   -17650.468    4.3914126    4.3914126    4.3914126   -17650.468   -25929.384   -1465.1516   -25556.868   -4717.1999   -9999.1275   -7364.7022    84.686219 
   24400    1356.5613   -107.82656    1.2274451   -106.59911     5840.176    4.3760301    4.3760301    4.3760301     5840.176     26162.97   -18800.209    10157.767    6803.7903    1012.3049   -9723.5014    83.799399 
   24500    1095.7423   -107.60049   0.99145066   -106.60904   -5973.8567    4.3804225    4.3804225    4.3804225   -5973.8567   -14590.552   -634.16068   -2696.8574   -14576.611   -6377.7683      -7820.1    84.051989 
   24600    1489.4722   -107.94881    1.3477058    -106.6011   -9892.3568    4.3788249    4.3788249    4.3788249   -9892.3568    1216.7037   -1994.7565   -28899.018    7338.6465    17095.332    5360.6236    83.960058 
   24700    562.58975    -107.1177   0.50904303   -106.60865   -60.878042    4.3873413    4.3873413    4.3873413   -60.878042   -21733.053   -1735.9682    23286.387   -8993.2235    -6962.046   -3159.6609    84.450894 
   24800    1829.2812   -108.24915    1.6551721   -106.59398   -22670.596    4.3853384    4.3853384    4.3853384   -22670.596   -41378.563   -2653.4988   -23979.727    3455.0042    13520.168    6535.0021    84.335288 
   24900    1027.5043   -107.52862   0.92970751   -106.59892    6784.1826    4.3840892    4.3840892    4.3840892    6784.1826    11126.332    8941.5485     284.6671   -3503.5088    903.85755    7578.3767    84.263238 
   25000    869.08523    -107.3828   0.78636658   -106.59644    12927.107    4.3748807    4.3748807    4.3748807    12927.107    24092.371   -38.542139    14727.493    2546.5369    2784.4596    2514.1615    83.733386 
   25100    1544.9684   -107.99384    1.3979199   -106.59592   -5496.5272     4.384148     4.384148     4.384148   -5496.5272   -2055.6653    2298.4387   -16732.355   -4370.1538   -6267.7746    12480.023    84.266629 
   25200    864.78547   -107.38062   0.78247606   -106.59814    4143.2273    4.3959926    4.3959926    4.3959926    4143.2273    2448.8653      -8117.9    18098.716    1404.0443   -9324.7402    3335.5725    84.951463 
   25300     1571.716   -107.99974    1.4221216   -106.57761   -20273.771    4.3823193    4.3823193    4.3823193   -20273.771   -15628.672   -2964.2824   -42228.359    9574.1223     5435.563    9281.9354    84.161225 
   25400    748.07815   -107.25969   0.67687683   -106.58281    9390.3779    4.3768831    4.3768831    4.3768831    9390.3779    20023.269   -11803.642    19951.507    669.31959   -9627.8781    4531.6489     83.84841 
   25500    1318.6047   -107.78731    1.1931013   -106.59421   -27109.708    4.3860195    4.3860195    4.3860195   -27109.708   -42749.676   -32857.571   -5721.8778   -6613.7925      1298.17     2181.072    84.374592 
   25600    1210.8442   -107.68385    1.0955972   -106.58825    18925.883     4.388719     4.388719     4.388719    18925.883    43243.016    28957.299   -15422.667    41.851032   -728.00122   -5668.7127    84.530478 
   25700    1239.6245   -107.71133    1.1216383   -106.58969   -11520.803    4.3860725    4.3860725    4.3860725   -11520.803   -31950.433    32346.457   -34958.435   -20998.553   -2239.7034   -8845.3401    84.377648 
   25800      1185.92   -107.66806    1.0730453   -106.59501    2303.6544    4.3784691    4.3784691    4.3784691    2303.6544    7889.0209    6837.4565   -7815.5143   -2161.5338    9800.5397   -1569.1818    83.939595 
   25900    877.14817   -107.40603    0.7936621   -106.61236     2288.909    4.3893133    4.3893133    4.3893133     2288.909    19263.186   -10696.357   -1700.1021    62.298558      1594.09    3001.1923    84.564823 
   26000    1497.4491   -107.96003    1.3549235   -106.60511   -26963.424    4.3824623    4.3824623    4.3824623   -26963.424   -34796.196    -12175.44   -33918.637   -6829.8513     8791.191    6198.2501    84.169466 
   26100     1163.686   -107.64678    1.0529276   -106.59386    18454.131    4.3772002    4.3772002    4.3772002    18454.131    24646.723     15863.42    14852.249    2063.0426   -4719.3462    3510.1315    83.866638 
   26200    1014.9394   -107.51602   0.91833854   -106.59768   -5932.2396    4.3897391    4.3897391    4.3897391   -5932.2396   -11274.283    15473.658   -21996.094   -17760.618    1618.0541    2008.9193    84.589437 
   26300    1099.2897   -107.58493   0.99466044   -106.59027    8612.1334    4.3879883    4.3879883    4.3879883    8612.1334    12318.414   -7512.0001    21029.986   -13659.552   -8409.3827    3832.3177    84.488264 
   26400    1587.6694   -108.02387    1.4365566   -106.58731      3952.35    4.3801377    4.3801377    4.3801377      3952.35   -883.84425    40578.446   -27837.551    9741.3741   -421.48602    -5303.682    84.035599 
   26500    941.31381   -107.45033   0.85172052   -106.59861    17572.689    4.3754321    4.3754321    4.3754321    17572.689    16894.424    7511.8807    28311.762   -11557.478   -2370.6416    597.86527    83.765048 
   26600    1015.0061   -107.52493   0.91839885   -106.60653   -1273.2491    4.3885736    4.3885736    4.3885736   -1273.2491    19200.557    -3773.524    -19246.78     15926.69   -4331.2762    1272.2387    84.522079 
   26700    1046.1725   -107.55184   0.94659883   -106.60524   -729.41652    4.3944569    4.3944569    4.3944569   -729.41652   -23546.584    26452.943   -5094.6086    6779.7789    2232.7273    5289.8061    84.862461 
   26800    1301.1184   -107.77731    1.1772793   -106.60003   -11943.947     4.386679     4.386679     4.386679   -11943.947    20367.543   -17942.278   -38257.106   -15630.473   -9987.4682    2121.3704    84.412657 
   26900    1143.4563   -107.62776    1.0346233   -106.59313    17133.365    4.3846948    4.3846948    4.3846948    17133.365    29698.057   -9041.1473    30743.184   -2237.2635    5021.3382   -2396.0725    84.298163 
   27000     1301.299    -107.7708    1.1774427   -106.59336   -35194.592    4.3922116    4.3922116    4.3922116   -35194.592   -36553.979   -40220.919   -28808.878    -16417.79   -1119.9409    3323.4296    84.732453 
   27100    1283.8618   -107.75289    1.1616651   -106.59123    8612.8249    4.3855281    4.3855281    4.3855281    8612.8249    25932.484    1116.2097   -1210.2185    875.20004   -4171.9835    158.37479    84.346233 
   27200    1264.0403   -107.73942    1.1437302   -106.59568    17814.048    4.3796975    4.3796975    4.3796975    17814.048    3666.7603    38235.621    11539.762    1999.2251   -7904.9182   -5254.8621    84.010262 
   27300    1226.2601   -107.71397    1.1095459   -106.60442   -15162.339    4.3841455    4.3841455    4.3841455   -15162.339   -35957.328      10622.5   -20152.188   -13246.376   -4421.4386   -10503.406    84.266484 
   27400    1044.5632   -107.54641   0.94514273   -106.60126    13686.242     4.387386     4.387386     4.387386    13686.242    37306.642   -1838.4656    5590.5497    18007.056   -2595.9533   -9607.8271    84.453478 
   27500    1448.1994   -107.90661    1.3103613   -106.59625   -28191.136    4.3878598    4.3878598    4.3878598   -28191.136   -27429.795   -21576.939   -35566.674    -22151.13   -4162.5504   -771.27537    84.480839 
   27600    1385.3021   -107.84044    1.2534504   -106.58699    -3630.934    4.3843605    4.3843605    4.3843605    -3630.934    -8096.767   -3371.6982    575.66315   -2694.7915   -3886.8283   -8652.2493    84.278881 
   27700    917.07253   -107.41993   0.82978649   -106.59014   -1522.1003    4.3824453    4.3824453    4.3824453   -1522.1003    30668.085   -2142.8872   -33091.499   -2796.9101     5436.343    1865.3052    84.168488 
   27800    1279.3749   -107.74762    1.1576053   -106.59002    -10352.51    4.3797923    4.3797923    4.3797923    -10352.51   -35915.465    35432.772   -30574.838   -18472.857   -1346.0405    -5254.977    84.015719 
   27900    1263.6661   -107.73547    1.1433917   -106.59208    24300.085    4.3861449    4.3861449    4.3861449    24300.085    34612.881    61316.267   -23028.892    9479.5255     657.1656     692.4526     84.38183 
   28000      1274.79   -107.74227    1.1534568   -106.58881   -29566.557    4.3921938    4.3921938    4.3921938   -29566.557   -14140.104    -39821.92   -34737.647   -16876.533   -3492.6656    2456.3845    84.731417 
   28100    700.18903    -107.2195   0.63354575   -106.58595    33725.617    4.3754542    4.3754542    4.3754542    33725.617     12122.38    85775.279    3279.1941    8891.9859   -8394.2223     9443.928     83.76632 
   28200    1465.0312   -107.92013     1.325591   -106.59454   -3462.0175    4.3804295    4.3804295    4.3804295   -3462.0175    14307.556    352.26281   -25045.871    6990.5092   -5841.9783     1128.493    84.052396 
   28300    1205.6245   -107.69042    1.0908743   -106.59954    15913.527    4.3913492    4.3913492    4.3913492    15913.527    1719.8654     54485.45   -8464.7348   -9620.3258   -12886.507    1946.0504    84.682552 
   28400    978.59685   -107.47811   0.88545499   -106.59265   -15174.211     4.394485     4.394485     4.394485   -15174.211   -14251.576    2257.8537   -33528.911   -4014.8317   -6812.1508   -5539.2469    84.864093 
   28500    949.89932     -107.442   0.85948886   -106.58251     3244.282     4.371425     4.371425     4.371425     3244.282    11669.833      5847.56   -7784.5474   -9500.7945   -4305.7166   -2606.6169     83.53512 
   28600    1519.1399   -107.96251    1.3745497   -106.58796    11960.319    4.3725489    4.3725489    4.3725489    11960.319   -10236.618    51534.357   -5416.7818   -2311.1249   -7796.1053   -7442.6537    83.599569 
   28700    876.61597   -107.40149   0.79318055   -106.60831    9346.2723    4.3886545    4.3886545    4.3886545    9346.2723    -19789.51    96082.412   -48254.085    12944.773    4148.6135   -3422.6334    84.526748 
   28800    1199.9526   -107.68741    1.0857423   -106.60167   -19155.135    4.3823314    4.3823314    4.3823314   -19155.135   -21826.158   -16526.344   -19112.902   -17562.775   -1755.0122   -6.3139956    84.161923 
   28900    953.99047   -107.45949   0.86319062    -106.5963    2076.3916      4.37636      4.37636      4.37636    2076.3916    24558.181   -16007.119   -2321.8874   -2648.0454    6840.3191    5012.4949    83.818353 
   29000    1410.6122   -107.87405    1.2763515   -106.59769   -2447.9784    4.3839659    4.3839659    4.3839659   -2447.9784   -9256.6087    43035.595   -41122.921    5936.4982    3088.7804   -9445.7219    84.256126 
   29100    1246.3145   -107.72494    1.1276916   -106.59725    13717.295    4.3852564    4.3852564    4.3852564    13717.295    21371.433    52345.065   -32564.614    4997.0825    3495.0761    4855.0184    84.330559 
   29200    1273.0753   -107.75224    1.1519053   -106.60033   -13760.714    4.3767073    4.3767073    4.3767073   -13760.714   -11665.106   -8198.4577   -21418.577    -3033.984    9071.0861   -9815.5676    83.838308 
   29300    1151.0375   -107.66168    1.0414829    -106.6202   -8181.3636    4.3861525    4.3861525    4.3861525   -8181.3636   -2726.6321    7389.8554   -29207.314   -5063.7705    1452.6274   -2900.3233    84.382267 
   29400    1346.8183   -107.83217    1.2186295   -106.61354   -2551.3574    4.3887674    4.3887674    4.3887674   -2551.3574   -23776.083     52612.13   -36490.118   -11571.537    7320.0262    654.23355    84.533277 
   29500    1456.6053   -107.92148    1.3179671   -106.60351   -4532.2927    4.3826153    4.3826153    4.3826153   -4532.2927   -10699.701    30796.903    -33694.08    17563.279   -2221.0458   -7707.5375    84.178281 
   29600    1212.9044   -107.69652    1.0974613   -106.59906   -8762.0974    4.3795978    4.3795978    4.3795978   -8762.0974   -11571.132    22856.229    -37571.39    3268.5764    10485.318    21939.627    84.004525 
   29700     636.6232   -107.18935   0.57603005   -106.61332   -4529.9613    4.3796346    4.3796346    4.3796346   -4529.9613    13369.816    6681.5473   -33641.247    4622.5738    4198.7755   -14357.599    84.006645 
   29800    1672.7726   -108.11781    1.5135598   -106.60425   -634.98727    4.3744532    4.3744532    4.3744532   -634.98727   -26096.472    57525.303   -33333.792    5616.5972    1329.0494     10452.46    83.708839 
   29900    1266.8951   -107.75666    1.1463133   -106.61035    3787.7307    4.3778782    4.3778782    4.3778782    3787.7307    5166.5504    49354.546   -43157.904   -15314.766   -520.73983   -982.21501    83.905615 
   30000    1132.4974   -107.63424    1.0247074   -106.60953    9355.2256    4.3759896    4.3759896    4.3759896    9355.2256   -23884.108    71461.459   -19511.674    9782.6885   -3430.1558   -8294.2771    83.797071 
   30100    803.22066   -107.34151   0.72677093   -106.61474    6847.2892    4.3824641    4.3824641    4.3824641    6847.2892    10947.183     36251.01   -26656.326    2597.2097    1742.8511     8571.191     84.16957 
   30200    1758.5026   -108.19336    1.5911301   -106.60222   -26171.916    4.3899203    4.3899203    4.3899203   -26171.916   -19776.683   -10291.018   -48448.048    5313.1005   -6462.5529   -18127.432    84.599908 
   30300    970.02039     -107.476   0.87769483    -106.5983    10397.709    4.3814219    4.3814219    4.3814219    10397.709   -12227.469    76761.939   -33341.342     2561.291    3139.3259   -5485.2401    84.109535 
   30400    1067.9328   -107.57127   0.96628802   -106.60498    4113.7932    4.3785541    4.3785541    4.3785541    4113.7932   -21253.986    47278.274   -13682.908    6248.9078   -12063.238    2221.0278    83.944482 
   30500    1223.4258   -107.71107    1.1069814   -106.60409   -710.94427    4.3886591    4.3886591    4.3886591   -710.94427    5035.5655    29928.064   -37096.462   -7688.3611    6992.0242   -5706.1248    84.527015 
   30600    1398.0819   -107.87551    1.2650138    -106.6105   -16982.502    4.3820565    4.3820565    4.3820565   -16982.502   -27005.355    15072.064   -39014.214   -3472.5847   -2800.1262    6073.4388    84.146083 
   30700    1188.8322   -107.69402    1.0756804   -106.61834    20223.223    4.3772561    4.3772561    4.3772561    20223.223    734.82147    66929.353   -6994.5059    9229.8454     -7178.58    -8517.573     83.86985 
   30800    1001.3084   -107.52462   0.90600486   -106.61862    4718.9355     4.378349     4.378349     4.378349    4718.9355   -26127.794    86917.952   -46633.352     2586.663    8096.6506   -3872.8762     83.93269 
   30900    1291.1888   -107.78267    1.1682947   -106.61437   -5921.2708      4.38145      4.38145      4.38145   -5921.2708    13873.462    9980.4745   -41617.749   -1826.2845   -7933.0012   -5657.8727    84.111154 
   31000    1388.9984   -107.87045     1.256795   -106.61366   -14133.419    4.3846094    4.3846094    4.3846094   -14133.419   -28954.255    32436.272   -45882.276    5768.1458    9548.9196   -1.2168025    84.293237 
   31100    1178.3278   -107.68787    1.0661758    -106.6217   -11641.655    4.3679647    4.3679647    4.3679647   -11641.655   -51188.185    48165.775   -31902.556    14707.137   -7817.2507    10188.495    83.336901 
   31200    1210.6104   -107.72172    1.0953858   -106.62633    31299.378    4.3609288    4.3609288    4.3609288    31299.378    7540.1881     104072.5   -17714.559    13831.935    8950.2673    6716.9133    82.934836 
   31300    1004.5042   -107.54397   0.90889652   -106.63507   -17291.235    4.3987869    4.3987869    4.3987869   -17291.235   -27458.065    35036.255   -59451.895   -9982.8923    -2506.942   -10967.643    85.113563 
   31400    1347.7009   -107.83393    1.2194281   -106.61451   -3804.1867    4.3787263    4.3787263    4.3787263   -3804.1867   -37508.149    60924.194   -34828.605    7918.2165    941.91647   -1814.3538    83.954385 
   31500    965.57951   -107.48609   0.87367663   -106.61242    33016.651    4.3598182    4.3598182    4.3598182    33016.651     17964.07    105624.19   -24538.302   -6554.4936    9208.5344   -4123.9528    82.871491 
   31600    1945.8381   -108.38044    1.7606352    -106.6198   -23770.782    4.3828991    4.3828991    4.3828991   -23770.782   -31963.729    6863.7735    -46212.39   -7185.9203   -2248.2917    8522.6413    84.194635 
   31700    832.46363   -107.37675   0.75323058   -106.62352   -21893.476    4.3912006    4.3912006    4.3912006   -21893.476   -43018.668    20983.188   -43644.948    1550.3215    7619.8119     4724.256    84.673954 
   31800    935.51396    -107.4468   0.84647269   -106.60033    31606.218    4.3672821    4.3672821    4.3672821    31606.218    46593.854    64457.881    -16233.08   -5885.2376    1814.1605   -833.97573    83.297837 
   31900    1603.9822   -108.05432    1.4513168   -106.60301    -17484.27    4.3807139    4.3807139    4.3807139    -17484.27   -46527.118    37017.222   -42942.913    583.25083    4618.7966   -5914.5916    84.068767 
   32000    1023.8674   -107.53539   0.92641674   -106.60897    12231.786    4.3869884    4.3869884    4.3869884    12231.786    7170.5934    71488.563   -41963.799    7892.4231   -918.24237   -248.20099     84.43052 
   32100    1584.4248   -108.03384    1.4336209   -106.60022   -28684.505    4.3787408    4.3787408    4.3787408   -28684.505   -28217.142   -32255.094   -25581.277    1608.3441    2632.8496   -12054.033    83.955219 
   32200    967.08193   -107.48042   0.87503606   -106.60538   -11773.745    4.3722868    4.3722868    4.3722868   -11773.745   -42384.852    28827.359    -21763.74   -7086.8349    7495.2073   -2786.7407    83.584532 
   32300    1066.7478   -107.57188   0.96521586   -106.60667    9435.2191    4.3769232    4.3769232    4.3769232    9435.2191   -12411.132    57589.762   -16872.972    1036.7261   -1178.4425   -2286.2997    83.850717 
   32400    1434.1791   -107.89881    1.2976754   -106.60113   -8672.7286    4.3856803    4.3856803    4.3856803   -8672.7286   -22159.984    37766.033   -41624.234    -7100.198    3949.7398     12769.04    84.355017 
   32500    1268.2417   -107.74218    1.1475318   -106.59464    3351.2352    4.3812179    4.3812179    4.3812179    3351.2352   -39317.982    74163.899   -24792.211   -13935.602    2258.1673   -3692.6718    84.097788 
   32600    670.12733   -107.21244   0.60634529    -106.6061   -7657.0914     4.377129     4.377129     4.377129   -7657.0914   -3933.2987    6682.7145    -25720.69   -12817.776   -854.14749   -7832.6716    83.862547 
   32700      1459.57   -107.93107    1.3206497   -106.61042    3644.3214    4.3770033    4.3770033    4.3770033    3644.3214    -23914.76     71288.69   -36440.966   -2689.6978   -3965.0175    6575.3854    83.855322 
   32800    1629.2559   -108.08983     1.474185   -106.61564   -8733.0984     4.383939     4.383939     4.383939   -8733.0984   -7393.4829    20772.132   -39577.944    11868.021   -3836.9384   -2872.3312    84.254577 
   32900    1156.8347   -107.66914    1.0467283   -106.62241   -3461.4594    4.3786366    4.3786366    4.3786366   -3461.4594   -40667.613    35826.733   -5543.4983   -10909.188    1662.0627    -3145.513    83.949226 
   33000    959.60921   -107.49334   0.86827458   -106.62507    13111.207     4.376957     4.376957     4.376957    13111.207   -52832.874    101475.08   -9308.5842   -4716.4195   -3754.6381   -7131.2866    83.852657 
   33100     1264.324   -107.77286    1.1439869   -106.62888   -2331.4719    4.3722219    4.3722219    4.3722219   -2331.4719   -6663.9723    25900.027    -26230.47   -3769.0728    821.33641    1487.6731    83.580811 
   33200     1276.329   -107.77791    1.1548493   -106.62306   -19426.258    4.3824186    4.3824186    4.3824186   -19426.258   -51970.124    3428.9447   -9737.5941      5164.55   -4293.4454   -2784.6622    84.166945 
   33300    1293.9178   -107.79002     1.170764   -106.61926   -7289.3802    4.3782779    4.3782779    4.3782779   -7289.3802    -61059.95    53287.549    -14095.74    12118.302    5540.6517    11346.317    83.928601 
   33400    1184.9631   -107.69077    1.0721795   -106.61859    6788.2042    4.3844496    4.3844496    4.3844496    6788.2042   -21568.564    54522.645   -12589.468    946.59776    -2502.009   -15508.754    84.284019 
   33500    989.66965   -107.50594    0.8954739   -106.61046    -3259.809    4.3957805    4.3957805    4.3957805    -3259.809   -61083.982    83398.223   -32093.668    3163.0791   -1731.5789   -4735.5901    84.939169 
   33600    1571.5297   -108.02187    1.4219531   -106.59992   -32489.572    4.3873569    4.3873569    4.3873569   -32489.572   -70405.013   -3264.6345   -23799.068    6902.6084    4447.2918   -11883.249    84.451794 
   33700    1191.8973   -107.68457    1.0784537   -106.60612    31574.839    4.3694313    4.3694313    4.3694313    31574.839   -24309.823    105942.31    13092.032    -1704.328     4281.057    10155.027    83.420873 
   33800    1022.0105   -107.54584   0.92473658    -106.6211   -15039.743    4.3949352    4.3949352    4.3949352   -15039.743    -46163.68    17943.847   -16899.397    7371.2815    390.00894   -4345.5018    84.890174 
   33900    1375.0288   -107.83558     1.244155   -106.59143   -31326.101    4.3965357    4.3965357    4.3965357   -31326.101   -57487.044   -11191.821   -25299.439    -4281.669   -4674.9695      15953.1    84.982952 
   34000    741.90527   -107.24916   0.67129148   -106.57787    23989.665     4.379021     4.379021     4.379021    23989.665   -30722.196    102548.01    143.18347    2011.7643    9993.2171   -2596.9597    83.971338 
   34100    1208.3957   -107.68714    1.0933818   -106.59376    22675.419    4.3816528    4.3816528    4.3816528    22675.419   -18268.444    70622.144    15672.556   -2798.6102   -7095.6223    793.81137    84.122832 
   34200    1665.3407   -108.11472    1.5068352   -106.60789   -25390.207    4.3783861    4.3783861    4.3783861   -25390.207   -50961.601   -1279.3641   -23929.655   -16.488516    1470.4778    -7955.291    83.934821 
   34300    891.85183   -107.44066   0.80696628   -106.63369   -2056.6526    4.3805643    4.3805643    4.3805643   -2056.6526   -29045.421     8540.891    14334.573    16047.278    3984.9288     2229.724    84.060153 
   34400    1269.4917   -107.76624    1.1486628   -106.61757    8925.1012    4.3903559    4.3903559    4.3903559    8925.1012   -26936.103    65475.874   -11764.468   -7754.1709   -4939.9153   -94.440508    84.625099 
   34500    1372.0159   -107.84562    1.2414288   -106.60419   -26914.899    4.3897607    4.3897607    4.3897607   -26914.899    -59629.11   -15960.841   -5154.7451    11830.853    12243.121    8874.8939    84.590683 
   34600    973.61762    -107.4697   0.88094969   -106.58875    33580.897     4.368321     4.368321     4.368321    33580.897   -8965.0115    91155.938    18551.766     1545.637   -4163.5072    -3375.967      83.3573 
   34700    1225.5732   -107.70689    1.1089244   -106.59796   -28911.092    4.3830118    4.3830118    4.3830118   -28911.092   -58035.017     -25042.2   -3656.0578    2416.8589    5945.4101    11994.447    84.201128 
   34800    1038.6112   -107.53908   0.93975727   -106.59932   -18479.541    4.3901437    4.3901437    4.3901437   -18479.541   -40304.454   -6176.3524   -8957.8155    4269.4284   -4588.0752    -446.0934    84.612827 
   34900    1412.4637   -107.86851    1.2780268   -106.59049    5227.0641     4.374024     4.374024     4.374024    5227.0641   -17253.463    27451.658    5482.9973   -3138.5414   -6760.7376    -9756.935    83.684201 
   35000    1266.8793   -107.74622     1.146299   -106.59992   -17790.224    4.3821888    4.3821888    4.3821888   -17790.224   -54914.658    6608.8988   -5064.9136    1277.3469    7056.7071   -6187.7444    84.153708 
   35100    1039.8201   -107.54445   0.94085108   -106.60359    9362.7365    4.3821731    4.3821731    4.3821731    9362.7365   -31517.511    50825.308    8780.4124    1604.0752    -7389.945    2022.4968    84.152806 
   35200    1242.2551   -107.72836    1.1240185   -106.60434    12332.446    4.3774292    4.3774292    4.3774292    12332.446   -24618.605    71357.523   -9741.5798   -6789.6786    311.80801   -11357.515    83.879803 
   35300    1341.1391   -107.81857    1.2134908   -106.60508   -19401.409     4.381352     4.381352     4.381352   -19401.409   -33940.344   -9420.5137    -14843.37    3222.3736    1054.1285    2349.5435    84.105511 
   35400    1331.4984   -107.81156    1.2047677    -106.6068   -4529.8385    4.3778784    4.3778784    4.3778784   -4529.8385   -54425.975    55065.322   -14228.863   -13701.403   -1104.4749    6908.7561    83.905627 
   35500    910.85523   -107.44113   0.82416095   -106.61697   -2356.2473    4.3847952    4.3847952    4.3847952   -2356.2473   -6473.0149    28506.939   -29102.666   -6791.4841   -472.80946   -23476.073    84.303955 
   35600     1463.233   -107.92965    1.3239639   -106.60568   -34135.903     4.383488     4.383488     4.383488   -34135.903   -42559.295   -20705.908   -39142.506    3607.5481    2415.5044    3842.0125     84.22858 
   35700    983.52884   -107.48857   0.88991756   -106.59865    2703.0135    4.3752548    4.3752548    4.3752548    2703.0135   -38657.968    27291.959     19475.05   -21267.105   -2758.0904   -15412.312    83.754866 
   35800    1341.5819   -107.81272    1.2138915   -106.59883   -10566.979    4.3764594    4.3764594    4.3764594   -10566.979    13446.302   -14922.592   -30224.645    11562.847    6594.9148    8154.0704    83.824064 
   35900    1385.9007   -107.85687    1.2539921   -106.60288   -14641.902    4.3865008    4.3865008    4.3865008   -14641.902   -49504.915   -9711.4343    15290.643   -14978.166   -638.97658    1793.4175     84.40237 
   36000    1140.1369   -107.62469    1.0316198   -106.59307    4330.5675    4.3813514    4.3813514    4.3813514    4330.5675    5318.7216    37573.531    -29900.55   -404.41126    1956.8724    406.05537    84.105473 
   36100    798.17896   -107.31971    0.7222091    -106.5975    6909.3562     4.381924     4.381924     4.381924    6909.3562    -26960.46    28543.871    19144.658    3441.3448   -211.32734    9456.5581    84.138451 
   36200    1702.4804   -108.13442    1.5404401   -106.59398   -11453.881    4.3838104    4.3838104    4.3838104   -11453.881   -10625.957   -11249.558   -12486.128    913.93863   -9282.7649    -10727.43    84.247164 
   36300    918.86778   -107.43602   0.83141088   -106.60461    271.12601    4.3871331    4.3871331    4.3871331    271.12601   -22080.828    6516.3368    16377.869    1314.4626    -2796.788     6944.525    84.438876 
   36400    1105.9201   -107.60233    1.0006598   -106.60167   -2886.9757    4.3792009    4.3792009    4.3792009   -2886.9757   -40759.524    13188.311    18910.286   -8928.2873     4421.598   -1295.9749     83.98169 
   36500    1543.0136   -107.99352    1.3961512   -106.59737   -54.459111    4.3850874    4.3850874    4.3850874   -54.459111   -24106.316     11768.49    12174.449   -7173.6215    3541.7315   -1280.7367    84.320807 
   36600    1224.6969   -107.69848    1.1081315   -106.59035    4507.1071    4.3816607    4.3816607    4.3816607    4507.1071   -26102.226    3998.9712    35624.576   -13429.998    6143.7788   -9936.3083    84.123284 
   36700     1134.247    -107.6109    1.0262905   -106.58461   -3764.9332    4.3833838    4.3833838    4.3833838   -3764.9332   -35889.949    30480.193   -5885.0439    1985.3263    1311.7839    6913.0106     84.22257 
   36800    921.68519   -107.41588   0.83396013   -106.58192    6447.6829     4.389663     4.389663     4.389663    6447.6829   -17405.996   -13930.952    50679.996   -5353.2831   -4031.3935    7727.8009    84.585038 
   36900    1553.6535    -107.9837    1.4057784   -106.57792   -8536.8996    4.3759675    4.3759675    4.3759675   -8536.8996   -19158.948   -162.24271   -6289.5075   -16716.222    14049.451   -2609.3766    83.795803 
   37000    1211.4045   -107.68358    1.0961042   -106.58748    12080.286    4.3851497    4.3851497    4.3851497    12080.286   -552.43999   -7735.2756    44528.573    5930.2625    9310.6167    9539.7502    84.324402 
   37100    858.91107   -107.36742   0.77716079   -106.59026   -4337.5649    4.3875361    4.3875361    4.3875361   -4337.5649   -30487.651   -16549.635    34024.592   -5684.8037   -5949.4499    8127.8773    84.462144 
   37200    1237.0894   -107.70405    1.1193445   -106.58471    6637.7397    4.3738169    4.3738169    4.3738169    6637.7397   -28536.567    8356.2131    40093.573    898.41609    12577.437    15481.627    83.672317 
   37300     1403.099   -107.86428    1.2695534   -106.59472   -1801.5171    4.3844107    4.3844107    4.3844107   -1801.5171   -16630.254   -17846.276    29071.979   -8838.3047    -8611.087    -6879.612    84.281779 
   37400    1172.6692   -107.65348    1.0610558   -106.59243   -8903.4108    4.3824304    4.3824304    4.3824304   -8903.4108   -32355.674   -28405.071    34050.513    1564.3804    3655.2528    5240.9328    84.167626 
   37500    1329.2044   -107.79756    1.2026921   -106.59487    -13364.69    4.3880373    4.3880373    4.3880373    -13364.69   -43903.396   -3178.9861    6988.3105    7864.3608   -8799.6934   -13730.778    84.491094 
   37600    1167.6726   -107.64828    1.0565347   -106.59174    11171.335    4.3832552    4.3832552    4.3832552    11171.335   -19631.027   -22900.757    76045.789   -2906.2894    2591.6993   -5655.7882    84.215157 
   37700      859.005   -107.37126   0.77724577   -106.59401    20258.182    4.3818307    4.3818307    4.3818307    20258.182   -8239.0847    24549.172     44464.46    12875.619    14213.995    1522.7392    84.133077 
   37800    1663.3679   -108.09294    1.5050502   -106.58789   -28101.913    4.3914252    4.3914252    4.3914252   -28101.913   -54232.306   -22413.137    -7660.295    1522.8172   -17785.997    3166.1588    84.686948 
   37900    766.40118   -107.28596   0.69345589    -106.5925    30337.793    4.3759712    4.3759712    4.3759712    30337.793    27776.271   -9711.4667    72948.575    5496.1436    10941.197    11888.065    83.796013 
   38000    1445.0427   -107.90323     1.307505   -106.59573   -9700.0542    4.3829693    4.3829693    4.3829693   -9700.0542    2629.4995    19491.827   -51221.489    6356.7861   -3225.1103    1131.4703    84.198681 
   38100    1252.4542   -107.72278    1.1332469   -106.58953   -103.78957    4.3919582    4.3919582    4.3919582   -103.78957   -13000.582   -7369.7864    20058.999     978.8774   -8177.4939   -4313.1861    84.717788 
   38200    1119.1004   -107.59065    1.0125855   -106.57807    11506.129    4.3839598    4.3839598    4.3839598    11506.129     18870.51     10456.32    5191.5578    2358.2065    9998.2015    8285.5746    84.255777 
   38300    1303.0818   -107.75187    1.1790558   -106.57281   -189.01743    4.3874964    4.3874964    4.3874964   -189.01743    376.06313   -17333.034    16389.918    5219.5784   -11184.666   -12584.221    84.459853 
   38400    1192.1392   -107.65856    1.0786726   -106.57989   -9251.2622    4.3881421    4.3881421    4.3881421   -9251.2622    15200.422   -35988.977   -6965.2323    1742.1652    -3774.345    4550.6924    84.497146 
   38500    1297.2849   -107.75975    1.1738107   -106.58594    -11870.08    4.3811686    4.3811686    4.3811686    -11870.08   -4720.9711   -34931.236    4041.9681     6378.456    8582.3637    21387.614    84.094948 
   38600    1282.7303   -107.75248    1.1606413   -106.59184    780.12691    4.3824032    4.3824032    4.3824032    780.12691   -12488.564   -15507.385     30336.33   -6301.3824    6552.4208   -4012.3698    84.166059 
   38700    1063.5961   -107.55242   0.96236411   -106.59006   -8221.2193    4.3869545    4.3869545    4.3869545   -8221.2193    37005.441   -46448.379    -15220.72   -2805.9574    2595.4838    19116.074     84.42856 
   38800    1293.0799   -107.75035    1.1700059   -106.58034   -13102.324    4.3842223    4.3842223    4.3842223   -13102.324    -21229.98   -40764.371    22687.377   -7571.1635   -2998.9168    3715.9867    84.270915 
   38900    1157.3204   -107.63748    1.0471678   -106.59031   -7723.8527    4.3798828    4.3798828    4.3798828   -7723.8527    29613.569   -50316.814   -2468.3132   -2625.4528   -3501.4651    8676.7414    84.020926 
   39000    1102.5418   -107.60058     0.997603   -106.60297   -17007.967    4.3843982    4.3843982    4.3843982   -17007.967    7696.5868   -31987.659   -26732.828   -5217.9479    9365.2887    2362.1567    84.281058 
   39100    1665.5639   -108.09616    1.5070372   -106.58912   -10544.488    4.3803334    4.3803334    4.3803334   -10544.488   -3727.2447   -19154.868   -8751.3517    11655.823    4194.3867   -7582.9493    84.046862 
   39200     782.5795       -107.3   0.70809438    -106.5919   -11096.588    4.3932159    4.3932159    4.3932159   -11096.588    3991.7642   -48474.413    11192.885    -3923.347    -5827.181    8397.9129    84.790585 
   39300    1338.7434   -107.78301    1.2113232   -106.57168   -1442.5385    4.3877964    4.3877964    4.3877964   -1442.5385   -20354.233   -7536.3091    23562.927    9107.5579    1476.4573   -683.88966     84.47718 
   39400    1159.2103   -107.62135    1.0488778   -106.57247    19356.016    4.3749877    4.3749877    4.3749877    19356.016    20614.673    26708.718    10744.656    11601.283   -8783.3458    990.16704    83.739528 
   39500    951.28895   -107.44943   0.86074623   -106.58868   -14984.306    4.3899213    4.3899213    4.3899213   -14984.306   -19589.994   -11129.385   -14233.538   -922.31804   -2529.3288    7831.8665    84.599971 
   39600    1554.5748   -107.98097    1.4066119   -106.57435   -14552.649    4.3922496    4.3922496    4.3922496   -14552.649   -7692.1122    -16206.12   -19759.716    13120.436     2253.541   -8674.3349    84.734647 
   39700    770.07385   -107.27359   0.69677901   -106.57681    32623.746    4.3787178    4.3787178    4.3787178    32623.746    25335.428    14980.137    57555.674   -2096.9326    1257.4619   -7404.1627    83.953901 
   39800    1321.2744    -107.7748    1.1955169   -106.57929    776.09169    4.3842734    4.3842734    4.3842734    776.09169   -29317.563   -21521.704    53167.542    4745.7384     7392.976   -5313.5116     84.27386 
   39900    1408.6718   -107.85992    1.2745959   -106.58533   -12906.657    4.3891124    4.3891124    4.3891124   -12906.657   -25430.343    -29612.92    16323.292    7357.6835    3091.0223    1665.5813    84.553213 
   40000    1176.1793   -107.67127    1.0642318   -106.60704    4298.5472    4.3825529    4.3825529    4.3825529    4298.5472     7601.545   -13657.341    18951.437    4822.5574   -4672.6034   -1959.7301    84.174682 
   40100    1384.2701   -107.86214    1.2525167   -106.60963   -3384.0365    4.3887961    4.3887961    4.3887961   -3384.0365   -29754.883   -24306.575    43909.349    9940.3258   -220.81041   -632.59009    84.534936 
   40200    631.28625   -107.17747   0.57120107   -106.60627    11635.562    4.3850279    4.3850279    4.3850279    11635.562    28473.386   -25728.531     32161.83   -2778.9912    8719.3358    9982.2744    84.317376 
   40300    1591.5897   -108.02776    1.4401038   -106.58766   -9326.8433    4.3861226    4.3861226    4.3861226   -9326.8433   -21413.553   -6254.1645   -312.81258    11123.164   -657.69573   -18252.381    84.380538 
   40400    1030.9935   -107.51872   0.93286461   -106.58586     9185.413    4.3960391    4.3960391    4.3960391     9185.413   -3279.8322   -34342.945    65179.016    2936.2828    6282.6189   -2855.5425     84.95416 
   40500    1132.9307   -107.60507    1.0250995   -106.57997    -5020.703    4.3833216    4.3833216    4.3833216    -5020.703   -2761.2126   -45690.456    33389.559    4371.7777    1311.5629   -1418.0985    84.218986 
   40600    1379.6832   -107.82552    1.2483663   -106.57715    5978.8025    4.3772405    4.3772405    4.3772405    5978.8025     9549.077    -1496.085    9883.4154    9318.3736    2357.1051   -5857.8457    83.868953 
   40700    1130.5784   -107.62677    1.0229711    -106.6038   -31410.224    4.3967239    4.3967239    4.3967239   -31410.224   -19280.516    -67768.32   -7181.8361   -2163.2115   -8446.5768    3357.5926    84.993867 
   40800     1375.651   -107.83482    1.2447179    -106.5901   -4085.7077    4.3916108    4.3916108    4.3916108   -4085.7077    22378.614   -45682.329    11046.592    8788.0919    6137.2308   -7285.1505    84.697684 
   40900    1175.8623   -107.64869     1.063945   -106.58475    13740.738    4.3762239    4.3762239    4.3762239    13740.738   -5738.3303   -13470.775    60431.319   -5540.6071    9102.8909   -2662.6126    83.810535 
   41000    1232.7764   -107.72235     1.115442   -106.60691   -4074.2164    4.3824409    4.3824409    4.3824409   -4074.2164    52064.373   -26322.821   -37964.202     1196.682    618.88144   -5264.7415    84.168234 
   41100    1353.4867   -107.84266    1.2246632     -106.618   -6701.8986    4.3966073    4.3966073    4.3966073   -6701.8986   -11407.347   -32222.879     23524.53   -6812.3505   -12860.884    2020.5332    84.987102 
   41200    838.90353   -107.36877   0.75905754   -106.60971    12663.483    4.3886628    4.3886628    4.3886628    12663.483    27834.021   -4132.3754    14288.804   -5142.9779    3548.4041   -5274.3937    84.527228 
   41300    1619.3285   -108.04823    1.4652024   -106.58302   -962.81891    4.3819232    4.3819232    4.3819232   -962.81891    -31125.02   -624.58905    28861.152   -9821.4896   -2681.2164    13639.231    84.138406 
   41400    1038.9695   -107.53267   0.94008142   -106.59259   -9203.3483    4.3883645    4.3883645    4.3883645   -9203.3483   -12557.097   -25258.186    10205.239    7845.6977    12378.292   -7893.3369    84.509996 
   41500    1227.8926   -107.70379     1.111023   -106.59277   -11669.619    4.3876405    4.3876405    4.3876405   -11669.619   -20315.858    -28698.51     14005.51   -7159.6039    3642.7514   -6225.4387    84.468174 
   41600    1164.0715   -107.65579    1.0532763   -106.60252    16032.895    4.3894667    4.3894667    4.3894667    16032.895    -25031.74   -16581.259    89711.685   -4870.7075    2270.0884    3921.1573    84.573692 
   41700    1457.8208   -107.92825    1.3190669   -106.60919   -37848.943    4.3865518    4.3865518    4.3865518   -37848.943   -27497.881   -56946.371   -29102.579    2543.5963    2877.8059   -93.641279    84.405314 
   41800    989.80726   -107.50342   0.89559841   -106.60782    19495.007    4.3785738    4.3785738    4.3785738    19495.007   -14762.161   -21478.516    94725.697   -5316.3512   -10033.807    898.46369    83.945614 
   41900    1033.8031   -107.54361   0.93540679    -106.6082   -1426.3354    4.3963033    4.3963033    4.3963033   -1426.3354     2214.115   -4174.4565   -2318.6647   -4780.0114    432.50398   -22321.104    84.969478 
   42000    1319.7684    -107.7797    1.1941542   -106.58554   -27362.077      4.39426      4.39426      4.39426   -27362.077   -43717.909   -29834.621   -8533.7008   -9810.2814   -3750.8323   -7443.5208    84.851055 
   42100    1388.3846   -107.82951    1.2562396   -106.57327    16239.678     4.377231     4.377231     4.377231    16239.678    17462.579    31682.012    -425.5576   -3198.6098    11480.996     9001.464    83.868406 
   42200    1020.8728   -107.51648   0.92370712   -106.59278    -11297.96    4.3955207    4.3955207    4.3955207    -11297.96   -16123.647   -16575.658   -1194.5759   -804.36685    1198.1196   -4602.7314    84.924108 
   42300    1059.4199   -107.53862   0.95858543   -106.58004    -5849.995    4.3989095    4.3989095    4.3989095    -5849.995   -13827.891   -15623.505    11901.411   -5776.8047   -2291.3966    6948.9273    85.120677 
   42400    1297.1618   -107.74471    1.1736992   -106.57101      10311.2    4.3850183    4.3850183    4.3850183      10311.2   -23167.986    34758.954    19342.631    5990.3193    15438.933   -6945.6147    84.316822 
   42500    965.16379   -107.46333   0.87330048   -106.59003    1408.0491    4.3868992    4.3868992    4.3868992    1408.0491    29588.536   -34966.151     9601.762   -12908.242   -8478.2437   -22135.122    84.425371 
   42600    1107.1607   -107.59914    1.0017823   -106.59735    9871.6645    4.3918695    4.3918695    4.3918695    9871.6645    -22522.99   -20535.199    72673.182    871.92643   -12998.282   -10335.763     84.71265 
   42700    1054.2913   -107.55646    0.9539449   -106.60251   -25298.398    4.3996283    4.3996283    4.3996283   -25298.398   -15543.479   -10629.897   -49721.817    319.54615    13813.669   -12846.931    85.162416 
   42800    919.44524    -107.4235   0.83193337   -106.59157    18290.771    4.3828851    4.3828851    4.3828851    18290.771    9186.8487   -1090.7987    46776.263    6337.4832    7193.0833    4240.2717    84.193826 
   42900      1444.83   -107.89105    1.3073126   -106.58374    5045.5287    4.3803748    4.3803748    4.3803748    5045.5287    6182.7725    21064.867   -12111.053    5190.8761   -16882.002    610.64815    84.049242 
   43000    781.36821    -107.2998   0.70699838   -106.59281    8554.3375    4.4022218    4.4022218    4.4022218    8554.3375    23909.282   -22927.317    24681.048   -6570.6487   -2559.2716   -1684.9507    85.313107 
   43100    955.32858   -107.43433   0.86440138   -106.56993    4662.5298      4.39935      4.39935      4.39935    4662.5298   -8363.9434   -11644.413    33995.946   -9752.4259    -7226.891    13388.145    85.146254 
   43200    1414.9134    -107.8493    1.2802434   -106.56905    3872.2168    4.3820867    4.3820867    4.3820867    3872.2168   -5250.1494    12764.372    4102.4279     1487.367   -760.38738   -17406.303    84.147828 
   43300    1220.3849   -107.69241    1.1042299   -106.58818    9900.3903    4.3841611    4.3841611    4.3841611    9900.3903   -9481.1503   -5973.2404    45155.562     -16780.6   -1624.4267   -5196.7777    84.267382 
   43400    969.20672   -107.46804   0.87695861   -106.59109   -5399.2458    4.3967694    4.3967694    4.3967694   -5399.2458   -45617.825    21717.325    7702.7616   -3559.5474    -4487.762   -12137.799    84.996506 
   43500    909.80694   -107.40422   0.82321244   -106.58101    1876.5448     4.400604     4.400604     4.400604    1876.5448    -8583.739   -3866.0621    18079.436   -17520.534   -14411.481   -6370.5992    85.219087 
   43600    1449.9336   -107.88109    1.3119304   -106.56916   -5373.9885    4.3891117    4.3891117    4.3891117   -5373.9885    29828.926   -2974.5997   -42976.292   -29969.378    -4457.654    3559.3606    84.553174 
   43700    867.42486   -107.36344   0.78486424   -106.57857     29422.74    4.3825345    4.3825345    4.3825345     29422.74    1742.1734    44506.561    42019.484   -4640.9545    16790.485    4134.7033    84.173624 
   43800    637.16165   -107.16866   0.57651725   -106.59214   -941.99572    4.4026588    4.4026588    4.4026588   -941.99572    1673.5766   -6650.1041    2150.5404   -15006.281     14957.28    13625.142    85.338517 
   43900    1197.2089    -107.6517    1.0832598   -106.56844    11132.416    4.3929703    4.3929703    4.3929703    11132.416   -5578.4851    17112.679    21863.054     -16781.1    2732.7413    9070.0269    84.776367 
   44000    1052.1241   -107.52517   0.95198399   -106.57319    18784.091    4.3878992    4.3878992    4.3878992    18784.091    61775.799   -11059.503    5635.9779   -8407.3753    35230.106    13496.583    84.483119 
   44100    948.50801    -107.4405   0.85822998   -106.58227   -4562.0937    4.3896924    4.3896924    4.3896924   -4562.0937   -14006.904    9989.0144    -9668.391   -6819.6147    1943.9553    2903.9875    84.586737 
   44200     1220.455   -107.68862    1.1042933   -106.58433   -2846.8874    4.3882531    4.3882531    4.3882531   -2846.8874    1090.6515    7066.6522   -16697.966   -7143.6182       2352.3   -6162.4328    84.503561 
   44300     1197.479   -107.66483    1.0835041   -106.58132    793.31467    4.3923149    4.3923149    4.3923149    793.31467    30087.907   -29746.554    2038.5906    2118.5249    18950.602    4438.3064    84.738427 
   44400    1648.7091    -108.0575    1.4917866   -106.56571   -18959.211    4.3817326    4.3817326    4.3817326   -18959.211    1407.0373   -10883.663   -47401.008    4240.2458   -16138.195   -15877.566    84.127427 
   44500    1012.0209    -107.4874   0.91569775    -106.5717   -1709.4015    4.3806734    4.3806734    4.3806734   -1709.4015    42307.256    -28390.41    -19045.05    -12920.18     2671.092   -9479.9267    84.066435 
   44600    1233.0496   -107.70499    1.1156892    -106.5893   -18346.617     4.397523     4.397523     4.397523   -18346.617    2481.6751   -38672.397    -18849.13    6618.6005   -7853.4753    921.67825    85.040216 
   44700    1607.9111   -108.04147    1.4548717    -106.5866   -34377.515    4.3918013    4.3918013    4.3918013   -34377.515    5039.8327   -52119.737   -56052.641   -7607.1366   -12754.177   -12857.677    84.708707 
   44800     993.2594   -107.48081   0.89872198   -106.58208    24598.977    4.3742164    4.3742164    4.3742164    24598.977    38823.318   -4052.8654     39026.48    7697.5149    15326.114    1027.4362    83.695249 
   44900    967.40631   -107.47303   0.87532956    -106.5977    19450.077    4.3842741    4.3842741    4.3842741    19450.077    42741.079   -24528.946    40138.097    8345.7768   -9382.0983   -6767.3314    84.273899 
   45000    1229.9204   -107.70436    1.1128578    -106.5915   -20099.636    4.4032044    4.4032044    4.4032044   -20099.636   -2446.1299   -58791.649    938.87104   -8346.4783   -9439.0485    3698.5163    85.370246 
   45100     1603.529   -108.03313    1.4509067   -106.58222    5466.5176    4.3776174    4.3776174    4.3776174    5466.5176    21921.084   -21790.071     16268.54    11326.577   -9205.5637     -6335.06    83.890619 
   45200    720.36718   -107.25663   0.65180336   -106.60483    5369.2244    4.3719379    4.3719379    4.3719379    5369.2244    50955.139   -12729.809   -22117.656   -16555.374   -6196.2006   -1269.1126    83.564528 
   45300     1386.642   -107.85986    1.2546628    -106.6052     -18398.4    4.3821786    4.3821786    4.3821786     -18398.4   -46840.073   -29247.641    20892.515   -4622.4401    8302.7634   -923.33096    84.153117 
   45400    1077.1937   -107.57587   0.97466745    -106.6012    2450.2182    4.3850026    4.3850026    4.3850026    2450.2182    26477.874    4357.8347   -23485.055   -5264.2853    14895.553    3478.5244    84.315914 
   45500    1422.1829    -107.8835     1.286821   -106.59668   -7913.8303    4.3871413    4.3871413    4.3871413   -7913.8303   -11587.023   -19566.688    7412.2209   -6395.4215   -8543.2952     6099.463    84.439345 
   45600    1114.3515   -107.59819    1.0082886    -106.5899    4044.4778    4.3782783    4.3782783    4.3782783    4044.4778   -8093.2254   -23518.368    43745.027    21845.539   -4037.8805    1408.4234    83.928621 
   45700     990.0672   -107.49123   0.89583361    -106.5954   -12215.695    4.3733373    4.3733373    4.3733373   -12215.695   -26474.038   -15033.738    4860.6908   -14092.825   -13812.185    7792.0361    83.644797 
   45800    1295.5571   -107.76388    1.1722473   -106.59163   -4367.9222    4.3865215    4.3865215    4.3865215   -4367.9222   -13739.659    -19013.72    19649.612    15723.108   -4174.1394   -2260.0682    84.403567 
   45900     1154.954   -107.62646    1.0450266   -106.58144    3591.8779    4.3843218    4.3843218    4.3843218    3591.8779    34217.827   -25231.779    1789.5852    9802.5882    13604.415   -3809.8433    84.276652 
   46000    676.03921   -107.19888   0.61169448   -106.58718    16938.011    4.3827207    4.3827207    4.3827207    16938.011   -3977.9894   -20734.867    75526.891   -2783.7412    16230.488   -2797.6037    84.184354 
   46100    1043.5713   -107.53017   0.94424522   -106.58592    8952.9154    4.3832728    4.3832728    4.3832728    8952.9154    17054.853   -23737.626    33541.519    14412.313    5250.5591    1846.6962    84.216172 
   46200    1596.6109   -108.02571    1.4446471   -106.58106    2485.4705    4.3691886    4.3691886    4.3691886    2485.4705   -4130.7734   -13524.708    25111.893    555.62502    10516.943    159.13386    83.406976 
   46300    1164.5778   -107.65196    1.0537344   -106.59822        18594    4.3763607    4.3763607    4.3763607        18594    32497.239    2960.4659    20324.294    9436.8925   -16017.761     486.0777     83.81839 
   46400    1161.5508   -107.64241    1.0509955   -106.59141   -30779.558    4.3938547    4.3938547    4.3938547   -30779.558   -66261.795   -39810.008     13733.13   -7645.6356   -2126.5052   -5850.7794    84.827578 
   46500     1131.497   -107.61224    1.0238023   -106.58843    7516.7702    4.3687407    4.3687407    4.3687407    7516.7702   -11267.417    7026.1879     26791.54    113.35709   -1182.8788    4632.7473    83.381327 
   46600    1339.1449   -107.80286    1.2116865   -106.59117    36814.827    4.3674765    4.3674765    4.3674765    36814.827    25867.075    20228.706    64348.699   -8.4981705   -2129.9003   -4469.5206    83.308965 
   46700    1359.5977   -107.82881    1.2301925   -106.59862   -37747.128    4.3920627    4.3920627    4.3920627   -37747.128   -46498.818   -50137.811   -16604.756   -15597.817    8392.6317   -5102.4282    84.723834 
   46800    1073.6846   -107.55638   0.97149238   -106.58488     8211.944    4.3817935    4.3817935    4.3817935     8211.944    32286.398    -24754.51    17103.944    17022.961   -15507.593   -4097.7572    84.130936 
   46900     1332.218   -107.78847    1.2054188   -106.58305    3017.2393    4.3853467    4.3853467    4.3853467    3017.2393   -27706.297   -36477.295     73235.31   -10779.321    1407.5819    9639.0031    84.335768 
   47000    1176.2387   -107.65278    1.0642855    -106.5885    6922.0009    4.3746152    4.3746152    4.3746152    6922.0009    17486.016   -37101.308    40381.294   -378.87252   -2367.1876   -2091.6757    83.718138 
   47100    1281.4743   -107.75637    1.1595048   -106.59686   -16996.857    4.3690615    4.3690615    4.3690615   -16996.857   -67805.676   -8248.8076    25063.913     6352.863   -6664.7209    10149.065    83.399699 
   47200    1221.3593    -107.7132    1.1051115   -106.60809   -24522.917    4.3823213    4.3823213    4.3823213   -24522.917   -32119.762   -42305.135    856.14701   -4832.6813    8381.2108   -8162.5953    84.161343 
   47300    1241.8749   -107.72107    1.1236745    -106.5974    1594.3319    4.3829059    4.3829059    4.3829059    1594.3319    -12099.06   -40869.458    57751.514    7389.6768   -6126.1778    6081.9313    84.195029 
   47400    1123.3978    -107.6066    1.0164739   -106.59013    2623.5564     4.375635     4.375635     4.375635    2623.5564   -48861.012   -5502.0493     62233.73   -10836.466     -13201.4   -1595.9141    83.776702 
   47500     1219.328   -107.69751    1.1032736   -106.59423    2552.6276    4.3721841    4.3721841    4.3721841    2552.6276    2226.3036   -16919.274    22350.853    19020.694    2697.4087   -15032.723    83.578643 
   47600     1325.643     -107.806    1.1994697   -106.60653   -2525.2678    4.3819314    4.3819314    4.3819314   -2525.2678   -25375.607   -41663.296      59463.1   -8195.0857   -1774.2344    1217.8826    84.138881 
   47700    1493.5846   -107.95216    1.3514268   -106.60073    11900.396    4.3623394    4.3623394    4.3623394    11900.396   -20743.821     20528.48     35916.53    7920.2673    9518.6827   -5419.1984    83.015341 
   47800    858.92459   -107.39412   0.77717302   -106.61695    12677.889    4.3736251    4.3736251    4.3736251    12677.889     7651.412   -24224.601    54606.856     323.3866    1466.6676      5700.38    83.661308 
   47900    978.01299   -107.49243   0.88492671    -106.6075   -9320.2684    4.3886169    4.3886169    4.3886169   -9320.2684   -39355.941   -57989.898    69385.033    2956.5907   -10990.819   -1340.1528    84.524578 
   48000    1568.0861   -108.01951    1.4188373   -106.60067    250.08847    4.3678787    4.3678787    4.3678787    250.08847   -15953.476   -3162.8661    19866.608    6031.7173   -6368.7284   -6134.9165    83.331983 
   48100    1054.9787   -107.55869   0.95456694   -106.60413     15925.75    4.3586871    4.3586871    4.3586871     15925.75    4366.8462    12488.119    30922.286   -10632.995     11662.65    480.89939    82.807006 
   48200    1085.2281   -107.58654   0.98193723    -106.6046   -16504.646    4.3745169    4.3745169    4.3745169   -16504.646   -58257.197   -32426.151    41169.408    8391.3818   -6086.2934    7680.4936    83.712497 
   48300    1187.7975   -107.67436    1.0747442   -106.59962    1992.1966    4.3793137    4.3793137    4.3793137    1992.1966   -23503.126   -26460.514    55940.229   -11486.345    19205.335    4740.6413    83.988181 
   48400    1250.6886   -107.73199    1.1316493   -106.60034   -4834.7085    4.3820856    4.3820856    4.3820856   -4834.7085   -26714.076   -11660.494    23870.444    5958.2168   -500.28347   -2096.2418    84.147761 
   48500    1289.2344   -107.76422    1.1665264    -106.5977    1467.6427    4.3683815    4.3683815    4.3683815    1467.6427   -36450.643   -20024.021    60877.592   -10030.167   -15689.536    5441.9948    83.360764 
   48600    1019.1295   -107.52697   0.92212982   -106.60484    1521.9446    4.3621041    4.3621041    4.3621041    1521.9446   -18573.555   -31655.764    54795.153    642.02637    15406.218   -6288.6976    83.001906 
   48700    1306.5755    -107.7909    1.1822169   -106.60869   -3089.9899    4.3766837    4.3766837    4.3766837   -3089.9899   -27233.741   -22474.476    40438.248    5241.9985   -1547.3492   -2173.2043     83.83695 
   48800    1378.1492   -107.85018    1.2469783    -106.6032    2796.1179    4.3762097    4.3762097    4.3762097    2796.1179   -34547.445    -13789.24    56725.039   -6964.5273    14407.384   -6088.6458    83.809714 
   48900    1221.2895   -107.70931    1.1050484   -106.60426    -25480.35    4.3732624    4.3732624    4.3732624    -25480.35     -40823.4   -47977.896    12360.246    6698.9176   -686.00594    -13172.57    83.640496 
   49000    1403.6294    -107.8739    1.2700334   -106.60386    3512.4931    4.3583528    4.3583528    4.3583528    3512.4931   -11123.235   -42599.009    64259.723   -11354.959   -7957.8192    6261.9588    82.787955 
   49100    1128.9403   -107.64445    1.0214889   -106.62296    10127.773     4.368116     4.368116     4.368116    10127.773   -28330.759   -6213.8852    64927.962    13060.491    11907.626    4271.3222    83.345564 
   49200    1317.8912   -107.79944    1.1924557   -106.60699   -28782.073    4.3867422    4.3867422    4.3867422   -28782.073   -58075.402   -42418.941    14148.125   -8795.8315   -57.399204   -9236.2031    84.416305 
   49300    1140.4636   -107.62652    1.0319154    -106.5946   -2479.7604     4.362483     4.362483     4.362483   -2479.7604   -31648.873    -39836.38    64045.971    2311.6607    4124.3798    4597.2808    83.023539 
   49400     1232.813   -107.71261    1.1154751   -106.59714    5866.6239    4.3507575    4.3507575    4.3507575    5866.6239    -23457.19    2250.3004    38806.761    8158.7835    5694.1634   -12089.431    82.355886 
   49500    1521.4482   -107.99018    1.3766383   -106.61354   -2080.2646    4.3770542    4.3770542    4.3770542   -2080.2646   -43862.432   -30050.923    67672.561   -6676.7163    623.66918    2257.2344    83.858245 
   49600    1144.1518   -107.64494    1.0352526   -106.60969   -31763.834    4.3801378    4.3801378    4.3801378   -31763.834   -59928.147   -42866.064    7502.7105     10798.66    312.54571    7585.8914    84.035603 
   49700    839.88491   -107.35562   0.75994551   -106.59568    3532.3771    4.3562797    4.3562797    4.3562797    3532.3771   -26034.754   -17197.581    53829.466   -6953.1392    21557.747   -15705.273    82.669871 
   49800    1625.1085   -108.06593    1.4704323    -106.5955   -6902.9114    4.3590982    4.3590982    4.3590982   -6902.9114   -26523.741   -26908.301    32723.308    9581.7558   -2092.3141    12916.716    82.830441 
   49900     1529.163   -107.98333    1.3836188   -106.59971   -14489.767    4.3746722    4.3746722    4.3746722   -14489.767   -39134.735   -17529.545     13194.98   -2713.7184     13544.72   -15702.754    83.721413 
   50000     839.9791   -107.36403   0.76003074     -106.604   -8490.2015    4.3709472    4.3709472    4.3709472   -8490.2015   -39908.675   -50810.714    65248.784    1775.3266    8927.7419   -4629.4669    83.507731 
   50100     1151.447   -107.64408    1.0418535   -106.60223    323.52202    4.3524264    4.3524264    4.3524264    323.52202   -14617.058   -30661.936     46249.56    10985.895   -9707.7088    2725.4316    82.450691 
   50200    1382.4417   -107.85715    1.2508623   -106.60629    18354.983    4.3477857    4.3477857    4.3477857    18354.983   -6802.2992    25575.962    36291.287    -1217.241    15499.465   -21441.011    82.187237 
   50300    1491.5868   -107.95398    1.3496191   -106.60436   -16798.554    4.3753975    4.3753975    4.3753975   -16798.554   -41060.791   -24804.544    15469.674    12609.449   -5491.8642    5675.0971    83.763062 
   50400    953.42829   -107.45309   0.86268195   -106.59041   -973.27942    4.3670584    4.3670584    4.3670584   -973.27942   -25640.854   -22822.384    45543.399   -3254.7079    7236.8385   -9649.2293    83.285037 
   50500    940.39529   -107.44246   0.85088942   -106.59157   -1937.6402    4.3495895    4.3495895    4.3495895   -1937.6402   -6545.6737   -18548.978    19281.731    15586.932    17729.512   -5186.8775    82.289576 
   50600    1388.6324   -107.85809    1.2564637   -106.60163    12259.282    4.3595045    4.3595045    4.3595045    12259.282   -15254.087    6384.2178    45647.717    1272.3617   -7773.1776    4182.3184      82.8536 
   50700    1582.0763   -108.03179    1.4314959    -106.6003   -19961.358    4.3683965    4.3683965    4.3683965   -19961.358   -6782.1098   -20745.042   -32356.923    -3597.198    12624.215   -12518.352    83.361619 
   50800    544.36265   -107.09746   0.49255076   -106.60491   -26819.705    4.3713707    4.3713707    4.3713707   -26819.705   -30056.438   -63578.596    13175.919    12969.344   -7844.3044   -4068.6793    83.532007 
   50900    1325.5075   -107.79082     1.199347   -106.59147    18743.141    4.3510931    4.3510931    4.3510931    18743.141   -1789.9679    10910.679    47108.713   -7723.3849   -13311.623   -239.93471    82.374943 
   51000    1243.3747    -107.7262    1.1250315   -106.60117    5264.2471    4.3612301    4.3612301    4.3612301    5264.2471   -26322.056   -3273.2807    45388.078    3199.2876    1138.0394   -18450.435    82.952027 
   51100    1002.0837    -107.5041   0.90670641   -106.59739    -24858.98    4.3745954    4.3745954    4.3745954    -24858.98   -29943.209   -39446.565   -5187.1669   -741.85345   -13633.972    4965.6975    83.717003 
   51200    1212.7946   -107.68403     1.097362   -106.58667    4690.8093    4.3621237    4.3621237    4.3621237    4690.8093   -15981.655     238.7255    29815.358   -4616.7454    8886.3066   -996.17246    83.003026 
   51300    1227.4474    -107.7083    1.1106202   -106.59768   -14664.412    4.3554523    4.3554523    4.3554523   -14664.412   -48465.055   -16250.095    20721.915    14297.268    8081.1288   -1567.7653    82.622775 
   51400    1222.1476   -107.71143    1.1058248    -106.6056     9508.964    4.3592767    4.3592767    4.3592767     9508.964   -20188.748   -1466.9889    50182.629   -17218.165   -6383.6483   -171.19645    82.840614 
   51500    1220.4547    -107.7098    1.1042931   -106.60551   -22860.191    4.3763073    4.3763073    4.3763073   -22860.191   -23402.307   -44027.368   -1150.8966    9486.5446   -2361.1922   -9573.5648    83.815325 
   51600    956.36915   -107.46881    0.8653429   -106.60347   -5038.2304    4.3660137    4.3660137    4.3660137   -5038.2304    -27837.46   -34803.618    47526.387   -5453.9416    3307.8032   -10511.989    83.225286 
   51700    1549.7001   -107.99607    1.4022012   -106.59387    2424.1953    4.3562591    4.3562591    4.3562591    2424.1953   -23344.237    7802.4062    22814.417   -14316.058   -12449.968    783.18258      82.6687 
   51800     1120.216   -107.60993    1.0135949   -106.59634    886.04311    4.3633395    4.3633395    4.3633395    886.04311   -19858.115    -9173.601    31689.846    11774.064   -1914.8933   -10444.232    83.072447 
   51900     834.1874   -107.35501   0.75479029   -106.60022   -9101.0738    4.3702562    4.3702562    4.3702562   -9101.0738   -19550.294    -11872.79    4119.8627   -16073.814    6770.6507    4483.6881    83.468133 
   52000    1415.9758    -107.8699    1.2812046    -106.5887   -12223.246    4.3702133    4.3702133    4.3702133   -12223.246   -35079.033   -8689.2883    7098.5833     4904.366   -11921.333    4425.9472    83.465673 
   52100    1225.2203   -107.69402    1.1086051   -106.58542   -2221.3353     4.357707     4.357707     4.357707   -2221.3353   -24210.418   -11541.179     29087.59   -1651.7928   -2805.4671   -14353.219     82.75116 
   52200    889.22104   -107.40058   0.80458588     -106.596    4437.7359    4.3636108    4.3636108    4.3636108    4437.7359    4520.3206    -1879.811    10672.698    -17962.65   -12412.769    8351.2385    83.087949 
   52300    1259.6156   -107.73466    1.1397267   -106.59494   -742.66105     4.366401     4.366401     4.366401   -742.66105   -6855.0221   -21400.502    26027.541    11885.701   -14351.231   -7333.6547    83.247432 
   52400    1261.0461   -107.74461     1.141021   -106.60359   -9660.7472    4.3690434    4.3690434    4.3690434   -9660.7472   -29630.074   -34664.425    35312.258   -15258.466   -8419.4259   -2179.3714    83.398662 
   52500    1386.4875   -107.85167    1.2545231   -106.59714   -4099.4019    4.3591114    4.3591114    4.3591114   -4099.4019    8158.5729   -8438.4634   -12018.315    2728.6156   -10078.292    4951.1336    82.831189 
   52600    1009.1654   -107.51248   0.91311404   -106.59937   -3783.4555    4.3536007    4.3536007    4.3536007   -3783.4555   -59.906002   -33749.352    22458.892   -4539.8918    7029.4168   -6973.8484    82.517447 
   52700    1162.7811   -107.65268    1.0521088   -106.60058   -24202.437    4.3752688    4.3752688    4.3752688   -24202.437   -29738.678   -29714.451   -13154.183   -3649.2374   -15921.111   -187.43718    83.755669 
   52800    1474.8481   -107.92608    1.3344736   -106.59161    15735.031    4.3571089    4.3571089    4.3571089    15735.031    13611.851   -7094.8235    40688.066   -4518.4392   -2003.6666    -3601.207    82.717089 
   52900     1188.652   -107.67185    1.0755173   -106.59633   -1791.4896    4.3555275    4.3555275    4.3555275   -1791.4896    3320.1832   -21953.643    13258.991   -13564.508    9068.5573   -10078.182    82.627057 
   53000    948.78343   -107.45283   0.85847919   -106.59435   -15267.859    4.3712093    4.3712093    4.3712093   -15267.859    9124.1984   -12446.094   -42481.682    30.041682   -16768.961    3429.9186    83.522752 
   53100    1357.0066   -107.82043    1.2278481   -106.59258    8066.9162    4.3571939    4.3571939    4.3571939    8066.9162   -9343.0384    5241.7031    28302.084   -17799.696    9404.2297   -17147.657    82.721929 
   53200     1212.453    -107.6966    1.0970529   -106.59954    -557.8575    4.3663548    4.3663548    4.3663548    -557.8575    676.07756   -304.92553   -2044.7245   -3397.9935    -16007.65   -2705.0919    83.244791 
   53300    1346.6846    -107.8094    1.2185085   -106.59089    3124.4477    4.3597267    4.3597267    4.3597267    3124.4477   -641.60538    5134.1574     4880.791    5036.0371   -15612.579    2963.1851     82.86627 
   53400    879.20719   -107.39686   0.79552515   -106.60134    8662.6664    4.3574099    4.3574099    4.3574099    8662.6664     37873.99   -11126.821   -759.17005   -6607.0068   -1729.5679   -17454.897    82.734232 
   53500    1258.4304   -107.74516    1.1386543   -106.60651   -6817.2569    4.3695321    4.3695321    4.3695321   -6817.2569    -21302.77    4847.0449   -3996.0453    5895.9104   -3116.5863    11458.361    83.426649 
   53600    1501.1131   -107.96075    1.3582387   -106.60251   -3120.4985    4.3622319    4.3622319    4.3622319   -3120.4985    515.10314   -6448.9219   -3427.6769   -5066.8888    -4968.089    2641.8119    83.009206 
   53700    825.16816   -107.35067   0.74662949   -106.60404    3706.0505    4.3569513    4.3569513    4.3569513    3706.0505    18689.591   -16185.213    8613.7731   -22012.419   -9637.9707   -5880.4905    82.708114 
   53800     1217.737   -107.69942     1.101834   -106.59759    908.64092    4.3583072    4.3583072    4.3583072    908.64092    37378.619   -8314.0406   -26338.656    6377.6568    4259.3241    21366.242    82.785353 
   53900    1365.3786   -107.83395    1.2354233   -106.59853    7484.9734    4.3639067    4.3639067    4.3639067    7484.9734    11351.596   -590.76642    11694.091   -18804.535     4787.246   -1548.1982    83.104851 
   54000    1176.0842   -107.66525    1.0641457    -106.6011   -5448.6782    4.3709743    4.3709743    4.3709743   -5448.6782   -9504.2894   -24456.498    17614.753     2869.651    4382.7462    4396.3801    83.509286 
   54100    1304.0313   -107.76895    1.1799149   -106.58904   -7736.9842     4.364588     4.364588     4.364588   -7736.9842    4239.9513   -10204.802   -17246.102   -5451.0479   -5703.8348    6301.6845    83.143782 
   54200    1079.6733   -107.56345    0.9769111   -106.58653    11228.994    4.3559907    4.3559907    4.3559907    11228.994    20610.029   -15930.681    29007.634   -9104.4409   -1534.4564    3025.4433    82.653418 
   54300    1177.5613   -107.66149    1.0654822   -106.59601   -5497.0136     4.366447     4.366447     4.366447   -5497.0136      28713.3   -7816.2341   -37388.107    7251.8468   -13069.871    14785.483    83.250066 
   54400    1677.5585   -108.10404    1.5178902   -106.58615   -8394.5583    4.3656175    4.3656175    4.3656175   -8394.5583   -10212.503    -17420.38    2449.2081   -9362.6549    -11479.09   -12999.122    83.202628 
   54500    603.60748   -107.14131   0.54615673   -106.59516    10057.728    4.3599643    4.3599643    4.3599643    10057.728    66894.286   -25226.051    -11495.05   -3239.6016    5672.0393    17688.803    82.879821 
   54600    1394.3225   -107.86067    1.2616123   -106.59905   -13901.731    4.3660094    4.3660094    4.3660094   -13901.731   -10590.512   -12275.042   -18839.638     1017.051   -4464.2225   -2537.3537     83.22504 
   54700    1316.9255    -107.7914    1.1915819   -106.59982    13322.107    4.3661054    4.3661054    4.3661054    13322.107    38940.642   -15693.797    16719.475   -3111.2683   -5131.8143    6523.9011    83.230527 
   54800    1192.8005   -107.68176    1.0792709   -106.60249   -3059.5856    4.3616776    4.3616776    4.3616776   -3059.5856    11780.707   -32776.229    11816.765    9610.3026    300.35095    21350.783    82.977563 
   54900    1107.8731   -107.59759    1.0024268   -106.59517    23963.457    4.3566889    4.3566889    4.3566889    23963.457    45902.627     12538.16    13449.584   -396.82181   -2114.2401   -2103.2798    82.693172 
   55000     964.4486   -107.47365   0.87265336   -106.60099   -3610.7865    4.3682675    4.3682675    4.3682675   -3610.7865    28775.793    1243.0947   -40851.247   -8501.9948    4254.9677    19235.521    83.354237 
   55100    1660.0499   -108.09177    1.5020481   -106.58972   -12449.157    4.3678556    4.3678556    4.3678556   -12449.157    2035.8116   -8106.8145   -31276.469    8407.4833    1931.4718    10696.196     83.33066 
   55200    1123.3398   -107.60633    1.0164215   -106.58991     15117.69    4.3582622    4.3582622    4.3582622     15117.69    16143.684    10864.812    18344.574   -14224.553    6780.9404    13125.909    82.782792 
   55300    1140.9705   -107.62325    1.0323741   -106.59087   -11784.375    4.3652127    4.3652127    4.3652127   -11784.375   -1172.3014   -5206.0619   -28974.762   -4622.0107    -7130.768    16233.127    83.179486 
   55400    1184.6591   -107.66188    1.0719044   -106.58998    17641.762    4.3642796    4.3642796    4.3642796    17641.762    37012.387    3656.9384    12255.961    12362.052    -7611.451    343.63299    83.126154 
   55500    1100.8278   -107.59644   0.99605215   -106.60039     6041.659    4.3585703    4.3585703    4.3585703     6041.659    20621.499   -12599.071    10102.548   -12559.514   -3711.9029     19012.07    82.800349 
   55600    1352.2791    -107.8202    1.2235706   -106.59663    2177.7416    4.3641089    4.3641089    4.3641089    2177.7416    10644.035    -19364.47    15253.659      6076.24   -11122.561   -843.80668    83.116402 
   55700    1203.7733    -107.6864    1.0891994    -106.5972   -13575.507    4.3667197    4.3667197    4.3667197   -13575.507     4021.974    -14696.76   -30051.736    4884.9694    11409.364    1825.8703    83.265662 
   55800    1068.0167   -107.56322   0.96636394   -106.59686   -6725.6267    4.3610189    4.3610189    4.3610189   -6725.6267    46838.824     -10337.3   -56678.404   -16239.271    3426.1822    9218.3439    82.939977 
   55900    1415.4228   -107.87399    1.2807043   -106.59329    9840.4056    4.3520187    4.3520187    4.3520187    9840.4056    23933.852   -6552.4821    12139.847    -1304.612   -5763.9411   -16350.654    82.427525 
   56000    1015.0682   -107.52169   0.91845507   -106.60324    10602.308     4.359229     4.359229     4.359229    10602.308    32620.299   -19464.545    18651.169   -3923.2979     1972.069     10887.71    82.837897 
   56100    1287.5254   -107.75909      1.16498   -106.59411   -6628.9194    4.3726116    4.3726116    4.3726116   -6628.9194   -3993.1006   -3053.6007   -12840.057   -7771.0843   -514.73909   -13888.873    83.603162 
   56200    1255.2803   -107.72159     1.135804   -106.58578    8636.8984    4.3618603    4.3618603    4.3618603    8636.8984    12154.465   -2696.3969    16452.627    8927.3637   -3028.6514    426.47044    82.987995 
   56300      985.685   -107.48999    0.8918685   -106.59813    8449.4154    4.3587539    4.3587539    4.3587539    8449.4154    43521.839    -19501.38    1327.7869   -10139.175    3124.6402    9599.8696    82.810815 
   56400    1427.4079   -107.89249    1.2915487   -106.60094    6704.8069    4.3669674    4.3669674    4.3669674    6704.8069    29782.781   -21471.161      11802.8   -2349.4241   -8447.6123   -13040.924    83.279836 
   56500    1435.3283   -107.89867    1.2987152   -106.59995   -14058.296    4.3720284    4.3720284    4.3720284   -14058.296    12627.806   -13754.312   -41048.382   -6796.1185   -5737.3622    19560.565    83.569717 
   56600    1032.0162   -107.52974   0.93378999   -106.59595    156.60002    4.3607784    4.3607784    4.3607784    156.60002    37207.072   -3050.2495   -33687.022   -4843.8713    13361.601   -3021.9299    82.926256 
   56700    1253.1702   -107.72496    1.1338948   -106.59107    7655.0453    4.3541931    4.3541931    4.3541931    7655.0453    36766.549   -28885.742    15084.328     253.1296   -1851.3473   -1895.7148    82.551135 
   56800     1213.416   -107.70298    1.0979243   -106.60506   -19375.464    4.3645035    4.3645035    4.3645035   -19375.464   -11426.026    -45073.46   -1626.9058   -7959.3571    -208.6326    13498.431    83.138952 
   56900    1391.9082   -107.86134    1.2594278   -106.60191    13523.486    4.3573923    4.3573923    4.3573923    13523.486    12118.442    7429.3002    21022.715    -1867.485    16725.523   -2375.2265    82.733229 
   57000    1119.3745   -107.61319    1.0128335   -106.60036    3535.6501    4.3590105    4.3590105    4.3590105    3535.6501    13329.798   -33445.908     30723.06    1038.3245    -10154.59    5270.2813    82.825436 
   57100    708.53685   -107.24593   0.64109904   -106.60483   -16692.319    4.3661151    4.3661151    4.3661151   -16692.319    13134.188    -69071.17    5860.0265   -23532.646   -547.79766    30.157342    83.231083 
   57200    1667.9641   -108.10424     1.509209   -106.59503    12166.545    4.3569091    4.3569091    4.3569091    12166.545    27455.517   -3.7604262    9047.8796     9023.705    17657.847    200.24149    82.705712 
   57300    1357.9777   -107.83154    1.2287268   -106.60282   -20254.631    4.3661851    4.3661851    4.3661851   -20254.631   -3763.5638   -33743.732   -23256.598    -7258.853   -14125.583    8132.5013    83.235083 
   57400    886.34646   -107.40001    0.8019849   -106.59802   -1180.7552    4.3616046    4.3616046    4.3616046   -1180.7552    47934.926   -20635.606   -30841.586    -14755.86    1692.0646   -5829.3739      82.9734 
   57500    1156.8324   -107.64688    1.0467262   -106.60015    3323.1682    4.3626606    4.3626606    4.3626606    3323.1682    40880.051    -34213.53    3302.9834   -1344.0132    5568.7918    13693.507     83.03368 
   57600    1584.4672   -108.03926    1.4336592    -106.6056   -6450.6215    4.3663825    4.3663825    4.3663825   -6450.6215   -3157.5051   -32796.473    16602.113   -21547.035   -9307.4503   -1014.6487    83.246373 
   57700    1400.6126   -107.87705    1.2673037   -106.60975     1421.708    4.3633732    4.3633732    4.3633732     1421.708    43051.932   -15050.309   -23736.499     13369.17     5694.775   -6753.0414    83.074375 
   57800    663.40017   -107.22085   0.60025842   -106.62059     15052.78    4.3601308    4.3601308    4.3601308     15052.78    65580.783   -40661.373    20238.931   -10327.775    8753.3515    11018.072    82.889318 
   57900    1146.7963   -107.66021    1.0376454   -106.62256     9642.937    4.3650851    4.3650851    4.3650851     9642.937    55689.496   -31044.909    4284.2233    -3156.053   -16292.038   -3731.1807    83.172189 
   58000    1703.8274   -108.15502    1.5416588   -106.61336   -4826.8642    4.3659237    4.3659237    4.3659237   -4826.8642    3324.5682    615.25969    -18420.42   -6271.1284    18609.446    1660.8591    83.220136 
   58100    942.34294   -107.45816    0.8526517    -106.6055    7016.7005    4.3624371    4.3624371    4.3624371    7016.7005     53571.46   -37328.339    4806.9799   -26415.894   -7730.7573   -2276.9587    83.020918 
   58200    1036.2606   -107.53512   0.93763037   -106.59749   -19635.587    4.3650808    4.3650808    4.3650808   -19635.587   -3180.1875   -41927.737   -13798.837   -5394.3076    16460.084    3285.7643    83.171948 
   58300    1242.9796   -107.72194    1.1246741   -106.59727   -7483.5479    4.3639314    4.3639314    4.3639314   -7483.5479    11304.203   -10089.042   -23665.805   -12726.122    19566.186   -26.396667    83.106261 
   58400    1578.1222    -108.0196    1.4279182   -106.59168    2905.1689      4.36632      4.36632      4.36632    2905.1689    19402.392   -16062.634    5375.7483   -14325.713   -4277.5814   -8933.6934    83.242799 
   58500    985.42127   -107.48826   0.89162987   -106.59664   -19781.836    4.3654089    4.3654089    4.3654089   -19781.836   -4954.5968   -21638.246   -32752.666    5128.4442    36229.655    10428.947    83.190704 
   58600    765.37152   -107.29051   0.69252424   -106.59799    18823.828    4.3590797    4.3590797    4.3590797    18823.828    41631.176    1695.9323    13144.376   -9861.1184   -64.449703   -1890.4544    82.829385 
   58700    1703.6588   -108.13748    1.5415063   -106.59597   -20790.137    4.3704952    4.3704952    4.3704952   -20790.137   -12885.462   -19573.725   -29911.222    10452.853    14877.668   -7454.9692    83.481825 
   58800    1185.4157   -107.67847     1.072589   -106.60588   -6333.1206    4.3624627    4.3624627    4.3624627   -6333.1206   -27631.643    16632.204   -7999.9227   -10436.074    21392.954    8081.4186    83.022382 
   58900    1204.0938   -107.68802    1.0894893   -106.59853    12183.357    4.3539131    4.3539131    4.3539131    12183.357    51832.131    -10020.65   -5261.4094   -6031.3459   -13558.975   -1367.0857    82.535213 
   59000    1054.7169   -107.56183   0.95433002    -106.6075   -24446.579    4.3670217    4.3670217    4.3670217   -24446.579   -7041.8494   -31134.212   -35163.675     -1422.67    20007.744    7794.4688     83.28294 
   59100    1231.6239   -107.71857    1.1143992   -106.60417    16634.329     4.364249     4.364249     4.364249    16634.329    47308.333    7378.9123   -4784.2589   -13353.268    2205.6891   -3090.9232    83.124405 
   59200    1422.3779   -107.88582    1.2869975   -106.59882   -5136.7032    4.3676628    4.3676628    4.3676628   -5136.7032    10340.359     -12610.2   -13140.268    822.90136    4730.7932    9163.2126    83.319624 
   59300    1149.7987   -107.64144     1.040362   -106.60108   -23995.945    4.3645539    4.3645539    4.3645539   -23995.945    -18033.62   -16907.565   -37046.651   -6549.7681    22925.781    7937.4187    83.141828 
   59400    991.34931     -107.499   0.89699369     -106.602    17480.422    4.3636775    4.3636775    4.3636775    17480.422    18206.189    5592.1422    28642.935   -7111.6374    407.87587   -4288.3181    83.091755 
   59500     1230.695   -107.72154    1.1135587   -106.60799    5686.0932    4.3700117    4.3700117    4.3700117    5686.0932    47148.207   -7182.7492   -22907.178    325.73955   -1670.7108    18473.943    83.454124 
   59600    1383.1049   -107.85875    1.2514624   -106.60729   -9391.8866     4.376652     4.376652     4.376652   -9391.8866   -23139.904    4935.7864   -9971.5422    1002.7213    4492.5759   -1839.8452    83.835133 
   59700    1176.2119   -107.67191    1.0642612   -106.60765   -2158.1584     4.364871     4.364871     4.364871   -2158.1584    22992.829   -31810.141    2342.8376   -4410.1466    -4767.263    11196.981    83.159955 
   59800     1050.941   -107.55986    0.9509135   -106.60895     14306.88    4.3639719    4.3639719    4.3639719     14306.88    48061.695   -7654.2281    2513.1744   -1017.5306    15362.459    3855.4828    83.108578 
   59900    1358.7939   -107.83783    1.2294652   -106.60837    5037.2054    4.3730864    4.3730864    4.3730864    5037.2054     45569.57    -19122.87   -11335.084   -15545.969    9598.8955    4753.6127      83.6304 
   60000    1007.5704   -107.51866   0.91167083   -106.60699   -9821.1746    4.3722153    4.3722153    4.3722153   -9821.1746    2985.7483   -49203.725    16754.453    2348.7396    10018.305    15132.072    83.580435 
   60100     1108.472   -107.60574    1.0029687   -106.60277   -5018.3709    4.3671005    4.3671005    4.3671005   -5018.3709     33628.24   -44174.651   -4508.7013   -11566.429    8785.9402   -3001.6461    83.287448 
   60200    1306.6794   -107.78565     1.182311   -106.60334   -3981.7606    4.3651268    4.3651268    4.3651268   -3981.7606    32452.084   -23829.605   -20567.761    2348.2119    -3272.792    31160.397    83.174576 
   60300    1550.7198   -108.00533    1.4031238   -106.60221   -10779.474    4.3664232    4.3664232    4.3664232   -10779.474   -21700.094   -7486.7178   -3151.6089   -1485.2186    3833.0408    3023.5933    83.248704 
   60400    960.88887   -107.47966   0.86943244   -106.61022    2447.2306    4.3713002    4.3713002    4.3713002    2447.2306    55909.859   -40093.835   -8474.3325   -1991.3228   -1948.4608    10021.317    83.527966 
   60500    839.54671   -107.37591   0.75963951   -106.61627    11891.145    4.3689917    4.3689917    4.3689917    11891.145    52065.234   -3975.3165   -12416.482   -3588.5034    6802.2944    19424.909    83.395701 
   60600    1480.1812   -107.94615    1.3392991   -106.60685    14630.912    4.3646349    4.3646349    4.3646349    14630.912    1402.5272     15763.44     26726.77    2399.0165    11466.564   -4602.3844    83.146458 
   60700    1199.4603   -107.69738    1.0852969   -106.61208   -28858.275    4.3807165    4.3807165    4.3807165   -28858.275   -14330.685   -26830.695   -45413.443   -12051.196   -1906.7608    19136.583    84.068917 
   60800    1025.2078   -107.53062   0.92762953   -106.60299    21726.449    4.3651871    4.3651871    4.3651871    21726.449     65239.67    4533.6124   -4593.9347   -6310.0708   -1944.6024    1276.6303    83.178023 
   60900    1227.9837   -107.71847    1.1111054   -106.60736    7705.3286    4.3626561    4.3626561    4.3626561    7705.3286    46371.853   -34188.476    10932.609   -8597.7826   -5893.6751     10245.94    83.033424 
   61000    1339.2312   -107.81983    1.2117645   -106.60807     -34493.9    4.3846123    4.3846123    4.3846123     -34493.9   -13009.768   -30833.058   -59638.874   -2784.3276    6707.2494    6268.9744    84.293404 
   61100    1399.2289   -107.87424    1.2660517   -106.60819   -13231.557    4.3744257    4.3744257    4.3744257   -13231.557    23881.337   -28969.252   -34606.756    1494.1461    7673.5394   -1055.7448     83.70726 
   61200    1005.8507   -107.52894   0.91011487   -106.61882    1718.3109    4.3658861    4.3658861    4.3658861    1718.3109    56606.643   -56487.907    5036.1965    -23866.36   -1894.4045    17491.924    83.217985 
   61300    1202.6675   -107.70448    1.0881988   -106.61628    12576.631    4.3720964    4.3720964    4.3720964    12576.631    68616.259    1300.5908   -32186.958   -1108.6119    6495.7836   -12977.644    83.573612 
   61400    1346.9456   -107.83184    1.2187447    -106.6131   -25217.806    4.3804073    4.3804073    4.3804073   -25217.806    1871.3583   -44698.396    -32826.38   -418.31945   -11531.576    13612.614    84.051118 
   61500    1431.9595    -107.9018     1.295667   -106.60614   -16049.489    4.3827327    4.3827327    4.3827327   -16049.489    9791.7242   -52845.947    -5094.244   -821.22076   -4385.1602   -5354.1036    84.185048 
   61600    1403.1113   -107.88449    1.2695646   -106.61492    1490.4247    4.3711779    4.3711779    4.3711779    1490.4247     51353.85   -7011.3189   -39871.257     13716.06   -2466.2202    8031.3639    83.520953 
   61700    928.63772   -107.46786   0.84025093    -106.6276    35778.162    4.3695682    4.3695682    4.3695682    35778.162    113635.99   -27586.921    21285.417   -17078.988    7644.1643   -1588.4233    83.428717 
   61800    787.57466   -107.34657    0.7126141   -106.63395    1965.3664     4.389963     4.389963     4.389963    1965.3664    82100.096   -37233.863   -38970.134    2037.1286   -5322.3263     2397.563    84.602378 
   61900     954.7932     -107.493   0.86391695   -106.62909    19607.253    4.3770546    4.3770546    4.3770546    19607.253    97547.733   -26761.194   -11964.782    2127.6032    506.65811    11404.155     83.85827 
   62000    1247.6257   -107.75637     1.128878   -106.62749    21051.108    4.3604332    4.3604332    4.3604332    21051.108    70677.544   -21249.681    13725.461   -12131.516   -1581.0215   -3263.7794    82.906563 
   62100    1252.2622   -107.77804    1.1330731   -106.64497   -10066.106     4.379928     4.379928     4.379928   -10066.106    42317.001   -32545.163   -39970.155    11708.911    13361.795    12638.995    84.023531 
   62200    1663.0633   -108.13614    1.5047747   -106.63137   -33590.692    4.3901666    4.3901666    4.3901666   -33590.692   -24817.974   -55983.064   -19971.039   -11752.965    11662.625   -3213.5583    84.614149 
   62300    1307.6696   -107.81043    1.1832069   -106.62722   -6765.8842    4.3585457    4.3585457    4.3585457   -6765.8842    32999.678   -30674.407   -22622.923   -3490.4534    2205.6916    19273.299    82.798949 
   62400    1186.7868   -107.70444    1.0738296   -106.63061    2229.2429    4.3568168    4.3568168    4.3568168    2229.2429    50507.352    -9831.745   -33987.878    8679.5626    2965.8749   -8363.2297    82.700453 
   62500    918.68387   -107.46264   0.83124448    -106.6314   -6564.2605    4.3795671    4.3795671    4.3795671   -6564.2605    73683.637   -53957.167   -39419.251    3250.7747    4753.4303     14868.49     84.00276 
   62600    1182.9585   -107.69014    1.0703657   -106.61977    3754.5301    4.3828317    4.3828317    4.3828317    3754.5301    53757.203    -26151.01   -16342.603    2571.5195   -9672.1053    8416.9668    84.190753 
   62700     1295.019   -107.77859    1.1717604   -106.60683   -15981.237    4.3671989    4.3671989    4.3671989   -15981.237    4363.6309   -16766.622   -35540.721   -1380.4414    18008.496    3377.3114    83.293081 
   62800    936.12688    -107.4574   0.84702727   -106.61037    3957.6727    4.3677463    4.3677463    4.3677463    3957.6727    36863.324   -8990.8457    -15999.46   -19959.604   -7139.1851    13783.358    83.324401 
   62900    1434.6946   -107.90388    1.2981418   -106.60574    6076.0126    4.3771793    4.3771793    4.3771793    6076.0126     44165.65    -17417.78   -8519.8314   -7274.3079    12264.597    2535.9669    83.865439 
   63000    1265.0699   -107.74855    1.1446618   -106.60389    -14672.52    4.3760542    4.3760542    4.3760542    -14672.52    20554.045   -32302.673   -32268.932   -1350.2347    2838.0157    15938.378    83.800782 
   63100    797.56206   -107.31606   0.72165091   -106.59441    32261.689    4.3618642    4.3618642    4.3618642    32261.689    95228.644    7431.4405   -5875.0172   -19336.803   -4104.3602    -2968.441    82.988215 
   63200    1492.9783   -107.94802    1.3508781   -106.59714   -22658.093    4.3693008    4.3693008    4.3693008   -22658.093    958.27859    -30226.69   -38705.868    12975.717    6875.2408    13893.684    83.413402 
   63300    1216.5464    -107.7024    1.1007568   -106.60164   -19260.691    4.3809831    4.3809831    4.3809831   -19260.691    3210.0349   -44886.129   -16105.981   -14467.764    -9715.857    10886.561    84.084265 
   63400    1062.0561   -107.56076   0.96097066   -106.59979     3203.374    4.3675008    4.3675008    4.3675008     3203.374    58405.084   -14574.515   -34220.447   -9549.5633    -5388.322    1520.2207    83.310352 
   63500    1149.4243    -107.6483    1.0400233   -106.60828   -6250.3948    4.3622155    4.3622155    4.3622155   -6250.3948    51105.107   -27791.108   -42065.183    8981.6611    10447.554    14082.592    83.008266 
   63600    1492.0806   -107.96251    1.3500659   -106.61245   -22600.307    4.3626321    4.3626321    4.3626321   -22600.307   -22290.768   -34385.006   -11125.147   -28470.905   -17142.855   -1055.5901    83.032054 
   63700    1014.4086   -107.53464   0.91785822   -106.61678    7764.8543    4.3606748    4.3606748    4.3606748    7764.8543    46724.373   -16724.049   -6705.7611    8609.1062    1698.5796    15855.793    82.920343 
   63800    1395.0756   -107.86605    1.2622937   -106.60376   -13661.948    4.3694524    4.3694524    4.3694524   -13661.948    7384.9872    -15662.27   -32708.562    -16613.28    6746.2215   -5383.4757    83.422083 
   63900    1014.3828   -107.51529   0.91783489   -106.59746   -4156.8504    4.3626988    4.3626988    4.3626988   -4156.8504    27545.318   -23392.599   -16623.271   -7444.2888   -12717.144     10935.06    83.035861 
   64000    1213.4951   -107.68965    1.0979958   -106.59165    26621.607    4.3556928    4.3556928    4.3556928    26621.607    60243.485   -11212.893    30834.228    12895.419     10320.97    11497.025    82.636463 
   64100    1396.7647   -107.85715    1.2638221   -106.59333     8872.955    4.3650007    4.3650007    4.3650007     8872.955     19612.97   -4335.3308    11341.225   -5996.5475   -7459.9199   -8172.4137    83.167367 
   64200    860.80613   -107.38267   0.77887548    -106.6038   -3675.5964    4.3735628    4.3735628    4.3735628   -3675.5964    30263.727   -30821.448   -10469.068   -3516.6869    -9668.022    21491.762    83.657734 
   64300     1616.431   -108.05725    1.4625807   -106.59467    -3152.883    4.3594691    4.3594691    4.3594691    -3152.883    26999.353   -16576.655   -19881.347    9711.4624    -538.7676   -6911.8497    82.851583 
   64400    1122.7542   -107.61793    1.0158916   -106.60204    954.43236    4.3507771    4.3507771    4.3507771    954.43236    15751.726   -13460.234    571.80537    -15404.74   -5005.8359    12754.934    82.356999 
   64500    1124.7533   -107.62264    1.0177004   -106.60494    1455.2947    4.3654284    4.3654284    4.3654284    1455.2947    44967.342   -13123.441   -27478.017   -1041.0339   -10346.941    4031.1003    83.191815 
   64600     1265.312   -107.74611    1.1448809   -106.60122   -14574.545    4.3658818    4.3658818    4.3658818   -14574.545    3433.1948    -21408.84   -25747.991   -496.95742    9303.5657   -8936.1144     83.21774 
   64700    879.57528   -107.39613    0.7958582   -106.60027    302.87863    4.3533876    4.3533876    4.3533876    302.87863    26629.168   -24943.785   -776.74713    -16619.44   -25605.926    19969.538    82.505329 
   64800    1457.7951   -107.91345    1.3190437   -106.59441    3105.6368    4.3532054    4.3532054    4.3532054    3105.6368    13961.207   -17525.312    12881.015    1657.6048    13117.479   -13097.807    82.494972 
   64900    1204.8348   -107.69576    1.0901598    -106.6056   -11386.432    4.3713062    4.3713062    4.3713062   -11386.432   -3225.8942   -23521.587    -7411.814   -5869.3707    -10009.58    10276.861    83.528308 
   65000    932.38911   -107.44847   0.84364526   -106.60483   -4556.2953    4.3685748    4.3685748    4.3685748   -4556.2953    21352.319    -29456.64   -5564.5657    -8477.097   -15277.361    826.12602    83.371831 
   65100    1304.9856   -107.78077    1.1807784       -106.6   -2098.2368     4.355802     4.355802     4.355802   -2098.2368     53707.31   -45759.678   -14242.342   -674.06921    491.53894   -7315.9309    82.642678 
   65200    1315.9474   -107.79544    1.1906968   -106.60475    8964.4513    4.3511395    4.3511395    4.3511395    8964.4513    23301.637   -9478.9675    13070.685   -14481.688   -8285.1462    10097.421    82.377577 
   65300    1310.1053    -107.7883    1.1854108   -106.60289    -8874.927     4.366965     4.366965     4.366965    -8874.927   -6846.8681   -13685.368   -6092.5444    516.31832   -10347.067   -13401.628    83.279698 
   65400     1103.375   -107.58926   0.99835686   -106.59091   -28313.359    4.3772782    4.3772782    4.3772782   -28313.359    -14430.35   -51992.891   -18516.837   -9573.8369     8720.394    1640.1951    83.871122 
   65500    829.06432   -107.34116   0.75015482     -106.591    19854.379    4.3503812    4.3503812    4.3503812    19854.379    66692.901   -9669.1934    2539.4304    -4777.045   -9290.0554    1730.5064    82.334519 
   65600    1509.8069   -107.97109     1.366105   -106.60498    11377.893    4.3533889    4.3533889    4.3533889    11377.893    38984.864   -8374.6265    3523.4424    3703.4082   -7303.7525   -9577.4977    82.505405 
   65700    1553.9986   -108.01999    1.4060906    -106.6139   -9635.3945    4.3702896    4.3702896    4.3702896   -9635.3945    5270.4725   -15825.484   -18351.172   -11498.421   -6059.9889    5570.2665    83.470048 
   65800     480.8985   -107.04819   0.43512707   -106.61306   -20098.351    4.3801007    4.3801007    4.3801007   -20098.351   -21734.179   -29342.357   -9218.5162   -10575.007    -22862.99   -10183.576    84.033466 
   65900    1572.1123   -108.02237    1.4224803   -106.59989    2340.2466    4.3560004    4.3560004    4.3560004    2340.2466    44826.581   -29560.352   -8245.4885   -2758.5696   -7175.0882    5213.2726    82.653971 
   66000    1445.3161   -107.92015    1.3077524    -106.6124    15546.978    4.3515938    4.3515938    4.3515938    15546.978    39337.401   -950.31283    8253.8449    8458.4507   -14704.687   -4346.7782    82.403382 
   66100    1160.7839   -107.66849    1.0503017   -106.61818   -6855.1929    4.3775511    4.3775511    4.3775511   -6855.1929    50256.871    -35856.42    -34966.03    6106.9604   -11667.714   -3051.9101     83.88681 
   66200    1025.7077   -107.52754   0.92808191   -106.59946   -30526.799    4.3852094    4.3852094    4.3852094   -30526.799   -4258.0314   -53988.845    -33333.52    6023.3323    6103.3003    1523.3326    84.327845 
   66300    1274.9129   -107.73799     1.153568   -106.58443    3248.7758     4.345329     4.345329     4.345329    3248.7758    21034.278     3755.359   -15043.309    1060.7946   -25766.967   -10508.433    82.047999 
   66400    1523.0549   -107.97327    1.3780921   -106.59518    17258.276    4.3588889    4.3588889    4.3588889    17258.276    53635.368    -6549.128     4688.589    3357.1112   -2284.1117    5833.0445    82.818505 
   66500     1154.484    -107.6439    1.0446014    -106.5993   -17081.403    4.3758784    4.3758784    4.3758784   -17081.403     39005.33   -40352.884   -49896.656   -2307.4172   -626.94972   -4905.2908    83.790685 
   66600    794.65578   -107.31536   0.71902125   -106.59634    17235.097    4.3660224    4.3660224    4.3660224    17235.097     24539.04     2065.783    25100.469   -10179.959   -28026.759   -3743.4401    83.225783 
   66700    1471.2687   -107.92731    1.3312348   -106.59608    1623.9498    4.3619307    4.3619307    4.3619307    1623.9498    28141.845   -14489.754   -8780.2417    1124.6776    12454.081   -7619.6921    82.992007 
   66800     1275.524   -107.75666     1.154121   -106.60254    19566.423    4.3580455    4.3580455    4.3580455    19566.423     32504.31    784.06576    25410.894    3721.6393   -35378.517   -4068.2991    82.770445 
   66900    1376.7819   -107.84116    1.2457412   -106.59542   -12027.651    4.3734474    4.3734474    4.3734474   -12027.651    1093.5947    -13787.61   -23388.937    7604.5894    8446.6323    3421.2511    83.651115 
   67000    775.65387   -107.28918   0.70182792   -106.58735    1924.9303    4.3620515    4.3620515    4.3620515    1924.9303    43969.508   -24097.606   -14097.111    1431.7557   -11132.288   -11995.304    82.998905 
   67100    1364.6454   -107.82006    1.2347598    -106.5853    8294.3918    4.3551449    4.3551449    4.3551449    8294.3918    20103.113    824.78879    3955.2733    7440.8288   -19826.245     4219.153    82.605286 
   67200    1617.6855   -108.05129    1.4637159   -106.58758   -1987.8877    4.3703288    4.3703288    4.3703288   -1987.8877     27858.54   -26662.273   -7159.9294    12474.593     15582.32   -5319.3711     83.47229 
   67300    928.09867   -107.42868   0.83976318   -106.58892    12831.814    4.3653424    4.3653424    4.3653424    12831.814    58272.891   -19774.367   -3.0819243   -686.28703   -36083.937   -1673.8722    83.186903 
   67400    1149.9437   -107.62698    1.0404933   -106.58648   -12703.925    4.3653808    4.3653808    4.3653808   -12703.925   -33571.659   -32876.827    28336.711    458.06173    10706.324   -656.05333    83.189096 
   67500    1234.0045   -107.70869    1.1165532   -106.59214    28750.496    4.3516797    4.3516797    4.3516797    28750.496    47106.998   -10224.253    49368.744    7574.6722   -12695.549   -3527.5072    82.408262 
   67600     1564.915   -108.01793     1.415968   -106.60197    8228.8985    4.3616585    4.3616585    4.3616585    8228.8985    26290.687    2844.0372   -4448.0288   -4676.3083   -12241.704    1438.4859    82.976473 
   67700    1215.4558   -107.69738      1.09977   -106.59761   -11479.946    4.3695759    4.3695759    4.3695759   -11479.946   -11056.959    -34509.77    11126.891   -4423.4234    18890.986   -8806.5951    83.429159 
   67800    676.59532   -107.20653   0.61219767   -106.59434     37621.27    4.3580742    4.3580742    4.3580742     37621.27    80273.682    13066.325    19523.802   -3136.7902   -26850.534    -242.4979    82.772081 
   67900    1620.4079   -108.05902    1.4661791   -106.59284   -11644.443    4.3676037    4.3676037    4.3676037   -11644.443   -18570.307   -12792.272   -3570.7505   -4788.1882    3284.7674   -1197.8907     83.31624 
   68000    1300.5193   -107.77001    1.1767372   -106.59327    29203.344    4.3592874    4.3592874    4.3592874    29203.344    65619.224    3591.1962    18399.612   -5959.7063   -190.58692   -6400.2699    82.841226 
   68100    1080.7546   -107.57144   0.97788946   -106.59356    3725.9621    4.3670185    4.3670185    4.3670185    3725.9621    6091.9634     1099.072    3986.8509      6547.37   -30742.176   -1137.1149    83.282759 
   68200    1120.3657   -107.60428    1.0137305   -106.59054   -12209.101    4.3638962    4.3638962    4.3638962   -12209.101     6266.754   -45847.841     2953.784   -2485.2219    19867.696   -3466.2872    83.104249 
   68300    1171.6554   -107.65484    1.0601384    -106.5947    22078.382    4.3559379    4.3559379    4.3559379    22078.382    57459.095    13783.688   -5007.6374    2319.0904   -24782.705   -11437.668    82.650418 
   68400    1639.8574   -108.08439    1.4837774   -106.60061    432.91827    4.3648918    4.3648918    4.3648918    432.91827    18199.977   -12964.964   -3936.2573    12099.114   -7971.7988    -5332.629     83.16114 
   68500     1061.041   -107.56627   0.96005215   -106.60621   -13302.696    4.3685681    4.3685681    4.3685681   -13302.696    20625.545   -37618.748   -22914.887   -8644.1588      10909.2   -5718.7502    83.371445 
   68600    931.26606   -107.44672   0.84262911   -106.60409   -13807.833    4.3688794    4.3688794    4.3688794   -13807.833   -11261.294   -29548.367   -613.83725    6835.6102   -20719.469   -2867.8684     83.38927 
   68700    1503.3968   -107.95703     1.360305   -106.59673    10317.744    4.3558377    4.3558377    4.3558377    10317.744    30474.155   -8972.9047    9451.9806    716.70998    17638.797   -13482.334    82.644714 
   68800    1381.0256    -107.8521     1.249581   -106.60252   -2120.0254    4.3645386    4.3645386    4.3645386   -2120.0254    10910.488   -18509.971    1239.4071   -14572.923   -8672.5017    941.89943    83.140957 
   68900    847.79058   -107.36767   0.76709873   -106.60057    2143.0489    4.3672133    4.3672133    4.3672133    2143.0489    33591.209   -37547.283    10385.221    12802.467   -5216.6684   -2851.9495    83.293901 
   69000    1002.3198    -107.5051   0.90692002   -106.59818   -6246.6564    4.3681566    4.3681566    4.3681566   -6246.6564    8716.3348   -29088.667     1632.363   -6859.2111    3154.9168   -14045.469    83.347887 
   69100    1624.5318   -108.06503    1.4699105   -106.59512   -12267.716    4.3617141    4.3617141    4.3617141   -12267.716   -16303.057    355.62421   -20855.716    6481.2584   -4265.4727    12920.299    82.979646 
   69200    942.55503   -107.45772    0.8528436   -106.60488    22595.647    4.3589515    4.3589515    4.3589515    22595.647    62457.246   -26353.171    31682.867    9777.1104   -11051.102   -16415.339    82.822077 
   69300    1497.5817   -107.96066    1.3550434   -106.60561   -5422.3239    4.3704407    4.3704407    4.3704407   -5422.3239    9650.2229   -22185.992   -3731.2026   -2172.3063    16884.863    5118.2889    83.478704 
   69400    831.31312   -107.36284   0.75218959   -106.61065    21111.163    4.3673607    4.3673607    4.3673607    21111.163    62785.154   -16266.108    16814.443     3493.508   -14673.403   -5702.5422    83.302335 
   69500    1098.7759   -107.60547   0.99419549   -106.61127    13578.082    4.3705639    4.3705639    4.3705639    13578.082    54597.852   -14921.609     1058.003    666.84209    6475.2279   -7464.1687    83.485765 
   69600    1548.1135   -108.00687    1.4007656    -106.6061   -2174.0796    4.3702657    4.3702657    4.3702657   -2174.0796   -710.89207   -24717.601    18906.255   -10205.114   -3993.5791   -4594.0015    83.468678 
   69700    753.55426   -107.29529   0.68183173   -106.61346   -12466.858    4.3690079    4.3690079    4.3690079   -12466.858   -20464.878   -35329.917     18394.22    14120.068   -4692.1636   -12277.572    83.396628 
   69800    1349.5559   -107.82832    1.2211065   -106.60721    7410.0294    4.3734111    4.3734111    4.3734111    7410.0294    54553.702   -23791.029   -8532.5857   -2006.6088   -2905.4363    1439.2926     83.64903 
   69900    1303.2283   -107.78387    1.1791884   -106.60468   -7759.2265    4.3798008    4.3798008    4.3798008   -7759.2265   -21321.442   -45993.414    44037.176    9088.9014     12369.61   -15542.738    84.016206 
   70000    1276.0004   -107.75761     1.154552   -106.60306   -861.20234    4.3680299    4.3680299    4.3680299   -861.20234    26809.303   -17789.157   -11603.753     6653.448   -16014.412   -6970.5921    83.340636 
   70100    1088.6153   -107.59353   0.98500197   -106.60853    8105.6821    4.3647379    4.3647379    4.3647379    8105.6821    25829.064   -23599.678    22087.661   -5334.7491    13903.718    3959.0151    83.152349 
   70200    884.14711   -107.42245   0.79999488   -106.62246    -14014.31    4.3718336    4.3718336    4.3718336    -14014.31   -3842.0093   -26847.709   -11353.213    9340.5596   -2296.4203   -22070.986    83.558544 
   70300    1636.0075   -108.09131    1.4802939   -106.61102    10086.016    4.3684678    4.3684678    4.3684678    10086.016    39445.348   -9512.4809    325.18118   -11133.008   -9337.7023     6824.812    83.365704 
   70400    1209.1736   -107.70467    1.0940857   -106.61059    4794.4914    4.3702543    4.3702543    4.3702543    4794.4914    39662.578   -34942.929    9663.8249    7162.6027   -313.55125   -17492.727    83.468023 
   70500    957.14357   -107.47268   0.86604362   -106.60664   -8494.2276    4.3681426    4.3681426    4.3681426   -8494.2276    2074.7025    10421.196   -37978.581    3527.6313   -9361.0312   -2694.5267    83.347089 
   70600    1274.1155    -107.7547    1.1528465   -106.60186    15599.047    4.3693594    4.3693594    4.3693594    15599.047    26649.878   -22944.522    43091.783    864.74632   -6983.9265   -2396.9366    83.416755 
   70700    1459.9891    -107.9223    1.3210288   -106.60127   -7273.4054    4.3764145    4.3764145    4.3764145   -7273.4054    17988.178   -28317.167   -11491.228    13709.568   -1480.8736   -14268.456    83.821482 
   70800    1231.2871   -107.70775    1.1140944   -106.59365    16694.366     4.365231     4.365231     4.365231    16694.366    42183.205   -3460.9571    11360.851    2108.6759   -5764.3523    8724.9494     83.18053 
   70900    1080.1148   -107.57527   0.97731055   -106.59796    -17678.72    4.3777549    4.3777549    4.3777549    -17678.72    21872.856   -41771.166   -33137.849   -4925.6442    2627.2226   -15675.253    83.898525 
   71000    1274.8696   -107.74508    1.1535288   -106.59155    15870.809    4.3671241    4.3671241    4.3671241    15870.809    60900.843   -10514.296   -2774.1192    2787.1845   -4357.4858   -503.00982    83.288802 
   71100    1231.1561   -107.71838    1.1139759   -106.60441   -5862.6616    4.3714142    4.3714142    4.3714142   -5862.6616   -13858.292   -23264.487    19534.794   -5844.9228    6611.0017   -571.18963    83.534498 
   71200    1186.2364   -107.67591    1.0733316   -106.60258   -13517.025    4.3800536    4.3800536    4.3800536   -13517.025     46664.46   -49786.483   -37429.052   -5097.5194   -188.33262   -16918.397    84.030759 
   71300    1129.3713   -107.62105    1.0218789   -106.59918   -7743.4052     4.373108     4.373108     4.373108   -7743.4052   -37963.349   -14353.576     29086.71   -211.14641   -4756.5316    6732.6165    83.631638 
   71400    771.68397   -107.30451   0.69823588   -106.60627    -14699.04    4.3722949    4.3722949    4.3722949    -14699.04    10998.148    -27796.74   -27298.529   -6179.7392    3873.2456   -19615.727    83.585001 
   71500    1753.5064   -108.18556    1.5866095   -106.59895    3199.9085    4.3621008    4.3621008    4.3621008    3199.9085    21095.322   -27681.456    16185.859    357.18108   -12119.487    2824.7496    83.001718 
   71600    1221.4494   -107.71454    1.1051931   -106.60935   -22829.018    4.3776547    4.3776547    4.3776547   -22829.018    7509.8309   -26746.742   -49250.144     1463.627   -2186.2729   -4805.7161    83.892766 
   71700    639.65803   -107.18755   0.57877603   -106.60877    15127.893    4.3736485    4.3736485    4.3736485    15127.893    83459.105   -26865.151   -11210.274   -14826.791   -7322.5359   -10260.124    83.662655 
   71800    1408.6323    -107.8802    1.2745601   -106.60564   -12357.939    4.3712415    4.3712415    4.3712415   -12357.939   -16345.547   -19861.286   -866.98405    8195.7723    3779.8478    5610.7664    83.524598 
   71900    1235.7648   -107.72056    1.1181459   -106.60242   -2145.8655    4.3728474    4.3728474    4.3728474   -2145.8655    40182.411   -32444.061   -14175.947   -7590.7061    -7254.741   -9377.3028    83.616689 
   72000    1340.5435   -107.80431    1.2129519   -106.59136   -3423.5532    4.3734692    4.3734692    4.3734692   -3423.5532    36606.202   -42176.237   -4700.6248    2565.7016   -879.83878    5227.5241    83.652366 
   72100    1045.4954   -107.53489   0.94598624    -106.5889    14094.459    4.3668997    4.3668997    4.3668997    14094.459    24680.336    -5141.322    22744.362    18649.251    2282.3404   -7492.8772    83.275961 
   72200    1242.0601   -107.71928    1.1238421   -106.59544   -4753.6467    4.3647307    4.3647307    4.3647307   -4753.6467    25037.586   -35848.538   -3449.9886   -449.95088   -6707.5305    907.11355    83.151935 
   72300    1092.9202   -107.59608   0.98889716   -106.60718    5982.2701    4.3691411    4.3691411    4.3691411    5982.2701    38693.962   -49767.175    29020.023    11996.661   -5734.3075   -1952.0265    83.404255 
   72400    1393.0638   -107.86353    1.2604734   -106.60306   -21696.536    4.3811477    4.3811477    4.3811477   -21696.536    22642.595   -34666.796   -53065.409    7256.3975    258.75427   -542.16721    84.093743 
   72500    998.68541   -107.50285   0.90363155   -106.59922   -21853.824    4.3740007    4.3740007    4.3740007   -21853.824   -22937.934   -50987.486    8363.9484    -547.2815   -7101.1004    10267.386    83.682867 
   72600    1157.8878   -107.63691    1.0476812   -106.58923    11261.521    4.3483036    4.3483036    4.3483036    11261.521    32440.126   -19445.034    20789.469     1934.423    3193.0183   -8050.9205    82.216612 
   72700       1489.4   -107.96097    1.3476404   -106.61333   -15544.836    4.3735762    4.3735762    4.3735762   -15544.836    33422.932   -51141.991   -28915.449   -2561.9937    7801.5457    7753.9093    83.658505 
   72800    991.22928    -107.5087   0.89688508   -106.61181   -16905.508    4.3862114    4.3862114    4.3862114   -16905.508    12605.053   -45477.334   -17844.243    8947.3039    3559.8348   -1347.0503    84.385662 
   72900    1349.1647   -107.82106    1.2207526   -106.60031    9685.1522     4.368712     4.368712     4.368712    9685.1522     50892.82   -21787.078   -50.285355    3712.6994   -13143.481   -1024.8212    83.379687 
   73000     1246.977   -107.72755     1.128291   -106.59926    22399.192    4.3582736    4.3582736    4.3582736    22399.192     79773.15   -17655.464    5079.8886    9580.5738    2245.1074    4844.5572    82.783439 
   73100    1051.7832   -107.56878   0.95167551   -106.61711   -8431.5094    4.3776252    4.3776252    4.3776252   -8431.5094    10529.086   -42495.035    6671.4207    12945.084    4973.5701   -1274.8246    83.891067 
   73200    1423.4543   -107.88334    1.2879714   -106.59537    8358.4759    4.3815381    4.3815381    4.3815381    8358.4759    68463.355   -39715.442   -3672.4853   -15130.105   -4116.3067    1753.0575    84.116225 
   73300    1079.6882   -107.57681   0.97692458   -106.59989   -20927.371    4.3671451    4.3671451    4.3671451   -20927.371   -32391.386   -27500.018     -2890.71    24066.649    5371.6008     -2659.83    83.289999 
   73400    1101.7504   -107.60525   0.99688695   -106.60836    3429.5191    4.3536773    4.3536773    4.3536773    3429.5191     9035.876    -39075.72    40328.402   -15136.048   -3231.9666    4174.0025    82.521804 
   73500    1448.5118   -107.93276    1.3106439   -106.62211    8144.8502    4.3751873    4.3751873    4.3751873    8144.8502    72705.942   -25828.204   -22443.187    5047.6401    9811.8625   -602.43995    83.750989 
   73600    912.59867   -107.44234   0.82573845    -106.6166   -11390.412    4.3801486    4.3801486    4.3801486   -11390.412    16957.735   -35437.664   -15691.308    12648.236   -10082.466   -2964.5272    84.036226 
   73700    1144.7708   -107.63297    1.0358127   -106.59715    5776.1908    4.3598304    4.3598304    4.3598304    5776.1908    39334.217   -32181.426    10175.782    -14630.75    13002.899    10374.963    82.872183 
   73800    1498.1233    -107.9528    1.3555334   -106.59726    4963.9101    4.3691934    4.3691934    4.3691934    4963.9101    28084.019   -23150.482    9958.1929    18635.691   -5643.1449   -2035.9672    83.407248 
   73900    1095.0478   -107.59051    0.9908223   -106.59969   -9182.0651    4.3766843    4.3766843    4.3766843   -9182.0651    27884.775   -40960.327   -14470.643   -4939.9531   -3481.5364    1953.4028    83.836987 
   74000    1234.9655   -107.72327    1.1174228   -106.60585   -10510.486    4.3746584    4.3746584    4.3746584   -10510.486    8307.3672    -34092.36   -5746.4665   -5493.0916   -4055.3548     8050.749    83.720618 
   74100     1753.122    -108.1924    1.5862617   -106.60614   -1068.6551    4.3633216    4.3633216    4.3633216   -1068.6551    27075.279   -31805.147    1523.9029   -1205.2155   -7875.9102    1837.4992    83.071426 
   74200    609.60788   -107.17727   0.55158602   -106.62569    8774.4942    4.3654416    4.3654416    4.3654416    8774.4942    29521.554   -16160.281    12962.209   -6158.6815   -2037.5272    11194.789    83.192569 
   74300    1361.6055   -107.83976    1.2320093   -106.60775   -2796.4978    4.3691311    4.3691311    4.3691311   -2796.4978    33526.203   -19925.487   -21990.209    4995.6305   -1364.9912   -7016.8205    83.403682 
   74400    1211.6694   -107.70557    1.0963439   -106.60923   -13430.446    4.3726867    4.3726867    4.3726867   -13430.446    12296.567     -20146.4   -32441.505   -5729.2874   -4958.7539     16461.56    83.607471 
   74500    1217.0126   -107.70988    1.1011786   -106.60871    5275.3846     4.358101     4.358101     4.358101    5275.3846    44030.276   -30889.551    2685.4289   -12815.335   -1174.7955    688.25418    82.773605 
   74600    1371.7161   -107.84835    1.2411576   -106.60719    12036.933    4.3642527    4.3642527    4.3642527    12036.933    29850.982    5248.6374    1011.1799    9735.2554   -5536.6865   -3035.4405    83.124619 
   74700    1119.9979   -107.62178    1.0133976   -106.60839   -11627.905    4.3687148    4.3687148    4.3687148   -11627.905    14416.544   -27773.749   -21526.509   -18784.531    1360.7759    10802.458    83.379844 
   74800    773.86623   -107.30844   0.70021043   -106.60823    22660.808     4.364118     4.364118     4.364118    22660.808    47124.296   -22482.715    43340.843    6248.5759    8057.5585    -2034.654    83.116923 
   74900    1764.0607   -108.18452    1.5961592   -106.58836    2873.4148    4.3683503    4.3683503    4.3683503    2873.4148    12628.564   -22547.642    18539.323    4360.6788    16750.507    2300.9731    83.358975 
   75000    1120.4083   -107.60624     1.013769   -106.59247     612.2973    4.3620085    4.3620085    4.3620085     612.2973    17554.805    -28815.19    13097.277   -17576.162   -9891.6684    3512.4162    82.996449 
   75100    682.27218   -107.21979   0.61733421   -106.60246   -1186.8761    4.3680199    4.3680199    4.3680199   -1186.8761    16755.057   -23390.841    3075.1558    18898.177    18960.155   -4250.4604    83.340066 
   75200    1771.9813   -108.19415    1.6033259   -106.59082   -5054.2022    4.3688188    4.3688188    4.3688188   -5054.2022   -10087.776   -20312.152    15237.321   -6124.0429   -3254.7459    2803.6883    83.385798 
   75300    1097.9739   -107.58872   0.99346981   -106.59525   -3715.3033    4.3645866    4.3645866    4.3645866   -3715.3033   -17524.208    -16701.65    23079.948   -2165.9069   -1806.9816   -10173.298    83.143698 
   75400    1099.8914   -107.59248   0.99520482   -106.59727   -1054.8818     4.366026     4.366026     4.366026   -1054.8818    20761.098   -21008.855   -2916.8886    17086.206      6246.49     2778.658    83.225988 
   75500    1459.5011   -107.91191    1.3205873   -106.59133    19910.644    4.3629898    4.3629898    4.3629898    19910.644    19016.746    8283.7949     32431.39   -10550.155    2378.6824   -6306.8704    83.052478 
   75600    731.85919   -107.27893   0.66220157   -106.61673   -9019.0823    4.3648906    4.3648906    4.3648906   -9019.0823   -4161.2392   -35931.133    13035.125    21397.585    2331.8014   -11952.049    83.161076 
   75700    1479.4377   -107.94665    1.3386264   -106.60803    3977.0692    4.3653344    4.3653344    4.3653344    3977.0692   -12856.499   -19987.215    44774.921    2589.3762   -2770.0286    4143.1763    83.186444 
   75800    1550.7577   -108.00485    1.4031582    -106.6017    -15837.76    4.3700722    4.3700722    4.3700722    -15837.76   -1901.0842   -20499.168   -25113.027    970.99075    1879.0004   -13324.671    83.457592 
   75900    805.98253   -107.33164   0.72926993   -106.60237   -16461.156    4.3619143    4.3619143    4.3619143   -16461.156   -22087.333   -30882.619    3586.4831    19215.385    7647.6757   -10404.281    82.991075 
   76000    1255.5967    -107.7308    1.1360903   -106.59471    10405.722    4.3645846    4.3645846    4.3645846    10405.722   -27266.299    27269.505    31213.959   -3152.4624    3371.1398    1651.7596    83.143588 
   76100     1371.114   -107.83822    1.2406128   -106.59761    -15858.27    4.3715981    4.3715981    4.3715981    -15858.27   -11767.802   -20837.502   -14969.505    4027.0596   -2981.5734   -14238.147    83.545042 
   76200    1121.7798   -107.61458    1.0150099   -106.59958    11151.535    4.3632899    4.3632899    4.3632899    11151.535    25151.899   -11450.792    19753.498    6991.0095    9770.7979   -1007.1058    83.069619 
   76300     1236.058   -107.71523    1.1184112   -106.59682   -1643.6703    4.3649036    4.3649036    4.3649036   -1643.6703   -9956.5964    8646.9939   -3621.4083   -4966.2174   -9498.8282    7835.9571    83.161816 
   76400    1005.3991   -107.51054   0.90970623   -106.60083    2292.5657    4.3569624    4.3569624    4.3569624    2292.5657    13316.344   -20315.055    13876.408    15612.751    5599.8582   -3094.8074    82.708747 
   76500    1033.1961   -107.55624   0.93485759   -106.62139   -3896.6909    4.3694754    4.3694754    4.3694754   -3896.6909   -20291.512    14487.628    -5886.188    1808.3853   -17027.873    9318.5794      83.4234 
   76600    1833.3121   -108.26487    1.6588194   -106.60605   -3044.7932    4.3697529    4.3697529    4.3697529   -3044.7932    5170.6399   -13593.445   -711.57481    922.38124   -4174.7821    5108.0711    83.439295 
   76700    937.74076   -107.46052   0.84848754   -106.61203    9536.1425    4.3592953    4.3592953    4.3592953    9536.1425   -7510.9433    27857.943    8261.4275    10919.278    11259.555    718.00957    82.841676 
   76800    693.21106     -107.245   0.62723194   -106.61776   -15947.254    4.3729136    4.3729136    4.3729136   -15947.254   -40886.936   -9623.5187    2668.6918   -15029.431   -3989.2785    654.73872    83.620488 
   76900    1938.5933   -108.35055    1.7540799   -106.59647   -15988.238    4.3701439    4.3701439    4.3701439   -15988.238   -19060.082   -9051.7685   -19852.863   -3128.9797    16569.695    1449.9628    83.461695 
   77000    1026.8222   -107.53302   0.92909029   -106.60393    3544.4987    4.3665897    4.3665897    4.3665897    3544.4987   -4287.3719    10123.025    4797.8432    1621.6459    -4946.124    5608.4824    83.258227 
   77100    1158.4502   -107.64851    1.0481901   -106.60032   -24214.897    4.3677299    4.3677299    4.3677299   -24214.897    -51274.71   -11253.895   -10116.088   -21239.157   -1.6735893    8323.1617    83.323468 
   77200    1076.0228   -107.57173   0.97360804   -106.59812    11910.481    4.3670934    4.3670934    4.3670934    11910.481   -15004.224    39372.333    11363.333   -1206.6462     1035.349   -2457.5965    83.287043 
   77300    1167.7464   -107.65905    1.0566015   -106.60245   -14076.087    4.3730821    4.3730821    4.3730821   -14076.087    6690.4344   -38208.945   -10709.751   -12884.963   -14009.409    14635.286    83.630151 
   77400    1357.0777   -107.81894    1.2279124   -106.59103    12380.763    4.3639274    4.3639274    4.3639274    12380.763    3713.9617    17272.776    16155.551    11185.588   -1163.3845   -1106.7358    83.106034 
   77500    1145.2715   -107.62777    1.0362657   -106.59151    12015.767    4.3620269    4.3620269    4.3620269    12015.767    16165.752    632.89285    19248.656   -6324.7615   -3936.2858    3584.1335    82.997499 
   77600    898.57643   -107.41692   0.81305084   -106.60387   -15353.158    4.3692098    4.3692098    4.3692098   -15353.158    -24449.64   -26140.292    4530.4576   -9922.7606     -6060.73   -3955.9192     83.40819 
   77700    1267.0381   -107.74669    1.1464427   -106.60024    12688.954    4.3636431    4.3636431    4.3636431    12688.954    13191.525    28593.111    -3717.773   -2221.1449    8976.1938   -3417.9664    83.089789 
   77800    1433.5817   -107.90132    1.2971348   -106.60419    2747.2172    4.3602197    4.3602197    4.3602197    2747.2172    7553.0132   -6839.2217    7527.8602   -12706.262    3300.4355   -4335.4378    82.894383 
   77900    1037.6852   -107.54875    0.9389194   -106.60983    9301.2341     4.357125     4.357125     4.357125    9301.2341   -22986.293    8756.0339    42133.962    -3167.931   -3255.8192    4799.7029    82.718008 
   78000    1189.1132   -107.68043    1.0759346    -106.6045   -3962.0886    4.3698941    4.3698941    4.3698941   -3962.0886    13301.109   -8101.8953   -17085.479   -4660.1968    14454.229   -1283.0982    83.447388 
   78100    1334.7784   -107.80254    1.2077355    -106.5948   -3470.9651    4.3678051    4.3678051    4.3678051   -3470.9651   -2061.8273   -16662.968    8311.8995   -14563.919   -6742.2063    10629.689     83.32777 
   78200    1197.3435   -107.67946    1.0833816   -106.59607    12805.655    4.3545222    4.3545222    4.3545222    12805.655    5302.3622    17435.849    15678.752     6012.077    7099.8195    206.56582    82.569858 
   78300    1253.8664   -107.73807    1.1345247   -106.60354    18757.117    4.3599082    4.3599082    4.3599082    18757.117    21960.998    11100.003     23210.35   -11570.917    656.78868    3769.2877    82.876621 
   78400    1112.8074    -107.6101    1.0068915   -106.60321   -4780.0193    4.3667434    4.3667434    4.3667434   -4780.0193   -7744.5948     5794.122   -12389.585    -8704.944   -1345.2858    1765.9655    83.267022 
   78500     840.4868    -107.3715   0.76049012   -106.61101   -11111.817    4.3663636    4.3663636    4.3663636   -11111.817    4545.4638   -513.77556    -37367.14    10967.733    8633.1878   -10457.249    83.245296 
   78600    1969.0935   -108.37791    1.7816772   -106.59623    4322.3146    4.3544322    4.3544322    4.3544322    4322.3146    4184.7938   -8126.6253    16908.775   -5961.1306   -4494.9127   -8602.3288    82.564735 
   78700    806.60841    -107.3379   0.72983624   -106.60806   -8252.1408    4.3611663    4.3611663    4.3611663   -8252.1408   -12970.983    18163.036   -29948.475    10454.982     13152.46   -6603.7514    82.948384 
   78800    907.36408   -107.42949   0.82100209   -106.60849   -24631.574    4.3672509    4.3672509    4.3672509   -24631.574   -1325.5014    -18124.09    -54445.13    5243.5081   -7214.9331   -14280.828    83.296052 
   78900     1603.874   -108.04856    1.4512189   -106.59734    19510.477    4.3600586    4.3600586    4.3600586    19510.477    7249.8595    27349.964    23931.607   -3921.8439    1076.0233    14759.098    82.885195 
   79000     1112.349   -107.61627    1.0064768   -106.60979    1584.3026    4.3597234    4.3597234    4.3597234    1584.3026    1646.0387     5154.223   -2047.3539    1917.1871    10059.917    -7885.599    82.866081 
   79100    1110.2065   -107.61226    1.0045382   -106.60772   -9166.0456    4.3671509    4.3671509    4.3671509   -9166.0456    4619.4826   -15980.973   -16136.646    1092.2448   -7478.4601     5731.007    83.290332 
   79200    1145.8184   -107.63963    1.0367606   -106.60287    7482.1711    4.3675351    4.3675351    4.3675351    7482.1711    14821.066    5699.2785    1926.1686    3823.5089     5222.726   -6240.8397    83.312318 
   79300    1213.9661   -107.70738    1.0984221   -106.60896   -17221.563    4.3667678    4.3667678    4.3667678   -17221.563   -8324.0317   -27250.767   -16089.892    12959.613   -1228.7035   -9843.7732    83.268413 
   79400    1339.6982   -107.80776    1.2121871   -106.59558    15969.243    4.3620669    4.3620669    4.3620669    15969.243    12729.405    22561.482    12616.841   -4156.9095   -10829.103    12280.166    82.999787 
   79500    1065.6285    -107.5608   0.96420308   -106.59659     2504.033    4.3563062    4.3563062    4.3563062     2504.033    4767.6604    7320.9751   -4576.5365    15660.189    3085.9495   -11075.511    82.671383 
   79600    871.29924   -107.39832   0.78836986   -106.60995   -7577.9756    4.3639742    4.3639742    4.3639742   -7577.9756   -7393.1174    -1036.645   -14304.164    2261.2999    -17685.75   -1185.8774    83.108709 
   79700    1658.9557    -108.0978     1.501058   -106.59674    -2485.269    4.3718329    4.3718329    4.3718329    -2485.269   -20374.034    1830.8345    11087.393   -2472.8308    -11801.11    4329.0655    83.558505 
   79800    1017.1447   -107.51788   0.92033392   -106.59755   -19125.964    4.3647787    4.3647787    4.3647787   -19125.964   -20677.282   -23547.252   -13153.359    23610.708    2605.2326     2499.895    83.154676 
   79900    897.29829   -107.40995   0.81189435   -106.59805   -6813.9429    4.3551522    4.3551522    4.3551522   -6813.9429    4144.1419     10468.28   -35054.251   -7969.9996   -16561.824    6289.9901    82.605697 
   80000    1377.0913   -107.84738    1.2460212   -106.60136    13974.871    4.3637123    4.3637123    4.3637123    13974.871   -11636.925     20089.88    33471.659     6947.011    573.45606    4754.2855    83.093746 
   80100    1320.5748   -107.79657    1.1948838   -106.60169   -33234.592    4.3815707    4.3815707    4.3815707   -33234.592   -45612.508   -16339.745   -37751.522    3533.5223   -7473.2213    -15146.39    84.118102 
   80200    978.38552   -107.48007   0.88526378   -106.59481    2831.9183    4.3681256    4.3681256    4.3681256    2831.9183   -2489.0232     34914.33   -23929.552   -6870.0426   -5220.7843   -15.656603    83.346111 
   80300    1413.2373   -107.86206    1.2787268   -106.58334    18441.856     4.343562     4.343562     4.343562    18441.856      33089.8    -10910.46     33146.23    27493.138    421.97094   -13623.388    81.947944 
   80400    1011.6195   -107.52792   0.91533456   -106.61258   -821.37011    4.3645374    4.3645374    4.3645374   -821.37011    -27054.52    22828.282    1762.1275   -5413.6134   -4357.8332   -3854.0314    83.140888 
   80500    1135.6821   -107.62539     1.027589    -106.5978   -18306.996    4.3836412    4.3836412    4.3836412   -18306.996   -18718.496   -21822.201   -14380.292    86.912188    3522.5941    3678.0318    84.237412 
   80600    1227.3916   -107.70145    1.1105697   -106.59088   -1903.9277    4.3664683    4.3664683    4.3664683   -1903.9277    -8151.156    10760.297   -8320.9244    13845.222    2901.0992    8573.6097    83.251286 
   80700    1215.2026   -107.69145    1.0995408   -106.59191    11723.085    4.3566819    4.3566819    4.3566819    11723.085    1977.6043    48620.585   -15428.936   -10087.592    -3418.267    16431.272    82.692772 
   80800    1047.5406    -107.5477   0.94783678   -106.59987    10594.555    4.3676526    4.3676526    4.3676526    10594.555   -11733.673    12496.272    31021.068    20780.332   -2628.1173    8837.2398    83.319044 
   80900    1365.8148   -107.82478    1.2358179   -106.58896   -11547.574    4.3803546    4.3803546    4.3803546   -11547.574   -23210.137     15927.86   -27360.446    3252.0929   -4808.0199    8909.0917     84.04808 
   81000    1076.4936    -107.5598   0.97403407   -106.58577    13551.331    4.3621285    4.3621285    4.3621285    13551.331    27658.626    29625.705   -16630.337    2885.8435    420.37115     1881.171    83.003303 
   81100    1057.3969   -107.54962   0.95675493   -106.59286    10680.536    4.3552764    4.3552764    4.3552764    10680.536    2497.1088     5673.912    23870.586    12615.662     2109.559    841.76653    82.612768 
   81200    1469.3211   -107.92749    1.3294726   -106.59802   -9661.7611     4.371425     4.371425     4.371425   -9661.7611   -10104.395    -2535.855   -16345.034    939.93401   -702.33823    5445.2873    83.535117 
   81300    942.03579   -107.44855   0.85237378   -106.59618   -5064.2765    4.3785071    4.3785071    4.3785071   -5064.2765   -41431.668    35512.423   -9273.5848    15301.441     4472.893    1470.3381    83.941781 
   81400    1405.9735   -107.86359    1.2721544   -106.59143   -3414.9412    4.3628823    4.3628823    4.3628823   -3414.9412   -3586.2429   -12598.551    5939.9709   -1393.6851    3752.6089    1864.9982     83.04634 
   81500    1419.7801   -107.87883    1.2846469   -106.59418     8446.348    4.3467613    4.3467613    4.3467613     8446.348    6997.1768    20481.102    -2139.235    6506.4113    11519.872    9473.6451     82.12916 
   81600    707.80563   -107.26198   0.64043741   -106.62154   -23561.768    4.3756062    4.3756062    4.3756062   -23561.768   -57596.441   -24098.713    11009.849    7935.8129    1819.3448    3657.4327     83.77505 
   81700    1366.4475   -107.83639    1.2363904       -106.6   -4016.1602    4.3717535    4.3717535    4.3717535   -4016.1602    22862.194   -6641.1097   -28269.565   -19959.521    4727.6228    8045.1563    83.553954 
   81800    1383.5818   -107.84766    1.2518939   -106.59577    -9706.114    4.3617269    4.3617269    4.3617269    -9706.114   -9095.2569   -5894.8994   -14128.186    18361.095    5952.8171   -7882.8029    82.980377 
   81900    959.02471   -107.46651   0.86774572   -106.59876    -1642.262    4.3608591    4.3608591    4.3608591    -1642.262   -616.27215   -8951.6396    4641.1258   -2509.1114     2383.884    8106.5872    82.930862 
   82000    1240.2476   -107.71633    1.1222021   -106.59413   -5977.7854    4.3679269    4.3679269    4.3679269   -5977.7854   -27004.015    27384.497   -18313.838    9233.5029   -3482.7869   -3060.7064     83.33474 
   82100    1297.2731   -107.76892       1.1738   -106.59512   -20258.541    4.3752554    4.3752554    4.3752554   -20258.541   -24827.438   -20897.356   -15050.829    25212.206    1544.1641   -5072.7051    83.754902 
   82200    1310.6653   -107.77485    1.1859175   -106.58893    13269.514    4.3596142    4.3596142    4.3596142    13269.514    40423.218    28647.185   -29261.863     -8285.97    2068.6179    2679.9322    82.859859 
   82300    816.87525   -107.33729   0.73912589   -106.59816    6362.7962    4.3579473    4.3579473    4.3579473    6362.7962    25535.552   -9876.1152    3428.9522    4137.0038   -8861.5901   -49.866088    82.764848 
   82400    1231.8084   -107.71567    1.1145662    -106.6011   -20988.068    4.3693798    4.3693798    4.3693798   -20988.068   -18368.053   -32009.786   -12586.365    6073.6095    11028.725    5219.2336    83.417929 
   82500    1523.8349   -107.97103    1.3787979   -106.59223   -15793.546    4.3732443    4.3732443    4.3732443   -15793.546   -8052.9408    3853.7669   -43181.464   -7857.1083   -7015.3997    6172.8476     83.63946 
   82600    1153.0565   -107.63403    1.0433097   -106.59072   -891.34195     4.362021     4.362021     4.362021   -891.34195     44009.46   -40045.664   -6637.8227    20373.342    659.04472   -1909.8764    82.997166 
   82700    1037.9362   -107.53257   0.93914645   -106.59342    10629.889    4.3552511    4.3552511    4.3552511    10629.889    2217.8779    29130.286    541.50393    -1683.924   -1691.4506    8944.8741    82.611325 
   82800    1231.6362   -107.71606    1.1144103   -106.60165    -5837.932    4.3672277    4.3672277    4.3672277    -5837.932    7019.1273   -15141.934   -9390.9892     8801.349   -13169.095    6526.6887    83.294726 
   82900    1290.7775   -107.77058    1.1679226   -106.60265   -4581.7011    4.3728476    4.3728476    4.3728476   -4581.7011   -7748.1929    8670.9491    -14667.86     16157.38    3161.5389   -9722.8091      83.6167 
   83000    1362.2269   -107.82817    1.2325716    -106.5956     13461.99    4.3586324    4.3586324    4.3586324     13461.99    48913.079   -5856.3833   -2670.7254   -19606.105   -17452.021    8826.2242    82.803888 
   83100    1035.3182   -107.53345   0.93677768   -106.59667   -4947.8556    4.3549878    4.3549878    4.3549878   -4947.8556   -11361.585   -16540.117    13058.135    23070.623   -5533.6317    -5914.679    82.596343 
   83200    1065.5055     -107.565   0.96409179   -106.60091    5350.5164    4.3594478    4.3594478    4.3594478    5350.5164   -3770.2116    10309.097    9512.6636   -8005.3574    517.30278   -11442.997    82.850369 
   83300    1448.2426   -107.91238    1.3104004   -106.60198    -9218.335    4.3746946    4.3746946    4.3746946    -9218.335   -29468.686    12959.155   -11145.474   -2079.2263    -22441.09    3032.4777    83.722698 
   83400    1380.2022   -107.84642    1.2488359   -106.59758   -2816.4098    4.3686457    4.3686457    4.3686457   -2816.4098    12751.804   -9059.2316   -12141.802    11438.383    4078.2972   -10506.101    83.375889 
   83500    901.92951   -107.41042   0.81608477   -106.59433    20526.916    4.3457802    4.3457802    4.3457802    20526.916    25180.685    39894.866    -3494.802   -1740.6029   -15810.307   -211.08828    82.073558 
   83600    1064.9345   -107.57016    0.9635751   -106.60659   -2420.5088     4.360616     4.360616     4.360616   -2420.5088   -16156.186     4605.892    4288.7676    5702.8653   -5760.2067   -1821.2788    82.916991 
   83700    1478.3807   -107.93997    1.3376699    -106.6023   -13619.406    4.3712052    4.3712052    4.3712052   -13619.406   -17689.229    2948.8582   -26117.847    15127.447   -6041.2582    960.64108    83.522517 
   83800    1155.3957   -107.64804    1.0454263   -106.60262   -12032.865    4.3657737    4.3657737    4.3657737   -12032.865   -11713.828   -6734.7388   -17650.026   -3344.8119   -21344.708   -3212.2332    83.211561 
   83900    1172.3831   -107.65288    1.0607969   -106.59209    6933.1961    4.3590728    4.3590728    4.3590728    6933.1961    25163.977   -16004.982    11640.593    9233.2998    10253.555    15337.025    82.828992 
   84000    900.95041   -107.41952   0.81519887   -106.60432   -12343.241    4.3620403    4.3620403    4.3620403   -12343.241   -49723.709     31033.24   -18339.254   -3585.8586    -20479.78      -458.08    82.998267 
   84100    1391.8266   -107.86316     1.259354    -106.6038   -5982.5716    4.3696013    4.3696013    4.3696013   -5982.5716    6932.2469   -14348.607   -10531.355    3296.8537   -7181.9386     5689.639    83.430611 
   84200    1527.1822   -107.97812    1.3818266   -106.59629    13361.884    4.3602994    4.3602994    4.3602994    13361.884    5475.6985    37377.649   -2767.6952    4562.7498    109.09195    8348.1251    82.898931 
   84300     584.9469   -107.13871   0.52927224   -106.60943   -5525.5971     4.358385     4.358385     4.358385   -5525.5971    14321.714   -8099.4057   -22799.099    -11206.28   -13192.893    3316.6195     82.78979 
   84400     1429.848   -107.89812    1.2937565   -106.60436   -5741.1829    4.3680733    4.3680733    4.3680733   -5741.1829   -31469.439    14362.117   -116.22667   -629.74976    9299.9075   -7643.3172    83.343118 
   84500    1344.4013   -107.82395    1.2164425    -106.6075   -1067.1327    4.3679551    4.3679551    4.3679551   -1067.1327    -5394.076    24044.569   -21851.891   -5761.2009   -19391.782   -3016.1894    83.336356 
   84600     1274.448   -107.76284    1.1531474   -106.60969   -9361.7278    4.3559137    4.3559137    4.3559137   -9361.7278    3266.0129   -19818.987    -11532.21   -23848.417     6130.178   -2336.4127    82.649035 
   84700    1194.2405    -107.6842    1.0805739   -106.60362    10372.295    4.3583163    4.3583163    4.3583163    10372.295    2559.3652    31443.858   -2886.3398    4696.7533   -2094.8145   -5334.2875    82.785876 
   84800    852.79846   -107.37547   0.77162997   -106.60384   -16534.775    4.3721256    4.3721256    4.3721256   -16534.775   -17001.331   -6257.6327   -26345.363   -8591.2318   -13961.819    10737.466     83.57529 
   84900    1404.6125   -107.86579    1.2709229   -106.59487   -14135.525    4.3658092    4.3658092    4.3658092   -14135.525   -35647.312    -2014.351   -4744.9116   -16492.922    9265.6153   -8189.2969    83.213589 
   85000    1496.9887   -107.94148    1.3545069   -106.58697    7295.1884    4.3583396    4.3583396    4.3583396    7295.1884     44984.07   -8196.1466   -14902.359    12162.552    -12318.56     2726.659    82.787199 
   85100    896.25332   -107.41351   0.81094884   -106.60256   -23716.531    4.3647011    4.3647011    4.3647011   -23716.531   -26546.304   -11019.796   -33583.493   -12877.518    2143.4326    6992.8599    83.150242 
   85200    1013.2048    -107.5216     0.916769   -106.60483    -4871.875    4.3641645    4.3641645    4.3641645    -4871.875    9999.9285   -22029.368   -2586.1854    8533.5968    6948.9829   -3698.4331    83.119582 
   85300    1359.0473   -107.82975    1.2296946   -106.60005    2319.1671     4.368151     4.368151     4.368151    2319.1671   -8076.6736     37442.39   -22408.215    8297.5723   -12542.773    1092.4653    83.347565 
   85400    1307.9034   -107.78332    1.1834185    -106.5999   -11310.614    4.3607828    4.3607828    4.3607828   -11310.614   -11027.847   -1895.8324   -21008.164    329.90792    16492.336    8946.0098    82.926505 
   85500    921.76937   -107.43361    0.8340363   -106.59957    14130.989    4.3620562    4.3620562    4.3620562    14130.989    25857.535    12753.517    3781.9139    5218.5345   -6766.3369   -4155.6905    82.999172 
   85600    1272.4129   -107.74367    1.1513059   -106.59237   -23853.953    4.3730297    4.3730297    4.3730297   -23853.953   -31938.169   -20063.759   -19559.932    798.96038    6036.3676    10624.548    83.627148 
   85700    1074.9802   -107.56961   0.97266468   -106.59695    4634.5667    4.3619186    4.3619186    4.3619186    4634.5667    13604.789    -13804.97    14103.881   -4880.9011    9855.2761    219.38603    82.991317 
   85800    1866.9471   -108.27804    1.6892529   -106.58879    983.28345     4.358771     4.358771     4.358771    983.28345    19161.539   -7845.7283   -8365.9605   -3947.5359   -2731.9776    2737.7077    82.811788 
   85900    650.73812   -107.18826   0.58880153   -106.59946   -13500.784    4.3723974    4.3723974    4.3723974   -13500.784    3358.4868   -27307.626   -16553.214    1253.3208    19236.489    6553.2532     83.59088 
   86000    934.24674   -107.43874   0.84532608   -106.59341   -17912.747    4.3655935    4.3655935    4.3655935   -17912.747   -41813.058   -15199.082    3273.9004   -90.022582    1968.6498   -9803.9753    83.201258 
   86100    1646.0972   -108.07689    1.4894234   -106.58746     8897.705    4.3584468    4.3584468    4.3584468     8897.705    3759.7387    39791.765   -16858.388    2986.3781    1634.3049    22216.364    82.793313 
   86200    1112.7458   -107.60452    1.0068358   -106.59769    3261.6199    4.3647517    4.3647517    4.3647517    3261.6199    9289.5706    8627.5135   -8132.2243     226.4889    24920.023   -4922.9038    83.153136 
   86300    1026.0335   -107.52078    0.9283767    -106.5924   -3092.1389    4.3672162    4.3672162    4.3672162   -3092.1389   -34183.445    29352.141   -4445.1127   -1394.1521    305.95248    1148.4392     83.29407 
   86400    1233.4576   -107.70666    1.1160583    -106.5906    -12469.33    4.3679037    4.3679037    4.3679037    -12469.33    8282.8786    -25798.31   -19892.559    -5622.902    1133.7512    25572.789    83.333414 
   86500    1315.2901   -107.78517    1.1901022   -106.59507    1161.2847    4.3605523    4.3605523    4.3605523    1161.2847   -26704.062    13856.774    16331.142   -3828.9364    16323.505   -15011.695    82.913359 
   86600    1535.8985   -107.98694    1.3897133   -106.59723    1332.0603    4.3578157    4.3578157    4.3578157    1332.0603    21196.895    5540.7121   -22741.426    6739.9908   -11850.091    20046.243    82.757349 
   86700    918.50861   -107.43298   0.83108589   -106.60189   -10447.798    4.3698241    4.3698241    4.3698241   -10447.798   -36172.583   -7680.9936    12510.183   -12002.251    12286.851    2911.8521    83.443377 
   86800    1058.6028   -107.56068   0.95784604   -106.60283   -11181.597    4.3607665    4.3607665    4.3607665   -11181.597   -31627.956    6769.9323   -8686.7667    630.52828   -6722.0193   -10727.257    82.925578 
   86900    1332.9047   -107.81179    1.2060402   -106.60575    6687.6231    4.3586181    4.3586181    4.3586181    6687.6231   -2130.6284     8059.059    14134.439    3296.2708   -5615.5337    21419.231     82.80307 
   87000    1488.9037   -107.94524    1.3471914   -106.59805   -4265.7608    4.3686799    4.3686799    4.3686799   -4265.7608    -3974.056    7801.6791   -16624.905    3227.8259    15497.725    -5802.725    83.377845 
   87100    878.12786   -107.38933   0.79454855   -106.59478   -7093.6418    4.3644115    4.3644115    4.3644115   -7093.6418   -14159.417    14054.931   -21176.439    6717.5357   -11961.046    14293.915    83.133696 
   87200    1036.7744   -107.53034   0.93809527   -106.59225     7074.081    4.3652756    4.3652756    4.3652756     7074.081     20855.23   -5564.9346    5931.9472   -1050.2312    5961.3765    9514.4778     83.18308 
   87300    1822.3303   -108.23579    1.6488827   -106.58691    -5424.726    4.3649252    4.3649252    4.3649252    -5424.726   -3244.6633    14501.597   -27531.112     18132.21   -973.76841   -6569.8529    83.163053 
   87400    805.51848   -107.32946   0.72885005   -106.60061   -2301.7913    4.3628965    4.3628965    4.3628965   -2301.7913    37276.599   -42500.428   -1681.5455    1133.4889    -5263.266    24655.505    83.047147 
   87500     1208.176   -107.68362     1.093183   -106.59044   -3228.7333    4.3607314    4.3607314    4.3607314   -3228.7333   -16748.015   -15076.647    22138.462    2032.6188   -2919.3727    1201.2872    82.923572 
   87600    975.97352   -107.48024   0.88308135   -106.59715    3696.0456     4.367231     4.367231     4.367231    3696.0456   -4036.4418    13464.931    1659.6471    6543.7609   -4151.9267     4527.841    83.294918 
   87700    1403.5441   -107.86846    1.2699562    -106.5985   -13678.932    4.3685361    4.3685361    4.3685361   -13678.932    -13619.08   -41210.527    13792.811   -8471.4552   -7327.8572    24399.145    83.369614 
   87800    1473.6829   -107.92578    1.3334193   -106.59237    527.37533    4.3599923    4.3599923    4.3599923    527.37533   -19926.622    24554.138   -3045.3893   -650.63152   -7531.5602    -8737.657    82.881416 
   87900    891.00937   -107.40904     0.806204   -106.60284   -7692.7598    4.3611965    4.3611965    4.3611965   -7692.7598   -10001.074   -26693.945     13616.74    5338.3351   -1745.0415    27321.061    82.950107 
   88000    1249.7455   -107.73103     1.130796   -106.60024    6890.9114    4.3658494    4.3658494    4.3658494    6890.9114    4877.9694    7762.9326    8031.8322    -13777.65   -3119.9942   -1326.8061    83.215888 
   88100    1618.4065   -108.05512    1.4643682   -106.59075    9361.4546    4.3629916    4.3629916    4.3629916    9361.4546   -5589.2783    12800.795    20872.847   -4580.7352    399.26309   -2667.3692    83.052578 
   88200    841.82976   -107.35604   0.76170526   -106.59434    6302.9931    4.3627898    4.3627898    4.3627898    6302.9931    50097.584   -38355.898    7167.2937    118.58076    2608.2837    24374.921    83.041055 
   88300    1255.9414   -107.73094    1.1364022   -106.59454   -2626.2884    4.3621587    4.3621587    4.3621587   -2626.2884   -37747.206    11029.223    18839.117   -22322.514    5761.1499   -14462.378    83.005024 
   88400     1119.277   -107.61512    1.0127453   -106.60238    14353.294    4.3650321    4.3650321    4.3650321    14353.294    21952.918    4133.7244    16973.239    3708.6085   -11774.439    16149.701    83.169162 
   88500    1450.0296   -107.91011    1.3120172   -106.59809    -13048.55    4.3690603    4.3690603    4.3690603    -13048.55    18912.676    -35332.91   -22725.416   -7006.7496    17364.244    10825.223    83.399631 
   88600    1275.8306   -107.74593    1.1543983   -106.59153    17861.858    4.3599312    4.3599312    4.3599312    17861.858    6263.8357    22366.543    24955.196   -219.05037   -4736.7543   -8074.4302    82.877932 
   88700    1005.3816   -107.51141   0.90969038   -106.60172    676.62586    4.3642331    4.3642331    4.3642331    676.62586    30879.645   -18461.215   -10388.552   -712.03365   -2338.2698    22635.495      83.1235 
   88800    1413.0806   -107.88266     1.278585   -106.60407   -12294.656    4.3689555    4.3689555    4.3689555   -12294.656   -40955.823    12082.536   -8010.6811   -6608.6151    5959.3521   -2555.2369    83.393629 
   88900    1440.6512   -107.89857    1.3035315   -106.59504    19245.247    4.3595626    4.3595626    4.3595626    19245.247    66449.506   -22275.711    13561.944   -7270.1938    -9016.332   -2034.8291    82.856912 
   89000    929.98464   -107.43817   0.84146964    -106.5967   -7235.9617    4.3680014    4.3680014    4.3680014   -7235.9617   -30700.267   -4039.0028    13031.385   -13652.726    7622.3735    10925.647    83.339003 
   89100    1205.0308   -107.67488    1.0903372   -106.58454   -326.31318    4.3669406    4.3669406    4.3669406   -326.31318   -16782.025   -1049.6416    16852.727    4018.7965   -415.87927    -11326.76    83.278302 
   89200    1175.9842    -107.6511    1.0640552   -106.58704    9338.7984     4.362899     4.362899     4.362899    9338.7984    9924.8632    8097.3959     9994.136   -8229.6693    689.90342    122.72619    83.047295 
   89300    1355.8096   -107.82253     1.226765   -106.59577       -16488    4.3648283    4.3648283    4.3648283       -16488   -20635.744   -32403.029    3574.7747   -20327.117    10307.059    5330.2983    83.157512 
   89400    1278.8019   -107.74778    1.1570868   -106.59069    31294.976    4.3520323    4.3520323    4.3520323    31294.976    39372.339    26379.843    28132.746    8128.9134   -7627.6247   -8023.3482    82.428297 
   89500    976.59037   -107.48893   0.88363949   -106.60529   -36812.149    4.3701525    4.3701525    4.3701525   -36812.149   -67163.498     -14528.1   -28744.848   -18760.509    14652.588    6381.5443    83.462188 
   89600    1171.5546   -107.65348    1.0600472   -106.59343   -5034.3879    4.3699462    4.3699462    4.3699462   -5034.3879    -15574.35     13834.01   -13362.824   -8034.8714    5453.4802   -595.49026    83.450372 
   89700    1625.1633   -108.05093    1.4704819   -106.58044    17564.396    4.3509702    4.3509702    4.3509702    17564.396    49478.741   -1771.8978    4986.3435    4015.3382    1598.8199   -6486.4397    82.367966 
   89800    753.53457   -107.28545   0.68181392   -106.60364   -111.50324     4.362198     4.362198     4.362198   -111.50324    20900.095   -24448.033    3213.4288   -30171.983     6982.119    5003.0508    83.007267 
   89900    1322.6732   -107.79458    1.1967825    -106.5978   -11829.872     4.371717     4.371717     4.371717   -11829.872   -37764.055   -7787.6395    10062.079    1974.8524    946.81572   -10128.665    83.551857 
   90000    868.85125   -107.38474   0.78615487   -106.59859   -13300.959    4.3667209    4.3667209    4.3667209   -13300.959   -30049.511   -14890.321    5036.9545   -11955.019   -3473.0026   -171.00803    83.265734 
   90100    1144.3912   -107.62931    1.0354692   -106.59384    564.74832      4.36065      4.36065      4.36065    564.74832    4445.6419   -7650.4864    4899.0894    -10341.25    13262.714    8604.6057    82.918931 
   90200    1634.0522   -108.06478    1.4785248   -106.58626     3494.602    4.3585502    4.3585502    4.3585502     3494.602   -19236.047   -7305.1515    37025.004    1991.9441   -4299.4393   -11684.642      82.7992 
   90300     781.8428   -107.30701    0.7074278   -106.59958   -19145.049    4.3682615    4.3682615    4.3682615   -19145.049   -28169.084   -5622.7083   -23643.355   -14628.062      5843.28    10912.782    83.353891 
   90400     1292.211   -107.76272    1.1692196    -106.5935   -8282.9989    4.3665237    4.3665237    4.3665237   -8282.9989    8197.9131   -4570.3137   -28476.596   -899.12821    11220.282    194.15121    83.254453 
   90500    1297.4408   -107.77054    1.1739517   -106.59659    13586.595    4.3543067    4.3543067    4.3543067    13586.595    13969.738   -2923.9597    29714.006   -11352.296   -2401.5757    1100.5899    82.557597 
   90600    1154.4083   -107.65092    1.0445329   -106.60638   -14249.197    4.3669506    4.3669506    4.3669506   -14249.197   -29385.273   -26636.505    13274.186   -11081.318    13243.422    8226.5578     83.27887 
   90700    1441.3323   -107.89444    1.3041477    -106.5903     3293.125     4.362542     4.362542     4.362542     3293.125   -23905.555    11844.711    21940.219   -1915.6637    8892.8256   -3924.2671    83.026906 
   90800    805.58986    -107.3302   0.72891464   -106.60129   -11111.275    4.3609339    4.3609339    4.3609339   -11111.275   -4850.5704   -4241.1473   -24242.106   -14972.547    5772.5127    9472.7155    82.935126 
   90900    1300.4613   -107.77597    1.1766847   -106.59929   -1051.8462    4.3630861    4.3630861    4.3630861   -1051.8462   -883.14708   -2110.9409   -161.45066   -1100.7271   -2566.8333    12132.841    83.057977 
   91000    1527.8128    -107.9776    1.3823971   -106.59521   -928.17817    4.3650501    4.3650501    4.3650501   -928.17817   -27262.191   -15831.574     40309.23   -14510.916    5997.4857    5247.7509    83.170193 
   91100    866.43059   -107.38102    0.7839646   -106.59705    -7138.862    4.3654323    4.3654323    4.3654323    -7138.862   -14892.156   -21863.483    15339.053   -3603.4437     9433.074    14787.092    83.192042 
   91200    1246.2863   -107.71781     1.127666   -106.59015   -2160.6032    4.3605068    4.3605068    4.3605068   -2160.6032    35262.194   -1169.9169   -40574.087   -4789.9156   -7263.3235    1441.1932     82.91076 
   91300     1167.674   -107.65203     1.056536   -106.59549   -1406.9331     4.363145     4.363145     4.363145   -1406.9331   -23386.827   -17411.109    36577.136   -12183.398    16892.574    1274.1607    83.061339 
   91400    1436.2401   -107.89107    1.2995402   -106.59153   -9947.1156    4.3649897    4.3649897    4.3649897   -9947.1156   -3247.2301   -22517.307   -4076.8094   -111.57632    6153.7707    15911.694    83.166739 
   91500    1054.7943   -107.54731   0.95440005   -106.59291    19253.435    4.3635674    4.3635674    4.3635674    19253.435   -9809.3297    -1112.166    68681.801   -8028.8579    7733.1704   -10119.102    83.085467 
   91600    1018.5193   -107.52575   0.92157765   -106.60418    -28936.43    4.3698472    4.3698472    4.3698472    -28936.43   -5230.5096   -26089.086   -55489.694   -5298.7964     11691.62    17658.167    83.444699 
   91700    1316.6972   -107.79141    1.1913753   -106.60003    11172.293    4.3558264    4.3558264    4.3558264    11172.293    600.24086    16161.921    16754.718   -5812.4794    5548.8741    -3317.098     82.64407 
   91800    1237.6066    -107.7234    1.1198125   -106.60359    6550.1302    4.3610497    4.3610497    4.3610497    6550.1302   -7647.8715   -16241.681    43539.943   -11268.997    640.88384   -12176.828    82.941733 
   91900    1101.4524   -107.59445   0.99661724   -106.59783   -3961.5515    4.3717897    4.3717897    4.3717897   -3961.5515   -15072.146   -5405.3115    8592.8032     386.9164    9770.7973    11762.788    83.556028 
   92000    1328.1732   -107.79087     1.201759   -106.58911    3357.3309    4.3597883    4.3597883    4.3597883    3357.3309    12876.577   -11923.795    9119.2106   -9758.3485   -1932.4113    -18758.12    82.869782 
   92100    1090.6143   -107.57912   0.98681077    -106.5923    5804.5176    4.3602692    4.3602692    4.3602692    5804.5176   -910.22648   -1186.3852    19510.164   -4962.6482    2116.4654    5278.5576    82.897209 
   92200    1408.7406   -107.86456    1.2746581   -106.58991   -8542.6881    4.3623595    4.3623595    4.3623595   -8542.6881   -22159.396   -23063.155    19594.487    5445.4418   -1378.1404   -5491.4443    83.016489 
   92300     1111.123   -107.60257    1.0053674    -106.5972    2720.3664    4.3660688    4.3660688    4.3660688    2720.3664   -47.863884   -15395.871    23604.835    -7844.245   -5254.1319   -15120.894    83.228434 
   92400    1447.4651   -107.89944    1.3096968   -106.58974   -2868.0708    4.3669683    4.3669683    4.3669683   -2868.0708   -5266.9852    -2259.236   -1077.9912    2742.3007    14868.381    8802.3042    83.279887 
   92500    1078.4537   -107.56575   0.97580753   -106.58994    10637.774    4.3588125    4.3588125    4.3588125    10637.774   -9853.7071   -6716.2444    48483.275   -2276.6002     4075.787    -13554.38    82.814156 
   92600    1044.5588   -107.54081   0.94513877   -106.59567   -2781.1639    4.3681181    4.3681181    4.3681181   -2781.1639   -20741.802     841.3958    11556.914   -4855.7574    3184.9071    2136.8382    83.345686 
   92700    1507.6824   -107.95631    1.3641827   -106.59213    880.58606    4.3664523    4.3664523    4.3664523    880.58606   -2402.2583   -8880.2701    13924.287    623.62105    22742.396   -463.01894    83.250369 
   92800    1057.0022   -107.55013   0.95639779   -106.59373    14490.845     4.355326     4.355326     4.355326    14490.845    5427.4949    12429.227    25615.814   -12534.468    -15043.16   -14013.013    82.615588 
   92900    1097.8468   -107.58628   0.99335484   -106.59293   -13379.612    4.3653928    4.3653928    4.3653928   -13379.612   -49105.052        18681   -9714.7827    4533.8842    15540.232    6510.5678    83.189783 
   93000     1012.061   -107.50665   0.91573405   -106.59091    11176.258    4.3627796    4.3627796    4.3627796    11176.258   -17887.872    -10654.81    62071.457   -13576.021   -517.82865   -3909.1797    83.040473 
   93100    1494.4379    -107.9474    1.3521988    -106.5952   -10341.823    4.3637285    4.3637285    4.3637285   -10341.823   -8956.2883    -16822.94   -5246.2402   -835.96358    -8681.204   -9083.9051    83.094667 
   93200     1405.779   -107.86517    1.2719783   -106.59319   -5497.8771    4.3642382    4.3642382    4.3642382   -5497.8771   -22367.044   -3795.5333    9668.9464    483.98117    5335.8266    7557.7283    83.123789 
   93300     857.0106   -107.37243    0.7754412   -106.59699    581.78732    4.3595013    4.3595013    4.3595013    581.78732   -24478.322    3543.5524    22680.132   -13538.395    1015.8862   -15163.298    82.853419 
   93400    1106.5318   -107.60111    1.0012132   -106.59989   -12002.964     4.369504     4.369504     4.369504   -12002.964   -9501.7155   -8121.2755     -18385.9    7765.9778    1462.2039     4850.211    83.425038 
   93500    1778.1296   -108.19862    1.6088891   -106.58974    6025.4047    4.3580918    4.3580918    4.3580918    6025.4047     17532.36   -4127.7127    4671.5666    -10414.67    11604.522    4786.1104    82.773084 
   93600    886.58632   -107.40211   0.80220193   -106.59991    22056.948    4.3532641    4.3532641    4.3532641    22056.948    25113.517    25681.841    15375.485   -2825.3389     3117.758   -17712.075    82.498311 
   93700    1077.3551   -107.57342   0.97481354   -106.59861    -37594.76    4.3732494    4.3732494    4.3732494    -37594.76   -67058.421   -11708.315   -34017.543    7206.1498     15412.93     6593.101    83.639753 
   93800    1156.5472   -107.64118    1.0464682   -106.59472    4046.2424    4.3640845    4.3640845    4.3640845    4046.2424    24018.189    3264.1553   -15143.618    4477.4178   -6939.4835   -16513.437    83.115011 
   93900    1334.5373   -107.80796    1.2075174   -106.60044    2416.0433    4.3552576    4.3552576    4.3552576    2416.0433    18262.212    4164.5056   -15178.587    15059.696    27388.073   -11950.931    82.611695 
   94000    1237.7529   -107.71786    1.1199448   -106.59791   -4647.0627    4.3638243    4.3638243    4.3638243   -4647.0627   -15520.913    4662.6055   -3082.8807   -6651.2847    -5555.409     1091.618     83.10014 
   94100     767.2175   -107.28891   0.69419452   -106.59471    8871.6469    4.3675013    4.3675013    4.3675013    8871.6469    14532.205    11334.631    748.10473    3132.6895   -529.76187   -14840.455    83.310383 
   94200    1400.4239   -107.85616     1.267133   -106.58902   -13340.328     4.367849     4.367849     4.367849   -13340.328   -23443.269    5915.0224   -22492.738   -4317.3446    9725.4671    5614.3184    83.330283 
   94300    1349.0305   -107.81328    1.2206311   -106.59265    16670.519    4.3487913    4.3487913    4.3487913    16670.519    34081.726    22080.294   -6150.4644    5580.3827   -11142.664   -8210.8559    82.244282 
   94400    1367.8544   -107.83952    1.2376634   -106.60186   -8950.6199    4.3562775    4.3562775    4.3562775   -8950.6199   -11802.293   -11464.192    -3585.374    3615.8106    8274.9951   -7701.8293    82.669746 
   94500    922.62727   -107.43219   0.83481254   -106.59738   -12265.269     4.371165     4.371165     4.371165   -12265.269    -35851.27     8752.343   -9696.8811    4797.0344   -4617.0889    2615.0536    83.520212 
   94600    916.22444    -107.4246   0.82901912   -106.59558   -7775.3209    4.3606276    4.3606276    4.3606276   -7775.3209    3347.3195   -20673.855   -5999.4271   -3121.1537   -7080.5186   -17243.594    82.917651 
   94700    1712.7334   -108.13873    1.5497172   -106.58901     12205.44    4.3524168    4.3524168    4.3524168     12205.44    16159.382     10250.83    10206.107    14604.481    1498.8454    1155.7676    82.450145 
   94800    1071.9619   -107.57184   0.96993365   -106.60191    13379.547    4.3576326    4.3576326    4.3576326    13379.547    18818.364   -5890.3161    27210.594   -4555.0112    -8299.421   -4202.3364    82.746918 
   94900    962.52471   -107.47378   0.87091258   -106.60286   -18700.633    4.3707761    4.3707761    4.3707761   -18700.633   -1999.4358   -32162.056   -21940.406    11082.651   -5210.4062    -14890.78    83.497925 
   95000    1463.8122   -107.91452     1.324488   -106.59003    -9256.199    4.3663795    4.3663795    4.3663795    -9256.199   -20763.028   -19681.396    12675.827     9470.928   -3834.7036    4110.3774    83.246201 
   95100    1107.9755   -107.59829    1.0025196   -106.59577    8938.5597    4.3491978    4.3491978    4.3491978    8938.5597    24107.578   -4976.7864    7684.8877   -9005.5477   -1218.6883   -21883.495    82.267344 
   95200    1527.2343   -107.97915    1.3818737   -106.59728    8151.2919    4.3564577    4.3564577    4.3564577    8151.2919   -5709.1271    2872.3166    27290.686    13832.262    9872.8324    518.28775    82.680008 
   95300    1035.0215   -107.53808   0.93650924   -106.60158   -12204.786    4.3675178    4.3675178    4.3675178   -12204.786   -22123.886   -25421.046    10930.575   -14120.601    8385.8258   -18557.591    83.311327 
   95400    827.39365   -107.35009   0.74864316   -106.60145    17195.158     4.361741     4.361741     4.361741    17195.158    66208.018    15123.736   -29746.281    12141.581   -2320.5038    -5638.274    82.981181 
   95500    1544.7775   -107.99236    1.3977472   -106.59461    8065.1674    4.3688234    4.3688234    4.3688234    8065.1674    21653.377   -13755.211    16297.335    -4230.618    3798.1467    3044.6902    83.386065 
   95600    1309.0165   -107.77594    1.1844256   -106.59151    2306.5158    4.3630003    4.3630003    4.3630003    2306.5158    34717.957   -23288.115    -4510.295    5586.5552    -12610.36   -11138.081    83.053077 
   95700     968.5235   -107.46565   0.87634042   -106.58931    17534.349    4.3535725    4.3535725    4.3535725    17534.349   -12892.045    4797.6258    60697.465   -1158.0527   -10639.854    11592.402    82.515842 
   95800    1083.1188   -107.57819   0.98002865   -106.59816   -16742.667    4.3685484    4.3685484    4.3685484   -16742.667   -34400.956   -13303.318   -2523.7261   -4686.1811    14721.828   -5499.3221    83.370317 
   95900    1411.5325   -107.87386    1.2771843   -106.59668   -4812.9728    4.3629323    4.3629323    4.3629323   -4812.9728     27891.59   -22671.813   -19658.696    3020.9052     -11606.1   -4915.6147    83.049193 
   96000    1241.4179   -107.72068     1.123261   -106.59742    10288.713    4.3586083    4.3586083    4.3586083    10288.713    15858.429   -2385.5327    17393.244   -9489.6944    4051.9015    1735.9749    82.802512 
   96100    1086.8969   -107.57684   0.98344716    -106.5934   -10992.271    4.3683447    4.3683447    4.3683447   -10992.271   -7745.6893   -12241.581   -12989.542    2576.9472    3083.1786   -11877.446    83.358658 
   96200    906.04968    -107.4111   0.81981279   -106.59129    7865.7089    4.3597363    4.3597363    4.3597363    7865.7089     1338.905   -1055.6207    23313.842     5862.489   -16519.343   -1388.7383    82.866819 
   96300    1573.9073   -108.01653    1.4241044   -106.59242    2385.7376    4.3616723    4.3616723    4.3616723    2385.7376    5293.2003    8453.2027   -6589.1901   -3441.0476     22983.57   -865.01175    82.977264 
   96400    1211.6128   -107.68809    1.0962927   -106.59179   -8751.6548     4.371486     4.371486     4.371486   -8751.6548    10193.377   -35692.148   -756.19368    22868.162    3985.9051   -3187.8022    83.538617 
   96500    835.93521   -107.34697   0.75637175   -106.59059   -5975.7828    4.3654865    4.3654865    4.3654865   -5975.7828   -22747.678   -13006.236    17826.566   -962.51026   -14348.606    11385.329     83.19514 
   96600    1285.5122   -107.74818    1.1631584   -106.58502    6938.6231    4.3620798    4.3620798    4.3620798    6938.6231   -9808.0302    3635.8586    26988.041    11711.296     6494.707    3015.4805     83.00052 
   96700     1251.534   -107.72158    1.1324143   -106.58917   -9481.9874    4.3668661    4.3668661    4.3668661   -9481.9874   -19188.114   -20806.925    11549.077     9552.633   -20164.611    1386.6673    83.274038 
   96800    1317.9366   -107.77925    1.1924967   -106.58675   -2675.1713    4.3654942    4.3654942    4.3654942   -2675.1713   -23809.869    4580.8623    11203.492   -15617.566    8534.4319   -1016.0854    83.195581 
   96900    940.09643   -107.44062   0.85061901      -106.59   -7709.1349     4.369119     4.369119     4.369119   -7709.1349    -5384.753   -33751.793    16009.141    24433.132    2932.9183   -5547.7867    83.402988 
   97000     1465.753   -107.91171    1.3262441   -106.58547    -13749.52    4.3692572    4.3692572    4.3692572    -13749.52   -9179.3792   -2606.6569   -29462.524   -17865.051   -8639.8063    -8860.233    83.410903 
   97100    1384.2495   -107.83681     1.252498   -106.58432    5554.9512    4.3613244    4.3613244    4.3613244    5554.9512    25566.503   -25445.539    16543.889    20954.499    709.66068    -5870.024    82.957409 
   97200    1185.0889   -107.65778    1.0722933   -106.58549   -14042.485    4.3638026    4.3638026    4.3638026   -14042.485   -23727.276   -39056.155    20655.976     7649.846   -14180.039   -8071.3672    83.098904 
   97300    1156.6213   -107.63069    1.0465353   -106.58415   -20001.159    4.3717184    4.3717184    4.3717184   -20001.159   -55966.738   -24486.631    20449.891    4420.9902   -9153.2908    5751.4764    83.551942 
   97400    1362.7869   -107.81681    1.2330783   -106.58373   -3907.2242    4.3704319    4.3704319    4.3704319   -3907.2242   -13079.375   -26349.744    27707.447    29031.453    9465.9269     2209.803    83.478199 
   97500    1316.9261   -107.77268    1.1915824   -106.58109    686.34825    4.3644083    4.3644083    4.3644083    686.34825    21755.206   -20514.554    818.39227   -13756.773     7151.287    7885.1601    83.133508 
   97600    587.35171   -107.12289   0.53144817   -106.59144    9084.5465    4.3629093    4.3629093    4.3629093    9084.5465     2874.724   -3619.9603    27998.876    23527.327    12142.094    9988.3651    83.047883 
   97700    1273.3288   -107.73468    1.1521346   -106.58254    12554.214    4.3703618    4.3703618    4.3703618    12554.214    28528.666    13392.397   -4258.4209   -9929.6866    11169.323    -3045.884    83.474182 
   97800    1430.7297   -107.88309    1.2945543   -106.58853   -13401.223    4.3664543    4.3664543    4.3664543   -13401.223   -6427.7798   -16538.644   -17237.245     10627.75   -7065.7294     14171.19    83.250482 
   97900    1029.9448    -107.5245    0.9319157   -106.59259    1401.4642    4.3525059    4.3525059    4.3525059    1401.4642   -14608.425    10758.289    8054.5286    29051.897    10257.875   -4257.1757    82.455212 
   98000    1376.6455   -107.83815    1.2456177   -106.59254   -11255.247    4.3627643    4.3627643    4.3627643   -11255.247   -22097.108   -15273.698    3605.0655   -10687.478   -12364.214    1043.4031    83.039603 
   98100    845.84818   -107.36871   0.76534121   -106.60337     -22517.3    4.3705169    4.3705169    4.3705169     -22517.3   -56876.479   -36007.782    25332.361    35596.855   -1690.8787   -1897.0393    83.483068 
   98200    1625.1935   -108.06826    1.4705092   -106.59775    5070.6424    4.3502093    4.3502093    4.3502093    5070.6424    24160.173    1448.9413   -10397.187   -4404.3097    7289.1462    851.17112    82.324755 
   98300    1165.6292   -107.65612    1.0546858   -106.60143     9074.239    4.3539636    4.3539636    4.3539636     9074.239    1309.8964   -7725.3932    33638.214    8713.7008   -4658.0983   -2927.5959    82.538085 
   98400    861.44061   -107.38437   0.77944957   -106.60492    -4777.864    4.3694199    4.3694199    4.3694199    -4777.864   -623.22267    -11146.86   -2563.5092    20677.155    5576.4008    3399.8511    83.420224 
   98500    1377.1036   -107.84157    1.2460323   -106.59553    3549.6336    4.3671287    4.3671287    4.3671287    3549.6336   -9386.8781    2021.4809    18014.298   -8844.2348    7854.8592    10459.729    83.289061 
   98600    1390.0933    -107.8494    1.2577856   -106.59162    18997.627    4.3486802    4.3486802    4.3486802    18997.627    32059.482    7792.6678    17140.732    29584.746   -9425.2164    5506.2295    82.237976 
   98700    896.62514   -107.41073   0.81128527   -106.59944    14712.584    4.3559873    4.3559873    4.3559873    14712.584    8160.8321    18470.259     17506.66   -2442.0928    20371.716    -1454.598    82.653226 
   98800     1078.547   -107.56854   0.97589195   -106.59265   -22531.455    4.3740955    4.3740955    4.3740955   -22531.455   -39636.339   -20817.526   -7140.4989    15942.776    9271.9488    1347.9005    83.688305 
   98900    1532.5248   -107.96954    1.3866606   -106.58288    9607.6458    4.3593044    4.3593044    4.3593044    9607.6458    12283.924   -5258.0514    21797.064    13570.447   -1100.2794    -5236.718    82.842193 
   99000    1055.6714   -107.54503   0.95519371   -106.58983    2739.9762    4.3602831    4.3602831    4.3602831    2739.9762     222.9984     19471.07    -11474.14   -5160.5631    24213.309   -6225.5922       82.898 
   99100     1126.432   -107.60528    1.0192194   -106.58606    -1344.066     4.359919     4.359919     4.359919    -1344.066    23717.543   -13295.173   -14454.569    14473.641   -10823.904   -8962.9911    82.877237 
   99200    983.53066   -107.48269   0.88991921   -106.59277    20600.208    4.3561003    4.3561003    4.3561003    20600.208    27740.216    3976.2366    30084.173   -7609.2807    9278.0752   -5478.9558    82.659661 
   99300    1455.3045   -107.91133    1.3167901   -106.59454   -16859.892    4.3689564    4.3689564    4.3689564   -16859.892       -20381   -12062.956   -18135.719    1599.2036    14116.408   -69.762219    83.393679 
   99400    1429.1527   -107.87882    1.2931274   -106.58569    12296.083    4.3559457    4.3559457    4.3559457    12296.083    31458.541    10954.425   -5524.7175    8795.3249   -4547.8116    -12965.43    82.650858 
   99500    609.71306   -107.15276   0.55168119   -106.60108   -4725.6241    4.3549035    4.3549035    4.3549035   -4725.6241   -25314.918     17538.48   -6400.4342   -7135.3485    18394.122     6218.484    82.591547 
   99600    1354.0377   -107.82614    1.2251618   -106.60098    3435.0342    4.3623738    4.3623738    4.3623738    3435.0342    10625.628   -8630.1801    8309.6549    2006.8978    -2346.304    2836.7822    83.017302 
   99700    1516.7037   -107.97153    1.3723454   -106.59919   -2063.8837    4.3613698    4.3613698    4.3613698   -2063.8837   -3570.0141    7872.1747   -10493.812   -1612.8217    6692.7497    7719.3999    82.960001 
   99800    792.51231    -107.3179    0.7170818   -106.60082    -24796.33    4.3621911    4.3621911    4.3621911    -24796.33   -34036.864    7428.5412   -47780.667   -14193.823    13583.008    4524.2734    83.006872 
   99900    1247.3112   -107.71523    1.1285933   -106.58664    27387.356    4.3525263    4.3525263    4.3525263    27387.356      46378.9    7154.1179    28629.049    -873.9407    2634.1388    166.97811    82.456369 
  100000    1083.8006    -107.5839   0.98064553   -106.60326   -13808.836    4.3686115    4.3686115    4.3686115   -13808.836   -9678.6759   -14413.356   -17334.474    -15986.26    21098.758    660.78103    83.373933 
Loop time of 22.0454 on 1 procs for 100000 steps with 8 atoms

Pair  time (%) = 6.86786 (31.1532)
Kspce time (%) = 5.40656 (24.5246)
Neigh time (%) = 0.0145373 (0.0659427)
Comm  time (%) = 1.00944 (4.5789)
Outpt time (%) = 0.0260079 (0.117974)
Other time (%) = 8.72102 (39.5593)

Nlocal:    8 ave 8 max 8 min
Histogram: 1 0 0 0 0 0 0 0 0 0
Nghost:    1978 ave 1978 max 1978 min
Histogram: 1 0 0 0 0 0 0 0 0 0
Neighs:    2102 ave 2102 max 2102 min
Histogram: 1 0 0 0 0 0 0 0 0 0

Total # of neighbors = 2102
Ave neighs/atom = 262.75
Neighbor list builds = 175
Dangerous builds = 0
unfix 20
unfix 21
print "seeds:5518055"
seeds:5518055
