LAMMPS (10 Feb 2015)
# ---- initialize simulations
clear
units metal
dimension 3
boundary p p p
atom_style charge
atom_modify map array
# ---- create atoms
read_data /Users/eugeneragasa/pyflamestk_git/pypospack/tests/tests_integration/workflow/WorkflowLammpsThermalExpansion/param_3867/MgO_NaCl_unit.npt.T1600/lammps.structure
  triclinic box = (0 0 0) to (4.2565 4.2565 4.2565) with tilt (0 0 0)
  1 by 1 by 1 MPI processor grid
  reading atoms ...
  8 atoms
# ---- define interatomic potential
include potential.mod
mass 1 24.305
mass 2 15.999

group Mg type 1
4 atoms in group Mg
group O type 2
4 atoms in group O

set group Mg charge 1.73479148785
  4 settings made for charge
set group O charge -1.73479148785
  4 settings made for charge

variable R_cut equal 10.0

pair_style buck/coul/long ${R_cut}
pair_style buck/coul/long 10
pair_coeff 1 1 0.0 0.5 0.0 ${R_cut}
pair_coeff 1 1 0.0 0.5 0.0 10
pair_coeff 1 2 1225.32983502 0.291530354982 0.0 ${R_cut}
pair_coeff 1 2 1225.32983502 0.291530354982 0.0 10
pair_coeff 2 2 16858.6500597 0.120403294253 7.45918898041 ${R_cut}
pair_coeff 2 2 16858.6500597 0.120403294253 7.45918898041 10

kspace_style pppm 1.0e-5

neighbor 1.0 bin
neigh_modify every 1 delay 0 check yes
# ---- define settings
compute eng all pe/atom
compute eatoms all reduce sum c_eng
# ---- run minimization
reset_timestep 0
fix 1 all box/relax iso 0.0 vmax 0.001
thermo 10
thermo_style custom step pe lx ly lz xy xz yz press pxx pyy pzz pxy pxz pyz c_eatoms
min_style cg
minimize 1e-25 1e-25 5000 10000
PPPM initialization ...
  G vector (1/distance) = 0.3534
  grid = 8 8 8
  stencil order = 5
  estimated absolute RMS force accuracy = 4.23269e-05
  estimated relative force accuracy = 2.93944e-06
  using double precision FFTs
  3d grid and FFT values/proc = 3375 512
Neighbor list info ...
  1 neighbor list requests
  update every 1 steps, delay 0 steps, check yes
  master list distance cutoff = 11
Memory usage per processor = 4.06549 Mbytes
Step PotEng Lx Ly Lz Xy Xz Yz Press Pxx Pyy Pzz Pxy Pxz Pyz eatoms 
       0   -122.62677       4.2565       4.2565       4.2565            0            0            0    18600.794    18600.794    18600.794    18600.794 4.9707872e-11 4.7042733e-11 1.8950886e-10   -122.62677 
       5   -122.63132    4.2712858    4.2712858    4.2712858            0            0            0   -6.7076035   -6.7076035   -6.7076035   -6.7076035 9.5134085e-11 4.9732958e-12 8.6603347e-11   -122.63132 
Loop time of 0.00771904 on 1 procs for 5 steps with 8 atoms

Minimization stats:
  Stopping criterion = linesearch alpha is zero
  Energy initial, next-to-last, final = 
        -122.626768711     -122.631316441     -122.631316441
  Force two-norm initial, final = 2.68597 0.0019334
  Force max component initial, final = 2.68596 0.000975322
  Final line search alpha, max atom move = 0.00390625 3.80985e-06
  Iterations, force evaluations = 5 22

Pair  time (%) = 0.00216222 (28.0115)
Kspce time (%) = 0.00122356 (15.8512)
Neigh time (%) = 0 (0)
Comm  time (%) = 0.000235558 (3.05164)
Outpt time (%) = 0 (0)
Other time (%) = 0.0040977 (53.0856)

Nlocal:    8 ave 8 max 8 min
Histogram: 1 0 0 0 0 0 0 0 0 0
Nghost:    2189 ave 2189 max 2189 min
Histogram: 1 0 0 0 0 0 0 0 0 0
Neighs:    2344 ave 2344 max 2344 min
Histogram: 1 0 0 0 0 0 0 0 0 0

Total # of neighbors = 2344
Ave neighs/atom = 293
Neighbor list builds = 0
Dangerous builds = 0
unfix 1
# ---- define output variables ----
variable natoms equal "count(all)"
variable tot_energy equal "c_eatoms"
variable length_x equal "lx"
variable length_y equal "ly"
variable length_z equal "lz"
variable tilt_xy equal "xy"
variable tilt_xz equal "xz"
variable tilt_yz equal "yz"
variable tot_press equal "press"
variable press_xx equal "pxx"
variable press_yy equal "pyy"
variable press_zz equal "pzz"
variable press_xy equal "pxy"
variable press_xz equal "pxz"
variable press_yz equal "pyz"

# ---- output ----
print "pypospack:output_section:begin"
pypospack:output_section:begin
print "tot_energy = ${tot_energy}"
tot_energy = -122.631316441343
print "num_atoms = ${natoms}"
num_atoms = 8
print "xx = ${length_x}"
xx = 4.27128583299446
print "yy = ${length_y}"
yy = 4.27128583299446
print "zz = ${length_z}"
zz = 4.27128583299446
print "xy = ${tilt_xy}"
xy = 0
print "xz = ${tilt_xz}"
xz = 0
print "yz = ${tilt_yz}"
yz = 0
print "tot_press = ${tot_press}"
tot_press = -6.70760353710228
print "pxx = ${press_xx}"
pxx = -6.70760353705429
print "pyy = ${press_yy}"
pyy = -6.70760353725253
print "pzz = ${press_zz}"
pzz = -6.70760353700002
print "pxy = ${press_xy}"
pxy = 9.51340852761742e-11
print "pxz = ${press_xz}"
pxz = 4.97329584958765e-12
print "pyz = ${press_yz}"
pyz = 8.66033470907354e-11
print "pypospack:output_section:done"
pypospack:output_section:done
print "pypospack:lammps_sim:done"
pypospack:lammps_sim:done
#------------------------------------------------------------------------------
# RUN THERMOSTAT
# running using an NPT Nose-Hoover style thermostat
#------------------------------------------------------------------------------
variable tempdamp equal 0.1
variable pressdamp equal 1.0
# set initial velocities
velocity all create 1600 13906 mom yes dist gaussian loop all
# fix for Nose-Hoover style thermostat
fix 20 all npt temp 1600 1600 0.1 aniso 0.0 0.0 1.0 drag 1.0 couple xyz
variable boxx equal lx
variable boxy equal ly
variable boxz equal lz
variable boxp equal press
variable boxt equal temp
# calculate averages every 10000 steps
reset_timestep 0
fix 21 all ave/time 10 10 100 v_boxx v_boxy v_boxz v_boxp v_boxt file lattice.out
thermo_style custom step temp pe ke etotal press lx ly lz press pxx pyy pzz pxy pxz pyz vol
thermo_modify flush yes
thermo 100
run 100000
PPPM initialization ...
  G vector (1/distance) = 0.353246
  grid = 8 8 8
  stencil order = 5
  estimated absolute RMS force accuracy = 4.26311e-05
  estimated relative force accuracy = 2.96057e-06
  using double precision FFTs
  3d grid and FFT values/proc = 3375 512
Memory usage per processor = 3.06549 Mbytes
Step Temp PotEng KinEng TotEng Press Lx Ly Lz Press Pxx Pyy Pzz Pxy Pxz Pyz Volume 
       0         1600   -122.63132    1.4477136   -121.18361    19836.546    4.2712858    4.2712858    4.2712858    19836.546     6731.151    21123.906     31654.58   -2329.9767    4460.2234   -15132.654    77.924838 
     100    1146.1145   -122.02712    1.0370285   -120.99009    12121.547    4.3037397    4.3037397    4.3037397    12121.547   -23234.833    45507.679    14091.794    3589.1917   -2283.4454    1216.5327    79.714624 
     200    1112.2975   -121.60165    1.0064301   -120.59522   -18048.077    4.3490437    4.3490437    4.3490437   -18048.077   -66170.336    29670.798   -17644.693    -3909.356    831.80188    13342.402    82.258603 
     300     1678.015   -121.76277    1.5183032   -120.24447   -17552.968    4.3466793    4.3466793    4.3466793   -17552.968   -70854.777    13911.332    4284.5411    980.27573   -1699.8797    5004.6177    82.124514 
     400    1444.5772   -121.27072    1.3070838   -119.96363    27910.099    4.3225899    4.3225899    4.3225899    27910.099   -46157.433    57720.892    72166.838    -1743.876   -1899.1737     17914.15    80.766657 
     500    1099.7797   -120.79733    0.9951038   -119.80222    39716.543    4.3285134    4.3285134    4.3285134    39716.543   -51864.404    87543.682    83470.352   -4557.5833    1875.2076    44980.414    81.099152 
     600    1170.5339   -120.77853    1.0591237   -119.71941    257.37885    4.3522715    4.3522715    4.3522715    257.37885   -52090.716    79375.462    -26512.61   -7804.0324    7324.4953     28789.93    82.441892 
     700    1083.6728   -120.65215   0.98052991   -119.67162    21498.006    4.3475303    4.3475303    4.3475303    21498.006   -29831.736    124512.53   -30186.773     1708.012   -3257.3137    19339.725    82.172758 
     800    1685.7392   -121.18322    1.5252923   -119.65793     5251.224    4.3426922    4.3426922    4.3426922     5251.224   -8768.7606    11339.344    13183.088    1458.8025   -1467.7692     6339.497    81.898726 
     900    1313.8067   -120.85712      1.18876   -119.66836    1701.1016    4.3565222    4.3565222    4.3565222    1701.1016    -38023.86   -34193.237    77320.402   -52.224182   -7178.5554    32611.808    82.683681 
    1000     1503.421   -121.02564    1.3603269   -119.66531   -19649.216    4.3508431    4.3508431    4.3508431   -19649.216   -50587.657    18651.901   -27011.893   -3092.7634   -7152.7775    13664.584    82.360744 
    1100    1676.6763   -121.18138     1.517092   -119.66429    14857.637    4.3398977    4.3398977    4.3398977    14857.637   -181.06662    48920.115    -4166.136   -8572.7093    7813.7068   -3856.9247    81.740721 
    1200    1483.6615   -121.02192    1.3424481   -119.67947   -5967.7399    4.3534623    4.3534623    4.3534623   -5967.7399   -9862.7633     11660.72   -19701.177   -15195.865    6740.5932    14696.708    82.509578 
    1300    1493.7155   -121.01798    1.3515452   -119.66643   -30981.858    4.3462099    4.3462099    4.3462099   -30981.858   -19573.611   -17063.538   -56308.425    1212.1502    1463.9028    17493.687    82.097909 
    1400     1763.588   -121.24337    1.5957315   -119.64763   -7728.9323    4.3226211    4.3226211    4.3226211   -7728.9323   -13957.101    15692.386   -24922.081   -1956.8815   -1715.8262   -5777.0028    80.768406 
    1500    1745.0076   -121.25454    1.5789196   -119.67562   -740.45382    4.3351147    4.3351147    4.3351147   -740.45382   -19181.646   -23769.577    40729.862   -6353.8785    6731.7498    13544.848    81.470764 
    1600    1384.0258   -120.92474    1.2522957   -119.67245   -27761.904    4.3607184    4.3607184    4.3607184   -27761.904   -6482.7805   -35338.305   -41464.626    3207.4878   -16924.955    15928.658    82.922832 
    1700    1597.6236   -121.08796    1.4455634    -119.6424   -29311.085    4.3471185    4.3471185    4.3471185   -29311.085   -18307.537    8840.6997   -78466.417    8425.6556   -12624.064    406.82221    82.149406 
    1800    1643.2772   -121.12203    1.4868718   -119.63515   -2929.5538    4.3184087    4.3184087    4.3184087   -2929.5538   -8438.5964    22220.132   -22570.197   -859.85744    14734.834    672.76201    80.532507 
    1900    1391.5422   -120.92938    1.2590966   -119.67028     7158.436    4.3214604    4.3214604    4.3214604     7158.436    2751.0446    1891.4973    16832.766    8533.0644   -1664.2409     4330.506    80.703357 
    2000    1558.3573   -121.10418    1.4100344   -119.69415   -27944.792     4.348485     4.348485     4.348485   -27944.792   -27587.279    17627.305   -73874.403    3521.7509   -1384.7215    444.60189    82.226901 
    2100    1436.7221   -120.97222    1.2999764   -119.67224   -23575.382    4.3548722    4.3548722    4.3548722   -23575.382   -52302.455     8837.613   -27261.304   -5111.2638    6958.2545    6591.9737     82.58977 
    2200    1516.1312   -121.04613    1.3718273   -119.67431    -17634.77    4.3230096    4.3230096    4.3230096    -17634.77   -48449.751   -14275.553    9820.9947   -2076.1703    3675.2497    2286.6805    80.790183 
    2300    1394.6709   -120.94878    1.2619275   -119.68685    19938.242    4.2973418    4.2973418    4.2973418    19938.242    3221.9879    72717.828   -16125.089    5839.0282   -33534.148     -3069.47    79.359642 
    2400    1201.2389    -120.8392    1.0869062   -119.75229   -18238.506    4.3335636    4.3335636    4.3335636   -18238.506   -19405.942    13490.234    -48799.81    3067.7559    2909.9215    11092.945    81.383345 
    2500    888.21345   -120.50912    0.8036742   -119.70544   -17329.462    4.3561788    4.3561788    4.3561788   -17329.462   -35247.707   -37233.028    20492.349   -9469.3879    6260.9333    3132.9725    82.664126 
    2600    1594.8594   -121.11795    1.4430623   -119.67489    5372.7633    4.3172981    4.3172981    4.3172981    5372.7633    3526.8573    8104.9669    4486.4655   -11745.489    -4895.724    10966.177    80.470393 
    2700    1373.0791   -120.92394    1.2423908   -119.68155    30832.854    4.3056991    4.3056991    4.3056991    30832.854    31620.886    22871.996    38005.681    6309.2794   -8688.7102   -7972.2159    79.823551 
    2800     1555.055   -121.11229    1.4070465   -119.70524    13831.487    4.3287559    4.3287559    4.3287559    13831.487    11884.598    6382.7696    23227.093   -5597.5548   -4008.9159    -2799.121    81.112779 
    2900    1504.5264   -121.06456    1.3613271   -119.70323    2715.0316    4.3439889    4.3439889    4.3439889    2715.0316    1266.1262   -32659.654    39538.622   -8061.8287    1970.9648    9503.3352    81.972113 
    3000    2025.8965   -121.53042    1.8330737   -119.69734   -37738.867     4.341457     4.341457     4.341457   -37738.867   -31789.829   -42933.256   -38493.517    7532.7801   -13391.535   -12148.287    81.828861 
    3100    1764.9916   -121.29788    1.5970015   -119.70088    26039.611    4.3060484    4.3060484    4.3060484    26039.611    34154.929   -22724.334    66688.239    6195.3191    -6708.697   -28213.286    79.842977 
    3200    1940.6975   -121.45918    1.7559839   -119.70319    43613.423     4.293152     4.293152     4.293152    43613.423     21594.52    33820.148    75425.602   -5614.7107    4030.5513   -890.54843    79.127746 
    3300    2297.1976   -121.81654    2.0785526   -119.73799   -35066.492    4.3349456    4.3349456    4.3349456   -35066.492    -58706.78   -49917.846    3425.1509    -9465.562    4908.6616    977.53506    81.461226 
    3400    1692.2691   -121.23443    1.5312006   -119.70323   -26603.933    4.3457104    4.3457104    4.3457104   -26603.933   -42484.772   -41075.736    3748.7107    2206.9369    3263.5693   -22608.507    82.069604 
    3500    2023.4688   -121.51165    1.8308771   -119.68077    18055.779    4.3100274    4.3100274    4.3100274    18055.779    30647.971    4801.6925    18717.675    -9744.673   -3986.0373   -18334.821     80.06452 
    3600    2041.8575   -121.53065    1.8475156   -119.68314     24072.31      4.30883      4.30883      4.30883     24072.31   -2717.3824    923.05798    74011.255    -22945.35   -3990.4267    14842.829    79.997807 
    3700    2069.8088   -121.56571    1.8728065   -119.69291   -18603.203    4.3259245    4.3259245    4.3259245   -18603.203   -45529.051   -40871.888     30591.33    408.73053    11881.672    1754.1189     80.95372 
    3800    1812.3936   -121.33418    1.6398918   -119.69428    -2800.219    4.3270887    4.3270887    4.3270887    -2800.219    7200.9117    -17134.48    1532.9111    2119.6242   -14079.704   -32601.047    81.019098 
    3900    1343.0976   -120.91663     1.215263   -119.70137    26994.684    4.3346078    4.3346078    4.3346078    26994.684     18667.24    11879.708    50437.103   -9591.9164    3509.2772    953.38429    81.442189 
    4000    1669.8346   -121.20955    1.5109014   -119.69865    1162.7723    4.3379655    4.3379655    4.3379655    1162.7723   -15770.182   -20509.736    39768.235   -11931.051    5979.0003    10684.635    81.631592 
    4100    2151.1944   -121.63815    1.9464459    -119.6917   -12952.111    4.3208376    4.3208376    4.3208376   -12952.111   -18994.152   -10729.309   -9132.8722    2173.4286    9677.3661    1966.1797    80.668471 
    4200    1072.7342   -120.66071   0.97063249   -119.69008    54571.227    4.3104736    4.3104736    4.3104736    54571.227    51522.868    42241.589    69949.224   -5172.0117    -16643.28   -29066.237    80.089387 
    4300    1580.7637   -121.13066    1.4303082   -119.70036   -12087.197      4.33279      4.33279      4.33279   -12087.197   -12957.265   -13517.533   -9786.7934   -19719.409    -15582.31    6954.0398    81.339767 
    4400    1877.8561   -121.37172    1.6991236    -119.6726   -33076.969    4.3443623    4.3443623    4.3443623   -33076.969   -40691.298    -38388.67    -20150.94   -12006.887   -3754.6068    13019.197    81.993253 
    4500    1589.0995   -121.10607    1.4378506   -119.66822     13126.97    4.3181399    4.3181399    4.3181399     13126.97   -5115.6429    -1605.701    46102.253     5547.855   -16092.727   -29650.786    80.517472 
    4600    1519.5727   -121.06406    1.3749413   -119.68912   -8962.0746     4.309613     4.309613     4.309613   -8962.0746    20083.077    5657.4906   -52626.792   -8651.4284    7414.7432    -11295.54    80.041426 
    4700    1076.7931   -120.68471   0.97430498   -119.71041   -11618.888    4.3260553    4.3260553    4.3260553   -11618.888     10397.93   -43353.356   -1901.2377   -20678.858    5364.6409    25813.433    80.961064 
    4800     1568.866   -121.11821    1.4195429   -119.69867   -11124.138    4.3282666    4.3282666    4.3282666   -11124.138   -2439.1615   -19210.548   -11722.705   -5343.0096   -731.74794   -2566.8645    81.085278 
    4900    1347.4403   -120.92207    1.2191923   -119.70288   -6765.1273    4.3235042    4.3235042    4.3235042   -6765.1273    19351.795   -23747.894   -15899.283    10706.468   -14185.472   -30901.075    80.817919 
    5000    985.84757    -120.5985    0.8920156   -119.70648    5502.4804    4.3177141    4.3177141    4.3177141    5502.4804    45901.954    3143.8632   -32538.376   -11871.874   -2920.5249    8355.5857    80.493655 
    5100    1014.8547   -120.62386   0.91826184    -119.7056    -4915.584    4.3221745    4.3221745    4.3221745    -4915.584    46417.344   -20531.821   -40632.274   -21002.433    13572.141    9363.8763    80.743374 
    5200    1395.7272   -120.96115    1.2628833   -119.69827   -28975.083    4.3279957    4.3279957    4.3279957   -28975.083   -1801.9765   -7795.0897   -77328.183    5850.5395    11545.622   -5832.4483    81.070056 
    5300    1288.5258   -120.85502    1.1658852   -119.68913   -16033.967     4.322972     4.322972     4.322972   -16033.967    62070.183   -20614.678   -89557.407    23378.926   -12223.305   -13092.211    80.788075 
    5400    1170.5307   -120.74901    1.0591208   -119.68989    1579.8058    4.3173852    4.3173852    4.3173852    1579.8058    3854.6934    19165.369   -18280.645   -6190.8394    134.22579    12374.247    80.475262 
    5500    1187.3507   -120.76913    1.0743399    -119.6948   -10491.054    4.3270166    4.3270166    4.3270166   -10491.054     5770.333   -19412.757   -17830.737   -15985.846    19564.899     7435.916    81.015046 
    5600    1263.6315   -120.83242    1.1433603   -119.68906   -3397.3349    4.3248567    4.3248567    4.3248567   -3397.3349    69711.273   -20402.015   -59501.262   -3308.4153    9083.1379   -17375.807    80.893789 
    5700    1447.4393   -121.00037    1.3096735   -119.69069   -1445.8866    4.3081807    4.3081807    4.3081807   -1445.8866    27353.016   -21948.849   -9741.8272    20505.152   -12082.546     -3412.98     79.96165 
    5800    1058.2054   -120.66584   0.95748647   -119.70835    11329.307    4.3071717    4.3071717    4.3071717    11329.307    30071.846    4336.4561   -420.38248    7221.9226   -22098.743    17418.827    79.905481 
    5900    1143.9491   -120.74815    1.0350692   -119.71308   -2167.0689    4.3220511    4.3220511    4.3220511   -2167.0689    22218.551   -2888.7475   -25831.011   -4691.7478    20443.745   -3349.3132    80.736457 
    6000    1382.9349    -120.9533    1.2513085   -119.70199   -16552.044    4.3271653    4.3271653    4.3271653   -16552.044    528.75003   -42320.615   -7864.2662   -17696.339    29179.873   -9095.2136    81.023401 
    6100    1480.8867   -121.03846    1.3399374   -119.69852   -16862.914    4.3238807    4.3238807    4.3238807   -16862.914   -2060.5813   -35980.641   -12547.522     8438.251   -24744.399     13065.89     80.83903 
    6200    912.31609   -120.52894   0.82548277   -119.70345    1897.6836    4.3265081    4.3265081    4.3265081    1897.6836    56631.325   -1005.0209   -49933.253   -3578.4197    6166.9573    5934.5796    80.986489 
    6300    1262.3822   -120.83863      1.14223    -119.6964    99.191867    4.3166565    4.3166565    4.3166565    99.191867    18362.731   -6891.6725   -11173.483   -1749.5998    11576.115   -13730.805    80.434522 
    6400    1387.4069    -120.9483    1.2553549   -119.69294    29071.663    4.3051044    4.3051044    4.3051044    29071.663    95334.604   -20646.257    12526.642   -1666.5479    8838.9558    10588.958     79.79048 
    6500    1500.7286   -121.08063    1.3578908   -119.72274   -11332.782    4.3272341    4.3272341    4.3272341   -11332.782    17276.163   -14110.287   -37164.221   -3062.4839   -13331.948    15710.482    81.027261 
    6600    1512.5021   -121.07524    1.3685437    -119.7067   -19423.304     4.334207     4.334207     4.334207   -19423.304    -1471.642   -13399.522   -43398.749    2341.6073   -15045.507   -3030.0867    81.419598 
    6700    1477.2512    -121.0244    1.3366479   -119.68775    14682.374    4.3162855    4.3162855    4.3162855    14682.374    7686.9133   -3554.6416    39914.849    3043.8399   -3225.1097    10045.387    80.413784 
    6800    1256.8253   -120.83818    1.1372019   -119.70098    15006.251     4.321565     4.321565     4.321565    15006.251    82948.726   -34251.153   -3678.8197   -9072.0442   -2634.1642     17651.42    80.709222 
    6900    1781.1725   -121.30464    1.6116423     -119.693   -7224.5492    4.3305338    4.3305338    4.3305338   -7224.5492    29257.421    -37643.42   -13287.649   -12031.529     10978.88    3544.7076    81.212765 
    7000     1854.514    -121.3606    1.6780032   -119.68259    21128.846    4.3183134    4.3183134    4.3183134    21128.846    41862.061   -5753.0261    27277.501   -2443.0606    5878.6691    3590.2568    80.527179 
    7100    1119.6544   -120.71836    1.0130869   -119.70528    3765.8349    4.3234872    4.3234872    4.3234872    3765.8349    45659.205   -5108.8334   -29252.867   -1280.4228    15754.699    23323.527    80.816966 
    7200    1320.9362    -120.8962    1.1952109   -119.70099   -40399.139    4.3304986    4.3304986    4.3304986   -40399.139    -7323.666   -44321.927   -69551.825     11712.06   -14631.526     28119.88    81.210787 
    7300    1881.6536   -121.38876    1.7025597    -119.6862    5589.9285    4.3174156    4.3174156    4.3174156    5589.9285   -865.31248    1590.7078     16044.39   -7352.5169   -982.66497    77.231004    80.476961 
    7400    2201.2377     -121.688    1.9917261   -119.69628    4777.9678    4.3186765    4.3186765    4.3186765    4777.9678    9900.6456   -18367.933     22801.19   -36.198383    12768.806    9182.8018    80.547494 
    7500    1601.5533   -121.15289    1.4491191   -119.70378   -15070.946    4.3271156    4.3271156    4.3271156   -15070.946   -26212.387   -36131.349    17130.899    1509.9536   -2351.6471    38259.061    81.020607 
    7600    1818.4291   -121.34114    1.6453529   -119.69579     1029.838    4.3176377    4.3176377    4.3176377     1029.838   -1056.1543   -11465.961    15611.629   -890.28681   -4862.4256    14242.987    80.489383 
    7700    2544.2214   -121.99464     2.302065   -119.69258    5354.3242    4.3172685    4.3172685    4.3172685    5354.3242   -25449.816    13350.029    28162.759    12212.504   -15228.981   -33074.773    80.468735 
    7800    2135.2609   -121.62938     1.932029   -119.69735   -13109.035    4.3276978    4.3276978    4.3276978   -13109.035   -3396.8236   -50193.496    14263.214     19206.87    -6556.567    16110.748    81.053317 
    7900    1768.9637   -121.29791    1.6005955   -119.69731   -9812.8513    4.3274907    4.3274907    4.3274907   -9812.8513   -4735.7977   -37323.548    12620.792    17869.018    4179.2707    39773.374    81.041681 
    8000     2004.141   -121.50199    1.8133889   -119.68861    16677.968    4.3188237    4.3188237    4.3188237    16677.968   -3539.1135    24259.799    29313.219   -16106.132    -6382.461    7330.6024    80.555727 
    8100    2346.0816   -121.81917    2.1227839   -119.69638   -3145.7064    4.3148211    4.3148211    4.3148211   -3145.7064   -31312.762    9403.5299    12472.113   -10090.264    2618.5353    8436.4062    80.331966 
    8200    1435.1383    -121.0037    1.2985433   -119.70516    26308.237    4.3082755    4.3082755    4.3082755    26308.237     40912.08    30976.754    7035.8776    27529.236    9893.3707    1990.2681    79.966927 
    8300    1622.1725   -121.18585    1.4677758   -119.71808   -22493.239    4.3254913    4.3254913    4.3254913   -22493.239   -4373.9638   -31322.464    -31783.29    7871.5744   -5052.0709    23729.398    80.929403 
    8400    1966.0059   -121.47121    1.7788834   -119.69233   -40864.786     4.339749     4.339749     4.339749   -40864.786   -37378.098   -57567.768   -27648.493   -10147.976   -151.08382    -6530.617    81.732322 
    8500    1534.0382   -121.07508      1.38803   -119.68705     26409.36     4.307569     4.307569     4.307569     26409.36    82653.263     15255.32   -18680.503   -7523.9811    12501.177   -22406.661    79.927592 
    8600    1694.4296    -121.2178    1.5331555   -119.68465    11359.969    4.2924955    4.2924955    4.2924955    11359.969    47646.446   -9182.2422   -4384.2976    13091.145   -11876.722    25680.042     79.09145 
    8700    1291.2714   -120.88455    1.1683695   -119.71618   -20323.358    4.3299138    4.3299138    4.3299138   -20323.358      33217.5   -81765.309   -12422.264    6067.4511    8754.3832     21662.35    81.177888 
    8800    1624.6377   -121.15645    1.4700063   -119.68645   -26188.813    4.3356538    4.3356538    4.3356538   -26188.813    10177.173   -70830.237   -17913.375    -2455.844    14384.886   -10870.773    81.501158 
    8900    1637.5963   -121.15483    1.4817316    -119.6731    15537.752    4.3017052    4.3017052    4.3017052    15537.752    40638.477   -1747.7536    7722.5335   -14639.548    -60.78053    650.01371    79.601627 
    9000    1209.1375    -120.7941     1.094053   -119.70005   -1934.0078    4.3041791    4.3041791    4.3041791   -1934.0078     53176.06   -42072.235   -16905.848    24974.419   -9011.4503    22702.906    79.739039 
    9100    1069.2079   -120.68098    0.9674418   -119.71353   -6473.6052    4.3283711    4.3283711    4.3283711   -6473.6052    2928.1988   -42075.802    19726.788    37662.504    14482.817    5500.1952    81.091152 
    9200    1405.5459   -120.95934    1.2717674   -119.68757   -2895.6206    4.3336865    4.3336865    4.3336865   -2895.6206   -25736.629    -18712.72    35762.487    8304.8488   -9026.8542   -14205.989    81.390267 
    9300    1645.0108   -121.16153    1.4884403   -119.67309   -5303.6019    4.3152274    4.3152274    4.3152274   -5303.6019     12784.31    -31849.32    3154.2049   -7141.2485   -10879.244   -6129.2388    80.354659 
    9400    775.23557   -120.38573   0.70144944   -119.68428    16363.652    4.3033371    4.3033371    4.3033371    16363.652    7503.4284    5730.6849    35856.843     7785.329     4346.028    25710.172    79.692253 
    9500    1449.3292   -121.01794    1.3113835   -119.70656   -11930.677    4.3214534    4.3214534    4.3214534   -11930.677   -22841.756   -25976.316    13026.041    18414.657     1643.805    20705.287    80.702966 
    9600    2015.8404   -121.52139    1.8239748   -119.69742   -19798.404    4.3329771    4.3329771    4.3329771   -19798.404    -35893.54   -38847.284    15345.611   -9282.4312   -9534.9978   -3480.1075    81.350303 
    9700    1531.9445    -121.0849    1.3861355   -119.69877    21480.094    4.3032557    4.3032557    4.3032557    21480.094   -4322.1694    14556.756    54205.696   -1706.4807    7303.2484   -4388.2915     79.68773 
    9800    911.11824   -120.53903   0.82439893   -119.71463    13392.939    4.3009867    4.3009867    4.3009867    13392.939   -35723.885   -8426.1714    84328.874    32374.517   -3310.1456    20449.035    79.561745 
    9900    1634.2835   -121.19452    1.4787341   -119.71579   -46069.639    4.3258057    4.3258057    4.3258057   -46069.639   -41097.393   -63742.322   -33369.201    15746.521    10345.332    24064.963     80.94705 
   10000    2016.8377   -121.52596    1.8248771   -119.70109    14615.238    4.3187918    4.3187918    4.3187918    14615.238   -37288.122    20065.775     61068.06   -1247.1551    5443.3731   -7236.9988    80.553943 
   10100    1649.8423   -121.20434     1.492812   -119.71153     20481.26    4.3212689    4.3212689    4.3212689     20481.26   -38623.702    21047.127    79020.356     13550.95   -258.02367   -8154.8058    80.692629 
   10200    1426.0632   -121.00094     1.290332   -119.71061   -2861.9128     4.334637     4.334637     4.334637   -2861.9128    -43918.96   -38497.116    73830.338    14123.642    9405.2398    27725.182    81.443835 
   10300    1827.6266   -121.34687    1.6536749   -119.69319   -3186.8169    4.3235929    4.3235929    4.3235929   -3186.8169   -4070.4841     -16407.3    10917.333   -18927.358   -3559.2302    24040.897    80.822893 
   10400    2167.0355   -121.64631    1.9607793   -119.68553    -15751.12    4.3167924    4.3167924    4.3167924    -15751.12   -46569.442    17138.786   -17822.704   -2683.1872    7478.1192   -24186.203    80.442117 
   10500     1921.367   -121.43549    1.7384932   -119.69699   -15932.977     4.335413     4.335413     4.335413   -15932.977   -38170.171    -17690.36    8061.5992    13626.929   -5971.0204   -17723.341    81.487583 
   10600    1891.2884   -121.38894    1.7112775   -119.67766   -28176.236     4.340213     4.340213     4.340213   -28176.236   -35156.112   -24832.045   -24540.551   -4071.9164   -7659.0541    22544.675    81.758543 
   10700    2216.9347   -121.66488    2.0059291   -119.65895    5128.6895     4.307717     4.307717     4.307717    5128.6895   -6772.6362    38062.801   -15904.096   -8483.5941   -3400.1768    14065.652    79.935833 
   10800    1913.6372   -121.41391    1.7314991   -119.68241    6701.4683    4.3086521    4.3086521    4.3086521    6701.4683   -6924.7896    6318.5502    20710.644    17906.843   -5000.2984   -31507.395    79.987896 
   10900     1721.189   -121.25574     1.557368   -119.69837   -27650.934     4.330893     4.330893     4.330893   -27650.934    9202.6528    -55199.18   -36956.274    20262.837    15924.233   -945.02092    81.232976 
   11000    2164.5013   -121.64411    1.9584863   -119.68563    583.43151     4.322651     4.322651     4.322651    583.43151    16705.108    10740.802   -25695.615    1638.5777    10753.497    27709.583     80.77008 
   11100    2066.5787   -121.55823    1.8698838   -119.68835    23347.257    4.3234451    4.3234451    4.3234451    23347.257   -20401.588    84460.338    5983.0213   -10689.721   -4656.0516    11801.228    80.814603 
   11200    1884.9313   -121.39577    1.7055254   -119.69025   -4590.2528    4.3314833    4.3314833    4.3314833   -4590.2528   -40649.174    30598.008   -3719.5919   -3336.6445    4164.2866    79.517363    81.266194 
   11300    1696.5198   -121.22007    1.5350468   -119.68503    20930.897    4.3144909    4.3144909    4.3144909    20930.897    28206.778    21384.952    13200.961   -973.23102    16668.613    14228.541    80.313523 
   11400    1891.2568   -121.40008    1.7112489   -119.68883    19791.069    4.3076003    4.3076003    4.3076003    19791.069    28000.162    3960.5792    27412.467   -8455.3234   -118.32299    7384.1522    79.929331 
   11500    1708.4618   -121.24871    1.5458521   -119.70285   -37937.528    4.3328019    4.3328019    4.3328019   -37937.528   -56693.672   -9661.1891   -47457.724   -7939.4552   -11015.403   -9277.9662    81.340439 
   11600     1407.175    -120.9677    1.2732415   -119.69446   -53491.644    4.3337991    4.3337991    4.3337991   -53491.644   -46454.819   -62984.502   -51035.612    1781.1104    471.85021   -24289.839    81.396612 
   11700     1479.856   -121.01473    1.3390048   -119.67572    4505.3236    4.2989911    4.2989911    4.2989911    4505.3236    57123.454   -42029.641   -1577.8429   -5253.9417     917.3066   -27757.521    79.451047 
   11800    1183.0119   -120.77244     1.070414   -119.70203   -8447.5181    4.3117358    4.3117358    4.3117358   -8447.5181   -32663.741    38748.677    -31427.49   -1085.3323   -2080.4683    12671.947    80.159763 
   11900     1102.711   -120.69114   0.99775613   -119.69339   -57557.092    4.3416565    4.3416565    4.3416565   -57557.092   -59548.524   -52491.778   -60630.974   -1913.1013    7828.2236   -1353.5222    81.840144 
   12000    1187.7127   -120.74321    1.0746674   -119.66854   -20654.429    4.3208031    4.3208031    4.3208031   -20654.429   -2782.1492   -30050.764   -29130.373    5502.9056    15252.712   -32701.841    80.666541 
   12100    1138.2592   -120.70204    1.0299209   -119.67212    14655.146     4.313118     4.313118     4.313118    14655.146    3354.7828    12109.227    28501.427   -6846.6739   -3881.7073   -20782.282    80.236876 
   12200    1627.4441   -121.15431    1.4725456   -119.68177   -24588.605    4.3332071    4.3332071    4.3332071   -24588.605   -19977.391   -43915.093   -9873.3317    7276.2191   -4810.5643    18618.122    81.363258 
   12300    1118.0075   -120.69586    1.0115967   -119.68427    8434.5406    4.3187071    4.3187071    4.3187071    8434.5406   -21310.434    2965.6481    43648.408    11314.678    7382.4975   -21376.224    80.549204 
   12400    1209.7488   -120.79368    1.0946061   -119.69907    10900.964    4.3158814    4.3158814    4.3158814    10900.964    60427.192   -40102.527    12378.226   -2566.6987    7900.2298   -26017.437      80.3912 
   12500    2006.2547   -121.49912    1.8153014   -119.68381   -28501.138    4.3345969    4.3345969    4.3345969   -28501.138   -9480.5217   -75378.539   -644.35277    5660.4165    7211.3044    7987.8055    81.441572 
   12600    1647.8494    -121.1654    1.4910088   -119.67439    9641.0196    4.3186614    4.3186614    4.3186614    9641.0196    -2158.793   -43014.189    74096.041    3356.9122    4070.1917    121.28094    80.546648 
   12700     1233.696   -120.80263    1.1162741   -119.68635    11193.314    4.3096495    4.3096495    4.3096495    11193.314    27922.354   -11253.486    16911.075    1830.2326    1516.9719   -49545.516     80.04346 
   12800    1609.8624   -121.16163    1.4566374   -119.70499    -17065.26    4.3312005    4.3312005    4.3312005    -17065.26    871.46992    -74184.27     22117.02   -1931.8137   -8887.8221   -22394.533     81.25028 
   12900    1670.9389   -121.20512    1.5119007   -119.69322    -2011.274    4.3468428    4.3468428    4.3468428    -2011.274   -32144.104   -48483.851    74594.133   -16703.401   -5855.4394       73.353    82.133781 
   13000    1042.6678   -120.62502   0.94342777   -119.68159    432.84091    4.3423875    4.3423875    4.3423875    432.84091     24528.97   -31575.065    8344.6178    -8246.167   -6916.6745   -31621.072    81.881487 
   13100    1215.3927   -120.76188    1.0997128   -119.66217     12318.66    4.3272925    4.3272925    4.3272925     12318.66    55008.402   -42667.948    24615.526   -6232.5707   -17413.016   -33997.301    81.030542 
   13200    1901.5513   -121.38231    1.7205636   -119.66175    11627.746    4.3231917    4.3231917    4.3231917    11627.746    11520.223   -12329.239    35692.255    6436.5772   -1013.0848    15150.973    80.800394 
   13300    1674.7896   -121.18575    1.5153848   -119.67037   -22025.929    4.3325294    4.3325294    4.3325294   -22025.929   -7068.6283   -42342.302   -16666.856    5509.8671    3361.1573   -17079.405    81.325091 
   13400    1073.0337   -120.64621   0.97090342    -119.6753    3451.6589    4.3249175    4.3249175    4.3249175    3451.6589    70199.911   -61554.136    1709.2017    -2245.797    629.73573   -39747.165    80.897198 
   13500    1238.3651    -120.8038    1.1204988    -119.6833   -5747.2354    4.3269268    4.3269268    4.3269268   -5747.2354   -218.60881   -53021.293    35998.195     18959.08    9314.2877   -2032.0404    81.010001 
   13600    1612.1973   -121.14105      1.45875    -119.6823   -22907.382    4.3244878    4.3244878    4.3244878   -22907.382   -19837.503   -37034.702   -11849.941    5026.6925   -5144.8949    16989.938    80.873087 
   13700    1498.9312   -121.03866    1.3562644   -119.68239    8878.3079    4.3058096    4.3058096    4.3058096    8878.3079    21931.597   -24539.891    29243.218   -16727.775   -5494.8065   -14533.748    79.829695 
   13800    1671.8849   -121.21643    1.5127565   -119.70367    5988.5933    4.3143995    4.3143995    4.3143995    5988.5933    39199.657   -15387.099   -5846.7779    2864.3777     14192.18   -25642.689    80.308415 
   13900    1905.3399   -121.42313    1.7239916   -119.69913   -25689.311    4.3309059    4.3309059    4.3309059   -25689.311    -19151.06     -43363.1   -14553.772    14749.341   -12209.296   -1886.0511    81.233699 
   14000    1536.8219   -121.08807    1.3905487   -119.69753     3214.792     4.318585     4.318585     4.318585     3214.792    2407.0853   -13626.412    20863.703    15528.195    3180.4993    2172.3125    80.542372 
   14100    1641.5966   -121.18409    1.4853511   -119.69874      10610.9    4.3174325    4.3174325    4.3174325      10610.9     43894.79    9696.1037   -21758.193   -6237.0809   -8057.8161   -11219.187    80.477907 
   14200    1848.8981    -121.3634    1.6729219   -119.69048    169.54239    4.3263758    4.3263758    4.3263758    169.54239    10032.007   -22507.764    12984.384   -391.66103   -7534.0186    -17651.87    80.979057 
   14300    2294.9973   -121.75351    2.0765618   -119.67695    13212.084    4.3110771    4.3110771    4.3110771    13212.084     22601.05    3915.0147    13120.186    6957.8939    9188.2246   -6786.7944    80.123031 
   14400    1833.4524   -121.35842    1.6589463   -119.69947    21216.663    4.3129515    4.3129515    4.3129515    21216.663   -3738.7393    33547.811    33840.918   -6062.2052   -1979.5963   -10693.461    80.227586 
   14500    1671.8636   -121.22154    1.5127373   -119.70881   -80.305751    4.3344468    4.3344468    4.3344468   -80.305751    3691.8564    590.72323   -4523.4969   -10558.456   -940.39704   -8651.1948    81.433112 
   14600    1878.9704   -121.38412    1.7001319   -119.68399    5064.5489    4.3302002    4.3302002    4.3302002    5064.5489   -10027.926   -18526.632    43748.205    13261.991   -1618.0097    8692.8874    81.193999 
   14700    2116.4007   -121.58179    1.9149638   -119.66683    6730.3435    4.3163639    4.3163639    4.3163639    6730.3435   -25989.848    23614.092    22566.786    20259.381   -3355.8555   -21613.978    80.418166 
   14800    1719.2389   -121.23693    1.5556035   -119.68132    7758.9064    4.3302888    4.3302888    4.3302888    7758.9064   -11675.359   -5441.6224      40393.7   -9402.3322   -10489.537   -22324.284    81.198983 
   14900    1926.5901   -121.41536    1.7432192   -119.67214   -17883.387    4.3413878    4.3413878    4.3413878   -17883.387   -37293.349   -25659.487    9302.6739    13684.873    1968.3728    9697.6523     81.82495 
   15000    2151.0817   -121.61472    1.9463439   -119.66838   -11701.018    4.3211769    4.3211769    4.3211769   -11701.018   -6388.3689   -15067.852   -13646.834    24502.227     11883.54     15604.62    80.687475 
   15100    1896.0432    -121.3942    1.7155797   -119.67862      5794.77    4.3114751    4.3114751    4.3114751      5794.77    13250.408   -2538.5449    6672.4466    -9091.554   -2514.8486   -22876.536    80.145222 
   15200    2288.0717   -121.76879    2.0702954   -119.69849   -14888.928    4.3306313    4.3306313    4.3306313   -14888.928    20863.216   -36177.633   -29352.368   -9147.5901   -5976.9454   -24954.233    81.218249 
   15300    2433.5515   -121.89142    2.2019286   -119.68949   -27079.812    4.3364092    4.3364092    4.3364092   -27079.812   -22577.713   -41298.281   -17363.441    33100.821   -11437.168    5928.2546    81.543766 
   15400    1892.8139   -121.40218    1.7126578   -119.68952     3613.856    4.3147081    4.3147081    4.3147081     3613.856    52175.267   -28156.813   -13176.886    32713.755    11058.983    -6442.753    80.325653 
   15500    1920.3338   -121.43355    1.7375584   -119.69599    4364.4979    4.3076335    4.3076335    4.3076335    4364.4979    36656.103   -34860.499     11297.89   -33211.674    401.46177   -2548.3499     79.93118 
   15600    2264.5413   -121.74416    2.0490046   -119.69515   -431.29333    4.3176089    4.3176089    4.3176089   -431.29333     43501.01   -34561.807   -10233.083   -23800.095   -15796.881    6605.5801    80.487772 
   15700    1942.1608   -121.44919    1.7573079   -119.69188    756.56386    4.3239307    4.3239307    4.3239307    756.56386    16397.369   -30355.072    16227.394    40615.499    2541.3274   -275.38039    80.841839 
   15800    1550.6914   -121.09549    1.4030981   -119.69239   -40884.856    4.3284301    4.3284301    4.3284301   -40884.856    -50663.52   -57235.423   -14755.624    6265.4161   -6695.9386   -11503.135    81.094467 
   15900    1450.4439   -121.00214    1.3123921   -119.68975    11279.639    4.3117011    4.3117011    4.3117011    11279.639    3044.9226    -26600.69    57394.684   -37329.666    3154.2867   -15816.198     80.15783 
   16000    2143.9569   -121.62544    1.9398972   -119.68554   -853.65694    4.3061005    4.3061005    4.3061005   -853.65694    25468.332   -23900.504   -4128.7984   -1502.0912     10656.11     7563.225    79.845875 
   16100    1130.5956   -120.72722    1.0229867   -119.70423    10510.374    4.3166534    4.3166534    4.3166534    10510.374    23693.103   -35483.154    43321.172    26666.335   -13911.122    9205.7701    80.434347 
   16200    1330.4187   -120.90725    1.2037908   -119.70346   -10628.099    4.3264177    4.3264177    4.3264177   -10628.099    -1165.486   -65444.396    34725.585   -5344.8301    85.858354   -7014.9664    80.981409 
   16300    1357.7628   -120.91253    1.2285323   -119.68399   -1282.2958     4.336137     4.336137     4.336137   -1282.2958    5522.9226    -54274.75    44904.941   -1539.6562    288.74997    8955.2391    81.528414 
   16400    1580.1016   -121.10272    1.4297091   -119.67301   -11442.844    4.3173452    4.3173452    4.3173452   -11442.844    2266.5962   -43880.135    7285.0066    13207.572   -23603.982    3123.1592    80.473024 
   16500    1232.7332   -120.79559    1.1154029   -119.68019    16492.297    4.2977482    4.2977482    4.2977482    16492.297    24712.092   -44729.736    69494.536   -464.95994   -2036.3198      517.087    79.382159 
   16600     1321.779   -120.90367    1.1959735    -119.7077   -20845.776     4.316656     4.316656     4.316656   -20845.776   -12761.289   -75270.111    25494.072   -7869.4031    9637.7063    6954.8884     80.43449 
   16700    1342.7889   -120.91329    1.2149836   -119.69831   -14745.005    4.3264154    4.3264154    4.3264154   -14745.005    -7627.298   -61682.443    25074.725    2101.4957   -2848.0798    19501.708    80.981282 
   16800    1136.5973   -120.72077    1.0284172   -119.69235    17299.376    4.3202397    4.3202397    4.3202397    17299.376    56167.113   -30629.249    26360.263    13629.811   -17271.724     15545.72    80.634991 
   16900    1288.9991   -120.86175    1.1663134   -119.69544   -6197.7701    4.3244603    4.3244603    4.3244603   -6197.7701   -14850.587   -57535.166    53792.443   -795.33259   -9842.6587   -4611.9873    80.871548 
   17000    1490.0811   -121.04038    1.3482567   -119.69212   -2394.1973    4.3148744    4.3148744    4.3148744   -2394.1973   -11768.584   -56546.565    61132.557   -9774.9227    17267.008     5322.541    80.334942 
   17100    1581.0652   -121.11884     1.430581   -119.68826    37032.441    4.3010687    4.3010687    4.3010687    37032.441    49248.431   -7430.6174     69279.51    309.65823   -13723.812    7665.8353    79.566293 
   17200    1338.4615   -120.92655    1.2110681   -119.71548   -8704.0234    4.3255355    4.3255355    4.3255355   -8704.0234   -23496.787   -1944.1019   -671.18142   -2358.1451   -14291.973     1321.059    80.931884 
   17300    1077.0429   -120.67381   0.97453109   -119.69928   -29053.331    4.3379803    4.3379803    4.3379803   -29053.331   -59464.936   -59413.889    31718.833   -19984.394    8693.2813   -16743.111    81.632431 
   17400    2094.5336   -121.58713    1.8951781   -119.69195    16707.105    4.3005849    4.3005849    4.3005849    16707.105      31494.9   -979.65762    19606.073   -6177.8298    28642.946   -8492.7402    79.539447 
   17500    2104.3669   -121.59942    1.9040754   -119.69534    52428.587    4.2889511    4.2889511    4.2889511    52428.587    33991.795    49011.307     74282.66    12924.241   -30204.187    11855.121    78.895693 
   17600    1856.3001   -121.39887    1.6796193   -119.71925   -25169.521    4.3295867    4.3295867    4.3295867   -25169.521   -34983.278     6052.152   -46577.437   -3014.1175   -31171.144    7793.6244    81.159493 
   17700    1939.9282   -121.44384    1.7552878   -119.68855       -18161    4.3319926    4.3319926    4.3319926       -18161   -7274.2519   -26561.977   -20646.772   -9671.9366   -3466.8677    -13596.98    81.294868 
   17800    2332.2333   -121.77239    2.1102537   -119.66214    25582.416    4.3080502    4.3080502    4.3080502    25582.416    24657.447    7689.9354    44399.866   -2651.3505    1602.3121   -25746.116    79.954383 
   17900    2320.9396   -121.78044    2.1000349    -119.6804   -11437.916    4.3197546    4.3197546    4.3197546   -11437.916   -7158.7451    7249.6852   -34404.689    -1154.259   -22055.686   -5151.5551     80.60783 
   18000    1866.9757   -121.36941    1.6892788   -119.68013   -12264.071    4.3301556    4.3301556    4.3301556   -12264.071   -3221.3936   -13249.206   -20321.612   -3756.5578   -22189.981    5217.9675     81.19149 
   18100    2194.9628   -121.65946    1.9860485   -119.67341   -6076.5799    4.3200985    4.3200985    4.3200985   -6076.5799   -31823.378   -3704.3011     17297.94    8296.4846    13659.777   -5531.0735    80.627081 
   18200    2043.7306    -121.5289    1.8492104   -119.67969    12082.192    4.3187839    4.3187839    4.3187839    12082.192    2218.0198    21168.257    12860.299    13966.631   -369.97599   -2624.5701    80.553502 
   18300      1491.27    -121.0412    1.3493325   -119.69187    5123.7861     4.325622     4.325622     4.325622    5123.7861   -582.70477    37419.249   -21465.186    3008.8426    -31403.38    -775.5314    80.936738 
   18400    1161.7576   -120.74141    1.0511827   -119.69022    9296.0054     4.329327     4.329327     4.329327    9296.0054    2876.1322    1696.5711    23315.313   -12021.776    2804.7782   -11876.421    81.144889 
   18500    1803.2168   -121.30759    1.6315885     -119.676   -3662.9062     4.322631     4.322631     4.322631   -3662.9062   -3376.6712   -17661.595    10049.548   -2635.6937    16647.199   -25482.688    80.768959 
   18600    1415.7731    -120.9581    1.2810212   -119.67708    12875.254    4.3153915    4.3153915    4.3153915    12875.254   -4784.4909    7005.7567    36404.497    23683.882    8642.7929    6263.2845    80.363826 
   18700    958.40163    -120.5634   0.86718194   -119.69622   -8292.7459    4.3231829    4.3231829    4.3231829   -8292.7459   -17080.925   -10911.185    3113.8728   -11016.362   -16127.506     4310.118    80.799902 
   18800    1145.1705   -120.72949    1.0361743   -119.69332   -14924.381     4.327224     4.327224     4.327224   -14924.381   -17419.892    -35169.86    7816.6091   -22444.416   -20622.095   -15486.093    81.026696 
   18900    1698.2547   -121.21917    1.5366165   -119.68255    535.08682    4.3188352    4.3188352    4.3188352    535.08682     5654.102   -29122.361     25073.52    23405.664    8204.3378   -10456.409     80.55637 
   19000    1400.0776   -120.95564    1.2668197   -119.68882    4517.5001    4.3209761    4.3209761    4.3209761    4517.5001   -3355.2708    642.93769    16264.833    12221.605   -11010.339   -6925.5038    80.676229 
   19100    1188.5005   -120.76682    1.0753803   -119.69144   -9997.7247    4.3261068    4.3261068    4.3261068   -9997.7247   -39495.805     10827.98   -1325.3497   -19149.054   -13831.896   -11310.622    80.963955 
   19200    1573.8522   -121.10698    1.4240546   -119.68292   -14120.121    4.3279005    4.3279005    4.3279005   -14120.121   -9934.1239   -25393.284   -7032.9551   -2554.2947    5630.8093   -11214.009    81.064704 
   19300    1865.7271   -121.35787    1.6881491   -119.66973   -24547.253    4.3331743    4.3331743    4.3331743   -24547.253    -12292.44   -44722.266   -16627.053    35851.083    22958.485    1837.2624    81.361412 
   19400    1547.7119   -121.07047    1.4004023   -119.67007   -25014.514    4.3217015    4.3217015    4.3217015   -25014.514   -60065.946    7578.5987   -22556.197    2697.4408   -15928.389    1935.7739    80.716868 
   19500     1792.454   -121.28994      1.62185   -119.66809    20328.343    4.3038233    4.3038233    4.3038233    20328.343    42656.892     16003.54    2324.5973   -17157.257    -34373.93     2673.697    79.719269 
   19600    2022.4866   -121.51711    1.8299884   -119.68712   -1795.5023    4.3280386    4.3280386    4.3280386   -1795.5023    10910.801    13407.846   -29705.154    -10045.22    17227.803   -11058.987    81.072465 
   19700     1623.738   -121.14321    1.4691923   -119.67402   -47453.156     4.347105     4.347105     4.347105   -47453.156   -79165.448   -1511.9162   -61682.103    13881.607    11140.009   -1.5215854    82.148641 
   19800    1977.1806   -121.45197    1.7889945   -119.66297   -4370.0108     4.315197     4.315197     4.315197   -4370.0108    448.27246    -15362.73    1804.4253    6016.7768   -26705.408    9731.1511     80.35296 
   19900    2397.3464   -121.81848    2.1691694   -119.64931    49869.608    4.2926801    4.2926801    4.2926801    49869.608    65695.677    52860.385    31052.761   -12539.672    17994.788      8889.97    79.101658 
   20000    1852.9396   -121.37015    1.6765787   -119.69357   -11088.476    4.3172745    4.3172745    4.3172745   -11088.476   -21811.157    6282.8248   -17737.097    18322.602    13062.929    2456.0997    80.469073 
   20100    1542.2671   -121.08691    1.3954757   -119.69143   -24260.323    4.3348018    4.3348018    4.3348018   -24260.323   -3392.2284   -33391.923   -35996.819    18710.684   -18733.937    -7134.805    81.453124 
   20200    2063.4927   -121.54241    1.8670916   -119.67532    13092.782    4.3314029    4.3314029    4.3314029    13092.782    5773.5999   -14049.274     47554.02   -12848.428    -12743.64   -1047.9389    81.261672 
   20300    2101.5062   -121.57379     1.901487    -119.6723     20649.43    4.3171498    4.3171498    4.3171498     20649.43    12417.121    27846.756    21684.411   -11467.178   -2814.6965    5079.7142    80.462098 
   20400    1321.6545   -120.88206    1.1958608    -119.6862    12445.679    4.3018487    4.3018487    4.3018487    12445.679     16274.52   -246.16161    21308.679    22979.893    16424.841    14168.058    79.609592 
   20500    1353.9092   -120.94215    1.2250455   -119.71711    416.31021    4.3188565    4.3188565    4.3188565    416.31021   -45521.787    2378.9358    44391.782    17567.646   -18583.856    298.92296    80.557566 
   20600    2002.8623   -121.49967    1.8122319   -119.68744   -26360.645    4.3400122    4.3400122    4.3400122   -26360.645   -43255.703   -40496.539    4670.3061   -10167.784   -10021.405   -1063.8847    81.747195 
   20700    1481.6113   -121.01983    1.3405931   -119.67924    -13111.89    4.3225486    4.3225486    4.3225486    -13111.89   -10259.088   -31217.134    2140.5516    6956.2235    2661.6027   -17865.507     80.76434 
   20800    1077.7148   -120.64662   0.97513902   -119.67148    6834.6184    4.3039035    4.3039035    4.3039035    6834.6184    9439.8774   -1427.3887    12491.366    28672.064     127.5053   -6990.1167    79.723721 
   20900    1494.4088   -121.04456    1.3521725   -119.69239   -8668.7484    4.3248302    4.3248302    4.3248302   -8668.7484   -24515.174   -16805.218    15314.147    7619.4608   -4387.0255   -10426.972    80.892298 
   21000    1661.0213   -121.17226     1.502927   -119.66933   -53107.692    4.3473902    4.3473902    4.3473902   -53107.692   -48354.724   -82737.583   -28230.768   -8575.0764   -8754.9578     9457.872    82.164812 
   21100     1383.416   -120.91302    1.2517438   -119.66127   -14097.117    4.3236087    4.3236087    4.3236087   -14097.117   -12806.143   -29643.339    158.13042    14169.075   -4223.0934   -8829.8198    80.823776 
   21200    1341.7659   -120.87568     1.214058   -119.66162    20689.462    4.3044423    4.3044423    4.3044423    20689.462    19740.721   -8141.3673    50469.031   -1310.2695    1248.1104   -9681.5786    79.753667 
   21300    1128.8899   -120.71777    1.0214433   -119.69633   -14763.759    4.3218724    4.3218724    4.3218724   -14763.759   -49861.824   -55668.473    61239.019   -30236.235    8754.7274    9679.2236    80.726446 
   21400    1200.1071   -120.78113    1.0858821   -119.69525   -5607.1113    4.3320547    4.3320547    4.3320547   -5607.1113   -54115.001   -63914.605    101208.27   -656.96649   -6131.5338    3986.7342    81.298362 
   21500      1658.08   -121.18011    1.5002657   -119.67984    821.04974    4.3287168    4.3287168    4.3287168    821.04974   -24555.418    625.55892    26393.009    16813.604   -3819.0128   -9260.4948    81.110584 
   21600    1129.2452   -120.70914    1.0217648   -119.68737   -22470.325    4.3228892    4.3228892    4.3228892   -22470.325   -57920.751    -3182.111   -6308.1135   -14357.925     16084.41   -11656.877    80.783435 
   21700    1294.4432   -120.86584    1.1712394    -119.6946    2985.7708    4.3014404    4.3014404    4.3014404    2985.7708   -42780.953    46629.176    5109.0895    -11958.11    24189.359    1975.3885    79.586924 
   21800     2228.859    -121.7282    2.0167185   -119.71148     20629.02    4.3073966    4.3073966    4.3073966     20629.02    6654.9378      20553.8    34678.324   -6563.7884   -24539.238    17990.166    79.917998 
   21900    1984.5626   -121.50394     1.795674   -119.70826   -1335.8316    4.3255046    4.3255046    4.3255046   -1335.8316   -37159.048    32955.572      195.981   -1272.9943    15982.888    -2713.001    80.930149 
   22000    1339.3031   -120.91136    1.2118296   -119.69953    15075.485    4.3149295    4.3149295    4.3149295    15075.485   -81252.171    73387.671    53090.954    -15336.78    39428.956   -6452.5575     80.33802 
   22100    2166.2504   -121.65596    1.9600689   -119.69589   -13353.561     4.314687     4.314687     4.314687   -13353.561    -47511.01   -741.44894    8191.7747   -12818.795    10178.895    5774.7922    80.324474 
   22200    2133.8257   -121.62642    1.9307303   -119.69569    7417.7889    4.3119133    4.3119133    4.3119133    7417.7889   -9783.5759    8097.7275    23939.215    12298.967   -3611.8969   -6341.8521    80.169664 
   22300    1848.1368   -121.37526     1.672233   -119.70303   -3241.8957    4.3067398    4.3067398    4.3067398   -3241.8957   -31521.565   -6826.5415    28622.419    5967.7103    21647.482   -7774.5381    79.881442 
   22400     1580.729   -121.14367    1.4302768   -119.71339   -27800.384    4.3252757    4.3252757    4.3252757   -27800.384     -52844.9    14583.656   -45139.908   -17705.409    23051.826   -10466.899    80.917299 
   22500      1959.35   -121.46272     1.772861   -119.68986   -6885.3681    4.3277047    4.3277047    4.3277047   -6885.3681    3619.2296   -21334.435   -2940.8989   -367.63562   -10190.839   -15332.153    81.053703 
   22600    1796.7337   -121.31016    1.6257224   -119.68444    12877.948    4.3066883    4.3066883    4.3066883    12877.948    66862.273   -31256.403    3027.9731    16009.412   -4099.6228   -5517.2339    79.878575 
   22700    1029.5991   -120.64983   0.93160291   -119.71822   -2892.3571    4.3096341    4.3096341    4.3096341   -2892.3571   -11006.529   -3153.5578    5483.0159     9321.017    36463.782    664.25768    80.042601 
   22800    1302.3228   -120.89282    1.1783691   -119.71445   -13961.908     4.324663     4.324663     4.324663   -13961.908     -24396.9   -31834.558    14345.736   -15966.206    23574.446    12338.082     80.88292 
   22900    1431.7219   -120.98608    1.2954521   -119.69063    16229.595     4.324536     4.324536     4.324536    16229.595    20871.497   -42116.806    69934.093    2052.8735    -15214.71   -9944.7036    80.875793 
   23000    1333.2349   -120.89752     1.206339   -119.69119   -25525.298    4.3244601    4.3244601    4.3244601   -25525.298   -13067.476   -45135.613   -18372.806    18487.907    11316.199   -12457.033    80.871536 
   23100    588.31001   -120.23456   0.53231526   -119.70224   -10302.922     4.314986     4.314986     4.314986   -10302.922   -17717.645    -22685.87    9494.7498    5428.9593    59238.797    6670.1893    80.341175 
   23200    1589.8375   -121.13161    1.4385184   -119.69309    1763.6688    4.3032589    4.3032589    4.3032589    1763.6688    11578.705    -29257.96    22970.261     2135.491    21244.408    19.060134    79.687911 
   23300    1791.0293   -121.32026    1.6205609    -119.6997    7067.7565    4.3157931    4.3157931    4.3157931    7067.7565    35668.813   -14704.713     239.1695   -4432.9854   -15814.421   -3076.7546    80.386265 
   23400    863.03747   -120.48636   0.78089444   -119.70547    21649.102    4.3244865    4.3244865    4.3244865    21649.102   -4497.2146    36691.846    32752.675    1961.4361    15532.854   -2355.5557    80.873017 
   23500    1424.5323     -120.982    1.2889468   -119.69306   -8023.2899     4.328452     4.328452     4.328452   -8023.2899   -32490.189    1191.0893    7229.2303   -6239.4227     46535.42   -13840.087    81.095699 
   23600    2331.0757   -121.78418    2.1092063   -119.67497   -10513.825    4.3275582    4.3275582    4.3275582   -10513.825    10356.987   -36350.495   -5547.9673    -10151.33   -2259.1008   -9632.5755    81.045473 
   23700    2069.5587    -121.5523    1.8725802   -119.67972    32022.869      4.30331      4.30331      4.30331    32022.869    28865.088    25401.192    41802.328    3863.9341   -9222.7446   -2080.8367    79.690747 
   23800    1855.9452   -121.38089    1.6792982   -119.70159    5912.9724    4.2984228    4.2984228    4.2984228    5912.9724   -17702.928    63281.576   -27839.731    14052.853    51162.896    1918.8536    79.419543 
   23900    1783.1477    -121.3357    1.6134295   -119.72227   -13586.715    4.3283892    4.3283892    4.3283892   -13586.715   -11721.255    7090.3671   -36129.256     22281.01    22378.505    2038.1068     81.09217 
   24000    2205.3431   -121.68567    1.9954408   -119.69022    -10990.29    4.3380936    4.3380936    4.3380936    -10990.29    -18579.09   -3320.0566   -11071.723     4060.582   -21332.647   -2355.2276    81.638828 
   24100    1828.6003   -121.33339     1.654556   -119.67883     29861.58    4.3102852    4.3102852    4.3102852     29861.58    9282.9894    28395.607    51906.143   -7874.4707    8799.3222    -16210.79    80.078886 
   24200    1439.3835   -120.99661    1.3023844   -119.69423    6749.9497    4.3032375    4.3032375    4.3032375    6749.9497    1778.1015    18758.736   -286.98874    -187.7609    37687.653   -10423.676    79.686717 
   24300    1501.6072    -121.0676    1.3586857   -119.70891   -15041.707    4.3326144    4.3326144    4.3326144   -15041.707   -10461.518   -31833.568   -2830.0348    12540.274    4065.1079    -1959.736    81.329875 
   24400    1940.5434   -121.42695    1.7558445   -119.67111   -19108.588     4.342047     4.342047     4.342047   -19108.588   -21841.167   -24396.628    -11087.97    5737.5694    4200.8515    -2519.555    81.862228 
   24500    1310.8158    -120.8551    1.1860537   -119.66905    306.14001    4.3167235    4.3167235    4.3167235    306.14001    7494.4409    33030.792   -39606.813    375.85008    47694.884   -13879.093    80.438265 
   24600    1393.4548   -120.94563    1.2608272    -119.6848   -9361.4633    4.3096021    4.3096021    4.3096021   -9361.4633    -1349.734   -32015.858    5281.2019    17025.023    19258.858   -10513.934     80.04082 
   24700    1490.3536   -121.03929    1.3485033   -119.69079    4530.1275    4.3248558    4.3248558    4.3248558    4530.1275   -17748.735   -37162.579    68501.696    26130.977   -9056.6579    14131.951    80.893736 
   24800    1318.3045   -120.87535    1.1928296   -119.68252   -10651.652    4.3332929    4.3332929    4.3332929   -10651.652   -14183.578   -35131.945    17360.569   -1276.9409    27419.714   -5963.7271    81.368093 
   24900    1244.6199   -120.80468    1.1261583   -119.67852   -22281.811    4.3284506    4.3284506    4.3284506   -22281.811    26116.185   -42016.571   -50945.047    602.61292    33359.146   -2060.5298    81.095619 
   25000    1222.2655   -120.78574    1.1059315   -119.67981    9545.0332    4.3166942    4.3166942    4.3166942    9545.0332    2371.6988   -54852.503    81115.904    44612.259   -4219.1888   -8583.4081     80.43663 
   25100    1902.7701   -121.40713    1.7216664   -119.68546     7646.322     4.310423     4.310423     4.310423     7646.322    37604.242   -33836.346     19171.07     18296.18   -6024.5234   -5787.7102    80.086565 
   25200    1663.4168    -121.2063    1.5050945    -119.7012   -25684.332     4.329643     4.329643     4.329643   -25684.332   -25546.575   -24935.541    -26570.88    -6307.148    54154.207    594.45654    81.162661 
   25300    1542.7223   -121.08523    1.3958876   -119.68934   -53488.095     4.336015     4.336015     4.336015   -53488.095   -74140.616   -73313.262   -13010.407    35542.688    33051.909     3551.144    81.521534 
   25400    1846.9004   -121.35322    1.6711143    -119.6821   -4350.6626    4.3066103    4.3066103    4.3066103   -4350.6626   -12254.749   -58549.961    57752.722    20034.553   -30306.264   -546.79701    79.874238 
   25500    1831.4353   -121.35537    1.6571212   -119.69824    33005.038    4.3008099    4.3008099    4.3008099    33005.038    68914.605   -6131.8561    36232.364   -17876.784    27901.882   -9847.9695    79.551936 
   25600    1952.7658   -121.48202    1.7669035   -119.71512   -7551.3976    4.3174027    4.3174027    4.3174027   -7551.3976   -410.12706   -9240.7327   -13003.333    6562.1655    16081.465   -5003.7534    80.476241 
   25700    1434.2792   -121.00513     1.297766   -119.70736   -1701.9685     4.335852     4.335852     4.335852   -1701.9685    14945.678   -30581.679    10530.095    44919.657    17213.823   -2219.7063    81.512336 
   25800    1522.9527   -121.05807    1.3779997   -119.68007   -1423.8933    4.3472797    4.3472797    4.3472797   -1423.8933   -11715.003   -28082.971    35526.294    6110.3475    16369.933   -4289.8774    82.158548 
   25900    1859.0652   -121.36299    1.6821213   -119.68087   -11987.154     4.314421     4.314421     4.314421   -11987.154   -27674.893    1355.1167   -9641.6855   -14593.692    12908.062   -7313.8386    80.309619 
   26000     803.3174    -120.4018   0.72685847   -119.67495    43076.035    4.2792411    4.2792411    4.2792411    43076.035    12401.585    33565.749    83260.771    28794.768    14880.462    9687.7606    78.361054 
   26100    1101.6085   -120.73293   0.99675855   -119.73617   -24751.306    4.3179625    4.3179625    4.3179625   -24751.306   -14309.961   -21681.447   -38262.509    35646.901    2709.6045    6643.1247    80.507547 
   26200    1424.3066   -120.98003    1.2887426   -119.69128   -24790.103    4.3480503    4.3480503    4.3480503   -24790.103   -50991.197   -26845.659     3466.546   -13440.272   -8652.4516   -15441.482    82.202243 
   26300    1274.4775   -120.82984     1.153174   -119.67666    5117.9629    4.3194376    4.3194376    4.3194376    5117.9629   -10970.904    17749.584     8575.209    2028.5799    9012.9387    6625.6874    80.590082 
   26400    770.77307    -120.3747   0.69741168   -119.67729    6234.5629    4.3036267    4.3036267    4.3036267    6234.5629   -2006.7429   -2995.2159    23705.647    34026.395    21746.075    14883.067    79.708343 
   26500     1535.656    -121.0805    1.3894938     -119.691   -1799.4659    4.3194152    4.3194152    4.3194152   -1799.4659   -10377.591   -1657.2363    6636.4292   -3384.4353   -5181.5898    29958.101    80.588833 
   26600    1539.6474   -121.07735    1.3931054   -119.68424     18899.65    4.3286037    4.3286037    4.3286037     18899.65   -1857.0781    8477.4313    50078.596    -3192.151   -6228.1469    9932.9888    81.104225 
   26700    1253.5645   -120.81886    1.1342515   -119.68461   -162.76373    4.3337107    4.3337107    4.3337107   -162.76373   -48521.128     45224.66    2808.1763    31920.679    3081.8547    4986.0201    81.391632 
   26800    1242.2758    -120.8005    1.1240372   -119.67646   -20284.505     4.332522     4.332522     4.332522   -20284.505    -52675.74     24143.34   -32321.116    8798.0751    3191.0436    22835.061    81.324673 
   26900    1447.2706   -120.97968    1.3095208   -119.67016    18953.066    4.3087498    4.3087498    4.3087498    18953.066   -10066.579    54066.367     12859.41   -9651.0032   -20652.675    27806.486    79.993339 
   27000    1787.4292   -121.29597    1.6173035   -119.67867    15067.223    4.3017771    4.3017771    4.3017771    15067.223   -23830.855     35505.91    33526.614    17097.309    -1347.363    -2625.455    79.605619 
   27100    1591.2461   -121.14464    1.4397929   -119.70485   -18976.069    4.3275627    4.3275627    4.3275627   -18976.069   -60912.971   -26011.239    29996.004    33746.646    18355.466   -11829.867    81.045724 
   27200    1872.0455   -121.37822    1.6938661   -119.68436   -7735.9204    4.3310177    4.3310177    4.3310177   -7735.9204   -34769.944   -17786.826     29349.01     8547.307     3165.885    11673.718    81.239993 
   27300    1901.7786   -121.39396    1.7207692   -119.67319    17906.376     4.313662     4.313662     4.313662    17906.376   -2600.0705   -5212.9103    61532.109   -319.59302    5766.4061    24312.064    80.267244 
   27400    1789.5434   -121.30499    1.6192165   -119.68577    -12561.77    4.3159403    4.3159403    4.3159403    -12561.77   -28179.253   -34966.275    25460.218     29110.55   -19913.609    11976.223    80.394488 
   27500    2050.7402   -121.54234    1.8555529   -119.68679   -4266.3287    4.3204655    4.3204655    4.3204655   -4266.3287   -12609.188   -38962.679    38772.881    28805.633   -6951.8474   -8021.2872    80.647632 
   27600    2341.4488   -121.79866    2.1185921   -119.68007    8444.2836     4.319684     4.319684     4.319684    8444.2836   -3297.1561   -17883.442    46513.449   -22175.196    4520.6752   -7839.0448    80.603879 
   27700     1780.487   -121.29506    1.6110221   -119.68404   -7607.1818    4.3209141    4.3209141    4.3209141   -7607.1818    -6008.527   -37871.779     21058.76    8865.2046   -10107.492    -1327.234    80.672759 
   27800    1614.4828   -121.14999    1.4608179   -119.68917    -19647.79    4.3194689    4.3194689    4.3194689    -19647.79   -28054.667   -44688.695    13799.992    55857.097   -7923.7956    11564.196    80.591837 
   27900    1863.9246   -121.37588    1.6865182   -119.68936    10147.113    4.3200555    4.3200555    4.3200555    10147.113   -7681.4485    26005.985    12116.803   -7468.8639    1867.2074    9262.6063    80.624678 
   28000    1779.0366   -121.29835    1.6097097   -119.68864   -20629.065    4.3328997    4.3328997    4.3328997   -20629.065   -9083.4954   -16430.215   -36373.486   -17438.335   -3630.4244   -5195.0442    81.345942 
   28100    1375.1302   -120.93925    1.2442467     -119.695    -15007.61    4.3218943    4.3218943    4.3218943    -15007.61   -24940.702   -20143.539    61.412506    29208.055   -6363.4176   -3888.4942    80.727672 
   28200    1093.7134   -120.68122   0.98961491    -119.6916    32664.529    4.3082856    4.3082856    4.3082856    32664.529    10662.591    84500.163    2830.8339    12495.407   -11814.899    12345.462    79.967488 
   28300    1345.4817   -120.91987    1.2174201   -119.70245   -3919.1124    4.3264422    4.3264422    4.3264422   -3919.1124    11338.135   -9198.2063   -13897.266   -13370.211   -10820.146    3196.9564    80.982786 
   28400    1083.7516   -120.67299   0.98060118   -119.69239    5515.6505    4.3305546    4.3305546    4.3305546    5515.6505   -12522.669    48753.476   -19683.855    8917.6554    4111.6701   -6833.5827    81.213936 
   28500    1246.2603   -120.80869    1.1276425   -119.68105    11751.172     4.317398     4.317398     4.317398    11751.172   -13163.106    20184.846    28231.776    22655.578   -7446.4445    2393.8328    80.475975 
   28600    1421.0424   -120.97136    1.2857891   -119.68557   -197.77096    4.3175759    4.3175759    4.3175759   -197.77096    10764.341     35063.51   -46421.164    -3218.222   -20807.674    13225.757    80.485923 
   28700    1343.9026   -120.90928    1.2159913   -119.69329    2054.1859     4.318145     4.318145     4.318145    2054.1859    14767.714    44085.271   -52690.427    -13206.57    -1742.271   -26327.801    80.517758 
   28800    1268.0827   -120.84605    1.1473878   -119.69866   -11560.817    4.3142786    4.3142786    4.3142786   -11560.817    2234.0458   -20276.646   -16639.851    24976.832    2024.8426   -29147.008    80.301668 
   28900    1392.6205   -120.96444    1.2600723   -119.70437    1590.3685    4.3136529    4.3136529    4.3136529    1590.3685   -8434.1402    21203.772   -7998.5262    23112.318   -7782.9995    1793.6929    80.266732 
   29000    1789.5761   -121.32915     1.619246    -119.7099   -5901.0458    4.3242453    4.3242453    4.3242453   -5901.0458   -5066.4925     32297.22   -44933.864    5584.8794   -21938.209    12119.815    80.859483 
   29100    1942.1814   -121.45775    1.7573266   -119.70043   -18445.382    4.3253021    4.3253021    4.3253021   -18445.382   -32003.385     8993.966   -32326.726   -13037.728   -9078.5292   -17098.645     80.91878 
   29200    1702.3079    -121.2343     1.540284   -119.69402    24216.634    4.2995195    4.2995195    4.2995195    24216.634    11146.109     22222.87    39280.924     40495.17   -1551.1401   -19340.522    79.480347 
   29300    1654.2127    -121.2105    1.4967664   -119.71373    4512.6714    4.3028349    4.3028349    4.3028349    4512.6714   -42941.744    42917.884    13561.874    20929.421   -23659.904    5833.6908    79.664355 
   29400    2176.8081   -121.67937    1.9696217   -119.70975   -40576.695    4.3288433    4.3288433    4.3288433   -40576.695   -60622.977   -17037.208   -44069.902   -3652.2011   -22386.039    18268.076    81.117693 
   29500    2156.6192   -121.63738    1.9513543   -119.68603    5741.5423    4.3261337    4.3261337    4.3261337    5741.5423   -27646.593    49812.107   -4940.8871   -932.91302    453.04852   -16960.433    80.965466 
   29600    1992.0787   -121.48335    1.8024747   -119.68088   -34418.568    4.3221907    4.3221907    4.3221907   -34418.568    -41181.97   -63713.181    1639.4468    28866.126    3860.2453   -20584.942    80.744283 
   29700    1488.7232   -121.03515     1.347028   -119.68813   -26377.218    4.3108154    4.3108154    4.3108154   -26377.218   -52665.564   -14043.539    -12422.55    25249.704    -31473.28    13363.643    80.108438 
   29800    2110.6853   -121.59864    1.9097925   -119.68885     19149.77    4.2976344    4.2976344    4.2976344     19149.77    11014.334     65413.75   -18978.776    -28807.61   -26230.356    23007.485    79.375851 
   29900    2134.6258   -121.63594    1.9314543   -119.70448   -20013.299     4.320815     4.320815     4.320815   -20013.299   -18923.059   -18035.213   -23081.626    21024.462    -300.3322     7448.597    80.667205 
   30000    1572.9169   -121.12365    1.4232083   -119.70044   -38374.193    4.3257786    4.3257786    4.3257786   -38374.193   -67670.621   -15983.492   -31468.464    36803.746   -11024.985   -3184.5898    80.945529 
   30100    1328.4901   -120.89853    1.2020458   -119.69649   -9879.6479    4.3043416    4.3043416    4.3043416   -9879.6479    1718.0346    17353.556   -48710.534      15375.8   -26117.323    15434.299    79.748073 
   30200    1486.0983   -121.05046    1.3446529   -119.70581    13165.451       4.3005       4.3005       4.3005    13165.451    70636.189    25249.103   -56388.941   -9029.4055   -4281.5426    25292.568    79.534739 
   30300    1621.8045   -121.17451    1.4674428   -119.70706   -3217.0989    4.3101229    4.3101229    4.3101229   -3217.0989    38508.081    3441.4895   -51600.867    5959.3564    3380.8785   -2405.4992    80.069843 
   30400    1236.4262   -120.83054    1.1187444   -119.71179   -18400.756    4.3192228    4.3192228    4.3192228   -18400.756   -9392.3147      3831.58   -49641.535    41347.918   -16775.642    1130.5538    80.578062 
   30500    1151.9877   -120.75074    1.0423427    -119.7084   -32880.395    4.3168965    4.3168965    4.3168965   -32880.395   -27649.101    -7442.343    -63549.74     15262.21   -27981.389    14213.811    80.447937 
   30600    1362.8824   -120.92654    1.2331647   -119.69338    9106.7232    4.3013025    4.3013025    4.3013025    9106.7232    48931.804    31057.561   -52669.195   -9780.4142   -4790.7003    9941.6576    79.579272 
   30700    1548.0438   -121.10439    1.4007026   -119.70369   -3145.0127      4.31276      4.31276      4.31276   -3145.0127    22188.589    15336.802   -46960.429    13650.074    16570.509   -8734.5648      80.2169 
   30800    1384.1631   -120.94911    1.2524199   -119.69669   -31865.953    4.3332506    4.3332506    4.3332506   -31865.953   -54096.941    9480.9573   -50981.875    24448.859   -11277.205   -2615.9541    81.365707 
   30900    1646.7474   -121.17321    1.4900117    -119.6832   -7358.6577     4.311792     4.311792     4.311792   -7358.6577    12773.588    2621.6708   -37471.232    5589.8979   -18409.058    22824.096    80.162896 
   31000    1498.9046   -121.03486    1.3562404   -119.67861    39554.106    4.2895254    4.2895254    4.2895254    39554.106    111828.08    13539.777   -6705.5348   -18322.982    13927.744    6197.4123    78.927386 
   31100    1442.8545    -121.0159    1.3055251   -119.71038   -19964.431    4.3090927    4.3090927    4.3090927   -19964.431   -19260.929    -24877.08   -15755.284    24876.576    10676.521   -7327.9444    80.012441 
   31200    1660.4109   -121.20303    1.5023747   -119.70065   -14900.171    4.3275559    4.3275559    4.3275559   -14900.171   -3254.4415   -32140.153    -9305.919    17233.608    10843.602    8511.3626    81.045344 
   31300    2376.5234   -121.82925    2.1503283   -119.67892   -15824.535    4.3306746    4.3306746    4.3306746   -15824.535     8010.314   -16311.528   -39172.392   -17606.476   -3663.5109    13127.312    81.220687 
   31400     1613.886   -121.13948     1.460278   -119.67921   -8824.6641    4.3209376    4.3209376    4.3209376   -8824.6641    16300.608      4837.94    -47612.54    23089.425    19231.624   -8162.5871    80.674074 
   31500     1457.257   -121.00232    1.3185567   -119.68377   -454.23285    4.3016574    4.3016574    4.3016574   -454.23285   -5437.4686    15816.667   -11741.897    30559.339    28546.251   -19214.164     79.59897 
   31600    2348.1482   -121.81908    2.1246539   -119.69442    14095.819    4.3024684    4.3024684    4.3024684    14095.819    32416.264    8223.6446     1647.548    20809.791    192.02374    3193.1837    79.644002 
   31700    2822.6453   -122.25765    2.5539888   -119.70367   -10483.472    4.3218882    4.3218882    4.3218882   -10483.472    4103.0387    16.438588   -35569.893   -9617.9776    -1123.226    16171.198    80.727328 
   31800    1697.8874   -121.24375    1.5362842   -119.70746   -4053.6671    4.3215716    4.3215716    4.3215716   -4053.6671    35220.904   -16239.662   -31142.243    8456.3606    18979.288   -5136.0784    80.709588 
   31900    1435.1322   -121.00149    1.2985378   -119.70295   -5550.7257    4.3054758    4.3054758    4.3054758   -5550.7257    15.369607   -7948.1912   -8719.3555    41875.816    13562.669   -5731.5546    79.811129 
   32000    1969.7412   -121.48572    1.7822632   -119.70345    724.46428     4.305488     4.305488     4.305488    724.46428   -1603.9635    16556.028   -12778.671    7433.2291   -14247.411    7848.9359    79.811806 
   32100    2197.9469    -121.6878    1.9887486   -119.69905   -4817.8735      4.31362      4.31362      4.31362   -4817.8735    20715.268    4919.4627   -40088.351   -18377.444   -12141.449    6336.6525    80.264899 
   32200    1271.0344   -120.85465    1.1500586   -119.70459   -5459.0716     4.317123     4.317123     4.317123   -5459.0716   -30014.511     30783.25   -17145.954    23317.631    18078.467   -2385.4525    80.460598 
   32300    1254.0504   -120.83164    1.1346911   -119.69695   -16648.009    4.3172128    4.3172128    4.3172128   -16648.009   -45900.185     6778.492   -10822.334    17042.982    18302.624    -6738.476    80.465621 
   32400    1367.4391   -120.92674    1.2372876   -119.68945    6629.3407    4.3112168    4.3112168    4.3112168    6629.3407    39626.897   -4002.3779   -15736.497   -10572.231   -7138.3124     27776.31     80.13082 
   32500    1382.6082   -120.94336     1.251013   -119.69234   -1916.8028    4.3036443    4.3036443    4.3036443   -1916.8028    6927.8093    10084.814   -22763.031   -1807.4696   -16329.747    28156.095    79.709319 
   32600    1329.1421   -120.90436    1.2026357   -119.70172   -12630.099     4.306407     4.306407     4.306407   -12630.099    -48636.57    21134.607   -10388.335    14239.572    13534.494   -10240.498    79.862929 
   32700    871.37585   -120.49704   0.78843918    -119.7086   -5506.9915    4.3185967    4.3185967    4.3185967   -5506.9915     6104.241    20121.796   -42747.012    4443.2481    18144.158     8315.387    80.543026 
   32800    914.95818   -120.52966   0.82787339   -119.70178    8459.4925     4.318591     4.318591     4.318591    8459.4925    31235.079    1134.2126   -6990.8138   -5633.7762   -3432.6537     39271.38    80.542706 
   32900    1588.4803   -121.13071    1.4372903   -119.69342    2061.3228    4.3086273    4.3086273    4.3086273    2061.3228   -21511.323    57684.865   -29989.574    2797.4076    2582.8915    12200.811    79.986517 
   33000    1420.8443   -120.97856    1.2856097   -119.69295     27621.92     4.301297     4.301297     4.301297     27621.92    17708.304    71866.167   -6708.7122    15014.597    14856.476   -7941.3829    79.578967 
   33100    1719.7092   -121.26174     1.556029   -119.70571    5359.6356    4.3138725    4.3138725    4.3138725    5359.6356    5619.9586    23884.347   -13425.399     18765.08    9904.2857    17749.312    80.278994 
   33200    1642.4269   -121.18673    1.4861023   -119.70063   -1932.4229    4.3269748    4.3269748    4.3269748   -1932.4229    14030.071   -36679.148    16851.808   -2999.5212   -11551.699    31159.336    81.012698 
   33300    2155.8598   -121.64142    1.9506672   -119.69075     4808.873    4.3052718    4.3052718    4.3052718     4808.873     33498.35   -13121.713   -5950.0186    602.58345   -8379.8994   -14437.392    79.799785 
   33400    1880.4088   -121.39116    1.7014334   -119.68973    50771.582    4.2914235    4.2914235    4.2914235    50771.582    76351.458    24029.096    51934.193    -3361.081    18007.019   -38747.873     79.03221 
   33500    2236.6755   -121.73237     2.023791   -119.70858   -21539.795    4.3207109    4.3207109    4.3207109   -21539.795   -28543.106   -30322.087   -5754.1921   -11614.615   -7375.2215    23385.947    80.661377 
   33600    1811.6441   -121.33184    1.6392137   -119.69262   -704.59616    4.3219033    4.3219033    4.3219033   -704.59616    9155.0345     1283.767    -12552.59    10916.883   -8143.9286     24912.18    80.728176 
   33700    1810.0823   -121.32386    1.6378005   -119.68606    12502.252    4.2976218    4.2976218    4.2976218    12502.252    42954.349    18561.716   -24009.311   -1041.1819    10476.339   -45331.282    79.375152 
   33800    1452.5835   -121.01355    1.3143281   -119.69922    24750.158    4.3008081    4.3008081    4.3008081    24750.158    49898.427    8970.1623    15381.885   -1504.0661    3964.8006   -36509.724    79.551835 
   33900    1748.3472   -121.27803    1.5819413   -119.69609   -12287.652    4.3114964    4.3114964    4.3114964   -12287.652   -53969.181    33411.978   -16305.753    16622.409   -240.22507    19090.619    80.146414 
   34000    963.74588   -120.57404   0.87201753   -119.70202    -10825.45     4.313224     4.313224     4.313224    -10825.45   -17588.102    13953.537   -28841.785   -5268.6297   -6237.6674   -6798.7263    80.242793 
   34100    1086.0481   -120.68117   0.98267917   -119.69849   -16984.027     4.319434     4.319434     4.319434   -16984.027    29339.538   -47228.515   -33063.104    780.20174    6661.8349   -37866.393    80.589883 
   34200    1544.3551   -121.08211     1.397365   -119.68475    8948.2233    4.3144352    4.3144352    4.3144352    8948.2233    11299.972    1709.7744    13834.924   -3291.4307    8870.1307   -1108.3088    80.310409 
   34300    1367.6661   -120.92447     1.237493   -119.68697    18522.099    4.2991463    4.2991463    4.2991463    18522.099     26216.53    11765.239     17584.53   -7661.8459   -14276.076    8362.9755    79.459656 
   34400    703.09073   -120.35018   0.63617127     -119.714   -19054.199    4.3146069    4.3146069    4.3146069   -19054.199    52169.918   -39126.149   -70206.366    10688.071   -10295.149   -35282.989        80.32 
   34500    1769.9045   -121.29104    1.6014468   -119.68959   -22668.848    4.3241895    4.3241895    4.3241895   -22668.848    4550.2184   -28588.747   -43968.016   -10904.844    6572.1865   -10666.553    80.856353 
   34600    2061.0687   -121.54061    1.8648983   -119.67571    31547.725    4.3076709    4.3076709    4.3076709    31547.725    49269.663    8734.8676    36638.646   -10276.997    8048.1533    8330.8583    79.933266 
   34700    1789.5473   -121.31129      1.61922   -119.69207     -14375.4    4.3036725    4.3036725    4.3036725     -14375.4    23525.428   -25347.562   -41304.067   -5965.7492   -7980.4135   -26996.251    79.710887 
   34800    1583.6994    -121.1409    1.4329645   -119.70793   -10517.523     4.303564     4.303564     4.303564   -10517.523    22704.249   -29274.236   -24982.582    3401.5617   -12032.556   -23545.105    79.704859 
   34900    2121.5347   -121.62896    1.9196092   -119.70935    5583.9109    4.3097713    4.3097713    4.3097713    5583.9109    10979.295    11461.552   -5689.1147    13312.253    14165.012     5027.741    80.050246 
   35000    1966.9825   -121.48019    1.7797671   -119.70042   -23324.484    4.3327909    4.3327909    4.3327909   -23324.484   -3449.7812   -39747.994   -26775.676   -15580.299    10056.876    1730.1902    81.339815 
   35100    1669.9528   -121.20488    1.5110084   -119.69387   -30348.566    4.3188179    4.3188179    4.3188179   -30348.566   -2476.8947   -65931.449   -22637.355   -2652.2937   -15232.313   -31484.851    80.555401 
   35200    1979.7341   -121.46708     1.791305   -119.67578    35708.742    4.2794039    4.2794039    4.2794039    35708.742    38238.861   -3011.9447    71899.311    12851.141   -8681.7943   -19857.183        78.37 
   35300    2266.7094   -121.75799    2.0509663   -119.70703    15501.339    4.2974738    4.2974738    4.2974738    15501.339    14590.933    17224.819    14688.264   -9391.8306    28192.168    6197.7058    79.366952 
   35400    2025.8103   -121.52933    1.8329957   -119.69634   -26254.178    4.3290742    4.3290742    4.3290742   -26254.178   -23167.143   -45964.422   -9630.9683   -1206.4623    19153.258   -4020.5734    81.130675 
   35500    1867.5185   -121.37525      1.68977   -119.68548    36.744289    4.3158109    4.3158109    4.3158109    36.744289    4222.1745   -37880.906    33768.965    10702.422   -1597.2935   -28289.434    80.387259 
   35600    1704.3669   -121.22969     1.542147   -119.68754    24325.309    4.3031094    4.3031094    4.3031094    24325.309    16560.759    7623.1182    48792.049    10290.249    3001.6353    -15133.95    79.679606 
   35700    2196.8382   -121.68461    1.9877453   -119.69687    3151.1067    4.3010172    4.3010172    4.3010172    3151.1067    10197.736    2143.2492    -2887.665    3140.3697    7976.0569    24887.401    79.563439 
   35800    1956.3966   -121.47689    1.7701888   -119.70671    15374.179    4.2997215    4.2997215    4.2997215    15374.179    21533.032    26543.415   -1953.9093   -10446.373    5366.1687   -7391.3665    79.491552 
   35900    1372.1781   -120.96618    1.2415756    -119.7246   -4366.0249    4.3188881    4.3188881    4.3188881   -4366.0249   -16965.691     32821.71   -28954.094    14282.074   -11616.604   -31448.602    80.559329 
   36000    1558.0171   -121.12165    1.4097266   -119.71193   -6640.7374    4.3176811    4.3176811    4.3176811   -6640.7374    1050.3617   -25276.984    4304.4103    18080.088    3514.9006   -13871.323     80.49181 
   36100    2143.3489   -121.62798    1.9393471   -119.68864    30070.601    4.2848572    4.2848572    4.2848572    30070.601    41461.561    43989.097    4761.1454   -10760.938    13758.675    8571.3047    78.669982 
   36200    1105.0048   -120.71381   0.99983156   -119.71398    2267.8308     4.293059     4.293059     4.293059    2267.8308     36491.64    46249.829   -75937.976    6062.4853    -4037.949   -22671.042    79.122602 
   36300    720.70686   -120.36802   0.65211071   -119.71591   -35522.461    4.3208301    4.3208301    4.3208301   -35522.461    7893.1791     -17115.6   -97344.963     3082.783   -12702.783   -34747.238     80.66805 
   36400     1332.363   -120.89681    1.2055501   -119.69126     14680.94    4.3149386    4.3149386    4.3149386     14680.94    50845.196     9807.035    -16609.41    9412.9131   -2807.5554    11272.805    80.338529 
   36500    1460.5736    -121.0079    1.3215577   -119.68634    9158.4901    4.3045202    4.3045202    4.3045202    9158.4901    54159.927    18588.511   -45272.968    8417.4105     3136.649   -10709.308       79.758 
   36600    1195.4277   -120.77792    1.0816481   -119.69628   -8504.6431    4.2995348    4.2995348    4.2995348   -8504.6431    59294.807    2438.0682   -87246.805   -12021.377    8704.8692    -42300.26    79.481196 
   36700    1607.9125   -121.15694     1.454873   -119.70207    18916.515    4.2993269    4.2993269    4.2993269    18916.515    86539.715    107.05378   -29897.224    1981.9863    1836.7102    5079.1438    79.469668 
   36800    1907.0741   -121.43232    1.7255607   -119.70676   -9345.6272    4.3139586    4.3139586    4.3139586   -9345.6272    -15575.34    10364.512   -22826.054    6634.5681    8639.6645    8929.2991    80.283801 
   36900    1120.2609    -120.7198    1.0136356   -119.70616   -10533.963    4.3161475    4.3161475    4.3161475   -10533.963   -4186.7315    2556.9918   -29972.151    9825.5535    11902.384   -53949.557    80.406067 
   37000    1803.0375   -121.32653    1.6314262   -119.69511    1705.2997    4.2986156    4.2986156    4.2986156    1705.2997    20814.683   -3303.0158   -12395.768   -8133.1154   -2634.1769    -28079.83     79.43023 
   37100    2178.1953   -121.66799    1.9708769   -119.69711    25632.698     4.296316     4.296316     4.296316    25632.698    58254.545    15703.731    2939.8184    105.62402    4330.8058    35201.338    79.302825 
   37200    2058.6334    -121.5707    1.8626947     -119.708    17175.565    4.3057133    4.3057133    4.3057133    17175.565    32517.289   -2548.2815    21557.687    17102.394    -6384.956   -10610.307    79.824337 
   37300    1498.0414   -121.06674    1.3554593   -119.71128    16936.961    4.3156238    4.3156238    4.3156238    16936.961    41722.575   -18250.624    27338.932   -158.60751    15030.183   -37777.715    80.376802 
   37400    1580.5688    -121.1305    1.4301318   -119.70036    -6336.118    4.3188218    4.3188218    4.3188218    -6336.118    8520.0074   -15605.905   -11922.457   -8190.6659    14124.021    8542.4027    80.555622 
   37500    1816.9936   -121.33417     1.644054   -119.69012    10299.552    4.3010855    4.3010855    4.3010855    10299.552   -20193.642     8201.097    42891.202   -17293.191    -11365.74    15130.018     79.56723 
   37600    1596.5968   -121.13937    1.4446344   -119.69473    26001.197    4.2938119    4.2938119    4.2938119    26001.197    41996.717    13999.462    22007.412    8722.1571   -964.38187    -24321.14    79.164238 
   37700    1482.7079   -121.04664    1.3415852   -119.70506   -15546.691    4.3148122    4.3148122    4.3148122   -15546.691   -2482.8415   -21790.453   -22366.778    5801.2502   -1402.2947   -23453.457    80.331467 
   37800    1282.1473   -120.85391    1.1601138    -119.6938   -24197.866    4.3195851    4.3195851    4.3195851   -24197.866   -64323.072    6356.3461   -14626.873   -25737.731    24018.833    3969.0755    80.598339 
   37900    1300.4913   -120.86507    1.1767118   -119.68836    1218.6865    4.3017813    4.3017813    4.3017813    1218.6865   -40047.431    5047.7671    38655.724   -4153.3516   -1331.9519   -1644.0419    79.605852 
   38000    1492.4888    -121.0425    1.3504353   -119.69206    6016.5192    4.2998965    4.2998965    4.2998965    6016.5192    51761.259   -5337.7438   -28373.957    10563.707    -35563.46   -22370.699    79.501258 
   38100    1497.4456   -121.05328    1.3549202   -119.69836   -18543.677    4.3076419    4.3076419    4.3076419   -18543.677   -3029.9047   -1089.5785   -51511.548   -5140.1583    22193.188   -13799.297    79.931649 
   38200    1123.7649   -120.72153    1.0168061   -119.70473    1113.7451    4.3091002    4.3091002    4.3091002    1113.7451     2946.355    33245.737   -32850.856   -23644.917    32063.399    4906.6226    80.012857 
   38300    1606.0742   -121.15221    1.4532097     -119.699   -6900.0245    4.3176983    4.3176983    4.3176983   -6900.0245    14142.789   -17358.637   -17484.225   -21851.007   -21832.876   -700.01509    80.492771 
   38400    1863.8063   -121.37976    1.6864111   -119.69334   -1635.3428    4.3116917    4.3116917    4.3116917   -1635.3428        37285    4367.0741   -46558.102    9005.4928   -15308.606   -15353.586    80.157304 
   38500    1856.6531   -121.37575    1.6799388   -119.69581    8710.0911    4.2919172    4.2919172    4.2919172    8710.0911    25532.964    25688.298   -25090.989    9936.1416    26765.024   -6204.1684    79.059488 
   38600     1477.688   -121.05492    1.3370431   -119.71788   -2561.3304    4.3070175    4.3070175    4.3070175   -2561.3304   -17002.037    4520.7069    4797.3387   -26974.211    25835.354    5351.9871    79.896896 
   38700    2193.7618   -121.68578    1.9849618   -119.70082   -36395.329    4.3232979    4.3232979    4.3232979   -36395.329   -54962.519   -31609.034   -22614.436   -9965.3126   -10532.455   -2593.4134    80.806348 
   38800    2405.0909    -121.8609    2.1761768   -119.68472    13305.173    4.3043286    4.3043286    4.3043286    13305.173    12897.182    43360.476    -16342.14     6922.898   -8765.9789   -2428.4061     79.74735 
   38900     1805.061   -121.33027    1.6332571   -119.69701   -13412.136    4.2972424    4.2972424    4.2972424   -13412.136   -18878.059   -7050.3299   -14308.019    -26549.81    31862.898    3639.8744    79.354132 
   39000    975.58486   -120.60255   0.88272968   -119.71982   -12653.266    4.3073334    4.3073334    4.3073334   -12653.266   -24866.583   -26109.779    13016.563    -36725.08    15003.791    1624.8684    79.914476 
   39100    1868.9723   -121.40157    1.6910854   -119.71049   -10102.174    4.3199121    4.3199121    4.3199121   -10102.174   -21398.469   -4061.9456   -4846.1059   -273.81491   -7411.8856   -8128.7153    80.616648 
   39200    1903.3761   -121.41226    1.7222147   -119.69005   -15863.796    4.3242594    4.3242594    4.3242594   -15863.796   -41808.353    29129.394    -34912.43     13016.24    3329.9246   -12044.337    80.860276 
   39300    880.44337   -120.49262   0.79664366   -119.69598   -12469.485    4.2994686    4.2994686    4.2994686   -12469.485   -16099.814   -3915.1846   -17393.455   -48043.254    28972.633    5277.1319    79.477526 
   39400    857.37519   -120.47982   0.77577109   -119.70405      2481.86    4.2828569    4.2828569    4.2828569      2481.86   -21200.071    1733.2484    26912.402   -43372.116    18598.753    4380.3008    78.559861 
   39500    1545.0758   -121.11086     1.398017   -119.71284    17626.494     4.299688     4.299688     4.299688    17626.494    4270.0642    18506.103    30103.314    20777.051   -4222.7241    2510.0539    79.489694 
   39600    1551.6877   -121.11273    1.4039996   -119.70873    -22483.37    4.3242066    4.3242066    4.3242066    -22483.37   -40583.708   -659.59899   -26206.802   -12055.115   -9187.3951   -688.12654    80.857315 
   39700    525.16198   -120.17824    0.4751776   -119.70306   -7665.6315    4.3234776    4.3234776    4.3234776   -7665.6315   -39803.737    15481.574    1325.2684   -52305.506    7408.7189   -2669.7533    80.816425 
   39800      1555.23   -121.08064    1.4072048   -119.67343    6826.3774    4.3039262    4.3039262    4.3039262    6826.3774   -17508.197    17848.377    20138.952   -12912.382    20511.615    4597.3928    79.724983 
   39900    1955.2052   -121.43811    1.7691108     -119.669    19020.082    4.2994156    4.2994156    4.2994156    19020.082     1527.214    25173.942    30359.089    8954.2751    -8196.895   -3486.2907     79.47459 
   40000    1374.1096   -120.93859    1.2433232   -119.69527   -9479.3786    4.3151077    4.3151077    4.3151077   -9479.3786   -41006.148    7615.4844    4952.5279   -32698.654   -3223.9182    5423.1173     80.34797 
   40100    1437.4941     -120.993    1.3006749   -119.69232   -14929.764    4.3187986    4.3187986    4.3187986   -14929.764   -39251.913    -13333.05    7795.6711   -45654.108    21470.394    7945.0778    80.554325 
   40200    1945.8062   -121.45193    1.7606064   -119.69133    1155.6487    4.2976551    4.2976551    4.2976551    1155.6487   -37414.767    26548.409    14333.303     13020.19    13582.808   -1372.7586    79.376997 
   40300    1881.8833   -121.40446    1.7027676   -119.70169   -4060.8068    4.2964265    4.2964265    4.2964265   -4060.8068   -28399.569    510.09384    15707.055    31460.822    5923.3789    8513.1721    79.308942 
   40400    1586.4423   -121.13911    1.4354463   -119.70366   -25476.319     4.323324     4.323324     4.323324   -25476.319   -33227.036   -41308.055   -1893.8654   -32267.053   -6366.4103   -1832.6322    80.807811 
   40500    1980.4253   -121.47522    1.7919305   -119.68329   -30137.154    4.3188622    4.3188622    4.3188622   -30137.154   -48276.679   -11207.399   -30927.385   -21247.813    12421.289    1594.1523    80.557882 
   40600     1678.135   -121.19616    1.5184118   -119.67775   -3665.4134    4.2966702    4.2966702    4.2966702   -3665.4134   -3801.7549    11818.239   -19012.724    42596.789    20232.031   -118.40362    79.322437 
   40700    1724.8566   -121.25846    1.5606865   -119.69777   -20971.192    4.3015549    4.3015549    4.3015549   -20971.192   -287.72604   -50786.809   -11839.042    27157.907    4999.8714    7827.0328    79.593281 
   40800    2223.9429   -121.70616    2.0122703   -119.69389    11726.194    4.3062989    4.3062989    4.3062989    11726.194     60447.18   -26643.984    1375.3851   -22513.694   -784.56474    15165.282    79.856913 
   40900    1871.3154   -121.39174    1.6932055   -119.69854   -8249.4685     4.317238     4.317238     4.317238   -8249.4685    20890.668   -29138.423    -16500.65    11635.775   -3995.3034    1327.9607    80.467031 
   41000    1044.2778   -120.64496   0.94488451   -119.70008   -35928.346    4.3231775    4.3231775    4.3231775   -35928.346   -33269.782   -47179.745    -27335.51     52966.99    7685.5296   -1986.9544    80.799596 
   41100    1990.9836   -121.48236    1.8014838   -119.68088    14514.282    4.2996335    4.2996335    4.2996335    14514.282     37683.21   -23595.048    29454.685    5667.6979    6813.9673    1735.3703    79.486671 
   41200    2339.0008   -121.80061    2.1163771   -119.68423    13330.726    4.3020441    4.3020441    4.3020441    13330.726    25015.444   -10867.489    25844.224   -4536.1725    3113.2819    2643.7365     79.62044 
   41300    1253.4399   -120.82766    1.1341388   -119.69352   -28589.968    4.3278877    4.3278877    4.3278877   -28589.968   -35153.323   -72473.641     21857.06    52280.774     5060.214   -4835.2676    81.063983 
   41400    1500.1218   -121.03166    1.3573417   -119.67432   -631.81597    4.3215114    4.3215114    4.3215114   -631.81597    11613.722   -40566.755    27057.585    17195.921    12251.753    4094.1467    80.706219 
   41500    2238.6586   -121.68859    2.0255854   -119.66301    10291.004    4.2946802    4.2946802    4.2946802    10291.004    13099.892    3986.2728    13786.847   -17616.122   -6906.6511    15836.553    79.212276 
   41600    1522.5451   -121.06596    1.3776308   -119.68833    4877.7095    4.2903644    4.2903644    4.2903644    4877.7095   -17012.063   -32605.205    64250.396    24968.065   -15973.734    -4523.617     78.97371 
   41700    1205.1881   -120.80001    1.0904795   -119.70953   -5355.7247    4.3102511    4.3102511    4.3102511   -5355.7247    1663.0998   -40718.337    22988.063      41534.5    2983.0075   -3304.5036    80.076985 
   41800     1605.284   -121.14638    1.4524947   -119.69389   -20910.422    4.3272851    4.3272851    4.3272851   -20910.422   -52692.931    5072.8911   -15111.226   -11397.735    19610.066   -8183.1434    81.030128 
   41900    1469.8296   -121.00886    1.3299327   -119.67893    -32370.42    4.3213667    4.3213667    4.3213667    -32370.42   -73599.028   -19983.081   -3529.1498   -1616.4065    11004.128   -1339.4698    80.698112 
   42000    934.72051   -120.52195   0.84575476   -119.67619   -5667.6646    4.2954279    4.2954279    4.2954279   -5667.6646   -31799.154   -30514.964    45311.124    36828.169   -7051.1547     4848.693    79.253658 
   42100    1460.3054   -121.00189     1.321315   -119.68058    17456.254    4.2907685    4.2907685    4.2907685    17456.254   -12877.129    57099.609    8146.2825   -2718.8517    26151.527   -13449.182    78.996025 
   42200    1525.7265   -121.07173    1.3805094   -119.69122   -15011.319     4.316282     4.316282     4.316282   -15011.319   -65810.504    30488.554   -9712.0067   -1502.2663    27894.857    13487.746    80.413587 
   42300    1032.3958   -120.62874   0.93413338   -119.69461   -34060.205    4.3163229    4.3163229    4.3163229   -34060.205   -78121.017   -44231.936    20172.338    47078.796    -1805.101    14724.792    80.415872 
   42400    1480.7037   -121.02053    1.3397718   -119.68076    -7685.562    4.2971474    4.2971474    4.2971474    -7685.562   -56845.199    3911.9816    29876.531    25742.449   -5011.9996   -4298.3055    79.348871 
   42500    1830.9718   -121.34286    1.6567018   -119.68616    7264.3069    4.3045272    4.3045272    4.3045272    7264.3069   -28561.836    50682.188   -327.43165   -17855.899    24220.523    8311.2199    79.758386 
   42600    1413.8754   -120.97214    1.2793042   -119.69283   -12356.477    4.3125172    4.3125172    4.3125172   -12356.477   -50344.359   -12003.205    25278.134    25673.007    26182.471    5720.5715    80.203355 
   42700    1421.8254   -120.97278    1.2864975   -119.68628   -9300.9478    4.3065262    4.3065262    4.3065262   -9300.9478   -44186.268   -17111.985    33395.409    35637.461   -3121.2613     15211.49    79.869557 
   42800    2074.3551   -121.55529    1.8769201   -119.67837    2690.1339    4.3174051    4.3174051    4.3174051    2690.1339   -31046.119    17009.628    22106.892   -21865.296   -3954.4389    12917.358    80.476373 
   42900    1848.6866   -121.35189    1.6727305   -119.67916   -17881.482    4.3187391    4.3187391    4.3187391   -17881.482   -60910.238   -23229.709      30495.5    16362.474    8891.0847   -1624.7013    80.550992 
   43000    1223.8063   -120.78897    1.1073257   -119.68164    2965.2253    4.2964255    4.2964255    4.2964255    2965.2253   -558.69072   -36073.211    45527.578    67997.045    2454.6802    11994.904    79.308887 
   43100    2052.7364   -121.54681     1.857359   -119.68945    22151.699    4.2980133    4.2980133    4.2980133    22151.699     45576.06    2065.3763    18813.662    3720.9468     10267.72    4375.1883    79.396848 
   43200    2442.9244   -121.89677    2.2104094   -119.68636    827.18722    4.3135873    4.3135873    4.3135873    827.18722    -2078.038    -10609.84    15169.439   -11683.469   -6208.2232    9026.9395    80.263072 
   43300    1569.5104   -121.12102     1.420126   -119.70089    6593.1118    4.3018072    4.3018072    4.3018072    6593.1118    16572.557   -28861.396    32068.174    53091.042    10797.301   -6703.8645    79.607285 
   43400    1387.5026   -120.96248    1.2554415   -119.70704    6543.1248    4.2967438    4.2967438    4.2967438    6543.1248    20204.042   -11555.018    10980.349    37126.895    6628.2429    10697.587    79.326514 
   43500     2108.716   -121.60424    1.9080106   -119.69622    3297.1991    4.3070483    4.3070483    4.3070483    3297.1991    21296.688   -25740.182    14335.092   -13562.064   -8293.0232    13080.098    79.898613 
   43600    2003.4878   -121.50797    1.8127979   -119.69517    7181.2613    4.3064387    4.3064387    4.3064387    7181.2613     8742.019   -9564.0711    22365.836    30897.052    7091.5142   -7717.8934     79.86469 
   43700     1649.553   -121.19166    1.4925502   -119.69911   -13293.051    4.3060266    4.3060266    4.3060266   -13293.051   -25116.896   -27859.288    13097.031    55498.078   -5589.5538    5746.5558    79.841763 
   43800    1670.7324   -121.20793    1.5117138   -119.69621   -4888.4593    4.3050294    4.3050294    4.3050294   -4888.4593     6475.287   -20302.687   -837.97787    2257.6662   -4436.4248    4424.3687    79.786308 
   43900    1714.4288     -121.248    1.5512512   -119.69674     1606.861    4.3083981    4.3083981    4.3083981     1606.861    37610.902   -20175.193   -12615.126   -18905.449    11268.221   -4392.0846    79.973753 
   44000    1268.0309   -120.84186     1.147341   -119.69452    7155.8626    4.3125519    4.3125519    4.3125519    7155.8626     9007.975   -18598.974    31058.586    28889.576    1807.2822    461.95615    80.205289 
   44100    1477.5825    -121.0267    1.3369477   -119.68976    44.198848    4.3070854    4.3070854    4.3070854    44.198848   -16338.992   -3764.1283    20235.717    36564.763    2140.6038   -3805.3903    79.900675 
   44200     1404.555   -120.95895    1.2708709   -119.68808    403.82491    4.3084768    4.3084768    4.3084768    403.82491    12338.499    2752.9593   -13879.983    -14113.56   -5344.7578     21503.01    79.978133 
   44300    1247.0913   -120.81918    1.1283944   -119.69078   -6489.5196    4.3102198    4.3102198    4.3102198   -6489.5196   -45573.395   -18142.565    44247.401   -2334.1026    3667.1337    8263.3826    80.075238 
   44400    1286.9649   -120.85527    1.1644729    -119.6908    17468.477      4.30838      4.30838      4.30838    17468.477   -58594.114    20576.751    90422.794    22045.722    11051.513   -4455.4736    79.972747 
   44500     1221.567   -120.79209    1.1052995   -119.68679    8199.9096    4.3171465    4.3171465    4.3171465    8199.9096   -35396.305    12996.088    46999.946   -1375.4928   -3521.3649    441.66186    80.461915 
   44600    919.99722   -120.52259   0.83243281   -119.69016   -13259.841    4.3115355    4.3115355    4.3115355   -13259.841   -71972.505   -12726.057    44919.039   -17925.658   -2075.7195    5657.0261    80.148593 
   44700    1031.5879   -120.62066   0.93340243   -119.68726    12160.211    4.2958312    4.2958312    4.2958312    12160.211    -75022.12    4395.9484     107106.8   -6798.7875    -3202.895    6375.7764    79.275983 
   44800    1657.4489   -121.19314    1.4996946   -119.69344    12915.578    4.3083026    4.3083026    4.3083026    12915.578   -39116.572    24127.478    53735.827    5002.4115    10405.184   -1412.0143    79.968437 
   44900    1441.9755    -120.9972    1.3047297   -119.69247   -33032.363    4.3259862    4.3259862    4.3259862   -33032.363   -50881.989   -31564.537   -16650.562   -11690.877    8673.6822    11168.124    80.957183 
   45000    1286.2952   -120.84602    1.1638669   -119.68216   -12495.197    4.3097595    4.3097595    4.3097595   -12495.197    -31086.78   -23189.342    16790.529   -11639.608   -8458.3858    4399.2484    80.049589 
   45100    1815.1776   -121.31249    1.6424108   -119.67008    27793.706    4.2973498    4.2973498    4.2973498    27793.706    7215.5011    29933.406     46232.21    5833.3167    8973.4988    11720.128    79.360084 
   45200    1968.9735   -121.46599    1.7815686   -119.68442    2357.0883    4.3094593    4.3094593    4.3094593    2357.0883   -1697.7516     7718.396    1050.6206    10523.811    20903.645   -4118.3081    80.032865 
   45300    1592.7585   -121.13115    1.4411614   -119.68998    11160.159    4.3116492    4.3116492    4.3116492    11160.159    23875.482   -23628.234    33233.227   -4829.1209   -2479.0526     1246.065    80.154932 
   45400    2012.3812   -121.50325    1.8208448   -119.68241    15628.448    4.3079966    4.3079966    4.3079966    15628.448    23895.379   -28798.291    51788.255   -10329.453   -11395.744   -1727.0949    79.951399 
   45500    2021.2362   -121.51549     1.828857   -119.68664   -2627.2151    4.3121748    4.3121748    4.3121748   -2627.2151   -3959.2105    -4764.754    842.31915    1530.1997    35002.972   -4624.1287    80.184251 
   45600    1880.3287   -121.38656    1.7013609    -119.6852    2776.5596    4.3112645    4.3112645    4.3112645    2776.5596    21315.315   -17141.363    4155.7271    1970.9029    35147.117    1971.6859    80.133482 
   45700    2156.7568   -121.63477    1.9514789   -119.68329   -3029.5345    4.3106905    4.3106905    4.3106905   -3029.5345    37557.329   -49953.731    3307.7982   -7343.1269   -25897.508   -5983.8789    80.101476 
   45800    2034.9019   -121.52601     1.841222   -119.68478    6154.0258    4.3021539    4.3021539    4.3021539    6154.0258    54761.939   -19414.052    -16885.81   -1875.3696   -227.10409   -5331.2256    79.626538 
   45900    1766.3597   -121.28675    1.5982393   -119.68851    14832.978     4.301267     4.301267     4.301267    14832.978    63377.187    9300.8514   -28179.103    10374.325    44477.229   -3894.2723    79.577302 
   46000    1843.0389   -121.36311    1.6676204   -119.69549   -20341.813    4.3187709    4.3187709    4.3187709   -20341.813   -14299.738    -41337.48   -5388.2216    14830.767    25568.579   -4133.0777    80.552772 
   46100    1998.8313   -121.49489    1.8085846   -119.68631   -544.93121      4.30899      4.30899      4.30899   -544.93121    18888.254   -26513.938    5990.8903    11378.452   -14280.639   -6696.4418    80.006719 
   46200    1494.5976    -121.0365    1.3523433   -119.68416    28572.057    4.2947424    4.2947424    4.2947424    28572.057    40925.461    23907.771     20882.94   -1668.0086    33777.844   -6208.8471     79.21572 
   46300    1277.2577   -120.85618    1.1556896   -119.70049   -14437.135    4.3111078    4.3111078    4.3111078   -14437.135   -78692.687     3286.354    32094.929    8343.1183    34416.355   -1902.3398    80.124743 
   46400    1694.6784   -121.22284    1.5333806   -119.68946   -18216.037    4.3126592    4.3126592    4.3126592   -18216.037   -37743.547   -36461.526    19556.962    11193.589   -611.35615   -11964.371    80.211274 
   46500    1430.3634   -120.98315    1.2942229   -119.68893   -277.88213    4.3007524    4.3007524    4.3007524   -277.88213    7273.5765   -17010.536    8903.3131    -6258.471   -24198.201   -6001.0226    79.548744 
   46600    1070.4526   -120.66854   0.96856802   -119.69997   -13740.149      4.30458      4.30458      4.30458   -13740.149    -32089.25    11440.556   -20571.754   -1592.5987    20938.783   -2814.1084    79.761324 
   46700    1308.8488   -120.87972    1.1842739   -119.69545   -16904.232    4.3122193    4.3122193    4.3122193   -16904.232   -36661.634    -11437.61   -2613.4523    9930.6234    34326.956   -2716.2216    80.186732 
   46800    1297.1091   -120.86549    1.1736516   -119.69184   -14076.666    4.3114197    4.3114197    4.3114197   -14076.666    12394.984   -34982.075   -19642.908    10084.537   -5279.6681   -7163.7727    80.142132 
   46900    945.22731   -120.55095   0.85526153   -119.69569   -19250.548    4.3114772    4.3114772    4.3114772   -19250.548   -33265.266   -17839.998   -6646.3783    6880.5299   -10669.998   -8934.4206    80.145339 
   47000    1144.6953   -120.73051    1.0357443   -119.69476   -13700.528    4.3074547    4.3074547    4.3074547   -13700.528   -69644.989   -10441.007    38984.411    2850.9699    9950.6089    2238.1359    79.921227 
   47100    1880.7136   -121.38561    1.7017092    -119.6839    14453.592    4.2934293    4.2934293    4.2934293    14453.592   -5870.7513   -19971.986    69203.515    7712.5523    13396.347    448.22685    79.143083 
   47200     1518.814   -121.08109    1.3742548   -119.70684   -16563.774     4.303098     4.303098     4.303098   -16563.774    6576.3871    -41917.76   -14349.951    -716.1886   -5016.2306   -11057.028    79.678972 
   47300    1149.0945   -120.74808    1.0397248   -119.70836   -55072.558    4.3199855    4.3199855    4.3199855   -55072.558   -39350.176   -49309.492   -76558.006   -7598.7952   -43822.884   -9897.5682    80.620756 
   47400    1968.1037   -121.47646    1.7807816   -119.69568    7077.9527     4.300609     4.300609     4.300609    7077.9527    -8404.866   -26810.849    56449.573   -2640.7601   -25480.265   -3163.2748    79.540788 
   47500    2537.3499   -121.98412    2.2958475   -119.68827    25125.025    4.2891526    4.2891526    4.2891526    25125.025    40827.827   -19002.107    53549.357   -1835.2481    26469.115    1873.5531    78.906812 
   47600     1422.702   -121.00212    1.2872907   -119.71483   -9497.0948    4.3084024    4.3084024    4.3084024   -9497.0948    8944.7589   -35663.065   -1772.9785   -2068.4935   -9179.5027   -8722.8526    79.973993 
   47700    1913.1439   -121.43252    1.7310528   -119.70146   -22097.973    4.3174285    4.3174285    4.3174285   -22097.973    17962.083    -51598.65    -32657.35    5467.4846   -17498.744   -1452.6808    80.477685 
   47800    2783.7783   -122.19984    2.5188211   -119.68102    8811.8674    4.3071496    4.3071496    4.3071496    8811.8674    33484.747   -24139.076    17089.932    6162.5478    13076.552   -45.004603    79.904249 
   47900    1940.3111   -121.44984    1.7556343    -119.6942   -17152.672    4.3105284    4.3105284    4.3105284   -17152.672   -25854.928   -11480.267   -14122.822    7610.4093    33291.201   -5449.7039    80.092439 
   48000    1610.0943   -121.15347    1.4568471   -119.69662    7704.9989    4.3019439    4.3019439    4.3019439    7704.9989   -9305.4739   -3867.1716    36287.642    2790.9678   -191.79745   -11630.437    79.614877 
   48100    2066.6071   -121.56213    1.8699096   -119.69222    16790.019    4.2994051    4.2994051    4.2994051    16790.019    41272.013   -14818.998    23917.041   -8197.4586   -12576.683   -5275.7741    79.474006 
   48200    1554.0974   -121.10736      1.40618   -119.70118   -29681.088    4.3152591    4.3152591    4.3152591   -29681.088   -41570.606   -8312.0155   -39160.644    2129.5512    57379.185   -1452.1457    80.356429 
   48300    1405.2235   -120.97203    1.2714758   -119.70055   -28851.586    4.3060363    4.3060363    4.3060363   -28851.586   -61614.942    7286.8106   -32226.626    9190.7237    48760.469    382.05113    79.842302 
   48400     1858.211   -121.37097    1.6813483   -119.68963    24978.322    4.2896821    4.2896821    4.2896821    24978.322    28818.231    16387.185    29729.551   -4637.2391   -25004.907   -7010.2413     78.93604 
   48500    1281.4847   -120.86477    1.1595143   -119.70526   -6076.3594    4.3059189    4.3059189    4.3059189   -6076.3594   -24476.805    9784.2208   -3536.4939    7018.5019    28829.118   -19938.714    79.835774 
   48600    651.48454   -120.29698    0.5894769    -119.7075   -26566.174    4.3145454    4.3145454    4.3145454   -26566.174   -111201.39     15599.43     15903.44    11038.876    70340.476     2977.423    80.316565 
   48700    1514.3567   -121.06154    1.3702218   -119.69131   -10195.628    4.3041302    4.3041302    4.3041302   -10195.628   -60984.803    12036.132    18361.787    4180.4384     5109.125    7225.2003    79.736322 
   48800    1460.4392   -121.00773     1.321436   -119.68629    15330.147    4.3028896    4.3028896    4.3028896    15330.147   -7087.4181     13608.48    39469.379    5685.6817   -15548.392   -8918.3105    79.667395 
   48900    782.16415   -120.40719   0.70771856   -119.69947   -25805.945    4.3073114    4.3073114    4.3073114   -25805.945   -89015.656    51645.534   -40047.713   -10785.121    69404.384   -7840.8139    79.913251 
   49000    915.49526   -120.52637   0.82835935   -119.69801   -12832.498    4.3015773    4.3015773    4.3015773   -12832.498   -47432.193     36056.64    -27121.94    6109.6228    38583.422   -6740.5474    79.594525 
   49100    1857.1776   -121.36954    1.6804133   -119.68913    3790.4059    4.3005193    4.3005193    4.3005193    3790.4059   -18524.905    11000.893    18895.229    14200.117   -13681.093    16232.596     79.53581 
   49200     1110.719   -120.70929    1.0050019   -119.70429   -8393.2254    4.3084074    4.3084074    4.3084074   -8393.2254   -24616.229    29447.928   -30011.376   -2670.8911    33253.263    11416.521    79.974268 
   49300    926.68704   -120.54077   0.83848591   -119.70229   -12680.182    4.3054495    4.3054495    4.3054495   -12680.182   -26186.996    37993.838   -49847.387    6467.2179    67802.477   -24436.345    79.809665 
   49400    1896.6494   -121.40809    1.7161283   -119.69196   -2626.9677    4.3025208    4.3025208    4.3025208   -2626.9677    -14827.23   -4008.1571    10954.484    -1278.143   -1342.7061    -7830.696    79.646911 
   49500    1787.2103   -121.31011    1.6171055     -119.693   -7854.3219     4.307953     4.307953     4.307953   -7854.3219   -18524.982   -11954.266    6916.2823    3764.7468   -6568.2792    5971.9758    79.948969 
   49600    1429.0229   -120.99538    1.2930099   -119.70237   -24883.134    4.3027973    4.3027973    4.3027973   -24883.134   -39622.843    1035.1957   -36061.755    6727.5697    56356.289    8021.1395    79.662266 
   49700    1461.9594   -121.02819    1.3228116   -119.70538    8877.0253    4.3001454    4.3001454    4.3001454    8877.0253    45.228312    9901.6061    16684.242   -11266.722    30133.319   -1316.3034    79.515065 
   49800     2320.881   -121.79698    2.0999819     -119.697   -4311.4545    4.3100488    4.3100488    4.3100488   -4311.4545    7437.2528    -29177.82    8806.2035    9646.5502   -23530.048   -17306.196    80.065711 
   49900     1713.093   -121.24538    1.5500425   -119.69534   -1768.6447    4.3118458    4.3118458    4.3118458   -1768.6447   -10200.512   -14126.653    19021.231    18739.425    13945.476    1133.6354    80.165896 
   50000    1496.4478   -121.04547    1.3540174   -119.69145   -12648.007    4.3157883    4.3157883    4.3157883   -12648.007   -19243.908   -15276.783   -3423.3305    1519.7964    47388.009    10381.528    80.385996 
   50100    2194.4515   -121.66548    1.9855859   -119.67989   -9471.3257    4.3165953    4.3165953    4.3165953   -9471.3257    4363.2581   -41246.255    8469.0196   -6788.1254     1593.583   -638.41336    80.431099 
   50200    2375.7935   -121.83188    2.1496679   -119.68222    15810.801    4.2935691    4.2935691    4.2935691    15810.801    6029.9705    1823.9111    39578.522   -12553.656    5714.4455   -2334.8477    79.150814 
   50300    1471.2817   -121.03328    1.3312466   -119.70203    33929.987    4.2878533    4.2878533    4.2878533    33929.987    14064.856    32620.426    55104.679   -910.91351    45244.746   -5796.3202    78.835125 
   50400     1658.627   -121.21633    1.5007606   -119.71557    -19197.66    4.3194534    4.3194534    4.3194534    -19197.66    -24136.59   -11698.143   -21758.246   -7767.8409    17019.792    1432.0606     80.59097 
   50500    2125.5224   -121.61425    1.9232173   -119.69103     4633.729    4.3168698    4.3168698    4.3168698     4633.729    4970.1571   -33189.429    42120.459   -12517.545   -23461.043    5114.5912    80.446443 
   50600    1833.7956   -121.34339    1.6592568   -119.68413    10777.597     4.295524     4.295524     4.295524    10777.597     6239.203    15710.735    10382.852   -3110.6867    39191.024    3329.6898    79.258977 
   50700     1418.748   -120.98359     1.283713   -119.69988   -22696.253    4.3026996    4.3026996    4.3026996   -22696.253   -47198.456    32312.494   -53202.795    11882.089    60384.267   -1513.1129     79.65684 
   50800    1744.9261   -121.27407    1.5788458   -119.69523   -9223.6806    4.3060399    4.3060399    4.3060399   -9223.6806   -18836.034   -1721.5634   -7113.4442    7822.1617   -17780.586    -5197.006    79.842502 
   50900    1447.6431   -121.01055    1.3098579   -119.70069    5249.9806    4.3073455    4.3073455    4.3073455    5249.9806   -41829.069   -8022.7192     65601.73   -21966.715   -17581.954    -1790.662    79.915149 
   51000    1213.0332   -120.80641    1.0975779   -119.70883   -23794.011    4.3139237    4.3139237    4.3139237   -23794.011   -76096.933    16789.733   -12074.835   -15147.543    39014.615    1366.0606    80.281853 
   51100      1406.46   -120.96513    1.2725945   -119.69254    8439.0223    4.3133707    4.3133707    4.3133707    8439.0223   -24866.377    3145.3666    47038.077    16951.342    30629.999    9753.9425    80.250979 
   51200    1521.5346   -121.06186    1.3767165   -119.68514   -11908.012    4.3180526    4.3180526    4.3180526   -11908.012   -45854.555   -12119.712     22250.23    1837.6118   -17379.713   -10047.525    80.512585 
   51300    972.43974   -120.56476   0.87988391   -119.68487    3152.1461    4.3157705    4.3157705    4.3157705    3152.1461   -10039.384    16397.771    3098.0516   -14220.035   -8828.7944   -726.55253    80.385003 
   51400    1374.0732   -120.92402    1.2432903   -119.68073    8532.8546    4.3121316    4.3121316    4.3121316    8532.8546   -11793.731    3374.6353    34017.659    3249.8928    14498.573    6418.1669     80.18184 
   51500    1523.8522   -121.06164    1.3788135   -119.68283   -2002.9595    4.3088173    4.3088173    4.3088173   -2002.9595   -36927.591   -9632.7716    40551.484    22745.059    5706.8644   -13941.125    79.997101 
   51600      845.363   -120.45867    0.7649022   -119.69376    19973.106    4.3080335    4.3080335    4.3080335    19973.106   -34135.911    21016.034    73039.196   -1142.8018    629.82235    8.0771332    79.953452 
   51700     1491.202   -121.04076    1.3492709   -119.69149   -7199.2193    4.3216544    4.3216544    4.3216544   -7199.2193   -40979.121     18457.72    923.74295   -29434.763    5416.3486   -16087.002    80.714227 
   51800    1498.0876   -121.03755    1.3555011   -119.68205   -5230.2113    4.3227629    4.3227629    4.3227629   -5230.2113   -34611.177   -643.89961    19564.442    21933.653    8200.7998   -1235.0948    80.776355 
   51900    1301.5865   -120.85817    1.1777028   -119.68047    4725.5575    4.3040957    4.3040957    4.3040957    4725.5575   -35889.725    14229.629    35836.769    40901.874    18151.811    4342.9886    79.734403 
   52000    1519.3878   -121.06213     1.374774   -119.68736    5587.5898    4.3004063    4.3004063    4.3004063    5587.5898    -26498.26    3716.1335    39544.896   -28006.819   -14244.607   -10579.248    79.529538 
   52100    1807.7746   -121.32812    1.6357124   -119.69241   -12448.614     4.315353     4.315353     4.315353   -12448.614    -33380.34     9916.877   -13882.378   -18329.581   -25866.208    416.08006    80.361673 
   52200    1420.8608   -120.97449    1.2856247   -119.68887   -4710.4677    4.3277503    4.3277503    4.3277503   -4710.4677    19788.286   -29085.038   -4834.6512    45114.332   -3734.4163   -292.14144    81.056265 
   52300    1818.3339   -121.32352    1.6452667   -119.67826   -12514.405    4.3242183    4.3242183    4.3242183   -12514.405    925.89474   -38279.752   -189.35803    10876.457    267.36051     4529.823    80.857968 
   52400    2312.8996   -121.76369    2.0927602   -119.67092     28791.25    4.2934658    4.2934658    4.2934658     28791.25    31669.327    23074.989    31629.436   -37179.579    11435.686   -9362.7177    79.145099 
   52500    1961.8756   -121.46755    1.7751463    -119.6924    17515.586    4.2909703    4.2909703    4.2909703    17515.586    23083.427    -13662.42     43125.75    32280.355   -593.85947   -360.23471    79.007174 
   52600    1600.6518   -121.15747    1.4483034   -119.70916   -16736.577    4.3234908    4.3234908    4.3234908   -16736.577   -25550.897   -38644.828    13985.995    41153.793    1181.6091    576.70527    80.817166 
   52700    2326.5584   -121.78408    2.1051189   -119.67896   -16249.802    4.3268218    4.3268218    4.3268218   -16249.802   -7140.6613    -1801.358   -39807.385   -8248.0819    16989.081   -5457.9567    81.004107 
   52800    2128.2859   -121.59989    1.9257178   -119.67418    8424.2896    4.3054287    4.3054287    4.3054287    8424.2896    2519.2232   -18254.023    41007.668    17431.643   -6951.7489    7719.5383    79.808511 
   52900    1744.7072   -121.26207    1.5786477   -119.68342    7359.5506    4.2957986    4.2957986    4.2957986    7359.5506   -11139.169   -28670.257    61888.078    47120.275   -9407.6829   -10338.046    79.274177 
   53000    1809.3378   -121.33114    1.6371269   -119.69401   -1443.9033    4.3013446    4.3013446    4.3013446   -1443.9033    -13176.81    30268.649   -21423.549    8765.1605    23118.325   -4247.3815    79.581607 
   53100    1630.1283   -121.17405    1.4749743   -119.69907   -8663.8451     4.319774     4.319774     4.319774   -8663.8451   -6131.2918   -15862.148   -3998.0955   -3451.8218    43296.632    3476.9189    80.608917 
   53200    1605.8052   -121.14333    1.4529663   -119.69036   -33562.957    4.3241736    4.3241736    4.3241736   -33562.957   -23434.014   -72171.417   -5083.4404    32065.232    8127.3996     6314.432    80.855464 
   53300    1480.5144   -121.02555    1.3396005   -119.68595    1689.0924    4.2957636    4.2957636    4.2957636    1689.0924    4794.8618   -13276.356    13548.771    31400.846   -18951.151    3092.8376    79.272239 
   53400    1270.8886   -120.84445    1.1499267   -119.69452    30491.877    4.2882522    4.2882522    4.2882522    30491.877    17507.147    78061.099   -4092.6136   -12574.332    11972.758   -8363.8787     78.85713 
   53500      1447.68   -121.01526    1.3098913   -119.70537   -26994.125     4.318661     4.318661     4.318661   -26994.125   -42643.185   -8886.1184   -29453.071    2032.1565     27484.64   -1656.3993    80.546626 
   53600    1856.5781   -121.36877    1.6798709    -119.6889    -17275.61     4.315837     4.315837     4.315837    -17275.61    -31782.59   -14396.153   -5648.0861    7244.3549    7577.3548    7484.0471    80.388715 
   53700    1703.7384    -121.2247    1.5415783   -119.68312    9561.4729    4.2956979    4.2956979    4.2956979    9561.4729   -41378.897    60529.694    9533.6217    412.16581   -13845.115     7540.168    79.268602 
   53800    1204.8711   -120.79152    1.0901927   -119.70133    -5362.079     4.303617     4.303617     4.303617    -5362.079   -57552.978    71198.319   -29731.578    8093.0364   -5594.5094   -5855.8168    79.707804 
   53900    1428.3853   -120.98932     1.292433   -119.69688   -7718.8377    4.3114391    4.3114391    4.3114391   -7718.8377   -28789.471    19519.073   -13886.115   -7493.9187    6113.2548   -16513.531    80.143217 
   54000    1602.5238   -121.13799    1.4499972   -119.68799    11893.027    4.3066987    4.3066987    4.3066987    11893.027   -29840.764    39871.827     25648.02    3463.5101   -4778.3613   -7007.7323    79.879155 
   54100    1221.9316   -120.79897    1.1056294   -119.69334   -6524.1927    4.3092933    4.3092933    4.3092933   -6524.1927   -51611.797    52909.986   -20870.767    6705.7823   -31838.627    172.99814    80.023613 
   54200    974.79615   -120.57811   0.88201604   -119.69609   -8905.4007    4.3114874    4.3114874    4.3114874   -8905.4007   -17020.069    37697.448   -47393.581    -13953.27   -7331.1036    6668.2046    80.145913 
   54300      1546.72   -121.08784    1.3995048   -119.68833    12557.175    4.2978311    4.2978311    4.2978311    12557.175   -15831.452    34377.068    19125.908   -3486.0332    24433.298    6756.1138    79.386752 
   54400    1253.6075    -120.8293    1.1342904   -119.69501    23909.546    4.2988894    4.2988894    4.2988894    23909.546   -28367.082    84987.618    15108.101   -22716.997   -13837.508   -736.33006    79.445413 
   54500    933.50544   -120.54509   0.84465534   -119.70044   -21909.536    4.3228034    4.3228034    4.3228034   -21909.536   -36095.429    25838.173    -55471.35    8674.3433   -41246.808    8275.0236    80.778622 
   54600    1413.4495   -120.96028    1.2789188   -119.68137   -7329.4656     4.315794     4.315794     4.315794   -7329.4656   -26377.481    24759.467   -20370.382    4788.6945    1855.8841   -2798.0943    80.386312 
   54700    1753.0829    -121.2581    1.5862263   -119.67187    32033.731    4.2839039    4.2839039    4.2839039    32033.731   -6563.0086    69856.781     32807.42   -30953.862    9117.1387    -9017.793    78.617487 
   54800     934.0878   -120.55013   0.84518228   -119.70494    1873.4946    4.2919805    4.2919805    4.2919805    1873.4946   -31959.863        62431   -24850.654   -5402.6012   -52544.805   -4418.2323    79.062987 
   54900    1547.4232   -121.10363     1.400141   -119.70349   -34171.136    4.3152177    4.3152177    4.3152177   -34171.136   -65808.427    13099.348   -49804.328     11888.31   -40487.514    8457.3182    80.354115 
   55000    2316.7038   -121.78088    2.0962023   -119.68468    22789.714    4.3116881    4.3116881    4.3116881    22789.714   -175.60818    17349.977    51194.773    8183.9229    21049.175    11211.279    80.157103 
   55100    1941.2572   -121.45289    1.7564903    -119.6964   -4275.1324    4.3112631    4.3112631    4.3112631   -4275.1324   -21919.993    23754.576    -14659.98    -6869.572   -21931.048   -4793.3589    80.133401 
   55200    1258.4529   -120.84052    1.1386746   -119.70184   -1727.3709     4.308467     4.308467     4.308467   -1727.3709   -56220.243    25055.474    25982.657   -9197.9855    -49837.39    2296.7443    79.977591 
   55300    2259.5629   -121.73326       2.0445   -119.68876    4080.5567     4.303795     4.303795     4.303795    4080.5567    8227.5506   -17011.951    21026.071   -3708.6672    9945.8187   -12680.402    79.717697 
   55400    2040.0039   -121.53803    1.8458384   -119.69219   -7099.0787    4.3133319    4.3133319    4.3133319   -7099.0787    8931.2003    5406.6263   -35635.063   -14395.661     41522.98   -1642.5968    80.248813 
   55500    1498.3748   -121.04708     1.355761   -119.69132   -15654.188    4.3139147    4.3139147    4.3139147   -15654.188   -26570.001    9601.8554   -29994.418   -5032.3149   -15550.987    5350.1679    80.281348 
   55600    1970.8787   -121.46881    1.7832924   -119.68552    4219.9076    4.3038064    4.3038064    4.3038064    4219.9076    28503.628   -22171.009    6327.1036   -1713.5087   -46206.924   -5742.5418    79.718326 
   55700    1823.2117   -121.34304    1.6496802   -119.69336   -3092.6139    4.3039505    4.3039505    4.3039505   -3092.6139    39776.513   -11027.043   -38027.312    4371.3155    21354.703   -292.98935    79.726336 
   55800    1081.8712   -120.68543   0.97889984   -119.70653    1328.5302    4.3101075    4.3101075    4.3101075    1328.5302    8020.8181     23647.56   -27682.788    3522.9578    46284.557     4087.251    80.068982 
   55900    1923.0593   -121.43541    1.7400245   -119.69539   -9299.7049    4.3189941    4.3189941    4.3189941   -9299.7049   -8592.9465    -30882.75    11576.582   -13381.276   -7949.4328    1046.0639    80.565266 
   56000    2130.9706   -121.61266     1.928147   -119.68451     11273.21    4.3117638    4.3117638    4.3117638     11273.21    19973.172   -17248.961    31095.419   -9038.0142   -11743.266    2559.3948    80.161325 
   56100    1055.5222   -120.65235   0.95505867   -119.69729    14824.479    4.2979855    4.2979855    4.2979855    14824.479    13347.793    40987.324   -9861.6789   -1229.1299    29074.644    9654.1213    79.395309 
   56200    1108.4632   -120.71602    1.0029608   -119.71306   -19783.343     4.311614     4.311614     4.311614   -19783.343   -23536.853   -12723.475   -23089.702   -4630.3256    35773.009    5939.8515    80.152971 
   56300    1857.8401   -121.36825    1.6810128   -119.68724    -11913.51    4.3248988    4.3248988    4.3248988    -11913.51   -33420.744   -25173.185      22853.4   -8253.4892   -6700.1642    2318.2142    80.896149 
   56400    1423.3825    -120.9654    1.2879064    -119.6775   -4022.7717    4.3179931    4.3179931    4.3179931   -4022.7717    -1292.896    15755.889   -26531.308   -11122.924    4997.2991    15077.043    80.509258 
   56500    825.39915   -120.42497    0.7468385   -119.67814   -8192.5427    4.3144767    4.3144767    4.3144767   -8192.5427    -39449.44   -8175.1005    23046.912    993.71917      35192.4    12146.125    80.312727 
   56600    1700.5229   -121.21253    1.5386688   -119.67386   -3342.6525    4.3049164    4.3049164    4.3049164   -3342.6525    -8946.591   -11220.953    10139.587    1308.7924    13394.386   -8229.9018    79.780027 
   56700    1799.6908   -121.31116     1.628398   -119.68276    16800.658    4.2969632    4.2969632    4.2969632    16800.658    12475.166    25725.983    12200.824   -2423.6428   -19668.681   -3036.3122    79.338668 
   56800    864.10836   -120.48963    0.7818634   -119.70777   -41792.409    4.3207136    4.3207136    4.3207136   -41792.409   -71220.609    20819.584     -74976.2    6398.5775    30705.231    15334.793    80.661525 
   56900    1436.1414   -120.98948     1.299451   -119.69002   -35653.836    4.3157483    4.3157483    4.3157483   -35653.836   -38294.076   -9308.3029   -59359.129    -316.4478    21388.656    11628.174    80.383763 
   57000      2449.77   -121.88089    2.2166034   -119.66429    9334.4388    4.2971733    4.2971733    4.2971733    9334.4388    27707.278   -9416.4004    9712.4391   -5402.3009   -13778.702    613.79719    79.350305 
   57100    1146.7084   -120.73253    1.0375659   -119.69497   -38480.377    4.3161065    4.3161065    4.3161065   -38480.377   -45835.541   -10031.721   -59573.868   -736.99827    18479.711    9443.8349    80.403777 
   57200    988.56267   -120.59072   0.89447228   -119.69625   -27837.098    4.3101199    4.3101199    4.3101199   -27837.098   -22552.075   -1959.6241   -58999.593    1632.4377    21692.494    14102.927    80.069671 
   57300    1930.2499   -121.43473    1.7465306    -119.6882     26918.53    4.3015041    4.3015041    4.3015041     26918.53    49009.953   -5699.1326    37444.771    748.54302    6724.9837    6402.4979    79.590461 
   57400    1855.8318    -121.3757    1.6791956    -119.6965    12088.378    4.3163621    4.3163621    4.3163621    12088.378    13094.958   -25371.084    48541.259    1145.8274    15422.302   -13068.469    80.418066 
   57500    921.62564   -120.53943   0.83390625   -119.70553    -3196.402    4.3184884    4.3184884    4.3184884    -3196.402   -4555.6684   -11788.917    6755.3794   -3659.3216    24410.374   -1823.1743    80.536968 
   57600     1395.568   -120.95313    1.2627392   -119.69039    16113.193    4.3080633    4.3080633    4.3080633    16113.193     38114.43    -7464.031    17689.179   -4220.0844    11788.642      20633.6    79.955113 
   57700     2495.311   -121.93599    2.2578098   -119.67818     17353.53    4.3055544    4.3055544    4.3055544     17353.53    62778.578   -16994.914    6276.9243   -6738.6971    1324.1967    -5566.198      79.8155 
   57800    1498.7841   -121.05746    1.3561314   -119.70133    4876.5741    4.3080195    4.3080195    4.3080195    4876.5741    69299.738   -19184.153   -35485.863   -5631.7868    13305.795   -490.83336    79.952675 
   57900    1461.2167   -121.02557    1.3221396   -119.70343   -2150.8004     4.309027     4.309027     4.309027   -2150.8004    37230.933    2691.7987   -46375.133    6362.0011    16498.438    2756.1694    80.008782 
   58000    2391.2295   -121.85384    2.1636347    -119.6902   -1335.3484    4.3133162    4.3133162    4.3133162   -1335.3484    9574.7652   -9074.8454   -4505.9651    3382.0928   -13925.229    85.927069    80.247937 
   58100    2040.7039    -121.5344    1.8464718   -119.68793   -5657.4595    4.3080854    4.3080854    4.3080854   -5657.4595    29577.397   -35042.875   -11506.901      1295.83   -8079.8574    2303.6925    79.956341 
   58200    957.68631   -120.56853    0.8665347   -119.70199   -7841.5835    4.3001683    4.3001683    4.3001683   -7841.5835    14148.302   -4733.5427    -32939.51    6928.7255    26040.318    10035.421    79.516338 
   58300    1226.2454   -120.81552    1.1095326   -119.70599    7753.8521    4.3060238    4.3060238    4.3060238    7753.8521    -16258.89     7121.339    32399.107   -754.29387    40943.132    7517.6452    79.841608 
   58400    2042.5642   -121.53838     1.848155   -119.69022   -17502.331    4.3152461    4.3152461    4.3152461   -17502.331   -34081.798   -27881.988    9456.7941    -7386.634   -11469.711    937.79818    80.355701 
   58500    1283.1205   -120.85552    1.1609944   -119.69453   -36577.841    4.3194645    4.3194645    4.3194645   -36577.841   -25730.846    -44631.08   -39371.598   -2917.0676   -3475.0943   -9802.4552     80.59159 
   58600    741.57063    -120.3621   0.67098869   -119.69111   -34336.115    4.3143549    4.3143549    4.3143549   -34336.115   -24911.506   -23893.894   -54202.945    1155.7269    59113.253    6155.9388    80.305929 
   58700    1443.1227   -120.98448    1.3057677   -119.67871    7824.9218     4.292044     4.292044     4.292044    7824.9218    4366.8214    4897.2585    14210.685   -7925.9526    11018.723    4677.6981    79.066497 
   58800    1627.2657   -121.16425    1.4723842   -119.69186   -16218.532    4.3032509    4.3032509    4.3032509   -16218.532    -34345.89   -12835.343   -1474.3626   -16365.387   -45952.987   -1824.2281    79.687464 
   58900    1101.3991   -120.69053   0.99656902   -119.69396   -49616.792    4.3227007    4.3227007    4.3227007   -49616.792   -69372.292   -24936.775   -54541.309   -10136.564    16007.245    4950.7182    80.772869 
   59000    1440.8835   -120.98929    1.3037416   -119.68554    2535.2405    4.3065296    4.3065296    4.3065296    2535.2405   -3468.0083    1218.1907    9855.5392    -2161.993    54085.346    6105.1909    79.869747 
   59100    1930.9873   -121.43139    1.7471979   -119.68419    21583.193    4.2984183    4.2984183    4.2984183    21583.193    48197.817    21708.469   -5156.7066   -1227.5085   -7300.4827    233.81745    79.419298 
   59200    1841.0385   -121.36482    1.6658103   -119.69901    14737.695    4.2982297    4.2982297    4.2982297    14737.695    32338.184    17229.002      -5354.1   -904.86126   -35097.358    12822.997    79.408844 
   59300    1587.3564   -121.15436    1.4362734   -119.71809    10741.027    4.3058598    4.3058598    4.3058598    10741.027     38615.19    9675.4772   -16067.586    -2859.831    28292.328    598.63314    79.832486 
   59400    2055.5876    -121.5663    1.8599388   -119.70636    -9955.611    4.3224368    4.3224368    4.3224368    -9955.611   -17821.769    2311.8368   -14356.901    9232.5398    29439.905   -2918.1455    80.758077 
   59500    2597.0835   -122.03147    2.3498957   -119.68158    7585.1098    4.3145847    4.3145847    4.3145847    7585.1098    14865.746   -1839.2185    9728.8019    2446.7504   -26597.993    9717.4536    80.318763 
   59600    2070.1393   -121.55706    1.8731055   -119.68395    19143.848    4.2973986    4.2973986    4.2973986    19143.848    28502.545    17378.519    11550.479    -14192.09   -1560.2709    4504.7987    79.362789 
   59700    1540.5936   -121.09588    1.3939615   -119.70192    12899.586    4.2965894    4.2965894    4.2965894    12899.586    31220.862    34027.338   -26549.442   -8215.2889    48221.176   -2367.2164    79.317964 
   59800    1894.0939    -121.4206     1.713816   -119.70678    715.88248     4.309301     4.309301     4.309301    715.88248    6676.4589    -4892.287    363.47553     3988.663    15945.718    6450.4237    80.024045 
   59900    2163.6911    -121.6534    1.9577532   -119.69565   -1964.8243    4.3153302    4.3153302    4.3153302   -1964.8243    24374.263   -29275.959   -992.77703    11077.481   -19698.414    15228.566    80.360399 
   60000    1385.4235   -120.95153    1.2535603   -119.69797    -17627.85     4.316875     4.316875     4.316875    -17627.85   -15100.959   -7228.0367   -30554.553    -590.7092    35724.164    14257.073    80.446732 
   60100    1200.0667    -120.7815    1.0858456   -119.69565   -13488.577    4.3105933    4.3105933    4.3105933   -13488.577   -48933.702    25730.591   -17262.621   -422.48717    47456.582    3657.1814    80.096059 
   60200    1902.2885   -121.40453    1.7212306    -119.6833    10266.082    4.2988596    4.2988596    4.2988596    10266.082     9620.624   -17104.908    38282.531    14860.132   -3375.0312   -2686.1231    79.443758 
   60300    1238.6248   -120.81969    1.1207337   -119.69896   -10878.854    4.3093659    4.3093659    4.3093659   -10878.854   -10178.029   -39931.497    17472.964   -3187.4639    8869.3458    23203.163    80.027657 
   60400    556.65818   -120.21453   0.50367602   -119.71085    -50558.05    4.3181276    4.3181276    4.3181276    -50558.05   -45041.546   -10930.287   -95702.318   -7521.0621     51159.83    19642.151    80.516784 
   60500    1405.7242   -120.96488    1.2719288   -119.69295     6240.654    4.3005842    4.3005842    4.3005842     6240.654    217.16354    34719.835   -16215.037   -821.10249    15693.099   -11657.388     79.53941 
   60600    2086.2219   -121.57555    1.8876574   -119.68789    14690.065    4.2983206    4.2983206    4.2983206    14690.065    34497.405    3846.3932    5726.3973   -280.39518   -14651.969    553.44366     79.41388 
   60700    1086.5997   -120.69112   0.98317826   -119.70794   -3806.0545    4.3085944    4.3085944    4.3085944   -3806.0545    4127.2403     1355.959   -16901.363    2011.3515    30710.819    23677.046    79.984687 
   60800    962.83337   -120.57601   0.87119187   -119.70482   -1795.7914    4.3122518    4.3122518    4.3122518   -1795.7914   -4892.1989    6890.9605   -7386.1359   -7524.1101    44770.895    15688.119    80.188546 
   60900    2063.4154   -121.55943    1.8670216   -119.69241    -7946.296    4.3078538    4.3078538    4.3078538    -7946.296   -19498.967   -22701.105    18361.183    8369.3634   -6256.7809    5243.6722    79.943448 
   61000    1732.2276   -121.26457    1.5673559   -119.69722    21927.154    4.2950403    4.2950403    4.2950403    21927.154    7186.4632   -10358.408    68953.406     22483.07   -166.89423    1949.1622    79.232203 
   61100    1623.3409   -121.17856     1.468833   -119.70973    -13166.85    4.2981928    4.2981928    4.2981928    -13166.85   -28156.945    4308.1275   -15651.732    474.42305    36052.868    19491.908    79.406797 
   61200    1828.7383   -121.36401    1.6546808   -119.70933   -17201.537    4.3114374    4.3114374    4.3114374   -17201.537   -4899.4132   -13954.896   -32750.302   -7396.7878    4353.9542    17272.589    80.143122 
   61300     2396.325   -121.86497    2.1682452   -119.69672    -5210.072    4.3027536    4.3027536    4.3027536    -5210.072   -7131.5192   -27221.183    18722.486    18600.825    -9505.408   -9016.4847    79.659839 
   61400    1926.9868   -121.44398    1.7435782    -119.7004    5920.9958    4.2937644    4.2937644    4.2937644    5920.9958    39311.579    -13047.29   -8501.3018    20027.195    34719.399    2190.6272    79.161615 
   61500     1343.048   -120.92938    1.2152181   -119.71416   -14054.894    4.3070026    4.3070026    4.3070026   -14054.894    2017.0361   -10039.021   -34142.695   -12984.441     43040.05    18283.818    79.896065 
   61600    1829.7585    -121.3594     1.655604    -119.7038    -20722.01    4.3066484    4.3066484    4.3066484    -20722.01   -345.52058   -10063.855   -51756.656   -1106.3126    -24514.92    2306.6646    79.876355 
   61700    1999.4662   -121.50469     1.809159   -119.69553    14024.607    4.2986143    4.2986143    4.2986143    14024.607    43014.998    2467.5989   -3408.7754    12106.294   -34509.094    385.00097    79.430161 
   61800    1690.0462   -121.23083    1.5291893   -119.70164    3325.1947    4.3054976    4.3054976    4.3054976    3325.1947    6291.5999   -13593.307    17277.291    1956.7495    40764.595    4230.4066    79.812343 
   61900     1155.499   -120.75044    1.0455198   -119.70492   -3898.5365    4.3127371    4.3127371    4.3127371   -3898.5365    16294.548   -4381.7517   -23608.406    2845.9417    27490.496    11841.947    80.215622 
   62000    1714.0364   -121.24067    1.5508961   -119.68978   -4267.2469    4.3151694    4.3151694    4.3151694   -4267.2469    47854.356   -13069.687    -47586.41   -7912.1998   -28062.518     9712.132    80.351416 
   62100    2042.1354   -121.53076     1.847767   -119.68299   -1062.1897    4.3076734    4.3076734    4.3076734   -1062.1897    30253.565   -4880.2662   -28559.868    -7809.705   -8974.9116   -195.97433    79.933401 
   62200    1664.6088   -121.19805     1.506173   -119.69188    8642.6581    4.2896474    4.2896474    4.2896474    8642.6581    18810.098    13857.789   -6739.9127    5565.2028    42736.148    4996.6585    78.934125 
   62300    1083.4002   -120.68879   0.98028331   -119.70851    16607.258    4.2939057    4.2939057    4.2939057    16607.258    80938.738   -9943.3066   -21173.657   -7989.7726    23730.233    17470.564     79.16943 
   62400    1567.9755   -121.12623    1.4187371    -119.7075   -18265.119    4.3177002    4.3177002    4.3177002   -18265.119   -25052.037   -29195.482    -547.8374   -10322.869    -35774.64     3030.365    80.492875 
   62500    1705.8108   -121.23376    1.5434535   -119.69031   -3740.0234    4.3156737    4.3156737    4.3156737   -3740.0234   -36501.746   -10978.799    36260.474       8718.4    6277.4122   -4572.1538    80.379595 
   62600    1025.7203   -120.62447    0.9280933   -119.69638    9101.8286    4.2981952    4.2981952    4.2981952    9101.8286    26445.699    12856.092   -11996.305    6004.1692    51138.662    11118.544    79.406932 
   62700    1053.7328   -120.65232   0.95343954   -119.69888    4952.2318    4.2919442    4.2919442    4.2919442    4952.2318    12923.727   -1239.3934    3172.3623     -6581.43    7758.5563    5891.8605    79.060983 
   62800    1497.1962   -121.05618    1.3546946   -119.70149   -9931.6162    4.2968882    4.2968882    4.2968882   -9931.6162   -24615.588   -21232.139    16052.879    2713.0551   -11601.365   -3696.8681    79.334513 
   62900    1362.2558   -120.94343    1.2325977   -119.71083   -28455.801    4.3105223    4.3105223    4.3105223   -28455.801   -75834.851    3444.0512   -12976.602    4926.6503    26788.942    4441.1362    80.092102 
   63000    968.23007   -120.58684   0.87607491   -119.71077   -20321.261    4.3085686    4.3085686    4.3085686   -20321.261   -30652.089    3153.6188   -33465.311    5605.3497    57427.873    3731.5147    79.983247 
   63100    1611.0812   -121.15473    1.4577401   -119.69699   -4902.4235     4.297418     4.297418     4.297418   -4902.4235    2762.4792   -16872.584   -597.16559    5014.9977   -10915.992    5303.9817    79.363865 
   63200    1690.8462   -121.22519    1.5299132   -119.69527   -12777.101    4.3078805    4.3078805    4.3078805   -12777.101   -13838.719   -15243.327   -9249.2578    -4054.365    3976.4495    8592.4537    79.944933 
   63300    1246.5841   -120.82426    1.1279355   -119.69633   -11728.973    4.3089593    4.3089593    4.3089593   -11728.973   -40138.776    34458.622   -29506.765    12142.661    74877.641   -1256.7957    80.005007 
   63400    1773.8995   -121.29393    1.6050615   -119.68887    9668.9584    4.2983217    4.2983217    4.2983217    9668.9584   -1000.8404    21020.975    8986.7408    8507.4656    16143.519    10833.122    79.413943 
   63500    2188.5468    -121.6729    1.9802431   -119.69266    903.58283    4.3064426    4.3064426    4.3064426    903.58283    13106.403   -8883.4044   -1512.2505   -4147.5626    -16253.25      19438.1    79.864904 
   63600     1529.533   -121.09035    1.3839536   -119.70639   -1138.3269    4.3084307    4.3084307    4.3084307   -1138.3269    12553.674    21342.676   -37311.331    1667.6266    43444.678    3538.6327    79.975569 
   63700    1688.9074   -121.23053    1.5281589   -119.70237    14985.054     4.305822     4.305822     4.305822    14985.054    33069.004    35613.729   -23727.572   -3649.7179    43836.133   -3800.5126    79.830383 
   63800    2520.6708   -121.96335    2.2807559    -119.6826   -8043.3978    4.3188228    4.3188228    4.3188228   -8043.3978    30522.116   -36254.766   -18397.544    8111.6214    -20267.18      -3069.9     80.55568 
   63900    1795.6779   -121.31225    1.6247671   -119.68748   -9441.4085    4.3100934    4.3100934    4.3100934   -9441.4085    5378.2746   -62.427875   -33640.072   -1802.0615    31768.099    21324.852    80.068198 
   64000    1434.6682   -120.98273     1.298118   -119.68461    9598.9855    4.2877934    4.2877934    4.2877934    9598.9855    32547.796    32038.537   -35789.377   -3176.6046     65286.83    7080.7153     78.83182 
   64100    2002.4687   -121.51098    1.8118758   -119.69911    4933.4987    4.2977698    4.2977698    4.2977698    4933.4987    35610.709   -4524.9952   -16285.218   -876.01862   -10745.627   -23968.068    79.383355 
   64200    1804.5418   -121.32864    1.6327873   -119.69585   -2876.4867    4.3145747    4.3145747    4.3145747   -2876.4867    32333.662   -5945.8779   -35017.244   -9428.5757    410.54739   -16460.385    80.318204 
   64300     1181.468   -120.76351     1.069017   -119.69449   -4408.5955    4.3133254    4.3133254    4.3133254   -4408.5955    -17765.83     42728.81   -38188.766    5985.6068     63721.02    4438.7687    80.248452 
   64400    1346.1898   -120.90738    1.2180609   -119.68932   -12090.216    4.3075714    4.3075714    4.3075714   -12090.216   -24619.532     12004.95   -23656.067    -8352.493     19518.07    15698.683    79.927725 
   64500    1395.7464   -120.94946    1.2629007   -119.68656    12363.891    4.2977582    4.2977582    4.2977582    12363.891    30320.019    9990.7898   -3219.1364   -9473.5668   -10536.062   -10426.228    79.382712 
   64600    1156.3492   -120.74221     1.046289   -119.69592    13332.885    4.2999586    4.2999586    4.2999586    13332.885     -2609.72    46637.979   -4029.6048   -1551.9504    19221.024    -28789.66    79.504702 
   64700    970.76764    -120.5791   0.87837096   -119.70073   -12655.912    4.3216484    4.3216484    4.3216484   -12655.912   -49270.256    39094.963   -27792.443   -9340.6704    33534.452    5207.5915    80.713894 
   64800    1366.0578    -120.9232    1.2360378   -119.68716   -6537.9316    4.3131237    4.3131237    4.3131237   -6537.9316    -743.8411   -8349.6097   -10520.344    7489.7511    -8362.085    23213.149    80.237196 
   64900    1354.6325   -120.90109       1.2257   -119.67539     35109.75    4.2837435    4.2837435    4.2837435     35109.75    65104.074    12492.146    27733.031   -2689.5834   -2865.6086    2954.9962    78.608658 
   65000    1358.3097   -120.92732    1.2290271    -119.6983   -11156.941    4.2954164    4.2954164    4.2954164   -11156.941   -49004.364    35266.763   -19733.222   -1359.0104    50033.109   -19243.552     79.25302 
   65100    1477.4995   -121.03142    1.3368726   -119.69454   -25789.655    4.3143189    4.3143189    4.3143189   -25789.655   -51482.166    14072.494   -39959.294    5342.7096     23787.68    13622.103    80.303916 
   65200    1643.0037   -121.16841    1.4866243   -119.68178    82.483047    4.3068737    4.3068737    4.3068737    82.483047    34800.624   -16469.527   -18083.648   -1070.0172   -11383.832    33803.113    79.888894 
   65300    1792.9609     -121.303    1.6223087   -119.68069    -14967.09    4.3038248    4.3038248    4.3038248    -14967.09   -19151.166   -13319.558   -12430.544    10316.286    28261.838   -10152.174     79.71935 
   65400    1675.1404   -121.20034    1.5157022   -119.68463   -30413.892    4.3121699    4.3121699    4.3121699   -30413.892   -61958.175    8341.2963   -37624.798   -5027.7543    54530.783   -17671.454    80.183976 
   65500    2167.7628   -121.63894    1.9614374   -119.67751    5905.3193    4.2973878    4.2973878    4.2973878    5905.3193    19709.884    2733.6129   -4727.5395   -7527.9215   -3460.9166    21766.884    79.362189 
   65600    2097.7847   -121.58347    1.8981196   -119.68535    19108.748    4.2937817    4.2937817    4.2937817    19108.748    36829.674   -6744.8749    27241.447    449.02232    7810.1848     24522.77    79.162568 
   65700    1663.7484   -121.20324    1.5053945   -119.69785   -35518.484    4.3214854    4.3214854    4.3214854   -35518.484   -58459.021   -2309.9584   -45786.471     -1287.67    74325.137   -4149.8046    80.704758 
   65800    2325.9911   -121.79174    2.1046056   -119.68713   -14221.785    4.3084795    4.3084795    4.3084795   -14221.785   -8075.7767   -5800.9104   -28788.669     6618.548    18661.357   -22751.875    79.978284 
   65900    2454.4053   -121.89228    2.2207975   -119.67148    16881.825    4.2841476    4.2841476    4.2841476    16881.825     41148.65   -525.85227    10022.678    757.78822   -15785.002    2198.8129    78.630907 
   66000    1325.6807   -120.89772    1.1995037   -119.69821   -29647.562    4.3064385    4.3064385    4.3064385   -29647.562   -40836.083     13714.92   -61821.524   -1722.9016    66239.396    22144.243    79.864679 
   66100    1772.9898   -121.29649    1.6042384   -119.69225   -28427.605    4.3117841    4.3117841    4.3117841   -28427.605   -24422.581     5616.182   -66476.415    7538.9743    37146.464   -1327.2693    80.162455 
   66200    2338.1688   -121.79549    2.1156242   -119.67987    10748.741    4.2927366    4.2927366    4.2927366    10748.741    34282.242   -4944.3101    2908.2911   -6368.3542   -17070.004   -7639.3073    79.104781 
   66300    1253.3448   -120.83594    1.1340527   -119.70188   -20102.024    4.2957587    4.2957587    4.2957587   -20102.024   -27067.729    6420.9086   -39659.252     314.0441    53840.209    1614.1264    79.271968 
   66400    816.81321   -120.45023   0.73906976   -119.71116   -15355.955    4.3011643    4.3011643    4.3011643   -15355.955   -30722.816    42744.032   -58089.082   -294.20599    62137.918    24578.265    79.571603 
   66500    1847.8256    -121.3631    1.6719515   -119.69114    8024.0023    4.3070686    4.3070686    4.3070686    8024.0023   -12443.003    50680.728   -14165.717    4305.1372   -20469.137     11866.11     79.89974 
   66600    1589.0237   -121.11967     1.437782   -119.68189    -25095.41    4.3183202    4.3183202    4.3183202    -25095.41   -48414.599    21818.894   -48690.525   -1968.8299    9501.0942   -4194.2031    80.527556 
   66700    828.81326   -120.43103   0.74992766    -119.6811    -16523.56    4.3067691    4.3067691    4.3067691    -16523.56   -50034.123    51704.437   -51240.996   -18713.332    59372.341     6076.846    79.883072 
   66800    1593.6592    -121.1101    1.4419763   -119.66812    27149.411    4.2929539    4.2929539    4.2929539    27149.411   -2249.3775    68291.218    15406.393   -659.50273   -2003.7387    9627.7569    79.116792 
   66900    1660.3193   -121.17765    1.5022918   -119.67536    13835.921    4.3004139    4.3004139    4.3004139    13835.921   -8317.6065    42406.798    7418.5708    3690.1895    559.76816    8173.9338    79.529963 
   67000    1038.4018   -120.63045   0.93956781   -119.69088   -57.180187    4.3036495    4.3036495    4.3036495   -57.180187   -37502.595    57404.875   -20073.821   -4539.0802    61479.103   -6383.0194    79.709607 
   67100    1411.9434   -120.96759     1.277556   -119.69004    3875.8472    4.3031165    4.3031165    4.3031165    3875.8472   -17309.302     40265.41   -11328.566   -13204.407    13653.502     10344.13    79.679999 
   67200    1692.5603   -121.22031    1.5314641   -119.68884    8328.0694     4.300131     4.300131     4.300131    8328.0694    2281.4552    4773.8673    17928.886    614.19756   -17844.166    22523.134    79.514265 
   67300    1336.4398   -120.90296    1.2092389   -119.69372    10332.176    4.2983884    4.2983884    4.2983884    10332.176   -14347.162     18219.74    27123.951    22940.498    50297.172   -3818.2891    79.417636 
   67400    2010.7061   -121.51114    1.8193292   -119.69181   -8926.3612    4.3046034    4.3046034    4.3046034   -8926.3612   -23065.498    371.03985   -4084.6259   -3168.2845    32782.416   -12884.495    79.762626 
   67500    2269.0581   -121.74026    2.0530914   -119.68716    3137.6406    4.3033701    4.3033701    4.3033701    3137.6406   -6391.9872    -7976.207    23781.116   -18023.485   -18659.666   -5163.0498    79.694088 
   67600    1860.4877   -121.37676    1.6834083   -119.69335    5092.8988    4.2958871    4.2958871    4.2958871    5092.8988   -7647.8482    298.23673    22628.308    2542.2226    29302.817    16871.559    79.279075 
   67700    1852.1062   -121.37766    1.6758246   -119.70184   -2183.5008    4.3000618    4.3000618    4.3000618   -2183.5008   -32040.634    21941.682    3548.4489    15980.621    43389.683    16146.168    79.510427 
   67800    2352.9294   -121.81984    2.1289799   -119.69086   -4036.1561    4.3066315    4.3066315    4.3066315   -4036.1561   -20613.971   -7996.1019    16501.605     3321.628   -16860.202   -22261.431    79.875415 
   67900    2079.0831   -121.56967    1.8811981   -119.68847    3492.1969    4.3006247    4.3006247    4.3006247    3492.1969    -5350.043   -11393.685    27220.319    -20017.46   -16481.138   -9671.5045    79.541656 
   68000     1594.352   -121.13632    1.4426032   -119.69372    11179.349    4.2968103    4.2968103    4.2968103    11179.349    140.37975    36548.641   -3150.9739    8538.4219    31121.787    12462.081    79.330199 
   68100    1824.4982   -121.34304    1.6508443   -119.69219    -6439.064    4.3027316    4.3027316    4.3027316    -6439.064   -15429.842    7341.0064   -11228.356    12192.843    23151.658    7754.2697    79.658621 
   68200    1730.6797   -121.25586    1.5659554    -119.6899    638.11032    4.3010033    4.3010033    4.3010033    638.11032    1544.2077   -1063.5365    1433.6597    -5255.839   -30551.043   -16598.414    79.562665 
   68300    1442.8523    -120.9976    1.3055231   -119.69208    4782.5721      4.29817      4.29817      4.29817    4782.5721   -3139.1496    36696.382   -19209.516   -4113.3164    16005.027   -1051.9808    79.405531 
   68400     1332.651   -120.89945    1.2058107   -119.69364   -11359.577    4.3017655    4.3017655    4.3017655   -11359.577   -21005.984    35832.884   -48905.631    4185.7299    47741.054     23760.47    79.604974 
   68500    1496.2668   -121.04367    1.3538536   -119.68981   -16287.561    4.3008285    4.3008285    4.3008285   -16287.561    2809.8934    2055.1414   -53727.718    9896.3415   -19061.505   -22274.403    79.552965 
   68600    1112.8226   -120.69861    1.0069053   -119.69171   -1601.7964    4.2969084    4.2969084    4.2969084   -1601.7964    14230.371    20440.111   -39475.871    1941.6951   -21549.289   -36458.826     79.33563 
   68700    1099.4111   -120.68976   0.99477024   -119.69499   -18157.628    4.3014306    4.3014306    4.3014306   -18157.628   -23963.038    34289.575   -64799.422   -1745.2967    44251.025    7828.0552     79.58638 
   68800    1439.3665   -120.99166    1.3023691   -119.68929   -25064.499    4.3060257    4.3060257    4.3060257   -25064.499   -7792.0744    10633.644   -78035.066   -2983.7601    27529.312    7149.6724    79.841712 
   68900    1322.3705   -120.88258    1.1965086   -119.68607   -19917.437    4.3019853    4.3019853    4.3019853   -19917.437    26200.406   -4715.6641   -81237.052   -855.47449   -24134.579   -25397.494    79.617173 
   69000    825.10604   -120.43874   0.74657329   -119.69217   -4267.4668    4.2984891    4.2984891    4.2984891   -4267.4668   -2076.3051    19916.845    -30642.94    6806.5541    11924.311   -22341.247    79.423219 
   69100    1527.9901   -121.07238    1.3825576   -119.68982   -18051.644      4.29909      4.29909      4.29909   -18051.644   -18604.609    21849.117    -57399.44   -2694.3248    45158.355    7331.6262    79.456532 
   69200    1776.5659   -121.29415    1.6074741   -119.68667    -4503.888    4.3018422    4.3018422    4.3018422    -4503.888    19719.168   -2380.4793   -30850.352   -12104.142    -960.1451   -5698.9206    79.609232 
   69300    1247.0575   -120.82396    1.1283638   -119.69559   -24603.455    4.3103348    4.3103348    4.3103348   -24603.455     11632.04   -24741.748   -60700.658   -2513.8008   -15918.069   -45051.047    80.081652 
   69400    1429.1268   -120.98509    1.2931039   -119.69199   -8984.6736      4.30264      4.30264      4.30264   -8984.6736   -15274.941    14691.144   -26370.224   -97.890232    25441.166   -21800.082    79.653532 
   69500    2376.7606   -121.83178    2.1505429   -119.68124    24558.483    4.2867674    4.2867674    4.2867674    24558.483    21972.483     23058.13    28644.838     9981.366    18397.394    13405.685    78.775243 
   69600    1842.0184   -121.36499    1.6666969   -119.69829   -4652.4256    4.2922544    4.2922544    4.2922544   -4652.4256    26696.501   -30780.576   -9873.2013    3964.2504   -12517.227   -14517.158    79.078125 
   69700    1271.0758   -120.86077    1.1500961   -119.71067   -16102.122      4.30363      4.30363      4.30363   -16102.122   -3090.6449   -17754.275   -27461.447   -2570.7956   -7176.8278   -21122.034    79.708528 
   69800    2132.1166   -121.62324    1.9291839   -119.69406    2095.3002    4.3063776    4.3063776    4.3063776    2095.3002   -31922.657    3443.5328    34765.025    1392.2307    911.15255    4143.2854    79.861291 
   69900    2285.2828   -121.75536    2.0677719   -119.68759    3183.2431    4.2988097    4.2988097    4.2988097    3183.2431    10616.508   -33020.523    31953.744    6919.6455    10653.995   -10209.308    79.440992 
   70000    1148.0088   -120.73942    1.0387425   -119.70067   -2324.4035    4.2891864    4.2891864    4.2891864   -2324.4035    21649.182   -38233.167     9610.775    1362.6416   -7524.4395   -40242.267    78.908679 
   70100    1531.1614   -121.09403     1.385427    -119.7086   -2173.4527    4.2976427    4.2976427    4.2976427   -2173.4527   -4516.1141   -21582.114     19577.87   -2707.4089   -18584.414   -2539.6721    79.376315 
   70200     2637.302   -122.07489    2.3862863   -119.68861     -5258.86     4.304744     4.304744     4.304744     -5258.86   -21058.303   -30761.905    36043.628   -3175.0076     5963.548    20674.889    79.770439 
   70300    1582.3841   -121.12621    1.4317744   -119.69443    11004.171    4.2976072    4.2976072    4.2976072    11004.171    20798.115   -3491.6807     15706.08   -3229.9715    7120.9146   -46015.334    79.374345 
   70400     1270.493   -120.85054    1.1495688   -119.70097   -7589.3154     4.299691     4.299691     4.299691   -7589.3154    14057.988   -37344.455     518.5201    9283.3842   -2863.8143   -36326.617    79.489863 
   70500    2054.8449   -121.54842    1.8592668   -119.68915   -531.48417    4.2977047    4.2977047    4.2977047   -531.48417     9119.458   -12339.145    1625.2341    6647.2917   -9684.0798    26288.015    79.379746 
   70600    1678.9776   -121.20999    1.5191742   -119.69082    14309.391    4.2905607    4.2905607    4.2905607    14309.391    25586.946    25023.885    -7682.657   -7900.6616    1681.8819   -17117.359    78.984552 
   70700    679.35773   -120.32436   0.61469715   -119.70966   -11467.956     4.304903     4.304903     4.304903   -11467.956    3345.0511   -36135.035   -1613.8848   -4043.9881    17275.523   -54918.986    79.779281 
   70800    1657.7537   -121.19459    1.4999704   -119.69462   -20553.295    4.3067509    4.3067509    4.3067509   -20553.295   -19352.454   -10227.469   -32079.964    3952.0351    516.03561   -5683.2854    79.882063 
   70900    2231.4665   -121.70187    2.0190778   -119.68279    20200.257    4.2856324    4.2856324    4.2856324    20200.257    36190.107    38928.619   -14517.955   -4135.0691   -5288.4807    10943.277    78.712691 
   71000    1156.9957   -120.75748     1.046874    -119.7106   -23136.878    4.2928655    4.2928655    4.2928655   -23136.878    21771.699   -27374.504   -63807.831   -13610.187    7238.1089   -58028.075    79.111904 
   71100    1004.3664   -120.61952   0.90877187   -119.71075   -25110.053    4.3044993    4.3044993    4.3044993   -25110.053   -12580.774   -7416.2862   -55333.098   -19361.518    11191.037   -44782.705     79.75684 
   71200    2278.4736   -121.75165    2.0616108   -119.69004    3941.1882    4.2997921    4.2997921    4.2997921    3941.1882   -16259.207    41372.242    -13289.47    434.63467    15993.286    19289.628     79.49547 
   71300    1788.4722   -121.31289    1.6182472   -119.69464   -15171.152    4.3034528    4.3034528    4.3034528   -15171.152    19407.538   -16577.465    -48343.53    12217.043   -13024.454    -32772.01    79.698682 
   71400    1079.9429   -120.68056   0.97715504   -119.70341   -13354.202    4.2938681    4.2938681    4.2938681   -13354.202    27918.578   -27834.511   -40146.672   -7133.0392   -8621.1475   -57272.557    79.167347 
   71500    1863.1748    -121.3808    1.6858397   -119.69496    21460.988    4.2884973    4.2884973    4.2884973    21460.988    8776.6662   -11680.437    67286.735   -13937.752    17100.427   -4390.8104    78.870653 
   71600    2080.7146   -121.57435    1.8826743   -119.69167   -8504.9571    4.3073288    4.3073288    4.3073288   -8504.9571   -5423.0554   -37676.437    17584.622   -1565.4933   -5476.2555   -5869.4029    79.914222 
   71700    988.24628   -120.59937   0.89418601   -119.70518   -12357.731    4.3008847    4.3008847    4.3008847   -12357.731    38413.494    -56381.36   -19105.328    11972.549   -6115.2856   -51561.569    79.556082 
   71800    1196.4324   -120.78166    1.0825572   -119.69911    16154.536    4.2917102    4.2917102    4.2917102    16154.536     33695.84   -61329.673    76097.439   -3873.3147   -9777.9858   -15482.477    79.048051 
   71900    2283.0877   -121.75265    2.0657857   -119.68686   -3441.1543    4.3003611    4.3003611    4.3003611   -3441.1543   -4229.8093   -42678.169    36584.515   -6990.7967   -4463.2622    29714.638    79.527031 
   72000    1471.9182   -121.02996    1.3318225   -119.69813    9595.5417    4.2943863    4.2943863    4.2943863    9595.5417    33873.583   -45511.933    40424.975    4332.6079    18688.478   -47266.105    79.196017 
   72100    1097.1558   -120.70119   0.99272958   -119.70846   -9671.6298     4.297357     4.297357     4.297357   -9671.6298    30128.868   -61714.196    2570.4389    7051.7299   -9391.8679   -58361.278    79.360485 
   72200    1961.5926    -121.4637    1.7748902   -119.68881   -12776.618    4.3076505    4.3076505    4.3076505   -12776.618   -8916.7244   -22635.817    -6777.312    7212.1581   -17975.673    18092.997    79.932128 
   72300    1996.5085   -121.49169    1.8064829   -119.68521    6011.1715    4.2978147    4.2978147    4.2978147    6011.1715    16828.631   -9463.5644    10668.448    -561.1477    16187.101   -111.17725    79.385844 
   72400    1105.5634   -120.69651     1.000337   -119.69617   -414.30191    4.2956374    4.2956374    4.2956374   -414.30191    40143.517    -31596.48   -9789.9429     4566.096    12972.822   -55314.804    79.265253 
   72500    1642.6402   -121.17781    1.4862954   -119.69151   -18591.976    4.3039617    4.3039617    4.3039617   -18591.976    1369.6922   -15265.354   -41880.267    16479.282   -14057.106   -14333.348    79.726961 
   72600    2186.8557   -121.66135     1.978713   -119.68264   -4138.8776    4.2974514    4.2974514    4.2974514   -4138.8776   -9631.0222    15929.881   -18715.491    326.65045   -17859.185    14951.803    79.365715 
   72700    1218.6778   -120.80043    1.1026853   -119.69774    -4135.067    4.2960472    4.2960472    4.2960472    -4135.067     30619.77   -8879.1288   -34145.842   -8154.0685    19786.003    -51404.83     79.28794 
   72800    916.49792    -120.5351   0.82926658   -119.70583   -22705.094    4.3010205    4.3010205    4.3010205   -22705.094    16826.901   -27979.902   -56962.281    6831.0182    30532.904   -51734.453    79.563623 
   72900    1955.7994   -121.46081    1.7696484   -119.69117   -11262.268    4.2989565    4.2989565    4.2989565   -11262.268    -15709.86    7914.5723   -25991.516    6060.0497   -4534.8926    19298.196     79.44913 
   73000    1910.1563   -121.41713    1.7283496   -119.68878   -12586.995    4.3020552    4.3020552    4.3020552   -12586.995    23770.721   -21892.069   -39639.636   -3178.7493   -6488.2522   -26805.913    79.621057 
   73100    800.60103   -120.42745   0.72440064   -119.70305   -6096.7296    4.2988764    4.2988764    4.2988764   -6096.7296    50376.005    -40295.42   -28370.774    -1675.552    19709.334   -66653.822    79.444689 
   73200    1377.5874   -120.94327      1.24647    -119.6968   -3279.8634    4.2935605    4.2935605    4.2935605   -3279.8634    23097.292   -6431.1645   -26505.718    3737.6725    24468.769   -5552.7816    79.150333 
   73300    2105.0391   -121.59218    1.9046836    -119.6875    -11748.95    4.3027497    4.3027497    4.3027497    -11748.95    5239.3323   -20706.842    -19779.34    4052.6496    6314.4526     16310.93    79.659626 
   73400    1477.9669   -121.03255    1.3372955   -119.69525   -22361.141      4.30604      4.30604      4.30604   -22361.141    51134.192    -69563.59   -48654.024   -1618.6817   -7101.0235   -52189.821    79.842511 
   73500    1219.9372   -120.80107    1.1038248   -119.69725   -8965.5363    4.2895851    4.2895851    4.2895851   -8965.5363    29578.628   -38481.613   -17993.624    4247.1494    30743.455   -46993.663    78.930683 
   73600    1779.3954   -121.30414    1.6100343    -119.6941    15638.883    4.2861261    4.2861261    4.2861261    15638.883    8230.6073    9454.7294    29231.312   -16538.583    29693.645    18062.448    78.739896 
   73700    1650.1656   -121.19095    1.4931045   -119.69785     -23420.8    4.3071048    4.3071048    4.3071048     -23420.8   -1746.9955   -47475.936   -21039.468   -11183.805    -14593.05   -27784.291    79.901755 
   73800    1153.2632   -120.74146    1.0434967   -119.69796   -30450.109    4.3042495    4.3042495    4.3042495   -30450.109    11048.265   -63112.547   -39286.044    4469.7907   -17232.776   -69542.462    79.742955 
   73900    1517.8989   -121.06254    1.3734268   -119.68911    2850.2792    4.2929224    4.2929224    4.2929224    2850.2792    -8561.238   -4989.4985    22101.574    -640.9036    17783.478     2042.703    79.115051 
   74000    1650.6425   -121.17971     1.493536   -119.68618   -16555.686    4.3005808    4.3005808    4.3005808   -16555.686   -26293.121   -23002.181    -371.7548   -1891.4937      29390.4   -5624.9372    79.539222 
   74100    1147.9924   -120.73494    1.0387277   -119.69622   -13849.481    4.2941669    4.2941669    4.2941669   -13849.481    18448.924   -53587.193   -6410.1741    2985.7984    451.89994   -73643.131    79.183877 
   74200    1560.7806   -121.11086    1.4122271   -119.69863    4660.8566    4.2955973    4.2955973    4.2955973    4660.8566    9056.8434   -8181.3618    13107.088    4221.9238   -7645.4859   -24883.548    79.263031 
   74300    2244.9548   -121.71937    2.0312823   -119.68809   -12013.519    4.3080785    4.3080785    4.3080785   -12013.519   -27354.399    10129.817   -18815.976    4110.5392    2629.9721    24942.447    79.955955 
   74400    1440.4422    -121.0063    1.3033424   -119.70296    9818.2592    4.2934111    4.2934111    4.2934111    9818.2592    43353.989   -16313.587    2414.3758   -9394.5594     9167.549   -58785.707    79.142076 
   74500    1529.5273   -121.08882    1.3839484   -119.70487    21779.661    4.2901841    4.2901841    4.2901841    21779.661    66357.707    37247.325   -38266.051   -8406.8191    3238.1113   -58816.668    78.963755 
   74600    2549.1498   -121.99573    2.3065243   -119.68921    1063.9737    4.3052269    4.3052269    4.3052269    1063.9737   -205.81814    32026.923   -28629.184   -2290.9745   -11796.248    19751.064    79.797288 
   74700    1660.8637   -121.20088    1.5027844   -119.69809    12273.561     4.297799     4.297799     4.297799    12273.561    22008.588    49463.679   -34651.584    4762.7147   -3058.9753   -34416.814    79.384973 
   74800    840.21296   -120.46873   0.76024234   -119.70848   -6008.8563    4.2961328    4.2961328    4.2961328   -6008.8563    38176.973   -19035.845   -37167.697     268.8576    4849.0419   -75691.662    79.292682 
   74900    1364.6996   -120.93464    1.2348089   -119.69983   -9769.8404    4.2983967    4.2983967    4.2983967   -9769.8404    4448.7651   -19860.856    -13897.43   -8580.6501    12419.054     5558.908    79.418098 
   75000    1292.4082   -120.86522    1.1693981   -119.69582    17563.801     4.288458     4.288458     4.288458    17563.801    7546.1327     14999.18     30146.09   -12948.544    7470.5089    15064.823    78.868483 
   75100    1027.2085   -120.63869   0.92943982   -119.70925   -16671.054    4.2988578    4.2988578    4.2988578   -16671.054    25740.209   -50264.656   -25488.716   -4291.2912   -7266.5862   -63454.316     79.44366 
   75200    1415.2225    -120.9792    1.2805231   -119.69867   -19340.987      4.30453      4.30453      4.30453   -19340.987    20927.389   -65660.937   -13289.413    1590.2775    10312.504   -38207.579    79.758542 
   75300    1820.3116   -121.33494    1.6470562   -119.68788    11571.682    4.2903713    4.2903713    4.2903713    11571.682    27831.697   -13332.163    20215.514   -5076.3086    19599.542    22727.924     78.97409 
   75400    1504.3639   -121.06047    1.3611801   -119.69929     -10419.2    4.2979442    4.2979442    4.2979442     -10419.2    33554.198    -36338.99   -28472.807   -10489.317   -2370.3931   -20158.878     79.39302 
   75500     1578.785   -121.12796    1.4285178   -119.69944   -19468.226    4.3021603    4.3021603    4.3021603   -19468.226      46221.9     -72097.4   -32529.177    7010.9742   -807.79728   -52842.061     79.62689 
   75600    2001.2071   -121.50475    1.8107343   -119.69401    29458.263    4.2867317    4.2867317    4.2867317    29458.263    40600.116   -4706.5947    52481.269    11118.055   -6172.5702   -5539.3204    78.773275 
   75700    2157.2785   -121.65015     1.951951    -119.6982     21286.01    4.2950318    4.2950318    4.2950318     21286.01    10152.728    11519.973     42185.33   -3559.7103     3499.937    5744.9689     79.23173 
   75800    1830.4725   -121.35391      1.65625   -119.69766   -9211.1493    4.3100315    4.3100315    4.3100315   -9211.1493    12581.029    -48857.98    8643.5037   -10507.645    8542.9331   -41523.453    80.064748 
   75900    1761.2334   -121.29277     1.593601   -119.69917    2208.0629     4.295598     4.295598     4.295598    2208.0629    23043.462   -32891.625    16472.352    7705.5168   -5050.6719   -30854.953    79.263072 
   76000     2012.412   -121.51484    1.8208727   -119.69397     29848.95    4.2827208    4.2827208    4.2827208     29848.95   -362.90226    33885.604    56024.148    24441.898     2538.535    12294.544    78.552368 
   76100    2138.9259   -121.63428    1.9353451   -119.69893   -3109.0768    4.3014848    4.3014848    4.3014848   -3109.0768   -19140.529   -14903.638    24716.936    7994.3604   -3215.4684   -13125.856     79.58939 
   76200    1453.9711   -121.01235    1.3155836   -119.69677   -25780.066    4.3135152    4.3135152    4.3135152   -25780.066    6088.1767   -67582.423   -15845.952   -2946.6711   -6942.1088   -55705.812     80.25905 
   76300    1493.9813   -121.04404    1.3517857   -119.69225    2588.3023    4.2957415    4.2957415    4.2957415    2588.3023    6813.6871   -19141.615    20092.834    12553.264    8056.7125   -2240.3345    79.271016 
   76400    1853.7812    -121.3604    1.6773402   -119.68306    21350.595    4.2871569    4.2871569    4.2871569    21350.595    7130.1337    5832.0868    51089.563    11848.527    7334.0788    23311.936    78.796718 
   76500    1451.8057   -121.00939    1.3136243   -119.69577   -19914.798    4.2967151    4.2967151    4.2967151   -19914.798    23724.535   -47054.328   -36414.603   -5278.3275    -1924.393   -61692.636    79.324925 
   76600    1172.9836   -120.76378    1.0613402   -119.70244   -25574.689    4.2984912    4.2984912    4.2984912   -25574.689    43327.899   -56240.917   -63811.048   -5296.3382   -1111.3018   -45559.462    79.423334 
   76700    1515.6402   -121.06658    1.3713831    -119.6952   -7614.1699    4.2973194    4.2973194    4.2973194   -7614.1699    21147.663   -31898.426   -12091.746    1557.0795   -1303.8547    44617.395    79.358401 
   76800    1090.4576   -120.68547   0.98666894    -119.6988   -15790.188    4.3017505    4.3017505    4.3017505   -15790.188    21451.359   -51454.034   -17367.889    7099.1186    803.17938   -5429.5198     79.60414 
   76900    921.66135   -120.53414   0.83393856    -119.7002    -8834.184    4.2931257    4.2931257    4.2931257    -8834.184    38888.599   -29259.063   -36132.089    4369.2884     3890.418    -74284.76    79.126291 
   77000    1494.4544   -121.04688    1.3522138   -119.69467    9035.6068    4.2916346    4.2916346    4.2916346    9035.6068    26007.707   -3212.6168    4311.7306   -3549.5189   -1653.2523   -11276.472    79.043871 
   77100    1379.7219    -120.9467    1.2484013    -119.6983    -7226.582     4.303935     4.303935     4.303935    -7226.582    13741.095   -37689.593    2268.7523    8944.1337   -2781.1303    34811.889    79.725477 
   77200    1059.0505   -120.66054   0.95825117   -119.70229   -14668.129    4.3000456    4.3000456    4.3000456   -14668.129    27191.519   -24219.423   -46976.484    3143.1283    12830.366   -25946.063    79.509531 
   77300     1803.579   -121.32515    1.6319162   -119.69324    9718.3709    4.2945721    4.2945721    4.2945721    9718.3709    26642.928    14176.855    -11664.67   -4816.3415   -6722.4271   -39768.015    79.206294 
   77400    2165.1597   -121.65131     1.959082   -119.69223     -4818.23    4.3049983    4.3049983    4.3049983     -4818.23   -17028.371    -8961.059     11534.74    1501.8978   -26280.513    16224.269    79.784577 
   77500    1577.9339   -121.12424    1.4277478    -119.6965   -10848.327    4.3052969    4.3052969    4.3052969   -10848.327   -10548.108   -15558.483   -6438.3913    5657.3111   -21853.041    5480.3385    79.801182 
   77600    2136.1532   -121.62216    1.9328363   -119.68932     10952.71    4.2982825    4.2982825    4.2982825     10952.71    29871.654    1716.3274     1270.147    11030.406    2401.6545   -14422.503     79.41177 
   77700    2632.0259   -122.06416    2.3815123   -119.68265    10901.204    4.2999633    4.2999633    4.2999633    10901.204   -4872.0759    23873.713    13701.976   -4904.6791    6590.9708   -334.54476    79.504967 
   77800    1658.9828   -121.19645    1.5010825   -119.69536    7709.5931    4.3006728    4.3006728    4.3006728    7709.5931   -32755.075    26448.542    29435.312   -12709.239   -25635.283    13174.923    79.544328 
   77900    1812.7778    -121.3337    1.6402394   -119.69346    4897.7224    4.3035184    4.3035184    4.3035184    4897.7224    22594.949    693.04479    -8594.827   -7090.7629   -17151.088    9729.3196    79.702326 
   78000    2232.6283   -121.70286     2.020129   -119.68273    16073.845     4.302483     4.302483     4.302483    16073.845    20679.556    12702.581    14839.399    709.05278    14343.483   -3139.2426     79.64481 
   78100    1493.8631   -121.04293    1.3516787   -119.69125    12010.469    4.2917172    4.2917172    4.2917172    12010.469   -14129.816    23779.358    26381.864    3781.3874    18582.488    -4662.862    79.048438 
   78200    1174.5156    -120.7654    1.0627264   -119.70267   -4399.2841    4.2934372    4.2934372    4.2934372   -4399.2841     25665.85   -14973.215   -23890.488   -4892.8766   -11907.744    9933.0188    79.143518 
   78300    1437.2184   -120.99775    1.3004254   -119.69732    834.75311    4.3003182    4.3003182    4.3003182    834.75311     35668.98   -19948.973   -13215.747   -8676.1353   -10247.353    15548.824    79.524653 
   78400    1133.2961   -120.72203    1.0254301    -119.6966   -565.69863    4.3021512    4.3021512    4.3021512   -565.69863    3235.4175    2071.4836    -7003.997      3225.21    51994.367    1612.3149    79.626386 
   78500    992.35139   -120.59321   0.89790039   -119.69531   -18987.919    4.3045783    4.3045783    4.3045783   -18987.919     7708.336   -22996.866   -41675.227    2231.3313     22833.91   -269.54865     79.76123 
   78600    1355.7201   -120.91054     1.226684   -119.68386   -5623.1319    4.2978495    4.2978495    4.2978495   -5623.1319    28267.078   -36060.454   -9076.0199   -13484.587   -28493.394    15791.388    79.387771 
   78700     1232.623   -120.80236    1.1153032   -119.68706    6849.0841    4.2924448    4.2924448    4.2924448    6849.0841    15208.738    10034.383   -4695.8692   -8782.3586    33529.273    14585.921    79.088648 
   78800    1254.4112   -120.82957    1.1350177   -119.69455   -6273.7618    4.2999689    4.2999689    4.2999689   -6273.7618   -7054.1519    27187.061   -38954.194    7716.8315    62048.349   -3699.1981    79.505274 
   78900    2118.4917   -121.59774    1.9168558   -119.68089   -4582.7601    4.3042347    4.3042347    4.3042347   -4582.7601    102.00563   -16049.864    2199.5777   -1936.3924    -7691.039   -8937.4788    79.742128 
   79000    1850.6316   -121.36506    1.6744904   -119.69057   -5482.8142    4.3016489    4.3016489    4.3016489   -5482.8142   -9417.7147   -17455.589    10424.862   -10012.679    7248.4905    3820.5111    79.598499 
   79100    1425.8643   -120.99268     1.290152   -119.70252   -9922.0617    4.2991321    4.2991321    4.2991321   -9922.0617   -21089.777    27401.177   -36077.586   -4577.0159    62994.403    11964.912    79.458868 
   79200    2420.8525   -121.88791    2.1904382   -119.69747    10403.184    4.2947497    4.2947497    4.2947497    10403.184    2417.3571    26076.926    2715.2684    2480.3818     18844.04    4056.0636     79.21612 
   79300    2754.0432   -122.18523    2.4919162   -119.69331    16234.341    4.2963938    4.2963938    4.2963938    16234.341    11863.926     10185.19    26653.907   -7194.2342   -13646.309    3718.8719    79.307131 
   79400    1500.0184   -121.06678    1.3572482   -119.70953   -6542.5365    4.3054507    4.3054507    4.3054507   -6542.5365   -7522.4815    23035.267   -35140.395   -22040.709    63233.297    12525.307    79.809731 
   79500    1481.9137   -121.04616    1.3408667    -119.7053   -16727.178    4.3053774    4.3053774    4.3053774   -16727.178   -15683.282    3830.1787    -38328.43   -6521.2994      48015.2    6530.4337    79.805656 
   79600    2243.6868   -121.71683     2.030135   -119.68669    10826.842    4.2888162    4.2888162    4.2888162    10826.842    19176.938    -2589.526    15893.114    13099.771   -28354.123   -2516.1671    78.888247 
   79700    1523.9106   -121.07707    1.3788663   -119.69821    3214.5517    4.2900906    4.2900906    4.2900906    3214.5517   -12290.738     16424.98    5509.4134    10721.599    20926.183   -7653.3747     78.95859 
   79800    728.75008   -120.36779   0.65938838    -119.7084   -26375.983    4.3121089    4.3121089    4.3121089   -26375.983   -63147.058    5455.5607   -21436.452    -6146.247    73157.936    2436.7579    80.180572 
   79900    1701.1426    -121.2321    1.5392295   -119.69287   -13381.568    4.3034697    4.3034697    4.3034697   -13381.568   -15092.006    -31756.81    6704.1129   -15912.264    10964.688    10209.825    79.699622 
   80000    1944.0814   -121.44111    1.7590457   -119.68206    7161.8533    4.2828062    4.2828062    4.2828062    7161.8533    20439.515    1428.7708    -382.7257    7641.4079   -4283.6417   -109.30574    78.557069 
   80100    888.32871   -120.50975   0.80377848   -119.70597    -24802.76    4.2915639    4.2915639    4.2915639    -24802.76   -47791.542    36155.711   -62772.447    11464.302    72961.631   -2361.2547    79.039968 
   80200    831.51674   -120.45847   0.75237382    -119.7061   -20678.515    4.2985305    4.2985305    4.2985305   -20678.515   -33658.512     18900.03   -47277.062   -13923.722    38767.483    8037.5235    79.425515 
   80300     1482.642   -121.03539    1.3415257   -119.69386   -4558.4152    4.2983283    4.2983283    4.2983283   -4558.4152    10650.022    2289.4687   -26614.737    -18146.26   -32832.357    14739.052    79.414306 
   80400    1080.9835   -120.67346   0.97809662   -119.69537    -28744.61    4.3044351    4.3044351    4.3044351    -28744.61   -25872.141     37233.01     -97594.7   -2469.3152    25774.433    6772.5593     79.75327 
   80500    817.31277   -120.44122   0.73952177   -119.70169   -20267.637    4.2947429    4.2947429    4.2947429   -20267.637   -11031.178    51856.816   -101628.55    10282.713    67853.973    -5756.349    79.215744 
   80600    1553.7221   -121.09976    1.4058404   -119.69392    16207.719     4.282296     4.282296     4.282296    16207.719    46947.759    30689.069    -29013.67    15277.792    5882.9854   -5922.7689    78.528998 
   80700    1913.0193   -121.43095      1.73094   -119.70001    5246.2116     4.295794     4.295794     4.295794    5246.2116    30087.597    20912.117    -35261.08    552.14685   -989.23327   -3104.9135     79.27392 
   80800    1286.1562   -120.87087    1.1637412   -119.70713   -27709.772    4.3105675    4.3105675    4.3105675   -27709.772   -23075.326    43033.633   -103087.62   -5907.5565    50060.752   -43.530174    80.094623 
   80900    1373.8746   -120.94495    1.2431106   -119.70184   -15629.042    4.2967013    4.2967013    4.2967013   -15629.042     -28062.1    41301.695    -60126.72    16677.145    18400.013   -5344.7721    79.324163 
   81000    2172.2839   -121.65193    1.9655282    -119.6864    11972.962    4.2845303    4.2845303    4.2845303    11972.962    15124.483   -2969.2552    23763.657    18443.496   -25195.023   -7393.3355    78.651979 
   81100    1954.2639     -121.465     1.768259   -119.69674   -10365.656    4.2967454    4.2967454    4.2967454   -10365.656   -26985.443    3335.2917   -7446.8162   -2697.7402    53713.264    2054.3233    79.326602 
   81200    1827.9925   -121.35271     1.654006   -119.69871   -12998.609    4.2991819    4.2991819    4.2991819   -12998.609   -42379.405    28224.896   -24841.317   -3361.7696    66363.187    1368.4684    79.461629 
   81300    2115.9146   -121.60637     1.914524   -119.69184    4021.3404    4.2947123    4.2947123    4.2947123    4021.3404    149.43007    -16259.26    28173.851     10777.43    -29236.25   -6313.9569    79.214054 
   81400    1758.0904    -121.2876    1.5907571   -119.69685   -19910.555    4.3046702    4.3046702    4.3046702   -19910.555    -23001.08   -38219.684    1489.0996    17638.467   -14883.191    -11360.36    79.766336 
   81500    1652.5956   -121.19526    1.4953033   -119.69995   -8522.2423    4.2959687    4.2959687    4.2959687   -8522.2423    -17195.66    6910.9202   -15281.987    5199.6024    55005.182   -8272.9917    79.283595 
   81600    2211.9987   -121.69147    2.0014629      -119.69    24918.364    4.2785459    4.2785459    4.2785459    24918.364    28300.078    34435.088    12019.926   -5024.4822    19333.971    5860.3198    78.322868 
   81700    1774.6197   -121.31169    1.6057132   -119.70598   -5623.2429    4.2971292    4.2971292    4.2971292   -5623.2429   -5550.1389   -3286.7473   -8032.8424     11078.08   -46178.586    3903.5104    79.347861 
   81800    1443.1444   -121.00858    1.3057874    -119.7028   -26023.236     4.308269     4.308269     4.308269   -26023.236   -19662.376   -15339.181    -43068.15    21680.877   -742.86757   -13190.099    79.966562 
   81900    1911.5264   -121.41916    1.7295892   -119.68957    9184.9156    4.2921022    4.2921022    4.2921022    9184.9156     24431.26    27696.906   -24573.419    2215.3133     33910.78   -11002.812    79.069711 
   82000    1780.1779     -121.302    1.6107423   -119.69126    4539.8687    4.2936564    4.2936564    4.2936564    4539.8687    18162.129    28334.698   -32877.221   -3371.1208   -14414.554    28948.677    79.155641 
   82100    1202.0901   -120.78982    1.0876763   -119.70215   -18828.118    4.2973782    4.2973782    4.2973782   -18828.118    1889.4852   -8976.4192   -49397.421    9879.7979   -37553.094    17744.747    79.361658 
   82200    1465.4253   -121.02575    1.3259476    -119.6998    8058.8256    4.2884367    4.2884367    4.2884367    8058.8256    12276.504    18487.053   -6587.0804    14981.896   -6849.6923   -29098.962    78.867309 
   82300    1752.6911   -121.28274    1.5858717   -119.69686   -6982.9998    4.3015671    4.3015671    4.3015671   -6982.9998    17871.587   -10.256764    -38810.33    573.36593     11594.11    8155.2745    79.593956 
   82400     1184.927   -120.77127    1.0721469   -119.69912   -26383.757    4.3060359    4.3060359    4.3060359   -26383.757    16797.825   -42618.145    -53330.95   -9282.0507   -10776.403     52600.56    79.842284 
   82500    1039.9115   -120.63731   0.94093378   -119.69638    19955.851    4.2853144    4.2853144    4.2853144    19955.851    16602.832    15547.207    27717.514    6475.3029   -22836.906    7679.3552    78.695166 
   82600    1783.1347   -121.30567    1.6134177   -119.69225    2136.7236    4.2914812    4.2914812    4.2914812    2136.7236    14359.708   -11423.911    3474.3743    13702.616   0.95042195   -23008.418    79.035399 
   82700    1632.4712   -121.17157    1.4770942   -119.69448   -19033.104    4.3029178    4.3029178    4.3029178   -19033.104     24108.64   -69390.309   -11817.644   -3280.2687    5731.3935    29368.579    79.668958 
   82800    1011.6409   -120.61793   0.91535395   -119.70257      10323.5    4.2928408    4.2928408    4.2928408      10323.5    24333.926   -9493.6638    16130.238    -3652.806   -19724.138    46014.091    79.110542 
   82900    1568.9668   -121.11977    1.4196342   -119.70014   -2068.4383    4.2951716    4.2951716    4.2951716   -2068.4383   -13393.604   -4471.2138    11659.503    8568.9819   -33830.358   -3425.8885    79.239471 
   83000    2092.6554   -121.58483    1.8934786   -119.69135    -8931.972    4.3000892    4.3000892    4.3000892    -8931.972   -14510.482    -31608.47    19323.036     5558.691   -4327.1595    10531.597    79.511946 
   83100    1791.8428   -121.31858     1.621297   -119.69728    3525.9043    4.2933382    4.2933382    4.2933382    3525.9043    20904.137   -1866.8122   -8459.6119    4424.8255    7152.1701    50445.626     79.13804 
   83200    1597.9386    -121.1492    1.4458485   -119.70335    5209.9731    4.2926616    4.2926616    4.2926616    5209.9731   -3327.6852    31365.055   -12407.451    1972.1913   -21461.756    12519.166    79.100633 
   83300     2079.472   -121.57818      1.88155   -119.69663    5461.8823    4.2996431    4.2996431    4.2996431    5461.8823   -36155.336    34061.554    18479.428    288.38252    -18324.02   -18191.049    79.487207 
   83400    2157.7367   -121.64493    1.9523655   -119.69257    4601.9999    4.2977265    4.2977265    4.2977265    4601.9999    3889.7763    21835.123   -11918.899    676.42643    6426.4199    8549.8473    79.380953 
   83500    1540.9639    -121.0939    1.3942965    -119.6996    8309.7971    4.2889829    4.2889829    4.2889829    8309.7971    23673.002    37418.755   -36162.365   -553.93225    5189.2719     32088.06    78.897448 
   83600    1606.3924   -121.15629    1.4534976   -119.70279    5046.0638    4.2926896    4.2926896    4.2926896    5046.0638   -10231.495    45463.096    -20093.41   -2819.1026   -10870.115    13442.578    79.102181 
   83700    1977.4373   -121.48128    1.7892268   -119.69205    7613.2339    4.2983071    4.2983071    4.2983071    7613.2339   -4171.5155    54532.666   -27521.449   -4309.6767   -9728.0434   -24267.126     79.41313 
   83800       1037.9   -120.64251   0.93911374    -119.7034   -1408.3787    4.2939769    4.2939769    4.2939769   -1408.3787    35901.311    28449.915   -68576.363    -892.9815    4042.3777   -11336.134    79.173366 
   83900    640.98402   -120.29241   0.57997581   -119.71244   -22265.219    4.2919233    4.2919233    4.2919233   -22265.219    38838.608   -10736.326   -94897.939    2543.5725    2949.5563    23027.769    79.059829 
   84000    1615.1563   -121.15792    1.4614274   -119.69649    5399.6405    4.2938549    4.2938549    4.2938549    5399.6405    14306.277    51176.782   -49284.137    4928.1874   -2669.4597    22296.701    79.166617 
   84100    1695.1236   -121.22788    1.5337835    -119.6941   -1704.0835    4.2995614    4.2995614    4.2995614   -1704.0835    11857.254    28057.734   -45027.239    3335.8647   -4088.6211   -25717.755    79.482671 
   84200    491.66867   -120.15909   0.44487214   -119.71422   -26644.915     4.299225     4.299225     4.299225   -26644.915    33046.036   -22068.158   -90912.622   -2768.0228    3874.0428   -5221.5607    79.464018 
   84300    1182.1154   -120.77629    1.0696028   -119.70669   -8815.8304    4.2879517    4.2879517    4.2879517   -8815.8304    48228.664   -11696.872   -62979.283    2270.7305     7898.247    23599.496    78.840554 
   84400    2179.4091   -121.66471    1.9719751   -119.69273    18995.013    4.2921212    4.2921212    4.2921212    18995.013    7604.9105    50871.575   -1491.4482    4270.4463   -11285.464    2453.8717    79.070764 
   84500    1749.8679   -121.28511    1.5833172   -119.70179    -7497.307    4.3026697    4.3026697    4.3026697    -7497.307   -18946.729    14349.666   -17894.859   -11126.317   -14460.344   -2350.2099     79.65518 
   84600    1390.5305   -120.96191    1.2581812   -119.70373   -989.32419    4.2991922    4.2991922    4.2991922   -989.32419    15493.631    15695.569   -34157.173   -824.70541    7689.8183    18357.124    79.462199 
   84700    2108.0091   -121.60321     1.907371   -119.69584    9510.9323    4.2937233    4.2937233    4.2937233    9510.9323    31854.681    688.39628   -4010.2802    7344.6434    4845.1084    14109.951    79.159341 
   84800    2243.6314   -121.72452    2.0300848   -119.69444     13249.11    4.2915222    4.2915222    4.2915222     13249.11   -38601.662    47645.977    30703.016    5926.3785    -23002.96   -10059.676    79.037665 
   84900    1933.7116   -121.44813    1.7496629   -119.69847   -4862.9089    4.2982612    4.2982612    4.2982612   -4862.9089   -34035.086     29408.17   -9961.8108    15574.044    -26079.59    16084.764    79.410585 
   85000    1951.5693   -121.46343    1.7658209   -119.69761   -15548.811    4.3037425    4.3037425    4.3037425   -15548.811    21641.054   -28117.378   -40170.109   -7725.7401   -731.84177    25532.668    79.714775 
   85100     1960.308   -121.46569    1.7737279   -119.69196    2153.0092    4.2967985    4.2967985    4.2967985    2153.0092    601.74595    7109.6816   -1252.3998   -1426.0606   -12450.424   -2516.9991    79.329544 
   85200    2023.3656   -121.52071    1.8307837   -119.68993   -3270.5171    4.2920728    4.2920728    4.2920728   -3270.5171   -48825.063    44204.558   -5191.0459    15128.035   -24316.466   -13804.231    79.068086 
   85300    1713.9203   -121.24639    1.5507911    -119.6956   -7049.6614    4.2960189    4.2960189    4.2960189   -7049.6614    7201.8275    16274.409   -44625.221   -5861.4671   -1992.3706    24122.655    79.286375 
   85400     1459.284    -121.0171    1.3203909   -119.69671   -9527.2715    4.2991503    4.2991503    4.2991503   -9527.2715    32476.404   -12946.268    -48111.95    605.90955    8388.9254    37007.028    79.459874 
   85500    1522.9419   -121.07128    1.3779898   -119.69329   -16166.882    4.3037334    4.3037334    4.3037334   -16166.882   -20993.478    10744.525   -38251.691     5778.955   -12206.007   -15021.079    79.714269 
   85600    1352.3424   -120.91216    1.2236279   -119.68853   -22462.424    4.3010584    4.3010584    4.3010584   -22462.424   -16348.054    3788.9815   -54828.201   -1359.5282    -17290.83    14439.897    79.565726 
   85700    943.69529   -120.54641   0.85387533   -119.69254   -5810.0233    4.2856307    4.2856307    4.2856307   -5810.0233    57237.809   -15704.336   -58963.543    5884.2821   -6237.6103    75096.406    78.712597 
   85800    1277.8647   -120.85292    1.1562388   -119.69668   -3735.8672    4.2908075    4.2908075    4.2908075   -3735.8672    32920.135   -11446.749   -32680.988   -7877.8982    6528.5765    10066.558    78.998179 
   85900    1426.2123   -120.98065    1.2904669   -119.69019   -23317.602    4.3078808    4.3078808    4.3078808   -23317.602   -24714.681   -17285.953   -27952.174   -5266.8846   -14319.373   -27159.222    79.944948 
   86000    511.26868   -120.16876   0.46260664   -119.70616   -16678.965    4.2968385    4.2968385    4.2968385   -16678.965    17967.275   -37506.641   -30497.528    7336.1655   -22073.483    58492.115    79.331763 
   86100    977.80232   -120.58676   0.88473608   -119.70203    12754.973    4.2869192    4.2869192    4.2869192    12754.973    44339.679    24601.979   -30676.739   -7833.5059    3184.1002    53479.872    78.783616 
   86200    2236.9458   -121.70913    2.0240355    -119.6851   -574.43884    4.3017135    4.3017135    4.3017135   -574.43884   -1036.8469   -2210.2452    1523.7756     3678.492      4408.76   -22025.505    79.602085 
   86300    1375.8322   -120.94125    1.2448818   -119.69637   -10487.467    4.3073835    4.3073835    4.3073835   -10487.467     19609.12   -37731.392    -13340.13    7758.5496    3889.9624    41645.072    79.917266 
   86400    1353.6443   -120.91635    1.2248058   -119.69154   -5556.3097    4.3001475    4.3001475    4.3001475   -5556.3097    28355.738   -4954.3249   -40070.342    5926.0793   -8831.8762    57439.542     79.51518 
   86500    2463.0409   -121.90675    2.2286112   -119.67814    16506.964    4.2939659    4.2939659    4.2939659    16506.964    12147.859    42326.395   -4953.3618   -4501.0602   -10684.111   -18579.121    79.172757 
   86600    2224.7065   -121.70455    2.0129612   -119.69159    6903.4106    4.2925631    4.2925631    4.2925631    6903.4106    18508.399    2090.4871    111.34578   -2180.3702    14765.966    19713.345    79.095188 
   86700    1408.4597   -120.97894     1.274404   -119.70454    1842.4771    4.2983182    4.2983182    4.2983182    1842.4771    27209.338   -9179.0443   -12502.862    22841.203     -1455.33    75785.898    79.413747 
   86800    2081.1756   -121.58209    1.8830914     -119.699   -2269.5709     4.304342     4.304342     4.304342   -2269.5709   -28519.635    18126.095    3584.8273    5415.3898   -13023.586   -104.52055    79.748091 
   86900    2294.7016   -121.76458    2.0762942   -119.68829    3895.5909    4.2979831    4.2979831    4.2979831    3895.5909   -9947.2398    962.99301     20671.02   -4307.9099   -15542.486   -1587.8285    79.395177 
   87000    1662.1273   -121.19774    1.5039277   -119.69381    12181.316    4.2874977    4.2874977    4.2874977    12181.316    48542.607   -10808.321   -1190.3381   -2134.3086    2605.9551      71601.2    78.815512 
   87100    1642.2226   -121.18469    1.4859175   -119.69878    1689.8663    4.2965707    4.2965707    4.2965707    1689.8663    23329.868   -27192.834    8932.5651    7304.5942    17252.555    26545.187    79.316927 
   87200    1674.4499   -121.20283    1.5150774   -119.68775   -14563.609    4.3076522    4.3076522    4.3076522   -14563.609    -19231.58   -34782.972    10323.724     19074.86   -1360.9376   -17100.551    79.932221 
   87300    1284.4838   -120.85249    1.1622279   -119.69026   -11925.784    4.2997799    4.2997799    4.2997799   -11925.784    36900.047   -45221.702   -27455.697   -1859.7413    -10485.13    33714.708    79.494794 
   87400    1316.3251    -120.8798    1.1910386   -119.68877     5136.631    4.2933503    4.2933503    4.2933503     5136.631    73180.325   -21011.011   -36759.421   -8448.1237   -2392.3554    36405.817     79.13871 
   87500    1412.5971   -120.96479    1.2781475   -119.68664    -998.0141    4.2959989    4.2959989    4.2959989    -998.0141     14956.83   -4487.9984   -13462.874    12933.064    16783.124   -10790.373    79.285267 
   87600    887.31133   -120.50138   0.80285794   -119.69852   -5133.6346     4.298133     4.298133     4.298133   -5133.6346    28425.451   -6434.0982   -37392.257    16881.189    14903.031    8464.9286    79.403481 
   87700    1296.3104     -120.865    1.1729289   -119.69207   -316.44149    4.3059175    4.3059175    4.3059175   -316.44149    72495.573   -27216.388    -46228.51    5594.5038     1084.535     34100.57    79.835694 
   87800    1817.4325   -121.32244    1.6444511   -119.67799   -116.37157    4.3058383    4.3058383    4.3058383   -116.37157    27720.191   -2052.0926   -26017.213   -15079.698    2298.0805     1565.585    79.831291 
   87900    1230.3736   -120.80247    1.1132679    -119.6892    6765.3647    4.2952541    4.2952541    4.2952541    6765.3647    18746.866    31383.341   -29834.113   -5205.8759    7536.5344   -8078.1222    79.244034 
   88000    1449.8976   -121.00814    1.3118978   -119.69624   -4329.5956    4.2972587    4.2972587    4.2972587   -4329.5956    30320.862    502.25384   -43811.903    18021.087    15232.462    37831.976    79.355037 
   88100    2288.2691   -121.75653     2.070474   -119.68606    7524.7955    4.3001083    4.3001083    4.3001083    7524.7955    24131.921    11059.842   -12617.376   -8838.0123   -3622.0398    19232.579    79.513008 
   88200    1812.2648   -121.33482    1.6397752   -119.69505    7571.5909    4.3009289    4.3009289    4.3009289    7571.5909   -19708.653    38287.972    4135.4539    -21090.79   -16013.306   -23902.095    79.558538 
   88300    1658.3723   -121.19314    1.5005301   -119.69261   -13489.468    4.3068507    4.3068507    4.3068507   -13489.468   -33003.269    6693.0025   -14158.136    4960.1245    7817.9878     8392.185    79.887613 
   88400    2507.6347   -121.94337    2.2689606   -119.67441    13507.069    4.3008368    4.3008368    4.3008368    13507.069      6990.65    20233.009     13297.55    20122.439    10476.634      13243.1    79.553425 
   88500    1847.3546   -121.35392    1.6715253   -119.68239    13210.357    4.2973343    4.2973343    4.2973343    13210.357   -13178.169     41157.96     11651.28   -13799.619   -23276.075   -23826.188    79.359225 
   88600    1273.2134   -120.84367    1.1520303   -119.69164   -15396.797    4.3059389    4.3059389    4.3059389   -15396.797   -31338.683   -9894.3029   -4957.4039   -24324.864   -22149.183    -10999.08    79.836888 
   88700    2284.2861   -121.74013    2.0668701   -119.67326   -4424.8944    4.3054478    4.3054478    4.3054478   -4424.8944   -9889.2878   -13730.557    10345.161      12015.4    13312.781    16446.807    79.809573 
   88800    2024.5203   -121.50769    1.8318285   -119.67586   -8649.0124    4.2994481    4.2994481    4.2994481   -8649.0124   -10992.529   -441.18803    -14513.32    -6098.562   -10471.456   -17331.528    79.476388 
   88900     720.6057   -120.35357   0.65201918   -119.70155   -19356.248    4.2922334    4.2922334    4.2922334   -19356.248   -7560.1285   -12900.065   -37608.552   -28970.715   -45927.413   -24238.529    79.076965 
   89000    1286.4359   -120.87239    1.1639942    -119.7084   -3505.9919    4.2889228    4.2889228    4.2889228   -3505.9919    13439.321   -30368.048    6410.7517   -8399.5975    -18103.58   -2436.3722    78.894127 
   89100    2081.6156   -121.57861    1.8834896   -119.69512    3288.2019    4.3010431    4.3010431    4.3010431    3288.2019    16026.031   -7769.8217    1608.3966    7236.6126     14498.36    6181.1608    79.564877 
   89200     740.8028   -120.37112   0.67029394   -119.70082   -9636.3722    4.3118722    4.3118722    4.3118722   -9636.3722    8427.9322   -1901.5845   -35435.464   -5211.7608   -17359.208   -20726.538    80.167369 
   89300    519.12843   -120.15371   0.46971831   -119.68399   -363.11457    4.3113314    4.3113314    4.3113314   -363.11457    16484.264   -22403.099     4829.492   -16047.841   -22857.003   -22022.133    80.137212 
   89400    1844.6011   -121.32133    1.6690339    -119.6523     2523.379    4.3045316    4.3045316    4.3045316     2523.379    11266.215     7596.047   -11292.125    6721.9027    12743.241    7890.3244    79.758631 
   89500     932.8782   -120.51528    0.8440878   -119.67119    -9512.695    4.2971696    4.2971696    4.2971696    -9512.695    3978.8396    2119.3068   -34636.231    7293.6891   -14606.814   -10172.739    79.350101 
   89600    652.15904   -120.28004    0.5900872   -119.68995   -21049.719    4.2957833    4.2957833    4.2957833   -21049.719    4804.2772   -6063.9372   -61889.497   -18546.067   -32543.141   -29335.255    79.273331 
   89700    1669.1806   -121.19927    1.5103097   -119.68896    8731.0852    4.2940822    4.2940822    4.2940822    8731.0852    14751.248    14070.579    -2628.572   -17434.467   -2516.5744   -1475.6911    79.179191 
   89800      1862.29   -121.38082    1.6850391   -119.69578    857.69761    4.2975102    4.2975102    4.2975102    857.69761   -1879.1518   -607.48544    5059.7301    18610.045    12640.405    16074.707    79.368971 
   89900     1343.495    -120.9181    1.2156225   -119.70248   -23327.259    4.3059008    4.3059008    4.3059008   -23327.259   -23003.944    253.59019   -47231.422    10975.202   -14104.986    -3527.995    79.834768 
   90000    2112.5394   -121.59456    1.9114701   -119.68309   -3748.8525    4.3033665    4.3033665    4.3033665   -3748.8525   -15480.688    23795.371    -19561.24   -16642.335   -7618.9253   -24117.559    79.693888 
   90100    2340.6229    -121.7944    2.1178448   -119.67656   -6908.5048    4.3022974    4.3022974    4.3022974   -6908.5048   -2655.2223   -18709.372    639.07984    22463.968    5722.7975    12735.842    79.634505 
   90200    1639.0027   -121.17178    1.4830041   -119.68878   -19417.906    4.2985537    4.2985537    4.2985537   -19417.906    -19220.97   -26050.462   -12982.287    38085.753   -18282.168    31991.426    79.426802 
   90300    2181.4436   -121.66369     1.973816   -119.68988    15028.124    4.2861911    4.2861911    4.2861911    15028.124   -8026.1858    43985.072    9125.4848   -6973.5845   -20186.426   -4869.9326    78.743478 
   90400    2714.0422   -122.14704    2.4557224   -119.69132    7231.3567    4.2969265    4.2969265    4.2969265    7231.3567    2652.7176     11174.03    7867.3221   -9647.7715    3227.9124     8904.195    79.336632 
   90500    1705.3822   -121.24874    1.5430656   -119.70567   -18268.565    4.3030358    4.3030358    4.3030358   -18268.565    1217.8228   -49983.354   -6040.1628    23855.422    4607.2703     30575.73    79.675512 
   90600    1257.6744   -120.84347    1.1379702    -119.7055    9192.7032    4.2896399    4.2896399    4.2896399    9192.7032     11739.65    17877.116    -2038.657    25620.066   -7393.2346    12880.988    78.933706 
   90700    2032.2207   -121.52942     1.838796   -119.69063    11808.347    4.3026379    4.3026379    4.3026379    11808.347     7223.951    34214.133   -6013.0427   -6966.3284    3988.5843   -14010.166    79.653417 
   90800     1514.127   -121.04873     1.370014   -119.67871   -21374.349    4.3113129    4.3113129    4.3113129   -21374.349    7641.4133    -52387.47   -19376.991    9672.0051    7834.4629    -163.6492    80.136177 
   90900    642.41448   -120.26158   0.58127012   -119.68031    8288.4087    4.2935954    4.2935954    4.2935954    8288.4087     20693.21     10735.65   -6563.6344     34813.67   -8545.8423    25973.393    79.152267 
   91000    1459.6701   -120.99964    1.3207402    -119.6789    2442.1106    4.2978869    4.2978869    4.2978869    2442.1106    1344.3752    23036.848   -17054.891     8301.925   -14098.229    1583.7117    79.389842 
   91100    1450.2467    -120.9942    1.3122137   -119.68199   -3069.9236     4.298246     4.298246     4.298246   -3069.9236    18846.076   -15574.678   -12481.169   -10452.782    369.48766    -19407.43    79.409744 
   91200     714.1664    -120.3445   0.64619277    -119.6983    9761.4387    4.2843963    4.2843963    4.2843963    9761.4387     32394.37   -14070.751    10960.697    17504.714    4243.4946   -1889.5261      78.6446 
   91300     1086.141   -120.69139   0.98276317   -119.70863   -13440.404     4.298105     4.298105     4.298105   -13440.404   -4998.2101   -3093.3701   -32229.632    22740.767   -12948.822    20049.345    79.401929 
   91400     1821.779   -121.33985    1.6483839   -119.69146   -9785.9496    4.3046029    4.3046029    4.3046029   -9785.9496   -12964.744     10467.75   -26860.854    -10172.43   -11262.448    964.81364    79.762596 
   91500    1305.6431   -120.87684    1.1813733   -119.69547     10877.28    4.2953389    4.2953389    4.2953389     10877.28    11813.808   -2415.8031    23233.834   -18194.668    3833.6011   -20562.126    79.248732 
   91600    1488.1761   -121.04357     1.346533   -119.69703   -19771.858    4.3047712    4.3047712    4.3047712   -19771.858   -6255.5708   -34069.912   -18990.092    5229.6549    5383.8053     5808.314    79.771953 
   91700     2595.791    -122.0294    2.3487262   -119.68067    6279.9523    4.2974463    4.2974463    4.2974463    6279.9523   -11597.749    26742.116    3695.4889    4597.6236   -10748.569    7792.7652    79.365431 
   91800    2149.1559   -121.63352    1.9446014   -119.68892     22122.69    4.2849295    4.2849295    4.2849295     22122.69   -381.71172    28338.264    38411.517   -18715.235   -13906.317   -22638.341    78.673967 
   91900    1276.5172   -120.86487    1.1550196   -119.70985   -19159.906    4.3007175    4.3007175    4.3007175   -19159.906   -11462.493   -58314.655    12297.431   -18515.475   -4540.8929   -25865.754    79.546807 
   92000    2176.8603   -121.66351     1.969669   -119.69384    -6098.026    4.3008291    4.3008291    4.3008291    -6098.026   -21979.597   -17600.846    21286.365    3229.0867    12681.937    2113.2258    79.552999 
   92100    2170.9728   -121.65023    1.9643418   -119.68589    4825.6934    4.2950985    4.2950985    4.2950985    4825.6934   -19433.902    863.15773    33047.825    6996.1859    18186.063    14140.318    79.235425 
   92200    854.67556   -120.47484   0.77332841   -119.70151   -36351.495    4.3011795    4.3011795    4.3011795   -36351.495   -23425.487   -76644.899    -8984.098   -11601.624    1634.4156   -26997.254    79.572445 
   92300    1013.2634   -120.61793   0.91682198    -119.7011   -3205.4066    4.2883271    4.2883271    4.2883271   -3205.4066    8912.4355    -36132.83    17604.175   -23499.901   -957.87204   -23931.014    78.861258 
   92400    1952.3482   -121.45406    1.7665256   -119.68753    10619.223    4.2906816    4.2906816    4.2906816    10619.223    12100.228    303.55055    19453.889    984.31329    4671.3206    8447.1239    78.991225 
   92500    1098.6109    -120.6872   0.99404626   -119.69315   -44556.224    4.3128873    4.3128873    4.3128873   -44556.224   -21334.204   -74034.871   -38299.596    12965.265    7442.5384    -11986.23    80.224003 
   92600    848.43008   -120.46787   0.76767737   -119.70019   -14530.099    4.2933372    4.2933372    4.2933372   -14530.099    18854.201    -50384.57   -12059.927   -12619.923    3272.0098   -19241.885    79.137986 
   92700    1840.6153   -121.34292    1.6654274   -119.67749    30695.763    4.2788896    4.2788896    4.2788896    30695.763    45433.509    33127.606    13526.174   -11445.791   -15956.325   -7975.3765    78.341746 
   92800    1554.3173   -121.09665    1.4063789   -119.69027   -18431.835    4.3009804    4.3009804    4.3009804   -18431.835   -11763.342   -19784.554    -23747.61    13492.784   -11832.441    10983.805    79.561394 
   92900    1004.5093   -120.60682   0.90890114   -119.69792   -10787.279    4.3007128    4.3007128    4.3007128   -10787.279   -3996.6605   -34821.123     6455.945    27100.032    10573.563   -7575.7093    79.546548 
   93000    1953.4342   -121.45314    1.7675083   -119.68564    20813.388    4.2938065    4.2938065    4.2938065    20813.388    32004.996    13537.708     16897.46    8261.1581    625.11444   -16302.339    79.163942 
   93100    2189.1336   -121.66821    1.9807741   -119.68744   -7328.4229    4.3024308    4.3024308    4.3024308   -7328.4229   -21468.295    19335.942   -19852.916   -10452.898   -22959.964    8952.4585    79.641914 
   93200     1426.298   -120.98572    1.2905444   -119.69517    2441.4899    4.2968894    4.2968894    4.2968894    2441.4899    -16006.86    10142.942    13188.388    11165.257   -18951.161    1306.8382    79.334581 
   93300      2206.55   -121.68402    1.9965328   -119.68749    20931.996    4.2960035    4.2960035    4.2960035    20931.996    25091.989    10984.821    26719.177    16545.016   -5352.6593   -13458.228    79.285522 
   93400    2521.6597   -121.96323    2.2816507   -119.68158   -4351.0651    4.3051828    4.3051828    4.3051828   -4351.0651   -10558.516   -6712.5441    4217.8647   -17401.753   -2069.1814   -7801.2274    79.794838 
   93500    1292.5347   -120.86812    1.1695126    -119.6986    282.68571    4.2949357    4.2949357    4.2949357    282.68571   -1613.3242     5593.371   -3131.9897   -16053.568   -4906.9498    8734.8158    79.226414 
   93600    1563.3306   -121.11557    1.4145344   -119.70104    7798.7453    4.2900845    4.2900845    4.2900845    7798.7453    22686.145    7673.7514   -6963.6607    8239.7489   -7953.4275    9706.0813    78.958256 
   93700    2248.2173   -121.72115    2.0342342   -119.68692    4520.9743    4.2979365    4.2979365    4.2979365    4520.9743    34053.457   -15402.768   -5087.7659    3116.5441    105.88028    723.70359    79.392594 
   93800    1004.2492   -120.61189   0.90866578   -119.70322   -8490.2997    4.2980206    4.2980206    4.2980206   -8490.2997    16048.931   -27375.844   -14143.986   -19786.787    6279.3019    1861.2961    79.397254 
   93900     521.8297   -120.18107   0.47216248    -119.7089   -18030.393    4.2978742    4.2978742    4.2978742   -18030.393   -11036.928    967.01239   -44021.263   -19738.879    -12731.43    4900.7952    79.389138 
   94000    1600.9442   -121.14102     1.448568   -119.69245   -5703.5334    4.2961118    4.2961118    4.2961118   -5703.5334    8561.8998    12897.862   -38570.363    11831.043   -14275.791   -2927.7171    79.291514 
   94100    1398.5205   -120.96201    1.2654107    -119.6966    805.36462    4.2931327    4.2931327    4.2931327    805.36462    12645.189   -4550.6964   -5678.3992    22869.807    10497.504   -6330.0077     79.12668 
   94200    1041.7323   -120.64837   0.94258131   -119.70578   -7985.2916     4.295645     4.295645     4.295645   -7985.2916    -11299.35    3582.0993   -16238.624   -1917.4282    10415.757    202.40456    79.265672 
   94300    1796.6773   -121.32292    1.6256714   -119.69725    553.57131    4.2992185    4.2992185    4.2992185    553.57131   -3683.5377    38326.336   -32982.084   -17118.561   -11452.393   -695.86692    79.463656 
   94400    1963.9931   -121.47115    1.7770623   -119.69409     11330.53    4.2998347    4.2998347    4.2998347     11330.53    4204.8529    28393.592    1393.1459    26157.227   -9437.2243   -3067.7545    79.497832 
   94500    1624.0649   -121.16694    1.4694881   -119.69745    4187.1109     4.298675     4.298675     4.298675    4187.1109   -11674.149   -14083.406    38318.888    44661.561    14429.974   -7268.2682    79.433523 
   94600      2341.12     -121.805    2.1182946   -119.68671    10565.273    4.2969972    4.2969972    4.2969972    10565.273   -8114.5665    13423.244     26387.14   -16807.047   -3135.3944   -4292.6141     79.34055 
   94700    2398.7936   -121.85626    2.1704789   -119.68578    11452.277    4.2982103    4.2982103    4.2982103    11452.277   -4579.4178    20594.635    18341.613   -648.90561   -19493.682   -310.76484    79.407764 
   94800    1579.8003   -121.12933    1.4294365   -119.69989   -8493.2231     4.298758     4.298758     4.298758   -8493.2231   -30568.879   -39588.745    44677.955    72805.603   -7465.9053    3400.0327    79.438128 
   94900    1895.6481   -121.41458    1.7152223   -119.69936    481.93938    4.2956964    4.2956964    4.2956964    481.93938   -203.84623   -26828.883    28478.547      31789.6    12789.518   -6498.0702    79.268515 
   95000    2501.6683    -121.9482     2.263562   -119.68464    7153.5618    4.2949231    4.2949231    4.2949231    7153.5618    20417.558    11721.755   -10678.627   -16919.657    13398.633   -4179.9997    79.225716 
   95100    1438.0287   -120.99969    1.3011586   -119.69853   -8596.1355    4.2982475    4.2982475    4.2982475   -8596.1355   -20745.283   -21546.009    16502.886    45036.887   -2683.6462     589.9931    79.409831 
   95200    909.41578   -120.52727   0.82285851   -119.70441   -6864.1361    4.2988693    4.2988693    4.2988693   -6864.1361   -457.42049   -47223.754    27088.766    53369.461   -2446.9821   -3978.0537    79.444295 
   95300    1613.3387   -121.14883    1.4597828   -119.68905    2250.1438    4.2960139    4.2960139    4.2960139    2250.1438    32093.674   -16764.502   -8578.7415   -15672.018   -443.18129   -3798.8409    79.286096 
   95400    1258.9463   -120.83274    1.1391211   -119.69362   -1080.9845    4.2943715    4.2943715    4.2943715   -1080.9845     4168.472    1411.9348   -8823.3603   -213.37962   -1175.6421   -6471.0391    79.195198 
   95500     794.5673   -120.41999   0.71894119   -119.70105    -12770.28    4.2955869    4.2955869    4.2955869    -12770.28    -11529.86    -35972.96    9191.9789    55532.858   -5426.7313    4758.0592    79.262456 
   95600    1265.5717   -120.84219    1.1451158   -119.69707    1076.6067     4.289949     4.289949     4.289949    1076.6067    14385.655   -35074.139    23918.305    27403.263   -1108.4082    9080.0404    78.950775 
   95700    1386.9064   -120.95659    1.2549021   -119.70169   -875.58716    4.2925767    4.2925767    4.2925767   -875.58716    10206.525   -32923.338    20090.051   -36103.021   -63.601243    3241.1635    79.095942 
   95800    1185.2794   -120.77606    1.0724657    -119.7036   -14357.405    4.3013419    4.3013419    4.3013419   -14357.405   -36847.128    -36246.44    30021.355   -11440.406   -7670.7503   -3223.5187    79.581461 
   95900    1712.8811   -121.24426    1.5498508   -119.69441   -3378.9688    4.2979317    4.2979317    4.2979317   -3378.9688   -32876.111   -14661.485     37400.69    25783.204   -3355.7336   -6012.2315    79.392325 
   96000    1796.4883   -121.32271    1.6255004   -119.69721    11784.705    4.2906648    4.2906648    4.2906648    11784.705    5219.3142   -3326.6231    33461.425     9633.202    2755.8606    9119.2702    78.990298 
   96100    1427.8939   -120.99948    1.2919884   -119.70749    7999.8299    4.2897491    4.2897491    4.2897491    7999.8299   -5668.1815   -2400.1503    32067.822   -37866.124    597.16933    6808.9156    78.939734 
   96200    1942.1984   -121.46426    1.7573419   -119.70692    2214.0416     4.297062     4.297062     4.297062    2214.0416   -29377.437     8035.006    27984.556   -30974.027   -1449.0889   -12365.488    79.344141 
   96300    2646.6975   -122.08993    2.3947875   -119.69515    10781.472    4.2996173    4.2996173    4.2996173    10781.472   -2274.7254    8559.8977    26059.242     8858.999    241.23639     9377.027    79.485776 
   96400    1952.1171   -121.47055    1.7663166   -119.70423    5702.0831    4.2988421    4.2988421    4.2988421    5702.0831    31383.743   -19548.717    5271.2231   -11322.482   -4534.3511    27584.812     79.44279 
   96500    1384.6729   -120.95864    1.2528811   -119.70576   -8216.8014    4.3010744    4.3010744    4.3010744   -8216.8014    18212.767   -40295.692    -2567.479   -54802.594    -5835.925   -1410.1507    79.566612 
   96600     2423.463   -121.88299    2.1928003   -119.69019    6891.3192    4.2937243    4.2937243    4.2937243    6891.3192    13343.166   -12621.741    19952.533   -17681.208   -1941.5527   -13938.145    79.159395 
   96700     2292.754   -121.76481     2.074532   -119.69028    25017.794    4.2900619    4.2900619    4.2900619    25017.794     55831.31    3482.1111    15739.962    29901.558    6638.8807    10200.665    78.957007 
   96800    1464.2502   -121.02988    1.3248844     -119.705   -11235.452    4.3017468    4.3017468    4.3017468   -11235.452     19149.75     -38892.8   -13963.305   -11418.992   -2853.1045    12613.275    79.603934 
   96900    1558.6276   -121.10844     1.410279   -119.69816   -16250.598     4.300917     4.300917     4.300917   -16250.598     975.8964   -44512.349   -5215.3426    -38557.01    -5307.433   -6080.1904    79.557876 
   97000    1567.3703   -121.11004    1.4181896   -119.69185    6160.7549    4.2883795    4.2883795    4.2883795    6160.7549    2934.5633   -19145.394    34693.096    32936.077   -3241.7304   -5848.7685    78.864153 
   97100     1006.665   -120.61275   0.91085169   -119.70189   -9768.2963    4.2924517    4.2924517    4.2924517   -9768.2963   -19109.884   -33690.096    23495.091     51473.95   -3248.5054    12480.966    79.089028 
   97200    1214.7931   -120.79782    1.0991704   -119.69865    -22683.27    4.3000199    4.3000199    4.3000199    -22683.27   -9013.2622   -50922.621   -8113.9275     -24436.4    1001.6838     18076.34    79.508104 
   97300    1228.9746   -120.80526    1.1120021   -119.69326   -9733.6301    4.2958422    4.2958422    4.2958422   -9733.6301   -7245.1158   -43113.954     21158.18   -7173.2777   -1973.2648    901.95569    79.276588 
   97400    742.96763   -120.37369   0.67225272   -119.70144   -13363.124    4.2996783    4.2996783    4.2996783   -13363.124   -7840.3527   -81020.018    48770.998    70841.716     630.6951   -1707.3248    79.489159 
   97500    1297.5127   -120.86972    1.1740168   -119.69571   -23779.182    4.2995795    4.2995795    4.2995795   -23779.182    -9698.868   -70749.619    9110.9401    31730.249   -264.99455    18109.435    79.483679 
   97600    1826.9403   -121.34044     1.653054   -119.68739     13662.15    4.2823173    4.2823173    4.2823173     13662.15     54339.73   -25249.179    11895.898   -23597.108   -1608.9222     16456.78     78.53017 
   97700    1065.2656   -120.67559   0.96387474   -119.71172   -12290.901    4.2915745    4.2915745    4.2915745   -12290.901   -14535.529   -75626.636    53289.461    57858.121    6072.8865   -4817.9665    79.040552 
   97800    1238.4536   -120.82701    1.1205788   -119.70643   -35374.964    4.3068223    4.3068223    4.3068223   -35374.964   -51504.701   -84386.349    29766.158    51361.788     170.5434   -6093.5069    79.886035 
   97900    2570.4513   -122.00985    2.3257984   -119.68405    6118.7488    4.2939988    4.2939988    4.2939988    6118.7488    22234.206    4753.9633   -8631.9235   -26910.415   -852.83673    2905.9269    79.174575 
   98000    2197.3811    -121.6832    1.9882366   -119.69496   -1702.3374    4.2933905    4.2933905    4.2933905   -1702.3374    1939.9792   -15329.852    8282.8602    49913.144    634.37876    2494.2859    79.140935 
   98100    1670.0939   -121.21777    1.5111361   -119.70663   -13861.023    4.2922262    4.2922262    4.2922262   -13861.023   -34429.404   -38526.174     31372.51    71861.119   -4507.1659   -4825.9231    79.076567 
   98200    2195.4824   -121.68604    1.9865186   -119.69952    21165.797    4.2852463    4.2852463    4.2852463    21165.797    29315.116     6375.963    27806.314   -34395.542   -2240.5234   -11778.387    78.691419 
   98300    2139.5301   -121.63922    1.9358918   -119.70333    105.54359    4.3035652    4.3035652    4.3035652    105.54359    4787.7201   -23525.946    19054.856   -23247.116   -3082.9451   -5444.5126    79.704924 
   98400    1997.5273   -121.50413    1.8074047   -119.69672   -16367.117    4.3039145    4.3039145    4.3039145   -16367.117   -34574.532   -32668.371    18141.553    64271.585   -3587.4312    671.36052    79.724333 
   98500    1965.4375   -121.46546    1.7783691   -119.68709     27239.65    4.2824094    4.2824094    4.2824094     27239.65    27454.983    15349.156    38914.812    28626.094    3370.3887    3546.1352    78.535237 
   98600    1419.7246   -120.98479    1.2845967   -119.70019    4475.6612    4.2888607    4.2888607    4.2888607    4475.6612      7534.04   -36337.121    42230.064   -56028.241   -710.13816    -12536.79      78.8907 
   98700    1204.9966   -120.79585    1.0903063   -119.70555   -13180.542    4.2983288    4.2983288    4.2983288   -13180.542   -20954.868   -53263.401    34676.644   -23380.006    4480.6586   -8357.0837    79.414335 
   98800    1761.3107   -121.28815    1.5936709   -119.69448      14482.6    4.2960171    4.2960171    4.2960171      14482.6    1753.4988    2823.4017    38870.899    32433.449    2241.1981    6300.0549    79.286275 
   98900    1568.4694   -121.11592    1.4191841   -119.69674   -7456.8922    4.2992189    4.2992189    4.2992189   -7456.8922   -17564.615   -42426.503    37620.441   -19935.186   -8113.5727   -6029.6978    79.463683 
   99000    505.16095   -120.16747   0.45708024   -119.71039   -15824.822    4.2951361    4.2951361    4.2951361   -15824.822   -15297.474   -59673.356    27496.364   -53918.183    109.97326   -7330.4306    79.237505 
   99100    1119.7466   -120.71994    1.0131703   -119.70677    249.12678    4.2895341    4.2895341    4.2895341    249.12678    19440.912   -42655.361     23961.83   -4188.1665     597.0447    779.05828    78.927866 
   99200    2000.4222   -121.50465     1.810024   -119.69463    7155.8133    4.2930866    4.2930866    4.2930866    7155.8133    4039.6229   -21093.852    38521.669    10606.879     4297.144    9079.8607    79.124131 
   99300    1264.4275   -120.85093    1.1440806   -119.70685   -6761.0566    4.2980039    4.2980039    4.2980039   -6761.0566    -24825.06   -12505.896    17047.786   -35654.873    2739.8691   -13502.295    79.396329 
   99400     915.8546   -120.54068   0.82868449     -119.712   -14382.138    4.2980016    4.2980016    4.2980016   -14382.138   -4144.5056   -36246.957    -2754.951   -40746.555   -1784.6787   -21282.356    79.396201 
   99500    1809.6953   -121.33625    1.6374503    -119.6988    10326.017    4.2909059    4.2909059    4.2909059    10326.017    17355.569    4841.5669    8780.9156    3082.9726     6135.369    5200.3268    79.003617 
   99600    2018.1834   -121.52358    1.8260948   -119.69749    17224.605    4.2895069    4.2895069    4.2895069    17224.605   -22699.772    51279.074    23094.514   -5497.1313    1953.7256    7676.5415    78.926367 
   99700    1353.4036   -120.93735     1.224588   -119.71276   -15241.168    4.2965625    4.2965625    4.2965625   -15241.168   -58160.347   -14709.765    27146.609   -33945.471   -2517.7309    451.06198    79.316477 
   99800    1711.9779   -121.25724    1.5490336    -119.7082    3502.7361    4.2935759    4.2935759    4.2935759    3502.7361    -27108.29    3063.1893    34553.309   -13002.024    249.59139   -25344.633     79.15119 
   99900    2725.6907   -122.15846    2.4662622    -119.6922    23155.312     4.294601     4.294601     4.294601    23155.312   -15315.789    72935.663    11846.061    12540.319    1783.7024   -17969.217    79.207894 
  100000    2234.7578   -121.72654    2.0220558   -119.70448   -5876.1282    4.2968797    4.2968797    4.2968797   -5876.1282   -57779.889    10652.277    29499.228   -14200.557    4053.2489    10682.133    79.334042 
Loop time of 22.1553 on 1 procs for 100000 steps with 8 atoms

Pair  time (%) = 6.97378 (31.4768)
Kspce time (%) = 5.3042 (23.941)
Neigh time (%) = 0.0664124 (0.299758)
Comm  time (%) = 1.08464 (4.89561)
Outpt time (%) = 0.0275397 (0.124303)
Other time (%) = 8.69876 (39.2626)

Nlocal:    8 ave 8 max 8 min
Histogram: 1 0 0 0 0 0 0 0 0 0
Nghost:    2189 ave 2189 max 2189 min
Histogram: 1 0 0 0 0 0 0 0 0 0
Neighs:    2274 ave 2274 max 2274 min
Histogram: 1 0 0 0 0 0 0 0 0 0

Total # of neighbors = 2274
Ave neighs/atom = 284.25
Neighbor list builds = 771
Dangerous builds = 0
unfix 20
unfix 21
print "seeds:13906"
seeds:13906
