LAMMPS (10 Feb 2015)
# ---- initialize simulations
clear
units metal
dimension 3
boundary p p p
atom_style charge
atom_modify map array
# ---- create atoms
read_data /Users/eugeneragasa/pyflamestk_git/pypospack/tests/tests_integration/workflow/WorkflowLammpsThermalExpansion/param_4927/MgO_NaCl_unit.npt.T1400/lammps.structure
  triclinic box = (0 0 0) to (4.2565 4.2565 4.2565) with tilt (0 0 0)
  1 by 1 by 1 MPI processor grid
  reading atoms ...
  8 atoms
# ---- define interatomic potential
include potential.mod
mass 1 24.305
mass 2 15.999

group Mg type 1
4 atoms in group Mg
group O type 2
4 atoms in group O

set group Mg charge 1.66679564584
  4 settings made for charge
set group O charge -1.66679564584
  4 settings made for charge

variable R_cut equal 10.0

pair_style buck/coul/long ${R_cut}
pair_style buck/coul/long 10
pair_coeff 1 1 0.0 0.5 0.0 ${R_cut}
pair_coeff 1 1 0.0 0.5 0.0 10
pair_coeff 1 2 1241.53975785 0.290586946924 0.0 ${R_cut}
pair_coeff 1 2 1241.53975785 0.290586946924 0.0 10
pair_coeff 2 2 7336.97641517 0.111647641293 25.3936876208 ${R_cut}
pair_coeff 2 2 7336.97641517 0.111647641293 25.3936876208 10

kspace_style pppm 1.0e-5

neighbor 1.0 bin
neigh_modify every 1 delay 0 check yes
# ---- define settings
compute eng all pe/atom
compute eatoms all reduce sum c_eng
# ---- run minimization
reset_timestep 0
fix 1 all box/relax iso 0.0 vmax 0.001
thermo 10
thermo_style custom step pe lx ly lz xy xz yz press pxx pyy pzz pxy pxz pyz c_eatoms
min_style cg
minimize 1e-25 1e-25 5000 10000
PPPM initialization ...
  G vector (1/distance) = 0.352901
  grid = 8 8 8
  stencil order = 5
  estimated absolute RMS force accuracy = 3.98348e-05
  estimated relative force accuracy = 2.76637e-06
  using double precision FFTs
  3d grid and FFT values/proc = 3375 512
Neighbor list info ...
  1 neighbor list requests
  update every 1 steps, delay 0 steps, check yes
  master list distance cutoff = 11
Memory usage per processor = 4.06549 Mbytes
Step PotEng Lx Ly Lz Xy Xz Yz Press Pxx Pyy Pzz Pxy Pxz Pyz eatoms 
       0    -112.5899       4.2565       4.2565       4.2565            0            0            0    58061.201    58061.201    58061.201    58061.201 6.8070985e-11 -1.221979e-10 1.2952011e-11    -112.5899 
      10   -112.63526     4.299065     4.299065     4.299065            0            0            0    6762.9013    6762.9013    6762.9013    6762.9013 -3.6532134e-11 6.5076144e-11 2.4224675e-10   -112.63526 
      13     -112.636    4.3051131    4.3051131    4.3051131            0            0            0   -6.5125139   -6.5125139   -6.5125139   -6.5125139 2.4815902e-11 -1.1583773e-10 3.0521581e-11     -112.636 
Loop time of 0.0103662 on 1 procs for 13 steps with 8 atoms

Minimization stats:
  Stopping criterion = linesearch alpha is zero
  Energy initial, next-to-last, final = 
        -112.589903458     -112.636003249     -112.636003249
  Force two-norm initial, final = 8.38407 0.00186563
  Force max component initial, final = 8.38407 0.000962014
  Final line search alpha, max atom move = 0.00390625 3.75787e-06
  Iterations, force evaluations = 13 30

Pair  time (%) = 0.00284696 (27.4638)
Kspce time (%) = 0.0016253 (15.6788)
Neigh time (%) = 0 (0)
Comm  time (%) = 0.000311375 (3.00375)
Outpt time (%) = 2.00272e-05 (0.193197)
Other time (%) = 0.00556254 (53.6604)

Nlocal:    8 ave 8 max 8 min
Histogram: 1 0 0 0 0 0 0 0 0 0
Nghost:    2189 ave 2189 max 2189 min
Histogram: 1 0 0 0 0 0 0 0 0 0
Neighs:    2344 ave 2344 max 2344 min
Histogram: 1 0 0 0 0 0 0 0 0 0

Total # of neighbors = 2344
Ave neighs/atom = 293
Neighbor list builds = 0
Dangerous builds = 0
unfix 1
# ---- define output variables ----
variable natoms equal "count(all)"
variable tot_energy equal "c_eatoms"
variable length_x equal "lx"
variable length_y equal "ly"
variable length_z equal "lz"
variable tilt_xy equal "xy"
variable tilt_xz equal "xz"
variable tilt_yz equal "yz"
variable tot_press equal "press"
variable press_xx equal "pxx"
variable press_yy equal "pyy"
variable press_zz equal "pzz"
variable press_xy equal "pxy"
variable press_xz equal "pxz"
variable press_yz equal "pyz"

# ---- output ----
print "pypospack:output_section:begin"
pypospack:output_section:begin
print "tot_energy = ${tot_energy}"
tot_energy = -112.63600324896
print "num_atoms = ${natoms}"
num_atoms = 8
print "xx = ${length_x}"
xx = 4.30511307073731
print "yy = ${length_y}"
yy = 4.30511307073731
print "zz = ${length_z}"
zz = 4.30511307073731
print "xy = ${tilt_xy}"
xy = 0
print "xz = ${tilt_xz}"
xz = 0
print "yz = ${tilt_yz}"
yz = 0
print "tot_press = ${tot_press}"
tot_press = -6.51251387968517
print "pxx = ${press_xx}"
pxx = -6.51251387980119
print "pyy = ${press_yy}"
pyy = -6.51251387961014
print "pzz = ${press_zz}"
pzz = -6.51251387964418
print "pxy = ${press_xy}"
pxy = 2.48159019880152e-11
print "pxz = ${press_xz}"
pxz = -1.15837732664817e-10
print "pyz = ${press_yz}"
pyz = 3.05215812050655e-11
print "pypospack:output_section:done"
pypospack:output_section:done
print "pypospack:lammps_sim:done"
pypospack:lammps_sim:done
#------------------------------------------------------------------------------
# RUN THERMOSTAT
# running using an NPT Nose-Hoover style thermostat
#------------------------------------------------------------------------------
variable tempdamp equal 0.1
variable pressdamp equal 1.0
# set initial velocities
velocity all create 1400 4192371 mom yes dist gaussian loop all
# fix for Nose-Hoover style thermostat
fix 20 all npt temp 1400 1400 0.1 aniso 0.0 0.0 1.0 drag 1.0 couple xyz
variable boxx equal lx
variable boxy equal ly
variable boxz equal lz
variable boxp equal press
variable boxt equal temp
# calculate averages every 10000 steps
reset_timestep 0
fix 21 all ave/time 10 10 100 v_boxx v_boxy v_boxz v_boxp v_boxt file lattice.out
thermo_style custom step temp pe ke etotal press lx ly lz press pxx pyy pzz pxy pxz pyz vol
thermo_modify flush yes
thermo 100
run 100000
PPPM initialization ...
  G vector (1/distance) = 0.352409
  grid = 8 8 8
  stencil order = 5
  estimated absolute RMS force accuracy = 4.075e-05
  estimated relative force accuracy = 2.82993e-06
  using double precision FFTs
  3d grid and FFT values/proc = 3375 512
Memory usage per processor = 3.06549 Mbytes
Step Temp PotEng KinEng TotEng Press Lx Ly Lz Press Pxx Pyy Pzz Pxy Pxz Pyz Volume 
       0         1400   -112.63601    1.2667494   -111.36926    16949.285    4.3051131    4.3051131    4.3051131    16949.285    19824.428     14058.18    16965.248    2041.9655   -4254.4335   -10630.112    79.790959 
     100    343.32576    -111.5289   0.31064837   -111.21825    26034.484     4.341088     4.341088     4.341088    26034.484    31794.242     29576.75     16732.46     2205.224    446.39139    14402.616    81.807999 
     200    1048.5416   -111.80893   0.94874251   -110.86019   -42778.949    4.3857613    4.3857613    4.3857613   -42778.949   -47671.187   -45895.848   -34769.813   -2581.4936     695.5245   -2034.3313    84.359691 
     300    963.55882   -111.42984   0.87184827   -110.55799    1450.4297    4.3793916    4.3793916    4.3793916    1450.4297    24207.444    11235.667   -31091.822    13247.686     3271.845   -92.332261    83.992662 
     400    1132.7842   -111.33448    1.0249669   -110.30952    14025.129    4.3604465    4.3604465    4.3604465    14025.129   -14048.567    39119.205    17004.748   -5854.9695    4740.5597   -4979.4661    82.907323 
     500    1376.5921   -111.41596    1.2455695   -110.17039    24222.949    4.3753269    4.3753269    4.3753269    24222.949    45220.244    21135.489    6313.1154    169.10506     12195.93   -8551.3411    83.759006 
     600    1472.9442   -111.42244    1.3327508   -110.08969   -15022.041    4.3996458    4.3996458    4.3996458   -15022.041   -40345.154    28590.022   -33310.992    5720.2368   -2600.1614    -940.8468    85.163431 
     700    1034.3652   -110.98005   0.93591539   -110.04414   -3330.3791    4.3939011    4.3939011    4.3939011   -3330.3791   -22137.088   -15955.673    28101.624   -10363.727    11993.277   -8124.7911    84.830267 
     800    1481.4668   -111.38194    1.3404623   -110.04148    28005.858    4.3646029    4.3646029    4.3646029    28005.858    25001.903    51261.839    7753.8304    11037.985   -3197.1948   -12660.095    83.144632 
     900    1252.0802   -111.21233    1.1329084   -110.07942    34988.373    4.3545442    4.3545442    4.3545442    34988.373   -2160.7979    75659.305    31466.613   -8443.0702   -10411.837    -6241.606    82.571107 
    1000    1297.6383   -111.28803    1.1741304    -110.1139   -19141.144    4.3900653    4.3900653    4.3900653   -19141.144   -10402.368   -16174.954   -30846.109   -4307.1145    11924.526   -17054.898    84.608292 
    1100      1259.64   -111.21392    1.1397487   -110.07417   -14927.702    4.3935791    4.3935791    4.3935791   -14927.702   -64209.588    16276.931    3149.5511    6466.9976   -16397.044   -1712.0705    84.811616 
    1200    1534.5536   -111.43668    1.3884963   -110.04818    8864.7569    4.3653966    4.3653966    4.3653966    8864.7569    19790.662    -21175.62    27979.228   -14010.237    7209.0546    -19349.26    83.190001 
    1300    1615.2087   -111.52665    1.4614747   -110.06518   -3899.8574    4.3695171    4.3695171    4.3695171   -3899.8574   -24082.838    8444.5486    3938.7166    9998.7216    639.72732    30318.029     83.42579 
    1400    1212.8371   -111.17585    1.0974005   -110.07845   -3009.8721     4.385881     4.385881     4.385881   -3009.8721   -22082.786    16823.481   -3770.3107   -6257.3386   -1634.2247    -9158.774    84.366599 
    1500    1570.6955   -111.50499    1.4211983   -110.08379   -15584.977    4.3907988    4.3907988    4.3907988   -15584.977   -10076.076   -32330.749   -4348.1066   -7925.6464   -770.30303    9831.1706    84.650708 
    1600    1578.4437   -111.50812    1.4282091   -110.07991   -1180.8856    4.3943171    4.3943171    4.3943171   -1180.8856   -4873.4587     38584.55   -37253.749    3101.8925    733.20576    6330.1569    84.854366 
    1700    1727.0202   -111.61032    1.5626441   -110.04767   -16021.568    4.3946846    4.3946846    4.3946846   -16021.568   -34913.338   -20636.273     7484.908    4067.4974    15702.051   -11712.258    84.875653 
    1800    1230.7191   -111.13875    1.1135805   -110.02517    7063.9995    4.3871661    4.3871661    4.3871661    7063.9995    17484.467    8642.8477   -4935.3164    -8690.784    3315.2327    5008.3828    84.440778 
    1900    1805.3123   -111.66457    1.6334846   -110.03109   -10494.577    4.3838212    4.3838212    4.3838212   -10494.577   -22472.539    4186.1489   -13197.341   -2934.5551   -5332.3963    6536.7471    84.247788 
    2000    966.24945   -110.93249   0.87428281   -110.05821    23562.346     4.399678     4.399678     4.399678    23562.346    35166.942     -15739.4    51259.495     3086.529   -7742.3619   -10741.115      85.1653 
    2100     1819.923   -111.68523    1.6467045   -110.03853   -34579.541    4.4084255    4.4084255    4.4084255   -34579.541   -56027.626   -54752.865     7041.867    3876.4847   -11394.608   -4164.5326    85.674288 
    2200    1089.9901   -111.01019   0.98624599   -110.02395    28999.415    4.3894507    4.3894507    4.3894507    28999.415    12181.675   -37556.872    112373.44   -6757.9734    -6331.799   -9009.4379    84.572765 
    2300    1467.1304   -111.37175    1.3274904   -110.04426   -19506.872    4.3846895    4.3846895    4.3846895   -19506.872   -20738.487   -13111.434   -24670.694     8191.411    3508.2554   -5016.8751    84.297857 
    2400    1432.1417   -111.35625    1.2958319   -110.06041   -7146.9773    4.3876245    4.3876245    4.3876245   -7146.9773    1460.9855    -52339.24    29437.323   -4156.3634    5699.7332    17301.414     84.46725 
    2500    1266.0209   -111.20977    1.1455223   -110.06425    23038.863     4.388976     4.388976     4.388976    23038.863    20143.546   -10484.034    59457.076   -7579.6529    15823.653   -9276.5765    84.545329 
    2600    1228.9436   -111.18058     1.111974   -110.06861    2711.2979    4.4028288    4.4028288    4.4028288    2711.2979   -56390.217   -43221.005    107745.12    4530.7125    5058.6915    15166.707      85.3484 
    2700     1257.726   -111.19268    1.1380169   -110.05466   -13544.762    4.4070855    4.4070855    4.4070855   -13544.762   -45265.567   -35996.632    40627.912   -932.56218    12115.704    3848.8015    85.596187 
    2800    1579.0333   -111.46389    1.4287425   -110.03515   -23451.323    4.3867446    4.3867446    4.3867446   -23451.323    -40581.73   -36155.481    6383.2439    6349.7218    19058.107   -2754.4015    84.416446 
    2900     1033.853   -110.99129   0.93545193   -110.05584    31008.387    4.3646044    4.3646044    4.3646044    31008.387   -18257.164   -44789.685    156072.01   -3349.5437    9452.4749    34493.995    83.144716 
    3000    1367.8002   -111.33281    1.2376144    -110.0952    21211.544    4.3756028    4.3756028    4.3756028    21211.544     3075.818    2711.3945    57847.419   -4391.5216   -192.18523     12366.57     83.77485 
    3100    1795.5303   -111.71651    1.6246336   -110.09187   -28275.418     4.395688     4.395688     4.395688   -28275.418   -30067.215   -32755.637   -22003.403    3273.2498   -3201.5797    3280.6338    84.933806 
    3200    1546.8965   -111.46532    1.3996644   -110.06566   -37297.325    4.4034817    4.4034817    4.4034817   -37297.325   -37491.799   -66013.022   -8387.1534   -6775.0551    -379.8809    18198.982    85.386375 
    3300    1144.7656   -111.07351    1.0358079    -110.0377    26462.714    4.3902809    4.3902809    4.3902809    26462.714   -26528.209     18374.13    87542.221    6396.3671   -5550.7292   -15049.894    84.620763 
    3400    1179.8382   -111.11352    1.0675424   -110.04598    14968.078    4.3865293    4.3865293    4.3865293    14968.078   -53271.171   -2763.4008    100938.81   -313.03859   -2595.7832    5314.1764    84.404014 
    3500    1528.1415   -111.44976    1.3826945   -110.06707   -3603.7373    4.3887937    4.3887937    4.3887937   -3603.7373   -68836.729    21247.098    36778.419    5629.1848    4949.0229   -20007.317    84.534794 
    3600    1612.0245   -111.54055    1.4585936   -110.08196    -14843.37    4.3932953    4.3932953    4.3932953    -14843.37   -56184.558    17909.399   -6254.9501    3954.1688    3855.5352     5797.938    84.795185 
    3700    1161.9529   -111.13145    1.0513594   -110.08009    4132.7588    4.3849282    4.3849282    4.3849282    4132.7588   -44367.664    21744.081    35021.859    3925.2742   -6191.6363    28472.532    84.311623 
    3800    1538.1044   -111.47686    1.3917092   -110.08515    5992.9967    4.3806598    4.3806598    4.3806598    5992.9967   -54562.774    27422.975    45118.789   -531.18791    1643.6416    30666.194    84.065653 
    3900    1526.9181   -111.47232    1.3815876   -110.09073   -1053.2543    4.3849266    4.3849266    4.3849266   -1053.2543   -62123.556    15094.325    43869.469   -2215.2414    11778.665   -5466.5508     84.31153 
    4000     1190.207   -111.16773    1.0769243    -110.0908   -826.21246    4.3753121    4.3753121    4.3753121   -826.21246   -46503.478    18204.043    25820.797   -218.80235   -12800.021    12562.974    83.758155 
    4100    1223.7629   -111.19498    1.1072864    -110.0877    20643.995    4.3651023    4.3651023    4.3651023    20643.995   -1794.7536    39549.361    24177.379   -1725.4875    2344.7332    3007.8326    83.173177 
    4200    1726.3952   -111.65958    1.5620786    -110.0975   -25969.719     4.378632     4.378632     4.378632   -25969.719   -47459.443   -44147.399    13697.686   -1274.6529    2152.4484    3228.9061    83.948963 
    4300    1085.8769    -111.0715   0.98252425   -110.08897   -10210.303    4.3963927    4.3963927    4.3963927   -10210.303   -38112.988    23274.448   -15792.368    7757.4072   -12617.681     19947.25    84.974662 
    4400    1433.7295     -111.354    1.2972686   -110.05673    5744.9041    4.3881719    4.3881719    4.3881719    5744.9041   -49143.759    -29327.51    95705.981   -9448.4562    1610.4993   -14488.813    84.498868 
    4500    1324.3309   -111.25035    1.1982824   -110.05207    10234.899    4.3764963    4.3764963    4.3764963    10234.899   -48098.879    76928.337    1875.2409    1041.8717    8073.5552   -11647.166    83.826187 
    4600    1394.9592   -111.32606    1.2621884   -110.06387   -24905.317    4.3813696    4.3813696    4.3813696   -24905.317   -42637.458   -40529.383    8450.8898   -4013.7897   -5492.2398    9312.1959    84.106523 
    4700    1406.6414   -111.33395    1.2727587   -110.06119   -1027.3424    4.3795768    4.3795768    4.3795768   -1027.3424   -35287.534    38154.191   -5948.6845     3446.817   -6060.8003    377.25183     84.00332 
    4800    1228.0398   -111.18412    1.1111562   -110.07296   -5527.9514    4.3801671    4.3801671    4.3801671   -5527.9514   -8052.0086   -40351.109    31819.264    1559.3413   -16268.795    30373.942    84.037291 
    4900    1579.4412   -111.49612    1.4291116   -110.06701   -3682.9829    4.3701151    4.3701151    4.3701151   -3682.9829   -15752.705   -16358.605    21062.361   -7090.3419   -21426.242   -1717.5227    83.460047 
    5000    1408.0183   -111.35196    1.2740045   -110.07796   -1341.2231    4.3793328    4.3793328    4.3793328   -1341.2231   -25482.261   -26228.196    47686.788    20278.183   -7663.4826    6724.8962    83.989279 
    5100    1044.0999   -111.01006   0.94472356   -110.06533   -27310.487    4.3904776    4.3904776    4.3904776   -27310.487   -43624.714    -17068.72   -21238.027   -4792.1297   -8602.7472    34355.894    84.632137 
    5200    1954.3412   -111.80361     1.768329   -110.03528   -32606.095    4.3753179    4.3753179    4.3753179   -32606.095   -56891.988   -12414.903   -28511.393    6350.4593    -17838.89    11.762066    83.758489 
    5300    1802.5611   -111.68604    1.6309952   -110.05504   -10596.134    4.3713115    4.3713115    4.3713115   -10596.134   -33960.581   -17431.586    19603.764    7432.7589   -4963.8788    19380.778    83.528612 
    5400    1240.7931   -111.19641    1.1226957   -110.07371    347.74715    4.3830846    4.3830846    4.3830846    347.74715   -28189.969    -5799.749     35032.96   -6658.6049    8556.4674    3484.0074    84.205324 
    5500     1402.973   -111.34311    1.2694395   -110.07367   -14712.062    4.3976438    4.3976438    4.3976438   -14712.062   -38907.702   -47688.314    42459.831    16890.777    5941.2685   -3948.6444    85.047227 
    5600     1477.157   -111.40139    1.3365627   -110.06483   -15843.878    4.3805979    4.3805979    4.3805979   -15843.878   -9935.9403    16691.852   -54287.547      172.858    13429.989     14420.67    84.062091 
    5700    1810.6215   -111.70767    1.6382884   -110.06938    -2095.238    4.3713212    4.3713212    4.3713212    -2095.238   -22830.736   -18503.103    35048.125   -472.32026    -3819.477   -21.023967    83.529168 
    5800    1351.8902   -111.30122    1.2232186     -110.078   -7241.6515    4.3989859    4.3989859    4.3989859   -7241.6515   -59251.648     23482.62    14044.074    921.76118   -8935.6535    6883.1207    85.125113 
    5900    1388.0491   -111.30769     1.255936   -110.05175   -26229.323    4.3955934    4.3955934    4.3955934   -26229.323   -39531.801   -5322.1128   -33834.056   -2802.8879    2970.8707    25826.108     84.92832 
    6000    1428.3599   -111.32911    1.2924101    -110.0367    22997.973    4.3863525    4.3863525    4.3863525    22997.973   -21255.252    32450.389    57798.781   -8996.8626    8936.6712   -11547.451    84.393807 
    6100    874.28101   -110.83997   0.79106783    -110.0489     586.8223    4.4016007    4.4016007    4.4016007     586.8223   -34911.227    2767.0744     33904.62   -11396.492   -13315.053    32557.473    85.277001 
    6200    1711.7716   -111.58185     1.548847     -110.033    -29570.78     4.392531     4.392531     4.392531    -29570.78   -20030.287   -37437.662   -31244.393   -1358.0514   -884.57497    28157.617    84.750937 
    6300    991.98025   -110.94352   0.89756458   -110.04595    54378.415    4.3698403    4.3698403    4.3698403    54378.415   -21834.786    72349.228     112620.8    -3433.409    19030.565    13009.207    83.444307 
    6400    1762.5738   -111.68133    1.5948138   -110.08652    -28279.85    4.3805803    4.3805803    4.3805803    -28279.85   -15711.356   -38899.837   -30228.356    127.69026   -1490.4304   -1525.6424    84.061075 
    6500    1113.4505   -111.09694    1.0074734   -110.08947    5763.3175    4.3975988    4.3975988    4.3975988    5763.3175   -63695.754    14031.372    66954.335   -4496.3471   -6569.0713    1889.1411    85.044615 
    6600    1673.9081   -111.58012    1.5145872   -110.06553   -16328.919    4.3855374    4.3855374    4.3855374   -16328.919   -52401.408   -1166.6229    4581.2734   -14328.435    2457.5333     4104.411    84.346769 
    6700    1136.8525    -111.0839     1.028648   -110.05525    24686.252    4.3634162    4.3634162    4.3634162    24686.252    13821.575    15994.904    44242.276    10558.688   -5432.5209   -6641.2259    83.076831 
    6800    1809.1826    -111.7106    1.6369864   -110.07362   -8700.2798    4.3793298    4.3793298    4.3793298   -8700.2798   -5780.3398   -30026.174    9705.6743   -19126.219    4017.9669    3104.4669    83.989108 
    6900    809.10077   -110.80019   0.73209138    -110.0681   -2650.6745    4.4046368    4.4046368    4.4046368   -2650.6745   -53275.333    -6435.485    51758.794    5178.5241    1838.5628    19535.525    85.453587 
    7000    1784.7498   -111.66903    1.6148792   -110.05416   -20465.297    4.3733529    4.3733529    4.3733529   -20465.297   -12152.341   -31336.436   -17907.113   -3136.1541   -130.27679    15420.922    83.645691 
    7100    1201.1489   -111.14482    1.0868248     -110.058    60545.909    4.3572905    4.3572905    4.3572905    60545.909    16812.429    48251.109    116574.19   -16072.562    159.28171   -34884.939    82.727435 
    7200     1546.759   -111.47823      1.39954   -110.07869   -41731.661    4.3930926    4.3930926    4.3930926   -41731.661   -24529.659   -57903.677   -42761.648    11249.369   -8035.3717    26128.861    84.783447 
    7300     1326.001   -111.25763    1.1997935   -110.05784   -12325.683    4.3855523    4.3855523    4.3855523   -12325.683   -9260.6973    -56890.48    29174.129   -7655.3299    -9493.863    9537.0651    84.347632 
    7400     1088.536   -111.03321   0.98493027   -110.04828    57889.522    4.3717243    4.3717243    4.3717243    57889.522     90616.75    27424.684    55627.134   -12525.154   -12967.193   -24710.976    83.552279 
    7500    1577.3076   -111.49169    1.4271811   -110.06451   -3855.9556    4.3809919    4.3809919    4.3809919   -3855.9556    7001.4004   -16204.894   -2364.3729   -344.02962   -2849.0892    16596.185    84.084769 
    7600    1327.5912   -111.25762    1.2012324   -110.05639   -12701.904    4.3958723    4.3958723    4.3958723   -12701.904    18268.529   -64604.107    8229.8674   -8998.3188   -854.06481    2423.1497    84.944491 
    7700     1110.196   -111.04357    1.0045287   -110.03904    -9914.579    4.3994682    4.3994682    4.3994682    -9914.579    41946.012   -48420.261   -23269.488   -2406.6307   -14742.482   -10730.072    85.153117 
    7800    1919.8617   -111.75909    1.7371312   -110.02196   -682.96847    4.3831217    4.3831217    4.3831217   -682.96847    7978.8331   -35808.558     25780.82   -13795.075    4292.3008   -3973.3785    84.207467 
    7900    1141.9504   -111.08713    1.0332608   -110.05387    8547.8491    4.3843013    4.3843013    4.3843013    8547.8491    88192.003   -37172.333   -25376.123    4064.0048   -3821.8794   -12241.264    84.275469 
    8000    1402.8455   -111.31784    1.2693241   -110.04851   -14964.026    4.3899318    4.3899318    4.3899318   -14964.026    25149.231   -39452.459   -30588.848   -3017.7124    11067.154     9592.567    84.600578 
    8100    1379.7549   -111.29563    1.2484312    -110.0472    11909.976    4.3796348    4.3796348    4.3796348    11909.976    81607.828    -26069.46    -19808.44   -5948.2109    4947.3863   -33912.264    84.006654 
    8200    1251.7622    -111.2108    1.1326207   -110.07818      17060.8    4.3802962    4.3802962    4.3802962      17060.8    35807.288   -6546.9943    21922.106    1643.4727   -11449.525   -12315.717    84.044718 
    8300    1261.0706   -111.23152    1.1410432   -110.09047    7936.0981    4.3895693    4.3895693    4.3895693    7936.0981    76964.398   -24333.053   -28823.051   -10136.107   -5270.8028   -4673.6282    84.579622 
    8400    1116.2465   -111.09779    1.0100033   -110.08779   -7747.5963    4.3869529    4.3869529    4.3869529   -7747.5963    55242.257   -18379.342   -60105.703    16303.025   -6000.9302    -12246.49    84.428471 
    8500    1915.5584   -111.79745    1.7332375   -110.06422   -3455.1643    4.3694034    4.3694034    4.3694034   -3455.1643    23525.481   -985.91628   -32905.057    13372.882   -8218.6443   -38.192056    83.419276 
    8600    1284.9299   -111.24985    1.1626315   -110.08722   -12598.372    4.3734183    4.3734183    4.3734183   -12598.372    58957.562   -36915.735   -59836.943   -14931.004    2109.7257   -30609.795    83.649442 
    8700    1440.2255   -111.39894    1.3031463    -110.0958   -988.38075     4.373437     4.373437     4.373437   -988.38075    66109.619   -18251.221    -50823.54   -5193.4137   -8625.6309    6493.4692    83.650516 
    8800    1308.4416    -111.2905    1.1839054    -110.1066   -5136.0182    4.3712231    4.3712231    4.3712231   -5136.0182    38128.928   -11077.868   -42459.114     3903.235    4794.9772   -13577.121    83.523544 
    8900    1146.2843   -111.13613    1.0371821   -110.09895    15563.244    4.3789872    4.3789872    4.3789872    15563.244    83197.304    -3868.356   -32639.216   -14297.321    12633.708    884.28978    83.969394 
    9000     1627.031   -111.55134    1.4721718   -110.07916   -31839.768    4.3937362    4.3937362    4.3937362   -31839.768   -3796.7822   -22360.723   -69361.799    7223.4757   -3640.9081   -17563.665    84.820718 
    9100    1414.6354   -111.34074    1.2799918   -110.06075   -9431.6539    4.3827774    4.3827774    4.3827774   -9431.6539    86536.103   -45607.973   -69223.092    7255.3268    -5044.473    -19161.45     84.18762 
    9200     1509.519   -111.42226    1.3658445   -110.05641    18425.071    4.3533977    4.3533977    4.3533977    18425.071    8436.2702     35008.88    11830.064   -28190.378    8677.9164    2117.9546    82.505904 
    9300    1031.1245    -111.0338   0.93298315   -110.10082    11169.766    4.3641877    4.3641877    4.3641877    11169.766     72838.76    6328.2959   -45657.758    2606.5709    7707.7513   -18943.608    83.120904 
    9400    1989.4439   -111.89114    1.8000906   -110.09105   -30875.248    4.3945378    4.3945378    4.3945378   -30875.248    10934.831   -44320.432   -59240.144   -8157.3409   -2122.9269    1024.2623    84.867151 
    9500    1094.8088   -111.06796   0.99060604   -110.07735    7413.2703    4.3793481    4.3793481    4.3793481    7413.2703    5193.4048    40218.537   -23172.131   -11443.875    20620.458   -6815.8823    83.990157 
    9600    1721.5142    -111.6097    1.5576623   -110.05203    9300.6231    4.3669016    4.3669016    4.3669016    9300.6231    4552.6497   -15387.051    38736.271    11763.201    606.24032    -22571.63    83.276067 
    9700    1272.8073   -111.21504    1.1516628   -110.06338   -692.93727    4.3815988    4.3815988    4.3815988   -692.93727   -12150.251    12724.106   -2652.6664   -10019.186    3958.4584   -1037.2583    84.119723 
    9800     1112.194   -111.05837    1.0063365   -110.05204    6279.2346    4.3800588    4.3800588    4.3800588    6279.2346   -13702.013    34754.378   -2214.6613    452.37628    6547.3786   -10802.635    84.031057 
    9900    2032.2829   -111.87551    1.8388523   -110.03665   -1980.5975    4.3815659    4.3815659    4.3815659   -1980.5975   -7474.7338    -29091.87    30624.811    12370.991   -24312.944   -10669.514    84.117828 
   10000    726.01675   -110.70626   0.65691522   -110.04934    13658.844    4.3873473    4.3873473    4.3873473    13658.844    13161.925    12524.885    15289.724   -10409.584   -4078.7481   -14228.748    84.451242 
   10100     1389.082   -111.29356    1.2568706   -110.03669    7120.3112    4.3827365    4.3827365    4.3827365    7120.3112     27649.76    63.406141   -6352.2322    7120.6929   -13491.366   -16308.121    84.185266 
   10200    1665.0021   -111.53701    1.5065288   -110.03048    8025.6599    4.3849254    4.3849254    4.3849254    8025.6599      32853.5   -42539.978    33763.457    3300.0966   -28262.212   -7425.1013    84.311466 
   10300    856.68898   -110.81833   0.77515019   -110.04318    24093.263    4.3931747    4.3931747    4.3931747    24093.263    71242.503    10982.586    -9945.299   -19440.228    -9082.065   -9514.7418    84.788202 
   10400    1331.2955   -111.22889    1.2045841    -110.0243    21511.945    4.3940709    4.3940709    4.3940709    21511.945    25851.315   -13475.495    52160.014    5587.0715   -11326.863    1337.6974    84.840099 
   10500     728.5284   -110.68622    0.6591878   -110.02704    28064.803    4.3792906    4.3792906    4.3792906    28064.803    110941.46    4012.3409   -30759.395    11979.378   -7198.5252   -6900.6035    83.986852 
   10600    1541.8518   -111.44194    1.3950999   -110.04684     2896.538    4.3708473    4.3708473    4.3708473     2896.538    28116.727   -31144.734    11717.621   -1175.2886    3705.5518    5103.6396    83.502005 
   10700    1694.3087   -111.59944    1.5330461    -110.0664     4901.146    4.3853558    4.3853558    4.3853558     4901.146    4763.1962    136.52245    9803.7192   -11508.375   -532.66065   -8378.9074    84.336293 
   10800    1453.4145   -111.37103      1.31508   -110.05595   -60559.811    4.4110458    4.4110458    4.4110458   -60559.811   -55073.486   -47595.992   -79009.954   -71.264247    3299.4065   -5223.8836    85.827153 
   10900     1854.233   -111.69598     1.677749   -110.01823    -27480.31    4.3900853    4.3900853    4.3900853    -27480.31   -9221.3778   -29384.934   -43834.618    5233.4498   -6847.5619    12683.844    84.609451 
   11000    1623.1719   -111.48089    1.4686801   -110.01221    22069.245    4.3602158    4.3602158    4.3602158    22069.245    70902.241    13973.698   -18668.205    18335.921    521.14861     -14661.4    82.894164 
   11100    1175.6466   -111.12847    1.0637497   -110.06472     7274.934    4.3767975    4.3767975    4.3767975     7274.934     89410.45   -18383.137   -49202.511   -13043.648    14054.004    9402.1252    83.843495 
   11200    1177.0388     -111.128    1.0650095   -110.06299   -11613.603    4.3949576    4.3949576    4.3949576   -11613.603    72652.657   -40881.329   -66612.136   -3840.7966    15054.237   -22381.966    84.891473 
   11300     1674.069    -111.5481    1.5147328   -110.03337    -2032.798    4.3843431    4.3843431    4.3843431    -2032.798     47664.99   -29647.621   -24115.763   -3737.6618    9862.8182    5593.2011    84.277879 
   11400    1326.1604   -111.24618    1.1999378   -110.04624   -11150.718    4.3843328    4.3843328    4.3843328   -11150.718   -10468.611    29496.104   -52479.646    13737.127      25131.1    -2044.776    84.277287 
   11500    1646.1401   -111.53981    1.4894621   -110.05035   -13892.886    4.3790397    4.3790397    4.3790397   -13892.886   -778.22712    2975.9436   -43876.375     -18602.2    12305.807   -356.48785    83.972416 
   11600    1314.7729   -111.24802    1.1896341   -110.05838    2544.2537    4.3837113    4.3837113    4.3837113    2544.2537    69192.475    -22093.41   -39466.303    532.46495    19935.924   -851.28713    84.241452 
   11700    993.02388   -110.94864   0.89850888   -110.05014   -4439.8967    4.3926064    4.3926064    4.3926064   -4439.8967    97191.217   -49450.885   -61060.023    5414.0361    21901.419   -27259.055    84.755298 
   11800    1284.5557   -111.18356     1.162293   -110.02126    18479.444    4.3834371    4.3834371    4.3834371    18479.444    89193.447   -19410.993   -14344.121   -16340.994     9720.289    12962.846    84.225646 
   11900    810.70099   -110.75922   0.73353929   -110.02568    31926.063    4.3804248    4.3804248    4.3804248    31926.063    69404.897    24447.318    1925.9733   -3300.4251    11145.342   -18596.943    84.052125 
   12000    1308.0923   -111.20856    1.1835894   -110.02497    3882.9507    4.3913594    4.3913594    4.3913594    3882.9507    65034.462     10645.67    -64031.28   -24948.761     8609.311   -6096.4645    84.683139 
   12100    1577.1279   -111.45689    1.4270185   -110.02987   -632.72772    4.3866756    4.3866756    4.3866756   -632.72772   -4716.6416    39674.766   -36856.308   -23808.463   -2580.0358   -7773.0905    84.412462 
   12200    1168.0358   -111.09678    1.0568633   -110.03992    15537.542    4.3746801    4.3746801    4.3746801    15537.542    44047.502    7211.1303   -4646.0048   -8468.1245    1050.7524   -16649.966    83.721869 
   12300    1645.5438   -111.53298    1.4889226   -110.04406   -1582.7706    4.3708016    4.3708016    4.3708016   -1582.7706   -19148.994     42270.76   -27870.078   -2572.2022   -8801.9257     15836.62    83.499386 
   12400    1258.1024   -111.20567    1.1383575   -110.06731   -6914.5638    4.3626741    4.3626741    4.3626741   -6914.5638     9231.293   -6316.8862   -23658.098    15953.145   -5555.2364   -19554.858    83.034452 
   12500    1275.1075   -111.23541    1.1537441   -110.08167    23945.843    4.3637577    4.3637577    4.3637577    23945.843   -9798.6766    73875.007    7761.1974   -6613.7565   -3031.9679    6108.0384     83.09634 
   12600    1505.4384   -111.44109    1.3621523   -110.07894   -6166.3494    4.3851705    4.3851705    4.3851705   -6166.3494   -7968.4236    21625.443   -32156.067    7494.0591   -4404.4867   -1200.7019    84.325602 
   12700     1420.233   -111.34769    1.2850567   -110.06263   -42606.292    4.3810571    4.3810571    4.3810571   -42606.292   -4369.1414   -35481.527   -87968.207    2125.4209   -7319.7943   -40459.982    84.088524 
   12800    1609.1767   -111.50098    1.4560169   -110.04496    32295.875    4.3512186    4.3512186    4.3512186    32295.875   -4469.7919     85151.64    16205.776   -8817.1205   -9730.6244     2938.259    82.382072 
   12900    1316.0191   -111.26808    1.1907618   -110.07732    15267.489    4.3689414    4.3689414    4.3689414    15267.489    42787.111    7984.4955   -4969.1389    1934.5231    7574.9652   -16502.678    83.392819 
   13000    1260.5721   -111.21325    1.1405921   -110.07266   -25758.463    4.3852368    4.3852368    4.3852368   -25758.463   -17293.341    15228.011   -75210.059    7180.4786   -22579.344   -23315.791    84.329428 
   13100    1717.9128   -111.60687    1.5544036   -110.05247    4961.2246    4.3655712    4.3655712    4.3655712    4961.2246   -28387.698     44247.14   -975.76787   -11526.484   -12822.582    12704.746    83.199983 
   13200    1326.7322     -111.266    1.2004552   -110.06554   -3418.5439    4.3668193    4.3668193    4.3668193   -3418.5439    14730.674    3216.0492   -28202.355   -12808.324    1876.9367   -20376.752    83.271362 
   13300    1276.1576   -111.23393    1.1546942   -110.07924   -7314.0082    4.3824377    4.3824377    4.3824377   -7314.0082   -29511.388    38017.822    -30448.46    6469.6117   -19702.845   -1988.5273    84.168049 
   13400    1563.6849   -111.47753     1.414855   -110.06268   -5100.2801    4.3891007    4.3891007    4.3891007   -5100.2801   -23500.503    10889.894   -2690.2309   -1842.2369    1675.1285    1531.1443    84.552536 
   13500    1351.8543   -111.28067    1.2231861   -110.05748   -20682.141    4.3675367    4.3675367    4.3675367   -20682.141   -22723.663    14409.663   -53732.423   -10552.874   -15920.096    -32686.88    83.312407 
   13600    1431.3635   -111.36375    1.2951278   -110.06862    4320.9887    4.3556319    4.3556319    4.3556319    4320.9887    2556.9062    34578.207   -24172.147     14882.18   -3159.8172    3331.2104    82.632995 
   13700    1199.7576   -111.18056    1.0855659   -110.09499    7490.6772    4.3897221    4.3897221    4.3897221    7490.6772   -18894.369    69701.032   -28334.631    -19967.93    944.84226   -12542.198    84.588453 
   13800    896.72809   -110.86367   0.81137842   -110.05229   -18277.721    4.4052012    4.4052012    4.4052012   -18277.721   -25067.838    8486.4644   -38251.789   -16663.252   -21101.918   -32949.523    85.486444 
   13900    1757.8935   -111.59076     1.590579   -110.00018    12547.134    4.3712829    4.3712829    4.3712829    12547.134    27268.123   -346.38324    10719.663    8664.4907   -13664.594    6682.5721    83.526972 
   14000    1409.4859   -111.30149    1.2753324   -110.02616   -13504.268    4.3683081    4.3683081    4.3683081   -13504.268   -22992.938    12606.159   -30126.026     7502.644   -8381.8593   -18025.872    83.356562 
   14100    1364.8901   -111.28204    1.2349812   -110.04706   -23384.585     4.385828     4.385828     4.385828   -23384.585   -13685.768   -52415.117   -4052.8704    4441.5209    -11635.98   -13461.629    84.363541 
   14200     1643.554   -111.53548    1.4871222   -110.04836    12168.377    4.3846923    4.3846923    4.3846923    12168.377    7512.9575    50437.522   -21445.347    9239.5244    -14897.71    14737.538    84.298021 
   14300    1321.7133   -111.25323     1.195914   -110.05731   -32638.069    4.3866396    4.3866396    4.3866396   -32638.069    -44100.97   -9018.8093   -44794.428   -4085.3954   -5088.9665   -26604.853     84.41038 
   14400    1734.0567   -111.60918     1.569011   -110.04017   -79.375776    4.3727493    4.3727493    4.3727493   -79.375776   -21326.613     53687.38   -32598.894    14836.849   -8405.5312    1102.6376    83.611062 
   14500    1576.9479   -111.47881    1.4268556   -110.05195    4883.5189    4.3836614    4.3836614    4.3836614    4883.5189   -11608.737    42045.437   -15786.144   -3149.7432   -10434.358    18241.713    84.238574 
   14600    1615.2417   -111.48925    1.4615046   -110.02775   -28707.061    4.4070828    4.4070828    4.4070828   -28707.061   -50013.288    13514.163   -49622.058    1175.9492    -10888.38   -10779.215    85.596033 
   14700       1493.6   -111.35669    1.3514406   -110.00525   -4121.7602    4.3947595    4.3947595    4.3947595   -4121.7602     4969.118    14727.885   -32062.283    7337.1758    15311.915   -1196.6096    84.879995 
   14800    1139.6847   -111.04714    1.0312107   -110.01593    22078.442    4.3780228    4.3780228    4.3780228    22078.442    313.31582    43952.388    21969.621   -883.89049    3180.5708   -3181.2257    83.913928 
   14900     1954.982   -111.81046    1.7689088   -110.04155   -12164.411    4.3889984    4.3889984    4.3889984   -12164.411    -12728.66   -28099.547    4334.9742    -12030.69    9048.4742    4280.3205    84.546622 
   15000    893.60851   -110.86798   0.80855576   -110.05942   -25928.976    4.4057913    4.4057913    4.4057913   -25928.976   -66634.818    35729.021    -46881.13   -13517.866   -6466.5217    35759.701      85.5208 
   15100    1298.3095   -111.21721    1.1747377   -110.04247    1493.9135     4.380634     4.380634     4.380634    1493.9135   -5885.7965    54748.448    -44380.91    228.93042   -6596.4294    2743.1306    84.064165 
   15200    1400.1822   -111.31529    1.2669142   -110.04838     32214.71    4.3610562    4.3610562    4.3610562     32214.71    2141.6815    77594.561    16907.888   -74.529354     8346.481    31875.266    82.942103 
   15300    1132.7649   -111.12022    1.0249495   -110.09527   -8658.4145    4.3860884    4.3860884    4.3860884   -8658.4145   -8699.3168    3256.3011   -20532.228   -13567.504   -3502.1138    19167.859    84.378566 
   15400    1860.8985   -111.74494    1.6837801   -110.06116   -48089.204    4.4037576    4.4037576    4.4037576   -48089.204   -34313.299    -65587.95   -44366.363    2164.4499    12111.432   -1352.9097    85.402429 
   15500    1157.7204   -111.09338    1.0475298   -110.04585    6624.1518    4.3793018    4.3793018    4.3793018    6624.1518    68403.367   -7209.4225   -41321.489   -12705.275   -2906.8821    20521.377    83.987498 
   15600    1935.8669   -111.77774     1.751613   -110.02613   -6143.9077     4.363763     4.363763     4.363763   -6143.9077    8702.4359    -15139.99   -11994.169     71.22071   -5831.7583   -1240.7746    83.096643 
   15700     1143.159   -111.08859    1.0343543   -110.05423    6842.7226    4.3877387    4.3877387    4.3877387    6842.7226     15743.18    -12450.33    17235.318    19657.702   -102.67075   -4435.6673    84.473847 
   15800    987.92316   -110.93266   0.89389364   -110.03877   -15426.032     4.396752     4.396752     4.396752   -15426.032   -34178.697    27537.289   -39636.688   -9068.5649   -27019.712    13283.208    84.995493 
   15900    1824.6218    -111.6729    1.6509561   -110.02195   -16686.369    4.3704674    4.3704674    4.3704674   -16686.369   -21691.973   -1474.0857   -26893.049    18443.949   -13032.525   -12355.478    83.480232 
   16000    937.71269   -110.91634   0.84846215   -110.06788    19219.619    4.3632335    4.3632335    4.3632335    19219.619    63351.453    10718.789   -16411.384   -12244.818   -10245.046    27552.902    83.066396 
   16100    1333.3751   -111.30335    1.2064658   -110.09688    912.10132    4.3804454    4.3804454    4.3804454    912.10132   -38014.548    5488.4019     35262.45    13062.149   -21413.126    10116.107    84.053308 
   16200    1497.5518   -111.43423    1.3550164   -110.07921    -19542.19    4.3990363    4.3990363    4.3990363    -19542.19    28603.311     -47645.9   -39583.981    11553.165    1491.5022    9216.0012    85.128041 
   16300     1317.576   -111.23477    1.1921704   -110.04259   -25269.119    4.3983019    4.3983019    4.3983019   -25269.119   -29909.201    -5319.032   -40579.123    9831.3401   -12185.679    14746.334    85.085415 
   16400    1083.3786   -111.00278   0.98026372   -110.02251    30095.945    4.3725593    4.3725593    4.3725593    30095.945     22225.27     29180.23    38882.336    22126.103   -13534.557    1717.4331    83.600161 
   16500    1634.7791   -111.51971    1.4791825   -110.04053   -10344.817    4.3690529    4.3690529    4.3690529   -10344.817    13835.892     -2985.39   -41884.952    16250.877    1924.4668    28732.136    83.399206 
   16600    1251.9743   -111.19188    1.1328127   -110.05907    5112.6832    4.3857103    4.3857103    4.3857103    5112.6832    26917.155    26911.422   -38490.527    4853.4976   -13366.633    766.60245    84.356746 
   16700    1276.6986   -111.20884    1.1551838   -110.05366     -9334.88    4.3838871    4.3838871    4.3838871     -9334.88   -24944.396   -10049.662    6989.4178   -18011.117   -3377.2788    7565.4898    84.251588 
   16800    1387.9256   -111.30287    1.2558243   -110.04705   -7816.5527    4.3796902    4.3796902    4.3796902   -7816.5527    31712.401    -7710.422   -47451.637    14051.564   -11859.572    12856.144    84.009845 
   16900    1676.3372   -111.56322    1.5167851   -110.04644     3610.451    4.3786996    4.3786996    4.3786996     3610.451    13188.677   -340.30101   -2017.0232    -8850.883   -1452.5644   -17786.417    83.952852 
   17000    1514.3463   -111.42917    1.3702123   -110.05895   -22844.136    4.3982675    4.3982675    4.3982675   -22844.136   -14829.548   -33371.893   -20330.968   -677.19217   -6861.4851    11565.324    85.083413 
   17100    1985.6657   -111.81742     1.796672   -110.02075   -39837.718    4.4112581    4.4112581    4.4112581   -39837.718   -43010.026   -55590.209   -20912.919    12362.735   -13908.152   -17934.976    85.839543 
   17200    1206.8778   -111.09244    1.0920084   -110.00043    2322.1237    4.3939016    4.3939016    4.3939016    2322.1237    5299.9312   -8740.5213    10406.961    6585.6739   -19710.961    3688.7987    84.830297 
   17300    2162.3931   -111.94455    1.9565787   -109.98798   -24553.071    4.3818475    4.3818475    4.3818475   -24553.071   -17576.447    -10895.39   -45187.378    1785.3991    -10813.57   -12558.311    84.134048 
   17400    1542.9026   -111.42094    1.3960507   -110.02489    8719.4325    4.3832689    4.3832689    4.3832689    8719.4325    20663.656   -5902.0941    11396.735    17069.118   -19108.712   -13553.226    84.215949 
   17500     1281.344   -111.20687     1.159387   -110.04748   -1711.5816    4.4018038    4.4018038    4.4018038   -1711.5816   -2823.3574    -1694.019   -617.36834    5571.7719   -17349.178    4737.0119    85.288806 
   17600    1665.0745   -111.52193    1.5065944   -110.01533   -26392.179    4.4064232    4.4064232    4.4064232   -26392.179   -22848.159   -6666.9172   -49661.461    9956.4201    1878.0122   -8808.7986    85.557602 
   17700    1671.4023   -111.51784    1.5123199   -110.00552   -11879.277    4.3771383    4.3771383    4.3771383   -11879.277   -13267.037   -24088.217     1717.422   -2140.8703    5107.9452    9414.9152    83.863082 
   17800     1475.939   -111.36705    1.3354606   -110.03159    23707.152     4.369375     4.369375     4.369375    23707.152    48540.391     3267.383    19313.683    1797.4819   -5385.4435    1702.4712    83.417649 
   17900    1228.1316   -111.17514    1.1112393    -110.0639   -14287.276    4.3908398    4.3908398    4.3908398   -14287.276   -25612.037   -30894.596    13644.805    16920.782    11358.197    9933.3981     84.65308 
   18000    1176.4272   -111.10801     1.064456   -110.04356   -4419.8507    4.3840223    4.3840223    4.3840223   -4419.8507    26969.996    -41060.92    831.37194   -6031.9618    12034.005    20123.352    84.259381 
   18100    1934.6654   -111.77804    1.7505259   -110.02751   -8179.8773    4.3722783    4.3722783    4.3722783   -8179.8773   -41850.197    16421.727     888.8384   -5801.0938    7651.0566   -2150.2004    83.584046 
   18200    869.96545   -110.83548   0.78716302   -110.04832    1308.0285    4.3903881    4.3903881    4.3903881    1308.0285     32121.86   -19639.414   -8558.3602    683.74098    7847.6661    43918.073     84.62696 
   18300    1422.2787   -111.30768    1.2869077   -110.02077   -9265.7836    4.3831454    4.3831454    4.3831454   -9265.7836    2772.8971   -40033.468    9463.2203   -6345.9074   -3978.8222    21015.456    84.208832 
   18400    1792.1982   -111.63675    1.6216186   -110.01514   -28534.372    4.3747743    4.3747743    4.3747743   -28534.372   -48012.861    -33986.63   -3603.6241    6864.1664    19688.719   -13196.136    83.727274 
   18500    962.63315   -110.90811    0.8710107    -110.0371    7733.0043    4.3803402    4.3803402    4.3803402    7733.0043    14501.122   -38301.924    46999.815   -33.467605   -1332.6083    35719.335    84.047252 
   18600    1431.9643   -111.34061    1.2956714   -110.04493    14225.792    4.3806466    4.3806466    4.3806466    14225.792    -36879.23    58430.637    21125.969    2480.8619    5192.3704    11852.686    84.064891 
   18700    1555.2761   -111.46149    1.4072465   -110.05424    -36583.85    4.3896299    4.3896299    4.3896299    -36583.85   -31298.979   -35083.238   -43369.334    1703.0652    5032.4668    2506.1364    84.583126 
   18800    1369.4983   -111.28492    1.2391509   -110.04577   -14689.597    4.3749024    4.3749024    4.3749024   -14689.597   -39920.698    20478.096    -24626.19    3323.7606    8530.9462    23105.156    83.734629 
   18900    1303.0662   -111.22945    1.1790417   -110.05041    39636.357    4.3572116    4.3572116    4.3572116    39636.357     45502.12    23887.128    49519.824    14977.243   -9915.5283   -2069.5139    82.722941 
   19000    1458.9662   -111.39544    1.3201032   -110.07534    6765.9065    4.3711823    4.3711823    4.3711823    6765.9065    1328.2185    16950.504    2018.9973   -1249.1669    3137.7276    20076.124    83.521207 
   19100    1786.1426   -111.67991    1.6161394   -110.06377   -28615.331    4.3878353    4.3878353    4.3878353   -28615.331   -46042.476   -19544.741   -20258.776    16147.265   -4627.2682   -15122.956    84.479426 
   19200     1193.974   -111.12556    1.0803328   -110.04523    5663.0025    4.3797069    4.3797069    4.3797069    5663.0025    -11901.23    19695.355    9194.8824    6377.0821   -10565.225    12897.209    84.010806 
   19300    1219.4853   -111.14747    1.1034159   -110.04406    22130.681    4.3700621    4.3700621    4.3700621    22130.681   -12535.163    92403.959   -13476.753   -17333.636    402.89914    21936.343    83.457011 
   19400    1539.6044   -111.45385    1.3930665   -110.06078   -7673.5446    4.3801046    4.3801046    4.3801046   -7673.5446   -36766.305    40419.848   -26674.176    13602.603   -1161.7748   -26667.073    84.033692 
   19500    1369.0354   -111.30608     1.238732   -110.06735   -9175.0499    4.3784179    4.3784179    4.3784179   -9175.0499   -41136.363    19357.684   -5746.4709   -8904.3832   -10332.664     24410.39    83.936652 
   19600    1682.9715   -111.58109    1.5227879    -110.0583    13775.715    4.3610069    4.3610069    4.3610069    13775.715   -34907.768    70990.702      5244.21   -8626.1608    -7007.648    1392.9429    82.939294 
   19700    1367.7845   -111.32074    1.2376001   -110.08314    2791.2916     4.369851     4.369851     4.369851    2791.2916   -6292.3044    2301.6218    12364.558     19422.08   -384.62513   -12100.442    83.444919 
   19800    1341.2222   -111.29164     1.213566   -110.07807   -21913.766    4.3905885    4.3905885    4.3905885   -21913.766   -43826.305     20934.67   -42849.662   -981.30023   -8765.2359   -99.601004    84.638547 
   19900    1404.7941   -111.33335    1.2710872   -110.06226   -4403.8941    4.3724994    4.3724994    4.3724994   -4403.8941   -14826.828   -5339.9619    6955.1074    22188.771   -1075.6245   -8528.2676    83.596727 
   20000     1337.832   -111.26873    1.2104985   -110.05823    15468.803    4.3566673    4.3566673    4.3566673    15468.803   -27556.424    23313.583    50649.251    4543.2717   -12196.953   -3738.3703    82.691941 
   20100    1713.2004   -111.62608    1.5501397   -110.07594    -12817.09     4.372533     4.372533     4.372533    -12817.09   -14330.359   -199.38897   -23921.521    7743.4801   -7460.7824    26928.577    83.598657 
   20200    1292.9595   -111.25438    1.1698969   -110.08448   -20437.478    4.3809464    4.3809464    4.3809464   -20437.478   -17146.222    -64896.25    20730.036    20613.803    3096.3512     -6369.36    84.082153 
   20300    1084.8087   -111.06861   0.98155771   -110.08705    24616.805    4.3796411    4.3796411    4.3796411    24616.805    7603.1462    37745.979     28501.29   -3245.1351   -12592.102    12876.765    84.007018 
   20400    1855.3393   -111.74829      1.67875   -110.06954   -31091.457    4.3842041    4.3842041    4.3842041   -31091.457   -37908.066   -40464.545   -14901.759   -2050.2891   -999.46555   -7550.4289    84.269862 
   20500    1329.7318   -111.25513    1.2031693   -110.05196   -6011.1727    4.3798985    4.3798985    4.3798985   -6011.1727   -25356.736   -4428.7663    11751.984    3306.2644    1846.7175    -16735.51     84.02183 
   20600    982.61326   -110.92904   0.88908913   -110.03995     53833.68     4.378429     4.378429     4.378429     53833.68    1995.3644    123174.77    36330.906    9200.3429   -6279.8115     2324.363    83.937289 
   20700     1545.374   -111.44403    1.3982869   -110.04574   -38586.599    4.3960025    4.3960025    4.3960025   -38586.599   -62495.754   -22047.248   -31216.796   -2272.9038    7225.7965   -8781.5817    84.952034 
   20800    1740.2019   -111.61316    1.5745712   -110.03858   -6946.9053    4.3713493    4.3713493    4.3713493   -6946.9053   -43389.522    49074.117   -26525.311   -9569.7807     5869.382    -15295.13    83.530778 
   20900     1538.008   -111.43292     1.391622    -110.0413    31884.961    4.3504829    4.3504829    4.3504829    31884.961   -7347.7975    54871.418    48131.262    9772.4177   -12634.485    21735.195    82.340289 
   21000    1373.3858    -111.3246    1.2426683   -110.08193   -712.25536    4.3780748    4.3780748    4.3780748   -712.25536   -47075.878     50051.98    -5112.868   -20873.026    5103.3135   -3300.9902    83.916917 
   21100    1047.6948   -111.01281   0.94797623   -110.06484   -10173.168    4.4026292    4.4026292    4.4026292   -10173.168   -81245.436    5955.9291    44770.002    8312.7376    4803.7146    18998.805    85.336794 
   21200    1508.4203   -111.42716    1.3648503   -110.06231   -37447.872    4.3745727    4.3745727    4.3745727   -37447.872   -60729.763   -53186.735    1572.8817    20539.898    4228.0949    11370.515    83.715702 
   21300    1229.2882   -111.16697    1.1122858   -110.05469    66940.019    4.3346815    4.3346815    4.3346815    66940.019   -16777.203    82772.667    134824.59   -23316.225    8881.3369   -17828.137    81.446342 
   21400    1732.6315   -111.66567    1.5677214   -110.09795   -8779.4885     4.364933     4.364933     4.364933   -8779.4885   -36793.727    15450.453   -4995.1915    32744.434   -917.84372   -2064.5082    83.163495 
   21500    1455.8175    -111.3877    1.3172543   -110.07044   -36957.161    4.3997513    4.3997513    4.3997513   -36957.161   -55355.848     -40776.1   -14739.536    -14607.44   -380.08015    7217.7969    85.169555 
   21600    1380.7535   -111.28306    1.2493348   -110.03372    4853.6464    4.3864277    4.3864277    4.3864277    4853.6464   -38563.848    38977.309    14147.478   -14752.996    6536.2938    8697.8617    84.398151 
   21700    1017.4334   -110.93533   0.92059513   -110.01473    43290.916    4.3543856    4.3543856    4.3543856    43290.916    7881.3159    81522.968    40468.465    -2645.772    14225.563    18465.434    82.562084 
   21800    1802.7732   -111.66927    1.6311871   -110.03808   -10251.236     4.366961     4.366961     4.366961   -10251.236   -2139.8024   -21948.263   -6665.6417   -15931.203   -9390.6537     10067.68    83.279465 
   21900     1502.695   -111.40074      1.35967   -110.04107   -17796.713    4.3942438    4.3942438    4.3942438   -17796.713   -54502.535    6660.4148   -5548.0195    12936.977   -5434.5705   -5593.9395     84.85012 
   22000    1332.8109   -111.23651    1.2059553   -110.03056   -28220.515     4.384985     4.384985     4.384985   -28220.515   -74483.364   -12700.023    2521.8418    -28453.87    5256.4209     10832.94    84.314902 
   22100    1542.5754   -111.41907    1.3957546   -110.02332    11275.586    4.3619653    4.3619653    4.3619653    11275.586   -4093.8976   -10862.996     48783.65   -1035.7496   -12171.784   -21831.324    82.993984 
   22200    1476.9312   -111.38508    1.3363584   -110.04872   -1951.2579    4.3566085    4.3566085    4.3566085   -1951.2579    2784.6952   -20434.494    11796.025    6079.4326   -1937.4182   -10596.261    82.688594 
   22300     1681.585   -111.59668    1.5215334   -110.07515    1362.0185    4.3740835    4.3740835    4.3740835    1362.0185   -31646.565   -26426.687    62159.307   -18063.198   -13239.343   -3990.9989    83.687615 
   22400    1456.2944   -111.37502    1.3176857   -110.05734   -39383.281    4.3912878    4.3912878    4.3912878   -39383.281   -68778.938   -23515.232   -25855.674    3839.4209   -18499.673   -14387.983    84.678995 
   22500    1317.3357   -111.24086    1.1919531   -110.04891   -1164.2964    4.3586882    4.3586882    4.3586882   -1164.2964   -20423.425   -26652.332    43582.868   -24532.238   -3420.7651   -13578.958     82.80707 
   22600    1632.9047   -111.52891    1.4774865   -110.05143    40262.822    4.3495021    4.3495021    4.3495021    40262.822     13969.96     42474.24    64344.266    2230.0644   -14341.755    15740.616    82.284612 
   22700    709.69994   -110.73153   0.64215142   -110.08938    10184.743    4.3742803    4.3742803    4.3742803    10184.743   -29301.098   -47727.806    107583.13   -21555.752   -4810.6699   -12450.603    83.698914 
   22800    1525.6244   -111.44418     1.380417   -110.06376   -7432.4922      4.39181      4.39181      4.39181   -7432.4922   -15014.883   -27911.822    20629.228   -820.86692   -10296.216    8907.6606    84.709208 
   22900    955.21642   -110.90378   0.86429989   -110.03948    1401.6984     4.387054     4.387054     4.387054    1401.6984   -22680.471   -38603.831    65489.397   -13526.481   -23383.158   -2208.6784    84.434305 
   23000    782.88728   -110.76926   0.70837287   -110.06088    18308.894    4.3555482    4.3555482    4.3555482    18308.894    6829.5191   -12343.864    60441.027   -36473.119   -10188.511   -8282.0253    82.628233 
   23100    2009.8603   -111.87982    1.8185638   -110.06125     20440.33     4.349246     4.349246     4.349246     20440.33     43026.06    9685.3573    8609.5735    4926.9043   -6670.8874   -16039.461    82.270081 
   23200    966.52098   -110.97626    0.8745285   -110.10173   -8960.1959     4.386837     4.386837     4.386837   -8960.1959   -5795.9084   -29707.101    8622.4217   -29970.237   -21339.321   -9238.2032    84.421778 
   23300     1319.768    -111.2572    1.1941538   -110.06304    6570.8309     4.398371     4.398371     4.398371    6570.8309   -4569.7531   -32651.492    56933.738    6726.8406     8884.009   -10443.732    85.089423 
   23400     1629.762    -111.5171    1.4746429   -110.04245   -20164.581    4.3779352    4.3779352    4.3779352   -20164.581   -28550.507    -9788.687   -22154.549   -17478.493    153.37227    18374.162    83.908891 
   23500    1604.2305   -111.49998    1.4515415   -110.04844    1728.9676    4.3668873    4.3668873    4.3668873    1728.9676     5416.201    9332.2218     -9561.52   -2950.9522    941.64542   -38.344483     83.27525 
   23600    1646.1814   -111.55453    1.4894995   -110.06503    299.76575    4.3678033    4.3678033    4.3678033    299.76575    8226.0577   -29757.915    22431.154    7336.4758    12943.099    9739.7894    83.327668 
   23700    727.18519   -110.76232   0.65797244   -110.10434   -2945.5088    4.3756877    4.3756877    4.3756877   -2945.5088   -50647.599    18682.169    23128.904   -16816.132    231.31289    5732.7319    83.779727 
   23800    2306.3274   -112.16292    2.0868135    -110.0761   -19351.803    4.3717192    4.3717192    4.3717192   -19351.803   -20156.927   -31171.771    -6726.711    19665.902   -15437.947   -10469.542    83.551988 
   23900     1052.183   -111.01812   0.95203728   -110.06608    23411.453    4.3604311    4.3604311    4.3604311    23411.453   -3700.2135     12280.84    61653.732   -11088.589    7874.8801    9350.2303    82.906441 
   24000    1459.6846   -111.39209    1.3207533   -110.07133   -10535.044    4.3811821    4.3811821    4.3811821   -10535.044   -23416.465   -32395.748     24207.08    4932.5058    3366.0055    1177.2484    84.095721 
   24100    1618.5815   -111.51165    1.4645266   -110.04712   -40808.681    4.3887507    4.3887507    4.3887507   -40808.681   -72363.958   -56061.233    5999.1477    13314.277   -20612.573   -2357.7745     84.53231 
   24200    1193.3035   -111.12007    1.0797261   -110.04035    10664.705    4.3583857    4.3583857    4.3583857    10664.705   -19562.738    5236.2051    46320.649   -26077.286    3813.7612    1625.4915    82.789828 
   24300    1783.2493   -111.65644    1.6135214   -110.04291    14941.936    4.3596133    4.3596133    4.3596133    14941.936    7218.7217   -89.450691    37696.538    21491.864   -4526.5391   -9305.4633    82.859803 
   24400    728.81701   -110.72681   0.65944895   -110.06736   -32865.966    4.3737967    4.3737967    4.3737967   -32865.966   -70733.001   -58178.446     30313.55   -8820.5482   -2199.4401   -5258.0585    83.671156 
   24500    1824.4885   -111.69756    1.6508355   -110.04672   -1975.5291    4.3567263    4.3567263    4.3567263   -1975.5291    -28760.65    4059.1212    18774.942   -9882.4115    20529.815   -6184.4563    82.695301 
   24600    1224.8918   -111.17433    1.1083079   -110.06602   -5557.1599    4.3676874    4.3676874    4.3676874   -5557.1599   -28610.695   -23108.044    35047.258    14277.325    -10023.44    15308.669    83.321033 
   24700    1319.3371    -111.2466     1.193764   -110.05283   -41817.575    4.3785123    4.3785123    4.3785123   -41817.575   -48678.248   -45954.367    -30820.11   -9910.4676    4575.9612   -2297.9185    83.942078 
   24800    1676.3485   -111.54712    1.5167953   -110.03032    26928.965    4.3515124    4.3515124    4.3515124    26928.965   -5642.0443     53284.06    33144.879    11442.853    10635.383   -3658.7558    82.398758 
   24900    1156.6334   -111.10634    1.0465462   -110.05979   -19446.265    4.3591214    4.3591214    4.3591214   -19446.265   -52130.049   -35801.608    29592.863   -17931.598   -19538.993     5950.599    82.831759 
   25000    1713.8452   -111.59635    1.5507232   -110.04562    -16831.51    4.3793947    4.3793947    4.3793947    -16831.51   -3886.2423   -18529.995   -28078.294    7803.8303    2109.2368   -3840.1727    83.992842 
   25100    1661.4057   -111.54151    1.5032748   -110.03823    7153.2094    4.3613433    4.3613433    4.3613433    7153.2094     -45242.4    39989.567    26712.462   -2666.7676   -12021.385   -2725.9796    82.958487 
   25200    1217.9951   -111.16254    1.1020676   -110.06047    9169.1493    4.3593684    4.3593684    4.3593684    9169.1493     32652.38   -20705.905    15560.973   -6588.8062    6253.1058   -8589.3259    82.845842 
   25300    1916.1318   -111.78499    1.7337563   -110.05124   -29248.935    4.3867823    4.3867823    4.3867823   -29248.935   -295.19091   -38447.139   -49004.474    8191.5852    306.19769   -8117.4882    84.418618 
   25400    1274.6248    -111.1895    1.1533073   -110.03619   -35356.504    4.3816968    4.3816968    4.3816968   -35356.504   -44361.082   -23343.429   -38364.999   -4209.8075   -11829.243   -1435.0573    84.125368 
   25500    1817.8098   -111.65909    1.6447925    -110.0143    28072.353    4.3626457    4.3626457    4.3626457    28072.353    27109.723     47238.16    9869.1751   -21285.621    6112.0997   -16809.192    83.032829 
   25600    1451.4629   -111.34336    1.3133142   -110.03004   -9293.1158    4.3736311    4.3736311    4.3736311   -9293.1158   -15294.936   -529.56605   -12054.845   -21968.206   -11691.349   -19513.018    83.661653 
   25700    1048.4736   -110.98658   0.94868096    -110.0379   -14550.899    4.3728291    4.3728291    4.3728291   -14550.899   -78288.222    36869.113   -2233.5866   -19767.849   -3437.0464   -15426.685    83.615638 
   25800    1683.0808   -111.56534    1.5228869   -110.04246     20031.26    4.3644671    4.3644671    4.3644671     20031.26    5925.0467    63395.896   -9227.1617     12450.49     398.0744   -11883.175    83.136868 
   25900    977.51349   -110.95178   0.88447475   -110.06731    28336.892    4.3596387    4.3596387    4.3596387    28336.892      -9014.4     63445.78    30579.297   -1182.8963   -202.93295   -15571.417    82.861253 
   26000    1500.4872   -111.43057    1.3576723    -110.0729   -7813.1106    4.3720595    4.3720595    4.3720595   -7813.1106    -33949.22   -14537.121     25047.01   -13772.297     3465.155   -724.84923    83.571497 
   26100    1449.2257   -111.37217    1.3112898   -110.06088   -3681.3476    4.3723265    4.3723265    4.3723265   -3681.3476   -28213.897    19705.952    -2536.098     606.6699   -8448.0253   -7901.4782    83.586813 
   26200    1029.5363   -110.98878   0.93154604   -110.05724    7893.9883    4.3596396    4.3596396    4.3596396    7893.9883   -44776.111     17067.61    51390.467   -13648.005   -9711.0928    1987.5567    82.861305 
   26300    1624.4798    -111.5263    1.4698634   -110.05643    14710.389    4.3696562    4.3696562    4.3696562    14710.389   -7307.6975    15259.144    36179.722    1835.4743    -240.1194   -16740.806     83.43376 
   26400    1235.2353   -111.17365    1.1176668   -110.05598   -12512.605    4.3704063    4.3704063    4.3704063   -12512.605   -55601.252   -11281.604     29345.04   -10511.396    -5515.921    6148.0577    83.476733 
   26500    1324.6981   -111.24748    1.1986147   -110.04887    3197.7042    4.3502208    4.3502208    4.3502208    3197.7042    2134.3093    -5249.019    12707.823   -26367.279   -7511.9069   -4182.8226     82.32541 
   26600    1617.5256   -111.52805    1.4635712   -110.06448    9322.2314    4.3662344    4.3662344    4.3662344    9322.2314    26123.925    11958.148   -10115.379    950.94312    23328.936   -4003.9677    83.237903 
   26700    1199.5803   -111.16062    1.0854055   -110.07521   -29839.717    4.3768625    4.3768625    4.3768625   -29839.717   -20284.342   -44108.746   -25126.063    -36789.27    4611.7788    4433.7795    83.847226 
   26800    1695.2092   -111.58318    1.5338609   -110.04932    11513.731    4.3622361    4.3622361    4.3622361    11513.731    34832.871   -11515.065    11223.387   -11881.398   -3475.9876    11912.729    83.009444 
   26900    888.73184   -110.87083   0.80414325   -110.06669   -3112.3483    4.3679999    4.3679999    4.3679999   -3112.3483   -18617.859   -24443.589    33724.403   -14334.826    18472.115    3793.5559     83.33892 
   27000    1425.3041   -111.35927    1.2896451   -110.06963   -17791.087    4.3671069    4.3671069    4.3671069   -17791.087   -16576.563   -39108.036    2311.3364    -31220.72    -12827.38    10735.071    83.287814 
   27100    1720.3752    -111.6315    1.5566316   -110.07487    14188.525    4.3615008    4.3615008    4.3615008    14188.525    33614.515    5052.0066    3899.0525    16476.082   -5558.5246   -4998.5275    82.967476 
   27200    1075.0727   -111.06264   0.97274834   -110.08989    4570.4839    4.3569231    4.3569231    4.3569231    4570.4839   -44262.211   -2074.2872     60047.95   -39015.039    632.79672    8255.9677     82.70651 
   27300    1304.8909   -111.26326    1.1806927   -110.08257     19593.68    4.3683322    4.3683322    4.3683322     19593.68    80753.715    -9053.775   -12918.899    7303.0546   -18217.884    -13306.49    83.357938 
   27400    1560.4454   -111.47656    1.4119238   -110.06464   -6966.1849      4.37506      4.37506      4.37506   -6966.1849   -16799.306    5022.3226   -9121.5714    6820.2234    1269.1113    3646.8447    83.743681 
   27500    1201.7357   -111.15204    1.0873557   -110.06469    15480.583    4.3604694    4.3604694    4.3604694    15480.583    28264.496    16092.353    2084.9004   -35835.082    15973.278   -9315.8612    82.908628 
   27600    1613.3907   -111.52674    1.4598298   -110.06691    20902.179    4.3540406    4.3540406    4.3540406    20902.179    22136.892    8290.0817    32279.563    16018.225   -9800.6167    3324.5283    82.542463 
   27700    1263.0702   -111.21955    1.1428524    -110.0767    9182.4297    4.3570532    4.3570532    4.3570532    9182.4297   -27154.922    32824.146    21878.065   -24513.075    6155.3506   -8010.5978    82.713917 
   27800    1257.9728    -111.2182    1.1382402   -110.07996   -3366.8148    4.3885051    4.3885051    4.3885051   -3366.8148   -33829.596   -8939.4287     32668.58   -15370.221    5341.6856   -2746.5046    84.518117 
   27900    1609.9238   -111.50008    1.4566928   -110.04338    4303.1856    4.3831009    4.3831009    4.3831009    4303.1856   -35966.977    30725.643    18150.892    837.14174   -3794.6127   -4443.5884    84.206265 
   28000    1405.5088   -111.29735    1.2717339   -110.02562    273.70771    4.3525748    4.3525748    4.3525748    273.70771   -36133.968    32940.293    4014.7977   -26912.453    8173.2195    7065.2147    82.459124 
   28100     1653.611   -111.53816     1.496222   -110.04194    25112.301     4.361397     4.361397     4.361397    25112.301   -2921.6402    14676.315    63582.229   -2861.6756     7601.403    1746.5481    82.961551 
   28200    1036.7997   -111.00545   0.93811813   -110.06733    7230.1909    4.3806046    4.3806046    4.3806046    7230.1909    -73243.43    78126.307    16807.696   -31028.344    4478.3018    11965.628    84.062472 
   28300    1632.2115   -111.53479    1.4768593   -110.05793   -22110.819    4.3871005    4.3871005    4.3871005   -22110.819   -50785.005     -10057.9   -5489.5537   -7883.9544    4084.9435   -3779.2662    84.436993 
   28400    1534.9463   -111.43306    1.3888516   -110.04421    31129.748    4.3558917    4.3558917    4.3558917    31129.748   -24513.927    68966.706    48936.465   -10465.473    8355.0823    8441.8334    82.647784 
   28500    1002.2696   -110.96038   0.90687461   -110.05351    5961.1017    4.3461131    4.3461131    4.3461131    5961.1017   -15694.951   -11895.841    45474.097   -26238.334    7752.3933   -4059.3192    82.092421 
   28600    1756.5809   -111.64831    1.5893913   -110.05891   -2335.0795    4.3755163    4.3755163    4.3755163   -2335.0795   -9937.0681    -12496.82    15428.649     21153.06    2176.4455    8173.8938    83.769886 
   28700    756.48291   -110.73464   0.68448164   -110.05016     10986.37    4.3831148    4.3831148    4.3831148     10986.37   -68345.358    33699.196     67605.27   -34170.431    25028.577    7879.7748    84.207068 
   28800    1595.9704   -111.47755    1.4440676   -110.03348   -26794.396    4.3705465    4.3705465    4.3705465   -26794.396   -32223.475   -40456.088   -7703.6233    24353.936    24462.308    1770.5786    83.484768 
   28900     1266.297   -111.17775    1.1457722   -110.03198    40235.111    4.3469639    4.3469639    4.3469639    40235.111    11317.701    57270.439    52117.193   -5184.7247   -10378.908    11883.345    82.140644 
   29000    1381.5033   -111.32044    1.2500132   -110.07042   -39575.057    4.3645506    4.3645506    4.3645506   -39575.057   -58534.085   -51834.863   -8356.2228   -23788.098    22936.412    3763.1836    83.141639 
   29100    1527.7445   -111.43307    1.3823353   -110.05073   -5507.8227    4.3800545    4.3800545    4.3800545   -5507.8227   -762.80661   -16047.487    286.82521    13550.924   -354.91356    11623.796     84.03081 
   29200     1169.823   -111.09407    1.0584804   -110.03559     33222.37     4.358805     4.358805     4.358805     33222.37    22891.862    87733.573   -10958.324   -22121.264    7752.2657     2281.583    82.813726 
   29300    1667.1069   -111.55732    1.5084334   -110.04888   -5861.4208    4.3689561    4.3689561    4.3689561   -5861.4208   -21369.105   -2608.5425    6393.3848    17161.501    18499.873    2764.9449     83.39366 
   29400    1683.3421   -111.56259    1.5231233   -110.03947   -8373.4321    4.3779758    4.3779758    4.3779758   -8373.4321    7095.4506   -275.87169   -31939.875    2290.1775    2234.9813    10350.865    83.911224 
   29500    895.19037    -110.8511   0.80998706   -110.04111    41638.692    4.3622475    4.3622475    4.3622475    41638.692    26833.513    80453.252     17629.31    -11912.81    3700.2833    6454.7803    83.010094 
   29600    1908.6933   -111.76793    1.7270258   -110.04091    -12722.95    4.3800986    4.3800986    4.3800986    -12722.95   -3843.9031   -932.65564    -33392.29    10338.301    8566.4714    3484.3859    84.033346 
   29700    1543.7062   -111.43238    1.3967778    -110.0356   -11928.562     4.378114     4.378114     4.378114   -11928.562    -16384.43    8010.5989   -27411.856   -21333.508    4586.3625    8288.9615    83.919174 
   29800    1060.9591   -110.99456   0.95997807   -110.03458    31269.284    4.3662915    4.3662915    4.3662915    31269.284    85007.886    7917.9382    882.02956   -11835.183    20909.651    11099.954    83.241173 
   29900    1706.6148   -111.59112    1.5441809   -110.04694   -5033.3361    4.3774255    4.3774255    4.3774255   -5033.3361   -12591.486    2878.3519   -5386.8743   -7872.0114    6382.8572    12975.454    83.879588 
   30000    908.85381   -110.86964   0.82235002   -110.04729    21842.624    4.3708998    4.3708998    4.3708998    21842.624    69111.983    13648.476   -17232.587   -45923.794    2898.2191    7951.3611    83.505014 
   30100    1473.3838   -111.38622    1.3331487   -110.05307    12004.005    4.3776933    4.3776933    4.3776933    12004.005   -40030.037    98156.864   -22114.813    3169.4466    11838.305    18675.977    83.894986 
   30200    914.01935    -110.8831   0.82702391   -110.05608    8820.7176    4.3844166    4.3844166    4.3844166    8820.7176   -27521.549    54510.882   -527.18115   -27706.753     1424.226    29113.034    84.282116 
   30300    1402.8825   -111.30194    1.2693575   -110.03258    15870.564    4.3822886    4.3822886    4.3822886    15870.564   -2240.8027    9737.1445     40115.35    1551.9836    14381.929    27150.951    84.159459 
   30400    1390.1453   -111.28425    1.2578327   -110.02642   -15761.654    4.4011633    4.4011633    4.4011633   -15761.654   -67033.153   -42862.403    62610.595   -8638.2186    4837.3654    21828.783     85.25158 
   30500    836.47099   -110.76996   0.75685653    -110.0131    11833.813    4.3911179    4.3911179    4.3911179    11833.813   -69078.598   -10228.758     114808.8   -15330.347    13546.899    32235.945    84.669169 
   30600    1113.8073   -111.00505    1.0077962   -109.99726    58497.496    4.3479746    4.3479746    4.3479746    58497.496     17049.25    34001.002    124442.24   -11675.191    25868.527    27157.168    82.197951 
   30700    1181.2275   -111.12764    1.0687995   -110.05884    11469.524    4.3710355    4.3710355    4.3710355    11469.524    21031.011    -6248.947    19626.509    -38105.02     5958.527    18865.763    83.512789 
   30800    1510.6802   -111.38993    1.3668952   -110.02304   -15134.699    4.4042154    4.4042154    4.4042154   -15134.699    -49428.41    4104.4862   -80.172068    563.16622    15108.241    19566.122    85.429066 
   30900    781.78927   -110.71103   0.70737936   -110.00365    33124.165     4.374948     4.374948     4.374948    33124.165    1336.3963    14853.727    83182.372   -45009.353     6936.486     20063.18    83.737248 
   31000    1624.1667   -111.44655    1.4695802   -109.97697    29580.103    4.3659843    4.3659843    4.3659843    29580.103    36456.095    169.95584    52114.258    6922.9719    15604.386    16948.921    83.223602 
   31100    983.78657   -110.90389   0.89015077   -110.01374    8979.7984    4.3731504    4.3731504    4.3731504    8979.7984     4128.748    7755.0176    15055.629   -52250.785    12363.052    5321.8461    83.634069 
   31200    1539.8112   -111.41838    1.3932535   -110.02513    4715.7483    4.3885977    4.3885977    4.3885977    4715.7483    35190.109   -29932.262    8889.3983   -8239.0289     11559.13     6587.575    84.523468 
   31300    1586.9041   -111.45672    1.4358642   -110.02085   -35944.879    4.3926869    4.3926869    4.3926869   -35944.879   -54662.032   -12398.996   -40773.609   -26571.206    4111.9169   -1437.9097     84.75996 
   31400    1739.0161   -111.57787    1.5734983   -110.00437   -6003.6871    4.3599202    4.3599202    4.3599202   -6003.6871   -7935.5565   -6546.4617   -3529.0431    -17343.39   -12963.611   -9714.3956    82.877307 
   31500    1615.6291   -111.48165    1.4618551   -110.01979   -18522.427     4.372472     4.372472     4.372472   -18522.427   -27048.499   -20682.913   -7835.8671   -2514.8409   -7951.6477    3984.1836    83.595154 
   31600    1554.6276   -111.41594    1.4066598   -110.00928    -55057.54    4.4020446    4.4020446    4.4020446    -55057.54    -94920.96   -75753.438    5501.7776   -33768.478   -17088.994   -9572.2242    85.302806 
   31700    1952.3909   -111.73992    1.7665643   -109.97336   -33119.824    4.3901125    4.3901125    4.3901125   -33119.824    4061.3337   -51238.584   -52182.221     11721.48   -9004.8009    7355.5976    84.611026 
   31800    1151.9107   -111.02735     1.042273   -109.98507    5491.4107    4.3673944    4.3673944    4.3673944    5491.4107    8112.6006   -49312.406    57674.038   -35482.084   -13104.721   -4847.4663    83.304266 
   31900    1719.9894   -111.56366    1.5562826   -110.00738   -4619.7233    4.3596343    4.3596343    4.3596343   -4619.7233    31350.659   -33194.618   -12015.211   -318.51804   -753.65921    17074.637    82.861003 
   32000    1462.1208   -111.36114    1.3229576   -110.03818   -12232.821    4.3717396    4.3717396    4.3717396   -12232.821   -14953.213   -21524.657   -220.59304   -16984.646   -16301.548   -13960.445    83.553155 
   32100    1481.9463   -111.37819    1.3408961   -110.03729   -34384.655    4.3959731    4.3959731    4.3959731   -34384.655   -52779.767   -71883.927    21509.729   -17350.397   -5248.3164    3819.4741     84.95033 
   32200    1347.8834   -111.25078    1.2195932   -110.03119    8106.2781    4.3679538    4.3679538    4.3679538    8106.2781    29550.594    24250.582   -29482.341   -1808.1308   -4000.6227    28403.697    83.336279 
   32300    1587.1903   -111.45929    1.4361231   -110.02317    16320.984    4.3429484    4.3429484    4.3429484    16320.984   -19903.503    22096.848    46769.608   -24745.557   -7092.2235   -12754.932    81.913221 
   32400    1432.7431   -111.35475    1.2963761   -110.05838   -32408.821    4.3776103    4.3776103    4.3776103   -32408.821   -34353.427   -1559.0225   -61314.014    8537.9456     -4612.08    32883.358    83.890211 
   32500    1525.9234   -111.41899    1.3806875    -110.0383   -9698.8579    4.3815406    4.3815406    4.3815406   -9698.8579    418.73935    -15844.47   -13670.843   -2447.4563   -1795.1238    14331.109    84.116368 
   32600    1310.1667   -111.22662    1.1854663   -110.04116   -5073.1475    4.3641245    4.3641245    4.3641245   -5073.1475    4549.6656   -17948.113   -1820.9947     6651.878   -5823.4051    -2838.181    83.117294 
   32700    1437.0087   -111.34984    1.3002357   -110.04961   -11783.405     4.357637     4.357637     4.357637   -11783.405   -11290.372    13841.521   -37901.365    16764.263    5772.2834     35329.44    82.747169 
   32800    1456.7748   -111.38181    1.3181204   -110.06369    22015.309    4.3669453    4.3669453    4.3669453    22015.309   -8803.9082    76130.985   -1281.1515   -7097.3323   -8228.9492   -27155.895    83.278572 
   32900    728.51951   -110.73254   0.65917976   -110.07336    9043.2663    4.3853157    4.3853157    4.3853157    9043.2663    10184.419    12620.455    4324.9244   -842.87867   -3016.7463    5143.6763    84.333981 
   33000    1248.2184   -111.16733    1.1294143   -110.03792     5173.531    4.3819233    4.3819233    4.3819233     5173.531   -8226.3818    9372.1389    14374.836   -3667.2133    12398.475    918.34922    84.138414 
   33100    1700.8323   -111.55976    1.5389488   -110.02081    20129.518    4.3520171    4.3520171    4.3520171    20129.518    -27251.36    32007.704     55632.21   -6642.2353   -8816.5516   -18156.823    82.427435 
   33200    979.11535   -110.94068   0.88592415   -110.05476    4206.3421    4.3520507    4.3520507    4.3520507    4206.3421     10161.61   -24187.342    26644.758    167.18375    9056.2106    34928.257    82.429342 
   33300    1593.2672   -111.49963    1.4416217   -110.05801   -16581.496     4.377773     4.377773     4.377773   -16581.496   -21331.092   -14305.262   -14108.135    -8558.026    11621.357    4490.9855    83.899563 
   33400    1421.8993   -111.33084    1.2865644   -110.04427   -5982.9259    4.3747286    4.3747286    4.3747286   -5982.9259   -33749.224   -19584.809    35385.255     -26355.9   -11710.842     18052.09    83.724648 
   33500     1337.688   -111.26019    1.2103682   -110.04983    -38806.17    4.3577283    4.3577283    4.3577283    -38806.17    -22326.01   -36268.036   -57824.464    -1551.358    10842.462    46542.917     82.75237 
   33600    1913.7311   -111.78572    1.7315841   -110.05414     10643.52    4.3483545    4.3483545    4.3483545     10643.52   -23143.185    25803.176    29270.569   -1541.6595    3786.8021   -15472.116    82.219501 
   33700    910.64411    -110.9008   0.82396993   -110.07683   -6852.2596    4.3741064    4.3741064    4.3741064   -6852.2596    3434.4954    -905.4983   -23085.776   -33764.296    1745.1373     29302.65    83.688933 
   33800    1075.5302   -111.03294   0.97316237   -110.05978   -24724.544    4.3783292    4.3783292    4.3783292   -24724.544   -17291.747   -2.5278876   -56879.356   -6575.1002    22561.074    12062.883    83.931549 
   33900    1846.1469   -111.71043    1.6704325      -110.04    19331.721    4.3523062    4.3523062    4.3523062    19331.721   -22179.919    68683.752    11491.328   -1868.0119    -10590.52    -16801.84     82.44386 
   34000    875.73307   -110.86433   0.79238168   -110.07195   -4273.3981    4.3579002    4.3579002    4.3579002   -4273.3981   -20351.763    23284.416   -15752.847    2353.2613    15727.358    25025.939    82.762165 
   34100    1524.8501   -111.45989    1.3797165   -110.08018   -17855.321    4.3684364    4.3684364    4.3684364   -17855.321   -21166.929    12254.399   -44653.432     3297.675    20640.401    7063.0626    83.363907 
   34200    1654.9968   -111.56755    1.4974759   -110.07007     2397.326    4.3663572    4.3663572    4.3663572     2397.326   -5000.0792    30440.292   -18248.234    15841.584   -14470.953    -1247.916    83.244929 
   34300    711.91586   -110.71628   0.64415643   -110.07213   -9895.6266    4.3652768    4.3652768    4.3652768   -9895.6266   -25071.566    68629.265   -73244.578   -11919.348    34210.502    34722.675    83.183148 
   34400    1997.2517   -111.86343    1.8071553   -110.05628   -63.369977     4.353988     4.353988     4.353988   -63.369977   -26612.912    59271.611   -32848.809    15363.208   -10093.988   -13561.917    82.539473 
   34500    1321.4337   -111.27239     1.195661   -110.07673    -1846.811    4.3571784    4.3571784    4.3571784    -1846.811    11256.897    18091.476   -34888.807    -8630.475    8697.0131    21762.866    82.721049 
   34600    956.31125   -110.95951   0.86529051   -110.09422    -22670.49    4.3676382    4.3676382    4.3676382    -22670.49   -45096.602    50896.249   -73811.116    7842.6446    25769.407    21617.041    83.318218 
   34700    1961.4409   -111.84721    1.7747529   -110.07246    9091.2236     4.356491     4.356491     4.356491    9091.2236    29019.845    15496.987   -17243.161    4892.4026   -7670.1123   -16317.966    82.681903 
   34800    740.13658   -110.75137   0.66969113   -110.08168    48967.713    4.3539661    4.3539661    4.3539661    48967.713    29842.045     161719.6   -44658.511    5602.5351    23427.575    18144.043    82.538225 
   34900    1602.4865   -111.52647    1.4499635   -110.07651   -36051.967    4.3872277    4.3872277    4.3872277   -36051.967   -8191.6872   -26921.589   -73042.623   -8825.1182    3130.1015    7164.1741    84.444337 
   35000    1548.4831   -111.45139       1.4011   -110.05029   -3391.6495    4.3770477    4.3770477    4.3770477   -3391.6495   -3764.8614    27374.983    -33785.07   -4917.0494    14152.857   -10344.373    83.857873 
   35100    1387.9639   -111.28513    1.2558589   -110.02927    20849.258    4.3403278    4.3403278    4.3403278    20849.258    45463.888    44871.123   -27787.237   -16922.553    23596.013    30643.568    81.765026 
   35200    1272.6961   -111.22531    1.1515622   -110.07375    22234.325    4.3570527    4.3570527    4.3570527    22234.325    -10431.31    108460.66   -31326.376   -12607.054   -2801.4367   -2484.5338    82.713886 
   35300    1023.8522   -111.00451   0.92640296    -110.0781   -5215.1883    4.3849766    4.3849766    4.3849766   -5215.1883   -18124.062     48006.76   -45528.263   -11250.002    22419.669    8687.6625    84.314417 
   35400    1548.8995   -111.44992    1.4014769   -110.04844   -24622.863    4.3809218    4.3809218    4.3809218   -24622.863   -18018.729   -9783.6559   -46066.203    4905.7235   -13704.812    19841.059    84.080734 
   35500    1422.5206   -111.32694    1.2871265   -110.03981   -22438.552    4.3545412    4.3545412    4.3545412   -22438.552   -7577.3743   -2762.3184   -56975.962    983.20855    37291.112   -11958.261    82.570938 
   35600    1703.3723    -111.5913    1.5412471   -110.05005     8162.631    4.3429915    4.3429915    4.3429915     8162.631   -2871.0962     60282.11   -32923.121     4181.689    11269.862     10075.46    81.915662 
   35700    1502.3674   -111.43489    1.3593736   -110.07552    7443.0874     4.359922     4.359922     4.359922    7443.0874    32478.477    23173.186   -33322.401   -10894.385   -11190.617    9872.3336    82.877406 
   35800    828.59687   -110.83412   0.74973187   -110.08438   -4297.3679     4.370744     4.370744     4.370744   -4297.3679   -33136.739    96122.953   -75878.318   -6490.3119    31699.209   -19680.049    83.496085 
   35900    1786.0068   -111.67932    1.6160165   -110.06331   -3671.5806    4.3637849    4.3637849    4.3637849   -3671.5806    29183.094   -3415.2932   -36782.542   -18527.548   -9979.8352    7457.4959    83.097893 
   36000    1207.8957   -111.16435    1.0929294   -110.07142    17373.806    4.3445729    4.3445729    4.3445729    17373.806     22089.68    59947.681   -29915.942   -12432.005    6080.5191   -13248.495    82.005179 
   36100    1544.8807   -111.48534    1.3978405    -110.0875   -12317.124    4.3527777    4.3527777    4.3527777   -12317.124   -2289.6547    25912.304   -60574.021   -6315.3308    13328.643   -19123.363    82.470656 
   36200    1581.3988   -111.50403    1.4308829   -110.07315   -3864.6249    4.3734808    4.3734808    4.3734808   -3864.6249   -8925.1933    29715.377   -32384.059    -16521.04   -7322.6202    823.04624    83.653031 
   36300    1126.2139   -111.08805     1.019022   -110.06903    4622.7882     4.357654     4.357654     4.357654    4622.7882    36659.544    25232.763   -48023.942    4540.5057    29590.126   -17628.157    82.748139 
   36400    1499.2338   -111.42598    1.3565383   -110.06944    9147.5151    4.3545823    4.3545823    4.3545823    9147.5151    7266.0588    61154.754   -40978.268    4353.6784    -12011.06   -5794.7855    82.573273 
   36500    1556.5546   -111.47999    1.4084033   -110.07159    3937.6863     4.358883     4.358883     4.358883    3937.6863   -28746.462    80545.735   -39986.215   -2336.1143    12905.344   -371.62246    82.818173 
   36600    1313.2123   -111.26577    1.1882221   -110.07754   -8401.4545    4.3573909    4.3573909    4.3573909   -8401.4545    6524.2043    16965.985   -48694.553    14982.878    17205.526   -25239.355     82.73315 
   36700    1358.8534   -111.30946    1.2295191   -110.07994   -13749.377    4.3546201    4.3546201    4.3546201   -13749.377    4503.9078    336.06723   -46088.105   -20834.831   -13238.257    25856.228    82.575426 
   36800    1427.2302   -111.37172    1.2913879   -110.08034    19609.116    4.3450468    4.3450468    4.3450468    19609.116   -20177.591    83780.373   -4775.4343   -7376.7944    14417.976   -2538.2218    82.032016 
   36900    1631.0427   -111.56275    1.4758017   -110.08695   -3508.2034    4.3560445    4.3560445    4.3560445   -3508.2034    5957.6298    33531.409   -50013.649     18960.56   -1484.8074    5833.8955    82.656485 
   37000    1305.0557   -111.26409    1.1808419   -110.08325    13734.387    4.3589417    4.3589417    4.3589417    13734.387    14285.212    39087.734   -12169.787   -9754.7273    1984.4104    22614.978    82.821516 
   37100     1409.882   -111.35389    1.2756908    -110.0782   -7102.9206    4.3631266    4.3631266    4.3631266   -7102.9206   -32529.768    16516.975   -5295.9691    16919.147     2511.001   -9472.0715    83.060288 
   37200    1159.7849    -111.1171    1.0493978    -110.0677    27870.992    4.3541403    4.3541403    4.3541403    27870.992    34518.388    80812.111   -31717.524    6095.5304   -11317.996    17493.793    82.548131 
   37300    1747.8255    -111.6429    1.5814692   -110.06143    5188.5358    4.3514955    4.3514955    4.3514955    5188.5358    24932.601    18502.871   -27869.865     12417.29    4652.8769    8148.6604    82.397799 
   37400    967.29528   -110.94947    0.8752291   -110.07424    7245.5056    4.3619679    4.3619679    4.3619679    7245.5056   -9655.9851    47635.041   -16242.539    29726.973    12741.921   -5122.4304    82.994136 
   37500     1563.987   -111.48217    1.4151283   -110.06704   -14360.107    4.3610266    4.3610266    4.3610266   -14360.107    13528.024   -11691.533   -44916.811    10654.516   -6441.4119    14523.336    82.940418 
   37600    1232.1929   -111.18635     1.114914   -110.07143    12958.195     4.359938     4.359938     4.359938    12958.195     11961.85    54377.421   -27464.686    9836.3668    13929.253   -4100.6786    82.878322 
   37700    1471.0981    -111.3934    1.3310805   -110.06232   -14690.257    4.3619727    4.3619727    4.3619727   -14690.257   -4751.8197   -13043.202   -26275.748    4902.0045    21544.955    -420.0884     82.99441 
   37800    1356.0354   -111.28176    1.2269694   -110.05479    3916.8277    4.3539609    4.3539609    4.3539609    3916.8277    17118.734    14301.382   -19669.633   -9942.0937   -2237.4518    10578.874    82.537927 
   37900    1369.1616   -111.30214    1.2388462    -110.0633   -6708.1876    4.3587203    4.3587203    4.3587203   -6708.1876    10211.325   -15419.058    -14916.83   -2886.1796    11515.976   -11489.194      82.8089 
   38000    1264.5331   -111.20615    1.1441761   -110.06198    757.82334    4.3713905    4.3713905    4.3713905    757.82334     -23040.9    24143.101    1171.2696   -13792.677   -1866.5234    8416.3704    83.533139 
   38100     1299.724   -111.22858    1.1760176   -110.05256   -16709.566     4.361141     4.361141     4.361141   -16709.566    19998.744   -25817.398   -44310.043   -9590.7946    6299.2638   -15586.811    82.946944 
   38200    1378.7495   -111.30361    1.2475215   -110.05608    16845.577    4.3433817    4.3433817    4.3433817    16845.577   -16007.892    73896.095   -7351.4716   -11175.685     759.3662   -7355.5199     81.93774 
   38300    1534.7676   -111.45851      1.38869   -110.06982    21077.265    4.3484739    4.3484739    4.3484739    21077.265    41919.198    3954.4986    17358.098   -5697.6893   -2200.2485    11538.557    82.226274 
   38400    1150.5423   -111.12589    1.0410349   -110.08485   -25434.254    4.3662782    4.3662782    4.3662782   -25434.254    708.36516   -38833.096    -38178.03    1156.2399   -2231.2659   -23254.902    83.240411 
   38500     1240.077   -111.19729    1.1220477   -110.07524   -9985.3762    4.3677352    4.3677352    4.3677352   -9985.3762    22453.674   -12850.929   -39558.874    513.75997    352.32949    5792.5574    83.323769 
   38600    1623.5908   -111.53574    1.4690591   -110.06668     12274.76    4.3482666    4.3482666    4.3482666     12274.76    31808.576    3745.0724    1270.6321    10751.091   -5992.9289    -10140.51    82.214512 
   38700    1330.2651   -111.28373    1.2036519   -110.08008    3977.6788     4.347207     4.347207     4.347207    3977.6788     32042.42    817.15927   -20926.542   -1379.6019   -5437.9767   -6330.1268    82.154427 
   38800    1332.0941   -111.28855    1.2053067   -110.08324     8093.148    4.3567867    4.3567867    4.3567867     8093.148    73055.151    827.39379   -49603.101   -3566.4911   -4807.9032    15833.199    82.698741 
   38900    1248.5904   -111.21826    1.1297508   -110.08851    12031.706    4.3563784    4.3563784    4.3563784    12031.706    22388.301    37352.592   -23645.776   -10033.653   -719.78073   -8755.9078    82.675489 
   39000    1600.0301   -111.53111    1.4477409   -110.08337   -2724.6575    4.3491209    4.3491209    4.3491209   -2724.6575    42892.424   -12736.243   -38330.153    11793.835    6406.7181    5450.6835    82.262983 
   39100    1400.8631   -111.34921    1.2675304   -110.08168     1965.834    4.3507147    4.3507147    4.3507147     1965.834     2644.982    40895.969    -37643.45   -19331.117   -11478.963   -1222.1801    82.353451 
   39200    1627.8014   -111.54487    1.4728689     -110.072   -16322.427    4.3603621    4.3603621    4.3603621   -16322.427   -15023.379   -12188.707   -21755.195    5430.7734    4690.2841   -2672.7057    82.902506 
   39300    1329.3641    -111.2735    1.2028366   -110.07067   -7039.5246    4.3597593    4.3597593    4.3597593   -7039.5246    21338.785   -20514.167   -21943.191   -9571.6516    60.915479    5907.6456    82.868129 
   39400    1504.1692   -111.42363    1.3610039   -110.06263    1817.3763    4.3507459    4.3507459    4.3507459    1817.3763   -7982.7305    55665.949    -42231.09   -12917.203   -3677.2289   -6760.8999    82.355225 
   39500    1459.9028   -111.39318    1.3209507   -110.07222   -11406.194    4.3522407    4.3522407    4.3522407   -11406.194   -24107.808   -19018.709    8907.9365   -5135.8855    12242.215    14297.112    82.440142 
   39600    1464.1166   -111.40107    1.3247634   -110.07631   -1263.2894    4.3546051    4.3546051    4.3546051   -1263.2894    3830.8564    18622.396   -26243.121    12911.423    4773.7891    8686.9597    82.574573 
   39700     1641.221   -111.55448    1.4850112   -110.06946     3534.347    4.3467198    4.3467198    4.3467198     3534.347   -9834.1898    1371.9931    19065.238   -16388.519   -799.10432    91.037248    82.126807 
   39800     1013.046    -111.0054   0.91662534   -110.08877   -24670.423    4.3587282    4.3587282    4.3587282   -24670.423   -18298.809   -40364.127   -15348.332    4711.3343    10223.698    18383.048    82.809347 
   39900    1857.2714   -111.74142    1.6804982   -110.06093    -6137.965    4.3704817    4.3704817    4.3704817    -6137.965    1081.5863    15715.953   -35211.434    34003.907    8066.0076   -246.88218    83.481054 
   40000    1379.7223   -111.29968    1.2484017   -110.05128   -15250.772    4.3748399    4.3748399    4.3748399   -15250.772     36131.77   -34764.231   -47119.856   -4114.8849    15186.736     13357.99     83.73104 
   40100    947.99029   -110.91064   0.85776153   -110.05288    6026.3734    4.3724545    4.3724545    4.3724545    6026.3734    91494.897   -41360.877     -32054.9    22893.666    13376.664    7861.3049    83.594155 
   40200    1402.4088   -111.30756     1.268929   -110.03863    37339.451    4.3561971    4.3561971    4.3561971    37339.451    103794.21    24316.999   -16092.856    10584.783    8600.0851    1245.0615    82.665168 
   40300    915.02516   -110.88845     0.827934   -110.06052   -5575.3653    4.3460677    4.3460677    4.3460677   -5575.3653   -11377.757    2879.3232   -8227.6622   -25744.795     10103.54    11100.953     82.08985 
   40400      1755.05   -111.65424    1.5880061   -110.06623   -11688.431    4.3599153    4.3599153    4.3599153   -11688.431   -14098.931    9912.0046   -30878.366     9564.277    462.79303   -4992.4512    82.877024 
   40500    1774.5918   -111.67024     1.605688   -110.06455   -19062.927    4.3661312    4.3661312    4.3661312   -19062.927   -81.783017   -4188.2346   -52918.763   -13795.948    1432.4014   -1945.2933    83.232005 
   40600     1175.303   -111.13029    1.0634389   -110.06685   -31159.848    4.3675378    4.3675378    4.3675378   -31159.848   -53282.111   -15992.639   -24204.794   -19589.723    8259.7735    7038.6158    83.312474 
   40700    1294.2886   -111.22925    1.1710995   -110.05815    28393.732    4.3500891    4.3500891    4.3500891    28393.732   -2140.3194    121708.01   -34386.496    1647.9308    -21026.17   -17506.841     82.31793 
   40800    1049.0679   -111.02981   0.94921871   -110.08059    8482.3966    4.3431416    4.3431416    4.3431416    8482.3966    16289.008    30107.635   -20949.453    3811.9402   -2766.5814   -1493.5788    81.924154 
   40900    1653.7427   -111.57817    1.4963411   -110.08183   -19450.186    4.3581316    4.3581316    4.3581316   -19450.186   -32002.218   -8674.0614   -17674.277   -6180.7013   -3369.8951    18155.835    82.775348 
   41000     1675.929   -111.58584    1.5164158   -110.06942   -9568.9982    4.3699856    4.3699856    4.3699856   -9568.9982   -20066.992    44707.728   -53347.731    14814.587   -20152.395   -20755.971    83.452629 
   41100    751.29417   -110.75048   0.67978675    -110.0707   -20865.538    4.3634765    4.3634765    4.3634765   -20865.538    1291.9105   -14639.544   -49248.979   -13211.679    3316.3586    6905.5512    83.080276 
   41200    1658.6046   -111.55407    1.5007403   -110.05333    13408.877    4.3351065    4.3351065    4.3351065    13408.877   -13544.603    36925.259    16845.974   -14924.017   -12817.863     7234.179    81.470297 
   41300     1397.197    -111.3376    1.2642132   -110.07339    7965.5006    4.3388726    4.3388726    4.3388726    7965.5006    25729.605    22310.276   -24143.379    4596.9156     86.09114   -22002.968    81.682817 
   41400    1024.3361   -111.01884   0.92684082     -110.092   -21053.985    4.3693142    4.3693142    4.3693142   -21053.985   -16207.597    983.48827   -47937.846   -24860.758    2121.8057    22280.476     83.41417 
   41500    1971.4888   -111.84116    1.7838445   -110.05732   -24993.159    4.3780081    4.3780081    4.3780081   -24993.159    -49060.22    4160.1821   -30079.438    1661.0605   -8752.2958   -12499.511    83.913083 
   41600    1136.4101   -111.10005    1.0282478   -110.07181   -23693.299    4.3444164    4.3444164    4.3444164   -23693.299   -14221.828   -29329.895   -27528.175   -1504.1892    11216.994    6535.6178    81.996317 
   41700      1528.23   -111.44344    1.3827746   -110.06067    22013.543    4.3232403    4.3232403    4.3232403    22013.543    14610.616    23693.904    27736.108   -1951.3638   -3376.7694     26027.28    80.803118 
   41800      1567.61   -111.50363    1.4184065   -110.08522   -8745.1728    4.3585662    4.3585662    4.3585662   -8745.1728   -58066.171    12298.166    19532.486      33032.6    4083.0734   -8666.0921    82.800117 
   41900    1402.6202   -111.33603    1.2691202   -110.06691   -40458.714    4.3756269    4.3756269    4.3756269   -40458.714   -43757.157   -32745.049   -44873.936   -14524.605   -496.99707    23836.115    83.776238 
   42000    1282.4265   -111.20581    1.1603665   -110.04545    15832.326    4.3569616    4.3569616    4.3569616    15832.326   -7757.8875     72282.95   -17028.085     19699.96    6569.1247    3474.2682    82.708703 
   42100    1554.7664   -111.45881    1.4067853   -110.05202    2831.8331    4.3497965    4.3497965    4.3497965    2831.8331   -14674.799    12538.764    10631.534     30887.88   -5488.5485   -2884.1614    82.301322 
   42200     1766.579   -111.65542    1.5984378   -110.05698    26833.298    4.3421879    4.3421879    4.3421879    26833.298    8981.2183    74927.634   -3408.9593   -5990.3412    4520.5002    18835.211    81.870195 
   42300    974.03546   -110.96582   0.88132776   -110.08449   -9803.8562     4.358413     4.358413     4.358413   -9803.8562   -7443.2341   -17245.566   -4722.7689    58927.952   -5165.2329   -2110.2377    82.791386 
   42400     1858.051   -111.74448    1.6812036   -110.06328   -2905.0949    4.3618249    4.3618249    4.3618249   -2905.0949   -36745.161    22671.727    5358.1494   -618.10125     -7930.79    -5655.677    82.985969 
   42500    1514.3216   -111.43871      1.37019   -110.06852    17303.231     4.335964     4.335964     4.335964    17303.231   -1084.5085    22947.484    30046.719    31949.672    3802.2149   -1771.0439    81.518654 
   42600    975.45478   -110.97068   0.88261198   -110.08807   -14030.215    4.3463747    4.3463747    4.3463747   -14030.215   -32961.512   -46206.348    37077.215    40246.012   -11124.915    12594.374    82.107246 
   42700    1970.8511   -111.85177    1.7832675    -110.0685   -12852.955    4.3586399    4.3586399    4.3586399   -12852.955   -28398.267    2779.9633   -12940.562   -15198.203    6632.1242    -26926.46    82.804315 
   42800    787.44146   -110.79096   0.71249358   -110.07847   -9955.3355    4.3640274    4.3640274    4.3640274   -9955.3355   -62570.179    13689.995    19014.177    47623.091   -3351.4142    430.39726    83.111748 
   42900    1669.9462   -111.56853    1.5110024   -110.05752   -7421.1505    4.3496298    4.3496298    4.3496298   -7421.1505   -6426.9282    18305.495   -34142.018   -10802.332   -4370.4865    2692.6949    82.291863 
   43000    1219.7493   -111.17132    1.1036548   -110.06766    13586.174    4.3522646    4.3522646    4.3522646    13586.174   -14954.143    35797.228    19915.438    20748.348   -633.90911   -23540.019    82.441499 
   43100     1675.237   -111.57736    1.5157897   -110.06157   -15266.876    4.3590402    4.3590402    4.3590402   -15266.876   -35596.232   -7987.3254   -2217.0698    28175.666    4699.2422    9828.8687    82.827134 
   43200    1262.8416   -111.20814    1.1426457   -110.06549    392.55003    4.3416795    4.3416795    4.3416795    392.55003    10845.694    17055.621   -26723.665   -26199.078    -2627.561   -15162.976    81.841442 
   43300    1181.1229    -111.1575    1.0687048   -110.08879     10122.93    4.3488682    4.3488682    4.3488682     10122.93    47209.953   -5648.5789   -11192.586     12983.76    2447.3182    -8818.002    82.248644 
   43400    2236.0266   -112.09745    2.0232038   -110.07424    13572.029    4.3466247    4.3466247    4.3466247    13572.029    1186.0363    51051.726   -11521.676    -11084.65    9150.9642    7415.8748    82.121416 
   43500     642.7341   -110.67788   0.58155932   -110.09632    25545.915     4.344172     4.344172     4.344172    25545.915    73859.823    16565.044   -13787.122   -11067.567   -9241.4571    -28823.59    81.982476 
   43600    1902.2483   -111.79678    1.7211943   -110.07559    -28149.91     4.363417     4.363417     4.363417    -28149.91   -21625.326   -29276.946   -33547.458   -14985.789    6338.7435    18576.065    83.076874 
   43700    1265.5065   -111.21984    1.1450569   -110.07479    12220.893    4.3456661    4.3456661    4.3456661    12220.893   -3886.0638    56417.457   -15868.714    15699.657   -808.43872   -9936.5179    82.067096 
   43800    1233.2089   -111.19678    1.1158333   -110.08095   -1641.8932    4.3395664    4.3395664    4.3395664   -1641.8932    17370.173   -19402.812   -2893.0403   -28638.486    4741.8907   -22958.102    81.722005 
   43900    1583.1657   -111.50598    1.4324816    -110.0735   -11900.123    4.3593096    4.3593096    4.3593096   -11900.123   -14680.664   -5816.8947   -15202.812    18004.546     21623.27    22405.252    82.842492 
   44000     1355.354   -111.29257    1.2263527   -110.06621    9342.0424    4.3449575    4.3449575    4.3449575    9342.0424   -3099.2242     38901.02   -7775.6687    28472.197   -4446.9328   -25767.529    82.026959 
   44100    1373.0715    -111.3118    1.2423839   -110.06942    9788.9059    4.3487525    4.3487525    4.3487525    9788.9059    28166.949   -15942.319    17142.089   -24200.582     8755.167   -9012.4688    82.242079 
   44200    1403.2416   -111.34284    1.2696825   -110.07315   -11900.204    4.3505148    4.3505148    4.3505148   -11900.204   -52369.433    21683.814   -5014.9916    48994.962    14010.107    5168.3042    82.342101 
   44300    1113.0537   -111.08424    1.0071143   -110.07713     35242.97    4.3431926    4.3431926    4.3431926     35242.97    31659.757   -2309.1511    76378.305   -3226.2045   -2001.8543   -21444.613     81.92704 
   44400    1617.9823   -111.53498    1.4639844     -110.071    -28118.35    4.3622182    4.3622182    4.3622182    -28118.35   -37139.814   -72087.182    24871.945    4458.0599    5657.8905    4447.3509    83.008423 
   44500    1149.5037   -111.11175    1.0400951   -110.07166    15697.908    4.3408688    4.3408688    4.3408688    15697.908    4703.1793   -23253.445    65643.988    49165.616    12024.413    4237.3611    81.795608 
   44600     1583.689   -111.50558    1.4329551   -110.07263    10967.129    4.3328904    4.3328904    4.3328904    10967.129    2175.8713   -5140.4847    35866.002   -35142.323   -2881.5122   -4952.2308    81.345421 
   44700    903.77335   -110.89729   0.81775312   -110.07954   -8828.5218    4.3549065    4.3549065    4.3549065   -8828.5218    1906.5227   -67639.202    39247.114    26523.164    -2635.951   -9105.5254     82.59172 
   44800    1828.5477   -111.71395    1.6545083   -110.05944   -11247.341    4.3509971    4.3509971    4.3509971   -11247.341   -27903.746   -25728.459     19890.18    19713.518    2952.0476    21258.698    82.369489 
   44900    1618.1437   -111.52903    1.4641304    -110.0649   -18314.588     4.355866     4.355866     4.355866   -18314.588    9709.7609   -52170.728   -12482.796   -14481.898   -7766.6938   -6603.8947    82.646321 
   45000    1147.8115   -111.11222     1.038564   -110.07366   -28075.205    4.3595867    4.3595867    4.3595867   -28075.205   -48023.581   -62439.971    26237.937    54998.138   -12450.591    8401.3154     82.85829 
   45100     1790.227   -111.66813     1.619835   -110.04829     15519.01    4.3404663    4.3404663    4.3404663     15519.01    30059.322    10641.537    5856.1697   -7715.9298    8170.8491    11934.465    81.772856 
   45200    1203.2192   -111.15396     1.088698   -110.06527   -3414.3766    4.3527406    4.3527406    4.3527406   -3414.3766   -2850.0983   -23912.185    16519.154    35579.073   -5864.9771   -4331.1875    82.468552 
   45300    1646.1462    -111.5374    1.4894677   -110.04794   -18648.888    4.3669483    4.3669483    4.3669483   -18648.888    9706.2335   -36907.909   -28744.988    8939.0499   -987.60306     14844.71    83.278741 
   45400    1598.3932   -111.49777    1.4462598   -110.05151    8963.4963    4.3462588    4.3462588    4.3462588    8963.4963    25905.124   -549.26271    1534.6276    5706.1948   -6363.4443    13719.477    82.100679 
   45500    1333.4892   -111.27285     1.206569   -110.06628   -2278.4849    4.3476464    4.3476464    4.3476464   -2278.4849   -8999.2407   -12302.172    14465.958    32072.909    14537.316   -9327.8299     82.17934 
   45600    1542.9508   -111.45494    1.3960943   -110.05884   -15791.608    4.3616462    4.3616462    4.3616462   -15791.608    24335.202   -28814.515   -42895.509   -8226.7871     -10598.7    32584.043    82.975773 
   45700    1374.1482   -111.29354    1.2433582   -110.05019   -25105.133    4.3598778    4.3598778    4.3598778   -25105.133   -39339.781   -43278.617    7302.9988    41088.178    2936.9659   -2753.9155    82.874888 
   45800    1462.3263   -111.36291    1.3231436   -110.03977    11477.762    4.3538439    4.3538439    4.3538439    11477.762    36502.563   -3.3745991   -2065.9033    3795.3545   -3682.6817    5689.2853    82.531277 
   45900    1181.9785   -111.12076     1.069479   -110.05128   -11417.703    4.3587984    4.3587984    4.3587984   -11417.703    22863.038   -39434.809   -17681.338    12133.863     3811.646    24454.097     82.81335 
   46000    1703.3609   -111.58424    1.5412368     -110.043   -23840.153     4.354487     4.354487     4.354487   -23840.153   -30249.903   -45897.262    4626.7065     50860.47    2896.6348   -18180.053    82.567852 
   46100    1271.0527   -111.20144    1.1500752   -110.05137    868.29604    4.3555574    4.3555574    4.3555574    868.29604    26941.812   -12079.225   -12257.699    -13300.68   -2967.7653    34521.393    82.628761 
   46200    1266.2972   -111.19683    1.1457723   -110.05106    -41372.99    4.3596408    4.3596408    4.3596408    -41372.99   -56229.734   -55864.882   -12024.353    55593.771   -11088.278    8954.0055    82.861371 
   46300    1756.1579   -111.63323    1.5890086   -110.04422    24638.919    4.3403988    4.3403988    4.3403988    24638.919    24814.136    13872.522    35230.097    7735.2609   -897.29514   -3903.2113    81.769042 
   46400    822.99779   -110.82078    0.7446657   -110.07611   -3580.8318    4.3521332    4.3521332    4.3521332   -3580.8318    2881.2144   -44749.602    31125.892    22027.357    143.50509    39281.883    82.434031 
   46500    1304.7023   -111.24697    1.1805221   -110.06645   -12676.765    4.3643703    4.3643703    4.3643703   -12676.765   -30763.445   -45656.608    38389.759    25470.116    2132.8406   -9096.1485    83.131338 
   46600    1682.2118   -111.57391    1.5221006   -110.05181    24082.264    4.3472444    4.3472444    4.3472444    24082.264    -7645.418     14113.33    65778.882   -507.70343   -4268.1624    9772.2756    82.156545 
   46700    854.36921   -110.84527   0.77305122   -110.07222   -6394.4507    4.3550924    4.3550924    4.3550924   -6394.4507   -22805.858   -59319.587    62942.093    50056.353    17588.229    14383.757    82.602297 
   46800    1755.8957   -111.63383    1.5887713   -110.04506     -2204.53    4.3611711    4.3611711    4.3611711     -2204.53    9161.1374    -26622.74    10848.013   -21993.382    2450.8886    -1710.972    82.948661 
   46900    1044.6997   -110.99835   0.94526628   -110.05308   -6433.3129    4.3469521    4.3469521    4.3469521   -6433.3129   -1484.2487   -43172.045    25356.355    51209.754   -9035.5581    7798.5481    82.139972 
   47000    1546.9211   -111.46734    1.3996868   -110.06765     2425.012    4.3506281    4.3506281    4.3506281     2425.012    6545.8513   -24261.774    24990.958    11501.556    12432.426    7843.5214    82.348534 
   47100    1394.9901   -111.33028    1.2622164   -110.06806   -7993.3659    4.3597343    4.3597343    4.3597343   -7993.3659   -6126.2781   -44386.955    26533.135    11725.947    5969.0063   -27752.743    82.866703 
   47200     1023.048   -110.99183   0.92567537   -110.06615   -18337.333    4.3480322    4.3480322    4.3480322   -18337.333   -10370.794   -49582.449    4941.2445    41353.822   -12524.099    16832.982    82.201217 
   47300    1629.4709   -111.53209    1.4743795   -110.05771    22285.706    4.3477665    4.3477665    4.3477665    22285.706    3710.8707   -16790.025    79936.271   -14041.402    9211.3324    8808.9459    82.186149 
   47400     1199.692   -111.16013    1.0855065   -110.07463   -14323.881     4.355801     4.355801     4.355801   -14323.881   -47907.071   -44551.299    49486.727    50650.543   -9065.3318   -7211.1676    82.642624 
   47500    1378.9293   -111.31276    1.2476842   -110.06507    9275.9242    4.3523069    4.3523069    4.3523069    9275.9242    23936.729   -3466.5127     7357.556   -10449.139   -26308.104    29708.786      82.4439 
   47600    1682.3571   -111.57893    1.5222321    -110.0567    -25461.89    4.3663774    4.3663774    4.3663774    -25461.89    -42722.23   -41889.719    8226.2797    18625.175   -1406.0353    997.61579    83.246085 
   47700    1448.7686   -111.35925    1.3108763   -110.04838    -28401.35    4.3627117    4.3627117    4.3627117    -28401.35   -54486.331   -50027.709    19309.989    30932.435   -14989.188    10872.252    83.036599 
   47800    1471.7475   -111.37452    1.3316681   -110.04285    20482.988     4.334906     4.334906     4.334906    20482.988    38732.237   -7444.8076    30161.534    -16105.16   -12215.338    20970.456    81.458998 
   47900    1482.4775   -111.40208    1.3413768   -110.06071   -2223.5947    4.3375245    4.3375245    4.3375245   -2223.5947   -54117.348   -17962.276     65408.84    31979.783   -280.14294   -9168.7426    81.606699 
   48000    1475.0747    -111.4073    1.3346786   -110.07262   -7397.6714    4.3517739    4.3517739    4.3517739   -7397.6714    5321.8821   -35729.685     8214.789   -1806.0429    11438.173    25308.537    82.413617 
   48100    1376.4773   -111.32328    1.2454656   -110.07782   -7596.1901    4.3550135    4.3550135    4.3550135   -7596.1901   -15050.605   -30882.844    23144.879    8068.7518    -1478.464    4042.5538    82.597805 
   48200    1538.3745   -111.45856    1.3919536   -110.06661    3151.1167    4.3504752    4.3504752    4.3504752    3151.1167   -9426.4695   -32302.082    51181.901    24581.089    14519.778   -8650.0897    82.339857 
   48300    1413.0101   -111.34761    1.2785212   -110.06909    1490.5066    4.3404168    4.3404168    4.3404168    1490.5066    11229.673    3793.8968    -10552.05   -9670.3773   -2363.8846    32639.201    81.770056 
   48400    1269.7755   -111.22918    1.1489196   -110.08026    6751.3208    4.3473253    4.3473253    4.3473253    6751.3208    19618.275   -32277.007    32912.694    17809.813     11238.11   -11941.825    82.161132 
   48500    1641.8197   -111.54997    1.4855529   -110.06442   -6964.7819    4.3631384    4.3631384    4.3631384   -6964.7819   -8367.6677   -23375.574    10848.896    6180.0432    17653.895     9726.606    83.060964 
   48600    959.93654   -110.93254   0.86857076   -110.06397   -17477.098    4.3592775    4.3592775    4.3592775   -17477.098    14497.791   -38837.455    -28091.63    3257.7555   -14449.711    31645.527    82.840661 
   48700    1549.6725   -111.45255    1.4021763   -110.05037    4083.5368     4.334671     4.334671     4.334671    4083.5368   -27768.086   -6241.7998    46260.496    15221.216    -617.9628   -24719.947    81.445747 
   48800    1332.1239   -111.26976    1.2053337   -110.06443     21054.59    4.3425398    4.3425398    4.3425398     21054.59    69998.263   -21119.552     14285.06   -4219.3365    6658.8521    48519.713    81.890103 
   48900    1210.5753   -111.15774     1.095354   -110.06239   -17370.519    4.3676294    4.3676294    4.3676294   -17370.519    13324.556   -51823.421   -13612.692    15599.728    1668.2021    1009.3869    83.317713 
   49000    1407.2028   -111.31925    1.2732666   -110.04599   -18552.943    4.3622513    4.3622513    4.3622513   -18552.943   -31914.614    -12461.74   -11282.477    11047.039   -5534.6338    2496.4406     83.01031 
   49100    1468.3213   -111.37251    1.3285679   -110.04395   -13496.416     4.349147     4.349147     4.349147   -13496.416    41679.094   -61256.476   -20911.866   -6861.9847    4552.1875    46309.388    82.264462 
   49200    1191.6257    -111.1237     1.078208   -110.04549    39899.217    4.3366671    4.3366671    4.3366671    39899.217      61919.8     55797.29    1980.5594    10814.115    9583.0519   -29032.346    81.558317 
   49300    1479.3858   -111.41835    1.3385793   -110.07977   -27805.857    4.3586952    4.3586952    4.3586952   -27805.857   -6409.1178   -44375.545   -32632.907    9768.3967   -13202.828    52126.555    82.807469 
   49400     1655.716   -111.55406    1.4981266   -110.05593   -19418.324    4.3708513    4.3708513    4.3708513   -19418.324    7185.5867   -12430.682   -53009.878   -5681.9542   -587.80954   -4694.7812    83.502233 
   49500    1044.8017   -110.98929   0.94535857   -110.04393   -4547.2538    4.3532749    4.3532749    4.3532749   -4547.2538     48748.51   -34762.888   -27627.383    6898.3756   -21386.912   -8372.5495    82.498924 
   49600    1623.8231   -111.50941    1.4692693   -110.04014   -19243.351    4.3473837    4.3473837    4.3473837   -19243.351    2527.8378   -41712.179   -18545.712    1449.2993   -4645.3087    44570.807    82.164444 
   49700    1707.0343   -111.59514    1.5445605   -110.05058   -3135.2178     4.352392     4.352392     4.352392   -3135.2178    29639.837   -8161.6148   -30883.876   -1451.9045   -8960.5908   -32299.158    82.448735 
   49800    1084.3653   -111.04166   0.98115653    -110.0605   -1808.9025    4.3573107    4.3573107    4.3573107   -1808.9025    41113.572   -18504.517   -28035.762    11469.099   -23409.499    26718.888     82.72858 
   49900    1610.4168   -111.51221     1.457139   -110.05507   -14558.039    4.3598972    4.3598972    4.3598972   -14558.039   -8388.3815   -49788.616     14502.88   -11487.572    9468.3755   -7825.8495    82.875991 
   50000    1363.0117   -111.28563    1.2332817   -110.05235    6029.4823    4.3552255    4.3552255    4.3552255    6029.4823    43878.102   -22159.786   -3629.8697    1914.9498   -9204.2634   -17384.582    82.609868 
   50100    1327.1396   -111.25638    1.2008238   -110.05555   -2156.5678    4.3502189    4.3502189    4.3502189   -2156.5678     5984.915   -32080.504    19625.886    9173.2792   -6711.5327    21056.235    82.325303 
   50200    1621.5953   -111.52498    1.4672535   -110.05773   -7795.1084    4.3598024    4.3598024    4.3598024   -7795.1084     -4668.85   -2507.5649    -16208.91   -141.49519    9145.0837   -49547.617    82.870588 
   50300    1488.0085   -111.40192    1.3463814   -110.05554   -19164.202     4.365441     4.365441     4.365441   -19164.202   -31813.731   -15215.666   -10463.208    7734.2955   -24294.658    12244.308    83.192537 
   50400    1190.4482   -111.13801    1.0771426   -110.06087   -6253.5265    4.3522605    4.3522605    4.3522605   -6253.5265   -8814.7007   -24234.043    14288.164    5819.6454    2080.3683    8724.5671    82.441267 
   50500    1719.0158   -111.61197    1.5554016   -110.05657    30343.638    4.3298297    4.3298297    4.3298297    30343.638    35515.662    16691.291    38823.963    8682.1659   -2172.4836   -19080.875    81.173156 
   50600    1014.2402   -111.01238   0.91770583   -110.09468    14122.768    4.3469209    4.3469209    4.3469209    14122.768   -21048.116      13265.8     50150.62    14325.156   -24357.664    40495.773    82.138206 
   50700    1583.5155    -111.4962    1.4327981    -110.0634   -30867.753    4.3779348    4.3779348    4.3779348   -30867.753   -42547.933   -35289.317   -14766.009   -8652.0595   -3310.9456    15212.797    83.908866 
   50800    1775.3921   -111.66098    1.6064121   -110.05457    19892.758    4.3473233    4.3473233    4.3473233    19892.758    7145.6128    29785.037    22747.625    14939.266    -13077.36   -10753.355    82.161018 
   50900    1157.2652   -111.11142    1.0471178    -110.0643   -5848.9737    4.3342889    4.3342889    4.3342889   -5848.9737    119.45312    -6389.736   -11276.638    8982.0774   -8756.4048    39853.115    81.424211 
   51000    1782.5288   -111.68091    1.6128695   -110.06805   -7495.9815    4.3535268    4.3535268    4.3535268   -7495.9815   -11291.902   -28714.754    17518.712   -7999.4986   -558.03088    12092.428    82.513246 
   51100    1304.0013   -111.24699    1.1798877    -110.0671    14395.581    4.3585398    4.3585398    4.3585398    14395.581   -31456.966   -3427.4567    78071.167    15978.644   -19671.163   -8469.9546     82.79861 
   51200     1088.934   -111.05782   0.98529038   -110.07253   -15586.713    4.3605511    4.3605511    4.3605511   -15586.713    6505.8081   -32888.591   -20377.357   -4659.1164   -12066.643    37303.414    82.913287 
   51300    1848.1219   -111.72497    1.6722195   -110.05275    -720.2734    4.3541689    4.3541689    4.3541689    -720.2734   -14570.066   -31119.935    43529.181    15555.804    1580.6248    -7282.098    82.549758 
   51400    1370.1281   -111.29445    1.2397207   -110.05473    27147.265     4.341653     4.341653     4.341653    27147.265     65005.64    16109.069    327.08728   -6.5931893   -6324.7318    10318.181    81.839947 
   51500    1304.4214   -111.24458    1.1802679   -110.06431    -17766.61    4.3692018    4.3692018    4.3692018    -17766.61   -15812.864   -17894.945   -19592.021    2202.5366   -11645.401    22830.921    83.407732 
   51600    1396.1323   -111.30253    1.2632499   -110.03928   -23773.569    4.3722047    4.3722047    4.3722047   -23773.569   -15575.743   -28459.811   -27285.152    29915.466    3148.5576   -26836.084    83.579823 
   51700    1362.4822   -111.25647    1.2328026   -110.02367     24790.35    4.3337472    4.3337472    4.3337472     24790.35    73437.704    24966.961   -24033.616   -7346.6166    -16258.61    46917.711    81.393687 
   51800    1714.5327   -111.59945    1.5513453   -110.04811    3111.4845    4.3398179    4.3398179    4.3398179    3111.4845     4359.075    -6522.446    11497.825    10843.586   -2932.2533   -19119.548    81.736216 
   51900    1086.7156   -111.04559   0.98328311   -110.06231   -27623.001    4.3708726    4.3708726    4.3708726   -27623.001   -5081.7266   -48726.106    -29061.17    9728.1629    7189.0338    17161.589    83.503457 
   52000    1354.0375   -111.26425    1.2251616   -110.03909   -16586.753    4.3656174    4.3656174    4.3656174   -16586.753   -6500.4553    -29420.19   -13839.613   -10073.507       -10702    44683.005    83.202622 
   52100    1343.4492   -111.24661     1.215581   -110.03103   -443.60164    4.3434387    4.3434387    4.3434387   -443.60164    -47072.71   -37622.084    83363.989    31485.795    3702.3701   -24594.953    81.940967 
   52200    1402.9266   -111.31173    1.2693975   -110.04234   -6227.2296    4.3456063    4.3456063    4.3456063   -6227.2296    433.79285   -47127.403    28011.921    1423.5833   -12429.537    24182.935    82.063708 
   52300    1385.4247   -111.30832    1.2535614   -110.05475    1050.8425    4.3621378    4.3621378    4.3621378    1050.8425    81.668718   -18377.328    21448.187    14697.308    777.55077     7555.403    83.003832 
   52400    1384.6626   -111.30855    1.2528718   -110.05568   -31839.931     4.366826     4.366826     4.366826   -31839.931   -25067.527   -43042.841   -27409.425    16634.941    11950.117   -9985.4995    83.271744 
   52500    1688.9465   -111.57941    1.5281943   -110.05121   -2859.1966    4.3354329    4.3354329    4.3354329   -2859.1966    18988.951   -17506.615   -10059.926   -8286.6586   -1997.0431    13768.683    81.488701 
   52600    1541.2263   -111.45222     1.394534   -110.05768    15085.473      4.32774      4.32774      4.32774    15085.473   -15239.129    11437.168     49058.38    31137.017      13769.4   -2289.5514    81.055685 
   52700    1108.3328   -111.07888    1.0028429   -110.07604   -15704.072    4.3622396    4.3622396    4.3622396   -15704.072   -5423.7333   -19852.092   -21836.392   -6043.5705     19093.44   -3199.6041    83.009645 
   52800    1411.3829   -111.33265    1.2770489    -110.0556    -4724.165    4.3630239    4.3630239    4.3630239    -4724.165     16457.17   -23830.438   -6799.2274     8666.778   -5928.5468    11358.205    83.054424 
   52900    1864.3236   -111.72799    1.6868792   -110.04111    -1325.874    4.3439544    4.3439544    4.3439544    -1325.874   -34096.399     5109.795    25008.981     27825.58    3421.6894    2908.7469    81.970159 
   53000    1190.9807   -111.13873    1.0776244   -110.06111   -2407.7083    4.3524161    4.3524161    4.3524161   -2407.7083    36875.687   -1481.7267   -42617.086   -8858.4602     8016.003    7870.1432    82.450108 
   53100    1455.4606   -111.37236    1.3169314   -110.05542   -10595.963    4.3614163    4.3614163    4.3614163   -10595.963   -26716.041   -21865.994    16794.144    31193.296    -1797.508   -1711.5914    82.962654 
   53200    1350.6323   -111.27279    1.2220805   -110.05071    15512.735     4.360868     4.360868     4.360868    15512.735   -14738.826    17248.246    44028.786    16686.829   -2303.2232     7751.449    82.931369 
   53300    1608.3032   -111.50682    1.4552265   -110.05159    11926.689    4.3457976    4.3457976    4.3457976    11926.689     70243.56   -20880.951   -13582.542    -13303.99   -105.67891    16517.315    82.074545 
   53400    1046.6565   -111.01601   0.94703678   -110.06898    22625.579     4.335121     4.335121     4.335121    22625.579   -16981.117    29801.697    55056.157    51754.689   -12404.097   -11158.482    81.471115 
   53500    1238.6694   -111.19785    1.1207741   -110.07708     32742.56    4.3535485    4.3535485    4.3535485     32742.56    40546.558    15652.633    42028.489   -19802.856    2317.8254    4902.5477     82.51448 
   53600    1404.2735    -111.3386    1.2706161   -110.06798   -23990.279    4.3661735    4.3661735    4.3661735   -23990.279   -32497.288   -36224.278   -3249.2708    24002.765    604.87616    6228.0249     83.23442 
   53700    1331.4966   -111.26428    1.2047661   -110.05952    2872.1082    4.3411079    4.3411079    4.3411079    2872.1082     -38475.1     22220.94    24870.484    48421.371    -14354.11   -9648.2858    81.809121 
   53800    1930.2156   -111.79248    1.7464996   -110.04598    20067.487     4.329627     4.329627     4.329627    20067.487    51522.236    14515.084   -5834.8587   -15275.926    5839.3031      13801.5    81.161756 
   53900    1084.7059   -111.05854   0.98146469   -110.07708   -29713.104    4.3608812    4.3608812    4.3608812   -29713.104   -36893.034   -40308.534   -11937.744    55781.443   -5272.3451   -312.38602    82.932118 
   54000    1443.1276   -111.36447    1.3057722   -110.05869   -12920.408     4.367399     4.367399     4.367399   -12920.408   -42129.718    36451.894   -33083.399    9433.4913   -11408.978   -11568.458     83.30453 
   54100    1890.3966   -111.75646    1.7104706   -110.04599     8654.264    4.3471726    4.3471726    4.3471726     8654.264    29701.391    8083.1983   -11821.797    5933.9324   -3542.4557    4570.0263    82.152476 
   54200     932.7464   -110.91084   0.84396855   -110.06687   -3028.3553    4.3464503    4.3464503    4.3464503   -3028.3553   -20359.949    9620.7137    1654.1688    47835.377   -4254.7525   -10902.889    82.111534 
   54300    1712.8808   -111.61904    1.5498505   -110.06919    3925.7055    4.3500916    4.3500916    4.3500916    3925.7055    51150.436   -6697.4464   -32675.874   -25606.331   -248.85031   -16358.798    82.318076 
   54400    1208.5435    -111.1728    1.0935156   -110.07929    23962.928    4.3451795    4.3451795    4.3451795    23962.928    34430.338    18632.134    18826.311    31196.328   -7665.6464     6155.518    82.039531 
   54500    1133.5696   -111.11494    1.0256776   -110.08926   -27809.998    4.3603351    4.3603351    4.3603351   -27809.998   -52147.085   -26331.534   -4951.3754    19349.878    1679.0373   -12468.676    82.900965 
   54600    1891.1059   -111.77601    1.7111124   -110.06489   -4401.5556    4.3487028    4.3487028    4.3487028   -4401.5556    26480.822   -17196.623   -22488.866   -19750.472   -223.94225    -24076.12    82.239257 
   54700    1377.2259   -111.30511    1.2461429   -110.05897    22976.484    4.3260487    4.3260487    4.3260487    22976.484   -15035.487    43272.965    40691.975    52686.228   -3668.5423    8833.4853    80.960692 
   54800    1143.3917   -111.11528    1.0345648   -110.08072   -26594.013    4.3584379    4.3584379    4.3584379   -26594.013   -3538.7971   -33564.034   -42679.207   -2737.1867     5388.306   -33571.468    82.792803 
   54900    1675.0348   -111.57628    1.5156067   -110.06068   -15998.884    4.3575136    4.3575136    4.3575136   -15998.884    7153.0818   -19047.323   -36102.409   -5241.4494   -10425.309    -19026.57     82.74014 
   55000    1528.0767   -111.43394    1.3826359   -110.05131    21617.197    4.3341547    4.3341547    4.3341547    21617.197    28795.197    14783.963    21272.432    38892.938    2754.3764   -3779.6435    81.416651 
   55100    1083.4399   -111.05516   0.98031916   -110.07484   -1524.4119    4.3501534    4.3501534    4.3501534   -1524.4119    48004.116   -14421.492   -38155.859   -21640.066   -5027.4192    -44756.62    82.321585 
   55200    1482.3727   -111.40433     1.341282   -110.06305   -52.070132    4.3654473    4.3654473    4.3654473   -52.070132    25703.419    998.07006   -26857.699   -4737.7312   -1616.2403    9774.0758    83.192895 
   55300    1057.5563   -111.01544   0.95689912   -110.05854   -11035.492    4.3630181    4.3630181    4.3630181   -11035.492    7641.5566   -33130.998   -7617.0361    23069.329   -2150.2705   -41384.829    83.054093 
   55400    1414.7328   -111.33129      1.28008   -110.05121    22483.867    4.3375393    4.3375393    4.3375393    22483.867    47440.821    6282.4199     13728.36   -25782.289   -8118.3271   -11010.558    81.607534 
   55500    1615.0339   -111.52101    1.4613166   -110.05969    16814.928    4.3325213    4.3325213    4.3325213    16814.928    20574.016   -5543.8609    35414.628    12938.618    -6441.772    11817.984    81.324633 
   55600    901.75172   -110.90712    0.8159239    -110.0912   -33132.389    4.3547586    4.3547586    4.3547586   -33132.389   -12889.935   -69118.941    -17388.29    29326.187    18453.869   -49442.755    82.583303 
   55700    1765.9895   -111.66686    1.5979044   -110.06896    7474.6179    4.3540284    4.3540284    4.3540284    7474.6179    4822.5622    6953.6415     10647.65   -9924.4356    -9633.604    9664.0694    82.541768 
   55800    1216.6634    -111.1756    1.1008626   -110.07474   -7538.4999    4.3474363    4.3474363    4.3474363   -7538.4999    19049.483   -38878.011    -2786.971     10042.42   -4137.9291    -16899.61    82.167423 
   55900    1153.2847   -111.12051    1.0435162   -110.07699   -16998.726    4.3504982    4.3504982    4.3504982   -16998.726    7136.9459   -33893.466   -24239.657    23934.411    6137.4531   -31841.606    82.341158 
   56000    1956.6131   -111.82514    1.7703847   -110.05476    25326.166    4.3457134    4.3457134    4.3457134    25326.166    30375.887    17157.678    28444.934   -13412.524   -8511.5949    4661.5254    82.069773 
   56100    884.85797   -110.87781   0.80063809   -110.07717   -3901.9102    4.3480995    4.3480995    4.3480995   -3901.9102    38800.577   -32257.556   -18248.752    24802.956    10689.652    -46839.54    82.205038 
   56200    1538.1322   -111.45764    1.3917343   -110.06591    8876.1096    4.3534341    4.3534341    4.3534341    8876.1096   -40408.194    14792.292    52244.231   -3739.5732    4088.7504    2365.1234    82.507973 
   56300    1379.0797   -111.30278    1.2478203   -110.05496     11139.47    4.3534453    4.3534453    4.3534453     11139.47    49147.408   -16976.987    1247.9875   -8444.9428   -4419.8356   -35169.142    82.508609 
   56400    1246.0539   -111.17995    1.1274557   -110.05249    176.59529    4.3460717    4.3460717    4.3460717    176.59529    30471.006   -8723.2515   -21217.969    17743.159    17036.917   -26145.774    82.090078 
   56500     1489.462   -111.39628    1.3476965   -110.04858   -532.21961     4.348232     4.348232     4.348232   -532.21961   -32057.684    10764.818    19696.207   -21086.666    15500.699    3002.8652     82.21255 
   56600    1326.7335   -111.26233    1.2004564   -110.06188   -8925.8011     4.347656     4.347656     4.347656   -8925.8011    33941.477   -33144.909   -27573.972   -1172.2911   -6176.2354   -42513.163    82.179886 
   56700    1172.6031   -111.12252    1.0609959   -110.06153    32445.913    4.3494131    4.3494131    4.3494131    32445.913    57844.436   -5645.5259     45138.83    13075.816    4756.7938    2542.3167    82.279565 
   56800    1547.7284   -111.46164    1.4004172   -110.06122   -28291.432    4.3589585    4.3589585    4.3589585   -28291.432   -26651.891   -44188.668   -14033.738   -20097.893    9272.6932   -16670.078    82.822477 
   56900     1229.823   -111.17075    1.1127697   -110.05798    7635.7446    4.3528635    4.3528635    4.3528635    7635.7446    52824.788     -47778.7    17861.146    15177.706     6024.978   -31937.339    82.475534 
   57000    1641.4863   -111.53327    1.4852513   -110.04802    23700.188    4.3409339    4.3409339    4.3409339    23700.188    18303.115    20082.052    32715.396    9297.1543    12294.016    6635.4358    81.799289 
   57100    809.02855    -110.8045   0.73202604   -110.07247    3239.1348    4.3542221    4.3542221    4.3542221    3239.1348     -5804.27   -10218.971    25740.646   -21079.334     2896.493   -47768.235    82.552783 
   57200    2040.8015   -111.88354    1.8465601   -110.03698   -6753.5211    4.3703267    4.3703267    4.3703267   -6753.5211    5076.7295   -26693.268    1355.9756    19088.068   -650.34999    7261.8531    83.472172 
   57300    1152.1683   -111.10204    1.0425061   -110.05953   -8191.3393    4.3466944    4.3466944    4.3466944   -8191.3393    39529.965   -43809.707   -20294.276    -23667.74    3833.3639   -34580.689    82.125367 
   57400    1310.9045   -111.24061    1.1861339   -110.05448    31001.015    4.3257957    4.3257957    4.3257957    31001.015     23709.64   -283.90336    69577.309   -1976.6855    8103.7585   -19059.373    80.946489 
   57500    1872.2053   -111.75743    1.6940107   -110.06341     5621.006    4.3474257    4.3474257    4.3474257     5621.006      44647.8   -22755.095   -5029.6876   -2766.4403   -14626.042   -5996.5965    82.166825 
   57600    493.20684   -110.52443   0.44626391   -110.07817   -17112.907    4.3681887    4.3681887    4.3681887   -17112.907    10413.449   -74136.959     12384.79   -8736.5795    984.82542   -51082.898    83.349725 
   57700    1887.6459   -111.74917    1.7079817   -110.04119    6857.1158     4.354295     4.354295     4.354295    6857.1158   -8326.3832    26903.866     1993.865    3205.3427   -8214.6372    25715.567    82.556933 
   57800    1224.9186   -111.15409    1.1083321   -110.04576    9984.2115    4.3263264    4.3263264    4.3263264    9984.2115    55729.084   -27483.581    1707.1315    -2763.795    844.40355   -58559.124    80.976284 
   57900    1428.5776   -111.36119     1.292607   -110.06859    18064.959    4.3407584    4.3407584    4.3407584    18064.959    45512.511    -865.4902    9547.8564   -20500.739   -791.27329   -12063.868    81.789365 
   58000    1519.2151    -111.4368    1.3746177   -110.06218    -5607.512    4.3658071    4.3658071    4.3658071    -5607.512    18624.318   -1930.4541     -33516.4   -5752.2429   -195.61864    1563.5893     83.21347 
   58100    868.35391   -110.84896   0.78570486   -110.06326    7945.6158    4.3528286    4.3528286    4.3528286    7945.6158    51243.405    -36398.87     8992.312   -15626.411    10834.564   -45216.551    82.473553 
   58200    1968.8176   -111.81756    1.7814275   -110.03614    26394.764    4.3357443    4.3357443    4.3357443    26394.764    5027.6262    36141.069    38015.597   -26240.863    -7335.333     22573.39    81.506265 
   58300    956.03235   -110.92258   0.86503816   -110.05754    2409.7602    4.3437175    4.3437175    4.3437175    2409.7602    57764.793   -30317.167   -20218.345    2063.6543    5066.8159   -51877.941    81.956747 
   58400     1561.636   -111.46542     1.413001   -110.05242   -7767.2213    4.3637979    4.3637979    4.3637979   -7767.2213   -11715.134   -26747.244    15160.714    -24117.65   -3530.4737    3993.8426    83.098636 
   58500    1089.8472   -111.03576   0.98611666   -110.04964   -19700.116    4.3613594    4.3613594    4.3613594   -19700.116      26061.3   -44152.054   -41009.592   -6811.0116    5996.9637   -48487.415    82.959406 
   58600    1470.7384   -111.37619     1.330755   -110.04544    3623.7879    4.3258776    4.3258776    4.3258776    3623.7879    61614.028   -21522.995    -29219.67    -5677.437   -6608.9587   -28805.389    80.951089 
   58700     1490.745   -111.40429    1.3488574   -110.05543    20427.409    4.3307666    4.3307666    4.3307666    20427.409    54130.385    -4877.018     12028.86   -17969.662     6485.256    14473.362    81.225865 
   58800    907.75129   -110.89127   0.82135244   -110.06991    -25568.19    4.3586339    4.3586339    4.3586339    -25568.19    21986.799   -47186.544   -51504.824   -5168.4192    5201.1917   -69144.645    82.803975 
   58900    1729.0527   -111.61241    1.5644833   -110.04793   -11928.305    4.3589365    4.3589365    4.3589365   -11928.305    20488.189   -8726.6951   -47546.409   -2442.6805   -2540.5361    33088.909    82.821221 
   59000    969.08402   -110.93295   0.87684759    -110.0561    11934.296    4.3407136    4.3407136    4.3407136    11934.296    40910.406    29998.577   -35106.094   -22739.006    1587.2407   -35092.268    81.786836 
   59100    1310.9271   -111.25174    1.1861544   -110.06558    13259.553    4.3394602    4.3394602    4.3394602    13259.553    25134.004    36626.501   -21981.847   -17277.601    4612.5682   -10779.248    81.716003 
   59200    1540.2512   -111.45793    1.3936517   -110.06428   -10827.026    4.3480629    4.3480629    4.3480629   -10827.026    15405.174    2257.3432   -50143.596    2331.1238    3976.7043    15672.351    82.202961 
   59300    809.37412   -110.79693   0.73233871   -110.06459   -6623.7616    4.3495458    4.3495458    4.3495458   -6623.7616    52247.969    -16545.74   -55573.513    -21153.16   -6795.9224   -51824.605    82.287093 
   59400    1819.4529   -111.69084    1.6462792   -110.04456   -3606.5733    4.3508254    4.3508254    4.3508254   -3606.5733    25154.516   -10057.239   -25916.996   -730.65111    11653.157    21691.246    82.359742 
   59500    844.28691   -110.81455   0.76392854   -110.05062    3257.6783    4.3551226    4.3551226    4.3551226    3257.6783     60838.87    14085.333   -65151.168   -9098.0978    -696.6876   -35901.261    82.604018 
   59600    1882.5964   -111.73496    1.7034128   -110.03154   -7537.8704    4.3536152    4.3536152    4.3536152   -7537.8704    17893.858    -12077.36    -28430.11   -9478.5474    5125.0442   -14900.021    82.518271 
   59700    1091.7615   -111.03482   0.98784877   -110.04697    7218.5282    4.3442162    4.3442162    4.3442162    7218.5282    33226.582    17378.294   -28949.291     769.8442   -16115.609    2442.4747    81.984981 
   59800     1453.909    -111.3699    1.3155274   -110.05437   -5247.7417    4.3427127    4.3427127    4.3427127   -5247.7417    23266.596    1977.7715   -40987.592    10278.881    -6693.221   -51246.377    81.899884 
   59900    1775.0792   -111.66555    1.6061289   -110.05942    1330.4785    4.3460792    4.3460792    4.3460792    1330.4785   -11677.415    33297.297   -17628.446   -698.00461    5529.4173    21536.185    82.090501 
   60000    956.82432   -110.94456   0.86575475    -110.0788   -19813.554    4.3460596    4.3460596    4.3460596   -19813.554    14374.319   -25630.509   -48184.472   -4798.2104   -13536.828   -47701.356    82.089389 
   60100    1826.4993   -111.71422    1.6526549   -110.06157    10304.689     4.348529     4.348529     4.348529    10304.689    -17488.11    56533.602   -8131.4248    16866.332    7713.8574   -3187.2419    82.229399 
   60200     1330.711   -111.26486    1.2040553    -110.0608   -30737.065    4.3511004    4.3511004    4.3511004   -30737.065    19773.117   -34666.004   -77318.308   -2855.5033     4369.946   -22265.052    82.375355 
   60300    1322.9485   -111.25292    1.1970316   -110.05589    8969.7727    4.3388875    4.3388875    4.3388875    8969.7727    23424.405    27991.518   -24506.604    2255.5854   -7405.8561    -37095.28    81.683658 
   60400    1657.2679   -111.55421    1.4995308   -110.05467     6496.732    4.3417285    4.3417285    4.3417285     6496.732    26229.491    17143.016   -23882.311    18021.359    15971.382     13080.85    81.844215 
   60500    886.36685   -110.87355   0.80200336   -110.07155   -10980.536    4.3527423    4.3527423    4.3527423   -10980.536    74588.357   -24422.672   -83107.292   -105.81914    7390.2786   -49555.829    82.468647 
   60600    2073.5663   -111.92475    1.8762063   -110.04854    1068.1039    4.3487595    4.3487595    4.3487595    1068.1039    23583.808   -837.81869   -19541.677    2573.4656    215.23213    18332.392    82.242472 
   60700    535.82905    -110.5577   0.48482939   -110.07287   -18545.568    4.3540385    4.3540385    4.3540385   -18545.568    42372.598    -26045.02   -71964.283    21443.674    14707.267   -46364.383    82.542344 
   60800    1774.9061   -111.67057    1.6059723    -110.0646   -11708.522    4.3368748    4.3368748    4.3368748   -11708.522    16398.559   -13260.705   -38263.419   -6293.7352    10885.416    -16749.16    81.570037 
   60900      1267.61   -111.22094    1.1469602   -110.07398     32447.63    4.3362343    4.3362343    4.3362343     32447.63    27667.939    56860.484    12814.466    20241.721    8587.2556    -16172.97    81.533903 
   61000    1006.0408   -110.98183   0.91028689   -110.07155   -40245.631    4.3767643    4.3767643    4.3767643   -40245.631   -13625.042   -47600.513   -59511.339    10818.597    15174.701   -31661.525    83.841584 
   61100    2105.6922   -111.92544    1.9052745   -110.02016   -127.23905    4.3645857    4.3645857    4.3645857   -127.23905    -19304.29    23973.134   -5050.5616    2279.1244    4992.6763      12143.1    83.143646 
   61200    966.56455   -110.91811   0.87456791   -110.04355   -11550.929    4.3249078    4.3249078    4.3249078   -11550.929     12041.17   -42006.675   -4687.2827    34219.809    10043.903   -53889.831    80.896655 
   61300    1565.5606   -111.48016    1.4165521   -110.06361    6411.3918    4.3187197    4.3187197    4.3187197    6411.3918    11861.294    5430.5113    1942.3696     8071.017    33874.213   -16309.511    80.549906 
   61400    1586.2756   -111.52936    1.4352955   -110.09407    10190.875    4.3483374    4.3483374    4.3483374    10190.875    -14195.27    13907.548    30860.348   -3794.1199    69.863884   -1414.9466    82.218528 
   61500    909.74224    -110.9093    0.8231539   -110.08614   -48173.344    4.3673645    4.3673645    4.3673645   -48173.344   -5698.8006   -71643.656   -67177.576    29288.733    14137.776   -42944.512    83.302557 
   61600    1887.1887   -111.75216     1.707568   -110.04459    7453.7981    4.3436067    4.3436067    4.3436067    7453.7981    3926.2206    29737.784    -11302.61   -1921.2799    16677.957    10479.084    81.950477 
   61700    1387.3853   -111.30782    1.2553353   -110.05248    -16978.23    4.3364326    4.3364326    4.3364326    -16978.23    3700.0568   -43297.986   -11336.762   -414.20317   -9637.4309   -27561.107     81.54509 
   61800      879.714   -110.86116   0.79598372   -110.06517     -6008.21    4.3384052    4.3384052    4.3384052     -6008.21    7385.7814   -18985.998   -6424.4135    23005.819    17230.479   -26633.084     81.65642 
   61900    1753.1401   -111.65276     1.586278   -110.06648    953.75009    4.3410051    4.3410051    4.3410051    953.75009   -3462.5589    13180.917   -6857.1081   -17553.058   -3029.8646    28242.335    81.803313 
   62000    1378.7786   -111.31316    1.2475478   -110.06561   -20083.455    4.3668777    4.3668777    4.3668777   -20083.455   -18227.374   -43382.541    1359.5488    4229.5928    2203.2418   -36389.121    83.274702 
   62100    1196.6535   -111.13656    1.0827572    -110.0538    4346.0276    4.3520074    4.3520074    4.3520074    4346.0276    21384.127      156.856   -8502.9001    14762.619    16138.064    3596.3823    82.426885 
   62200    1326.2861   -111.24523    1.2000515   -110.04518    21891.834    4.3264406    4.3264406    4.3264406    21891.834    21211.191     23039.06     21425.25   -10291.691   -8308.7234    20041.569    80.982696 
   62300    1698.7611   -111.59839    1.5370748   -110.06132    19124.537    4.3373085    4.3373085    4.3373085    19124.537    19009.208   -5116.6513    43481.053    1540.4141    8254.0699   -23848.725    81.594512 
   62400    869.68204   -110.86525   0.78690658   -110.07835     14840.97    4.3561358    4.3561358    4.3561358     14840.97    23833.594    19118.158    1571.1573    11342.395    27005.705    35679.533    82.661679 
   62500    1756.5854   -111.64409    1.5893954   -110.05469   -13240.811    4.3670409    4.3670409    4.3670409   -13240.811   -28751.536    7734.0644   -18704.963   -11904.836   -16037.821    1457.0502     83.28404 
   62600    1585.5765   -111.49266     1.434663     -110.058    7594.6139    4.3418141    4.3418141    4.3418141    7594.6139    35630.339    3084.8913   -15931.388    2655.5589    19321.681    7168.2047    81.849056 
   62700    1070.7338   -111.02615   0.96882243   -110.05733    19600.789    4.3124131    4.3124131    4.3124131    19600.789    42570.297    19431.584   -3199.5155    9685.5415    9203.2941    44916.735    80.197542 
   62800    1745.1499   -111.65306    1.5790483   -110.07401    9633.8406    4.3398005    4.3398005    4.3398005    9633.8406   -12609.499    10150.951     31360.07   -32553.496   -15327.808   -12526.212     81.73523 
   62900    1155.0909    -111.1142    1.0451505   -110.06905   -30391.051    4.3632042    4.3632042    4.3632042   -30391.051    5428.0177   -47205.955   -49395.216    868.26242     31247.75    25038.228     83.06472 
   63000    1577.0169   -111.47884     1.426918   -110.05192   -3632.7467    4.3468762    4.3468762    4.3468762   -3632.7467    -5531.036   -18949.844     13582.64   -4162.1362    1051.7427    21272.633     82.13567 
   63100    1533.8532   -111.43941    1.3878626   -110.05155    7384.7106    4.3387443    4.3387443    4.3387443    7384.7106    26244.739   -13797.876    9707.2687    -18863.15    1595.4862   -5070.4952     81.67557 
   63200    974.47782   -110.95863   0.88172801   -110.07691   -24280.535    4.3387604    4.3387604    4.3387604   -24280.535       9575.8   -16952.275   -65465.131     2181.995    44640.353    43761.063    81.676479 
   63300    1830.7072   -111.72705    1.6564624   -110.07059    14500.687    4.3438448    4.3438448    4.3438448    14500.687    32937.552   -1766.6903      12331.2    -2689.904   -7776.1011    5823.5728    81.963953 
   63400    1195.6618   -111.15463    1.0818599   -110.07277   -22883.973    4.3529199    4.3529199    4.3529199   -22883.973   -9410.2285   -12356.935   -46884.757   -4608.9807    10216.347    14367.425    82.478739 
   63500     1218.257   -111.17369    1.1023045   -110.07139   -30287.051    4.3421012    4.3421012    4.3421012   -30287.051   -2361.3089     -10837.3   -77662.544    300.62189    28148.089     34446.79    81.865293 
   63600    1614.6161   -111.53129    1.4609386   -110.07035    5959.6136    4.3377791    4.3377791    4.3377791    5959.6136   -19565.389    26579.901    10864.329   -10872.087   -28243.645    -12337.96    81.621074 
   63700    974.57662   -110.96432    0.8818174    -110.0825    -16141.91    4.3477088    4.3477088    4.3477088    -16141.91   -8984.6922     6673.696   -46114.733   -14607.401    11269.627    24196.006     82.18288 
   63800     1447.808    -111.3708    1.3100071   -110.06079    -5365.274    4.3493004    4.3493004    4.3493004    -5365.274   -7240.8574    23082.754   -31937.718    5609.9501    13739.939    7736.4474    82.273165 
   63900    1474.0995   -111.39383    1.3337962   -110.06004   -25862.203    4.3535272    4.3535272    4.3535272   -25862.203   -45703.189   -11485.166   -20398.254   -8932.4267   -24893.052   -9617.6597    82.513268 
   64000    1307.3336   -111.24794    1.1829029   -110.06504   -20003.074    4.3456111    4.3456111    4.3456111   -20003.074    22168.406   -49761.494   -32416.133   -2880.5688    6471.1203    48269.758    82.063979 
   64100    1499.5683    -111.4166    1.3568409   -110.05976    44924.105    4.3222874    4.3222874    4.3222874    44924.105     14755.65    76322.766    43693.901    12733.649   -5175.5663    3142.2221    80.749701 
   64200    1126.9985   -111.10618    1.0197319   -110.08645   -892.71514    4.3457208    4.3457208    4.3457208   -892.71514    13732.974   -1129.7372   -15281.382   -3426.8745    -3515.921    22836.873    82.070196 
   64300     1523.617   -111.44139    1.3786007   -110.06279   -7047.1114    4.3643696    4.3643696    4.3643696   -7047.1114    17304.253    6285.8404   -44731.428   -13669.539    6420.0632    29032.626    83.131296 
   64400    1498.2315   -111.40969    1.3556313   -110.05406    8835.1719    4.3477624    4.3477624    4.3477624    8835.1719    -17960.28    2437.6779    42028.118    8622.0287   -17323.135    -18812.31     82.18592 
   64500    1066.6435   -111.02849   0.96512145   -110.06337    15380.928    4.3319507    4.3319507    4.3319507    15380.928    16177.093    22549.621    7416.0706    9623.7149    6268.9187    50711.776    81.292504 
   64600      1837.87   -111.72935    1.6629434    -110.0664   -9293.5658     4.338746     4.338746     4.338746   -9293.5658    4315.4007   -19103.329   -13092.769   -2394.3495   -1464.8782    -1350.394    81.675667 
   64700    1046.9336   -111.02227   0.94728754   -110.07498    8672.1204    4.3476883    4.3476883    4.3476883    8672.1204   -27448.149     17421.88    36042.631    12215.018   -4088.1972   -12483.952    82.181717 
   64800    1549.2053   -111.45832    1.4017536   -110.05656    3948.1043    4.3581456    4.3581456    4.3581456    3948.1043    19728.584    2517.0426   -10401.314   -2773.9466    139.62656    42349.215    82.776145 
   64900     1349.724   -111.27608    1.2212586   -110.05482   -14424.579    4.3460446    4.3460446    4.3460446   -14424.579   -13592.867   -10656.543   -19024.328    12435.075   -15118.594    -24920.85    82.088539 
   65000     1401.431   -111.31602    1.2680442   -110.04797    24443.087    4.3287373    4.3287373    4.3287373    24443.087    147.37529    34706.585    38475.301    7495.3567    6839.5233     6299.307    81.111733 
   65100    1888.2429   -111.75675    1.7085218   -110.04823    4048.8203    4.3414537    4.3414537    4.3414537    4048.8203    16087.639   -2020.1944   -1920.9839   -5687.4774   -14245.853    1387.3751    81.828678 
   65200    634.15372   -110.64613   0.57379561   -110.07233   -33301.103    4.3516652    4.3516652    4.3516652   -33301.103   -26139.934   -30692.099   -43071.275    20289.962    -14754.73   -24030.225    82.407443 
   65300     2100.942   -111.95624    1.9009765   -110.05526   -664.47494    4.3493485    4.3493485    4.3493485   -664.47494   -22327.897    4021.4897    16312.982   -4438.3725    2930.2801    12536.584    82.275898 
   65400    1137.0487   -111.09329    1.0288255   -110.06446   -3353.6372    4.3461235    4.3461235    4.3461235   -3353.6372    34487.817   -8666.9665   -35881.762    17259.057   -22401.806   -10617.902    82.093014 
   65500    1209.6517   -111.15423    1.0945183   -110.05971    -11741.82    4.3371741    4.3371741    4.3371741    -11741.82   -4595.1991   -68.972414   -30561.289    12323.263   -18195.566   -16450.602    81.586923 
   65600    1977.6164   -111.84453    1.7893888   -110.05514    2978.5994    4.3432252    4.3432252    4.3432252    2978.5994    29051.798   -26765.252    6649.2523   -19765.007    66.397729    25731.615    81.928886 
   65700    940.33612   -110.92535   0.85083589   -110.07451   -8958.7445    4.3493808    4.3493808    4.3493808   -8958.7445    31289.719   -27548.535   -30617.417    14825.112   -27612.201    -18135.47    82.277728 
   65800     1527.122   -111.45341    1.3817721   -110.07164   -6034.1933    4.3337079    4.3337079    4.3337079   -6034.1933    12392.256   -968.81959   -29526.017    7027.7401   -4127.4924   -438.14206    81.391472 
   65900    1586.6978   -111.51046    1.4356775   -110.07478    9344.8213    4.3338311    4.3338311    4.3338311    9344.8213    50016.017   -7212.8235   -14768.729    -7986.807    8340.3209    38355.944    81.398413 
   66000    1175.7438    -111.1402    1.0638377   -110.07636   -17685.985    4.3477012    4.3477012    4.3477012   -17685.985     5371.573   -33008.304   -25421.224    32827.978     -22125.6    -27578.56    82.182446 
   66100    1306.5797    -111.2578    1.1822208   -110.07558   -16867.037    4.3397301    4.3397301    4.3397301   -16867.037    21303.993   -29741.324    -42163.78    19868.251    1889.3816    34570.787    81.731251 
   66200    1937.9495    -111.8162    1.7534975    -110.0627    14115.741    4.3297065    4.3297065    4.3297065    14115.741     54253.09   -6596.3782   -5309.4889    5988.7049    6866.4905    19109.199    81.166228 
   66300    1062.4956   -111.04267   0.96136838    -110.0813   -11437.196    4.3449635    4.3449635    4.3449635   -11437.196   -23364.346   -2860.2393   -8087.0031     39528.57   -16504.369   -13887.297    82.027295 
   66400    1318.0132   -111.25824    1.1925661   -110.06568   -31035.113    4.3588081    4.3588081    4.3588081   -31035.113   -7193.7523   -31026.028   -54885.559    2707.5256    4904.4089    50297.304    82.813904 
   66500    1745.0151   -111.63435    1.5789263   -110.05542    1859.7382    4.3391235    4.3391235    4.3391235    1859.7382   -25957.684    6449.5223    25087.376    53.823094    8227.1615   -15989.411    81.696987 
   66600    1302.8944   -111.24308    1.1788862   -110.06419   -663.00728    4.3231685    4.3231685    4.3231685   -663.00728    11126.205   -8656.9996   -4458.2271    27892.136   -16447.827    13147.335    80.799092 
   66700    1411.2936   -111.35005    1.2769681   -110.07309    3915.2562    4.3401591    4.3401591    4.3401591    3915.2562    24852.223   -4979.8418    -8126.613   -20033.125    3090.4863    16445.608    81.755492 
   66800    1277.5079   -111.21987     1.155916   -110.06395   -22496.817    4.3554871    4.3554871    4.3554871   -22496.817   -19916.618   -37877.564   -9696.2683    3712.1013    7973.3389   -7431.5624    82.624758 
   66900    1279.7144   -111.21245    1.1579125   -110.05454    5103.9402    4.3477532    4.3477532    4.3477532    5103.9402    10474.526   -4959.4718    9796.7667    15752.395   -22869.022    12163.262    82.185396 
   67000    1284.1867   -111.21622    1.1619591   -110.05426    1259.6929    4.3316668    4.3316668    4.3316668    1259.6929   -6344.5233   -1428.6201    11552.222   -48388.464    29670.385   -11241.692    81.276524 
   67100    1209.1926   -111.15781    1.0941029   -110.06371    29775.751    4.3314951    4.3314951    4.3314951    29775.751    32929.292    28680.325    27717.636    20086.144    2256.0278     7217.708     81.26686 
   67200     1553.602   -111.46946    1.4057318   -110.06372   -13007.776    4.3483795    4.3483795    4.3483795   -13007.776    4501.9252   -22174.421   -21350.831   -9975.7737   -4482.2295    12764.191    82.220916 
   67300    1058.6629   -111.02684   0.95790041   -110.06894   -24986.762    4.3450889    4.3450889    4.3450889   -24986.762   -51508.818   -719.44154   -22732.025   -39048.195    47298.357   -9941.5977      82.0344 
   67400    1989.8915   -111.85083    1.8004956   -110.05034    7418.5769    4.3364956    4.3364956    4.3364956    7418.5769    -1793.952    6428.8536    17620.829    21012.933   -11418.274    7947.1908    81.548639 
   67500    1395.4862   -111.32798    1.2626652   -110.06532   -26641.526     4.341574     4.341574     4.341574   -26641.526   -32027.593   -22618.035   -25278.949   -36746.885    27597.424    17391.798    81.835481 
   67600    1145.0205   -111.10619    1.0360387   -110.07015   -11792.005     4.348198     4.348198     4.348198   -11792.005   -35625.413    15584.359   -15334.963    -22017.92    31391.511   -12098.787    82.210622 
   67700    2131.8791   -111.97785     1.928969   -110.04888    -17578.78    4.3530737    4.3530737    4.3530737    -17578.78   -65.873934    -26504.88   -26165.585    242.78745   -19598.295    12769.012    82.487485 
   67800    767.98417   -110.76497   0.69488822   -110.07009   -7268.9105     4.336313     4.336313     4.336313   -7268.9105   -9227.7296   -11114.047   -1464.9547   -34224.954    38649.892    16866.303    81.538341 
   67900    1746.0425   -111.63877    1.5798559   -110.05891    26457.637    4.3278519    4.3278519    4.3278519    26457.637    43108.397    11994.119    24270.393   -4854.1946    8392.9293     -10853.8    81.061971 
   68000    1432.9677    -111.3632    1.2965793   -110.06662   -4997.7973    4.3498487    4.3498487    4.3498487   -4997.7973    34714.494   -27131.386     -22576.5   -14627.806   -5262.6485    14389.371    82.304285 
   68100    630.71923   -110.64326   0.57068801   -110.07257   -9698.8348    4.3465533    4.3465533    4.3465533   -9698.8348   -22748.551   -16311.845    9963.8922   -37230.639    45144.516     9371.561    82.117371 
   68200    2015.9956   -111.87203    1.8241152   -110.04792    39420.522     4.329441     4.329441     4.329441    39420.522    32733.405     36275.84    49252.321    5852.8557   -18318.082   -7886.1794    81.151298 
   68300    1139.6518   -111.10385    1.0311809   -110.07267    -11781.66    4.3409001    4.3409001    4.3409001    -11781.66   -14049.318   -23778.106     2482.444   -31661.114     22404.95    9002.1352    81.797375 
   68400    1180.9262   -111.13845    1.0685268   -110.06992   -23771.511    4.3476273    4.3476273    4.3476273   -23771.511    -50164.42   -26369.582    5219.4707   -18664.093    36279.724   -8697.3969    82.178257 
   68500    1892.2769   -111.76562    1.7121719   -110.05345    26218.197    4.3380312    4.3380312    4.3380312    26218.197    17047.189    4570.5561    57036.847    792.81531   -19130.216    1310.2722    81.635301 
   68600    1011.9927   -110.99422   0.91567222   -110.07855   -26338.099    4.3413643    4.3413643    4.3413643   -26338.099   -63350.088   -6516.1566   -9148.0517    -39239.15    46760.115     3703.709    81.823622 
   68700    1727.8029   -111.63187    1.5633524   -110.06851    6851.7328    4.3424682    4.3424682    4.3424682    6851.7328   -25189.423     9648.569    36096.052    3413.8002     28608.24   -3872.1987    81.886055 
   68800    1744.3098   -111.64671    1.5782881   -110.06842    16591.049    4.3364063    4.3364063    4.3364063    16591.049   -9700.0433    8874.2108    50598.981   -13905.615   -10089.972    6986.7058    81.543606 
   68900      862.339   -110.86314   0.78026245   -110.08288   -6931.3662    4.3347736    4.3347736    4.3347736   -6931.3662   -43281.036    2393.8382    20093.099   -34822.911    49628.826    14450.004    81.451534 
   69000    1773.2603   -111.66497    1.6044832   -110.06049    21529.917    4.3436509    4.3436509    4.3436509    21529.917    7421.0413    8013.1187    49155.592    11896.405   -2124.2115    -1110.307     81.95298 
   69100      1206.88   -111.16304    1.0920104   -110.07103   -9451.6744    4.3462745    4.3462745    4.3462745   -9451.6744   -26484.962    -4877.662    3007.6006   -34520.684    10904.326    5482.0535    82.101569 
   69200    1135.8553   -111.09886    1.0277457   -110.07111    8431.4964    4.3359032    4.3359032    4.3359032    8431.4964   -9741.1249    24438.202    10597.412   -10948.501    43308.257      17188.8    81.515224 
   69300    1858.9827   -111.74316    1.6820466   -110.06112    21749.864      4.33603      4.33603      4.33603    21749.864    33386.007    3127.4149     28736.17   -2342.1651    -28754.93    -16556.26    81.522377 
   69400     755.5685   -110.76177   0.68365426   -110.07812    3887.1565    4.3489064    4.3489064    4.3489064    3887.1565   -26898.397    19851.159    18708.708   -39696.448    25587.399    6551.7387    82.250812 
   69500    1553.0187   -111.46299    1.4052039   -110.05778   -5669.8239    4.3502895    4.3502895    4.3502895   -5669.8239   -1910.1317    17901.994   -33001.333    5619.3744    16726.234   -15944.025    82.329308 
   69600    1387.1532   -111.30608    1.2551254   -110.05095    12776.414    4.3336147    4.3336147    4.3336147    12776.414   -17965.862   -14143.067    70438.171   -32448.367   -11954.569   -5408.3453    81.386223 
   69700    1186.0524   -111.13576    1.0731652   -110.06259    2030.3613    4.3318111    4.3318111    4.3318111    2030.3613   -54987.337    37889.317    23189.104   -20552.137    49220.841   -5697.7673     81.28465 
   69800    1736.1291   -111.63509    1.5708861    -110.0642    3845.9238     4.344414     4.344414     4.344414    3845.9238     1903.197     16624.47   -6989.8955    8450.6515    8011.3222   -11128.209     81.99618 
   69900    1089.8895   -111.05338   0.98615497   -110.06722    4534.5755    4.3458459    4.3458459    4.3458459    4534.5755   -33794.633    7875.5112    39522.848   -32920.358    11726.449   -6993.0598     82.07728 
   70000    1348.6778   -111.28118    1.2203121   -110.06087    3143.7801    4.3440897    4.3440897    4.3440897    3143.7801   -34575.528    37770.049    6236.8189   -360.69206    29054.983   -13104.686    81.977817 
   70100    1459.9287    -111.3769    1.3209741   -110.05593    12441.866     4.335213     4.335213     4.335213    12441.866    1938.5976    21095.229    14291.771   -3427.3691   -10637.035   -6092.5884    81.476305 
   70200    1111.5538     -111.077    1.0057572   -110.07125     6646.835    4.3335961    4.3335961    4.3335961     6646.835   -35016.393    29698.303    25258.595   -29051.026    28093.603    -6615.559    81.385175 
   70300    1797.5043   -111.69148    1.6264197   -110.06506    14524.344    4.3405229    4.3405229    4.3405229    14524.344   -6503.6089    46694.785    3381.8559    16870.017    8737.3255    9007.5187    81.776056 
   70400     992.4475   -110.97211   0.89798736   -110.07412     2519.348    4.3386544    4.3386544    4.3386544     2519.348   -21163.607    38664.607   -9942.9558   -23791.744   -29388.245   -10790.452    81.670493 
   70500    1399.3779   -111.33806    1.2661865   -110.07187   -3985.9661    4.3430365    4.3430365    4.3430365   -3985.9661   -34375.464    6786.3632    15631.203   -20428.489    24966.039    10149.888    81.918207 
   70600    1706.9693   -111.60473    1.5445017   -110.06022    -10219.56    4.3438529    4.3438529    4.3438529    -10219.56   -32653.545    32793.976   -30799.111    5004.6002   -29258.947    15558.639    81.964415 
   70700    1124.9855   -111.08338    1.0179106   -110.06546    -6191.423    4.3322668    4.3322668    4.3322668    -6191.423    -32116.26    3297.1427    10244.848   -47602.861   -16891.946   -6572.2267    81.310305 
   70800    1858.0049   -111.74489    1.6811619   -110.06373    15898.243    4.3350513    4.3350513    4.3350513    15898.243    10167.962    41043.087   -3516.3189    10610.582    8646.0546      13428.3    81.467188 
   70900    1251.7434   -111.20821    1.1326037   -110.07561   -27471.063     4.346162     4.346162     4.346162   -27471.063   -39397.666     1303.761   -44319.285   -21549.927   -34962.873    13646.055    82.095191 
   71000    973.16874   -110.95906   0.88054353   -110.07852    5667.7579    4.3359598    4.3359598    4.3359598    5667.7579   -15480.746    28708.654    3775.3656   -34767.277    5654.1803   -11582.646    81.518416 
   71100    1817.7595   -111.70512     1.644747   -110.06038    26456.318    4.3305499    4.3305499    4.3305499    26456.318    36656.374    51946.011   -9233.4324    17115.505   -21026.645    4888.3848    81.213669 
   71200    1070.6037   -111.04284   0.96870476   -110.07414   -9349.9691    4.3436646    4.3436646    4.3436646   -9349.9691   -28669.175    12075.357   -11456.089   -40012.249   -17485.893    14964.194    81.953755 
   71300    1752.5384   -111.65031    1.5857336   -110.06457    -11708.59    4.3479678    4.3479678    4.3479678    -11708.59   -14626.242   -22635.258    2135.7299   -25770.358    171.15988   -12818.746    82.197564 
   71400    1600.2832    -111.5155    1.4479698   -110.06753    20572.616     4.329422     4.329422     4.329422    20572.616    6233.1769    53786.582    1698.0889    7121.4804    -15731.68    17053.953    81.150232 
   71500    808.85213   -110.82199    0.7318664   -110.09012   -24961.052    4.3358435    4.3358435    4.3358435   -24961.052   -55828.626   -40704.546    21650.015    -74059.02   -5074.7763    2127.9702    81.511861 
   71600    2121.9055   -111.98436    1.9199447   -110.06442    814.57609    4.3481124    4.3481124    4.3481124    814.57609    9138.9926    1400.3815   -8095.6458    3489.8384    2269.9529   -3942.0815    82.205769 
   71700      1140.53   -111.10339    1.0319755   -110.07142    8834.9331    4.3421351    4.3421351    4.3421351    8834.9331   -9783.4482    25500.726    10787.521   -20797.813   -3133.9633    12185.699    81.867212 
   71800    950.81618    -110.9335   0.86031846   -110.07318    6582.3381     4.345588     4.345588     4.345588    6582.3381    3224.0195   -32839.923    49362.917   -45399.278    1528.6139   -4465.2959    82.062672 
   71900    2022.7829   -111.87828    1.8302565   -110.04802     10894.31    4.3446666    4.3446666    4.3446666     10894.31    43700.328    14201.567   -25218.966    27189.361    20615.488   -1083.0071    82.010481 
   72000    535.15155   -110.56126   0.48421637   -110.07705   -7433.0485     4.335345     4.335345     4.335345   -7433.0485   -19633.937   -17608.367    14943.159   -71610.671    -10275.32    10289.696    81.483745 
   72100    1832.5638   -111.73221    1.6581422   -110.07406   -2304.4606     4.336508     4.336508     4.336508   -2304.4606   -5551.8296   -15247.528    13885.976   -4029.0501    7066.5011    9011.1315    81.549338 
   72200    1571.1276   -111.49532    1.4215893   -110.07373    10346.103    4.3430234    4.3430234    4.3430234    10346.103   -12050.533    21642.764    21446.078   -9742.8929    9598.6805    -6337.308    81.917465 
   72300    1072.9335   -111.04605   0.97081278   -110.07524   -27400.853    4.3503039    4.3503039    4.3503039   -27400.853   -64966.125   -5711.3987   -11525.035   -59874.587   -11499.601    21598.813    82.330129 
   72400    1909.4499   -111.77749    1.7277104   -110.04978    2799.9595    4.3427152    4.3427152    4.3427152    2799.9595   -3355.0591    32762.284   -21007.346    32409.062    -2033.839    9802.2512    81.900026 
   72500     1056.807   -111.01352   0.95622117    -110.0573   -4552.3903    4.3396948    4.3396948    4.3396948   -4552.3903   -16027.302   -30211.296    32581.427   -54294.942    2659.1347   -5718.7314     81.72926 
   72600    1473.7736   -111.38851    1.3335014   -110.05501   -5885.2281     4.347186     4.347186     4.347186   -5885.2281   -2332.6327    9496.8887    -24819.94    2010.8938   -21869.949    37142.406    82.153236 
   72700    1615.0392   -111.51002    1.4613214    -110.0487   -12411.432    4.3446734    4.3446734    4.3446734   -12411.432   -27707.823   -11802.792    2276.3186   -25704.669   -3404.7307    619.16367    82.010868 
   72800    1247.9345   -111.19033    1.1291574   -110.06118    4696.3226    4.3410408    4.3410408    4.3410408    4696.3226   -6940.3741   -4125.2435    25154.585   -50799.832    532.99237    9093.6431    81.805328 
   72900    1856.6011   -111.72665    1.6798917   -110.04676   -19708.903    4.3498673    4.3498673    4.3498673   -19708.903   -23385.418    -4224.423   -31516.869    3754.5684   -19005.923    21144.029     82.30534 
   73000    815.99071   -110.79572   0.73832555    -110.0574   -19603.677     4.347144     4.347144     4.347144   -19603.677   -70413.765   -3619.0378    15221.773   -81925.665     641.7706    792.10901    82.150852 
   73100    1927.2264   -111.78957    1.7437949   -110.04578     12909.13    4.3461476    4.3461476    4.3461476     12909.13   -2902.2522    63131.092   -21501.449     20227.26    9968.6417    11843.239    82.094377 
   73200    1002.3597   -110.96579   0.90695616   -110.05884    14079.354    4.3424989    4.3424989    4.3424989    14079.354    -35029.04    49919.904    27347.197    -51220.55   -7015.0348    12487.321    81.887791 
   73300    1328.7049   -111.25926    1.2022401   -110.05702    8602.5719    4.3439375    4.3439375    4.3439375    8602.5719   -17569.867   -3701.2506    47078.833   -15436.726    5666.7818    7367.3318    81.969201 
   73400    1659.6725   -111.54826    1.5017066   -110.04656   -20230.078    4.3502209    4.3502209    4.3502209   -20230.078   -14666.679   -32887.769   -13135.786    10774.442    6892.6358    7694.1196    82.325416 
   73500    1017.3095   -110.97961   0.92048302   -110.05913   -10600.278    4.3405908    4.3405908    4.3405908   -10600.278   -31685.592    -24950.49    24835.247    -74602.09   -12181.792    920.19786    81.779891 
   73600    2095.3074   -111.94262    1.8958782   -110.04674    -222.0226     4.344398     4.344398     4.344398    -222.0226    10079.326    10830.716    -21576.11    37279.556    19299.651    11552.527    81.995274 
   73700    758.18973   -110.74644     0.686026   -110.06042   -37636.644    4.3550686    4.3550686    4.3550686   -37636.644   -73422.669   -52842.013    13354.749   -53317.543    -13800.48   -8923.0005    82.600945 
   73800    1553.3529   -111.44869    1.4055064   -110.04318   -2982.1411    4.3383565    4.3383565    4.3383565   -2982.1411   -6800.9441   -12453.851    10308.372   -16857.312      3995.92    6688.8698    81.653673 
   73900    1395.9923   -111.31276    1.2631232   -110.04964   -15807.409    4.3374507    4.3374507    4.3374507   -15807.409   -8385.2012   -21262.323   -17774.703    1864.2602    21942.904    27009.109    81.602536 
   74000    1054.1111   -111.01415   0.95378183   -110.06036   -19103.215    4.3450136    4.3450136    4.3450136   -19103.215     -48740.6    -50573.86    42004.815   -61473.086   -16656.769   -15095.727    82.030132 
   74100    1997.9637   -111.85429    1.8077995   -110.04649    5186.5725    4.3439457    4.3439457    4.3439457    5186.5725    8805.8641    15839.163   -9085.3099    19255.456    23059.429    27083.355    81.969664 
   74200    937.67327   -110.91107   0.84842648   -110.06265   -43235.879    4.3556724    4.3556724    4.3556724   -43235.879   -66844.533   -74764.375    11901.271   -52515.329    8750.4985   -6410.1027    82.635304 
   74300    1730.2535   -111.61165    1.5655698   -110.04608    9527.4273    4.3366923    4.3366923    4.3366923    9527.4273   -2720.2803   -3813.5912    35116.153   -9323.8539    6518.2238    4127.4823    81.559738 
   74400    1343.9594   -111.26675    1.2160427   -110.05071    31341.737    4.3202753    4.3202753    4.3202753    31341.737    20340.669    7175.5372    66509.005   -15351.571    5523.0008    25284.173     80.63698 
   74500    1196.8766   -111.16321    1.0829591   -110.08025   -28708.973    4.3499935    4.3499935    4.3499935   -28708.973   -27957.464   -66155.739    7986.2837   -58955.445    14433.173   -8299.6071    82.312508 
   74600    2340.8108   -112.15927    2.1180148   -110.04126   -3748.2882     4.354904     4.354904     4.354904   -3748.2882   -11773.282    2693.6003   -2165.1827    14257.269    12877.189    2981.6449    82.591578 
   74700    660.27393   -110.65502   0.59742972   -110.05759   -4235.4827    4.3401365    4.3401365    4.3401365   -4235.4827   -18139.182   -54117.922    59550.657   -67170.456    3625.9035    26070.285    81.754216 
   74800    1805.2526   -111.67822    1.6334305   -110.04479    16809.333     4.345224     4.345224     4.345224    16809.333    18687.695    11552.257    20188.049     17892.74     16415.56    13513.518    82.042052 
   74900    1366.4473   -111.28952    1.2363902   -110.05313   -19798.562     4.358242     4.358242     4.358242   -19798.562   -52487.654   -34348.657    27440.626   -52466.832    1697.0852    3975.3243    82.781641 
   75000    1426.5308   -111.33439     1.290755   -110.04364   -9408.7059    4.3654604    4.3654604    4.3654604   -9408.7059    13239.755   -31025.244   -10440.628   -12658.468    8100.4953    29847.973    83.193644 
   75100    1390.5165   -111.28631    1.2581686   -110.02814   -7319.7238    4.3572609    4.3572609    4.3572609   -7319.7238   -33756.714    7058.2061    4739.3361   -15270.022    1327.9625     5905.364    82.725748 
   75200    1102.3817   -111.03014   0.99745813   -110.03268   -24572.037    4.3407433    4.3407433    4.3407433   -24572.037   -40207.746   -49092.227    15583.861   -54341.153    2177.4312   -2910.2759    81.788512 
   75300    1885.1531   -111.74178    1.7057261   -110.03605    33995.361    4.3396382    4.3396382    4.3396382    33995.361     61299.63    42030.229   -1343.7763    21249.259    4044.9238    16141.547    81.726062 
   75400    1071.1414   -111.03831   0.96919121   -110.06912    -32117.18    4.3566655    4.3566655    4.3566655    -32117.18   -65949.083   -56827.541    26425.084   -74178.158   -3052.7194   -7425.2059    82.691841 
   75500    1739.6347   -111.62143     1.574058   -110.04737    6700.7855    4.3499128    4.3499128    4.3499128    6700.7855    20437.256   -14617.352    14282.453    15463.857   -366.68084   -387.88932    82.307924 
   75600    1109.2099   -111.05666    1.0036364   -110.05302    20797.428    4.3497427    4.3497427    4.3497427    20797.428    -5975.145   -462.22624    68829.656   -36928.402    11907.982    -1688.181    82.298272 
   75700    1337.1205   -111.25407    1.2098547   -110.04422   -14103.179    4.3518703    4.3518703    4.3518703   -14103.179    -22749.27   -60486.275    40926.009   -26795.064    2157.5827   -6212.0857    82.419095 
   75800      1643.19    -111.5172    1.4867929   -110.03041    18829.171    4.3388054    4.3388054    4.3388054    18829.171    7832.8504    14845.158    33809.506    12689.902   -121.88512   -6882.6154    81.679017 
   75900    1199.2166   -111.13287    1.0850764   -110.04779   -1671.1494    4.3553663    4.3553663    4.3553663   -1671.1494   -26857.451   -16066.695    37910.698   -54163.588    12401.419   -1816.4013    82.617883 
   76000    1804.1156   -111.66719    1.6324017   -110.03478   -19441.712     4.358104     4.358104     4.358104   -19441.712    -2960.946   -27756.283   -27607.907    29308.405    2674.5757   -9367.2667    82.773777 
   76100    829.46519   -110.79729   0.75051753   -110.04677    5388.2093    4.3329822    4.3329822    4.3329822    5388.2093   -8879.4114    1664.3286    23379.711   -48143.509    5494.4366   -9503.6978    81.350592 
   76200    1792.4644   -111.67238    1.6218595   -110.05052    19197.132     4.334329     4.334329     4.334329    19197.132    5266.6521    41461.619    10863.125   -18332.758     4633.983     5602.833    81.426473 
   76300    1461.5635   -111.38563    1.3224534   -110.06317   -11335.316    4.3487372    4.3487372    4.3487372   -11335.316   -21752.623    8358.0507   -20611.376    14819.487   -119.92027   -12929.126    82.241211 
   76400    1241.4431   -111.18677    1.1232838   -110.06349    1573.5218    4.3547477    4.3547477    4.3547477    1573.5218   -35057.804    25464.693    14313.676   -48528.512    9477.4122   -2705.9299    82.582685 
   76500    1768.0328   -111.64767    1.5997532   -110.04792    11071.897    4.3485268    4.3485268    4.3485268    11071.897    21808.289    8260.2941    3147.1094     19376.25   -3160.1751    7574.3577    82.229271 
   76600    1316.3713   -111.24929    1.1910804   -110.05821   -17555.583    4.3396677    4.3396677    4.3396677   -17555.583   -50879.128   -8040.0053    6252.3842   -36300.715    3199.9421   -1932.6717    81.727728 
   76700    1590.9704   -111.49544    1.4395435    -110.0559    14554.538    4.3452658    4.3452658    4.3452658    14554.538    12441.649    20161.603    11060.362   -13316.335    1576.9399    10601.357    82.044419 
   76800    1479.8808   -111.39259    1.3390272   -110.05356    8090.2277    4.3448729    4.3448729    4.3448729    8090.2277   -16336.675    19478.031    21129.327    10369.385    3514.9399    13621.643    82.022164 
   76900    1477.1931   -111.38569    1.3365953   -110.04909   -5862.0136    4.3608096    4.3608096    4.3608096   -5862.0136   -19317.309   -5839.1875    7570.4554   -30241.356    8860.5905   -4191.4808    82.928036 
   77000    1469.3685   -111.37043    1.3295155   -110.04092   -21542.054    4.3553749    4.3553749    4.3553749   -21542.054   -8155.2498   -37880.175   -18590.738    9473.3058    14981.365    30569.915    82.618374 
   77100    1323.3008   -111.23812    1.1973504   -110.04076    13624.802    4.3239046    4.3239046    4.3239046    13624.802     10171.47   -10296.891    40999.827   -10023.928    2849.6771    6898.1866    80.840375 
   77200    1731.6172   -111.62069    1.5668036   -110.05389    16294.779    4.3383343    4.3383343    4.3383343    16294.779    32549.312    3516.0256    12819.001   -5396.0532   -2127.6421    1051.1482    81.652419 
   77300    1221.3811   -111.16603    1.1051313    -110.0609   -26304.702    4.3519754    4.3519754    4.3519754   -26304.702   -14071.903   -47052.207   -17789.996   -1595.6466    19527.669    24846.318    82.425067 
   77400    1661.8854   -111.54921    1.5037088    -110.0455    4684.5063    4.3482684    4.3482684    4.3482684    4684.5063    14545.503   -39060.948    38568.964    -6073.106   -16306.502    -7141.628    82.214616 
   77500    1062.7356    -111.0114   0.96158547   -110.04982   -33441.322     4.354793     4.354793     4.354793   -33441.322    13650.822   -44666.458   -69308.331    3034.8154     11741.99   -3768.4626    82.585262 
   77600    1425.4289    -111.3388     1.289758   -110.04904   -10768.497    4.3323976    4.3323976    4.3323976   -10768.497   -24980.964   -38945.398    31620.872    5065.8077    4343.7064    18909.075    81.317667 
   77700    1704.5226   -111.59633    1.5422878   -110.05404    3395.2633    4.3324177    4.3324177    4.3324177    3395.2633    19879.693   -18917.612    9223.7089   -770.96731   -8089.8332   -16069.449    81.318803 
   77800    1173.5347    -111.1265    1.0618389   -110.06466   -39924.356    4.3604742    4.3604742    4.3604742   -39924.356   -26285.941   -49448.256    -44038.87   -2414.1019    2339.0864    516.21368    82.908902 
   77900    1569.4674   -111.46647    1.4200871   -110.04638   -9816.3614    4.3548879    4.3548879    4.3548879   -9816.3614   -11054.874   -66942.324    48548.113     22417.75   -7173.3349    4717.3094    82.590659 
   78000    1364.5084   -111.28576    1.2346359   -110.05113   -19434.449    4.3316373    4.3316373    4.3316373   -19434.449    19247.436   -47934.312   -29616.473   -5812.0357   -1854.0036   -59790.747    81.274863 
   78100    1693.7682   -111.59805    1.5325571   -110.06549    2596.7843    4.3312212    4.3312212    4.3312212    2596.7843   -587.27267   -9561.9101    17939.536    686.19316   -6216.0081      27377.2    81.251446 
   78200    1264.6121   -111.21558    1.1442476   -110.07133   -27124.547     4.356378     4.356378     4.356378   -27124.547    4413.2492   -74565.065   -11221.826    19047.538    6267.4735   -47790.147    82.675472 
   78300    1367.0951   -111.28839    1.2369764   -110.05141   -11927.573    4.3574425    4.3574425    4.3574425   -11927.573    -6195.969   -37884.549    8297.7991   -6092.4346    500.43912   -23108.987    82.736093 
   78400    1733.4816   -111.60604    1.5684906   -110.03755   -2552.4817    4.3465256    4.3465256    4.3465256   -2552.4817    20703.066   -33272.283    4911.7715    8584.8387    3015.3927    4826.7638    82.115798 
   78500    1080.6131   -111.03401   0.97776143   -110.05625   -13842.957     4.334732     4.334732     4.334732   -13842.957    18653.484    -64229.71    4047.3555    124.52336    9821.7708   -79066.288    81.449187 
   78600    2158.4439   -112.01063    1.9530054   -110.05762    12907.672    4.3290675    4.3290675    4.3290675    12907.672    17204.001    19635.484    1883.5301   -7346.7191   -15265.751    25015.436    81.130296 
   78700    732.91845   -110.75398   0.66316001   -110.09082   -6788.8376    4.3494982    4.3494982    4.3494982   -6788.8376    15458.484   -50632.116    14807.119    7089.0186   -7115.4898   -47706.239    82.284394 
   78800    1645.0328   -111.55537    1.4884603   -110.06691   -33488.571     4.361305     4.361305     4.361305   -33488.571   -18370.522   -47965.539   -34129.653    1395.1523    3757.3361   -22015.779      82.9563 
   78900    1568.6765   -111.47526    1.4193715   -110.05589    12930.902     4.338109     4.338109     4.338109    12930.902    40045.536   -9024.5291    7771.7005   -4240.2896   -16975.293   -2425.0679    81.639696 
   79000    997.59498   -110.96028    0.9026449   -110.05764    12477.563    4.3318072    4.3318072    4.3318072    12477.563    37153.345   -16939.803    17219.146    3966.2126   -13637.231   -57938.059    81.284427 
   79100    1662.7639   -111.55066    1.5045037   -110.04616    12976.021    4.3531132    4.3531132    4.3531132    12976.021   -4641.4148    12620.293    30949.184    1856.9821   -5356.6017    8838.7905    82.489728 
   79200    729.51321   -110.71689   0.66007888   -110.05681    5655.9703    4.3617766    4.3617766    4.3617766    5655.9703    41180.878   -8720.4748   -15492.492   -16418.994    -21257.22   -60884.556    82.983215 
   79300    1850.8854   -111.70139      1.67472   -110.02667    7633.0581    4.3578902    4.3578902    4.3578902    7633.0581   -15058.833    47753.481   -9795.4731   -5710.4235    5717.9791    792.00836    82.761594 
   79400    1073.9176   -111.02026   0.97170319   -110.04856    19345.027    4.3276318    4.3276318    4.3276318    19345.027    8241.0113    49068.792    725.27822   -19518.666   -14973.307   -35157.599    81.049605 
   79500    1114.2299   -111.08065    1.0081787   -110.07247    20018.298    4.3213869    4.3213869    4.3213869    20018.298    15505.807    29504.312    15044.775    -7023.005   -2671.6044   -48884.974    80.699242 
   79600    2069.1631   -111.93589    1.8722223   -110.06367   -7726.1644    4.3560905    4.3560905    4.3560905   -7726.1644   -24463.773   -4124.1139    5409.3937    1791.9347   -1712.0682    24367.018    82.659104 
   79700    765.30898   -110.76577   0.69246765    -110.0733   -31094.352    4.3610292    4.3610292    4.3610292   -31094.352   -23045.763   -33986.511   -36250.783   -15333.083   -21275.373   -47646.936    82.940566 
   79800    1677.3012   -111.56691    1.5176574   -110.04925    10657.958    4.3464522    4.3464522    4.3464522    10657.958   -15980.663     34097.94    13856.598    6828.1024    17686.471    7038.0694     82.11164 
   79900    1804.4973    -111.6836    1.6327471   -110.05085    165.32908    4.3270715    4.3270715    4.3270715    165.32908    30037.531   -18040.271   -11501.274   -894.83377   -6632.4285   -28349.594    81.018128 
   80000    974.34513   -110.95513   0.88160795   -110.07352    10177.843    4.3243957    4.3243957    4.3243957    10177.843    18391.276    17860.706   -5718.4535   -9120.3218   -6614.0934    -38634.31    80.867921 
   80100    1502.0663   -111.43235    1.3591012   -110.07325   -15039.152    4.3576092    4.3576092    4.3576092   -15039.152   -27288.065    4947.2078   -22776.599   -2479.1606    20730.477      14976.7    82.745588 
   80200    1243.5611   -111.18288    1.1252002   -110.05768   -40503.084    4.3597848    4.3597848    4.3597848   -40503.084    12951.422     -76980.1   -57480.574    3105.9996    4163.6059   -61112.513    82.869585 
   80300    1596.6655   -111.48097    1.4446965   -110.03627    25625.825    4.3242481    4.3242481    4.3242481    25625.825    35982.345    20676.108     20219.02   -4161.5667    -9875.247    5544.5228    80.859638 
   80400    1196.2775   -111.14015     1.082417   -110.05773    8950.8861    4.3246396    4.3246396    4.3246396    8950.8861    1181.0604    5726.0309    19945.567    245.56662    14700.987   -26533.418    80.881603 
   80500    1202.7355   -111.15268    1.0882603   -110.06442   -13666.815    4.3551391    4.3551391    4.3551391   -13666.815    13862.835   -36163.607   -18699.674    9334.1672    6186.0294   -45661.025    82.604956 
   80600    1660.4269   -111.55151    1.5023891   -110.04912   -13067.651    4.3552788    4.3552788    4.3552788   -13067.651   -40949.735    18166.292    -16419.51   -8747.9492   -6511.8439    8431.1146    82.612903 
   80700    741.33232   -110.73506   0.67077306   -110.06429   -3768.8903    4.3375039    4.3375039    4.3375039   -3768.8903    8881.9798     15261.46   -35450.111    14916.239    10155.389   -56058.774    81.605536 
   80800    1854.8952   -111.74388    1.6783481   -110.06553    16647.848    4.3251577    4.3251577    4.3251577    16647.848    11213.385    13397.353    25332.807    5883.7122   -3782.4636   -9308.0594    80.910677 
   80900    1289.0868   -111.25383    1.1663928   -110.08744    30191.997    4.3344887    4.3344887    4.3344887    30191.997    42585.019    50975.281   -2984.3082    2127.5217    10385.097   -22495.598    81.435476 
   81000    904.75646   -110.89627   0.81864266   -110.07763   -36675.561    4.3627651    4.3627651    4.3627651   -36675.561   -15156.267   -49642.398   -45228.019    14258.201   -8184.4187   -53095.997    83.039645 
   81100    2008.7842   -111.86811    1.8175902   -110.05052   -7508.2619    4.3417403    4.3417403    4.3417403   -7508.2619   -31407.128   -19085.132    27967.474   -4101.3377   -5742.7546    19213.442    81.844884 
   81200    1117.2414   -111.06431    1.0109035    -110.0534    7777.7844    4.3147078    4.3147078    4.3147078    7777.7844    60218.069   -18166.433   -18718.282   -7176.3426    18465.714   -73368.968    80.325638 
   81300    1296.4737   -111.24878    1.1730766   -110.07571     719.8891    4.3313871    4.3313871    4.3313871     719.8891    9347.8795    4874.6934   -12062.906    14106.449    -14769.47   -1980.2672    81.260784 
   81400    1459.7011   -111.39323    1.3207683   -110.07246   -16602.437    4.3476942    4.3476942    4.3476942   -16602.437   -18020.525   -18238.457   -13548.327    3214.2682   -168.92751   -10722.495     82.18205 
   81500    1353.1914   -111.29084    1.2243961   -110.06644   -21745.002    4.3498622    4.3498622    4.3498622   -21745.002    26520.411   -44628.522   -47126.895   -11638.847    7982.5349   -49274.463     82.30505 
   81600     1575.924   -111.48146    1.4259292   -110.05553    6081.2564    4.3362933    4.3362933    4.3362933    6081.2564    -2771.669    33399.921   -12384.483    18622.382   -19972.233    19424.419    81.537227 
   81700    710.23921   -110.71142   0.64263937   -110.06878    -1840.589    4.3210827    4.3210827    4.3210827    -1840.589    17485.743   -13201.054   -9806.4556   -4413.5655   -10822.943    -55382.02      80.6822 
   81800     1815.161   -111.72373    1.6423959   -110.08134   -15607.987    4.3396508    4.3396508    4.3396508   -15607.987   -22782.888   -7073.4611   -16967.611    -10205.98    3625.5346   -928.29935    81.726774 
   81900    1578.7474   -111.50037    1.4284838   -110.07189   -14120.414    4.3513056    4.3513056    4.3513056   -14120.414    -31803.24    16706.255   -27264.256     12092.97    -27809.55   -6116.5966    82.387016 
   82000    863.01068   -110.85352    0.7808702   -110.07265     17237.87    4.3277471    4.3277471    4.3277471     17237.87    30215.366    -10081.99    31580.234   -6091.1973    -13182.69   -55456.617    81.056087 
   82100     1757.341   -111.65297    1.5900791    -110.0629    5152.9563    4.3300869    4.3300869    4.3300869    5152.9563   -29073.274     12849.62    31682.523   -13214.718    276.32551    19104.937    81.187622 
   82200    1166.4719   -111.12595    1.0554483    -110.0705   -17371.109    4.3447118    4.3447118    4.3447118   -17371.109    5418.5999   -13347.491   -44184.435    8855.4604   -23113.411   -31539.101     82.01304 
   82300    1329.6083   -111.27115    1.2030576   -110.06809    7534.9525    4.3345386    4.3345386    4.3345386    7534.9525    21807.229   -16975.994    17773.623   -8600.7275    7057.0111   -25598.663    81.438286 
   82400    1627.4902   -111.53914    1.4725873   -110.06655    -5699.026    4.3383747    4.3383747    4.3383747    -5699.026   -28393.771   -6504.1355    17800.829   -6289.5604    87.018565   -979.16255    81.654696 
   82500    1427.7614    -111.3586    1.2918685   -110.06673   -15696.756    4.3374798    4.3374798    4.3374798   -15696.756     28305.94   -34531.561   -40864.646   -56.735291   -20476.221   -43537.042    81.604177 
   82600    1132.7809   -111.09495     1.024964   -110.06998    6349.3919    4.3267128    4.3267128    4.3267128    6349.3919     1112.829    -11535.66    29471.006   -30349.211    16579.362    2893.1332    80.997983 
   82700    1486.3769   -111.42295    1.3449051   -110.07805   -19478.763    4.3421061    4.3421061    4.3421061   -19478.763   -30160.692   -9864.7388   -18410.858    7145.7244    16377.814   -17071.334    81.865571 
   82800    1638.4358    -111.5536    1.4824912    -110.0711    2155.8942    4.3379454    4.3379454    4.3379454    2155.8942    37882.761    -5483.541   -25931.538   -6375.4893   -8129.1388   -39190.661    81.630459 
   82900    1242.5451   -111.19863    1.1242809   -110.07435    4394.6228    4.3293789    4.3293789    4.3293789    4394.6228   -14900.959    3581.5201    24503.307   -19445.521    24646.208    14247.473    81.147809 
   83000    1237.7052   -111.19747    1.1199017   -110.07757   -26289.858    4.3360062    4.3360062    4.3360062   -26289.858   -5855.3048   -25545.231   -47469.037    17106.822     5827.846   -45467.749    81.521036 
   83100    1604.1648   -111.52295    1.4514821   -110.07147    9360.5903    4.3301721    4.3301721    4.3301721    9360.5903    41482.494   -4130.7769   -9269.9466   -2226.1813   -10514.246   -18092.063     81.19242 
   83200    1353.6157   -111.30387    1.2247799   -110.07909   -10811.637    4.3373024    4.3373024    4.3373024   -10811.637   -21746.218   -15792.445    5103.7505   -9407.4266    22184.486    -949.8471    81.594168 
   83300    1134.3751    -111.1058    1.0264064   -110.07939   -21050.625    4.3439124    4.3439124    4.3439124   -21050.625    8286.0999   -27342.004    -44095.97    6736.5037    3287.9281   -49091.066    81.967781 
   83400    1891.9054   -111.77863    1.7118357    -110.0668     12377.58    4.3279795    4.3279795    4.3279795     12377.58    23268.559    10377.971    3486.2093   -7015.3547   -26541.019    20067.541    81.069142 
   83500     1189.144   -111.15638    1.0759625   -110.08041   -4109.2913    4.3268978    4.3268978    4.3268978   -4109.2913    11251.416   -32756.218    9176.9283   -7810.3752    23582.749   -39522.041    81.008373 
   83600    1127.5873   -111.10709    1.0202647   -110.08682   -21538.588     4.340624     4.340624     4.340624   -21538.588    24330.094   -31830.451   -57115.405    786.92325   -12423.535   -18594.993    81.781769 
   83700    1730.0248   -111.63314    1.5653628   -110.06777   -8550.6411    4.3458922    4.3458922    4.3458922   -8550.6411    -10469.71    9200.5221   -24382.735   -6882.1018   -30576.634    8377.1747    82.079905 
   83800    1227.6749   -111.18578     1.110826   -110.07495   -12475.635    4.3354607    4.3354607    4.3354607   -12475.635     18579.05    -10588.26   -45417.694    83.507179    32029.214   -59897.105    81.490269 
   83900    1468.4111   -111.39706    1.3286493   -110.06841    20032.731    4.3195891    4.3195891    4.3195891    20032.731    19168.301    18620.138    22309.755     219.0671   -23880.161    20459.698    80.598562 
   84000    1364.1084   -111.31524    1.2342739   -110.08097   -6573.2417    4.3338551    4.3338551    4.3338551   -6573.2417     5463.069   -2394.6358   -22788.158    9490.4096   -15647.162   -45259.688    81.399764 
   84100    1549.2093    -111.4714    1.4017571   -110.06964    -6558.234    4.3451838    4.3451838    4.3451838    -6558.234     14572.22   -4358.9986   -29887.924   -1744.0523    7919.9627   -29144.523    82.039774 
   84200    1235.6632   -111.18663    1.1180541   -110.06857    9684.0743    4.3336311    4.3336311    4.3336311    9684.0743   -1236.7425    6526.5663    23762.399    7410.6097   -17105.085    23404.011    81.387143 
   84300    1154.8634   -111.11871    1.0449447   -110.07377   -6753.0496    4.3339344    4.3339344    4.3339344   -6753.0496    17087.794   -5789.8221    -31557.12    8265.4178   -12243.469   -58467.764    81.404235 
   84400    1986.1042   -111.86122    1.7970688   -110.06415    26155.337    4.3295754    4.3295754    4.3295754    26155.337    28263.379    34931.218    15271.415    1507.8388    11602.004    22318.718    81.158857 
   84500    1132.6379   -111.10731    1.0248346   -110.08247    7215.4061    4.3341165    4.3341165    4.3341165    7215.4061    5622.5725   -6257.1166    22280.762    6614.3295   -25940.257   -5744.1281    81.414499 
   84600    1421.5685   -111.35832    1.2862651   -110.07206   -9372.9531    4.3449689    4.3449689    4.3449689   -9372.9531    2816.8626    15146.709   -46082.431    5842.4241    3510.8179   -27887.646    82.027602 
   84700      1476.03   -111.40238     1.335543   -110.06684    19196.227    4.3289987    4.3289987    4.3289987    19196.227    18959.267    39963.808    -1334.394    2311.0957    32700.696    19462.202    81.126433 
   84800    1435.4563   -111.36947     1.298831   -110.07064    15599.275    4.3259206    4.3259206    4.3259206    15599.275    8008.0038    17163.925    21625.896    13678.435   -33912.975    -13846.05    80.953502 
   84900    1264.1037   -111.21952    1.1437876   -110.07573   -3535.0013    4.3393926    4.3393926    4.3393926   -3535.0013   -9574.3287    46915.056   -47945.731   -4266.9333    39594.544   -4318.9468    81.712184 
   85000    1738.2269   -111.64033    1.5727842   -110.06754    4797.2726    4.3341438    4.3341438    4.3341438    4797.2726   -11610.967    14459.457    11543.328   -1004.2158    24842.428   -3148.7109    81.416034 
   85100    1267.7796   -111.21805    1.1471136   -110.07094    56.997402    4.3353373    4.3353373    4.3353373    56.997402    3978.4324    12684.306   -16491.746    9315.8776   -18426.251   -4594.8094    81.483311 
   85200    938.40298   -110.92836   0.84908673   -110.07928   -31664.716    4.3408497    4.3408497    4.3408497   -31664.716   -54711.942    38944.256   -79226.463   -1238.4609    62554.076   -6848.8582    81.794527 
   85300    2239.2201   -112.08026    2.0260934   -110.05416    18765.354     4.334318     4.334318     4.334318    18765.354    4745.8588    16280.783    35269.422    5575.5878   -11545.762   -4116.2033    81.425852 
   85400    872.67582   -110.87228   0.78961542   -110.08267   -27305.302    4.3368297    4.3368297    4.3368297   -27305.302   -44809.279    12535.908   -49642.535    3126.4982    50057.521    414.63165    81.567489 
   85500     1183.958   -111.15724      1.07127   -110.08597   -1308.2567    4.3304249    4.3304249    4.3304249   -1308.2567   -17428.776    42090.742   -28586.736   -4198.4947    13677.375   -17966.907    81.206639 
   85600    1885.1887   -111.77916    1.7057583    -110.0734    27321.818    4.3260947    4.3260947    4.3260947    27321.818    30140.816    34490.835    17333.803   -14273.372    2526.9463    24918.059    80.963277 
   85700    1063.4397    -111.0486   0.96222258   -110.08638   -5925.3826    4.3413766    4.3413766    4.3413766   -5925.3826   -14556.172     51204.86   -54424.835    4617.1553    57258.462   -11063.104    81.824316 
   85800    1755.4093   -111.64994    1.5883312    -110.0616   -807.48046    4.3426039    4.3426039    4.3426039   -807.48046     -13226.4    16916.541   -6112.5826   -4515.9805   -32896.007    -4939.805    81.893731 
   85900    1258.6425   -111.19848    1.1388462   -110.05963    13894.285    4.3310063    4.3310063    4.3310063    13894.285    10736.608    44842.536   -13896.289   -8617.8318     35659.83    25009.288    81.239349 
   86000     1344.193   -111.28418    1.2162541   -110.06792    148.44063    4.3337679    4.3337679    4.3337679    148.44063   -8399.5187    32947.654   -24102.813    13352.137    23956.718   -23706.621    81.394851 
   86100    1440.8286   -111.37605     1.303692   -110.07236    14078.007    4.3303608    4.3303608    4.3303608    14078.007    23694.683    5354.7324    13184.605   -4589.1945   -17505.044    15504.899    81.203034 
   86200    1305.4156   -111.25791    1.1811674   -110.07674    10433.613    4.3364294    4.3364294    4.3364294    10433.613    26705.913    42139.937   -37545.013   -10086.388    27739.695    3597.8661    81.544906 
   86300     1491.674   -111.41877     1.349698   -110.06907    -20540.67    4.3456392    4.3456392    4.3456392    -20540.67   -11347.077   -34476.449   -15798.483    10523.538    3050.1179   -29460.308    82.065572 
   86400    1582.2105   -111.49406    1.4316173   -110.06244    9226.3015    4.3289649    4.3289649    4.3289649    9226.3015    6415.3862    9027.3301    12236.188   -19898.123    1308.6346    20989.852    81.124528 
   86500    1357.2726   -111.29459    1.2280888    -110.0665    6254.8478    4.3312974    4.3312974    4.3312974    6254.8478    23537.518    18109.357   -22882.332    -10494.54    15611.352   -24941.753    81.255733 
   86600     1265.995   -111.21054    1.1454989   -110.06504   -17268.561    4.3453919    4.3453919    4.3453919   -17268.561   -27865.212   -9810.2292   -14130.242    9406.6159   -3724.2693    -24643.86    82.051559 
   86700    1552.5867   -111.46432     1.404813   -110.05951    1557.3148    4.3373797    4.3373797    4.3373797    1557.3148   -33649.247    9541.7489    28779.442   -26245.551    4823.6302    8553.0778    81.598529 
   86800    1163.9639   -111.12093     1.053179   -110.06775    16556.481    4.3341558    4.3341558    4.3341558    16556.481    45005.684    39587.791   -34924.033     3101.588    8823.8336   -55464.546     81.41671 
   86900    1659.5004   -111.56588    1.5015509   -110.06433   -5226.6129    4.3386557    4.3386557    4.3386557   -5226.6129   -28298.198   -205.36398    12823.723    4224.9787     -7779.55   -16504.375    81.670564 
   87000    1287.7079   -111.23414    1.1651452   -110.06899    17740.637    4.3341718    4.3341718    4.3341718    17740.637   -9093.5186    17603.032    44712.399   -18853.168   -4335.3482   -14061.569    81.417614 
   87100    1232.2461   -111.18594    1.1149622   -110.07097    5589.3768    4.3449302    4.3449302    4.3449302    5589.3768    29212.186    20674.846   -33118.901    4895.4103   -1295.1633   -48202.152    82.025409 
   87200    1710.9348   -111.60537    1.5480898   -110.05728    2285.6925     4.345122     4.345122     4.345122    2285.6925    -49392.09    23698.816    32550.352   -13350.785   -13415.042    20853.928    82.036271 
   87300    977.63194   -110.94853   0.88458193   -110.06395    19007.685     4.323536     4.323536     4.323536    19007.685    8607.7153   -1576.2448    49991.584   -8480.8283   -2829.3683    -45016.27    80.819701 
   87400    1646.3907   -111.55585    1.4896889   -110.06616    28980.827    4.3301313    4.3301313    4.3301313    28980.827    30352.117    57669.374   -1079.0105    4346.5327   -10094.337   -6965.9294    81.190123 
   87500    1517.7038   -111.44179    1.3732503   -110.06854    7285.4631    4.3427843    4.3427843    4.3427843    7285.4631   -19292.397     4985.551    36163.236   -17089.341   -6253.6809    9799.6631    81.903936 
   87600    1087.3164   -111.05341   0.98382673   -110.06959    6219.2238     4.338994     4.338994     4.338994    6219.2238    8805.7144     18430.11   -8578.1531   -3890.0273   -5365.8378   -55500.011     81.68967 
   87700    1595.7833   -111.50284    1.4438983   -110.05895    13067.864    4.3399242    4.3399242    4.3399242    13067.864    27560.081    35287.226   -23643.716   -1638.5225   -225.41966    48066.815    81.742219 
   87800    1327.4715   -111.26045    1.2011241   -110.05932    1794.0926    4.3386319    4.3386319    4.3386319    1794.0926    13262.669    3801.0804   -11681.472   -13098.449    -4992.199   -27610.109     81.66922 
   87900    1663.9868   -111.56068    1.5056103   -110.05507    9330.0512    4.3335327    4.3335327    4.3335327    9330.0512     13201.65    25580.593    -10792.09    1836.8747   -8716.5516   -19695.948    81.381599 
   88000    1365.3584   -111.29504     1.235405   -110.05964   -867.65383    4.3377115    4.3377115    4.3377115   -867.65383    28685.402    12965.138   -44253.501   -631.24295    3711.6354    60486.638    81.617257 
   88100    1690.2134   -111.58084    1.5293406    -110.0515     9144.206    4.3355645    4.3355645    4.3355645     9144.206    28235.683    15015.088   -15818.153   -1048.6819     -3909.59   -47976.604    81.496126 
   88200    1165.2412   -111.11103    1.0543347   -110.05669   -5217.5886    4.3436267    4.3436267    4.3436267   -5217.5886    14252.565    6118.5031   -36023.834    2066.7877   -9655.1064    43834.661    81.951608 
   88300    1457.1982   -111.37105    1.3185036   -110.05255   -7010.1075      4.34174      4.34174      4.34174   -7010.1075   -2374.1335    11767.426   -30423.615    1973.4669    2716.3006    19213.324    81.844867 
   88400    1425.3423   -111.34032    1.2896797   -110.05064    26003.352    4.3255203    4.3255203    4.3255203    26003.352    46549.816    19247.857    12212.383   -3722.6878    -10619.15   -24223.494    80.931027 
   88500    1087.9696    -111.0554   0.98441779   -110.07098    5859.1041     4.338422     4.338422     4.338422    5859.1041    46715.003    7919.6419   -37057.333    1823.2504   -10522.546    60321.772    81.657368 
   88600    1670.7992     -111.564    1.5117743   -110.05223    3584.5693    4.3524792    4.3524792    4.3524792    3584.5693   -26360.447    20534.842    16579.314     10124.59   -3438.5744   -27383.967    82.453693 
   88700    1013.6258   -110.97727   0.91714991   -110.06013   -7037.1523    4.3360273    4.3360273    4.3360273   -7037.1523    47013.812   -37502.718   -30622.551    -15360.03   -12892.569    40163.044    81.522226 
   88800    1492.5523     -111.404    1.3504927   -110.05351    25903.353    4.3283266    4.3283266    4.3283266    25903.353     56332.32    29976.545   -8598.8068    7341.3179   -10152.968    24354.386    81.088651 
   88900    1564.4354    -111.4737    1.4155341   -110.05816   -12371.613    4.3394454    4.3394454    4.3394454   -12371.613   -2484.0789   -14404.381   -20226.379    6696.8473     6405.277    6426.4245    81.715169 
   89000    920.67163   -110.90335   0.83304304   -110.07031   -9392.6498    4.3428371    4.3428371    4.3428371   -9392.6498    71876.747   -20313.673   -79741.024   -10215.956    -9173.122    57873.069    81.906926 
   89100    1826.0455   -111.69833    1.6522443   -110.04609   -2906.1775    4.3492746    4.3492746    4.3492746   -2906.1775    1525.4101    97.387736    -10341.33    25352.234   -5046.0153   -14694.286    82.271704 
   89200    1222.5798   -111.16077    1.1062159   -110.05456   -14136.671    4.3379203    4.3379203    4.3379203   -14136.671    31975.379   -26137.078   -48248.315    8806.8545    2687.9135    54207.726    81.629042 
   89300    1535.6435   -111.43791    1.3894825   -110.04843    17227.806    4.3342786    4.3342786    4.3342786    17227.806    56158.487    15582.559   -20057.629   -235.88088    -6627.505    7335.4692    81.423633 
   89400    1314.6653   -111.23618    1.1895368   -110.04664   -27291.472    4.3525798    4.3525798    4.3525798   -27291.472     -23774.4   -28029.153   -30070.862    32349.187   -2263.5291     9869.213    82.459411 
   89500    1237.3716   -111.16658    1.1195998   -110.04698   -4550.3709    4.3446087    4.3446087    4.3446087   -4550.3709    38289.642   -8773.9012   -43166.854    2561.2387   -2838.5335    55358.783    82.007205 
   89600    1804.3041   -111.66416    1.6325722   -110.03158    22018.756    4.3411139    4.3411139    4.3411139    22018.756    33180.909    8866.8427    24008.516    26144.735   -2165.5086   -25608.483    81.809465 
   89700    1010.7921    -110.9676   0.91458593   -110.05301   -31166.142    4.3490705    4.3490705    4.3490705   -31166.142    12331.316   -58525.446   -47304.294     23070.83   -4104.6764    61141.752    82.260122 
   89800    1649.7963   -111.53856    1.4927703   -110.04579    24992.746    4.3381568    4.3381568    4.3381568    24992.746    45712.292   -771.18157    30037.127   -8242.9213    15336.174    2164.6731    81.642396 
   89900    1049.6601   -111.00668   0.94975448   -110.05693    22501.807     4.329248     4.329248     4.329248    22501.807    53711.729   -28415.423    42209.115    41558.123   -3435.7849    11256.064    81.140446 
   90000    985.49954   -110.96749    0.8917007   -110.07579    -12331.54    4.3433911    4.3433911    4.3433911    -12331.54    33171.199   -45134.872   -25030.947   -5674.8691    2531.0072    59214.426    81.938272 
   90100    2112.6888   -111.96212    1.9116053   -110.05052     12343.84    4.3439494    4.3439494    4.3439494     12343.84    28158.595   -14120.342    22993.266    13278.392    5529.7554   -30310.277    81.969874 
   90200    693.10021    -110.7003   0.62713163   -110.07317   -13807.466    4.3381895    4.3381895    4.3381895   -13807.466    45459.954   -55651.996   -31230.356    22643.906   -3606.1325    67034.256    81.644239 
   90300    1957.4206   -111.82491    1.7711153   -110.05379   -2274.5121    4.3379891    4.3379891    4.3379891   -2274.5121     6427.073    8733.4896   -21984.099   -491.38283   -7488.3349    -3000.139    81.632925 
   90400     1212.722   -111.16464    1.0972964   -110.06734      19683.1     4.332078     4.332078     4.332078      19683.1    37121.041    7680.6424    14247.618    11564.314   -12571.112     18666.01    81.299675 
   90500    1099.2105    -111.0744   0.99458878   -110.07981   -6392.0995    4.3444092    4.3444092    4.3444092   -6392.0995    17797.026   -21672.954    -15300.37    20863.177   -2634.7392    37780.385    81.995906 
   90600    1966.4179   -111.83408    1.7792562   -110.05483    3552.3129    4.3481667    4.3481667    4.3481667    3552.3129   -19887.974    3673.6026     26871.31   -9412.3115   -30851.681   -19908.552    82.208845 
   90700    849.13807     -110.836   0.76831797   -110.06768    664.40854    4.3350922    4.3350922    4.3350922    664.40854    41593.583   -37089.492   -2510.8659    6050.1716   -5807.0997     57798.94    81.469492 
   90800    1660.7623   -111.55452    1.5026926   -110.05183    14452.915    4.3333612    4.3333612    4.3333612    14452.915    2858.8841    7989.8169    32510.045     12921.06   -18784.138   -5721.9697    81.371938 
   90900    1182.2718   -111.13204    1.0697444    -110.0623   -16680.051    4.3469062    4.3469062    4.3469062   -16680.051    -5957.545   -39028.755   -5053.8529    -23669.73    -7862.048    14085.796    82.137375 
   91000    1252.8065   -111.19586    1.1335657    -110.0623   -29652.562    4.3431453    4.3431453    4.3431453   -29652.562    17913.132   -69835.895   -37034.923     22410.62   -2448.2621    58964.935    81.924365 
   91100     1779.879   -111.65586    1.6104719   -110.04539    27981.886    4.3253726    4.3253726    4.3253726    27981.886    32730.414    7123.8422    44091.401   -7099.7828   -15852.434   -23387.105    80.922739 
   91200    896.90157    -110.8861   0.81153539   -110.07456   -30177.795    4.3390074    4.3390074    4.3390074   -30177.795    23106.076   -55991.205   -57648.257   -9358.8184    5638.2762    59567.982    81.690429 
   91300    1531.7236   -111.44985    1.3859357   -110.06391   -2260.8976    4.3446416    4.3446416    4.3446416   -2260.8976    29666.064   -10778.216   -25670.541     21734.72   -769.51725    10919.182    82.009065 
   91400     1487.744   -111.41191    1.3461421   -110.06577    6532.0429     4.333259     4.333259     4.333259    6532.0429    12063.519    5076.8976    2455.7118   -4925.0499    816.52058   -15781.022    81.366184 
   91500    740.93971   -110.75653   0.67041782   -110.08611    2125.4428    4.3443107    4.3443107    4.3443107    2125.4428    23690.016   -28616.011    11302.323   -3796.5756    2017.2303    53659.955    81.990332 
   91600    1881.8899   -111.75808    1.7027735   -110.05531     18920.95    4.3468973    4.3468973    4.3468973     18920.95    3126.9323    26490.821    27145.097    4599.3189    19766.909   -33681.767    82.136867 
   91700    828.31728   -110.81786   0.74947889   -110.06838   -12564.581     4.348306     4.348306     4.348306   -12564.581    12719.545       -18608    -31805.29   -1398.5794   -2032.6302    28348.275    82.216746 
   91800    1235.3309   -111.18563    1.1177534   -110.06788   -10562.131     4.338019     4.338019     4.338019   -10562.131   -3354.9064   -8398.9109   -19932.577   -10445.086    434.62543    35688.598    81.634614 
   91900     2138.232   -111.99194    1.9347173   -110.05723    14685.655    4.3269471    4.3269471    4.3269471    14685.655    14108.733    22098.264    7849.9696    7514.2865    9709.7785   -11670.567    81.011145 
   92000    995.67845    -110.9895   0.90091079   -110.08859   -28835.602    4.3434391    4.3434391    4.3434391   -28835.602    5931.7709   -52923.083   -39515.493   -8448.2734   -10683.926     67975.88    81.940992 
   92100    1542.0597   -111.47338    1.3952881    -110.0781    -5076.955    4.3428151    4.3428151    4.3428151    -5076.955   -34674.665   -22648.736    42092.537    5220.6424    2652.1379   -11650.062    81.905682 
   92200    1601.3278   -111.51093     1.448915   -110.06202   -8691.0458    4.3445424    4.3445424    4.3445424   -8691.0458    2006.2557    -14341.24   -13738.153    4815.2161    -4119.883     31897.18    82.003449 
   92300    862.41493    -110.8516   0.78033115   -110.07127   -18816.216    4.3382542    4.3382542    4.3382542   -18816.216    12686.854   -35883.564   -33251.937   -5655.4811   -25828.017    46329.281    81.647895 
   92400    1472.8142   -111.39482    1.3326332   -110.06219    19841.558    4.3280831    4.3280831    4.3280831    19841.558   -13642.354   -4976.2473    78143.274    17563.994   -2428.8732   -19753.106    81.074963 
   92500    1555.9124   -111.47508    1.4078222   -110.06725   -10429.839    4.3466491    4.3466491    4.3466491   -10429.839    10564.641   -10715.369   -31138.789   -10540.864   -8670.3083    38178.139      82.1228 
   92600    1126.1739   -111.08434    1.0189859   -110.06535   -18869.199    4.3501257    4.3501257    4.3501257   -18869.199   -34283.506   -16829.164   -5494.9274   -6901.9126    -17991.58    12505.287    82.320008 
   92700    1489.3061   -111.40272    1.3475555   -110.05516     11952.34    4.3325644    4.3325644    4.3325644     11952.34   -2992.5803   -3637.1581    42486.759    13900.103    7270.2089    -2851.523    81.327059 
   92800     1463.488   -111.38608    1.3241947   -110.06188   -11710.247    4.3389341    4.3389341    4.3389341   -11710.247    9245.8049   -15604.062   -28772.485   -2662.6821   -936.61013    26775.447    81.686286 
   92900     1346.082   -111.27976    1.2179633   -110.06179   -9910.8437    4.3399045    4.3399045    4.3399045   -9910.8437   -27008.998   -36320.801    33597.267   -7392.7175    1417.5357    7926.1287    81.741106 
   93000    1402.6938   -111.33393    1.2691869   -110.06474     14421.26     4.334987     4.334987     4.334987     14421.26    12900.698    763.50298    29599.577    12190.575    11933.703   -16364.726    81.463563 
   93100    1700.0082   -111.60523    1.5382031   -110.06703   -15269.037    4.3447497    4.3447497    4.3447497   -15269.037   -42082.204    13054.339   -16779.247   -5359.8532    22556.858    10186.388     82.01519 
   93200    1400.6364   -111.33441    1.2673253   -110.06708    14393.055    4.3308051    4.3308051    4.3308051    14393.055   -20963.204    23004.045    41138.324   -9817.2327   -2233.7424    -3032.334    81.228027 
   93300    1135.5246   -111.10084    1.0274466   -110.07339     30247.82    4.3350994    4.3350994    4.3350994     30247.82     39561.64    30756.334    20425.484    10909.386    13288.101   -31189.453      81.4699 
   93400    1861.3006   -111.74008    1.6841439   -110.05593   -16144.899    4.3520462    4.3520462    4.3520462   -16144.899   -47982.888   -5694.7887    5242.9812   -16833.764    9007.9847    16628.725    82.429085 
   93500    1063.0052   -111.02615   0.96182944   -110.06432    2994.3759    4.3382421    4.3382421    4.3382421    2994.3759   -28867.629     2009.539    35841.217    13227.907   -8556.1286   -30334.163    81.647211 
   93600    1510.2974   -111.43258    1.3665489   -110.06604    12733.355    4.3320472    4.3320472    4.3320472    12733.355    21812.784   -6054.5041    22441.785    4682.6859    11461.398   -14379.705    81.297941 
   93700    1633.0447   -111.54445    1.4776131   -110.06683    5969.6655    4.3305357    4.3305357    4.3305357    5969.6655   -19885.088    7882.7994    29911.285   -16787.081    4966.1575    16088.574    81.212871 
   93800    851.77985   -110.85733   0.77070831   -110.08662    2756.5774    4.3368997    4.3368997    4.3368997    2756.5774    6893.7505    -34338.04    35714.022     18572.57   -12072.278   -47386.494    81.571441 
   93900    1596.3726   -111.51826    1.4444315   -110.07383   -13129.548    4.3523434    4.3523434    4.3523434   -13129.548    5687.5884   -24826.111   -20250.123    450.85008    1895.1871    8252.9571    82.445977 
   94000     1348.201   -111.29182    1.2198806   -110.07193    8633.9062    4.3340926    4.3340926    4.3340926    8633.9062     26748.51   -4962.8196    4116.0285   -9036.1306    1289.0388    14756.402    81.413149 
   94100    1418.3487   -111.34937    1.2833517   -110.06602     16254.32    4.3263273    4.3263273    4.3263273     16254.32    22680.935    12833.156    13248.868    9454.5388   -8296.3942   -41293.498    80.976332 
   94200    1369.4058   -111.30056    1.2390671   -110.06149   -16974.547    4.3479786    4.3479786    4.3479786   -16974.547    36848.854   -35807.487   -51965.009    -10406.46    -6450.356    43455.105     82.19818 
   94300    1546.4219   -111.46027     1.399235   -110.06104   -7255.9535    4.3388661    4.3388661    4.3388661   -7255.9535     20102.78   -17086.517   -24784.124   -3890.6077    20777.104   -8300.6513    81.682447 
   94400     1285.552   -111.23021    1.1631945   -110.06701    5298.2199    4.3321006    4.3321006    4.3321006    5298.2199    33991.305    6315.8876   -24412.533    1642.3206   -21854.526    -4776.929    81.300944 
   94500    1567.3794   -111.48741    1.4181978   -110.06921   -18632.233     4.343503     4.343503     4.343503   -18632.233    1252.5927   -27591.482    -29557.81   -11962.153    1568.4555    39921.697    81.944609 
   94600    1589.5791   -111.50033    1.4382845   -110.06204   -9194.9684    4.3433437    4.3433437    4.3433437   -9194.9684   -21885.394    7781.4891       -13481    7319.8632    19807.162   -21950.818    81.935589 
   94700    1035.0221   -111.00722   0.93650974   -110.07071   -29357.671    4.3454926    4.3454926    4.3454926   -29357.671   -7102.7008   -25196.339   -55773.973   -6984.6603   -42124.281    33958.199    82.057266 
   94800    1873.5199   -111.75478    1.6952002   -110.05958    2436.1838    4.3345657    4.3345657    4.3345657    2436.1838    9769.2538    11941.855   -14402.558   -10950.019    16737.449    8993.8375    81.439816 
   94900    1590.1819   -111.50792      1.43883   -110.06909    12508.744    4.3299116    4.3299116    4.3299116    12508.744    20342.885    34251.957   -17068.609   -1051.4636   -1229.7086    1887.3452    81.177764 
   95000    1129.8708    -111.0988    1.0223308   -110.07647   -16365.614    4.3448326    4.3448326    4.3448326   -16365.614    1122.1964   -8646.0689    -41572.97     8175.845   -34067.001    33265.718    82.019882 
   95100    1782.3264   -111.66324    1.6126864   -110.05055   -7617.6686    4.3519947    4.3519947    4.3519947   -7617.6686   -7937.3577    3961.3762   -18877.024    -13080.09    33421.288   -10571.947    82.426163 
   95200    1262.4377   -111.19787    1.1422801   -110.05559   -14287.003    4.3446493    4.3446493    4.3446493   -14287.003   -24251.052    25789.786   -44399.743    15108.682   -39770.767    28813.959    82.009504 
   95300    1148.4292   -111.10545    1.0391229   -110.06633     2348.009    4.3256339    4.3256339    4.3256339     2348.009   -10131.942    23931.153   -6755.1843    3542.6295   -3227.3313    14264.507    80.937407 
   95400    1838.7812   -111.72853    1.6637679   -110.06476     27615.84    4.3264189    4.3264189    4.3264189     27615.84     -2803.85    65862.353    19789.018    2257.5528    12496.228   -9776.6515    80.981478 
   95500     654.2507    -110.6795   0.59197979   -110.08752   -20572.599    4.3565011    4.3565011    4.3565011   -20572.599   -34074.841    22075.132   -49718.088     19643.01   -35711.957    17358.328    82.682475 
   95600    1706.6738   -111.59618    1.5442343   -110.05195   -13735.376    4.3548708    4.3548708    4.3548708   -13735.376   -17831.583   -9329.6103   -14044.936    3339.3095    11915.939    17668.603    82.589689 
   95700    1505.4636   -111.40887    1.3621751    -110.0467    27026.904    4.3260629    4.3260629    4.3260629    27026.904    12820.672    45287.528    22972.514   -531.75387   -26634.675   -6917.7884    80.961487 
   95800    1238.6872   -111.18772    1.1207902   -110.06693   -7583.5184    4.3317323    4.3317323    4.3317323   -7583.5184    7213.7005   -16179.159   -13785.096    17680.361   -12461.583    30417.939    81.280212 
   95900    1997.5377   -111.86409    1.8074141   -110.05667   -14259.262    4.3496789    4.3496789    4.3496789   -14259.262   -16996.232    -18669.17   -7112.3852    5816.5632    8119.2086    12288.807    82.294651 
   96000    1314.7424   -111.24896    1.1896066   -110.05936    -12052.01    4.3502115    4.3502115    4.3502115    -12052.01    2583.2982   -15785.927   -22953.401    3071.3977    -23268.43   -6961.2366    82.324881 
   96100    1083.8796    -111.0389   0.98071707   -110.05818   -8125.8275    4.3429449    4.3429449    4.3429449   -8125.8275     8838.161   -25372.834   -7842.8095    17569.376    22308.349    22133.534    81.913025 
   96200    1635.8076   -111.53555    1.4801131   -110.05544    4521.2795      4.33295      4.33295      4.33295    4521.2795   -36170.552    54401.308   -4666.9175   -662.66604    27108.476     -12466.1    81.348779 
   96300    1519.8193   -111.43697    1.3751644    -110.0618    19999.508    4.3289431    4.3289431    4.3289431    19999.508    21172.104    7867.5613     30958.86    11290.489    -17833.28   -10096.838    81.123302 
   96400    823.63976   -110.82611   0.74524656   -110.08086   -11309.677     4.351791     4.351791     4.351791   -11309.677   -29931.485    19060.575   -23058.121    16046.158    46511.287    6469.8255     82.41459 
   96500    1621.8928   -111.51968    1.4675227   -110.05215   -9449.4743     4.353838     4.353838     4.353838   -9449.4743   -43247.976    21142.565   -6243.0113    2741.7477    25489.797   -18070.773    82.530939 
   96600    1271.3476   -111.20335     1.150342   -110.05301     13783.95    4.3264163    4.3264163    4.3264163     13783.95    36123.298    1977.1902    3251.3606    8466.4665    -3996.536    -9195.189    80.981335 
   96700    676.47436     -110.691   0.61208822   -110.07891     -6499.34     4.331705     4.331705     4.331705     -6499.34   -19497.275    35427.304   -35428.048    11099.472    63842.028     16522.46    81.278673 
   96800    2126.8472   -111.98768     1.924416   -110.06327    12233.822    4.3417235    4.3417235    4.3417235    12233.822   -887.57313    15264.853    22324.185    6899.8548   -15613.446   -7306.3053    81.843935 
   96900    1171.9643   -111.14102    1.0604179    -110.0806   -4926.6134    4.3462417    4.3462417    4.3462417   -4926.6134    13134.113    8957.0209   -36870.974   -2350.6369    46189.005    -1220.874    82.099709 
   97000    1003.2451   -110.98599   0.90775729   -110.07823   -11918.705    4.3419533    4.3419533    4.3419533   -11918.705   -8635.3132    20444.167   -47564.968    5815.6499    18771.022    20148.755    81.856927 
   97100    1822.8339   -111.71186    1.6493384   -110.06252    20376.448     4.323782     4.323782     4.323782    20376.448     28149.85     30880.63    2098.8638    4848.5265   -31571.372   -13607.215    80.833499 
   97200    1086.9421   -111.06827   0.98348805   -110.08479   -3881.0599     4.335402     4.335402     4.335402   -3881.0599   -11162.578    29667.245   -30147.847   -14858.101     61840.26    15593.745    81.486963 
   97300    1602.1886   -111.52203    1.4496939   -110.07234   -9975.6484    4.3452978    4.3452978    4.3452978   -9975.6484    21490.735   -9109.0579   -42308.622    2423.8075   -22665.524    25183.739     82.04623 
   97400    1458.1224   -111.38616    1.3193398   -110.06682    10084.227    4.3371569    4.3371569    4.3371569    10084.227    30470.712    41699.794   -41917.826    2772.7287    4300.7038   -8724.4054    81.585955 
   97500    1046.2727   -111.02001   0.94668957   -110.07332   -3419.8344    4.3345108    4.3345108    4.3345108   -3419.8344    1604.7866    35495.337   -47359.627    -7574.022    50159.717    25281.527    81.436717 
   97600    1886.1167    -111.7676     1.706598     -110.061    15499.258    4.3325676    4.3325676    4.3325676    15499.258    55943.944    1824.5244   -11270.694   -4022.5557   -27186.885    23147.665    81.327242 
   97700    1280.8107   -111.23823    1.1589045   -110.07932   -13368.899     4.340257     4.340257     4.340257   -13368.899   -21174.665    44443.989   -63376.022    8112.6025    51114.652   -5673.8615    81.761027 
   97800    1017.7683   -111.00601   0.92089814   -110.08511   -11557.684    4.3391549    4.3391549    4.3391549   -11557.684    48703.027   -20864.096   -62511.983   -10213.594    11257.088    43983.946    81.698759 
   97900    2005.4603   -111.88283    1.8145826   -110.06824    1444.2692    4.3419656    4.3419656    4.3419656    1444.2692    4461.0565    30463.684   -30591.932   -1883.8224    1114.4831   -6075.9791    81.857622 
   98000    1075.2853   -111.04729    0.9729407   -110.07435   -34079.839    4.3512787    4.3512787    4.3512787   -34079.839   -39607.839    24501.891   -87133.567    1855.6819    50559.075    21916.364    82.385486 
   98100    1487.3241   -111.40544    1.3457621   -110.05968    18014.829    4.3267202    4.3267202    4.3267202    18014.829     35640.53    36589.466   -18185.511   -8898.6865   -10569.491    20880.716    80.998397 
   98200    1460.2791   -111.39175    1.3212912   -110.07045    14651.922    4.3324749    4.3324749    4.3324749    14651.922   -17307.829    75696.755   -14433.158   -4912.1626    22387.604   -17061.605    81.322022 
   98300    1260.4322   -111.21046    1.1404656   -110.06999   -24937.586    4.3480052    4.3480052    4.3480052   -24937.586   -18041.955    13128.711   -69899.515    13063.804    14526.429    28965.367    82.199689 
   98400    1561.1681   -111.47192    1.4125777   -110.05934    24235.589      4.33055      4.33055      4.33055    24235.589    37908.329    38926.989   -4128.5498   -13013.468   -7497.5331    206.62223    81.213677 
   98500    1197.7426    -111.1611    1.0837426   -110.07736   -10243.775    4.3416105    4.3416105    4.3416105   -10243.775   -29477.347    202.52963   -1456.5084    1905.1226    29285.774   -11601.596     81.83754 
   98600    1679.1724   -111.58187    1.5193504   -110.06252   -6330.7551    4.3462957    4.3462957    4.3462957   -6330.7551   -1124.5827    5358.1449   -23225.828    15133.481   -4499.6502    28720.338     82.10277 
   98700    1348.8513   -111.28095     1.220469   -110.06048    23636.935    4.3319359    4.3319359    4.3319359    23636.935    54142.236    4704.3981    12064.169   -21840.414    8297.8482   -23893.732    81.291676 
   98800    1024.8468   -111.00239   0.92730294   -110.07509   -5685.9107    4.3419744    4.3419744    4.3419744   -5685.9107   -27146.474    23856.055   -13767.313   -272.54702     33129.03    7085.6938    81.858123 
   98900    1971.8083   -111.83724    1.7841336   -110.05311    23537.665    4.3470487    4.3470487    4.3470487    23537.665    31252.019     40001.02   -640.04418   -2952.9063   -14594.094     6980.164    82.145449 
   99000     761.5162   -110.76596   0.68903586   -110.07693   -10329.817    4.3460729    4.3460729    4.3460729   -10329.817   -23797.742    24909.019   -32100.726    -36455.96    26818.645   -22959.145    82.090145 
   99100    1459.4414   -111.38927    1.3205332   -110.06874    14706.166    4.3378473    4.3378473    4.3378473    14706.166   -3656.9588    50598.296   -2822.8385   -3831.3132    22505.136    6259.2968    81.624923 
   99200    1719.5436   -111.62244    1.5558792   -110.06656    20522.119    4.3319848    4.3319848    4.3319848    20522.119    45732.372    35785.141   -19951.155    1289.5567   -13555.228   -11288.603    81.294428 
   99300    637.09344   -110.67079   0.57645553   -110.09434   -36282.632    4.3431769    4.3431769    4.3431769   -36282.632   -51354.573    3626.4184   -61119.742   -29407.805    39785.525   -30914.595    81.926151 
   99400     2146.201   -112.01348    1.9419277   -110.07156   -1539.6273     4.342541     4.342541     4.342541   -1539.6273   -2026.7844   -4434.0829    1841.9855   -4595.6354    -7669.783    12634.944    81.890171 
   99500     1262.837   -111.22116    1.1426415   -110.07852    -19271.12    4.3478428    4.3478428    4.3478428    -19271.12   -19539.887    13394.978    -51668.45     3875.951     21692.26   -16882.354    82.190478 
   99600    983.78604    -110.9603   0.89015029   -110.07015   -18944.584    4.3420136    4.3420136    4.3420136   -18944.584   -32820.303   -28254.674    4241.2244   -27051.049    28163.646   -28667.872    81.860338 
   99700     2138.724   -111.98201    1.9351624   -110.04685     2439.441    4.3344214    4.3344214    4.3344214     2439.441   -2568.9368   -12184.547    22071.807     7601.597     -13480.7    26200.473    81.431678 
   99800    1003.2428    -110.9756   0.90775521   -110.06785   -27137.012    4.3473006    4.3473006    4.3473006   -27137.012   -39535.243    12335.407     -54211.2   -10328.729    48834.622   -29513.226    82.159729 
   99900    1440.1826   -111.36257    1.3031075   -110.05946   -7999.1328    4.3438444    4.3438444    4.3438444   -7999.1328   -21977.166   -26001.321    23981.088   -4762.7309    8334.6963   -17848.968    81.963931 
  100000    1791.3426   -111.67331    1.6208444   -110.05247   -10650.057    4.3409476    4.3409476    4.3409476   -10650.057    -16605.47   -19979.877    4635.1746    19645.803    5517.2493    23278.495    81.800062 
Loop time of 22.2804 on 1 procs for 100000 steps with 8 atoms

Pair  time (%) = 6.90897 (31.0091)
Kspce time (%) = 5.39325 (24.2062)
Neigh time (%) = 0.118085 (0.529993)
Comm  time (%) = 1.04727 (4.70038)
Outpt time (%) = 0.0249097 (0.111801)
Other time (%) = 8.78795 (39.4425)

Nlocal:    8 ave 8 max 8 min
Histogram: 1 0 0 0 0 0 0 0 0 0
Nghost:    2098 ave 2098 max 2098 min
Histogram: 1 0 0 0 0 0 0 0 0 0
Neighs:    2131 ave 2131 max 2131 min
Histogram: 1 0 0 0 0 0 0 0 0 0

Total # of neighbors = 2131
Ave neighs/atom = 266.375
Neighbor list builds = 1387
Dangerous builds = 0
unfix 20
unfix 21
print "seeds:4192371"
seeds:4192371
