LAMMPS (10 Feb 2015)
# ---- initialize simulations
clear
units metal
dimension 3
boundary p p p
atom_style charge
atom_modify map array
# ---- create atoms
read_data /Users/eugeneragasa/pyflamestk_git/pypospack/tests/tests_integration/workflow/WorkflowLammpsThermalExpansion/param_5378/MgO_NaCl_unit.npt.T1200/lammps.structure
  triclinic box = (0 0 0) to (4.2565 4.2565 4.2565) with tilt (0 0 0)
  1 by 1 by 1 MPI processor grid
  reading atoms ...
  8 atoms
# ---- define interatomic potential
include potential.mod
mass 1 24.305
mass 2 15.999

group Mg type 1
4 atoms in group Mg
group O type 2
4 atoms in group O

set group Mg charge 1.67557694923
  4 settings made for charge
set group O charge -1.67557694923
  4 settings made for charge

variable R_cut equal 10.0

pair_style buck/coul/long ${R_cut}
pair_style buck/coul/long 10
pair_coeff 1 1 0.0 0.5 0.0 ${R_cut}
pair_coeff 1 1 0.0 0.5 0.0 10
pair_coeff 1 2 1405.50211521 0.282257384366 0.0 ${R_cut}
pair_coeff 1 2 1405.50211521 0.282257384366 0.0 10
pair_coeff 2 2 19860.1058829 0.143671361936 6.84969713079 ${R_cut}
pair_coeff 2 2 19860.1058829 0.143671361936 6.84969713079 10

kspace_style pppm 1.0e-5

neighbor 1.0 bin
neigh_modify every 1 delay 0 check yes
# ---- define settings
compute eng all pe/atom
compute eatoms all reduce sum c_eng
# ---- run minimization
reset_timestep 0
fix 1 all box/relax iso 0.0 vmax 0.001
thermo 10
thermo_style custom step pe lx ly lz xy xz yz press pxx pyy pzz pxy pxz pyz c_eatoms
min_style cg
minimize 1e-25 1e-25 5000 10000
PPPM initialization ...
  G vector (1/distance) = 0.352969
  grid = 8 8 8
  stencil order = 5
  estimated absolute RMS force accuracy = 4.01483e-05
  estimated relative force accuracy = 2.78815e-06
  using double precision FFTs
  3d grid and FFT values/proc = 3375 512
Neighbor list info ...
  1 neighbor list requests
  update every 1 steps, delay 0 steps, check yes
  master list distance cutoff = 11
Memory usage per processor = 4.06549 Mbytes
Step PotEng Lx Ly Lz Xy Xz Yz Press Pxx Pyy Pzz Pxy Pxz Pyz eatoms 
       0   -115.02334       4.2565       4.2565       4.2565            0            0            0    14836.064    14836.064    14836.064    14836.064 5.7083842e-11 -5.8546636e-11 3.613515e-11   -115.02334 
       4   -115.02629     4.268627     4.268627     4.268627            0            0            0   -3.7663252   -3.7663252   -3.7663252   -3.7663252 5.5364648e-11 -5.1262271e-11 1.3911233e-11   -115.02629 
Loop time of 0.00710917 on 1 procs for 4 steps with 8 atoms

Minimization stats:
  Stopping criterion = linesearch alpha is zero
  Energy initial, next-to-last, final = 
        -115.023341276       -115.0262927       -115.0262927
  Force two-norm initial, final = 2.14234 0.00179672
  Force max component initial, final = 2.14234 0.000546963
  Final line search alpha, max atom move = 0.00390625 2.13657e-06
  Iterations, force evaluations = 4 21

Pair  time (%) = 0.00197196 (27.7383)
Kspce time (%) = 0.0011394 (16.0272)
Neigh time (%) = 0 (0)
Comm  time (%) = 0.000216484 (3.04514)
Outpt time (%) = 0 (0)
Other time (%) = 0.00378132 (53.1893)

Nlocal:    8 ave 8 max 8 min
Histogram: 1 0 0 0 0 0 0 0 0 0
Nghost:    2189 ave 2189 max 2189 min
Histogram: 1 0 0 0 0 0 0 0 0 0
Neighs:    2344 ave 2344 max 2344 min
Histogram: 1 0 0 0 0 0 0 0 0 0

Total # of neighbors = 2344
Ave neighs/atom = 293
Neighbor list builds = 0
Dangerous builds = 0
unfix 1
# ---- define output variables ----
variable natoms equal "count(all)"
variable tot_energy equal "c_eatoms"
variable length_x equal "lx"
variable length_y equal "ly"
variable length_z equal "lz"
variable tilt_xy equal "xy"
variable tilt_xz equal "xz"
variable tilt_yz equal "yz"
variable tot_press equal "press"
variable press_xx equal "pxx"
variable press_yy equal "pyy"
variable press_zz equal "pzz"
variable press_xy equal "pxy"
variable press_xz equal "pxz"
variable press_yz equal "pyz"

# ---- output ----
print "pypospack:output_section:begin"
pypospack:output_section:begin
print "tot_energy = ${tot_energy}"
tot_energy = -115.026292700229
print "num_atoms = ${natoms}"
num_atoms = 8
print "xx = ${length_x}"
xx = 4.26862697136346
print "yy = ${length_y}"
yy = 4.26862697136346
print "zz = ${length_z}"
zz = 4.26862697136346
print "xy = ${tilt_xy}"
xy = 0
print "xz = ${tilt_xz}"
xz = 0
print "yz = ${tilt_yz}"
yz = 0
print "tot_press = ${tot_press}"
tot_press = -3.7663252179344
print "pxx = ${press_xx}"
pxx = -3.76632521787482
print "pyy = ${press_yy}"
pyy = -3.76632521789834
print "pzz = ${press_zz}"
pzz = -3.76632521803003
print "pxy = ${press_xy}"
pxy = 5.53646482695888e-11
print "pxz = ${press_xz}"
pxz = -5.12622707696674e-11
print "pyz = ${press_yz}"
pyz = 1.39112332535826e-11
print "pypospack:output_section:done"
pypospack:output_section:done
print "pypospack:lammps_sim:done"
pypospack:lammps_sim:done
#------------------------------------------------------------------------------
# RUN THERMOSTAT
# running using an NPT Nose-Hoover style thermostat
#------------------------------------------------------------------------------
variable tempdamp equal 0.1
variable pressdamp equal 1.0
# set initial velocities
velocity all create 1200 5518045 mom yes dist gaussian loop all
# fix for Nose-Hoover style thermostat
fix 20 all npt temp 1200 1200 0.1 aniso 0.0 0.0 1.0 drag 1.0 couple xyz
variable boxx equal lx
variable boxy equal ly
variable boxz equal lz
variable boxp equal press
variable boxt equal temp
# calculate averages every 10000 steps
reset_timestep 0
fix 21 all ave/time 10 10 100 v_boxx v_boxy v_boxz v_boxp v_boxt file lattice.out
thermo_style custom step temp pe ke etotal press lx ly lz press pxx pyy pzz pxy pxz pyz vol
thermo_modify flush yes
thermo 100
run 100000
PPPM initialization ...
  G vector (1/distance) = 0.352845
  grid = 8 8 8
  stencil order = 5
  estimated absolute RMS force accuracy = 4.03767e-05
  estimated relative force accuracy = 2.80401e-06
  using double precision FFTs
  3d grid and FFT values/proc = 3375 512
Memory usage per processor = 3.06549 Mbytes
Step Temp PotEng KinEng TotEng Press Lx Ly Lz Press Pxx Pyy Pzz Pxy Pxz Pyz Volume 
       0         1200    -115.0263    1.0857852   -113.94051    14906.485     4.268627     4.268627     4.268627    14906.485    11864.479    15843.898     17011.08   -4469.5955   -8881.6675    1672.0678    77.779404 
     100     416.0041    -114.1852   0.37640925   -113.80879    25410.338    4.3013719    4.3013719    4.3013719    25410.338    12189.102    32738.882     31303.03    7907.1258    3639.1575    2786.5077    79.583125 
     200    940.51885   -114.35358   0.85100122   -113.50258   -37151.487    4.3388125    4.3388125    4.3388125   -37151.487   -25864.169   -46338.712    -39251.58   -4034.5155   -5772.0788    4794.4646    81.679422 
     300     1167.443   -114.30177     1.056327   -113.24544    10058.305    4.3159765    4.3159765    4.3159765    10058.305   -21134.773    14148.104    37161.583   -1391.1946    5042.4239   -675.39817    80.396511 
     400    1263.0823   -114.18024    1.1428634   -113.03737    38542.404    4.2927075    4.2927075    4.2927075    38542.404    61268.996    741.46446     53616.75    11484.692     11662.85   -1362.0761    79.103171 
     500    912.46171   -113.77518   0.82561453   -112.94957   -19794.094    4.3381991    4.3381991    4.3381991   -19794.094   -36060.746   -18026.355   -5295.1809   -1604.4948   -902.18342    6178.3039    81.644782 
     600    1063.6087   -113.80875   0.96237548   -112.84637   -34015.302    4.3489836    4.3489836    4.3489836   -34015.302    -49489.03   -48997.333   -3559.5444    7513.6325     10393.95    491.94413    82.255187 
     700    1320.6166   -113.98979    1.1949217   -112.79487    39161.512    4.2987038    4.2987038    4.2987038    39161.512    26663.043    8474.8029    82346.691    3843.5516   -12506.477   -11536.235    79.435123 
     800    1277.7644   -114.00295    1.1561481   -112.84681   -14200.596    4.3214272    4.3214272    4.3214272   -14200.596   -42310.929   -410.90818    120.05042    4251.8053    -2351.333    5976.0829      80.7015 
     900    1268.7084   -113.98777    1.1479541   -112.83982   -31214.041    4.3476833    4.3476833    4.3476833   -31214.041    -58816.51   -34059.044   -766.57051    -3987.173    2459.7814    7547.0424     82.18143 
    1000    1068.6833   -113.79749   0.96696708   -112.83052    5309.2673    4.3236258    4.3236258    4.3236258    5309.2673     1150.211   -13036.039     27813.63    4173.6616    1032.9116    -3328.993    80.824737 
    1100     1122.952   -113.84872    1.0160705   -112.83265    7532.1767    4.3119648    4.3119648    4.3119648    7532.1767   -30385.124    -23206.04    76187.695    5889.8112    -7882.945   -4397.7225    80.172536 
    1200    1146.3939   -113.88873    1.0372813   -112.85145   -5857.6579    4.3370829    4.3370829    4.3370829   -5857.6579   -35411.605   -17309.525    35148.157    -4379.989   -403.41197    553.67029     81.58178 
    1300    1540.5728   -114.23652    1.3939427   -112.84257   -26219.308     4.336593     4.336593     4.336593   -26219.308   -25149.504   -7642.0762   -45866.342   -5794.3599    11836.476    6444.3133    81.554135 
    1400    1089.2861   -113.82164   0.98560895   -112.83603    10124.531    4.3128673    4.3128673    4.3128673    10124.531   -13121.992    -15940.04    59435.627    1678.4583   -88.828955   -16885.104    80.222888 
    1500     1005.844   -113.75537   0.91010881   -112.84526   -484.80043    4.3193119    4.3193119    4.3193119   -484.80043   -40009.041   -7622.4412    46177.081   -5187.2566   -23125.374    5625.0793    80.583048 
    1600    928.94287   -113.68234   0.84052703   -112.84181     7606.221    4.3334169    4.3334169    4.3334169     7606.221   -7251.8987    12933.815    17136.746    2573.8092    3310.4931   -416.06689    81.375079 
    1700    1389.8549   -114.08538      1.25757   -112.82781   -23719.941     4.331523     4.331523     4.331523   -23719.941       -35359   -51905.506    16104.683    10473.457   -1738.8577   -9907.8351    81.268428 
    1800    867.65809   -113.61274   0.78507527   -112.82766    2114.4529    4.3197454    4.3197454    4.3197454    2114.4529   -35370.641    18486.422    23227.578   -4919.8804   -11142.333    7401.6859    80.607313 
    1900    1219.0725   -113.93357    1.1030424   -112.83053    17410.653    4.3118827    4.3118827    4.3118827    17410.653   -14216.105    8983.9454    57464.117    1871.3031    16151.923   -5472.7874    80.167955 
    2000    1516.7517   -114.21777    1.3723889   -112.84538   -30535.343    4.3315079    4.3315079    4.3315079   -30535.343   -11214.075    -59444.68   -20947.274   -3104.1621   -9024.6639   -2290.9284     81.26758 
    2100     982.2028   -113.73647   0.88871773   -112.84776   -10225.279    4.3212708    4.3212708    4.3212708   -10225.279   -43034.522   -2370.8971    14729.583   -8533.1575   -16868.148   -8486.6269    80.692738 
    2200    962.44933   -113.71333   0.87084438   -112.84248    45327.221    4.3062071    4.3062071    4.3062071    45327.221    42168.209    22804.885     71008.57    7462.1899   -13194.967   -2261.2869    79.851803 
    2300    1651.8162    -114.3375     1.494598    -112.8429   -23361.057    4.3327115    4.3327115    4.3327115   -23361.057    -31964.12    -48176.95    10057.899   -2629.7107     3094.975    7377.7353    81.335345 
    2400    1302.5225   -114.01229    1.1785497   -112.83374   -5057.3914    4.3246106    4.3246106    4.3246106   -5057.3914   -19441.354   -11387.312    15656.492   -1864.7157   -23095.699   -954.96053    80.879977 
    2500    1284.8101   -113.99565    1.1625232   -112.83313    5603.8692    4.3201001    4.3201001    4.3201001    5603.8692    -2059.527    17222.507    1648.6277    1626.2919   -13938.204   -9702.5248     80.62717 
    2600    1519.4414    -114.2157    1.3748225   -112.84088    16648.179     4.318299     4.318299     4.318299    16648.179    -9293.195    -18633.37    77871.102   -5891.1291     7091.472      5228.62    80.526369 
    2700    939.65794   -113.71017   0.85022225   -112.85994    17389.802    4.3174077    4.3174077    4.3174077    17389.802    12587.528   -3006.3138    42588.191     867.6643   -13465.514   -4488.9617    80.476521 
    2800    1061.8811   -113.81942   0.96081232   -112.85861   -3731.9124    4.3320964    4.3320964    4.3320964   -3731.9124   -25865.426     1903.001    12766.688    6539.9202   -15407.166   -1728.2677    81.300708 
    2900    1772.3708   -114.43256    1.6036783   -112.82889    -17280.66    4.3233143    4.3233143    4.3233143    -17280.66   -24827.539   -40473.978    13459.537   -6144.0474    11100.203    4936.6907    80.807266 
    3000    706.52478   -113.46675   0.63927846   -112.82747    31290.385    4.3066728    4.3066728    4.3066728    31290.385    33953.668      7731.33    52186.156    4160.0585   -21456.161    508.94512    79.877715 
    3100    1178.1338   -113.91045    1.0660002   -112.84445   -22573.882    4.3285327    4.3285327    4.3285327   -22573.882   -35305.288   -31304.033   -1112.3241   -6396.4177   -17586.142   -254.23619    81.100233 
    3200    1304.9064   -114.01344    1.1807067   -112.83273   -4779.7974    4.3269781    4.3269781    4.3269781   -4779.7974   -5448.0888   -52584.711    43693.408   -12408.713    291.03596   -574.34416    81.012885 
    3300    974.99915   -113.71422   0.88219972   -112.83203    12097.146    4.2994116    4.2994116    4.2994116    12097.146   -8145.8535   -8814.8082    53252.098    5270.9439   -6789.0042   -4623.8763    79.474368 
    3400    866.04315   -113.63665   0.78361404   -112.85304   -27123.926    4.3167408    4.3167408    4.3167408   -27123.926   -34432.647   -24873.716   -22065.416   -6358.7302   -38551.214   -5463.5268    80.439232 
    3500    1112.5127   -113.84245    1.0066249   -112.83583    3888.6346    4.3262844    4.3262844    4.3262844    3888.6346    4874.4912   -34548.951    41340.363   -4187.4037    2356.8613    14242.774    80.973928 
    3600    1160.0885   -113.88125    1.0496725   -112.83158   -4712.2314     4.325916     4.325916     4.325916   -4712.2314   -26613.426   -28771.299    41248.031    3371.8159   -7093.5168    6952.1403    80.953241 
    3700    999.99902   -113.74147   0.90482013   -112.83665    13577.847    4.3111301    4.3111301    4.3111301    13577.847   -20364.378   -5768.4932    66866.412   -5229.5889   -16663.996   -12116.055    80.125985 
    3800    1326.3178   -114.05865    1.2000802   -112.85857   -18628.153    4.3174302    4.3174302    4.3174302   -18628.153    5071.9862   -34761.491   -26194.954   -6873.4844   -3052.2954     17349.51    80.477777 
    3900    1534.7402   -114.24502    1.3886652   -112.85636   -23440.195    4.3274013    4.3274013    4.3274013   -23440.195   -4939.8128   -49668.831   -15711.941    3393.4276    3591.5893    3952.7811    81.036654 
    4000    1283.8308   -114.01702    1.1616371   -112.85538    24655.948    4.3134881    4.3134881    4.3134881    24655.948    13497.722   -10425.097    70895.219   -440.60295     1950.325    733.38717    80.257536 
    4100    1033.0461   -113.79661   0.93472179   -112.86189    27532.911    4.3183182    4.3183182    4.3183182    27532.911    32971.387   -10074.906    59702.252    748.58722    -3712.743    1551.2254    80.527446 
    4200    1358.3906   -114.07246    1.2291004   -112.84336   -49525.608    4.3361356    4.3361356    4.3361356   -49525.608   -35947.394   -76948.717   -35680.714   -13179.201     4784.333    16323.062    81.528332 
    4300    1076.4579   -113.79942   0.97400176   -112.82542     16831.46    4.3064313    4.3064313    4.3064313     16831.46    48231.961   -25827.993    28090.414   -11702.051    6003.1869    1350.0255    79.864279 
    4400    1209.9648   -113.93477    1.0948016   -112.83997    16747.548     4.312174     4.312174     4.312174    16747.548    4438.2535   -12175.089    57979.479    4179.9391   -20231.065     4602.874    80.184205 
    4500    872.07756   -113.62509   0.78907411   -112.83602   -36101.549     4.341682     4.341682     4.341682   -36101.549   -17896.565   -62997.747   -27410.334    -14041.05    7139.8009    5846.8132    81.841585 
    4600    855.16651    -113.5943   0.77377263   -112.82053    22053.694    4.3096887    4.3096887    4.3096887    22053.694    4140.3206   -23214.354    85235.115    -3183.294     12681.45   -637.51806    80.045643 
    4700    1226.5719   -113.94258     1.109828   -112.83275    19407.187    4.3076534    4.3076534    4.3076534    19407.187    28762.191   -11703.941    41163.313    3244.1113   -31834.455    9966.4539    79.932292 
    4800    1308.6967   -114.02905    1.1841363   -112.84491   -27368.212    4.3337619    4.3337619    4.3337619   -27368.212   -26434.436   -32745.942   -22924.256   -15048.486   -1244.4883   -6284.3144    81.394517 
    4900    1100.1579    -113.8258   0.99544599   -112.83035   -12403.988    4.3354486    4.3354486    4.3354486   -12403.988    -5527.112   -25384.783   -6300.0709   -4168.2676    4502.9433    14668.999    81.489589 
    5000    1390.7669   -114.07314    1.2583951   -112.81474     8753.594    4.3159512    4.3159512    4.3159512     8753.594   -8292.9105   -1776.9784    36330.671    6808.9148    -32234.46    2087.1846    80.395097 
    5100    1658.0314   -114.32161    1.5002216   -112.82138    -10744.78    4.3149172    4.3149172    4.3149172    -10744.78   -618.04885   -32450.362    834.07092    360.49362   -345.83071   -903.45287     80.33733 
    5200    998.01168   -113.73621   0.90302194   -112.83319    8508.3779    4.3324445    4.3324445    4.3324445    8508.3779   -10580.615   -31661.518    67767.267   -461.21668    8792.8744     208.1446    81.320312 
    5300    1468.3237   -114.14844    1.3285701   -112.81987   -27069.405    4.3246939    4.3246939    4.3246939   -27069.405   -29471.924    -24786.04    -26950.25    -1846.149   -5993.7001    11581.299    80.884654 
    5400    1186.6434   -113.88409    1.0736999   -112.81039    17271.372    4.3058665    4.3058665    4.3058665    17271.372    39420.597    672.09715    11721.423   -2176.4943   -8487.2452   -8886.9038    79.832859 
    5500    1058.7993   -113.79938    0.9580239   -112.84136   -3964.3615    4.3255166    4.3255166    4.3255166   -3964.3615   -24348.036   -41101.166    53556.117   -5193.2109   -3747.6839    6034.9026    80.930823 
    5600    852.44899   -113.62142   0.77131376   -112.85011   -5097.3663     4.327856     4.327856     4.327856   -5097.3663   -39005.367   -25511.564    49224.832   -1943.1408   -1377.2792    7423.0113    81.062204 
    5700    962.03708   -113.72111   0.87047137   -112.85064    35978.161    4.3155098    4.3155098    4.3155098    35978.161    17306.576   -367.90624    90995.814   -2655.9419   -10653.258   -68.770278    80.370435 
    5800    1498.9115    -114.2034    1.3562466   -112.84715    -18800.19    4.3214634    4.3214634    4.3214634    -18800.19   -28769.259   -14856.694   -12774.618   -9256.0423    4992.0107    2842.0748    80.703527 
    5900     1285.148   -114.02214    1.1628289   -112.85931   -11721.045    4.3147337    4.3147337    4.3147337   -11721.045   -42942.817   -15211.015    22990.696    6506.5047    11060.192    3448.6772    80.327082 
    6000    1667.8658   -114.38604      1.50912   -112.87692   -23407.358    4.3185717    4.3185717    4.3185717   -23407.358   -17573.909   -30186.836   -22461.329    4635.8629   -28977.756   -2967.4243    80.541629 
    6100    1245.1922   -114.00175    1.1266761   -112.87507    -10407.37    4.3281416    4.3281416    4.3281416    -10407.37   -30644.524   -9447.4563    8869.8691    1994.0591     19098.42         3302    81.078251 
    6200    1052.5735   -113.82397    0.9523906   -112.87158    5900.8909    4.3172325    4.3172325    4.3172325    5900.8909   -42124.977   -13687.346    73514.996     41.94842    4315.5045    2318.3077    80.466721 
    6300    1101.3849   -113.86672   0.99655616   -112.87017    18440.032    4.3057849    4.3057849    4.3057849    18440.032   -18476.354    6775.5743    67020.877   -5916.0758   -20897.275    2746.2289     79.82832 
    6400    1104.5024    -113.8692   0.99937699   -112.86982    10594.326    4.3221313    4.3221313    4.3221313    10594.326   -26516.409    1372.5856    56926.801    816.64563   -3987.7286   -11519.267     80.74095 
    6500    1308.1979   -114.03642     1.183685   -112.85273   -22228.154    4.3332208    4.3332208    4.3332208   -22228.154   -46261.047   -38495.268    18071.853   -1544.7149    25677.403    9136.6022    81.364033 
    6600    1540.2547   -114.23438    1.3936548   -112.84073   -10941.663     4.307684     4.307684     4.307684   -10941.663   -18016.272   -20107.858    5299.1431   -2076.2944   -18114.172    1941.5585    79.933994 
    6700    1531.0085   -114.24404    1.3852887   -112.85875     7594.324    4.3016973    4.3016973    4.3016973     7594.324    2954.5735    8940.4183     10887.98   -134.71564   -10189.579    883.40219    79.601187 
    6800    775.79739   -113.57294   0.70195778   -112.87098   -1251.8567    4.3250064    4.3250064    4.3250064   -1251.8567   -44249.887    -10650.98    51145.296   -5872.5479    34614.615   -6267.0668    80.902185 
    6900    904.94395   -113.68005    0.8188123   -112.86124   -5392.5636     4.321211     4.321211     4.321211   -5392.5636   -30471.523   -24931.828     39225.66     618.6257   -15160.678   -6980.3326     80.68939 
    7000    1010.8528   -113.76833   0.91464086   -112.85369    27471.161    4.3027558    4.3027558    4.3027558    27471.161    6957.6652    8098.5252    67357.294    -1791.363   -20909.081    616.25057    79.659962 
    7100    1159.0495   -113.90081    1.0487324   -112.85208   -1994.0995    4.3064873    4.3064873    4.3064873   -1994.0995   -11220.105    20392.543   -15154.737   -7055.1946    30301.722    3551.3444    79.867392 
    7200    931.74324   -113.68677   0.84306087   -112.84371   -16756.972    4.3279819    4.3279819    4.3279819   -16756.972    -26993.15    4423.6853   -27701.451   -1551.1012    10181.765   -1551.1246    81.069278 
    7300    1047.3239   -113.77181   0.94764065   -112.82417    25775.959    4.3162552    4.3162552    4.3162552    25775.959   -17129.539    10152.067    84305.347   -7777.1518   -25686.489   -10378.041    80.412086 
    7400    954.50362   -113.69422   0.86365494   -112.83056    2620.5711    4.3109379    4.3109379    4.3109379    2620.5711   -31937.317     58012.64   -18213.609   -5745.1096    18354.456    797.46325    80.115268 
    7500    845.13547   -113.60166   0.76469633   -112.83697    -2793.564    4.3152851    4.3152851    4.3152851    -2793.564   -19204.867     21140.33   -10316.155    5258.2847    21475.824    1386.2144    80.357883 
    7600    1480.8471   -114.16584    1.3399016   -112.82594    9419.2854     4.314297     4.314297     4.314297    9419.2854   -19828.644    10741.277    37345.223   -5973.4358   -15941.173    22055.497    80.302696 
    7700    947.08196   -113.68577   0.85693966   -112.82883    13058.895    4.3178907    4.3178907    4.3178907    13058.895   -31113.904    54322.064    15968.523   -4518.8516     31669.72   -1695.6978    80.503529 
    7800     1171.287   -113.88324     1.059805   -112.82344   -4333.6517    4.3119097    4.3119097    4.3119097   -4333.6517    -35051.96   -2394.8127    24445.818    2616.5364    26824.519    6043.7632    80.169465 
    7900    1787.4265   -114.44012    1.6173011   -112.82282     1548.904    4.3073633    4.3073633    4.3073633     1548.904   -14120.177    25131.545    -6364.656    6326.8568   -14076.252   -12693.646    79.916141 
    8000    1167.6722   -113.89416    1.0565343   -112.83762   -8589.4081    4.3270894    4.3270894    4.3270894   -8589.4081   -50880.111    -2343.595    27455.482   -432.76004    19939.307    8102.8498    81.019134 
    8100    1448.6727   -114.14211    1.3107895   -112.83132   -25076.578    4.3203494    4.3203494    4.3203494   -25076.578   -55968.902   -17070.073   -2190.7602    11811.664    15655.153   -8161.7413    80.641129 
    8200    1340.9314    -114.0283    1.2133029     -112.815    47890.127    4.2922785    4.2922785    4.2922785    47890.127   -2988.8248    73411.267    73247.938    11875.362   -12250.689    1247.3602    79.079455 
    8300    1167.4362   -113.89153    1.0563208   -112.83521   -8867.3953    4.3176734    4.3176734    4.3176734   -8867.3953   -52647.009    38222.581   -12177.758   -1224.7728    23118.129     24509.73    80.491379 
    8400    1075.2088    -113.7922   0.97287152   -112.81933   -20273.392    4.3324565    4.3324565    4.3324565   -20273.392   -58270.565    30167.682   -32717.294    11745.166    8474.0675   -563.30536    81.320984 
    8500    1083.0774   -113.79415   0.97999121   -112.81416    23046.219     4.304354     4.304354     4.304354    23046.219   -28180.372     28424.05    68894.979    6106.9692   -1051.6481   -4171.9335    79.748759 
    8600    1030.6178   -113.75843   0.93252463   -112.82591   -3626.1529    4.2911558    4.2911558    4.2911558   -3626.1529   -11892.676    26208.325   -25194.107   -3989.3485    34825.279    5031.7056    79.017422 
    8700    1424.3549   -114.14096    1.2887863   -112.85217   -22253.838    4.3155435    4.3155435    4.3155435   -22253.838   -30152.073   -6786.0927   -29823.348    9886.5421    6182.0437    2779.3439    80.372319 
    8800    1007.5926   -113.75101     0.911691   -112.83932    -3800.999    4.3331083    4.3331083    4.3331083    -3800.999   -45788.504    5495.9869     28889.52    13130.207   -6577.0098   -2278.0229    81.357693 
    8900    905.06472   -113.65222   0.81892158   -112.83329   -20664.649    4.3054925    4.3054925    4.3054925   -20664.649    -26079.14    10911.349   -46826.155   -14982.849    31748.162    23093.345    79.812058 
    9000    1054.5503    -113.7816   0.95417932   -112.82742    22543.951    4.2885149    4.2885149    4.2885149    22543.951   -12652.686    81893.303   -1608.7635    3106.2452    7784.5635    2572.7198     78.87162 
    9100    1482.8416   -114.17351    1.3417062   -112.83181    3156.5651    4.3192497    4.3192497    4.3192497    3156.5651   -29435.574    4659.5676    34245.702    4165.6978   -4672.3341    -1016.392    80.579567 
    9200    948.26234   -113.69557   0.85800769   -112.83756   -13621.445    4.3246616    4.3246616    4.3246616   -13621.445   -61446.264    28617.328   -8035.3979   -9073.0351    21055.244   -12563.791    80.882841 
    9300    1367.0291   -114.06518    1.2369167   -112.82826    12454.537      4.29694      4.29694      4.29694    12454.537   -1542.9256    10834.451    28072.086   -7158.1985    4452.2073    26699.287    79.337382 
    9400    1619.9578   -114.30417    1.4657719    -112.8384    10165.484    4.3063751    4.3063751    4.3063751    10165.484    -23434.26     8865.611    45065.102    6769.2026   -3622.1697    6607.1803    79.861153 
    9500    1265.6041   -113.98754    1.1451452   -112.84239    1637.8286    4.3189299    4.3189299    4.3189299    1637.8286   -57342.564    44770.318    17485.731   -10420.403    26343.909    -16515.97    80.561668 
    9600    1185.4714   -113.90428    1.0726394   -112.83164   -3256.4599    4.3206033    4.3206033    4.3206033   -3256.4599   -36803.586    342.37029    26691.836    490.18003   -1527.6552   -8855.7088    80.655352 
    9700    1438.0959    -114.1233    1.3012194   -112.82208    10382.967    4.3057046    4.3057046    4.3057046    10382.967   -34490.677    72025.555   -6385.9752    818.76956   -11749.978    5936.9921    79.823852 
    9800    1348.4561   -114.05285    1.2201114   -112.83274    16281.527    4.3012496    4.3012496    4.3012496    16281.527   -965.59228    11020.281    38789.892   -1061.5327    24137.167    12177.224    79.576333 
    9900    1035.3756   -113.77836   0.93682959   -112.84153   -31543.354    4.3252885    4.3252885    4.3252885   -31543.354   -57344.914    6359.1443   -43644.294   -4159.0584    1021.1187   -4173.6378    80.918021 
   10000     1018.117   -113.74884   0.92121368   -112.82763    8688.2995    4.3085796    4.3085796    4.3085796    8688.2995   -8778.9204    39393.389   -4549.5696   -4835.0477   -17369.006     5345.561    79.983861 
   10100    1013.4665   -113.74425   0.91700579   -112.82724    16484.594    4.3056293    4.3056293    4.3056293    16484.594   -9812.5867    67635.286    -8368.916    12062.593    15410.086   -2430.7664    79.819666 
   10200    1148.2275   -113.86361    1.0389403   -112.82467   -28922.363     4.320489     4.320489     4.320489   -28922.363   -34960.222   -767.74988   -51039.117   -10290.069   -6724.7551   -5644.1608    80.648951 
   10300    1059.4886   -113.77828   0.95864755   -112.81963    7569.5018    4.3065738    4.3065738    4.3065738    7569.5018   -24808.755    65618.784   -18101.524    -6157.222   -18182.759    11568.291    79.872207 
   10400    1108.3401   -113.83635    1.0028494    -112.8335    611.26695     4.308081     4.308081     4.308081    611.26695   -16442.254    62038.985    -43762.93     4091.922    20511.813    15483.868    79.956095 
   10500    1172.7406   -113.90111    1.0611203   -112.83999    2685.7515    4.3200642    4.3200642    4.3200642    2685.7515   -11803.206    41035.301    -21174.84   -3607.2237    -7235.761   -11859.439     80.62516 
   10600    1514.9207   -114.20157    1.3707321   -112.83084   -27014.381    4.3248747    4.3248747    4.3248747   -27014.381   -50968.404   -18050.166   -12024.573   -4716.7233   -18097.413   -8727.0599    80.894796 
   10700    1032.1089   -113.76295   0.93387386   -112.82908    20564.852    4.3065625    4.3065625    4.3065625    20564.852   -17446.895    14913.321     64228.13    17285.594   -1113.7268    12762.442    79.871577 
   10800    1398.0851   -114.09604    1.2650168   -112.83103     16276.26    4.3084654    4.3084654    4.3084654     16276.26   -15825.097    31331.628    33322.248   -12194.915     6276.397    15787.547    79.977503 
   10900    1385.0745   -114.07853    1.2532445   -112.82529   -2827.5368    4.3292339    4.3292339    4.3292339   -2827.5368   -15976.598   -10012.621    17506.609   -6103.5515   -8626.2836    3424.3889    81.139653 
   11000    1176.0115   -113.88218    1.0640799    -112.8181    6336.9013    4.3130292    4.3130292    4.3130292    6336.9013   -13815.337    41186.744   -8360.7035    2121.6246    15985.045    9370.9887    80.231924 
   11100    1094.5712   -113.81032     0.990391   -112.81993    12608.995    4.3085034    4.3085034    4.3085034    12608.995     12003.72    9026.8527    16796.413   -1439.8392    6516.3035   -3745.7545    79.979616 
   11200    1536.1322   -114.20881    1.3899247   -112.81889   -22774.046    4.3248585    4.3248585    4.3248585   -22774.046    -5722.602    -19744.08   -42855.456   -1093.5047   -14052.535   -13394.002    80.893885 
   11300    1060.1875   -113.77953   0.95927997   -112.82025    11803.058     4.314216     4.314216     4.314216    11803.058   -8487.6108    2733.0153    41163.769    15743.229    639.68168    6049.4766    80.298174 
   11400    806.18024   -113.55645   0.72944882     -112.827    12215.395    4.3146815    4.3146815    4.3146815    12215.395    12812.113    23356.552    477.51901    5088.0835    6637.7264    5427.7273    80.324168 
   11500    1153.4929   -113.85943    1.0437046   -112.81573    1428.5913    4.3261564    4.3261564    4.3261564    1428.5913   -25741.841    51319.386   -21291.771    6003.8041   -4637.0988    1232.4998    80.966742 
   11600    849.84964   -113.58375   0.76896181   -112.81479    21184.661    4.3162645    4.3162645    4.3162645    21184.661   -6461.0192    60964.567    9050.4364    27451.246   -4435.4636    9720.8305    80.412611 
   11700    955.73792   -113.68094   0.86477175   -112.81617    4397.1593     4.311356     4.311356     4.311356    4397.1593   -12007.905     35942.45   -10743.067    10403.581    6172.0547    9388.6916    80.138581 
   11800      1553.43   -114.22353    1.4055761   -112.81795   -3270.6933    4.3098668    4.3098668    4.3098668   -3270.6933   -5494.6077   -4471.0727    153.60034   -3078.2309   -9679.7012    4692.4302    80.055569 
   11900    1530.0603   -114.21268    1.3844307   -112.82825   -10013.066    4.3106442    4.3106442    4.3106442   -10013.066   -39453.584   -11926.796    21341.181    4548.2693    16002.852    2231.1982    80.098894 
   12000    1025.3797   -113.76547   0.92778506   -112.83769   -818.38095    4.3152872    4.3152872    4.3152872   -818.38095   -21010.084    21901.639   -3346.6981    8125.8863    7299.5152    18657.957    80.358002 
   12100     1440.392   -114.12739    1.3032969   -112.82409    21104.594    4.3102211    4.3102211    4.3102211    21104.594    2426.6307    24174.368    36712.784   -12073.469    -5568.152    5677.7537    80.075316 
   12200    1492.9347   -114.17418    1.3508387   -112.82334    11210.356     4.307127     4.307127     4.307127    11210.356   -43574.259    58697.473    18507.852    12139.503    5544.8535    1157.8743    79.902988 
   12300    1132.2038   -113.85953    1.0244418   -112.83508   -15226.388     4.313434     4.313434     4.313434   -15226.388   -45736.707   -10135.209    10192.752    20763.214    9089.3154    992.40395    80.254514 
   12400    1442.8116   -114.13502    1.3054863   -112.82954   -46.135999    4.3071116    4.3071116    4.3071116   -46.135999   -9058.1717     19054.39   -10134.626   -2539.0488   -14729.827    7615.0184    79.902134 
   12500    1725.4533   -114.38622    1.5612264   -112.82499   -7393.5625    4.3080546    4.3080546    4.3080546   -7393.5625   -19585.338    1893.0135   -4488.3629   -82.752077    -3715.006    783.96216    79.954627 
   12600    781.99355   -113.54528    0.7075642   -112.83772   -14199.047    4.3222134    4.3222134    4.3222134   -14199.047   -54441.311    9492.2153     2351.955     23995.88    9581.3175    2880.2289    80.745552 
   12700    871.93711    -113.6162   0.78894702   -112.82726    9109.4316    4.3084986    4.3084986    4.3084986    9109.4316     48.07627    62376.314   -35096.095    3910.8812     2361.021    10176.948    79.979352 
   12800    1168.5406     -113.878    1.0573201   -112.82068    17467.196    4.3004425    4.3004425    4.3004425    17467.196    12991.257    16011.417    23398.913    5624.3557    5228.8115    3612.6426    79.531551 
   12900    999.29296   -113.73632   0.90418127   -112.83214    -33923.92    4.3260279    4.3260279    4.3260279    -33923.92   -53026.942   -48235.854   -508.96341    6957.5532    14587.707   -5371.9206    80.959524 
   13000     1140.872   -113.85691    1.0322849   -112.82462    -13532.57     4.314743     4.314743     4.314743    -13532.57   -21426.018     12474.01   -31645.703    413.94668   -2537.3984    16812.982      80.3276 
   13100    1011.6271   -113.73389   0.91534149   -112.81855    33094.902    4.2977806    4.2977806    4.2977806    33094.902    30479.471   -9144.1604    77949.396   -699.04335    -7843.832    11754.296    79.383953 
   13200    1019.4187   -113.75829   0.92239147   -112.83589   -17576.802    4.3201417    4.3201417    4.3201417   -17576.802   -43014.838     3384.667   -13100.234   -7660.5644    9608.1112   -9743.9342    80.629501 
   13300    1046.5825   -113.77325   0.94696986   -112.82628    8242.5009     4.316896     4.316896     4.316896    8242.5009   -26438.819    8270.6518     42895.67    7906.6353   -9022.8366    -15800.67     80.44791 
   13400    1360.9507   -114.05543    1.2314168   -112.82402    582.37073    4.3099662    4.3099662    4.3099662    582.37073   -9633.5534    17421.475   -6040.8096   -16943.193   -10002.528    12354.261    80.061107 
   13500    1275.0352   -113.98329    1.1536787   -112.82961   -20522.832    4.3126198    4.3126198    4.3126198   -20522.832   -21293.667   -22357.946   -17916.883   -6727.2586    13840.659    6961.5146    80.209075 
   13600    1494.5076   -114.18205    1.3522619   -112.82979   -3651.8375    4.3041072    4.3041072    4.3041072   -3651.8375   -8302.9606   -4025.9466    1373.3948     22580.56    8451.9647   -9856.1967    79.735046 
   13700    1665.2228   -114.33802    1.5067286   -112.83129   -12750.284    4.3194047    4.3194047    4.3194047   -12750.284    9739.0566   -21771.172   -26218.738    -4726.405   -1373.4149    11607.372    80.588244 
   13800    1121.3943   -113.83863    1.0146612   -112.82397   -26482.876    4.3308338    4.3308338    4.3308338   -26482.876   -39237.137     19944.01   -60155.502    2858.6326    11486.509   -8586.5225    81.229646 
   13900    1125.6897   -113.83739    1.0185477   -112.81885    7147.3114    4.2936696    4.2936696    4.2936696    7147.3114   -17319.306    32513.001    6248.2398    20475.292   -304.53626   -8837.3146     79.15637 
   14000    1450.7055   -114.14031    1.3126288   -112.82768    22672.755    4.2945134    4.2945134    4.2945134    22672.755    17636.313    50570.707    -188.7558    6430.2607    1452.3657   -6618.1041    79.203049 
   14100    1286.5561   -113.99104     1.164103   -112.82694   -34808.576    4.3348695    4.3348695    4.3348695   -34808.576   -20375.635   -19730.358   -64319.735   -9736.5453    10782.752    1378.9252    81.456939 
   14200    513.89692   -113.29249   0.46498474    -112.8275      6201.49    4.3150787    4.3150787    4.3150787      6201.49   -30710.165    49079.861    234.77353    5362.4023    8535.2589    -11345.69     80.34635 
   14300    1164.1422   -113.87245    1.0533403   -112.81911     14478.33     4.289761     4.289761     4.289761     14478.33    9842.4481    10001.413    23591.128    11435.442   -2861.1088    8622.0035    78.940396 
   14400     1592.512   -114.26792    1.4409383   -112.82698    10007.226    4.2994122    4.2994122    4.2994122    10007.226    1722.7295    18229.436    10069.513   -6213.9351   -1529.9397    3176.9086      79.4744 
   14500    1052.6744   -113.79427   0.95248196   -112.84179   -7773.6425    4.3195808    4.3195808    4.3195808   -7773.6425   -18941.689   -29758.257    25379.018    13668.539    12726.947    214.13713    80.598102 
   14600    997.63172   -113.73934   0.90267815   -112.83666   -12759.415    4.3176728    4.3176728    4.3176728   -12759.415   -9244.3738   -18871.584   -10162.286    22022.809   -3041.5336    -14427.61    80.491345 
   14700    1387.7915   -114.07553    1.2557029   -112.81983    32174.518    4.2903757    4.2903757    4.2903757    32174.518    38658.375    16214.421    41650.757   -10564.612    5131.3258   -10465.946    78.974332 
   14800    1413.3118    -114.1159    1.2787943    -112.8371    6787.8993    4.2987296    4.2987296    4.2987296    6787.8993    10903.705    4518.7958    4941.1967    1171.8958    3065.2467   -308.68748     79.43655 
   14900    782.73283   -113.55021   0.70823312   -112.84197   -22834.259    4.3228755    4.3228755    4.3228755   -22834.259   -37236.047   -31021.501   -245.22818    13608.299   -7531.1192   -8914.0955    80.782669 
   15000    1083.5096   -113.80788   0.98038228   -112.82749   -13302.572    4.3102153    4.3102153    4.3102153   -13302.572    -427.2527   -34722.179   -4758.2854    2905.7304    3420.8425    12216.964    80.074992 
   15100    1532.6039   -114.20498    1.3867323   -112.81825    1686.2281    4.2980219    4.2980219    4.2980219    1686.2281    6034.9527    9173.8706   -10150.139    7117.9981    10522.235     13013.06    79.397324 
   15200    874.35791   -113.62314   0.79113741     -112.832     14565.74    4.3083927    4.3083927    4.3083927     14565.74   -7054.5237    30803.583    19948.161    19603.238   -1127.6315   -13560.382    79.973453 
   15300    957.62347   -113.70094   0.86647784   -112.83446   -5327.1981    4.3097445    4.3097445    4.3097445   -5327.1981    2466.3763   -1832.5824   -16615.388    6207.9999   -535.49484   -18370.707    80.048752 
   15400    1239.2815   -113.95514     1.121328   -112.83381   -6463.6936    4.3080868    4.3080868    4.3080868   -6463.6936   -8577.7902    1549.8459   -12363.136   -1290.0937    6687.2193    9088.5647     79.95642 
   15500    1666.4236   -114.33818    1.5078151   -112.83036   -1887.9408    4.3035489    4.3035489    4.3035489   -1887.9408    186.45786   -19588.016    13737.736    13105.506     5239.522    9403.4993    79.704019 
   15600    1438.6372   -114.13511    1.3017092    -112.8334   -4013.8539    4.3072325    4.3072325    4.3072325   -4013.8539    19487.229   -23127.728   -8401.0627    580.28287   -8330.2801   -8889.8091    79.908863 
   15700    1244.8556   -113.96199    1.1263715   -112.83562   -18791.896    4.3131077    4.3131077    4.3131077   -18791.896   -10273.469    1164.5861   -47266.807   -15145.024    7606.1228    17121.528    80.236305 
   15800    1650.0341   -114.32227    1.4929856   -112.82928     12437.28    4.2960298    4.2960298    4.2960298     12437.28    22999.584    18077.965   -3765.7084    4355.4443   -6230.4887    7718.3358    79.286977 
   15900    1353.4392   -114.05878    1.2246202   -112.83416    9676.7017    4.3100318    4.3100318    4.3100318    9676.7017    6024.0972    10674.819    12331.189    15177.466   -185.16002   -13927.653    80.064761 
   16000    1170.1223   -113.88975    1.0587513     -112.831   -25172.846    4.3182127    4.3182127    4.3182127   -25172.846    3323.1508   -42421.877   -36419.813    3376.8739    10950.541    4830.5359    80.521544 
   16100    802.34126   -113.54641   0.72597523   -112.82043    36854.717    4.2967751    4.2967751    4.2967751    36854.717    40088.639    21844.246    48631.264   -4776.2607    17911.202        19661    79.328247 
   16200    1219.1199   -113.92884    1.1030853   -112.82575   -17.789132    4.3029877    4.3029877    4.3029877   -17.789132    22220.899   -13063.845   -9210.4214    12669.926   -10300.644   -11569.255    79.672843 
   16300    840.36805   -113.59247   0.76038267   -112.83209    2526.9621    4.3087163    4.3087163    4.3087163    2526.9621    2016.2058   -25067.317    30631.998    5321.9652   -4730.2447  -0.21949046    79.991475 
   16400     1092.422   -113.82113   0.98844642   -112.83269   -20859.797    4.3082299    4.3082299    4.3082299   -20859.797    -14629.89   -27064.966   -20884.535   -2880.2872    14484.256    26648.043    79.964386 
   16500    880.32221   -113.62699   0.79653404   -112.83046     2406.094    4.3068138    4.3068138    4.3068138     2406.094   -23060.038    45947.667   -15669.347    1316.0802   -9510.1152   -6665.8182    79.885562 
   16600    1363.0264   -114.05794    1.2332949   -112.82464   -10183.721    4.2991137    4.2991137    4.2991137   -10183.721   -31335.401    -13687.65    14471.889    8971.9238   -13853.781    7455.3075    79.457846 
   16700     922.1638   -113.67046   0.83439319   -112.83607     3246.142    4.3062034    4.3062034    4.3062034     3246.142    9105.8101    2524.1933   -1891.5775    3823.7933    8303.5833    17640.627    79.851599 
   16800    1179.5131    -113.9044    1.0672483   -112.83715   -16345.705    4.3097118    4.3097118    4.3097118   -16345.705   -5289.9234   -20223.972    -23523.22    -14506.01    14220.847    2196.9797    80.046932 
   16900    956.43633   -113.70459   0.86540369   -112.83918    18517.114    4.2982333    4.2982333    4.2982333    18517.114    4708.7332     25745.78    25096.828    9412.9227   -9276.9304   -6648.9826    79.409041 
   17000    1351.5137   -114.06389     1.222878   -112.84101   -21485.398     4.308772     4.308772     4.308772   -21485.398   -23464.425   -25121.386   -15870.383    11694.479    2353.9734    24449.042    79.994574 
   17100    1114.6817   -113.84092    1.0085874   -112.83234     3604.438    4.3081276    4.3081276    4.3081276     3604.438    11086.164   -6982.4604    6709.6105   -6913.8513    10681.574    20013.981    79.958691 
   17200    1368.1863   -114.06629    1.2379637   -112.82832   -8678.2669    4.2958063    4.2958063    4.2958063   -8678.2669   -22572.902   -3470.4536    8.5552436   -4027.8054    1946.0414   -12411.598      79.2746 
   17300    1074.7927   -113.81079   0.97249499   -112.83829   -6481.4959    4.3037122    4.3037122    4.3037122   -6481.4959    15715.604   -4208.2443   -30951.847    13800.004   -12643.229    11388.589    79.713094 
   17400    1478.6306   -114.16986     1.337896   -112.83196   -4526.5292    4.3106379    4.3106379    4.3106379   -4526.5292    31941.852   -25076.113   -20445.326    7252.6201    7361.0314    10701.619    80.098544 
   17500    1088.4205   -113.81342   0.98482576   -112.82859    9083.1214    4.3105813    4.3105813    4.3105813    9083.1214    2613.5232    4179.6741    20456.167    1028.4598     8504.421   -8461.8753    80.095388 
   17600    810.62593    -113.5646   0.73347138   -112.83113   -18451.905    4.3044616    4.3044616    4.3044616   -18451.905    841.72277   -21346.677   -34850.761     4440.914   -16102.381    8994.8382    79.754742 
   17700    1220.0656   -113.93369     1.103941   -112.82975    4204.5613    4.2954281    4.2954281    4.2954281    4204.5613    39333.766   -1307.9573   -25412.125    1056.5477   -3407.4028     17520.69    79.253665 
   17800    1667.5398   -114.34277    1.5088251   -112.83394    4442.8521    4.3052794    4.3052794    4.3052794    4442.8521    24707.897   -9298.2002   -2081.1409   -8945.7483   -3300.2171    -8731.382    79.800208 
   17900    1152.4032   -113.88501    1.0427186   -112.84229   -23849.516    4.3132138    4.3132138    4.3132138   -23849.516   -32216.948   -20651.596   -18680.006    5898.2087   -6453.4265    10016.524    80.242224 
   18000    991.06177   -113.73995   0.89673352   -112.84322    5906.3772    4.2967554    4.2967554    4.2967554    5906.3772    39289.469   -6416.2622   -15154.075    9621.9195    1449.3092    25033.571    79.327159 
   18100    1964.9483   -114.61344    1.7779265   -112.83551    13001.928    4.2940633    4.2940633    4.2940633    13001.928    7639.3692    15704.417    15661.999   -1966.7485     2583.653   -3982.1176    79.178146 
   18200     1549.592   -114.24255    1.4021034   -112.84045    7020.2342    4.3037983    4.3037983    4.3037983    7020.2342     36304.83   -5162.7862   -10081.341   -3072.8463   -115.29529   -8253.1116    79.717876 
   18300    875.75947    -113.6412   0.79240557    -112.8488   -15472.262     4.304452     4.304452     4.304452   -15472.262   -24967.794    13646.245   -35095.236    10158.887   -12147.448    23171.646    79.754207 
   18400     1114.737   -113.85294    1.0086375    -112.8443   -5921.7983    4.2998276    4.2998276    4.2998276   -5921.7983    7189.7184   -6777.9322   -18177.181    13251.568   -255.42674    16429.372    79.497436 
   18500    1526.0382   -114.21747    1.3807914   -112.83668    18657.569    4.2927916    4.2927916    4.2927916    18657.569     23576.16    24357.273    8039.2749    2669.1142    1363.7151   -16972.871    79.107818 
   18600    1007.2857   -113.76128   0.91141324   -112.84987   -9745.9459    4.3003524    4.3003524    4.3003524   -9745.9459    8444.5786   -4132.0149   -33550.401   -3526.1385   -10687.114    16488.753    79.526548 
   18700    613.39305   -113.40735   0.55501092   -112.85234   -17418.263    4.3041024    4.3041024    4.3041024   -17418.263   -2127.5071   -19893.266   -30234.015    13109.614   -10662.225    11660.814    79.734777 
   18800     1220.215    -113.9491    1.1040762   -112.84502   -8636.4003    4.3009257    4.3009257    4.3009257   -8636.4003   -20700.709     18172.32   -23380.812    9482.5936    14706.786   -6769.9343     79.55836 
   18900    1388.6263   -114.09752    1.2564582   -112.84106    9476.2942    4.2957912    4.2957912    4.2957912    9476.2942    20111.713    22642.806   -14325.637   -12647.115    1436.8754    11232.895    79.273767 
   19000    1076.7544   -113.82328   0.97427001   -112.84901    3799.8467    4.2991747    4.2991747    4.2991747    3799.8467    10239.642    12883.371   -11723.473      11526.8   -4259.1331    9853.1997    79.461227 
   19100    1026.1377   -113.77263   0.92847097   -112.84416   -8463.3937    4.3076898    4.3076898    4.3076898   -8463.3937   -12212.101    9529.5377   -22707.618    23279.186    6159.5021    5018.0327    79.934316 
   19200     1421.652   -114.12126    1.2863406   -112.83491   -4502.1579    4.3010142    4.3010142    4.3010142   -4502.1579    4141.7385   -7485.0678   -10163.144   -7410.7345   -3043.9069    2402.6424    79.563269 
   19300     1548.418    -114.2349    1.4010412   -112.83386    3104.8446    4.2942137    4.2942137    4.2942137    3104.8446   -4741.2402    11414.378    2641.3957   -7505.7764   -4080.6718    4681.2012    79.186466 
   19400    994.10618   -113.74281   0.89948816   -112.84332    14035.182    4.3029495    4.3029495    4.3029495    14035.182    30009.189    16591.343   -4494.9844    14258.187    5121.9147    903.25488    79.670721 
   19500    866.41078   -113.62827   0.78394668   -112.84432   -11234.326    4.3071867    4.3071867    4.3071867   -11234.326   -8182.8006   -23850.744   -1669.4324   -2191.5288     4833.729   -6531.9892    79.906314 
   19600    1119.8245   -113.84595    1.0132407   -112.83271    5169.5332      4.29565      4.29565      4.29565    5169.5332    36091.805   -18397.792   -2185.4138   -21237.017   -3301.0485    18992.633    79.265952 
   19700    1441.6794    -114.1366    1.3044618   -112.83214    2933.2952    4.2975802    4.2975802    4.2975802    2933.2952   -498.07522    11000.148    -1702.187     14908.08    2827.4144    4762.6185    79.372849 
   19800    892.07917   -113.65294   0.80717198   -112.84576    1020.0823    4.3054842    4.3054842    4.3054842    1020.0823    11140.592    4426.2411   -12506.586   -3758.3641    9820.8281   -4364.4395    79.811598 
   19900    1000.5938   -113.75138   0.90535828   -112.84602   -16757.011    4.3099103    4.3099103    4.3099103   -16757.011     5356.568    -32166.99   -23460.612   -25422.046    1162.8093     15873.24    80.057991 
   20000    1568.8203    -114.2518    1.4195016    -112.8323   -3551.7753    4.3034512    4.3034512    4.3034512   -3551.7753    18877.896    -846.0703   -28687.151   -8377.7674    644.14933    8456.6317    79.698591 
   20100    1726.5269   -114.38755    1.5621978   -112.82535    12381.349    4.2924617    4.2924617    4.2924617    12381.349   -5732.0238    57765.591    -14889.52    11093.874    571.18613   -7770.7399    79.089581 
   20200     1088.263   -113.82812   0.98468324   -112.84343   -20573.986    4.3104767    4.3104767    4.3104767   -20573.986   -30256.864    1546.9879   -33012.081   -27250.034    -5133.403    5596.4969    80.089561 
   20300    1389.6144   -114.09361    1.2573523   -112.83626   -13129.291    4.3028497    4.3028497    4.3028497   -13129.291   -14268.664   -4283.1047   -20836.105   -18812.347    553.31327    4573.6828    79.665177 
   20400    1621.8181   -114.29893    1.4674551   -112.83148    13736.218    4.2960515    4.2960515    4.2960515    13736.218     13089.27    33407.021   -5287.6369    6350.0537   -2800.3877   -11360.608    79.288177 
   20500    1424.3714    -114.1271    1.2888012    -112.8383   -12937.108    4.3047944    4.3047944    4.3047944   -12937.108   -14119.582   -10202.183    -14489.56   -13336.024    9259.0168    4088.1608    79.773244 
   20600    767.77692   -113.53601   0.69470069   -112.84131    22926.229    4.2937039    4.2937039    4.2937039    22926.229    725.94748    34177.473    33875.267   -6829.2154    4335.5156    19272.528    79.158266 
   20700    1027.2138   -113.77655    0.9294446   -112.84711   -16125.846    4.2995011    4.2995011    4.2995011   -16125.846    14533.438   -36675.357   -26235.619     1052.501   -3351.5401   -13854.341     79.47933 
   20800    1175.8652   -113.90378    1.0639476   -112.83983   -3905.1537    4.3016802    4.3016802    4.3016802   -3905.1537   -10359.274    -18914.28    17558.093    5222.0434     6875.833   -15375.025    79.600234 
   20900    1359.4793   -114.06423    1.2300854   -112.83414   -2730.1074    4.2975809    4.2975809    4.2975809   -2730.1074    -15415.69   -2792.6044    10017.972   -14879.356   -933.39675    14297.978     79.37289 
   21000    896.55951   -113.65216   0.81122589   -112.84093   -25550.157    4.3034946    4.3034946    4.3034946   -25550.157    -16111.07   -41500.682   -19038.719    8369.4119   -5146.3468   -424.65488    79.701003 
   21100    1014.9945   -113.76109   0.91838832    -112.8427    3773.8848    4.2953197    4.2953197    4.2953197    3773.8848     -4877.83   -3440.4063    19639.891    11507.433   -3453.4583   -23256.708    79.247666 
   21200    1504.7459   -114.20107    1.3615257   -112.83954    2945.4381    4.3055215    4.3055215    4.3055215    2945.4381   -29780.603    32394.591    6222.3263   -261.70659    13211.768    8397.8021    79.813669 
   21300    1489.7733   -114.18185    1.3479782   -112.83387    1875.3494    4.3032257    4.3032257    4.3032257    1875.3494   -17754.059     18405.37    4974.7374   -595.64042    7511.7778    16821.356    79.686062 
   21400    1257.7235   -113.97421    1.1380147    -112.8362   -594.96394    4.2953572    4.2953572    4.2953572   -594.96394    6535.4715    8921.0859   -17241.449    4790.7822    2511.8412   -25439.445    79.249741 
   21500    1307.6616   -114.02297    1.1831997   -112.83977   -25120.339    4.3084728    4.3084728    4.3084728   -25120.339    -39919.54   -9000.2765     -26441.2    6327.1218    12954.751   -21064.679    79.977911 
   21600    1603.4346   -114.28168    1.4508214   -112.83086    3358.4675     4.295181     4.295181     4.295181    3358.4675    -16126.45    52511.446   -26309.594    -11917.24    2898.8957    15024.625    79.239987 
   21700    1299.8747   -114.01227     1.176154   -112.83612    2815.5501     4.300244     4.300244     4.300244    2815.5501    2081.4388     18819.78   -12454.568    15370.383   -3609.1793   -4369.0131    79.520537 
   21800    1172.5376   -113.89725    1.0609367   -112.83632   -14165.689    4.3063327    4.3063327    4.3063327   -14165.689   -7283.6718   -6510.5006   -28702.894    15980.679    1006.9563   -16036.687    79.858791 
   21900    1133.7139   -113.85381    1.0258082   -112.82801    34004.615    4.2868578    4.2868578    4.2868578    34004.615    18020.505    52660.985    31332.354   -405.72497    12512.136    3506.6509    78.780229 
   22000    1207.0951   -113.93017     1.092205   -112.83796   -16315.487    4.3051977    4.3051977    4.3051977   -16315.487    -12799.16   -21560.714   -14586.587   -6463.9198   -6457.1817     5398.711    79.795668 
   22100    1096.4525   -113.82433   0.99209326   -112.83224   -7489.6486    4.3051122    4.3051122    4.3051122   -7489.6486    29227.423   -37976.791   -13719.578    2409.7407   -4426.2453   -7479.1757    79.790912 
   22200    1255.2436   -113.96409    1.1357708   -112.82832    1071.2321     4.290443     4.290443     4.290443    1071.2321    5451.5402   -11201.102    8963.2581    -1043.206    18759.502   -9230.9321     78.97805 
   22300    623.36439   -113.40472    0.5640332   -112.84069   -27581.298    4.3041077    4.3041077    4.3041077   -27581.298   -30069.926   -54336.059    1662.0921   -24689.464    16184.099    9403.8299    79.735073 
   22400    812.68574   -113.57079   0.73533513   -112.83546    -13414.85    4.3001658    4.3001658    4.3001658    -13414.85    19574.236   -60911.541    1092.7542   -966.51858   -13212.472   -1598.3882    79.516198 
   22500     1196.094   -113.91242     1.082251   -112.83017   -3608.0518    4.3004671    4.3004671    4.3004671   -3608.0518    7526.8351   -21203.626    2852.6356    1376.1131    7533.5674   -225.02932     79.53291 
   22600    767.95106   -113.53322   0.69485826   -112.83836   -15387.442    4.3034822    4.3034822    4.3034822   -15387.442   -13776.937   -13227.478   -19157.912    -1306.895    16473.212    8515.0281    79.700314 
   22700    820.81572   -113.58003   0.74269131   -112.83734    7501.4915    4.2895026    4.2895026    4.2895026    7501.4915    47391.908   -16833.385    -8054.049     -8983.59    -8936.882    6955.7128    78.926127 
   22800    1338.6144   -114.05151    1.2112064   -112.84031   -6652.5534    4.3020549    4.3020549    4.3020549   -6652.5534   -17094.291    4284.5542   -7147.9229    11509.373    5994.3024   -3181.0176    79.621043 
   22900    1376.8764    -114.0784    1.2458267   -112.83257   -8224.8021    4.3069079    4.3069079    4.3069079   -8224.8021    -5132.869    18724.395   -38265.932    9945.8698    16257.045   -5121.1205    79.890795 
   23000    1095.8428   -113.82129    0.9915416   -112.82975    29603.006    4.2979283    4.2979283    4.2979283    29603.006    31111.077    40634.299    17063.642   -12247.073    1947.7577     1214.075    79.392137 
   23100    1586.8475   -114.26305    1.4358129   -112.82724   -9683.5808    4.3032091    4.3032091    4.3032091   -9683.5808   -15458.686   -2292.6552   -11299.401    3226.7985   -9277.8053    3152.3479    79.685141 
   23200    1326.2751   -114.03159    1.2000416   -112.83155    21193.935    4.2910025    4.2910025    4.2910025    21193.935    35273.253     8609.009    19699.542    10544.865    11926.493    1870.9011    79.008951 
   23300    1561.0514   -114.25158    1.4124721   -112.83911    3729.8783    4.2954925    4.2954925    4.2954925    3729.8783   -14123.537    16822.259    8490.9124    5571.9003    1811.9324    4035.2795    79.257233 
   23400     1358.669   -114.06588    1.2293523   -112.83652   -20387.441    4.3150684    4.3150684    4.3150684   -20387.441   -9760.8525    -33508.09   -17893.379   -7565.8478    -5587.177    1758.8941    80.345777 
   23500    1186.3489   -113.90121    1.0734335   -112.82778   -817.94022    4.3001374    4.3001374    4.3001374   -817.94022   -12192.428   -29249.952    38988.559    22955.538    10854.574    1784.6808     79.51462 
   23600    1250.9432   -113.95303    1.1318797   -112.82115    20611.018    4.2875746    4.2875746    4.2875746    20611.018    23562.884    27332.141    10938.028    974.96235    11867.681    16657.394    78.819753 
   23700    998.22983   -113.73683   0.90321933   -112.83361   -11091.606    4.3098482    4.3098482    4.3098482   -11091.606    4168.2891   -6528.3302   -30914.777   -20299.448   -9532.3566    13013.355    80.054532 
   23800    767.28616   -113.52883   0.69425664   -112.83458   -16276.858    4.3049347    4.3049347    4.3049347   -16276.858   -35467.341   -30782.306    17419.072    27038.375   -11066.272   -2632.8191    79.781042 
   23900    1196.5077   -113.90816    1.0826253   -112.82554    10302.349    4.2874677    4.2874677    4.2874677    10302.349    1721.0293    11251.199     17934.82     13282.87    7873.8958   -4579.9663    78.813859 
   24000    1308.2674   -114.01422    1.1837479   -112.83047   -24433.102    4.3047675    4.3047675    4.3047675   -24433.102   -6926.1932   -31019.194   -35353.919   -4554.5766   -4094.2729     18316.34    79.771747 
   24100    1048.3006   -113.77908    0.9485244   -112.83055   -19460.925    4.3021838    4.3021838    4.3021838   -19460.925   -34255.622   -24654.104    526.95088    24296.573   -2117.2102    7362.4438    79.628198 
   24200    1024.5939   -113.75641   0.92707406   -112.82934    14577.209    4.2968981    4.2968981    4.2968981    14577.209   -7371.3153    31887.724    19215.217    16703.145   -3018.9415     -10450.9    79.335062 
   24300    1571.4461   -114.24775    1.4218774   -112.82587   -12613.586     4.303447     4.303447     4.303447   -12613.586   -3578.7984    8755.2757   -43017.236   -4241.0598   -11026.628    1916.4846    79.698361 
   24400    1115.9208   -113.84124    1.0097086   -112.83154    17022.948    4.2884246    4.2884246    4.2884246    17022.948    10166.276    61830.053   -20927.485    3512.5877   -15095.372    16560.562     78.86664 
   24500    1034.5094   -113.78238   0.93604586   -112.84633   -9666.7401    4.3005882    4.3005882    4.3005882   -9666.7401   -17658.341   -26181.352    14839.473    33985.915     2799.289   -2582.2968    79.539634 
   24600    1422.6228   -114.12449     1.287219   -112.83727   -18090.537    4.3081554    4.3081554    4.3081554   -18090.537    -10728.05   -10423.833   -33119.728   -14946.102    494.45105   -2277.4529    79.960239 
   24700    1412.9552   -114.11055    1.2784716   -112.83208    4806.1576    4.2861193    4.2861193    4.2861193    4806.1576    9223.9371    33495.021   -28300.485     811.3487   -11928.045    8812.7024    78.739519 
   24800    720.96709   -113.49854   0.65234617   -112.84619   -7144.5548    4.2969048    4.2969048    4.2969048   -7144.5548   -5723.4048   -18893.172    3182.9128    30023.744   -3525.2383    1782.9974    79.335432 
   24900    868.92815   -113.61935   0.78622445   -112.83313   -20499.131    4.3143846    4.3143846    4.3143846   -20499.131    4933.2391   -45846.994   -20583.639   -6051.1365     3912.516    8313.2223    80.307585 
   25000    1335.6874   -114.03134     1.208558   -112.82278    16243.882    4.2894268    4.2894268    4.2894268    16243.882    46704.244    18786.327   -16758.923   -12261.458   -522.17203   -422.92914    78.921945 
   25100    860.57247   -113.61438   0.77866405   -112.83571   -9902.4675    4.2889464    4.2889464    4.2889464   -9902.4675   -15380.093   -14794.052    466.74253    40129.759   -11720.945   -1315.2945     78.89543 
   25200    949.05307   -113.70208   0.85872316   -112.84336   -24607.345    4.3040099    4.3040099    4.3040099   -24607.345   -25208.576   -37980.448   -10633.013    32359.021    1260.4872    5003.7849    79.729637 
   25300    1566.7389   -114.25043    1.4176183   -112.83281    9356.9777    4.3054601    4.3054601    4.3054601    9356.9777    25879.774    14684.409   -12493.251   -24898.221   -1905.7717    1217.0103    79.810256 
   25400    1132.8917    -113.8643    1.0250642   -112.83924   -4029.8565    4.3008483    4.3008483    4.3008483   -4029.8565   -7119.6824   -15023.604    10053.717    30052.903   -14108.424   -1851.4028    79.554064 
   25500      1078.64   -113.81314   0.97597617   -112.83716    17170.059    4.2838029    4.2838029    4.2838029    17170.059   -10060.959    23194.142    38376.993    40417.794   -3765.5875   -8804.5597    78.611925 
   25600     1785.301   -114.45476    1.6153778   -112.83938    10342.581    4.3022899    4.3022899    4.3022899    10342.581    22708.431    17108.869   -8789.5583   -14577.182    5847.3024   -23.503532    79.634086 
   25700    1691.4599   -114.36837    1.5304685    -112.8379   -18841.305     4.306447     4.306447     4.306447   -18841.305    -33074.24   -20603.213   -2846.4603    9424.8818   -3625.0464    7970.2231    79.865154 
   25800    815.51924   -113.57401   0.73789894   -112.83611    38855.073    4.2867068    4.2867068    4.2867068    38855.073    51447.941    35591.291    29525.989    48088.295   -6453.6545   -2598.5491    78.771904 
   25900    1881.2342   -114.53151    1.7021802   -112.82933   -9331.3601    4.3046654    4.3046654    4.3046654   -9331.3601   -2848.7199   -6388.2519   -18757.108   -2042.2991    1797.7013   -1397.4311    79.766073 
   26000    1442.9141   -114.13945     1.305579   -112.83387    20952.146    4.2934318    4.2934318    4.2934318    20952.146    42903.576    21112.529   -1159.6683    4236.9209    3284.6232    6668.1677     79.14322 
   26100    807.81773    -113.5756   0.73093046   -112.84467    6615.4463    4.2895972    4.2895972    4.2895972    6615.4463   -2112.0192   -1162.2558    23120.614     46865.32   -8025.0457    -252.4748    78.931354 
   26200    1102.9958   -113.83315   0.99801381   -112.83514   -19201.236    4.3108927    4.3108927    4.3108927   -19201.236    20536.425   -27413.612   -50726.522    3965.3845   -8620.9722    9040.1702    80.112751 
   26300    1182.2914   -113.89769    1.0697621   -112.82792    10350.821    4.2935601    4.2935601    4.2935601    10350.821    38485.505    22044.606   -29477.647   -477.20625   -4.0228358    3962.6462    79.150312 
   26400    688.46934    -113.4593   0.62294152   -112.83635   -11748.832    4.2978734    4.2978734    4.2978734   -11748.832    2089.6671   -28317.045   -9019.1177    51318.106   -9227.1576   -4500.4288    79.389095 
   26500    1019.6258   -113.74738   0.92257888    -112.8248    -14043.32    4.3047558    4.3047558    4.3047558    -14043.32   -5788.5156   -10885.926   -25455.519    5677.1365   -7152.6275    6389.2775    79.771096 
   26600    1043.4983   -113.76445   0.94417916   -112.82027    29943.482    4.2872105    4.2872105    4.2872105    29943.482     78007.08     31403.58   -19580.213   -4784.2299    14427.986    3975.3012    78.799674 
   26700    787.65271   -113.54855   0.71268473   -112.83587    -15198.22    4.3004463    4.3004463    4.3004463    -15198.22    9378.5275   -45922.412    -9050.777    37616.921    6032.8076   -4728.2236    79.531761 
   26800    1073.7667   -113.79799   0.97156663   -112.82642   -1719.9009    4.3056609    4.3056609    4.3056609   -1719.9009    39713.651   -14853.386   -30019.968    9447.7249   -4521.9914   -100.49742    79.821424 
   26900    1512.4719   -114.18852    1.3685164      -112.82    10899.271     4.289605     4.289605     4.289605    10899.271    17698.804     28060.31   -13061.302   -1232.3731    6121.6331    4988.1638    78.931783 
   27000    896.18423    -113.6476   0.81088632   -112.83671    771.12784    4.2938949    4.2938949    4.2938949    771.12784    15707.023   -20289.071    6895.4309    34402.967     93.13867    1745.2948    79.168831 
   27100    1426.2061   -114.12618    1.2904612   -112.83572   -9729.3888    4.3056226    4.3056226    4.3056226   -9729.3888   -1754.7438    -23465.02   -3968.4024    16557.322   -9370.8627   -8736.2197    79.819293 
   27200    1618.4999   -114.29292    1.4644527   -112.82847   -6178.9525    4.3019793    4.3019793    4.3019793   -6178.9525   -10644.208    11667.145   -19559.794    -16016.48   -3799.4592   -6125.9962    79.616843 
   27300    1257.3771   -113.96821    1.1377012   -112.83051   -4087.9291    4.2881064    4.2881064    4.2881064   -4087.9291   -16314.002   -11440.257    15490.472    35975.865    16122.081   -6327.1121    78.849085 
   27400    1450.9823   -114.14955    1.3128792   -112.83667    2360.4329     4.294333     4.294333     4.294333    2360.4329     17514.16   -24212.551     13779.69    30251.911   -541.51741   -4838.0695    79.193064 
   27500    1617.4143   -114.29517    1.4634705    -112.8317    1032.0772    4.3028662    4.3028662    4.3028662    1032.0772    14733.512    3460.7991   -15098.079   -15683.153   -5400.6719    7753.1003    79.666092 
   27600    1118.8409    -113.8452    1.0123507   -112.83285   -7187.3398    4.3038239    4.3038239    4.3038239   -7187.3398    6354.2953   -23304.644   -4611.6705    18200.217    9201.7937    6067.2952    79.719303 
   27700    1216.4888   -113.93132    1.1007047   -112.83061   -21205.896    4.2996784    4.2996784    4.2996784   -21205.896   -2425.8363   -44731.782   -16460.071    28832.303    2512.4756   -4792.5145    79.489161 
   27800    1129.7019   -113.84921     1.022178   -112.82703    34937.313    4.2809068    4.2809068    4.2809068    34937.313    96288.869    17159.818   -8636.7472   -9122.1163    -9879.266   -9083.6653    78.452596 
   27900    907.14666   -113.66932   0.82080536   -112.84852   -16603.031    4.2988612    4.2988612    4.2988612   -16603.031   -11779.039   -5291.5429    -32738.51    845.35825    8664.7862   -251.96833    79.443847 
   28000    783.73732   -113.54377   0.70914199   -112.83463   -31727.993    4.3129338    4.3129338    4.3129338   -31727.993   -15279.084   -37222.835   -42682.059    29570.648    14515.499   -2750.0136    80.226597 
   28100    1199.9936   -113.91016    1.0857794   -112.82438    21574.816    4.2823272    4.2823272    4.2823272    21574.816    80722.981    994.06551   -16992.598   -8923.4209   -2786.2051   -4656.8726    78.530712 
   28200    882.45808   -113.63725   0.79846662   -112.83878   -5192.0181     4.284573     4.284573     4.284573   -5192.0181    15846.485    9609.7796   -41032.319   -10368.356    6703.0714    6439.1471     78.65433 
   28300    878.34894   -113.63563   0.79474858   -112.84088   -23278.182    4.3070434    4.3070434    4.3070434   -23278.182    4262.3541   -20037.677   -54059.224    23075.001    6972.8964   -6034.1018     79.89834 
   28400    1370.8815   -114.07379    1.2404024   -112.83339     2455.216    4.2996089    4.2996089    4.2996089     2455.216    46234.253   -8712.9011   -30155.704    1572.9012    9.2584518   -5307.1304    79.485305 
   28500    1035.4685   -113.77292   0.93691364   -112.83601     8919.256    4.2811588    4.2811588    4.2811588     8919.256    39398.281    4426.5651   -17067.078   -31133.107   -4624.9138    6788.1297    78.466449 
   28600    939.08273   -113.69721   0.84970179   -112.84751    -10153.06    4.2939709    4.2939709    4.2939709    -10153.06    8955.0505    2530.3388    -41944.57    14299.005    12224.142    506.31253    79.173037 
   28700     1758.263   -114.42363    1.5909133   -112.83272   -4300.5336    4.2994832    4.2994832    4.2994832   -4300.5336    13906.005    1349.2051   -28156.811    8182.8001    4827.6838    -1477.807    79.478335 
   28800    1189.4491   -113.91196    1.0762385   -112.83573    15322.174    4.2922567    4.2922567    4.2922567    15322.174    40726.608   -4521.4091    9761.3218   -35451.554   -2309.8826    1194.5716    79.078254 
   28900    1003.0111   -113.74605   0.90754552   -112.83851   -14128.456    4.3014882    4.3014882    4.3014882   -14128.456   -17665.848    2102.8279   -26822.348   -1769.2003    9800.4019    2469.5569    79.589577 
   29000    1956.1626    -114.5961     1.769977   -112.82613    2936.5812    4.2892055    4.2892055    4.2892055    2936.5812    702.57924     11352.15   -3244.9853    8879.8796    10815.485    2829.2511    78.909729 
   29100    1336.0543   -114.04799      1.20889    -112.8391    6666.3753    4.2874273    4.2874273    4.2874273    6666.3753    16842.363   -27749.424    30906.187   -27599.559   -7102.9418   -794.30224    78.811629 
   29200    1037.6234   -113.78193   0.93886345   -112.84307   -4909.0754    4.2980074    4.2980074    4.2980074   -4909.0754    616.06724   -8995.3938   -6347.8996   -22708.516    5494.2836    2032.2337    79.396523 
   29300    1723.7995   -114.38834      1.55973   -112.82861    7499.0498    4.2989374    4.2989374    4.2989374    7499.0498    33105.377   -557.57437   -10050.653    13724.155   -799.67672   -10873.514     79.44807 
   29400    1144.1858   -113.86998    1.0352833    -112.8347   -4357.7527    4.2993134    4.2993134    4.2993134   -4357.7527    9906.4155   -52527.475    29547.802   -25749.581   -1388.2549   -2291.5644    79.468919 
   29500    1112.1122   -113.83929    1.0062625   -112.83302    1593.5723    4.2846916    4.2846916    4.2846916    1593.5723    -4382.466   -10527.914    19691.096   -39556.704   -5233.7755    7224.6947    78.660862 
   29600    1341.7908   -114.04641    1.2140805   -112.83233    21974.293    4.2922204    4.2922204    4.2922204    21974.293    47039.724    35253.778   -16370.621    14334.705    3733.5946   -918.51664    79.076247 
   29700    1100.0894   -113.82869   0.99538402   -112.83331   -14250.976    4.3048417    4.3048417    4.3048417   -14250.976     2343.945   -37667.322   -7429.5513   -22605.256    1100.9929   -4443.3258    79.775869 
   29800    818.53794   -113.57341   0.74063033   -112.83278    8861.7548    4.2907624    4.2907624    4.2907624    8861.7548   -2995.6871    18306.428    11274.523   -34234.456   -1021.9859   -5135.4209    78.995693 
   29900     1244.701    -113.9535    1.1262316   -112.82727    4675.6919    4.2949818    4.2949818    4.2949818    4675.6919    19312.056    34162.816   -39447.797    8134.6285    1019.0892    4140.4777    79.228963 
   30000    1118.5662   -113.84444    1.0121022   -112.83234    4508.9389     4.288516     4.288516     4.288516    4508.9389    2213.4028    20545.706   -9232.2918   -9757.6267    2874.1439   -2685.0729    78.871682 
   30100    671.61029   -113.45152   0.60768711   -112.84383    8425.1516    4.2964747    4.2964747    4.2964747    8425.1516    22852.596    12784.906   -10362.046   -37655.054    2011.5122   -2349.6886    79.311611 
   30200    1358.8737   -114.05416    1.2295375   -112.82462   -22239.293    4.3094146    4.3094146    4.3094146   -22239.293   -585.64149     99.47339   -66231.712   -304.94211   -5459.1716    5927.2696    80.030371 
   30300    1072.7614   -113.79691    0.9706571   -112.82625    28995.105    4.2785248    4.2785248    4.2785248    28995.105    53451.077    40265.464   -6731.2266   -15180.026   -2230.9045    4627.1642     78.32171 
   30400    850.46469   -113.61466   0.76951832   -112.84514   -6714.0359    4.2900549    4.2900549    4.2900549   -6714.0359   -8190.4571   -11622.529   -329.12127   -52571.233   -4510.3354   -4576.2299     78.95662 
   30500    1419.1565   -114.11288    1.2840826   -112.82879   -8689.6631    4.3049104    4.3049104    4.3049104   -8689.6631    16326.492    -625.4457   -41770.035    1041.1087   -169.72311   -589.19432     79.77969 
   30600    1223.7288   -113.93172    1.1072555   -112.82447    16346.421    4.2906572    4.2906572    4.2906572    16346.421     39892.87    15411.202   -6264.8086    -9193.031   -6026.6249    4395.9704     78.98988 
   30700    932.44878   -113.67415   0.84369925   -112.83045   -25212.162    4.3011688    4.3011688    4.3011688   -25212.162   -38941.835   -46819.416    10124.764   -61055.159    5400.8104    1086.3969    79.571854 
   30800    1659.4207   -114.32146    1.5014787   -112.81998    1238.6098    4.2923764    4.2923764    4.2923764    1238.6098    10930.511    -8167.458    952.77659     79.79396   -6450.3271    -4750.648    79.084866 
   30900    1303.3127   -114.00979    1.1792647   -112.83053    15709.988    4.2875816    4.2875816    4.2875816    15709.988     19727.06    19757.575    7645.3273    2028.7512    1111.3513    208.42263    78.820138 
   31000    783.74139    -113.5537   0.70914568   -112.84456   -14602.322    4.3010949    4.3010949    4.3010949   -14602.322     -19396.9   -46113.265    21703.197   -53236.469     6054.082   -4773.1925    79.567747 
   31100    1364.4982   -114.06392    1.2346266   -112.82929     11032.79    4.3008015    4.3008015    4.3008015     11032.79    38426.621   -15174.372    9846.1215   -2323.1318    1369.2434   -2209.7264     79.55147 
   31200    1535.4323   -114.21112    1.3892914   -112.82183    1625.1098    4.2968546    4.2968546    4.2968546    1625.1098   -14260.566   -262.87711    19398.773    7142.4306   -1843.2487    10925.256    79.332655 
   31300    891.19229   -113.63519   0.80636951   -112.82882   -15178.931    4.2946757    4.2946757    4.2946757   -15178.931   -35001.359   -48262.503    37727.069   -59904.644   -6838.5566    2431.1105    79.212027 
   31400    1510.4505   -114.19319    1.3666873    -112.8265    1120.6332    4.2956385    4.2956385    4.2956385    1120.6332    2102.3441   -10935.574     12195.13   -13392.267    89.414232    593.61275    79.265311 
   31500    1550.9207   -114.22958    1.4033057   -112.82627     3321.583     4.299498     4.299498     4.299498     3321.583   -6187.7222    1501.7087    14650.762    24844.236   -5869.9684    4638.9232    79.479155 
   31600    830.47456   -113.58612   0.75143083   -112.83468   -2911.9561    4.2959999    4.2959999    4.2959999   -2911.9561   -29529.964   -5844.1649    26638.261   -52376.514   -9212.7165    11915.937    79.285319 
   31700    1468.1667    -114.1585    1.3284281   -112.83007    1478.7106    4.2985779    4.2985779    4.2985779    1478.7106   -22182.916    26259.623    359.42468    -13101.71   -10686.453    5958.6104    79.428144 
   31800    1833.9838   -114.48211    1.6594271   -112.82268    10331.407    4.2978695    4.2978695    4.2978695    10331.407    11632.162    8353.7595    11008.301    17549.113    876.63169   -2712.8696    79.388882 
   31900    1045.6926   -113.78051   0.94616463   -112.83434   -11846.011    4.2978978    4.2978978    4.2978978   -11846.011   -42957.382   -29290.474    36709.823   -51978.101     6499.167    2862.7943    79.390445 
   32000    1415.7296   -114.10825    1.2809819   -112.82726     419.0441    4.2985444    4.2985444    4.2985444     419.0441   -25597.566    18796.215    8058.4835   -22163.628   -6845.0659    1233.7103    79.426284 
   32100    1644.3517   -114.31143     1.487844   -112.82359    13426.104    4.2960387    4.2960387    4.2960387    13426.104    20498.386    24377.804   -4597.8781    5894.2896   -1777.7572   -5433.0942    79.287467 
   32200    866.33799   -113.62058   0.78388082    -112.8367    5302.4523    4.2945706    4.2945706    4.2945706    5302.4523   -26550.524    13186.484    29271.397   -32013.131    6358.4413   -7416.8172    79.206214 
   32300    950.61938    -113.6955    0.8601404   -112.83536    100.26865    4.2991613    4.2991613    4.2991613    100.26865    21749.742   -27707.261    6258.3249   -13614.456    3990.9736   -73.204462    79.460489 
   32400    1334.6357   -114.03557    1.2076064   -112.82796    4171.7503    4.2941713    4.2941713    4.2941713    4171.7503    5484.1487    24132.473   -17101.371    12728.974   -7809.4472   -1473.6354    79.184118 
   32500    947.48847    -113.6925   0.85730748    -112.8352   -11377.276    4.2927637    4.2927637    4.2927637   -11377.276   -20757.987    -22182.98    8809.1401   -41481.661    3291.3023   -511.64823    79.106278 
   32600    774.20677   -113.53729   0.70051855   -112.83677     -15609.2    4.3030943    4.3030943    4.3030943     -15609.2   -2967.3444   -44738.392    878.13545    -19832.63   -2807.0852    7440.9152    79.678764 
   32700     1079.201   -113.80485   0.97648375   -112.82836    7006.5446     4.294923     4.294923     4.294923    7006.5446    13113.326    26650.902   -18744.593     18916.21   -7296.9215    7696.3625     79.22571 
   32800      793.954   -113.54993   0.71838626   -112.83154    16.885988    4.2921884    4.2921884    4.2921884    16.885988   -4677.0402    14599.983   -9872.2851   -17018.242   -1991.3093   -3064.8893    79.074477 
   32900    909.58637   -113.66052   0.82301287   -112.83751   -14598.129    4.2937662    4.2937662    4.2937662   -14598.129   -26971.296   -14915.279    -1907.814   -22590.332    2465.0104    3975.8106     79.16171 
   33000    1046.2564     -113.783   0.94667474   -112.83633     10642.94    4.2902462    4.2902462    4.2902462     10642.94     17923.83    27600.388   -13595.397    5788.1666   -14171.558    12278.476    78.967183 
   33100    1225.5328   -113.94198    1.1088879   -112.83309   -29772.982    4.3069003    4.3069003    4.3069003   -29772.982   -41532.769   -11195.551   -36590.625   -9112.0942   -1746.8916   -8871.1447    79.890374 
   33200    1152.8698   -113.87595    1.0431408   -112.83281   -12159.644    4.2927931    4.2927931    4.2927931   -12159.644   -35770.382    7166.6333   -7875.1837   -32141.737    7307.0247   -7909.5482    79.107901 
   33300    1073.8281   -113.80254   0.97162219   -112.83092    31706.642    4.2741414    4.2741414    4.2741414    31706.642    40771.979    49066.426    5281.5191    7348.4921   -17692.268    10669.005     78.08123 
   33400    1181.6985   -113.91371    1.0692257   -112.84449   -21594.143    4.3008055    4.3008055    4.3008055   -21594.143    -14715.87   -460.49219   -49606.067    7112.3052    1569.8395   -13064.645    79.551688 
   33500    1305.4248   -114.01677    1.1811758    -112.8356    -1809.914    4.3016547    4.3016547    4.3016547    -1809.914    7253.5688    7455.0956   -20138.406   -14270.273    8884.8106    -15260.33    79.598823 
   33600    1435.1713   -114.13139    1.2985731   -112.83282   -3056.5621    4.2909597    4.2909597    4.2909597   -3056.5621   -8063.4699    4882.5641   -5988.7806    528.27948    -7624.349    21987.399    79.006588 
   33700    931.05513   -113.68274   0.84243825    -112.8403    985.57929    4.2867394    4.2867394    4.2867394    985.57929     38222.57   -7152.0149   -28113.817    5145.0705   -20090.153   -2780.4206    78.773702 
   33800    1540.5557   -114.23361    1.3939272   -112.83968   -955.89515    4.2905768    4.2905768    4.2905768   -955.89515    1278.4679    11276.467    -15422.62     15153.55    4677.8278   -25119.332    78.985442 
   33900    1555.4471   -114.24421    1.4074012   -112.83681   -14453.107    4.3035472    4.3035472    4.3035472   -14453.107   -12064.717   -8846.5667   -22448.038   -13814.369   -10181.489    13132.742    79.703924 
   34000    1208.2913   -113.93603    1.0932874   -112.84275   -1206.5435    4.2870291    4.2870291    4.2870291   -1206.5435   -314.90737    19304.571   -22609.294   -6824.5372   -26973.514    12052.263    78.789674 
   34100    1277.5727   -113.99567    1.1559746    -112.8397    15456.757    4.2814991    4.2814991    4.2814991    15456.757    31554.063    10609.173    4207.0343    4992.7403     15285.27   -27984.962    78.485166 
   34200    1497.6082    -114.1922    1.3550673   -112.83713   -16456.575    4.3013774    4.3013774    4.3013774   -16456.575    -18286.99    -30959.25    -123.4839    8954.3417    -10252.55   -7031.3538    79.583428 
   34300    1290.8136   -114.00227    1.1679553   -112.83432   -507.71566    4.2944834    4.2944834    4.2944834   -507.71566   -14607.505    28149.602   -15065.243    3005.4029   -30478.823    13193.947    79.201389 
   34400    1280.2895   -113.99266    1.1584329   -112.83423   -2199.2887    4.2870082    4.2870082    4.2870082   -2199.2887     24696.69   -17387.637   -13906.919   -4648.3089    4891.0911   -7972.5003    78.788517 
   34500    1153.7044   -113.88359     1.043896    -112.8397   -11353.535    4.2887361    4.2887361    4.2887361   -11353.535   -9036.7098   -40339.709    15315.813    22292.748    5467.9963   -14609.751    78.883827 
   34600    1162.5368   -113.89585    1.0518877   -112.84396    244.20478    4.2934303    4.2934303    4.2934303    244.20478   -68.272003    187.56664    613.31971    15484.295   -22818.416    2530.9664    79.143136 
   34700    1373.3238   -114.07896    1.2426122   -112.83635   -14072.744    4.3026908    4.3026908    4.3026908   -14072.744   -12978.223    11652.247   -40892.257   -7524.3873   -8755.8571    2346.0956    79.656351 
   34800    1218.7781   -113.94261    1.1027761   -112.83983    3055.1841    4.2821968    4.2821968    4.2821968    3055.1841    6055.0601   -3828.0303    6938.5225    6048.1215    10955.716   -17503.145    78.523542 
   34900    957.43232   -113.71361   0.86630489   -112.84731    16477.116    4.2818174    4.2818174    4.2818174    16477.116   -19255.262    40442.346    28244.263    15373.233   -24831.279   -460.25406    78.502671 
   35000    1377.4969   -114.08208    1.2463881   -112.83569    -7005.026    4.3041981    4.3041981    4.3041981    -7005.026   -17220.777    16572.232   -20366.532   -2849.2672   -3773.5875   -3935.3952    79.740095 
   35100    1304.6134   -114.01374    1.1804416    -112.8333    8877.5109    4.2905343    4.2905343    4.2905343    8877.5109   -8004.2567    36093.201    -1456.412    6939.3444    23705.887   -6385.1415    78.983092 
   35200    1044.4963    -113.7811   0.94508218   -112.83602   -13361.777    4.2881391    4.2881391    4.2881391   -13361.777   -42238.252   -5413.4567    7566.3787     17520.55   -14271.081   -7881.4894    78.850887 
   35300    1093.8128   -113.82608   0.98970481   -112.83638      81.7908    4.2918797    4.2918797    4.2918797      81.7908   -44637.364    11765.338    33117.398    9727.8235   -6338.3359   -5261.7137    79.057415 
   35400    1162.8172   -113.88937    1.0521414   -112.83723    10640.738    4.2920417    4.2920417    4.2920417    10640.738   -9233.9159    44550.989   -3394.8578   -5110.9232    21081.092    12660.105    79.066372 
   35500     854.6015   -113.60915    0.7732614   -112.83589   -28468.308    4.3035052    4.3035052    4.3035052   -28468.308   -59160.717    -13289.46   -12954.748    21271.207    6687.8468    -17552.92    79.701594 
   35600    980.82725   -113.72044   0.88747311   -112.83297   -9265.1893    4.2851886    4.2851886    4.2851886   -9265.1893   -50039.687    11107.665    11136.453    18937.554   -12922.734   -8619.9165    78.688239 
   35700     1066.116   -113.79802   0.96464415   -112.83337    12415.418    4.2819919    4.2819919    4.2819919    12415.418   -40364.616    51153.947    26456.923   -5863.3931    25385.444    1989.1124    78.512271 
   35800     1016.057   -113.75634    0.9193497   -112.83699   -27801.645    4.3023248    4.3023248    4.3023248   -27801.645   -47843.497    -9680.024   -25881.415    12471.668    22076.293   -6332.9505    79.636025 
   35900    921.82659   -113.67078   0.83408807   -112.83669   -1854.6564    4.2912807    4.2912807    4.2912807   -1854.6564   -17514.162   -6745.8796    18696.072    19371.799   -12198.191    -14559.71     79.02432 
   36000    1251.8104   -113.96524    1.1326643   -112.83258   -1873.2113    4.2899562    4.2899562    4.2899562   -1873.2113   -36913.022    28712.356    2581.0321    -5621.568    24937.383     -8203.89    78.951171 
   36100    1265.2526    -113.9767    1.1448271   -112.83187   -6646.0231    4.2956011    4.2956011    4.2956011   -6646.0231   -36018.901    -351.2537    16432.085    5047.1906    17581.948    8282.7057    79.263244 
   36200    1112.4937   -113.84124    1.0066077   -112.83463    4994.1124    4.2888936    4.2888936    4.2888936    4994.1124    6626.2747   -5543.8262    13899.889    32629.204    -6415.028   -20053.773    78.892516 
   36300    1229.9911   -113.95295    1.1129218   -112.84003    -10399.62    4.2950637    4.2950637    4.2950637    -10399.62   -8827.5482   -2387.4426    -19983.87    2217.0236    10909.361   -6085.0582      79.2335 
   36400    1381.7034   -114.08709    1.2501943    -112.8369    16229.167    4.2881251    4.2881251    4.2881251    16229.167   -11107.871    19495.945    40299.427   -7606.0165    17350.049    9181.9436    78.850114 
   36500    1343.4102   -114.05669    1.2155458   -112.84114    6687.5017    4.2858577    4.2858577    4.2858577    6687.5017   -2581.4938   -4250.6927    26894.692    20397.399   -2437.3746   -8464.0034    78.725105 
   36600    1006.4169   -113.75443   0.91062717    -112.8438   -14925.415    4.3019807    4.3019807    4.3019807   -14925.415   -14518.403   -37233.332    6975.4918    20009.471    1747.9373   -20211.492    79.616921 
   36700    1563.1023   -114.24887    1.4143278   -112.83454    -4489.999     4.288576     4.288576     4.288576    -4489.999    -8966.833    3993.2781   -8496.4421   -7911.8676    30286.707   -14552.241    78.874993 
   36800    1349.6836   -114.05766    1.2212221   -112.83644    11326.284     4.280804     4.280804     4.280804    11326.284   -8781.3522   -6571.4183    49331.622    10233.588   -8427.5141    11831.775    78.446942 
   36900    1053.5163   -113.79996   0.95324366   -112.84672   -27158.749    4.2973829    4.2973829    4.2973829   -27158.749   -22838.683   -52297.888    -6339.676    25632.154    -8137.184   -28390.371    79.361918 
   37000    1528.3603   -114.22246    1.3828925   -112.83957   -2156.6602    4.2911238    4.2911238    4.2911238   -2156.6602   -10373.938    4261.6416   -357.68391   -1650.1249    15072.511   -11571.866    79.015651 
   37100    1699.6371   -114.37201    1.5378674   -112.83414    4947.1708    4.2882714    4.2882714    4.2882714    4947.1708   -20458.886    4774.2821    30526.116      7144.25    6936.6855    5073.0641     78.85819 
   37200    1204.7252    -113.9365    1.0900607   -112.84644   -16072.216    4.2916799    4.2916799    4.2916799   -16072.216   -33091.243   -30898.494    15773.088    19087.996   -14245.348    -10795.91    79.046379 
   37300     1246.755   -113.97633    1.1280901   -112.84824    20188.212    4.2877826    4.2877826    4.2877826    20188.212   -1258.0561    16707.665    45115.028    3145.0329   -6045.8519   -18633.228    78.831223 
   37400    2050.4893   -114.68996    1.8553258   -112.83463    6047.1544    4.2934124    4.2934124    4.2934124    6047.1544    -15642.83    9533.0296    24251.263   -5452.6688    10288.378   -3386.2832    79.142145 
   37500    1231.6341   -113.96196    1.1144084   -112.84755   -3488.4089    4.2929231    4.2929231    4.2929231   -3488.4089   -31068.966   -2116.7741    22720.513    9529.7419   -6707.7937    7387.7195    79.115089 
   37600    763.38086   -113.54239   0.69072305   -112.85167    1762.6044    4.2896478    4.2896478    4.2896478    1762.6044   -19567.171   -11915.764    36770.748    11539.667   -17411.913   -31700.417    78.934143 
   37700    1635.0189   -114.31923    1.4793994   -112.83983   -3030.2338    4.2889301    4.2889301    4.2889301   -3030.2338   -770.53017    2257.5019   -10577.673   -2100.0165   -2787.8087    1812.4764    78.894532 
   37800    1234.0598    -113.9591    1.1166033    -112.8425   -5338.0758    4.2921816    4.2921816    4.2921816   -5338.0758     -21270.5   -8971.0395    14227.312    396.21059    2266.3281    10399.478    79.074101 
   37900     574.1337   -113.36847   0.51948824   -112.84898   -2091.7307    4.2914125    4.2914125    4.2914125   -2091.7307   -20756.277    -4384.289    18865.374    16795.553    -12596.43   -13659.556      79.0316 
   38000    1076.6775   -113.81311   0.97420044   -112.83891     2567.935    4.2891205    4.2891205    4.2891205     2567.935   -6366.9054   -1832.9361    15903.646    4649.2659   -489.90133   -29728.886     78.90504 
   38100    1102.5165   -113.83414    0.9975801   -112.83656   -12615.813    4.2961639    4.2961639    4.2961639   -12615.813   -17497.445    -7484.125   -12865.868   -5250.3226    8864.4432    17514.033    79.294401 
   38200    833.47166   -113.59417   0.75414267   -112.84003   -6084.4341    4.2873796    4.2873796    4.2873796   -6084.4341   -22392.324   -6403.7565    10542.778    15830.422   -5367.2003    -11739.88    78.809002 
   38300     787.1078   -113.55507   0.71219168   -112.84288     690.4433    4.2860673    4.2860673    4.2860673     690.4433   -9867.9577   -6199.1487    18138.436    8513.6952    -4632.824   -21901.087    78.736655 
   38400    954.60594   -113.70592   0.86374752   -112.84217   -17505.485    4.2949593    4.2949593    4.2949593   -17505.485   -32864.388    7243.8849   -26895.951   -7013.2988    15357.738    4358.9514    79.227721 
   38500    1146.1503   -113.87812    1.0370609   -112.84106   -15313.377    4.2922267    4.2922267    4.2922267   -15313.377   -36469.901   -11132.858    1662.6297    13233.322    7964.2301     4832.909    79.076595 
   38600    780.62641    -113.5534   0.70632718   -112.84707   -13565.896    4.2932466    4.2932466    4.2932466   -13565.896   -17520.121   -24631.127    1453.5594    15217.247   -6654.3793   -33464.641     79.13298 
   38700    1007.4137   -113.75489    0.9115291   -112.84336   -2618.6463    4.2853852    4.2853852    4.2853852   -2618.6463   -12598.674    16764.919   -12022.184   -3562.8371    19699.218   -4748.5323    78.699069 
   38800     1353.771   -114.06774    1.2249205   -112.84282   -13147.186    4.2903243    4.2903243    4.2903243   -13147.186   -45867.456    7559.6498    -1133.753    6432.9016    5390.1366    11033.018    78.971498 
   38900    976.56149   -113.72656   0.88361336   -112.84295    9220.3643    4.2922586    4.2922586    4.2922586    9220.3643   -22707.824   -13432.225    63801.143    19710.922   -5708.1931   -18806.687    79.078357 
   39000    1066.8778   -113.80935   0.96533344   -112.84401   -13920.415    4.2937214    4.2937214    4.2937214   -13920.415   -15946.691    1464.8197   -27279.374   -1275.9267    7839.4545   -4491.9505    79.159236 
   39100    1378.1766   -114.08358    1.2470031   -112.83657   -3838.7385    4.2907648    4.2907648    4.2907648   -3838.7385   -34798.147    31189.748    -7907.816   -5292.9019    21791.758    4659.1076     78.99582 
   39200    1426.9857   -114.12654    1.2911667   -112.83537    19832.443    4.2849063    4.2849063    4.2849063    19832.443   -15412.082    25264.723    49644.687    14738.621   -4863.0632   -8271.5413    78.672685 
   39300    1117.6449   -113.85486    1.0112686   -112.84359   -6962.9125    4.2934809    4.2934809    4.2934809   -6962.9125   -14729.431    5513.6793   -11672.986    10217.704    6170.8347   -28944.212    79.145936 
   39400    1206.4103   -113.93219    1.0915854    -112.8406   -558.08498    4.2959159    4.2959159    4.2959159   -558.08498   -18136.651    18276.718    -1814.322   -2687.4661    21174.513    7258.1497    79.280673 
   39500    1615.7739   -114.29422    1.4619861   -112.83223    5698.4829    4.2901596    4.2901596    4.2901596    5698.4829   -15986.128    14312.557    18769.019    7355.5943   -2180.5296    18845.151    78.962403 
   39600     1128.418   -113.86153    1.0210163   -112.84051    5852.4234    4.2857673    4.2857673    4.2857673    5852.4234    5624.0482   -7638.0449    19571.267    15775.222   -7613.5093   -37088.157    78.720123 
   39700    856.38306   -113.62511   0.77487339   -112.85024   -8143.6465    4.2919896    4.2919896    4.2919896   -8143.6465   -11302.544   -35203.849    22075.453   -7370.3877    16009.095   -8252.8172     79.06349 
   39800    1442.6924   -114.14429    1.3053784   -112.83891   -10752.147    4.2974779    4.2974779    4.2974779   -10752.147   -21066.799   -19037.286    7847.6437    -1948.186    18050.948    12276.107     79.36718 
   39900    1135.8139   -113.86589    1.0277083   -112.83818    20813.433    4.2863453    4.2863453    4.2863453    20813.433    14977.347   -6929.9664    54392.918    8707.0168   -10442.924   -9345.4794    78.751978 
   40000    763.47732   -113.53727   0.69081032   -112.84646   -19392.086    4.2900349    4.2900349    4.2900349   -19392.086   -7051.2152   -31371.667   -19753.375    4154.0827    11751.284   -28612.673    78.955518 
   40100    954.70678   -113.71037   0.86383875   -112.84654   -6002.3033    4.2916156    4.2916156    4.2916156   -6002.3033   -15889.639   -6978.3508      4861.08   -5036.7121    27069.463   -427.26072    79.042822 
   40200    1470.3686   -114.16991    1.3304204   -112.83949    1116.4785    4.2912541    4.2912541    4.2912541    1116.4785    413.26732   -10258.997    13195.166   -9347.3482   -7038.4164     5674.028    79.022851 
   40300    1018.9592   -113.76933   0.92197565   -112.84736   -5846.7807    4.2899385    4.2899385    4.2899385   -5846.7807    6368.8258   -1757.1648   -22152.003    10324.891   -6976.5099   -24997.344    78.950196 
   40400    904.49967   -113.66662   0.81841031   -112.84821    11226.294    4.2888295    4.2888295    4.2888295    11226.294   -16186.528    10876.446    38988.965    -1537.521    19714.527   -7780.1228     78.88898 
   40500     1571.434   -114.26015    1.4218665   -112.83828   -8673.5923    4.3013273    4.3013273    4.3013273   -8673.5923   -22141.881   -19373.781    15494.886   -15579.274    9159.5207   -597.31838    79.580646 
   40600    1633.8265   -114.31322    1.4783206    -112.8349     16989.18    4.2864467    4.2864467    4.2864467     16989.18    4129.1709    12309.884    34528.485   -2066.1013    -2517.381   -10701.368    78.757566 
   40700    1353.8333   -114.06604    1.2249768   -112.84107    5770.3063    4.2840996    4.2840996    4.2840996    5770.3063   -16405.726    38182.261   -4465.6162   -1750.3747    21441.419   -10468.243     78.62826 
   40800    1329.9453   -114.04664    1.2033625   -112.84328   -14880.527    4.2994147    4.2994147    4.2994147   -14880.527   -46870.048    11400.961   -9172.4955   -17217.915     20594.12    3003.8356     79.47454 
   40900    1665.6435   -114.33943    1.5071092   -112.83232    22313.242    4.2916428    4.2916428    4.2916428    22313.242    2366.2384    35563.759    29009.729   -6365.3695    -7383.826    8105.0437    79.044329 
   41000    1478.2585   -114.17256    1.3375593     -112.835   -4166.5067    4.2970372    4.2970372    4.2970372   -4166.5067    -24640.03    23408.699   -11268.189    11744.965    5854.2822   -17816.958    79.342764 
   41100    915.38331   -113.66763   0.82825806   -112.83938   -9396.8475    4.2940605    4.2940605    4.2940605   -9396.8475   -32736.739    6294.8679    -1748.671    -21052.65    26762.203   -2522.5389    79.177989 
   41200    1413.6799   -114.11334    1.2791273   -112.83422    16237.461    4.2852043    4.2852043    4.2852043    16237.461    6155.5929    9162.8771    33393.913   -18711.257   -6753.9674    13515.832    78.689102 
   41300    1453.8817   -114.14925    1.3155028   -112.83375   -12103.102    4.3018441    4.3018441    4.3018441   -12103.102    85.477314   -20864.665   -15530.119    9433.2276    6787.0406    882.13202    79.609339 
   41400    811.00994   -113.57556   0.73381884   -112.84174   -10741.517    4.2911948    4.2911948    4.2911948   -10741.517   -12859.945   -15439.044   -3925.5612   -16278.188    28285.208   -20983.349    79.019577 
   41500    892.34528   -113.64724   0.80741276   -112.83983    3394.9682    4.2873421    4.2873421    4.2873421    3394.9682   -9111.6424   -13633.371    32929.918   -14413.064    12278.262    6142.2116     78.80693 
   41600     1231.524   -113.94847    1.1143088   -112.83416   -6315.1375    4.2999688    4.2999688    4.2999688   -6315.1375    7382.0469    -39197.96    12870.501    5886.2237   -7050.0651    23301.815    79.505268 
   41700    837.67247   -113.59712   0.75794366   -112.83917    13779.791    4.2843946    4.2843946    4.2843946    13779.791    9207.9056    10479.683    21651.786   -10246.146    14874.909   -4379.2785    78.644505 
   41800    603.80481    -113.3958   0.54633528   -112.84947   -23257.074    4.2927006    4.2927006    4.2927006   -23257.074   -32229.164     -25381.6   -12160.458    -20248.26    24325.804   -12123.805    79.102791 
   41900    1328.5265   -114.03689    1.2020787   -112.83481   -7350.6568    4.2983673    4.2983673    4.2983673   -7350.6568   -13683.638    -24607.98    16239.647    -7839.014   -12131.874    2842.0603    79.416468 
   42000    1351.2466   -114.05595    1.2226363   -112.83332    10983.388    4.2887142    4.2887142    4.2887142    10983.388    4755.7211    17789.223    10405.221    4144.4572    11266.879    8469.5739    78.882618 
   42100    652.57286   -113.43825   0.59046164   -112.84779   -25575.803     4.292014     4.292014     4.292014   -25575.803   -46671.077   -29869.357   -186.97491   -24361.502    33459.301   -15162.532    79.064838 
   42200    1114.9596   -113.85501    1.0088388   -112.84617   -514.99562    4.2871834    4.2871834    4.2871834   -514.99562   -21760.895    -22694.86    42910.768   -13082.048    2468.0735    -8438.606    78.798181 
   42300     1523.655   -114.21633     1.378635   -112.83769   -952.17773    4.2992825    4.2992825    4.2992825   -952.17773   -26122.114    6967.8464    16297.734    12830.173   -2992.8728    1397.4234    79.467206 
   42400    887.56961    -113.6464   0.80309163   -112.84331   -14651.417    4.2969847    4.2969847    4.2969847   -14651.417   -58831.382      28467.7    -13590.57   -18911.759    20399.193    2067.2012    79.339857 
   42500    741.29279   -113.51198   0.67073729   -112.84124    11134.765    4.2813452    4.2813452    4.2813452    11134.765   -17802.144    15594.387    35612.051   -20171.304    9918.8395   -26193.241      78.4767 
   42600    1539.5895   -114.23217    1.3930529   -112.83912   -7574.8569    4.2942867    4.2942867    4.2942867   -7574.8569   -8412.2007    3044.5609   -17356.931    4406.0783   -8369.9025   -13372.295    79.190504 
   42700    1371.4964   -114.07801    1.2409587   -112.83705   -3491.3775    4.2993589    4.2993589    4.2993589   -3491.3775   -33384.184    17963.846    4946.2055   -4467.3649    4853.1973     5714.489    79.471443 
   42800    964.54827    -113.7138   0.87274355   -112.84106   -10654.043    4.2920351    4.2920351    4.2920351   -10654.043   -19612.237   -17231.952      4882.06   -28299.282    17321.378   -20614.988    79.066002 
   42900    1253.3881   -113.97449    1.1340919   -112.84039    4249.1343    4.2897006    4.2897006    4.2897006    4249.1343    28108.737    5482.5942   -20843.928    5283.5609    5095.9541    -24332.81    78.937057 
   43000    1684.6401   -114.35636    1.5242978   -112.83206    9705.7814    4.2929975    4.2929975    4.2929975    9705.7814    6939.4706    21205.859    972.01408    3778.7919   -7081.3716    9529.5201    79.119204 
   43100    1253.4278   -113.97561    1.1341278   -112.84148   -6944.5851     4.294447     4.294447     4.294447   -6944.5851   -15914.436    13051.849   -17971.168    -27814.16     4509.042   -3023.3199    79.199373 
   43200    1117.3713    -113.8579     1.011021   -112.84688   -12174.931    4.2891044    4.2891044    4.2891044   -12174.931    31971.346   -21057.016   -47439.123   -6622.1922    4548.6209   -50094.523    78.904151 
   43300    1879.5062   -114.53974    1.7006167   -112.83913    1523.7558    4.2877225    4.2877225    4.2877225    1523.7558    25922.034   -4036.9219   -17313.845    2532.7628    4351.7207   -10398.672    78.827907 
   43400    1579.9198   -114.26999    1.4295446   -112.84044    -8846.065    4.2996443    4.2996443    4.2996443    -8846.065   -21788.154    3532.0456   -8282.0863   -18066.259    7249.3995    9879.3931    79.487272 
   43500    985.63139   -113.73586   0.89181999   -112.84404   -9724.7981    4.2961038    4.2961038    4.2961038   -9724.7981    7442.5279   -3229.8609   -33387.061   -15981.363    3890.8641   -32446.628    79.291074 
   43600    1409.3056   -114.10963    1.2751693   -112.83446    19541.844    4.2846976    4.2846976    4.2846976    19541.844    19661.886    17203.235     21760.41    7612.2043    4515.5821   -14562.024    78.661195 
   43700    1736.8914   -114.40582    1.5715758   -112.83424   -491.62498    4.2937055    4.2937055    4.2937055   -491.62498   -31576.437    12211.226    17890.336   -13508.597   -2885.5016    8167.1869    79.158357 
   43800     1029.364    -113.7751   0.93139018   -112.84371   -12618.148    4.2989155    4.2989155    4.2989155   -12618.148   -29500.064    -19328.86     10974.48   -19121.992    3100.6218   -28653.264    79.446857 
   43900    998.13962    -113.7418   0.90313771   -112.83866    9910.4629    4.2925126    4.2925126    4.2925126    9910.4629    7828.1781    31440.701   -9537.4904     8386.602    5892.1046   -38388.523    79.092397 
   44000    1464.4669   -114.15692    1.3250804   -112.83184   -4723.6216    4.2955624    4.2955624    4.2955624   -4723.6216    -46029.18    26932.813    4925.5023    -14289.92   -8275.2532    15121.624    79.261102 
   44100    960.50455   -113.70858    0.8690847    -112.8395   -2273.6959    4.2909254    4.2909254    4.2909254   -2273.6959   -49898.125    7554.3999    35522.637   -23953.848    101.35981   -476.42746    79.004695 
   44200    830.62122   -113.59661   0.75156354   -112.84504   -11815.175    4.2925714    4.2925714    4.2925714   -11815.175   -11502.781   -9913.8779   -14028.867   -1141.4287    1346.8514   -47940.985    79.095645 
   44300    1161.8563   -113.88979     1.051272   -112.83852   -6246.6708    4.3004872    4.3004872    4.3004872   -6246.6708   -35904.972    22906.123   -5741.1633   -332.05889    5795.9965   -10556.929    79.534029 
   44400    1054.2038   -113.78775   0.95386571   -112.83388    1534.3226    4.2941237    4.2941237    4.2941237    1534.3226   -50337.598    29794.407    25146.159   -16783.929   -244.16027    4458.7761    79.181485 
   44500    605.57185   -113.39028   0.54793414   -112.84234   -14365.566    4.2957952    4.2957952    4.2957952   -14365.566   -17025.181   -8741.8617   -17329.654   -5818.1344    2957.4947   -43350.469    79.273987 
   44600    1202.2904   -113.92196    1.0878576   -112.83411   -9168.1948    4.2938595    4.2938595    4.2938595   -9168.1948   -9785.6156   -14462.477   -3256.4916    4738.5842    10108.105   -22117.687    79.166872 
   44700    1406.5164   -114.10306    1.2726456   -112.83042   -7146.4721    4.2978296    4.2978296    4.2978296   -7146.4721   -34739.793   -24171.745    37472.122   -17968.106   -3257.9028    15102.157    79.386667 
   44800    922.74968   -113.67055    0.8349233   -112.83563   -21277.696    4.3015491    4.3015491    4.3015491   -21277.696   -9326.2581    -39173.86   -15332.972   -7414.6659   -2732.2582   -24448.384    79.592962 
   44900    1151.5693   -113.87263    1.0419641   -112.83067    16842.383    4.2845568    4.2845568    4.2845568    16842.383    24755.544    15141.215     10630.39    9712.8506    15153.091   -24883.669    78.653437 
   45000    1265.2068   -113.97872    1.1447857   -112.83394    3783.3779    4.2967019    4.2967019    4.2967019    3783.3779   -21788.795   -20252.097    53391.026   -14706.892    2707.0162    3842.5833    79.324193 
   45100    1082.5213    -113.8171   0.97948799   -112.83761   -11972.944    4.2979396    4.2979396    4.2979396   -11972.944   -13091.013   -50523.782    27695.962   -19254.641   -3307.9436    -16124.41    79.392764 
   45200    1286.8185   -114.00096    1.1643404   -112.83662    14544.336    4.2818433    4.2818433    4.2818433    14544.336    36381.283   -2466.9569    9718.6815    1652.4827    3924.8135   -41164.341    78.504092 
   45300    1471.3196   -114.17317    1.3312809   -112.84189   -14647.142    4.2972796    4.2972796    4.2972796   -14647.142    -25642.32    -20727.36    2428.2531   -8703.9046    9630.9937    6544.8747    79.356197 
   45400    1239.5115   -113.96253     1.121536   -112.84099   -17151.475    4.2991846    4.2991846    4.2991846   -17151.475   -29510.784   -24926.549    2982.9068   -18224.353    -3413.148    2609.5317    79.461777 
   45500    1028.1868   -113.77217   0.93032503   -112.84184    2222.2503    4.2941227    4.2941227    4.2941227    2222.2503    9473.9044   -24974.802    22167.649    4547.0736   -6985.7044   -44978.084    79.181434 
   45600     1581.779    -114.2673    1.4312269   -112.83607    1876.4952    4.2905247    4.2905247    4.2905247    1876.4952   -4348.1819    5979.5787    3998.0889    316.49432    12251.284   -17223.618    78.982565 
   45700    1357.5437   -114.06811     1.228334   -112.83977    10921.497    4.2938742    4.2938742    4.2938742    10921.497   -26201.891    32823.173     26143.21   -19148.366    3401.4238    4383.5953    79.167683 
   45800    994.44024   -113.74201   0.89979043   -112.84222   -27296.818    4.3051637    4.3051637    4.3051637   -27296.818   -23142.829    -25266.55   -33481.076    4150.9068   -6604.7478   -29968.213    79.793773 
   45900    1124.1086   -113.85327    1.0171171   -112.83615    4731.3109    4.2900177    4.2900177    4.2900177    4731.3109   -15807.232    1014.4318    28986.733    13805.261   -7346.6602   -14409.328    78.954569 
   46000     1405.367    -114.1074    1.2716056   -112.83579    5437.2495    4.2875718    4.2875718    4.2875718    5437.2495    -28738.38    16306.975    28743.153   -19974.509    5955.2585    8035.3244    78.819596 
   46100    1003.7651   -113.75134   0.90822772   -112.84312   -12639.618    4.2953527    4.2953527    4.2953527   -12639.618   -9768.1383     -25991.6   -2159.1144   -5833.5576    3317.6212   -25427.473    79.249495 
   46200    937.99965   -113.69225    0.8487218   -112.84352   -16187.115     4.297744     4.297744     4.297744   -16187.115   -20583.857   -6429.1871   -21548.301    14637.081   -4408.9328   -30032.026    79.381927 
   46300    1156.8517   -113.88621    1.0467437   -112.83946   -11127.716    4.2989268    4.2989268    4.2989268   -11127.716   -46970.807    1914.8949    11672.764   -1474.2683    258.87258    6219.5888    79.447482 
   46400    1184.8975   -113.91006    1.0721202   -112.83794    5923.4558     4.284385     4.284385     4.284385    5923.4558   -10498.244    9471.9812     18796.63   -6397.7712     13920.56   -9760.5613     78.64398 
   46500    657.58644    -113.4442   0.59499803    -112.8492    13832.707    4.2911799    4.2911799    4.2911799    13832.707    6763.3809    3278.7369    31456.003    2762.8762   -6261.5525   -29613.344    79.018751 
   46600    1105.7434   -113.83829    1.0004999   -112.83779   -30864.561    4.3107716    4.3107716    4.3107716   -30864.561   -49876.535   -43737.571    1020.4223    18590.369   -3713.2003   -4740.3238    80.106001 
   46700    1441.0053   -114.13459    1.3038519   -112.83074    4348.4542    4.2875292    4.2875292    4.2875292    4348.4542   -16333.915    9533.7035    19845.574    976.82387    15773.815    6083.6201    78.817248 
   46800    1234.3031   -113.95581    1.1168234   -112.83898   -2378.6706    4.2856129    4.2856129    4.2856129   -2378.6706    12100.121   -12781.146   -6454.9865   -2652.0596    10174.662    -32683.51    78.711615 
   46900    1045.0537   -113.78986   0.94558659   -112.84427   -7769.0044    4.3000232    4.3000232    4.3000232   -7769.0044   -19488.456   -23094.753    19276.195    22290.441   -16993.158   -5263.1532    79.508285 
   47000    1297.6394   -114.01271    1.1741314   -112.83858    17044.312     4.296481     4.296481     4.296481    17044.312   -3291.5818    18177.208    36247.311    5993.9902   -6837.5336    13015.959    79.311962 
   47100    1537.0121    -114.2238    1.3907209   -112.83308    2787.9874    4.3005942    4.3005942    4.3005942    2787.9874   -6874.7573    12370.534    2868.1856   -2520.9137    19974.804    149.56748    79.539967 
   47200    1408.5578   -114.11127    1.2744927   -112.83677    4980.9464     4.293849     4.293849     4.293849    4980.9464    -10700.94   -1084.7924    26728.572    23260.263   -6881.9206    -10945.78    79.166292 
   47300    1325.0656   -114.03885    1.1989472    -112.8399    14016.387    4.2886391    4.2886391    4.2886391    14016.387     5917.395    27692.651    8439.1144    10285.643   -16241.713   -773.45382    78.878477 
   47400    1557.1675   -114.24699    1.4089578   -112.83804   -13368.168    4.3052528    4.3052528    4.3052528   -13368.168   -16236.414    3608.0307   -27476.121   -4045.2269    18755.873    3954.0771    79.798728 
   47500    1579.9151   -114.26191    1.4295404   -112.83237   -9903.4641     4.299699     4.299699     4.299699   -9903.4641       -19000   -5245.9141    -5464.478    3809.4519    15015.702   -9392.7524    79.490306 
   47600    976.40902   -113.71944    0.8834754   -112.83597    10105.274    4.2877513    4.2877513    4.2877513    10105.274   -18323.832    24331.019    24308.636    19081.385   -21953.481   -3168.9445    78.829498 
   47700    1136.6728   -113.86884    1.0284854   -112.84036   -9617.0744    4.2912981    4.2912981    4.2912981   -9617.0744   -15711.885    27396.728   -40536.066   -5939.1189   -8602.6651    4252.0881    79.025281 
   47800    1233.8244   -113.95615    1.1163902   -112.83976   -3436.0798    4.2950581    4.2950581    4.2950581   -3436.0798   -9427.1369    25024.248   -25905.351    4295.9759    10109.377    18746.198    79.233189 
   47900    746.03441   -113.52121   0.67502761   -112.84618   -6953.6066    4.2980938    4.2980938    4.2980938   -6953.6066   -44268.914    21190.551    2217.5439    22067.497   -12369.642   -6985.3066     79.40131 
   48000    905.29363   -113.66055    0.8191287   -112.84142   -8597.8124    4.2887094    4.2887094    4.2887094   -8597.8124   -28314.133    31143.937   -28623.241    3098.6194    -24420.71    8986.0969    78.882354 
   48100    1100.9183   -113.83564   0.99613397   -112.83951   -4754.4015     4.291381     4.291381     4.291381   -4754.4015    2734.2804    22290.618   -39288.103   -1013.0282    5627.4279    13542.195    79.029864 
   48200    931.65075   -113.68255   0.84297718   -112.83957   -24239.144    4.3027518    4.3027518    4.3027518   -24239.144   -36162.836   -18376.896   -18177.701    21435.188   -11798.531   -2954.7894    79.659739 
   48300    717.04155   -113.48921   0.64879426   -112.84042    274.25995    4.2935724    4.2935724    4.2935724    274.25995   -42969.218    29861.302    13930.696    7482.2653   -25698.549   -5849.1059    79.150993 
   48400    1065.3928   -113.80114   0.96398982   -112.83715    11429.556    4.2907155    4.2907155    4.2907155    11429.556   -1046.5106    40421.298   -5086.1203   -18965.728   -1008.5861    1693.9559    78.993097 
   48500    1293.3863   -114.00767    1.1702831   -112.83739    876.53759    4.2948893    4.2948893    4.2948893    876.53759   -766.09696    24171.991   -20776.281    6027.2583   -929.71747    11400.416    79.223844 
   48600    899.00702   -113.65902   0.81344044   -112.84558    5469.6415    4.2943909    4.2943909    4.2943909    5469.6415   -40463.072    36317.719    20554.277    8109.7997   -14841.561   -9370.3803    79.196269 
   48700    1255.1826   -113.97967    1.1357156   -112.84395   -17849.489    4.2969315    4.2969315    4.2969315   -17849.489   -38709.875   -21078.718    6240.1257    -6643.137   -7930.5907    1229.2854    79.336913 
   48800    1634.3417   -114.31311    1.4787868   -112.83432    2859.3839    4.2917004    4.2917004    4.2917004    2859.3839   -1739.5913    7606.7211    2711.0218   -5263.8438    14399.486    9098.5286    79.047508 
   48900    1175.0631   -113.90356    1.0632218   -112.84034   -11240.002    4.2990183    4.2990183    4.2990183   -11240.002   -36119.407    24745.331   -22345.929    16702.988   -10927.098   -1318.1456    79.452559 
   49000    1060.4621   -113.80092   0.95952835   -112.84139   -14257.207    4.2999914    4.2999914    4.2999914   -14257.207   -36244.834    18.156055   -6544.9418    -6445.263   -14389.759   -8315.7715    79.506521 
   49100    1377.6688   -114.08321    1.2465437   -112.83667    13641.839    4.2910787    4.2910787    4.2910787    13641.839    12186.557    28051.288     687.6723   -16750.407    10621.263   -7685.0685    79.013161 
   49200    1358.5481   -114.06964    1.2292428    -112.8404    8344.5713    4.2932271    4.2932271    4.2932271    8344.5713    14868.332    30250.696   -20085.315   -4532.3168   -7503.8123   -3759.8217    79.131897 
   49300    1057.2118   -113.80235   0.95658745   -112.84576   -9446.3543    4.3023642    4.3023642    4.3023642   -9446.3543    22872.518   -24166.852   -27044.728    10305.512   -20061.485   -4674.2262    79.638215 
   49400    1133.2482     -113.863    1.0253868   -112.83762   -6802.7944    4.3047082    4.3047082    4.3047082   -6802.7944   -13092.891    10869.955   -18185.447    456.84538    5565.3851   -4935.5217    79.768452 
   49500    1275.5212   -113.98844    1.1541184   -112.83432      988.964    4.2935597    4.2935597    4.2935597      988.964     4175.014    29439.552   -30647.674    -5822.297    3973.9272   -732.96408    79.150292 
   49600    1306.5785   -114.01508    1.1822197   -112.83286    21062.727    4.2851108    4.2851108    4.2851108    21062.727    5575.9736    82271.607   -24659.399    6514.9026   -16647.694    3414.4484    78.683954 
   49700    1279.9654   -114.00129    1.1581396   -112.84315   -22825.463    4.3035069    4.3035069    4.3035069   -22825.463   -20677.823   -24912.498   -22886.067     8583.136   -3471.0496    3130.0728    79.701686 
   49800    984.06996   -113.73387   0.89040718   -112.84346   -21730.775    4.3013743    4.3013743    4.3013743   -21730.775   -21648.476   -16177.744   -27366.104   -9945.2037    11955.943    3787.8436    79.583255 
   49900    1350.3932   -114.05761    1.2218641   -112.83575    12727.631    4.2815999    4.2815999    4.2815999    12727.631   -1216.1295    68491.201   -29092.179   -7233.8459   -1397.6608    7488.2977    78.490708 
   50000    1417.8507   -114.12398    1.2829011   -112.84108    9005.6668    4.2948823    4.2948823    4.2948823    9005.6668    -3305.727     53647.94   -23325.213    11696.529   -6208.7257    449.71555    79.223457 
   50100      1172.08   -113.90282    1.0605227    -112.8423   -3464.9151    4.3025952    4.3025952    4.3025952   -3464.9151   -28307.484    29974.777   -12062.039    16553.847    8431.9359   -4802.9054    79.651041 
   50200    979.58194   -113.72963   0.88634632   -112.84328   -14239.311    4.2992189    4.2992189    4.2992189   -14239.311   -50425.951    25172.711   -17464.693   -14175.519    5507.9949    3547.3779    79.463679 
   50300    1323.7607    -114.0368    1.1977665   -112.83903   -12298.644     4.285906     4.285906     4.285906   -12298.644   -19822.271    1950.8378   -19024.498    6188.0048   -5565.4236   -3464.4012    78.727768 
   50400    1136.7643   -113.87123    1.0285683   -112.84266     18386.64    4.2902958    4.2902958    4.2902958     18386.64    4071.4002    32559.132    18529.389    11719.624    2017.9982    1208.5655    78.969921 
   50500    1185.4146   -113.90896     1.072588   -112.83637   -25100.064    4.3129259    4.3129259    4.3129259   -25100.064   -51326.106   -877.28824   -23096.798   -20326.837    12966.989    3160.8181    80.226155 
   50600    1272.2057   -113.98643    1.1511185   -112.83531    13717.792    4.2831727    4.2831727    4.2831727    13717.792    10940.873    37455.707    -7243.204   -7724.3355   -3690.2674    4191.8272    78.577235 
   50700    1338.8662   -114.04803    1.2114343    -112.8366    12397.652    4.2751393    4.2751393    4.2751393    12397.652    32534.379   -3346.1309    8004.7065    20160.644    -10125.03    3664.0696    78.135937 
   50800    1235.7883   -113.95887    1.1181672    -112.8407   -19690.852    4.3042385    4.3042385    4.3042385   -19690.852   -14385.404   -43944.474    -742.6775   -2327.0177    1428.0715   -7507.3102    79.742342 
   50900    1533.6633   -114.22172    1.3876908   -112.83402    3614.7361    4.2972553    4.2972553    4.2972553    3614.7361    11832.409    8373.7388   -9361.9399   -22265.355    5782.8299     5363.098     79.35485 
   51000    1598.0786   -114.28143    1.4459751   -112.83545    11147.483    4.2883519    4.2883519    4.2883519    11147.483    15689.824    31914.128   -14161.505    11622.578     6020.035    3537.7608     78.86263 
   51100    1126.5411   -113.86701    1.0193181   -112.84769    16464.029    4.2850111    4.2850111    4.2850111    16464.029   -7338.9882    40777.022    15954.053    7107.8762   -1753.3926   -10499.449    78.678462 
   51200    1030.7545    -113.7909   0.93264837   -112.85826    -23039.87    4.3032139    4.3032139    4.3032139    -23039.87   -56334.121   -12080.139   -705.35064   -26324.101    2481.6748    838.26186    79.685409 
   51300     1489.282   -114.19107    1.3475337   -112.84353   -12727.002    4.3015893    4.3015893    4.3015893   -12727.002   -41165.267    20648.826   -17664.565   -9889.7056    5711.9327   -2415.7068    79.595194 
   51400    1425.8873   -114.12415    1.2901728   -112.83397    32413.688    4.2747554    4.2747554    4.2747554    32413.688   -6273.8721    82565.558    20949.378    10035.856   -6598.1106   -5804.5721    78.114888 
   51500    570.41292   -113.37383    0.5161216   -112.85771   -22533.361    4.2967129    4.2967129    4.2967129   -22533.361   -89859.689   -3462.3073    25721.912   -31623.147    8258.2585    559.53523    79.324806 
   51600    950.25862   -113.70097   0.85981397   -112.84115   -32315.004    4.3061331    4.3061331    4.3061331   -32315.004   -87375.312    9654.2288   -19223.929   -13967.803    17805.947   -9293.7211    79.847691 
   51700     1585.295   -114.26025    1.4344082   -112.82584    13274.806    4.2894654    4.2894654    4.2894654    13274.806   -15355.617    58955.597   -3775.5612    10885.291   -1008.6743     1119.228    78.924077 
   51800    1048.7082   -113.78551    0.9488932   -112.83661   -1973.4023    4.2915916    4.2915916    4.2915916   -1973.4023    -45645.87    20407.148    19318.516   -26371.196   -1350.1855    649.43283    79.041497 
   51900    795.56426   -113.56377   0.71984326   -112.84393   -4710.5164    4.2942141    4.2942141    4.2942141   -4710.5164   -72213.982    57878.708    203.72428   -20599.997    20014.464     -1417.91     79.18649 
   52000    1352.9119   -114.06803    1.2241431   -112.84389   -22232.812    4.2976322    4.2976322    4.2976322   -22232.812   -31949.366   -2717.6172   -32031.453    6869.0082    6716.9913     7361.222    79.375733 
   52100    1342.0566   -114.05444     1.214321   -112.84012    3713.9623    4.2902507    4.2902507    4.2902507    3713.9623    -2100.006    5454.2715    7787.6215   -8748.8002   -7335.2596    11347.226    78.967431 
   52200    1231.9835   -113.95769    1.1147246   -112.84297   -6429.6399    4.2956924    4.2956924    4.2956924   -6429.6399   -36531.243    17981.696   -739.37239   -4691.7155    16183.866   -5419.6715    79.268294 
   52300    1106.0045   -113.84433    1.0007362   -112.84359   -6225.3018    4.2977167    4.2977167    4.2977167   -6225.3018   -15633.904   -4292.7455     1250.744     9535.224    7930.2818    3200.3189    79.380412 
   52400    1455.5144   -114.15251      1.31698   -112.83553      14028.1    4.2898824    4.2898824    4.2898824      14028.1    908.93881    45471.783   -4296.4224    -4798.939   -18011.362   -13321.304    78.947095 
   52500    1564.4628   -114.25193    1.4155588   -112.83637     5204.375    4.2948283    4.2948283    4.2948283     5204.375    -7404.848    28128.048   -5110.0747    948.03677    16494.146   -2604.2867     79.22047 
   52600    1441.9487    -114.1426    1.3047054    -112.8379   -2411.9558    4.2991892    4.2991892    4.2991892   -2411.9558   -18146.786    10412.298    498.62085    7357.3452    25820.823    2666.2033    79.462031 
   52700    1287.6631   -114.00176    1.1651046   -112.83665   -2339.1187    4.2992788    4.2992788    4.2992788   -2339.1187   -18942.938     19878.05   -7952.4684    1682.6855   -32226.485   -2844.8858    79.467003 
   52800    1415.2161    -114.1133    1.2805173   -112.83278   -4418.9827    4.2940033    4.2940033    4.2940033   -4418.9827   -12160.654    17876.019   -18972.313    -7443.918   -10202.612    9308.4518    79.174826 
   52900    1199.8488    -113.9177    1.0856484   -112.83205    13900.998    4.2929717    4.2929717    4.2929717    13900.998   -19045.337    46264.884    14483.447   -3359.2464    27826.692     279.1247    79.117779 
   53000    1002.5394   -113.74181   0.90711872   -112.83469    -26881.46    4.3042662    4.3042662    4.3042662    -26881.46   -75458.856    15228.646    -20414.17    4681.9319   -20837.221     4570.682    79.743883 
   53100    771.08141   -113.53175   0.69769066   -112.83406   -12122.344     4.297041     4.297041     4.297041   -12122.344   -34034.659    17270.722   -19603.096    2063.1171   -24444.571   -11189.867    79.342978 
   53200    1185.3612   -113.89908    1.0725397   -112.82654    13237.918     4.286099     4.286099     4.286099    13237.918    -1382.211    40678.183    417.78227   -4009.7488    17849.787   -19506.902    78.738404 
   53300    952.81366   -113.69818   0.86212582   -112.83605   -7942.7457    4.3003086    4.3003086    4.3003086   -7942.7457   -64768.748    22219.719    18720.792    9922.8486   -7839.9583    4730.0856    79.524121 
   53400    636.97926   -113.41616   0.57635222   -112.83981   -9928.1744    4.3038226    4.3038226    4.3038226   -9928.1744   -70056.544   -1429.7724    41701.794    5131.6204   -26164.201   -12532.634    79.719226 
   53500    1250.2219   -113.96256     1.131227   -112.83133    14674.246    4.2921791    4.2921791    4.2921791    14674.246    688.34733    5952.1692    37382.221    977.46852    3108.0503   -3094.0754    79.073961 
   53600    1434.5235   -114.13135     1.297987   -112.83336   -1291.1963    4.2979807    4.2979807    4.2979807   -1291.1963   -8535.3644    7468.1863   -2806.4107   -6531.3654   -100.64224    9420.4318    79.395045 
   53700    1197.8281   -113.92193    1.0838201   -112.83811    -22033.47    4.3004362    4.3004362    4.3004362    -22033.47   -37759.342   -4990.8654   -23350.204   -2689.2295       -21654    8341.6379    79.531201 
   53800      1329.95   -114.04104    1.2033667   -112.83767    10740.584    4.2961369    4.2961369    4.2961369    10740.584   -1790.9586    16175.601     17837.11    4532.0462   -13188.685   -6260.2668    79.292908 
   53900    1591.3326   -114.26888    1.4398712     -112.829    8029.1604    4.3033089    4.3033089    4.3033089    8029.1604     1198.753    21679.373    1209.3552   -1577.3655    1560.4537    4058.1868    79.690686 
   54000    948.40536   -113.69465    0.8581371   -112.83651    13555.368    4.2940639    4.2940639    4.2940639    13555.368   -17315.766    29845.279    28136.592   -3375.6583   -23789.217    9869.3233    79.178177 
   54100    1107.7143   -113.84069    1.0022832   -112.83841    8706.2041    4.2927462    4.2927462    4.2927462    8706.2041    -15442.04    13087.696    28472.956   -8496.4643   -17298.105   -1803.8349    79.105312 
   54200    1530.1838   -114.21788    1.3845425   -112.83334    3798.0573    4.2994947    4.2994947    4.2994947    3798.0573   -7389.7022    13477.886    5305.9883    1651.7479      14937.9     6.238567    79.478974 
   54300    1213.8529   -113.93745    1.0983196   -112.83913   -14202.459    4.2976899    4.2976899    4.2976899   -14202.459   -27141.125    10544.002   -26010.253    5409.0756   -7884.4362    11361.931    79.378925 
   54400    709.75328   -113.48701   0.64219968   -112.84481   -13533.103    4.2977385    4.2977385    4.2977385   -13533.103   -43686.092   -4982.4105    8069.1937      566.264   -21165.682     16243.96    79.381619 
   54500    1015.4989   -113.75555   0.91884476    -112.8367    6205.9628    4.2973233    4.2973233    4.2973233    6205.9628   -46656.641    8624.3307    56650.198   -2227.9722    16253.312   -7377.4119    79.358614 
   54600    1028.5471   -113.76965   0.93065103     -112.839   -7002.7337     4.298804     4.298804     4.298804   -7002.7337   -53667.705    19138.061    13521.442    689.52844    22219.859   -1560.2072    79.440677 
   54700     919.5327   -113.67041   0.83201251   -112.83839    -6253.702    4.2961529    4.2961529    4.2961529    -6253.702   -23630.313    6347.2986   -1478.0913    3473.8094   -18688.154   -1497.1706     79.29379 
   54800    837.81453   -113.59796    0.7580722   -112.83989    -14951.18    4.3030295    4.3030295    4.3030295    -14951.18   -53950.675   -850.92051    9948.0572   -5238.1593    462.26312    3487.5593    79.675166 
   54900    1119.4845   -113.84895    1.0129331   -112.83602   -13510.987    4.2986913    4.2986913    4.2986913   -13510.987   -59364.009    10665.396    8165.6536   -5413.6189    34348.634   -5817.0663    79.434428 
   55000    1247.0403   -113.95774    1.1283482   -112.82939    11928.623    4.2945058    4.2945058    4.2945058    11928.623    12543.553    9388.5777    13853.739   -3511.7309   -4976.5106    17438.525    79.202624 
   55100    1053.5237    -113.7864   0.95325036   -112.83315   -8623.8223    4.3034338    4.3034338    4.3034338   -8623.8223   -14172.993   -16610.163    4911.6888   -4891.2677   -4802.3475    19060.146    79.697624 
   55200     1128.436   -113.85625    1.0210326   -112.83522   -6794.6195    4.2887337    4.2887337    4.2887337   -6794.6195   -28173.481    25770.451   -17980.828    11651.324    38387.273   -6273.8984    78.883696 
   55300    1622.8337   -114.30437    1.4683741   -112.83599    15744.832    4.2895224    4.2895224    4.2895224    15744.832    18580.191    27580.534    1073.7695    898.05195    6877.9793    6924.7205     78.92722 
   55400    1652.9307   -114.32665    1.4956065   -112.83104   -12331.561    4.3092752    4.3092752    4.3092752   -12331.561   -9591.5319    2242.9878   -29646.138   -8549.3397   -3737.7086    2913.6554    80.022605 
   55500    833.80238   -113.59416   0.75444192   -112.83972    3321.5913    4.2928196    4.2928196    4.2928196    3321.5913   -30439.049    33567.811     6836.012   -7360.1609    43656.971   -7051.0047    79.109366 
   55600    1248.0428   -113.96605    1.1292554    -112.8368    13736.388    4.2856798    4.2856798    4.2856798    13736.388    1379.0056    19257.673    20572.487    5913.7986    6588.7559   -11918.243    78.715303 
   55700    1668.3381   -114.34187    1.5095474   -112.83232    9872.4569    4.2963005    4.2963005    4.2963005    9872.4569   -12247.532    10633.659    31231.244      5331.56   -10541.562    2460.4212    79.301966 
   55800    976.96359   -113.72393   0.88397719   -112.83996   -27423.512    4.3057287    4.3057287    4.3057287   -27423.512    -74264.96    14069.856    -22075.43   -4963.1105    41999.484    7200.4509    79.825196 
   55900     700.6928   -113.47253   0.63400157   -112.83853   -26475.483    4.2972331    4.2972331    4.2972331   -26475.483   -77633.337   -13490.232    11697.121    15043.866    20587.565      2337.03    79.353621 
   56000    1126.5241   -113.84965    1.0193027   -112.83034    16752.733    4.2830251    4.2830251    4.2830251    16752.733   -25440.328    12288.636    63409.891    10062.986   -17539.227    6364.7285    78.569115 
   56100    1122.6822   -113.84973    1.0158265    -112.8339   -4583.3397    4.2980293    4.2980293    4.2980293   -4583.3397   -41753.888    21224.645    6779.2248   -4163.0021    20832.777   -4828.3359    79.397737 
   56200    823.13885   -113.58206   0.74479333   -112.83727    -10843.93    4.3019822    4.3019822    4.3019822    -10843.93   -68715.361    149.32446    36034.248    9966.2775    15454.481    -4189.675    79.617005 
   56300    835.00159   -113.59318   0.75552699   -112.83766    2220.8666    4.2900981    4.2900981    4.2900981    2220.8666   -43948.402    32591.053    18019.949    6407.5144   -22766.873   -12596.886    78.959005 
   56400     1304.102    -114.0184    1.1799789   -112.83842    7026.4032    4.2929432    4.2929432    4.2929432    7026.4032   -6739.9922    33916.418   -6097.2158   -12336.531   -2681.2248   -3366.0144    79.116204 
   56500    1773.5982   -114.43791     1.604789   -112.83312    2378.8452    4.2981803    4.2981803    4.2981803    2378.8452   -14528.283    34771.934   -13107.115    4688.0629    27237.509    6981.5805    79.406104 
   56600      1236.08   -113.96167    1.1184312   -112.84324   -6850.5644    4.2977552    4.2977552    4.2977552   -6850.5644   -36033.488   -9458.3662    24940.161    19228.889    -7484.425    4198.3032    79.382548 
   56700    1321.5803   -114.03898    1.1957936   -112.84318   -7396.9912    4.2955837    4.2955837    4.2955837   -7396.9912   -25415.723   -19491.395    22716.145   -5084.0004   -30531.647   -7277.5325     79.26228 
   56800    1975.5439   -114.61557    1.7875137   -112.82805    11298.206    4.2981335    4.2981335    4.2981335    11298.206    1839.7782    3126.4081    28928.432   -2560.0537   -3932.2404    -750.5829     79.40351 
   56900    1323.6139   -114.03033    1.1976337    -112.8327    -6749.627    4.3071379    4.3071379    4.3071379    -6749.627   -43466.732    16905.055    6312.7961    9921.4543   -8119.1151   -8744.3245    79.903597 
   57000    877.05043   -113.62852   0.79357366   -112.83494    3088.8649    4.2951838    4.2951838    4.2951838    3088.8649   -33339.447    19712.118    22893.923   -1102.6935   -22479.151   -6166.5099    79.240144 
   57100    1274.7643   -113.98303    1.1534335   -112.82959    28745.865    4.2870751    4.2870751    4.2870751    28745.865    3634.8128    69078.025    13524.757   -14543.823   -715.97563   -10462.165     78.79221 
   57200    1292.0268   -114.00655     1.169053   -112.83749   -6905.1989    4.2994863    4.2994863    4.2994863   -6905.1989   -17879.335    8554.6218   -11390.884    842.78952    421.00848    7346.9504    79.478506 
   57300    579.64461   -113.36937   0.52447462   -112.84489   -13650.347    4.3003938    4.3003938    4.3003938   -13650.347    -41353.71   -15620.305    16022.973    2071.5281   -26420.053    10266.685    79.528847 
   57400     871.1837   -113.62307   0.78826532    -112.8348    969.36736    4.2938691    4.2938691    4.2938691    969.36736   -39777.102     18276.54    24408.664    3724.6677   -2682.9255   -4357.7769    79.167405 
   57500    1041.9977   -113.77368   0.94282144   -112.83086    1418.2455    4.2974441    4.2974441    4.2974441    1418.2455   -35820.697    54311.428   -14235.994    5210.8125    21905.585    10963.735     79.36531 
   57600    975.15027   -113.71437   0.88233646   -112.83204    4872.0821     4.294884     4.294884     4.294884    4872.0821   -50921.969    53216.952    12321.264    1477.2633   -11763.887    10066.027    79.223554 
   57700    933.83644    -113.6812   0.84495483   -112.83625   -8333.8569    4.3013799    4.3013799    4.3013799   -8333.8569    -62719.05    20994.275    16723.204   -3193.3385   -3031.7449     -171.259     79.58357 
   57800    1134.8159   -113.85964    1.0268053   -112.83284   -17276.447    4.2999117    4.2999117    4.2999117   -17276.447   -33010.146    14272.863   -33092.058   -9890.3295    36631.766    3067.2805    79.502101 
   57900    1464.8727   -114.15543    1.3254476   -112.82998    26682.093    4.2845797    4.2845797    4.2845797    26682.093     30029.48    53135.033    -3118.235   -602.18363    7034.4255    6141.9298      78.6547 
   58000    1639.7046   -114.32166    1.4836391   -112.83802   -8415.6174    4.2960279    4.2960279    4.2960279   -8415.6174   -13618.103    -19771.01    8142.2608   -8132.0963   -9465.4378    168.93547    79.286869 
   58100    991.17019   -113.74298   0.89683162   -112.84615   -3011.7639    4.2991763    4.2991763    4.2991763   -3011.7639   -14068.351    14539.885   -9506.8253    7483.8204    19975.003    -3236.929    79.461316 
   58200    1398.9974   -114.10595    1.2658422   -112.84011    8327.4817    4.2983024    4.2983024    4.2983024    8327.4817    -8911.892    35887.503   -1993.1662   -825.08045    11381.209    12692.024    79.412872 
   58300    1698.6566   -114.37032    1.5369801   -112.83334    14483.901    4.2944369    4.2944369    4.2944369    14483.901    10319.688    10736.103    22395.913   -4833.3867   -8599.0727    9740.8522    79.198812 
   58400    1229.4289   -113.95423    1.1124131   -112.84182    12064.715    4.2882898    4.2882898    4.2882898    12064.715    2027.4803    26503.929    7662.7364   -1375.2429    27686.088    1089.0141    78.859204 
   58500     1001.888   -113.75334   0.90652931   -112.84681   -17640.265    4.3036236    4.3036236    4.3036236   -17640.265   -41795.902   -17350.526    6225.6327    7386.6127    23688.882   -1625.2108    79.708173 
   58600    1405.2537   -114.10555     1.271503   -112.83405    -11770.06    4.2982502    4.2982502    4.2982502    -11770.06   -11134.426   -8997.1318   -15178.623     6561.842     -18568.4    14278.541    79.409976 
   58700    1174.0837   -113.89428    1.0623356   -112.83195    8208.6028    4.2878906    4.2878906    4.2878906    8208.6028   -16044.045    14246.427    26423.427   -6666.8183    4270.1877    2289.9138    78.837183 
   58800    941.58671   -113.69131   0.85196744   -112.83934   -7325.5547    4.2973126    4.2973126    4.2973126   -7325.5547   -42642.703   -2384.5876    23050.626    840.85116     35606.36   -2951.8394    79.358025 
   58900    809.47006    -113.5709   0.73242552   -112.83847   -1367.4638    4.2981794    4.2981794    4.2981794   -1367.4638   -28815.257   -4827.3636    29540.229    6619.0676   -18443.492    7929.9884    79.406054 
   59000    955.62107   -113.70252   0.86466603   -112.83785   -12378.043     4.297702     4.297702     4.297702   -12378.043   -53187.843    11817.372    4236.3417   -2818.5115   -16822.732    16989.255    79.379596 
   59100    1240.0841   -113.95473    1.1220542   -112.83267   -6087.3974    4.2962889    4.2962889    4.2962889   -6087.3974   -55488.166    11176.639    26049.335   -4184.3677    18455.566    685.65094    79.301321 
   59200    868.46496   -113.62352   0.78580535   -112.83771    21410.669    4.2902218    4.2902218    4.2902218    21410.669   -677.31868    1810.3484    63098.977   -550.35217   -3992.9575    795.19512    78.965838 
   59300    721.84052   -113.49711   0.65313647   -112.84398   -6039.2325    4.2951333    4.2951333    4.2951333   -6039.2325   -21571.596    10226.255   -6772.3562    4825.0217   -39483.653    16544.651    79.237347 
   59400    1308.2848   -114.02038    1.1837636   -112.83661    -7698.298    4.3010713    4.3010713    4.3010713    -7698.298   -22590.442   -8474.3804    7969.9281   -10993.678   -4439.1683   -7624.0585     79.56644 
   59500    1377.1061   -114.07888    1.2460346   -112.83284    14553.367    4.2937715    4.2937715    4.2937715    14553.367   -671.69421    2876.2715    41455.523   -9677.2594    3132.8998   -2254.3906    79.162006 
   59600    1039.7057   -113.78291   0.94074755   -112.84216   -12375.199    4.2908776    4.2908776    4.2908776   -12375.199   -17749.751    13275.726   -32651.571   -1558.0432   -40080.879    3102.5153    79.002053 
   59700    1062.3987    -113.8054   0.96128065   -112.84412   -5519.9283    4.2943823    4.2943823    4.2943823   -5519.9283    4487.1483   -3970.7918   -17076.141   -1360.1047   -3837.2554    15979.263    79.195794 
   59800    1471.2459   -114.16618    1.3312142   -112.83496     950.4259    4.2999357    4.2999357    4.2999357     950.4259    4501.6495   -17565.613    15915.241    -13428.02    3575.0741   -377.68352    79.503435 
   59900    1274.7755   -113.98665    1.1534437   -112.83321   -6435.2684    4.3029102    4.3029102    4.3029102   -6435.2684   -23381.165    957.01721    3118.3423   -4235.7915   -29431.338   -256.04495    79.668537 
   60000    1152.8181   -113.87474     1.043094   -112.83165   -3695.5459    4.2922507    4.2922507    4.2922507   -3695.5459    15738.288   -2023.9486   -24800.977    6848.9117   -13804.759    22316.249    79.077919 
   60100    1231.6911   -113.94727      1.11446   -112.83281    3994.0364    4.2904167    4.2904167    4.2904167    3994.0364    39552.492   -16509.052   -11061.331   -1675.1359    11239.288   -10212.163    78.976596 
   60200    1146.0776   -113.87343    1.0369951   -112.83644    4506.6763    4.3036168    4.3036168    4.3036168    4506.6763    11372.147   -3887.1605    6035.0425    329.79197    -13509.79   -13141.205    79.707795 
   60300    1339.8856   -114.04633    1.2123567   -112.83397    10603.961    4.2942604    4.2942604    4.2942604    10603.961    18789.295    734.39048    12288.196    4401.4518   -16965.142    12473.281     79.18905 
   60400    1099.0054   -113.83159   0.99440316   -112.83719    5066.6511    4.2893841    4.2893841    4.2893841    5066.6511    30705.308   -15072.784   -432.57127     9023.374    7881.8997    -2157.114    78.919588 
   60500     1203.684    -113.9262    1.0891186   -112.83708   -14001.218    4.3010258    4.3010258    4.3010258   -14001.218   -16170.892   -8600.9906    -17231.77   -6617.4244    3746.5079   -21690.039    79.563916 
   60600    1437.5379   -114.12941    1.3007145   -112.82869   -2511.0737    4.2974348    4.2974348    4.2974348   -2511.0737    -25926.93    1882.3112    16511.398   -900.03423   -13832.412    7371.0476    79.364791 
   60700    1274.7273   -113.98387    1.1534001   -112.83047   -13733.062    4.2952537    4.2952537    4.2952537   -13733.062    7193.0199   -27884.002   -20508.205    7585.8199    2623.0377    12692.334    79.244013 
   60800      1007.08   -113.74489   0.91122718   -112.83366   -13058.475    4.2965418    4.2965418    4.2965418   -13058.475    1026.6705   -33540.627   -6661.4698   -3753.7325    12171.882   -24302.886    79.315326 
   60900     1448.511   -114.14226    1.3106432   -112.83162   -4189.8964      4.28877      4.28877      4.28877   -4189.8964   -19912.274    814.77901    6527.8058   -7422.0243   -2831.6681    -8769.807    78.885696 
   61000    1212.4665   -113.93618    1.0970652   -112.83911   -6905.4775    4.2951429    4.2951429    4.2951429   -6905.4775   -7240.4157   -4480.1076   -8995.9093   -1411.9946   -1697.8749    8090.8212    79.237883 
   61100    724.45553   -113.50013   0.65550259   -112.84463   -12516.183    4.3001128    4.3001128    4.3001128   -12516.183    9809.2174   -13499.285   -33858.482    5248.6694    335.60989    -23650.36    79.513259 
   61200    1041.0452   -113.77983   0.94195955   -112.83787    13713.948    4.2914935    4.2914935    4.2914935    13713.948   -3479.1757    22666.725    21954.295    1665.5204    10235.138   -9077.5636    79.036079 
   61300    1581.2781   -114.26257    1.4307737    -112.8318   -1317.9456    4.2920485    4.2920485    4.2920485   -1317.9456   -19613.285    6903.6839    8755.7638    11176.618    3004.4946    10793.729    79.066743 
   61400    1078.6038   -113.81995   0.97594335   -112.84401   -19810.259     4.296503     4.296503     4.296503   -19810.259     3648.032   -30374.584   -32704.224    3557.0462   -3439.5607   -24037.952    79.313179 
   61500    1023.3193   -113.77247   0.92592077   -112.84655   -11831.931    4.2934914    4.2934914    4.2934914   -11831.931    12500.599    -33893.19   -14103.201    232.48409     19643.67   -20833.347    79.146513 
   61600    1675.4373   -114.35357    1.5159709    -112.8376   -1833.8153    4.2928418    4.2928418    4.2928418   -1833.8153   -11758.238   -13193.569    19450.362   -4688.0509    1979.7029    10970.669    79.110595 
   61700    1460.8163   -114.15871    1.3217773   -112.83693   -3972.4962    4.2996585    4.2996585    4.2996585   -3972.4962   -8234.8057   -27324.203     23641.52   -3087.6333   -9893.0144   -6606.5506    79.488056 
   61800    1211.3966   -113.93354    1.0960971   -112.83744   -4497.5926    4.2957208    4.2957208    4.2957208   -4497.5926    13050.832   -30769.283    4225.6729    -1065.921    13582.635   -13276.676    79.269869 
   61900    1234.1398   -113.95122    1.1166756   -112.83455    10744.978     4.293071     4.293071     4.293071    10744.978    7833.0151    4450.3295     19951.59   -5881.6441    7510.7979    11138.834    79.123268 
   62000    1260.5899   -113.97509    1.1406083   -112.83448    8082.3985    4.2983994    4.2983994    4.2983994    8082.3985    -27120.04     11202.09    40165.145   -477.72813   -27993.322   -4270.7158    79.418249 
   62100    1119.2437   -113.84624    1.0127152   -112.83353    18075.427    4.2944807    4.2944807    4.2944807    18075.427    2030.4174   -440.29946    52636.162   -2737.5259    -8801.273   -21830.847    79.201235 
   62200      857.257    -113.6109   0.77566415   -112.83523    1336.0026    4.2947483    4.2947483    4.2947483    1336.0026     10784.95   -4598.5726   -2178.3695   -8298.8702    10462.996    5645.6475    79.216045 
   62300    600.73269   -113.38372   0.54355556   -112.84017   -25824.389    4.2985492    4.2985492    4.2985492   -25824.389   -39485.965    10742.795   -48729.997    969.89632   -32615.819     16295.14    79.426552 
   62400    1007.8736   -113.74618   0.91194525   -112.83424    19066.195     4.289473     4.289473     4.289473    19066.195   -8701.0733    22053.235    43846.422   -5068.1979   -11323.822   -2558.5496    78.924498 
   62500    1196.2294   -113.91742    1.0823735   -112.83505    9017.0265     4.295614     4.295614     4.295614    9017.0265    12452.255   -8334.5704    22933.395   -7489.3975    8905.9189    4489.4165    79.263954 
   62600    619.88608   -113.40817   0.56088595   -112.84729   -12095.181    4.2965258    4.2965258    4.2965258   -12095.181   -30948.566    13149.225   -18486.202   -2153.3805    -24872.37    18601.554    79.314442 
   62700    687.01695   -113.46846   0.62162737   -112.84683     11567.33    4.2902103    4.2902103    4.2902103     11567.33   -16597.511    35397.306    15902.193   -5224.4589   -22684.233   -2076.5959    78.965202 
   62800    1530.8285   -114.22207    1.3851258   -112.83694   -3129.1104    4.2943491    4.2943491    4.2943491   -3129.1104   -14546.711   -5785.4678    10944.848   -1994.3181     10085.25   -12844.605    79.193954 
   62900    1179.1932   -113.90628    1.0669588   -112.83932   -5861.7031    4.2969382    4.2969382    4.2969382   -5861.7031   -27665.018    2810.7087    7269.1996   -2224.6351   -27267.421   -3168.7957    79.337282 
   63000    1127.2803   -113.85929    1.0199869   -112.83931   -6357.3697    4.2945212    4.2945212    4.2945212   -6357.3697   -28458.927     23642.85   -14256.032    3791.4134    -25293.44    7573.8045     79.20348 
   63100    1482.2542   -114.17534    1.3411748   -112.83416   -4329.0771    4.2943257    4.2943257    4.2943257   -4329.0771   -15541.755    -5422.205    7976.7289   -8375.0946    22222.001   -13996.847    79.192664 
   63200    1349.2967   -114.06317     1.220872   -112.84229   -5694.3868    4.2942222    4.2942222    4.2942222   -5694.3868   -23340.516   -12318.799    18576.154   -9767.3783   -10817.197   -18700.623    79.186936 
   63300    1810.9299   -114.47886    1.6385674    -112.8403    14494.814    4.2803815    4.2803815    4.2803815    14494.814    -4945.418    26082.467    22347.394    5643.0221   -22570.029    12446.071    78.423718 
   63400    1517.4403   -114.21874    1.3730118   -112.84573    5769.0334    4.2953138    4.2953138    4.2953138    5769.0334   -8503.4638   -9716.7663     35527.33   -3166.9872    723.01599   -8089.8562     79.24734 
   63500    1140.9129   -113.87719    1.0323219   -112.84487   -37503.465    4.3080297    4.3080297    4.3080297   -37503.465   -29385.212   -53780.795    -29344.39   -12388.096    14646.921   -30673.058    79.953239 
   63600    1707.5712   -114.37855    1.5450463    -112.8335    29893.442     4.274246     4.274246     4.274246    29893.442     13645.32    36434.908    39600.098   -11102.036   -11370.709   -3116.1776    78.086962 
   63700    1791.7729   -114.46002    1.6212338   -112.83879    10064.562     4.283447     4.283447     4.283447    10064.562    11247.787    4708.7641    14237.135    6510.9093    1730.1826    10445.325    78.592335 
   63800    977.06296   -113.73423    0.8840671   -112.85016   -24484.172    4.3007558    4.3007558    4.3007558   -24484.172   -8095.7776   -21035.201   -44321.538   -3436.0054    16924.925   -20351.084     79.54893 
   63900    1154.4672   -113.88737    1.0445862   -112.84278     24540.82    4.2909204    4.2909204    4.2909204     24540.82    25986.334   -1749.8393    49385.965   -9344.7515    2417.0983   -18806.243    79.004417 
   64000    1683.4287   -114.35669    1.5232017   -112.83349   -730.00481    4.2952176    4.2952176    4.2952176   -730.00481   -216.61752   -14914.234    12940.837    11430.109     5172.199    16897.353    79.242016 
   64100    1012.9374   -113.75846   0.91652702   -112.84193     8663.734    4.2823544    4.2823544    4.2823544     8663.734    13859.225   -2733.4815    14865.458    7812.7625    6472.9259   -19176.056    78.532208 
   64200    925.22848   -113.68737   0.83716618    -112.8502    9936.7637    4.2869806    4.2869806    4.2869806    9936.7637    29280.547    -19398.91    19928.654   -15396.607    7073.5838   -13949.056    78.787001 
   64300    1061.0431   -113.80015   0.96005412    -112.8401   -11099.284    4.3029375    4.3029375    4.3029375   -11099.284   -20426.214   -17439.544    4567.9078    1353.9481   -7284.8357    1994.3912    79.670057 
   64400    1004.8689   -113.74689   0.90922649   -112.83766    2250.3764    4.2847436    4.2847436    4.2847436    2250.3764   -6071.7219   -4829.4688     17652.32    20342.255   -8449.6579   -5835.9562    78.663728 
   64500    999.37713   -113.74417   0.90425743   -112.83991   -9383.1152    4.2858228    4.2858228    4.2858228   -9383.1152    17532.866   -12083.837   -33598.374   -4689.3725    31080.635   -21921.315    78.723181 
   64600    669.65359   -113.44711   0.60591664   -112.84119   -5585.0196    4.2959387    4.2959387    4.2959387   -5585.0196   -8469.4407   -20173.547    11887.929   -10923.306    2375.1335   -9845.5584    79.281933 
   64700    983.84031    -113.7287   0.89019938    -112.8385   -13188.256    4.2906896    4.2906896    4.2906896   -13188.256   -14327.226   -35021.434    9783.8918    13432.062   -14642.849    11202.025    78.991667 
   64800    890.81311   -113.64639   0.80602642   -112.84036   -11974.158    4.2920646    4.2920646    4.2920646   -11974.158    2474.2493   -14042.177   -24354.547    4912.1768    17611.405   -8913.1324    79.067638 
   64900    934.75401   -113.68658   0.84578507   -112.84079    12760.041    4.2899205    4.2899205    4.2899205    12760.041    4935.3938   -698.62355    34043.353   -2435.3735    22097.694   -3172.0078    78.949202 
   65000     1128.613    -113.8619    1.0211928   -112.84071   -10335.222    4.2976659    4.2976659    4.2976659   -10335.222    6195.9118    -38688.34    1486.7631    4875.9159   -16039.664    6189.5681    79.377599 
   65100    800.81948   -113.56637    0.7245983   -112.84177   -12989.071    4.2934457    4.2934457    4.2934457   -12989.071    -5330.212   -17196.155   -16440.845    4314.5533    6576.4121    12039.415    79.143984 
   65200    1078.4891   -113.81524    0.9758396    -112.8394    13299.686    4.2802405    4.2802405    4.2802405    13299.686    12256.768    20371.676    7270.6144   -3356.7782     46873.47   -4359.5916     78.41597 
   65300    1486.9057   -114.18796    1.3453836   -112.84257   -1503.9412    4.2942352    4.2942352    4.2942352   -1503.9412    13181.858   -12611.235   -5082.4457    2809.5154   -7821.1983    -7055.782    79.187653 
   65400    1085.5827   -113.82869   0.98225803   -112.84643   -9045.6228    4.2964432    4.2964432    4.2964432   -9045.6228    7946.5623   -25586.388   -9497.0422    8687.9867    3216.3942    16837.882    79.309869 
   65500    839.58226   -113.61001   0.75967167   -112.85033   -3941.3668    4.2894028    4.2894028    4.2894028   -3941.3668    9570.8675    14386.062    -35781.03    278.78049    36018.474    10567.207    78.920618 
   65600    1595.4518   -114.28316    1.4435983   -112.83956     10486.94    4.2938668    4.2938668    4.2938668     10486.94     1100.631    5961.4325    24398.757    -4378.504    3190.2067   -4369.0058    79.167279 
   65700    1812.6782   -114.47436    1.6401493   -112.83421   -4507.1423    4.2944575    4.2944575    4.2944575   -4507.1423    20253.461     -16998.2   -16776.688    5064.6544    1943.6621    3992.0074    79.199953 
   65800    965.73794   -113.72032   0.87381999    -112.8465   -15848.817    4.2922834    4.2922834    4.2922834   -15848.817   -25454.361    2723.4432   -24815.532    5263.0292    47350.447    14680.402    79.079728 
   65900    1531.7319   -114.23036    1.3859432   -112.84442    -5169.515     4.286982     4.286982     4.286982    -5169.515   -29370.151    6891.8893    6969.7169    2578.0219    11739.058    6113.7066    78.787076 
   66000    1805.9936   -114.47486     1.634101   -112.84076    10193.741     4.294097     4.294097     4.294097    10193.741    1491.8759   -6082.9258    35172.272   -1773.9392   -25234.871   -1760.3165    79.180009 
   66100     1315.788   -114.03773    1.1905526   -112.84717   -3243.2067    4.2972695    4.2972695    4.2972695   -3243.2067   -3596.6521    271.76106    -6404.729   -4613.8163    27369.047    246.45177    79.355636 
   66200    1260.6887   -113.98541    1.1406976   -112.84471    5056.9148    4.2869325    4.2869325    4.2869325    5056.9148     -8532.62    10191.923    13511.441    72.933329    25055.327    1669.9563    78.784344 
   66300    1599.2198   -114.28544    1.4470077   -112.83843    6056.9443    4.2922637    4.2922637    4.2922637    6056.9443    5262.1721   -7417.6554    20326.316    9735.9915   -16432.418    517.92278    79.078638 
   66400    1359.2797   -114.06749    1.2299049   -112.83758    5585.0616    4.3000769    4.3000769    4.3000769    5585.0616   -1103.2979   -5844.9462    23703.429   -5847.3688    18583.157    14125.172    79.511268 
   66500    1031.9425   -113.77144    0.9337233   -112.83772     4245.874    4.2960489    4.2960489    4.2960489     4245.874   -6221.6264   -6303.6444    25262.893    6320.3759    24391.968    5500.3972    79.288031 
   66600    1076.2655   -113.80855   0.97382761   -112.83472    4384.9123    4.2881503    4.2881503    4.2881503    4384.9123   -4292.7149   -34492.104    51939.556    22354.433    -2211.878   -7751.8311    78.851506 
   66700    1403.9669   -114.10734    1.2703388     -112.837    2204.3316    4.2879134    4.2879134    4.2879134    2204.3316   -3071.6482   -15258.229    24942.871   -5961.1426   -4237.6078    9444.8462    78.838437 
   66800    1105.0125    -113.8436   0.99983851   -112.84376    -11062.22    4.2952626    4.2952626    4.2952626    -11062.22   -1360.6301    2700.7963   -34526.825   -738.35777    17520.312    6078.6069    79.244506 
   66900    826.79796    -113.5924   0.74810417    -112.8443   -20617.286    4.2951256    4.2951256    4.2951256   -20617.286   -13407.515   -44414.405   -4029.9384    32488.471    9631.2081   -3622.6609    79.236921 
   67000    997.86645   -113.74413   0.90289053   -112.84123    -5286.258    4.2922549    4.2922549    4.2922549    -5286.258   -1560.9649   -41085.974    26788.165    3031.2363   -10608.203   -8829.6976    79.078154 
   67100     1191.878   -113.91537    1.0784363   -112.83693    375.44423    4.2898536    4.2898536    4.2898536    375.44423    8010.6771   -4018.4044   -2865.9399   -18048.571    11150.558    2537.5936    78.945509 
   67200    666.56103   -113.44777   0.60311842   -112.84465    4482.6579    4.2896969    4.2896969    4.2896969    4482.6579   -4211.3001   -11269.293    28928.567    32957.871    21393.616    4701.2738    78.936857 
   67300    644.11185   -113.43104   0.58280594   -112.84824   -24343.101    4.2982547    4.2982547    4.2982547   -24343.101   -11619.595    -53589.21   -7820.4986     18932.61    731.53539   -10794.154    79.410229 
   67400     1168.989    -113.8963    1.0577258   -112.83857   -5162.9248     4.289521     4.289521     4.289521   -5162.9248    18368.577   -25975.354   -7881.9977   -27194.934   -1845.0653    358.20286    78.927148 
   67500    951.08069   -113.70337   0.86055779   -112.84281   -1718.6011    4.2858562    4.2858562    4.2858562   -1718.6011   -3507.3196    3097.5344    -4746.018     16859.39    11773.394    948.94628    78.725024 
   67600    760.16163   -113.53633   0.68781022   -112.84852   -20829.563    4.2909118    4.2909118    4.2909118   -20829.563   -7497.0425   -29674.531   -25317.116    37526.312    632.09414   -7217.8892    79.003941 
   67700    973.37493   -113.72445    0.8807301   -112.84372   -8554.1001    4.2963922    4.2963922    4.2963922   -8554.1001    40464.796   -36579.855   -29547.241   -10725.661   -2259.5532   -6435.5624    79.307046 
   67800    1162.9707   -113.88831    1.0522803   -112.83603   -11462.026    4.2969943    4.2969943    4.2969943   -11462.026   -7498.5531   -27348.759    461.23359   -6997.5116    6252.9891    3215.6363     79.34039 
   67900    626.67175   -113.40915   0.56702577   -112.84213    11655.751     4.283668     4.283668     4.283668    11655.751    9832.7368   -1684.8548    26819.372     27887.03    9620.9773   -256.13409    78.604502 
   68000    817.85318   -113.58757   0.74001075   -112.84756   -98.551174    4.2862868    4.2862868    4.2862868   -98.551174     5965.621   -12868.031     6606.756    5375.8108   -4317.5872   -14926.384    78.748754 
   68100    1141.3684   -113.87765    1.0327341   -112.84491    -2921.282    4.2940936    4.2940936    4.2940936    -2921.282    22710.097   -37900.817    6426.8734    -9374.108   -1957.7768    5377.9462     79.17982 
   68200    1038.5456   -113.78491   0.93969787   -112.84522   -10111.451    4.2949359    4.2949359    4.2949359   -10111.451   -11172.973   -29483.157    10321.776    16032.719    8466.6883    13848.807    79.226426 
   68300    1033.5872   -113.77862   0.93521146   -112.84341   -15030.992    4.2893697    4.2893697    4.2893697   -15030.992   -38998.878   -9847.9094    3753.8116    21053.332   -6232.5593   -10953.011    78.918793 
   68400    885.74831   -113.64527   0.80144368   -112.84383    11776.977     4.286014     4.286014     4.286014    11776.977    52638.484   -18777.759    1470.2046   -3459.1366   -3503.8124   -3957.3542     78.73372 
   68500    1160.6626   -113.89287    1.0501919   -112.84268   -11376.913    4.2965955    4.2965955    4.2965955   -11376.913   -9079.5168   -47297.686    22246.463    1698.2821   -5567.8429    22696.109    79.318302 
   68600    1267.0837   -113.98696     1.146484   -112.84047   -3473.8013    4.2925683    4.2925683    4.2925683   -3473.8013   -35511.345    -21795.94    46885.881    14230.924    6681.9693     2105.814    79.095474 
   68700     1279.239   -113.99799    1.1574824    -112.8405    7992.4188    4.2839128    4.2839128    4.2839128    7992.4188    20768.417   -9546.4739    12755.314   -940.64143    7884.2467   -1519.6734    78.617978 
   68800    1027.4439   -113.77846   0.92965286   -112.84881   -13967.008    4.2931142    4.2931142    4.2931142   -13967.008    18206.998   -40974.306   -19133.716     3198.797   -11519.798    27129.762    79.125655 
   68900    1388.9444   -114.10115    1.2567461    -112.8444    2523.0048    4.2935868    4.2935868    4.2935868    2523.0048    2907.5895   -25992.386    30653.811    15030.005    8767.3451    6376.2726     79.15179 
   69000    1803.6161   -114.46998    1.6319498   -112.83803    6329.3835    4.2903858    4.2903858    4.2903858    6329.3835   -13857.677   -17379.262     50225.09   -2835.1707   -8472.2937   -3615.3291    78.974892 
   69100    1108.3755   -113.85216    1.0028814   -112.84928    11142.906    4.2835692    4.2835692    4.2835692    11142.906    32574.967   -22262.737    23116.487   -13175.833     1962.871    20070.516     78.59906 
   69200    1033.1722   -113.78703   0.93483591    -112.8522   -12509.002    4.2893653    4.2893653    4.2893653   -12509.002    15846.234   -27660.259   -25712.982    10233.937   -15232.962     9377.933    78.918554 
   69300    1465.8383   -114.16922    1.3263213    -112.8429   -16454.949    4.2989187    4.2989187    4.2989187   -16454.949   -27992.938   -24294.203    2922.2942    7034.2623    2433.4912   -10382.898    79.447037 
   69400    1286.9306   -114.00308    1.1644418   -112.83864   -6633.8312    4.2905452    4.2905452    4.2905452   -6633.8312   -8810.5909   -24041.916    12951.014   -10320.539    15989.973    21299.572    78.983696 
   69500     932.8187   -113.68362   0.84403397   -112.83959    5441.9614    4.2837196    4.2837196    4.2837196    5441.9614    39756.771   -21496.021   -1934.8654   -3200.1015   -17759.244    9224.8943    78.607341 
   69600    993.79857   -113.74292   0.89920983   -112.84371   -13760.518     4.294678     4.294678     4.294678   -13760.518   -7383.3547   -20023.773   -13874.425    3522.6421    8523.5594   -17308.331    79.212155 
   69700     1028.207   -113.77241   0.93034329   -112.84207   -1555.5357    4.2945655    4.2945655    4.2945655   -1555.5357   -18750.464   -12077.428    26161.285   -14760.013    14344.599    -285.3518    79.205931 
   69800    1392.5145   -114.09442    1.2599764   -112.83444   -125.74329    4.2899446    4.2899446    4.2899446   -125.74329    21158.282   -23672.327    2136.8154    -8501.359   -2998.6352    9388.5074    78.950531 
   69900    1130.7586   -113.86283    1.0231341    -112.8397   -7436.7272    4.2911077    4.2911077    4.2911077   -7436.7272    24352.142   -21538.193   -25124.131    15528.129   -5513.2268   -11226.283    79.014762 
   70000    811.91484   -113.58131   0.73463761   -112.84667     4328.201     4.287456     4.287456     4.287456     4328.201    13773.515   -1527.1566    738.24436   -21269.292    14448.683   -8319.4642    78.813212 
   70100    1105.4055   -113.84899    1.0001942    -112.8488      1269.37    4.2949824    4.2949824    4.2949824      1269.37    7158.5528   -29502.419    26151.976   -18642.379    21794.987    3235.4536    79.228997 
   70200    1534.3491   -114.22573    1.3883113   -112.83742   -4481.4028     4.296053     4.296053     4.296053   -4481.4028    14687.901   -32360.065    4227.9551    8894.2519   -9295.5103   -4021.6015     79.28826 
   70300     893.7336   -113.65182   0.80866894   -112.84315   -1247.0053    4.2867374    4.2867374    4.2867374   -1247.0053    16971.163    -10649.33    -10062.85    -5829.095    12995.608   -10506.805    78.773592 
   70400     694.2333   -113.47702   0.62815688   -112.84887   -3936.5001    4.2899256    4.2899256    4.2899256   -3936.5001   -16684.307   -5889.1293    10763.936   -26703.769    27915.128   -1512.2706    78.949483 
   70500    1551.8126   -114.24402    1.4041127   -112.83991   -6096.4637    4.2919884    4.2919884    4.2919884   -6096.4637   -474.20238   -31731.786    13916.597    -3336.586   -4653.3517    9723.4276    79.063425 
   70600     1308.167   -114.02659    1.1836569   -112.84293   -8240.6436    4.2927225    4.2927225    4.2927225   -8240.6436    6938.4415   -31680.476    20.103708    11829.955    2357.0552    -12927.47    79.104002 
   70700    747.21581    -113.5281   0.67609656     -112.852   -10077.633    4.2887537    4.2887537    4.2887537   -10077.633   -31797.144   -11336.007    12900.252   -33594.482    29804.523   -5219.6324    78.884799 
   70800    1014.4402   -113.76719   0.91788679    -112.8493    14920.487    4.2897713    4.2897713    4.2897713    14920.487    16259.817   -11785.297    40286.941   -10776.406    10109.783    3664.7015    78.940963 
   70900    1687.6267   -114.36167    1.5270001   -112.83467   -12253.333    4.2985702    4.2985702    4.2985702   -12253.333    -10584.46   -34009.771    7834.2307    22145.836   -9629.0389   -3970.6796    79.427716 
   71000    1026.8206   -113.77292   0.92908886   -112.84383   -6064.4041    4.2868238    4.2868238    4.2868238   -6064.4041   -22908.279   -23397.546    28112.613   -21793.897      8568.22   -4678.8438    78.778354 
   71100    672.02213    -113.4628   0.60805975   -112.85474    12663.933    4.2853615    4.2853615    4.2853615    12663.933    12578.675    596.74039    24816.382   -31565.254    25539.144   -5538.6446    78.697766 
   71200    1807.2454   -114.47847    1.6352336   -112.84323   -5433.9944    4.2949726    4.2949726    4.2949726   -5433.9944    1953.4874   -16272.911   -1982.5602    1859.6857     422.7667    11393.604    79.228454 
   71300    1500.0257    -114.2019    1.3572547   -112.84464    12942.671    4.2895963    4.2895963    4.2895963    12942.671    15232.965    1370.2783     22224.77    1823.9624    545.28411    1271.7423    78.931301 
   71400    842.86658   -113.61801    0.7626434   -112.85537   -16008.068    4.2932039    4.2932039    4.2932039   -16008.068   -24510.284   -17996.796   -5517.1256   -40141.306     28110.45   -3097.1153    79.130613 
   71500    1316.4379   -114.04139    1.1911407   -112.85025   -1511.3248    4.2938196    4.2938196    4.2938196   -1511.3248    600.62437    9377.0654   -14511.664   -6173.2131    11332.982   -12576.546    79.164666 
   71600    2005.9562    -114.6524    1.8150313   -112.83737     10289.41    4.2873981    4.2873981    4.2873981     10289.41     13721.41    8542.4824    8604.3365    14492.713   -10685.039   -5100.6922    78.810022 
   71700    1393.9729   -114.11307     1.261296   -112.85178   -8256.0247    4.2891546    4.2891546    4.2891546   -8256.0247   -15113.158   -844.29612   -8810.6201   -28627.272    16144.117    6696.8234     78.90692 
   71800    994.95194   -113.75716   0.90025342   -112.85691    6551.9269    4.2902342    4.2902342    4.2902342    6551.9269    1450.2158    32125.229   -13919.664    -14430.41    27955.106   -7102.0409    78.966518 
   71900    1781.4948   -114.45627    1.6119339   -112.84434    138.32416    4.2965643    4.2965643    4.2965643    138.32416     22928.37   -10059.832   -12453.566    9998.8007    -8406.944   -521.49452    79.316575 
   72000    1667.5621   -114.34815    1.5088453   -112.83931    17862.497    4.2909122    4.2909122    4.2909122    17862.497    13970.924     42657.26    -3040.694    6919.1653    2674.5534    1495.3551    79.003964 
   72100    1341.6144   -114.05809    1.2139209   -112.84417    3572.4967    4.2849969    4.2849969    4.2849969    3572.4967   -2727.1696    28068.789    -14624.13   -27591.212    30348.395   -2565.9515    78.677676 
   72200    1183.0956   -113.91769    1.0704898    -112.8472   -5505.7716    4.2953976    4.2953976    4.2953976   -5505.7716    5476.4706   -6403.6151    -15590.17    558.21076    7339.1147   -11561.827    79.251979 
   72300    1685.8907   -114.36433    1.5254294    -112.8389    5948.6716    4.2915088    4.2915088    4.2915088    5948.6716   -2422.7497    22419.403    -2150.639    31869.526   -1342.6466   -9109.5446    79.036924 
   72400    1458.7473   -114.16261    1.3199052   -112.84271    2277.3918    4.2897938    4.2897938    4.2897938    2277.3918   -10082.774     33701.16   -16786.211    -9593.685    17062.635    574.23976    78.942204 
   72500    947.86876   -113.70782   0.85765158   -112.85017   -13890.156     4.293018     4.293018     4.293018   -13890.156   -20014.805   -10841.036   -10814.626   -18212.371    18362.332   -11486.277    79.120339 
   72600     1167.499   -113.90262    1.0563777   -112.84624   -2388.9584    4.2891817    4.2891817    4.2891817   -2388.9584    6422.2613   -32510.845    18921.708    6290.0994   -6908.5992    1289.3379    78.908416 
   72700    1108.7563   -113.84691     1.003226   -112.84368    6546.1987     4.297118     4.297118     4.297118    6546.1987    6578.7697    14001.737   -941.91009    6665.1429    1701.5611    5169.8666    79.347241 
   72800    1004.3373   -113.75171    0.9087455   -112.84297    -12537.81    4.2946285    4.2946285    4.2946285    -12537.81   -20762.916   -22766.935    5916.4199   -15348.104    25086.944   -4320.8977    79.209415 
   72900    791.19187   -113.55781   0.71588703   -112.84193   -2482.0146    4.2877106    4.2877106    4.2877106   -2482.0146     3012.789   -54303.188    43844.355   -965.12588    1073.2662   -11005.734    78.827253 
   73000    1163.7583   -113.89332    1.0529929   -112.84033   -7750.7253    4.2929296    4.2929296    4.2929296   -7750.7253     6267.597   -43816.729    14296.956     17435.69   -88.644475    4195.6538    79.115447 
   73100    765.12632   -113.53588   0.69230238   -112.84357    533.99775    4.2955699    4.2955699    4.2955699    533.99775   -7350.9476     1434.098    7518.8429   -7290.5564    19304.409    16025.098    79.261514 
   73200    885.88106   -113.64524    0.8015638   -112.84368   -13977.777      4.29359      4.29359      4.29359   -13977.777   -25714.449   -38598.434     22379.55   -9556.6064    10953.376   -10928.654    79.151966 
   73300    1027.0683   -113.76659   0.92931298   -112.83728    3117.0666    4.2927686    4.2927686    4.2927686    3117.0666    14283.479     -55937.9    51005.621     -557.797   -6532.7147    5031.8167    79.106551 
   73400     941.3822   -113.69261    0.8517824   -112.84083   -6530.7196    4.2940504    4.2940504    4.2940504   -6530.7196    3802.2964   -40798.714    17404.258   -1538.4295    2915.0916    22474.435    79.177434 
   73500    485.44877   -113.28688   0.43924425   -112.84763   -12122.864    4.2946766    4.2946766    4.2946766   -12122.864   -17499.599    12555.089   -31424.082   -15212.507    16483.944   -4426.8671    79.212077 
   73600    1129.2672   -113.86701    1.0217847   -112.84523     -5087.45    4.2884067    4.2884067    4.2884067     -5087.45    -10481.26   -17763.671    12982.581   -10574.591   -453.31031      5250.97    78.865649 
   73700     1403.338   -114.11233    1.2697697   -112.84256    3963.4026    4.2893224    4.2893224    4.2893224    3963.4026    16913.357   -33371.287    28348.138    8710.1977   -955.33139    14311.591    78.916182 
   73800    778.56368   -113.55553   0.70446078   -112.85107    1979.6485    4.2929099    4.2929099    4.2929099    1979.6485   -11169.983   -12360.304    29469.233   -7245.0591        25553    1267.3156    79.114359 
   73900    819.71539   -113.59241   0.74169571   -112.85072   -7652.6651    4.2986686    4.2986686    4.2986686   -7652.6651    -39249.62    21403.126   -5111.5018   -14564.836    7495.0166   -3830.3294    79.433168 
   74000    1638.7975   -114.31779    1.4828184   -112.83497   -911.67692    4.2946282    4.2946282    4.2946282   -911.67692    -2401.119   -10603.253    10269.341    4494.1895   -17389.588    -11080.85    79.209401 
   74100    1263.3114   -113.97783    1.1430707   -112.83476   -987.23396    4.2895246    4.2895246    4.2895246   -987.23396   -13450.495    7180.6006    3308.1926    12655.815    13916.732    2642.0303    78.927342 
   74200    1065.4666   -113.80494   0.96405654   -112.84088   -12903.621    4.2948382    4.2948382    4.2948382   -12903.621    -35225.82    278.18765   -3763.2313   -7683.5542    21384.881   -2199.5554    79.221017 
   74300    1377.4104   -114.08393    1.2463099   -112.83763   -3201.7028    4.2980039    4.2980039    4.2980039   -3201.7028   -12629.012   -1454.7972    4478.7009   -7204.3398   -10049.717   -15248.859    79.396327 
   74400    1362.2278   -114.06907    1.2325724    -112.8365    6433.6665    4.2895057    4.2895057    4.2895057    6433.6665   -9110.6096   -5930.1125    34341.721    23717.326    5493.5784    2415.8654    78.926299 
   74500    1147.6838   -113.88238    1.0384484   -112.84393    3848.5746    4.2921925    4.2921925    4.2921925    3848.5746   -17608.869    22339.652     6814.941    -9196.462    26005.605    13779.746    79.074706 
   74600    1304.4078   -114.01572    1.1802556   -112.83546    3286.4575    4.3038465    4.3038465    4.3038465    3286.4575    16789.995    831.20442   -7761.8264   -23625.924    8443.6176   -2810.3339    79.720554 
   74700    1470.1163   -114.15643    1.3301921   -112.82624     7370.187    4.2994653    4.2994653    4.2994653     7370.187    9813.4332    4144.1686    8152.9591    9753.6172   -2415.6867   -14076.866    79.477346 
   74800    1223.7448   -113.93727      1.10727      -112.83    2536.2599     4.295712     4.295712     4.295712    2536.2599   -22650.639    32198.196   -1938.7772    5629.8094    21640.626    5871.5133    79.269381 
   74900    1353.9479   -114.05577    1.2250805   -112.83069    8170.1252    4.2910169    4.2910169    4.2910169    8170.1252   -7138.7784    19836.398    11812.756    -19953.32    17403.694    4885.8631    79.009748 
   75000    1682.6301   -114.35543     1.522479   -112.83295   -3373.0728    4.2999773    4.2999773    4.2999773   -3373.0728     5487.074   -16335.991    729.69902   -4738.9218   -7136.0374   -16240.786    79.505743 
   75100    1482.0754   -114.16829     1.341013   -112.82728   -27150.149     4.311418     4.311418     4.311418   -27150.149   -28897.258   -28758.518   -23794.672    17924.113    16837.286    -10792.48    80.142037 
   75200    1336.8019   -114.02945    1.2095664   -112.81989   -15051.263    4.2959839    4.2959839    4.2959839   -15051.263   -23796.287   -19406.746   -1950.7564   -6185.5402    10799.011    3455.8966    79.284436 
   75300    1448.8259   -114.13213    1.3109282    -112.8212   -1864.1053    4.2861376    4.2861376    4.2861376   -1864.1053    18418.972   -21017.981   -2993.3073    -9909.616   -16559.809   -20346.631    78.740528 
   75400    1454.8115   -114.14681     1.316344   -112.83046   -8285.5966    4.2974356    4.2974356    4.2974356   -8285.5966    2461.6494   -2587.2136   -24731.226    7233.6509     2466.253   -19387.868    79.364835 
   75500    1217.7392   -113.93419     1.101836   -112.83235   -3809.6588    4.3042012    4.3042012    4.3042012   -3809.6588   -8343.5866    12305.718   -15391.108   -5632.6345    20125.846     7399.153    79.740268 
   75600    1175.6496   -113.89401    1.0637525   -112.83026   -6294.7748    4.2961711    4.2961711    4.2961711   -6294.7748    5568.2833   -22721.277   -1731.3314   -6693.7674   -10714.516   -4129.2211      79.2948 
   75700    1027.2963   -113.75984   0.92951926   -112.83032    7355.8816     4.290506     4.290506     4.290506    7355.8816    27555.476    1042.3927   -6530.2237   -562.72866   -1256.6203   -16152.203    78.981532 
   75800    1029.7398   -113.76626   0.93173019   -112.83453    17501.768    4.2927726    4.2927726    4.2927726    17501.768    36432.489    3583.3165    12489.498   -7679.1182    31262.924   -30.143688    79.106767 
   75900    1078.4713   -113.81201   0.97582351   -112.83619    10981.279    4.2990167    4.2990167    4.2990167    10981.279    20166.919    -3593.132    16370.049   -23577.457    14324.019    5420.2258    79.452468 
   76000    926.30086    -113.6747   0.83813649   -112.83656   -10620.076     4.299629     4.299629     4.299629   -10620.076    8823.9435   -17849.294   -22834.877   -9663.6307   -7403.0574   -14662.068    79.486423 
   76100    880.60001   -113.63131   0.79678539   -112.83452   -524.17324    4.2872851    4.2872851    4.2872851   -524.17324    2534.9618    8246.7666   -12354.248    10554.332    12662.708   -12939.657    78.803788 
   76200    1132.2163   -113.86159    1.0244531   -112.83714   -3421.2573    4.2906203    4.2906203    4.2906203   -3421.2573   -25274.784    7892.2729    7118.7392   -12708.883     17647.28    12721.331    78.987843 
   76300    1221.0376   -113.94084    1.1048205   -112.83602   -12900.733    4.2990919    4.2990919    4.2990919   -12900.733   -39198.328    6315.9641   -5819.8333   -14323.287   -9763.5289   -12803.508    79.456637 
   76400    1084.6312   -113.81754   0.98139711   -112.83614   -10601.199      4.29471      4.29471      4.29471   -10601.199   -24814.606   -416.89166   -6572.0989    9649.1204    7792.1531   -22043.339    79.213923 
   76500    716.10107   -113.48642    0.6479433   -112.83848    -5504.628     4.296823     4.296823     4.296823    -5504.628   -37440.309    16108.315    4818.1102   -4405.8021    23208.474    6920.1129    79.330901 
   76600    1240.6648   -113.95656    1.1225796   -112.83398   -4152.5908    4.2922888    4.2922888    4.2922888   -4152.5908   -30822.042    2522.8232    15841.446   -11201.049   -6297.8276   -123.95647    79.080029 
   76700    1280.9144   -113.99286    1.1589983   -112.83386     14267.34    4.2872734    4.2872734    4.2872734     14267.34   -7150.5649    24125.905    25826.679   -5316.2079    7375.7935   -6335.9687    78.803141 
   76800    1113.3077    -113.8517    1.0073442   -112.84435   -8974.4225    4.2962217    4.2962217    4.2962217   -8974.4225   -33836.794    20318.261   -13404.735   -883.29409    25758.885    -3244.373    79.297603 
   76900    956.77802   -113.71075   0.86571286   -112.84504    7424.4989    4.2949766    4.2949766    4.2949766    7424.4989   -12527.539    24996.174    9804.8614   -14862.398   -7014.2584    14433.864     79.22868 
   77000    1404.3338   -114.10791    1.2706708   -112.83724    13444.676    4.2923006    4.2923006    4.2923006    13444.676   -5630.3304    25422.221    20542.137   -5333.7441   -10856.583    11863.249     79.08068 
   77100    1646.4416   -114.32466    1.4897349   -112.83492     2314.089     4.295087     4.295087     4.295087     2314.089   -18772.429    21337.849    4376.8472   -1836.8018    28991.725   -10229.512    79.234788 
   77200    1385.3003   -114.09404    1.2534489   -112.84059    6642.0764     4.289027     4.289027     4.289027    6642.0764    2967.1997    16491.362     467.6676   -13482.783    6188.0106    4221.1088    78.899877 
   77300    1193.5789   -113.92716    1.0799753   -112.84719   -6972.4735    4.2953979    4.2953979    4.2953979   -6972.4735    2012.3176   -6496.5837   -16433.154   -5244.6664   -24553.072    9521.1254    79.251994 
   77400    1839.7481   -114.49772    1.6646428   -112.83308   -1851.1728    4.2994537    4.2994537    4.2994537   -1851.1728   -1761.4258   -6670.3771    2878.2845    8966.1512   -5737.8724    576.77179    79.476699 
   77500    1717.9765   -114.38451    1.5544612   -112.83005    9629.2086    4.2919414    4.2919414    4.2919414    9629.2086     19926.39    7059.2026    1902.0328     4212.302   -3711.9373   -12097.332    79.060828 
   77600    868.21692   -113.62874   0.78558091   -112.84316   -10481.288    4.2928744    4.2928744    4.2928744   -10481.288   -7901.0446   -2120.9272   -21421.893   -15038.903   -23354.506    8195.9248    79.112399 
   77700    1265.5263   -113.98984    1.1450748   -112.84476   -2878.8879    4.2923479    4.2923479    4.2923479   -2878.8879   -21561.593   -5200.6815    18125.611    1128.9887   -20873.016    15241.495    79.083293 
   77800    1670.0543   -114.34932    1.5111002   -112.83822    19158.608    4.2924499    4.2924499    4.2924499    19158.608    2242.6238    17497.617    37735.584     648.9164    17531.098    555.70205     79.08893 
   77900    1216.8006   -113.94565    1.1009868   -112.84466   -6976.2014    4.2959277    4.2959277    4.2959277   -6976.2014   -17409.116    8364.9674   -11884.456    -9622.542   -13086.674   -5430.0378    79.281325 
   78000    837.24871   -113.60495   0.75756023   -112.84739   -12212.837    4.2933262    4.2933262    4.2933262   -12212.837   -23982.977    13492.856   -26148.389     98.18017   -22717.926     13803.17    79.137379 
   78100    1208.5109   -113.93286     1.093486   -112.83938   -54.472849    4.2934899    4.2934899    4.2934899   -54.472849   -34232.877    21359.711    12709.748   -1598.5678    21382.769     4582.199    79.146431 
   78200    1402.1321   -114.10496    1.2686786   -112.83628   -2964.6658    4.2920831    4.2920831    4.2920831   -2964.6658   -34356.367    5407.7441    20054.625    -3064.502    7597.0095   -15941.046    79.068655 
   78300    952.99223   -113.70486   0.86228739   -112.84257     8280.884    4.2891718    4.2891718    4.2891718     8280.884   -2836.3023    451.04655    27227.908   -13666.648   -28240.444    17814.855    78.907873 
   78400    849.63131   -113.61497   0.76876427   -112.84621   -8140.1044    4.2959779    4.2959779    4.2959779   -8140.1044    -27211.28    15860.468     -13069.5    707.48234   -970.79349    10981.342    79.284105 
   78500    1200.0026   -113.92311    1.0857875   -112.83732   -6291.3951    4.2978831    4.2978831    4.2978831   -6291.3951   -32779.972   -910.34509    14816.132    6184.9745    29893.217    5463.0787    79.389635 
   78600    1349.4881   -114.05506    1.2210452   -112.83401   -4372.1056      4.29138      4.29138      4.29138   -4372.1056   -17589.924   -12538.637    17012.244   -12752.749   -8656.4284    4807.1996    79.029805 
   78700    861.33105   -113.62215   0.77935043    -112.8428    6256.2689    4.2857551    4.2857551    4.2857551    6256.2689    7652.3673   -12178.592    23295.032    5060.8778   -9809.9676    12815.524    78.719452 
   78800    708.76023    -113.4907   0.64130115    -112.8494    -2905.278    4.2969851    4.2969851    4.2969851    -2905.278   -30738.387    5258.3452    16764.208    3356.9802    28918.234    9069.7447    79.339882 
   78900    1291.5652   -114.00612    1.1686354   -112.83748   -9190.2479    4.2997018    4.2997018    4.2997018   -9190.2479   -16504.653   -22506.548    11440.457    1026.3854    9913.4021   -19750.484    79.490462 
   79000    1252.9806    -113.9669    1.1337232   -112.83318    2012.5756    4.2852299    4.2852299    4.2852299    2012.5756    7894.3529   -35211.185    33354.559   -4686.5526   -11232.326     7918.853    78.690514 
   79100    783.16113   -113.55033   0.70862065   -112.84171   -13457.711    4.2905526    4.2905526    4.2905526   -13457.711   -9501.7648   -7217.4548   -23653.912   -136.85107    9521.5633    16923.003    78.984103 
   79200    941.92328   -113.69274   0.85227197   -112.84047   -4512.2725    4.2956389    4.2956389    4.2956389   -4512.2725     -22147.3   -647.73903    9258.2214    16957.634    8705.2468   -18117.601    79.265334 
   79300    1303.3934   -114.01533    1.1793377     -112.836   -4090.7232    4.2964819    4.2964819    4.2964819   -4090.7232    17551.225   -48865.543    19042.149    1566.0474   -2239.8381   -9809.7099     79.31201 
   79400     1391.794   -114.09503    1.2593245    -112.8357   -6696.9925    4.2905699    4.2905699    4.2905699   -6696.9925   -9538.2122    -9910.139   -642.62628      2478.47    13787.593    11558.961    78.985057 
   79500    1045.0809   -113.78759   0.94561115   -112.84198     6992.065    4.2833153    4.2833153    4.2833153     6992.065   -6056.1765    12068.539    14963.833     2459.405     9905.679   -4986.8923    78.585088 
   79600    1230.5905   -113.96121    1.1134642   -112.84775   -18185.317    4.3011369    4.3011369    4.3011369   -18185.317   -3307.5934   -39374.687    -11873.67   -249.81117   -1554.4366   -47463.288    79.570081 
   79700    1715.8298   -114.38673    1.5525188   -112.83421    2647.5973    4.2982439    4.2982439    4.2982439    2647.5973     14562.42   -17297.829      10678.2    499.15074   -1398.3304   -9419.8241    79.409629 
   79800    1607.2899   -114.28644    1.4543096   -112.83213    14896.863    4.2787344    4.2787344    4.2787344    14896.863    -12721.27    23889.735    33522.124    6622.0685    4410.5092    5941.9081     78.33322 
   79900    816.00983   -113.58628   0.73834284   -112.84794   -16623.417    4.2948828    4.2948828    4.2948828   -16623.417   -2028.2205   -19650.311   -28191.718    10115.582    7537.9595   -47882.139    79.223485 
   80000    1582.0774   -114.26866    1.4314969   -112.83716   -14582.582    4.2999449    4.2999449    4.2999449   -14582.582   -8009.4232   -14710.479   -21027.842   -12197.477   -10106.663   -6393.1432    79.503944 
   80100     1778.553   -114.44019    1.6092722   -112.83092    13072.308    4.2900576    4.2900576    4.2900576    13072.308    8121.4017    10481.154    20614.369   -3961.7544   -417.03634    13986.164     78.95677 
   80200     1123.593   -113.86119    1.0166505   -112.84454    3840.2027    4.2860184    4.2860184    4.2860184    3840.2027    5873.8503   -17323.561    22970.319    480.51424    14956.716   -41552.077     78.73396 
   80300    979.47829   -113.73616   0.88625254   -112.84991   -4379.2709    4.2874838    4.2874838    4.2874838   -4379.2709    6374.7951   -9216.2246   -10296.383   -1034.3779    8424.6092   -17036.703    78.814746 
   80400    1280.6939   -114.00534    1.1587988   -112.84654   -20185.975    4.2984512    4.2984512    4.2984512   -20185.975   -19488.564   -24465.155   -16604.205    5627.5379    2488.3705    30613.016    79.421117 
   80500    1284.5295   -114.00185    1.1622692   -112.83958    -1695.714    4.2934321    4.2934321    4.2934321    -1695.714    22727.029   -37173.436     9359.265    3040.9822   -2728.3989   -12549.266    79.143234 
   80600    1213.4311    -113.9353    1.0979379   -112.83736    1676.9886    4.2856224    4.2856224    4.2856224    1676.9886    2236.2943   -14295.732    17090.404    3957.9984    619.11906   -23773.944    78.712141 
   80700    602.67499   -113.39222     0.545313   -112.84691   -4403.8554    4.2930468    4.2930468    4.2930468   -4403.8554   -962.94444   -20939.712      8691.09   -8533.7627     4341.632    26360.462    79.121929 
   80800     960.6553   -113.71377    0.8692211   -112.84455   -11948.007    4.2965472    4.2965472    4.2965472   -11948.007   -9891.3442   -38556.372    12603.695    6094.0438   -19629.631    16730.482    79.315628 
   80900    1379.7695   -114.08264    1.2484444    -112.8342    20527.178    4.2892586    4.2892586    4.2892586    20527.178    19917.685   -1029.4334    42693.281    6027.7942   -1883.1268   -6140.8581    78.912663 
   81000    961.45264   -113.71423   0.86994256   -112.84428   -4324.5268     4.293032     4.293032     4.293032   -4324.5268   -19044.964   -10201.227     16272.61   -10424.944    14405.254    12513.088    79.121112 
   81100    524.18198   -113.32213   0.47429088   -112.84784   -19784.953    4.2958855    4.2958855    4.2958855   -19784.953   -39787.823   -4787.8423   -14779.193   -3887.9569   -6855.1445    24639.005    79.278989 
   81200    1186.8265    -113.9151    1.0738655   -112.84123    5685.9384    4.2894887    4.2894887    4.2894887    5685.9384    1440.0117    1599.6764    14018.127    2861.2155   -6753.3431   -6023.7457    78.925363 
   81300    1426.3955   -114.12785    1.2906326   -112.83722    -1491.884    4.2934994    4.2934994    4.2934994    -1491.884   -1744.7721    -26207.18      23476.3    -7572.656    5654.7014   -11617.411    79.146958 
   81400    809.07821   -113.57335   0.73207096   -112.84128   -9735.0592     4.296305     4.296305     4.296305   -9735.0592   -33020.272   -11278.477    15093.572   -15835.409   -2934.9982    24012.063    79.302213 
   81500     967.6758   -113.71455    0.8755734   -112.83898   -13252.833     4.294573     4.294573     4.294573   -13252.833   -3757.0425   -5696.1555   -30305.302   -2870.0601   -24296.897    2513.5401    79.206346 
   81600    1424.7206   -114.12486    1.2891172   -112.83574   -6163.7349    4.2918458    4.2918458    4.2918458   -6163.7349    12633.615   -15964.977   -15159.843    1839.0615   -877.79459   -23465.221    79.055541 
   81700     1437.338   -114.13745    1.3005336   -112.83691    14686.931    4.2871403    4.2871403    4.2871403    14686.931    33442.818   -5829.0515    16447.028    1745.0312     8500.431    7642.7556    78.795805 
   81800    1043.5161    -113.7912   0.94419532     -112.847    5258.8733    4.2937694    4.2937694    4.2937694    5258.8733    2976.5359    11210.596    1589.4879   -2506.5046   -18037.338    13347.864     79.16189 
   81900     988.8928   -113.74304   0.89477098   -112.84827   -7645.7956    4.2982823    4.2982823    4.2982823   -7645.7956    13238.269   -14289.936    -21885.72    1948.6638   -10375.592   -25967.014    79.411758 
   82000    1572.3728   -114.26197    1.4227159   -112.83925    11747.852    4.2855063    4.2855063    4.2855063    11747.852    38822.892   -4735.4213    1156.0854   -1548.5739    8360.5511   -24873.195    78.705741 
   82100     1553.049    -114.2472    1.4052314   -112.84196    18385.452    4.2857472    4.2857472    4.2857472    18385.452   -10098.503    22086.118    43168.741   -4320.7228   -10994.923    6840.7324    78.719013 
   82200    1229.3621   -113.96083    1.1123527   -112.84847   -25977.255    4.3008645    4.3008645    4.3008645   -25977.255   -10283.413   -17102.228   -50546.124   -999.98452   -29861.305   -11157.668    79.554961 
   82300     1380.428   -114.09336    1.2490402   -112.84432   -5601.9715    4.2925434    4.2925434    4.2925434   -5601.9715    18868.988   -10653.413    -25021.49    675.46166    5183.6349   -16030.979    79.094099 
   82400     1669.733   -114.34808    1.5108095   -112.83727    13270.659    4.2886998    4.2886998    4.2886998    13270.659    6632.7895   -3249.9001    36429.086   -6309.3964    19370.355    3995.3899    78.881825 
   82500    1493.1089   -114.19329    1.3509963   -112.84229   -2308.7462    4.2938068    4.2938068    4.2938068   -2308.7462     14233.19   -18527.967   -2631.4617   -11542.458   -17533.889    -13312.43    79.163955 
   82600    1193.1804   -113.92519    1.0796147   -112.84557     16557.34     4.289218     4.289218     4.289218     16557.34    38715.333   -13314.525    24271.211   -414.53786   -15184.719       -20882     78.91042 
   82700      1438.52   -114.14245    1.3016031   -112.84084    132.38401    4.2973073    4.2973073    4.2973073    132.38401    3289.2434   -16844.052    13951.961   -2720.8405    17947.046    9967.4966    79.357729 
   82800    1354.5474   -114.06025     1.225623   -112.83463   -7509.1797    4.2969829    4.2969829    4.2969829   -7509.1797    8767.4232   -24246.957   -7048.0052   -1254.2136    12538.351    10149.425    79.339756 
   82900     1152.644   -113.87458    1.0429365   -112.83165   -6289.4212    4.2908526    4.2908526    4.2908526   -6289.4212   -12212.325   -18755.373    12099.435    436.22245   -22497.838   -19845.938    79.000674 
   83000    908.11724   -113.65652   0.82168356   -112.83483   -14273.711    4.2972979    4.2972979    4.2972979   -14273.711    671.66514   -15375.221   -28117.577    4308.6797    -6845.681    4033.1285    79.357211 
   83100    854.11412   -113.61072    0.7728204    -112.8379   -7188.2399    4.2927104    4.2927104    4.2927104   -7188.2399    19188.846   -14091.024   -26662.541    3057.7349    32023.775    18449.512    79.103333 
   83200    844.96288   -113.60469   0.76454017   -112.84015    5617.2863    4.2892193    4.2892193    4.2892193    5617.2863    35165.311   -12909.801   -5403.6513    2191.5913    667.01857   -9450.6693    78.910495 
   83300    908.08985   -113.66409   0.82165878   -112.84243   -20161.425    4.3014056    4.3014056    4.3014056   -20161.425   -3833.7905   -22120.588   -34529.895    7267.9641       -17652   -1523.3819    79.584993 
   83400    841.41307   -113.60165   0.76132823   -112.84032   -6368.7749    4.2973572    4.2973572    4.2973572   -6368.7749    -7461.467   -8909.9486    -2734.909   -1067.3872    14540.527    20890.697    79.360496 
   83500    1294.5981   -114.00763    1.1713796   -112.83625    8664.5234    4.2873311    4.2873311    4.2873311    8664.5234   -7313.6868    6289.8846    27017.372   -7202.9814    19254.996    165.12187    78.806326 
   83600    1402.0167    -114.1052    1.2685742   -112.83663    6799.1243    4.2937148    4.2937148    4.2937148    6799.1243    24681.123    -14390.27    10106.519    1255.4809   -18244.165    -1597.554    79.158871 
   83700    1213.2213   -113.93885    1.0977481   -112.84111   -11837.231    4.2996624    4.2996624    4.2996624   -11837.231    2979.2214   -24433.324   -14057.589    376.71983   -13470.972    26212.634    79.488277 
   83800    1274.4307   -113.99315    1.1531316   -112.84002    14274.399     4.288128     4.288128     4.288128    14274.399    41679.873   -2046.0543     3189.378   -3587.2036    25668.081    4436.7034    78.850274 
   83900    1578.3598   -114.26994    1.4281331   -112.84181   -434.83342    4.2886786    4.2886786    4.2886786   -434.83342   -16350.913   -14456.314    29502.726    4028.6794    11560.341   -11344.083    78.880656 
   84000    1502.9843   -114.20494    1.3599318   -112.84501   -7926.8696    4.2943457    4.2943457    4.2943457   -7926.8696   -19822.058   -30677.796    26719.245      4902.55   -11224.739    14424.536    79.193766 
   84100    1531.4133   -114.22792    1.3856549   -112.84226    552.31863     4.293999     4.293999     4.293999    552.31863     274.4638    6189.9957   -4807.5036   -3590.3273   -7613.2426    11954.571    79.174587 
   84200     1482.982   -114.18384    1.3418333     -112.842   -13507.666    4.2938981    4.2938981    4.2938981   -13507.666   -3537.4072   -37175.433    189.84076   -1450.4282    7912.0057   -11169.832    79.169005 
   84300     1276.945   -114.00126    1.1554066   -112.84585    2741.9112    4.2861204    4.2861204    4.2861204    2741.9112    19193.683   -41692.379    30724.429    9469.4815    835.56749   -19159.217     78.73958 
   84400    1670.8288   -114.35634     1.511801   -112.84454    8077.0196     4.288547     4.288547     4.288547    8077.0196    31357.939   -3275.5801   -3851.2999    5186.5012   -22780.533    3425.9585    78.873394 
   84500    1619.7614    -114.3097    1.4655941   -112.84411   -1282.9505    4.2987723    4.2987723    4.2987723   -1282.9505    3339.7592   -11288.459    4099.8487   -1358.6494    1042.2238   -651.29573    79.438919 
   84600    1248.9301   -113.97533    1.1300582   -112.84527    3444.2097    4.2899708    4.2899708    4.2899708    3444.2097    31901.773   -51134.436    29565.292    1087.6259    10550.027   -23273.193    78.951976 
   84700      1231.51   -113.95764    1.1142962   -112.84334   -3669.0128    4.2870176    4.2870176    4.2870176   -3669.0128     10753.15   -24421.002    2660.8141    8496.1231   -18372.239   -3050.2343    78.789041 
   84800    1400.1275    -114.1065    1.2668648   -112.83963    867.43065    4.2947961    4.2947961    4.2947961    867.43065    13396.284   -13311.112    2517.1203   -8166.9606   -21784.609     5605.129    79.218689 
   84900    1598.6323   -114.28307    1.4464761   -112.83659    1779.4631    4.2931384    4.2931384    4.2931384    1779.4631    19505.033   -22561.875    8395.2314    1737.4696    167.13319   -11927.561    79.126993 
   85000    958.35693   -113.71299   0.86714149   -112.84585   -8199.1519     4.289263     4.289263     4.289263   -8199.1519    894.45956   -30222.905    4730.9899    9414.4433    -11593.45   -7379.4638    78.912904 
   85100    813.03543   -113.58442   0.73565154   -112.84877   -8884.9929     4.286983     4.286983     4.286983   -8884.9929   -11472.983   -16378.006    1196.0107   -962.99371   -31560.957    13550.703     78.78713 
   85200    1563.7854   -114.25579    1.4149459   -112.84085   -36.956684    4.2943626    4.2943626    4.2943626   -36.956684    31609.394    -25373.72   -6346.5442    -1945.044     6189.765    9856.4043    79.194706 
   85300    1210.1702   -113.93606    1.0949874   -112.84107    6658.8041     4.296316     4.296316     4.296316    6658.8041     23617.01   -6591.4035    2950.8058    8783.3889   -1912.4289   -9433.7195    79.302826 
   85400    613.87576   -113.40341   0.55544769   -112.84797    3116.7965    4.2826715    4.2826715    4.2826715    3116.7965    9105.4187   -6454.3119    6699.2826    7443.1804   -31056.562    6515.7089    78.549657 
   85500    952.86917   -113.71036   0.86217605   -112.84818   -7899.3312    4.2895993    4.2895993    4.2895993   -7899.3312      8899.94   -23645.104   -8952.8295   -4811.5857    -3920.451    22030.902    78.931468 
   85600    1462.4468   -114.15957    1.3232526   -112.83631    4803.2703    4.2965028    4.2965028    4.2965028    4803.2703    26156.195    -14155.51    2409.1259   -4941.7339    5803.9731   -5509.5098    79.313169 
   85700    1073.2723    -113.8128   0.97111931   -112.84168    6977.0601     4.289699     4.289699     4.289699    6977.0601   -5197.1416    14904.664    11223.657    4038.5604   -23531.511    2375.3736    78.936972 
   85800    628.55977   -113.41593   0.56873409    -112.8472    -10675.84    4.2916683    4.2916683    4.2916683    -10675.84   -7839.4382   -19066.448   -5121.6347   -2071.8619   -20318.289     25212.97    79.045735 
   85900    1325.2927   -114.04036    1.1991527    -112.8412    4258.6808    4.2890818    4.2890818    4.2890818    4258.6808    1021.4082   -1419.0603    13173.694   -12414.883    15367.184    5233.5531    78.902902 
   86000    1509.1155   -114.20482    1.3654794   -112.83934    6904.3633    4.2932895    4.2932895    4.2932895    6904.3633    12287.746    10122.679    -1697.335    3120.7385   -10057.018   -5903.1678    79.135347 
   86100    941.46815    -113.7002   0.85186017   -112.84834   -4087.6512    4.2949341    4.2949341    4.2949341   -4087.6512   -6714.1299   -4482.6207   -1066.2029    3238.0047   -29631.347    9705.5971    79.226326 
   86200    1041.5683   -113.78586   0.94243285   -112.84343    1768.2288    4.2887057    4.2887057    4.2887057    1768.2288   -1044.2838   -16973.012    23321.982   -7857.8106    23.848748    17874.981    78.882148 
   86300    1273.1874   -113.99202    1.1520067   -112.84001   -2099.1364    4.2950841    4.2950841    4.2950841   -2099.1364    16005.144   -11848.678   -10453.875   -5363.2773    -2872.955   -11310.582    79.234626 
   86400    1229.7154   -113.95196    1.1126723   -112.83929   -2001.6562    4.2910919    4.2910919    4.2910919   -2001.6562   -6361.7445    8574.1929   -8217.4171    3998.0653   -25030.339   -3417.3568    79.013891 
   86500    1194.9659   -113.92042    1.0812303   -112.83919   -11394.915    4.2902214    4.2902214    4.2902214   -11394.915   -4939.1257   -20096.175   -9149.4432   -205.52777   -6368.4552    17221.855    78.965816 
   86600    934.30608   -113.68701   0.84537978   -112.84163   -21153.568    4.2984163    4.2984163    4.2984163   -21153.568    8365.8833   -61077.085   -10749.502   -15453.578    10100.922   -12395.984    79.419183 
   86700    967.52833   -113.71542   0.87543997   -112.83998    3781.1089    4.2913569    4.2913569    4.2913569    3781.1089    20724.316   -11170.584    1789.5949    3193.8918   -16646.675   -9964.2682    79.028531 
   86800    1191.7713   -113.91595    1.0783397   -112.83761    9561.8455    4.2913348    4.2913348    4.2913348    9561.8455    5825.8563   -8898.3117    31757.992   -3778.8475    -21521.61    100.33654    79.027307 
   86900    1044.5724   -113.78408   0.94515107   -112.83893     8232.763    4.2957227    4.2957227    4.2957227     8232.763    35163.131   -42229.403    31764.561   -12797.948    4393.4218    -7819.806    79.269973 
   87000    673.49357   -113.45424   0.60939113   -112.84484   -7068.7808    4.2969166    4.2969166    4.2969166   -7068.7808    -13974.92   -36936.569    29705.146   -2376.0275   -16133.895   -12951.986    79.336084 
   87100    969.38588    -113.7186   0.87712071   -112.84148   -6642.2775    4.2931469    4.2931469    4.2931469   -6642.2775    1017.4649   -10075.576   -10868.721    7015.7403   -27186.099   -3930.9976    79.127467 
   87200    1423.4183   -114.12256    1.2879388   -112.83462    8351.0343    4.2889575    4.2889575    4.2889575    8351.0343    -248.3957   -4635.7927    29937.291   -10315.307    14763.073    854.26751    78.896043 
   87300    1155.0258   -113.88722    1.0450916   -112.84212   -13482.769    4.2992163    4.2992163    4.2992163   -13482.769   -35955.889   -25966.488    21474.072   -118.35849   -2854.3437   -379.23543    79.463535 
   87400    782.67911   -113.55231    0.7081845   -112.84413   -6202.7358    4.2993709    4.2993709    4.2993709   -6202.7358    564.41196   -16028.709   -3143.9104    13277.756   -30188.074     4036.413    79.472111 
   87500    1463.5237   -114.15632     1.324227   -112.83209    2247.2627    4.2959227    4.2959227    4.2959227    2247.2627    11865.347   -25112.047    19988.488    866.41767   -6760.1018    4520.7297    79.281048 
   87600    1537.0608   -114.22166    1.3907649    -112.8309    6279.4677    4.2948441    4.2948441    4.2948441    6279.4677    7997.0576   -16685.597    27526.942    980.74844   -349.65815     2047.638    79.221348 
   87700    996.94606   -113.74356   0.90205774    -112.8415    8465.5036    4.2909663    4.2909663    4.2909663    8465.5036    854.30751    4441.7672    20100.436    2610.4496   -26815.065   -10414.555    79.006955 
   87800    1207.6122   -113.93668    1.0926729   -112.84401   -9897.7393     4.297217     4.297217     4.297217   -9897.7393     4725.219    -8063.793   -26354.644   -1209.3836   -18132.625    1041.1455    79.352727 
   87900    1745.3071   -114.41239    1.5791905    -112.8332    628.91319    4.2944145    4.2944145    4.2944145    628.91319    26517.731    -682.9866   -23948.005   -10034.906    15535.706   -6173.0614    79.197575 
   88000    1347.5274   -114.05686    1.2192712   -112.83759   -5235.6116      4.29083      4.29083      4.29083   -5235.6116   -18837.027    18649.569   -15519.376    10076.744   -20205.769   -1337.1712    78.999425 
   88100    907.51441   -113.66655   0.82113811   -112.84542   -12596.939    4.2973351    4.2973351    4.2973351   -12596.939   -3443.9703     -1251.89   -33094.958    13367.137   -18733.946   -4696.0046    79.359271 
   88200    1495.2779   -114.19174    1.3529589   -112.83878    2305.5659    4.2949167    4.2949167    4.2949167    2305.5659    51395.178   -15969.544   -28508.936   -8622.5939     5806.239   -5976.7025    79.225361 
   88300    1603.4866   -114.28693    1.4508683   -112.83606    12560.966    4.2886643    4.2886643    4.2886643    12560.966    19109.468    15323.778    3249.6519    2389.7768   -19908.953    7099.1359    78.879865 
   88400    1022.4184    -113.7708   0.92510563   -112.84569    9698.1158    4.2910741    4.2910741    4.2910741    9698.1158    27616.063    4880.9782   -3402.6938    8440.2215   -33246.512   -8138.0789    79.012906 
   88500    1226.1266   -113.94923    1.1094251    -112.8398   -14342.175    4.3018678    4.3018678    4.3018678   -14342.175     10665.37   -35960.557   -17731.338    8907.0171    6346.5162   -9631.8736    79.610653 
   88600    1453.2816   -114.14736    1.3149598    -112.8324   -4916.7133    4.2931652    4.2931652    4.2931652   -4916.7133   -6333.4629   -4952.6292   -3464.0477    -6195.179   -1024.9663    2330.6076    79.128474 
   88700    1279.7827   -113.99265    1.1579743   -112.83468    7338.0638    4.2817011    4.2817011    4.2817011    7338.0638   -12161.811    38992.229   -4816.2272    -2880.348   -29350.826    68.409889    78.496275 
   88800    1150.1825   -113.87888    1.0407093   -112.83817   -12292.478    4.2931448    4.2931448    4.2931448   -12292.478   -8766.5711   -25335.517   -2775.3449    10908.397   -7384.5233   -17158.724    79.127347 
   88900    919.86734   -113.67024    0.8323153   -112.83792   -14377.201    4.3019292    4.3019292    4.3019292   -14377.201   -26609.563   -44994.639    28472.598   -18011.033    3078.5534   -13955.943    79.614061 
   89000    1072.8696   -113.80611   0.97075494   -112.83535   -522.07804    4.2913869    4.2913869    4.2913869   -522.07804   -21685.898    10347.787    9771.8774   -5709.6101    -24180.24    11783.557    79.030187 
   89100    1034.7996   -113.77155   0.93630846   -112.83524    19831.759    4.2815709    4.2815709    4.2815709    19831.759      4233.87    19781.481    35479.927    5828.7019   -11639.543   -8495.0829    78.489115 
   89200    862.01632   -113.62417   0.77997048    -112.8442   -10947.841    4.2973636    4.2973636    4.2973636   -10947.841   -13674.639     -49572.9    30404.016   -13349.394    6059.4818   -28174.297    79.360847 
   89300    833.86483   -113.59356   0.75449842   -112.83906   -20662.102    4.3029433    4.3029433    4.3029433   -20662.102   -23578.458   -37311.157   -1096.6915    -10791.94   -10385.655    5090.7351    79.670375 
   89400    1001.7995   -113.73665   0.90644923    -112.8302    17045.575       4.2847       4.2847       4.2847    17045.575    17404.727    11692.988     22039.01   -3006.1605   -16885.044    10035.358    78.661325 
   89500    851.19962   -113.60819    0.7701833     -112.838   -1818.1168     4.288047     4.288047     4.288047   -1818.1168   -6973.1025    691.32088    827.43123    2652.0547    6597.1566   -26468.683    78.845807 
   89600    904.68493   -113.65994   0.81857794   -112.84136   -13210.732    4.2958702    4.2958702    4.2958702   -13210.732    -11346.67   -32749.497    4463.9722   -14082.393     3154.175   -13305.162     79.27814 
   89700    928.10364   -113.67727   0.83976768   -112.83751    17706.612    4.2941865    4.2941865    4.2941865    17706.612     55487.64   -22352.824    19985.019   -1020.3936   -14693.386    19361.341    79.184962 
   89800    1059.5543   -113.79473   0.95870702   -112.83602   -8450.6695    4.2942854    4.2942854    4.2942854   -8450.6695    22244.038    -32476.53   -15119.516     3825.242   -5056.4379   -8825.5065    79.190432 
   89900    746.16156   -113.51368   0.67514266   -112.83853    9265.0827    4.2883661    4.2883661    4.2883661    9265.0827    34872.341   -22137.923     15060.83   -13676.358    11418.841   -23364.334     78.86341 
   90000    1220.3386   -113.94365     1.104188   -112.83946   -6055.4894    4.2946317    4.2946317    4.2946317   -6055.4894    1252.1435   -18573.756   -844.85605   -7701.9266    3358.7027    5881.4575    79.209593 
   90100    1284.1863   -114.00052    1.1619588   -112.83856   -7201.0101    4.2969378    4.2969378    4.2969378   -7201.0101    22339.968   -27609.314   -16333.684   -3572.8192   -18935.999    5452.3976    79.337258 
   90200    987.53769    -113.7363   0.89354485   -112.84276   -3774.3776    4.2864805    4.2864805    4.2864805   -3774.3776    16295.439   -14068.062    -13550.51   -2492.7571    10638.236    -20903.64    78.759427 
   90300    972.21006   -113.73034   0.87967609   -112.85066    -5796.068    4.2912943    4.2912943    4.2912943    -5796.068    -19465.67    6932.5521   -4855.0857   -22542.409    24031.969   -3869.5017     79.02507 
   90400    1563.9091    -114.2572    1.4150579   -112.84214    6579.0295    4.2929815    4.2929815    4.2929815    6579.0295    21286.952    7182.4745    -8732.338    10610.428    7379.3955    14434.899    79.118317 
   90500    1428.1345   -114.13442    1.2922061   -112.84221     1815.377    4.2931276    4.2931276    4.2931276     1815.377    15392.276   -15352.317    5406.1717    3330.4136   -3270.2579   -9695.3893    79.126398 
   90600    1089.3742   -113.83408    0.9856887   -112.84839   -30142.998    4.2956593    4.2956593    4.2956593   -30142.998   -42163.602   -12701.395   -35563.999   -28076.065    26999.832   -13519.796    79.266463 
   90700    1359.7464   -114.07601    1.2303271   -112.84568    16033.254     4.285128     4.285128     4.285128    16033.254   -1493.9105    29843.462    19750.211   -4290.7423    17352.091    405.26446    78.684899 
   90800    2074.4459    -114.7161    1.8770022    -112.8391   -510.63623    4.2932835    4.2932835    4.2932835   -510.63623    13225.041    -6125.543   -8631.4067     3464.313   -13792.001    9579.3627    79.135017 
   90900    1317.4572   -114.03989     1.192063   -112.84783   -4486.6273    4.2957825    4.2957825    4.2957825   -4486.6273   -7851.1718    10442.071   -16050.781   -9846.9661    30899.924   -4280.8582    79.273286 
   91000    1268.7654   -113.99709    1.1480056   -112.84909    7274.8451    4.2844646    4.2844646    4.2844646    7274.8451   -3752.0312    23344.192    2232.3742   -25071.487    29521.517   -10136.877    78.648361 
   91100    1793.6391   -114.46666    1.6229224   -112.84374    4056.0102    4.2933659    4.2933659    4.2933659    4056.0102    210.42996     10502.29    1455.3102    7538.6522   -17231.961    1671.4809    79.139575 
   91200    1725.2124   -114.40439    1.5610084   -112.84338    7401.3766    4.2906181    4.2906181    4.2906181    7401.3766    5644.8696    12873.479    3685.7809    21129.858    4045.6398   -411.21944    78.987721 
   91300    1249.5795   -113.98086    1.1306458   -112.85021      4843.19    4.2888492    4.2888492    4.2888492      4843.19   -21227.651    36986.899   -1229.6774   -18066.118    36659.263     1573.795    78.890066 
   91400    1442.5586    -114.1502    1.3052573   -112.84494   -17482.608    4.2974681    4.2974681    4.2974681   -17482.608   -25215.141   -15755.548   -11477.136   -7952.3301    11899.308   -11230.349    79.366639 
   91500    1563.0463   -114.25327    1.4142772   -112.83899    16245.606    4.2861358    4.2861358    4.2861358    16245.606    17050.718    17229.034    14457.065    13537.735   -18454.624   -1322.7898     78.74043 
   91600    1287.6619    -114.0124    1.1651035   -112.84729   -1138.1133    4.2877831    4.2877831    4.2877831   -1138.1133   -6169.9329    11544.228   -8788.6347   -7744.7171     9777.131    2027.1086    78.831251 
   91700    977.52504   -113.73348    0.8844852   -112.84899   -2204.0337    4.2935719    4.2935719    4.2935719   -2204.0337   -896.78362   -2942.8416   -2772.4759   -22600.067     22140.95    -13310.51    79.150968 
   91800    1367.3746   -114.07774    1.2372293   -112.84051   -5849.9608    4.2940014    4.2940014    4.2940014   -5849.9608   -1036.3843   -26449.919    9936.4214    2859.6047   -4567.0383   -1574.9962    79.174723 
   91900    1234.2931   -113.95689    1.1168143   -112.84007   -11181.606    4.2922421    4.2922421    4.2922421   -11181.606   -13407.873    -17499.88   -2637.0661    16394.183   -3209.1328    583.59634    79.077447 
   92000    686.83016   -113.46835   0.62145836    -112.8469    -2776.953    4.2848816    4.2848816    4.2848816    -2776.953   -16968.231   -13525.906    22163.278   -23107.685    18135.382   -2453.7999    78.671327 
   92100    912.97479   -113.67723   0.82607878   -112.85115    -7644.832    4.2926854    4.2926854    4.2926854    -7644.832   -36241.286   -4771.8711    18078.661    -18223.47    10813.129   -5756.2483    79.101947 
   92200    1503.6451   -114.20256    1.3605297   -112.84203   -3980.1071    4.2975596    4.2975596    4.2975596   -3980.1071   -16296.215   -19151.771    23507.664     8307.444   -7955.8376   -1964.1439    79.371708 
   92300    769.41442   -113.54617   0.69618234   -112.84999    13524.824    4.2896225    4.2896225    4.2896225    13524.824   -1965.3948    632.43078    41907.437   -9938.5709    4636.6696    1974.1117    78.932746 
   92400    616.76464   -113.41292   0.55806161   -112.85485   -16483.407    4.2883142    4.2883142    4.2883142   -16483.407   -67491.406   -3989.7055    22030.892   -32145.144    26464.702   -2091.7973    78.860546 
   92500    1278.0877   -114.00368    1.1564406   -112.84724    5037.6553    4.2939927    4.2939927    4.2939927    5037.6553   -31208.766    5264.0472    41057.685    2096.5614    126.83968   -8604.6748    79.174238 
   92600    1711.6032   -114.38817    1.5486945   -112.83947   -5455.9744    4.2960474    4.2960474    4.2960474   -5455.9744   -26397.114   -734.01678    10763.207    936.16405    835.25452    3263.9091    79.287952 
   92700    664.42685   -113.45355   0.60118737   -112.85236    2664.1408    4.2889801    4.2889801    4.2889801    2664.1408   -17186.092    2805.3946     22373.12    -28026.61    25189.578   -645.75143    78.897291 
   92800    900.30132   -113.66762   0.81461155   -112.85301   -14272.399    4.2879887    4.2879887    4.2879887   -14272.399   -42103.196   -4596.3958    3882.3957   -4280.4751    12402.394   -3566.9483    78.842592 
   92900    1487.9059   -114.19005    1.3462885   -112.84376    1360.3718    4.2947533    4.2947533    4.2947533    1360.3718   -12633.891   -870.26741    17585.274    17739.299   -12486.478    2010.1428    79.216323 
   93000    1347.8993   -114.06067    1.2196076   -112.84106    1404.6471    4.2960238    4.2960238    4.2960238    1404.6471    4800.5344   -2612.4818    2025.8886   -14722.056    9656.1151    3110.1453    79.286646 
   93100     932.1172   -113.68802   0.84339923   -112.84462    -8766.932    4.2923145    4.2923145    4.2923145    -8766.932   -23608.146    1945.8522   -4638.5017   -18432.742    34882.788   -3512.8219    79.081448 
   93200    1098.1767   -113.83922   0.99365334   -112.84557    2412.7624    4.2866498    4.2866498    4.2866498    2412.7624    8831.4802   -7581.4329    5988.2399    18853.477   -4509.5787   -12316.336    78.768759 
   93300    1551.5299   -114.24725    1.4038568    -112.8434   -4206.3415     4.290769     4.290769     4.290769   -4206.3415    1701.5881    8779.3801   -23099.993    13100.108   -12701.401   -125.73904    78.996053 
   93400    1126.2811   -113.86438    1.0190828    -112.8453   -8924.5327    4.2973256    4.2973256    4.2973256   -8924.5327   -11062.712   -14.917385   -15695.969   -18534.315    20185.872    1450.2831    79.358744 
   93500    1011.1664    -113.7573   0.91492464   -112.84237   -12723.491    4.2932936    4.2932936    4.2932936   -12723.491   -13296.909   -8294.4132   -16579.149    59.572032    18908.535   -10413.116    79.135574 
   93600    1178.9134   -113.90581    1.0667056    -112.8391    -3068.823    4.2901004    4.2901004    4.2901004    -3068.823    3524.7543   -8288.7163    -4442.507    21357.108   -18517.652    399.78345    78.959134 
   93700    1274.2823   -113.99234    1.1529974   -112.83934   -4809.8604    4.2905206    4.2905206    4.2905206   -4809.8604   -17344.393    27798.025   -24883.213    -1275.558      6890.51    4647.4373    78.982337 
   93800      1090.97   -113.83353   0.98713256    -112.8464   -17366.682    4.2977217    4.2977217    4.2977217   -17366.682   -22268.265    7952.8849   -37784.667   -13893.613    23966.556    2143.2694    79.380692 
   93900    991.86558   -113.74121   0.89746082   -112.84375    8252.6289    4.2900358    4.2900358    4.2900358    8252.6289    5837.6566    7541.8683    11378.362    2935.5788   -11923.894   -4319.2529    78.955568 
   94000    1078.9249   -113.81658   0.97623395   -112.84035     13272.61    4.2871595    4.2871595    4.2871595     13272.61    10987.387    43750.211   -14919.768    14267.657    -11001.43    4522.8153    78.796862 
   94100    1066.2017   -113.80516   0.96472174   -112.84044   -23784.181    4.3021092    4.3021092    4.3021092   -23784.181   -53649.227    10706.569   -28409.884    -10409.73    20462.184    1726.2234    79.624056 
   94200    1130.3096   -113.85993    1.0227279    -112.8372   -6417.2063    4.2914574    4.2914574    4.2914574   -6417.2063   -40299.803    9628.7853    11419.398    -15420.04    12321.025   -5520.5329    79.034084 
   94300    999.03715   -113.74254    0.9039498   -112.83859    17131.137    4.2863677    4.2863677    4.2863677    17131.137    13152.463    23661.635    14579.312    10040.369   -19112.502   -750.27366    78.753209 
   94400    1016.3381   -113.76002    0.9196041   -112.84041   -20692.686    4.2976745    4.2976745    4.2976745   -20692.686   -39244.778   -1792.8995   -21040.381    4692.8294     177.8915    3387.5671    79.378072 
   94500    755.59722   -113.52343   0.68368025   -112.83975    10278.062    4.2935202    4.2935202    4.2935202    10278.062   -25027.489    40837.441    15024.234   -27479.354    22535.903    10855.217    79.148109 
   94600    1087.4135   -113.82175    0.9839146   -112.83783   -11765.293    4.2991366    4.2991366    4.2991366   -11765.293   -8328.0039   -32916.842    5948.9653   -11339.535   -10011.146   -4684.7811    79.459118 
   94700    1118.7906   -113.84976    1.0123052   -112.83745   -2699.1353     4.289454     4.289454     4.289454   -2699.1353   -7640.5059    4818.4267   -5275.3269    23433.625   -12045.789   -2122.2271    78.923449 
   94800    906.55244    -113.6632    0.8202677   -112.84294    1910.7676     4.282879     4.282879     4.282879    1910.7676   -2042.1013   -5210.9713    12985.375   -26958.801    8444.3437    9732.4285    78.561077 
   94900    779.22258   -113.55448   0.70505697   -112.84942   -17992.863    4.3009813    4.3009813    4.3009813   -17992.863   -14133.096    -44560.77    4715.2773   -39416.965      6421.24   -3392.0764    79.561443 
   95000    1524.1172   -114.21691    1.3790533   -112.83785    1129.9968    4.2918076    4.2918076    4.2918076    1129.9968    34480.835   -24827.234   -6263.6102    21278.033   -3215.1326   -2027.1977     79.05343 
   95100    1220.7548   -113.94671    1.1045646   -112.84214    3144.4834    4.2875269    4.2875269    4.2875269    3144.4834     2636.979   -5660.2447    12456.716   -3340.5951    238.91422    -880.3644     78.81712 
   95200     895.2229    -113.6594   0.81001649   -112.84938   -1709.8051    4.2926553    4.2926553    4.2926553   -1709.8051   -24908.856    15352.954    4426.4866   -48367.758    14094.874    2200.7703    79.100285 
   95300    1584.2522   -114.27544    1.4334647   -112.84198    7390.1669    4.2948407    4.2948407    4.2948407    7390.1669    20893.376    17349.831   -16072.707   -8431.2511    4318.0519    3633.6774    79.221158 
   95400     1808.694    -114.4763    1.6365444   -112.83975    1604.4996    4.2928942    4.2928942    4.2928942    1604.4996    16345.237   -11011.118   -520.62017    12115.074    -9286.761   -5291.1913    79.113494 
   95500     935.6488   -113.69463   0.84659469   -112.84803    26373.177     4.283714     4.283714     4.283714    26373.177    23051.878    34763.685    21303.968   -36685.087    12164.826    4854.9062    78.607032 
   95600    1344.1788   -114.06682    1.2162412   -112.85058   -21811.622    4.3015052    4.3015052    4.3015052   -21811.622   -14221.528   -15412.773   -35800.563   -15892.308      18622.8    2829.6004    79.590523 
   95700    1618.9943   -114.30432    1.4649001   -112.83942    4863.5033    4.2923666    4.2923666    4.2923666    4863.5033    9295.5573    27474.971   -22180.018    8556.6987   -3610.8256   -3741.2246    79.084325 
   95800    1572.3743   -114.25967    1.4227173   -112.83696     8745.685    4.2819032    4.2819032    4.2819032     8745.685    2041.6905    11231.823    12963.541   -25161.544   -2767.3333   -8050.2284    78.507387 
   95900    1260.8883   -113.98154    1.1408783   -112.84066    -17484.02    4.3036574    4.3036574    4.3036574    -17484.02   -35534.238    6937.3249   -23855.147   -19907.802    11059.193    5605.1273    79.710047 
   96000    1570.8521   -114.25593      1.42134   -112.83459   -426.88107    4.2916128    4.2916128    4.2916128   -426.88107   -2307.8823    24470.174   -23442.935    5065.0574      4736.74    13086.384    79.042671 
   96100    1239.2328   -113.96147    1.1212839   -112.84019    9108.2594     4.285975     4.285975     4.285975    9108.2594    5560.7976    26808.785    -5044.805   -14124.002   -9941.2526   -8890.4211    78.731569 
   96200    1366.9637   -114.07877    1.2368575   -112.84191   -20804.764    4.2976904    4.2976904    4.2976904   -20804.764   -31033.511   -19306.068   -12074.712   -23122.222    3728.1007   -7761.1058    79.378956 
   96300    1406.1111   -114.11038    1.2722789    -112.8381    20361.504    4.2896543    4.2896543    4.2896543    20361.504    26174.617    27780.604      7129.29     3886.056    15306.797    809.39316    78.934506 
   96400    1005.8823   -113.75608    0.9101434   -112.84594   -10825.493    4.2976637    4.2976637    4.2976637   -10825.493   -10749.799    -10522.95   -11203.728   -13587.835   -10782.363    449.06963    79.377478 
   96500    775.29874   -113.54847    0.7015066   -112.84696   -15074.724    4.2917129    4.2917129    4.2917129   -15074.724   -8664.9901   -48399.428    11840.246   -32180.779   -7191.2924    -12393.62    79.048198 
   96600    1446.4597   -114.14482    1.3087871   -112.83604    15671.046    4.2864107    4.2864107    4.2864107    15671.046    20781.973    1101.9566    25129.209    8535.3366    14693.282   -2743.4634    78.755583 
   96700    1339.9149   -114.04949    1.2123832   -112.83711   -20093.916     4.304267     4.304267     4.304267   -20093.916    823.91286   -42085.466   -19020.194    -2915.794    3900.3047    1021.5714    79.743924 
   96800    585.02295   -113.37885   0.52934106   -112.84951    -4857.706    4.2882629    4.2882629    4.2882629    -4857.706   -399.71964   -17580.037    3406.6387   -22430.242   -17307.215   -19621.899    78.857717 
   96900    1327.4555   -114.04549    1.2011097   -112.84438    6015.5321    4.2838662    4.2838662    4.2838662    6015.5321     23366.31   -12095.326    6775.6117   -15495.965   -11958.681   -1533.1521    78.615412 
   97000    1951.4912   -114.59796    1.7657502   -112.83221   -7684.8967    4.3029508    4.3029508    4.3029508   -7684.8967    255.08966   -20399.997    -2909.783    4332.2271     3188.429    9589.5933    79.670793 
   97100    1029.0502   -113.77105   0.93110624   -112.83994    2387.3095    4.2977815    4.2977815    4.2977815    2387.3095    25372.957   -12509.386   -5701.6427   -20705.032   -7811.3744   -13658.034    79.384001 
   97200    1031.1529   -113.76892   0.93300882   -112.83591   -5209.0101    4.2941553    4.2941553    4.2941553   -5209.0101    11940.012   -9120.6023    -18446.44   -20908.302    -14782.21   -9533.8315    79.183238 
   97300    1798.6715   -114.45397    1.6274757    -112.8265    8774.2218     4.288896     4.288896     4.288896    8774.2218    11017.092    19193.461   -3887.8874     17709.84    901.60958    2037.0104    78.892648 
   97400    1231.5741   -113.95197    1.1143541   -112.83762    22942.875    4.2879898    4.2879898    4.2879898    22942.875    54581.574    18129.232   -3882.1803   -9784.5792    4961.8329   -8055.1349    78.842654 
   97500    761.91527   -113.53735   0.68939695   -112.84795   -35012.775    4.3049121    4.3049121    4.3049121   -35012.775   -41034.012   -23263.104   -40741.211   -28531.917    -11383.27    -17558.12    79.779785 
   97600    1149.4466   -113.87588    1.0400434   -112.83584    117.78368    4.2898018    4.2898018    4.2898018    117.78368   -12130.825     29364.94   -16880.764    145.06784    5719.2899   -3566.1532    78.942645 
   97700    1262.4527   -113.97308    1.1422938   -112.83079    7607.5313    4.2864834    4.2864834    4.2864834    7607.5313    24196.417    15042.736   -16416.558     -1172.85    7961.9537    178.77457    78.759588 
   97800    627.03794   -113.40531    0.5673571   -112.83795   -26972.137    4.3036869    4.3036869    4.3036869   -26972.137   -11338.436   -35882.585   -33695.391   -36456.593   -16007.134   -13414.593     79.71169 
   97900    685.70748   -113.45582   0.62044254   -112.83537    12047.075    4.2867963    4.2867963    4.2867963    12047.075    17180.187    23597.806   -4636.7682   -10773.754   -4716.7755   -5861.5165    78.776839 
   98000    1092.6203   -113.82381   0.98862582   -112.83519   -4555.8387    4.2881456    4.2881456    4.2881456   -4555.8387   -5176.8892    22344.894   -30835.521    9915.0454    17337.518    3589.0453    78.851249 
   98100    776.62997   -113.53983   0.70271111   -112.83712   -22737.941    4.2984975    4.2984975    4.2984975   -22737.941   -22323.068   -22093.505    -23797.25   -33472.255    4527.0057   -238.50628    79.423687 
   98200     790.8506   -113.55111   0.71557825   -112.83553    2720.5612    4.2897949    4.2897949    4.2897949    2720.5612    16490.621    10930.087   -19259.024   -17756.197    -4644.692   -14474.859    78.942264 
   98300    988.43744   -113.73205   0.89435897   -112.83769   -7317.7413    4.2941241    4.2941241    4.2941241   -7317.7413    15037.539    12183.153   -49173.916    9553.9449    22568.056    123.92588    79.181512 
   98400    1025.6638   -113.76585   0.92804219   -112.83781     2265.272    4.2896182    4.2896182    4.2896182     2265.272    22323.991    1683.6022   -17211.777   -22980.188    10509.066    5236.5099    78.932513 
   98500    1151.9071   -113.88269    1.0422697   -112.84043   -1331.4998    4.2915961    4.2915961    4.2915961   -1331.4998     14209.15   -6952.3008   -11251.348   -20829.461   -9298.2952   -14206.291    79.041745 
   98600    1275.2296   -113.99085    1.1538545     -112.837   -27111.229    4.3016011    4.3016011    4.3016011   -27111.229   -35227.297   -5873.9786   -40232.413    10355.242    15418.204   -4629.5656    79.595844 
   98700    1212.7146   -113.93612    1.0972896   -112.83883     11628.96    4.2850224    4.2850224    4.2850224     11628.96    25130.165    12926.756   -3170.0394    10632.821    21649.114    3339.0034    78.679081 
   98800    1572.5161   -114.26125    1.4228456    -112.8384     24466.43    4.2830273    4.2830273    4.2830273     24466.43    43751.237    3099.9013    26548.152   -15892.853   -1876.9108   -7909.7133    78.569238 
   98900     1445.477   -114.14872     1.307898   -112.84083    -2870.067    4.3007729    4.3007729    4.3007729    -2870.067    20481.167   -21833.151    -7258.216   -5913.8944    8002.8803   -6900.7417    79.549881 
   99000    1158.4413   -113.89356     1.048182   -112.84538   -18342.084    4.2953022    4.2953022    4.2953022   -18342.084   -34288.442   -1833.8722   -18903.938    19025.341    22497.348    556.66151    79.246697 
   99100    1637.7043   -114.31897    1.4818293   -112.83714    15256.628    4.2808012    4.2808012    4.2808012    15256.628    14172.879    7929.0225    23667.982    1497.2483   -8576.9451    1595.1842    78.446792 
   99200    1910.0686   -114.56416    1.7282702   -112.83589    3740.4452     4.294792     4.294792     4.294792    3740.4452    38142.928   -18816.768   -8104.8245   -2682.2779   -88.110491   -13473.486    79.218465 
   99300    1026.5999   -113.77333   0.92888918   -112.84444   -9964.6954    4.2997551    4.2997551    4.2997551   -9964.6954   -543.28791   -6869.4355   -22481.363    13318.209    18155.311   -985.50546    79.493419 
   99400    1000.9164   -113.74631   0.90565023   -112.84066    129.44854    4.2888465    4.2888465    4.2888465    129.44854    7467.0073   -4934.9024   -2143.7593    7172.1852   -437.29398     12430.48    78.889921 
   99500    1639.8502    -114.3115    1.4837709   -112.82773     4238.953     4.288944     4.288944     4.288944     4238.953    25072.413   -17043.236     4687.682   -11141.779   -5814.8031    2342.3745    78.895298 
   99600    1031.1763   -113.76858   0.93302997   -112.83555   -3169.6212    4.2964139    4.2964139    4.2964139   -3169.6212    -19532.18   -2592.3734     12615.69   -285.15864    21100.637   -571.12076    79.308243 
   99700    730.15173   -113.50116   0.66065663   -112.84051   -6805.4012      4.29289      4.29289      4.29289   -6805.4012    11028.144   -3263.5295   -28180.818    24160.166    6311.0041    7096.6896    79.113259 
   99800    957.66653   -113.70532    0.8665168    -112.8388   -684.85355    4.2868034    4.2868034    4.2868034   -684.85355    15819.332     -7517.27   -10356.623   -11573.526   -16921.094    4951.6153    78.777231 
   99900    1035.2496   -113.77513   0.93671555   -112.83842    5371.4822    4.2889932    4.2889932    4.2889932    5371.4822    9084.4409   -4246.7992    11276.805    -27818.76    9227.6465   -1049.2086    78.898017 
  100000    1136.3147   -113.86547    1.0281614   -112.83731   -11062.144    4.2993509    4.2993509    4.2993509   -11062.144    12949.218    1402.1452   -47537.794    16471.347    14770.083   -3120.9549    79.470999 
Loop time of 22.9579 on 1 procs for 100000 steps with 8 atoms

Pair  time (%) = 7.61286 (33.1602)
Kspce time (%) = 5.42346 (23.6235)
Neigh time (%) = 0 (0)
Comm  time (%) = 1.10431 (4.81016)
Outpt time (%) = 0.0226889 (0.0988283)
Other time (%) = 8.79455 (38.3073)

Nlocal:    8 ave 8 max 8 min
Histogram: 1 0 0 0 0 0 0 0 0 0
Nghost:    2189 ave 2189 max 2189 min
Histogram: 1 0 0 0 0 0 0 0 0 0
Neighs:    2344 ave 2344 max 2344 min
Histogram: 1 0 0 0 0 0 0 0 0 0

Total # of neighbors = 2344
Ave neighs/atom = 293
Neighbor list builds = 0
Dangerous builds = 0
unfix 20
unfix 21
print "seeds:5518045"
seeds:5518045
