LAMMPS (10 Feb 2015)
# ---- initialize simulations
clear
units metal
dimension 3
boundary p p p
atom_style charge
atom_modify map array
# ---- create atoms
read_data /Users/eugeneragasa/pyflamestk_git/pypospack/tests/tests_integration/workflow/WorkflowLammpsThermalExpansion/MgO_NaCl_unit.npt.T900/lammps.structure
  triclinic box = (0 0 0) to (4.2565 4.2565 4.2565) with tilt (0 0 0)
  1 by 1 by 1 MPI processor grid
  reading atoms ...
  8 atoms
# ---- define interatomic potential
include potential.mod
mass 1 24.305
mass 2 15.999

group Mg type 1
4 atoms in group Mg
group O type 2
4 atoms in group O

set group Mg charge 2.0
  4 settings made for charge
set group O charge -2.0
  4 settings made for charge

variable R_cut equal 10.0

pair_style buck/coul/long ${R_cut}
pair_style buck/coul/long 10
pair_coeff 1 1 0.0 0.5 0.0 ${R_cut}
pair_coeff 1 1 0.0 0.5 0.0 10
pair_coeff 1 2 821.6 0.3242 0.0 ${R_cut}
pair_coeff 1 2 821.6 0.3242 0.0 10
pair_coeff 2 2 2274.0 0.149 27.88 ${R_cut}
pair_coeff 2 2 2274.0 0.149 27.88 10

kspace_style pppm 1.0e-5

neighbor 1.0 bin
neigh_modify every 1 delay 0 check yes
# ---- define settings
compute eng all pe/atom
compute eatoms all reduce sum c_eng
# ---- run minimization
reset_timestep 0
fix 1 all box/relax iso 0.0 vmax 0.001
thermo 10
thermo_style custom step pe lx ly lz xy xz yz press pxx pyy pzz pxy pxz pyz c_eatoms
min_style cg
minimize 1e-25 1e-25 5000 10000
PPPM initialization ...
  G vector (1/distance) = 0.354854
  grid = 8 8 8
  stencil order = 5
  estimated absolute RMS force accuracy = 5.34408e-05
  estimated relative force accuracy = 3.71126e-06
  using double precision FFTs
  3d grid and FFT values/proc = 3375 512
Neighbor list info ...
  1 neighbor list requests
  update every 1 steps, delay 0 steps, check yes
  master list distance cutoff = 11
Memory usage per processor = 4.06549 Mbytes
Step PotEng Lx Ly Lz Xy Xz Yz Press Pxx Pyy Pzz Pxy Pxz Pyz eatoms 
       0   -162.12848       4.2565       4.2565       4.2565            0            0            0    -64012.53    -64012.53    -64012.53    -64012.53 -3.8759874e-11 -1.4292379e-10 -3.6687737e-10   -162.12848 
      10   -162.17871     4.213935     4.213935     4.213935            0            0            0   -4821.7526   -4821.7526   -4821.7526   -4821.7526 8.9106085e-11 8.5332225e-11 -4.2335946e-10   -162.17871 
      14   -162.17896    4.2106915    4.2106915    4.2106915            0            0            0    -1.347652    -1.347652    -1.347652    -1.347652 2.5597609e-11 1.0162971e-11 2.8091283e-10   -162.17896 
Loop time of 0.0506232 on 1 procs for 14 steps with 8 atoms

Minimization stats:
  Stopping criterion = linesearch alpha is zero
  Energy initial, next-to-last, final = 
        -162.128476026     -162.178964554     -162.178964554
  Force two-norm initial, final = 9.24344 0.000276677
  Force max component initial, final = 9.24344 0.000190436
  Final line search alpha, max atom move = 0.125 2.38044e-05
  Iterations, force evaluations = 14 33

Pair  time (%) = 0.0119779 (23.6609)
Kspce time (%) = 0.00684524 (13.5219)
Neigh time (%) = 0 (0)
Comm  time (%) = 0.00114608 (2.26394)
Outpt time (%) = 3.79086e-05 (0.0748838)
Other time (%) = 0.030616 (60.4783)

Nlocal:    8 ave 8 max 8 min
Histogram: 1 0 0 0 0 0 0 0 0 0
Nghost:    2189 ave 2189 max 2189 min
Histogram: 1 0 0 0 0 0 0 0 0 0
Neighs:    2344 ave 2344 max 2344 min
Histogram: 1 0 0 0 0 0 0 0 0 0

Total # of neighbors = 2344
Ave neighs/atom = 293
Neighbor list builds = 0
Dangerous builds = 0
unfix 1
# ---- define output variables ----
variable natoms equal "count(all)"
variable tot_energy equal "c_eatoms"
variable length_x equal "lx"
variable length_y equal "ly"
variable length_z equal "lz"
variable tilt_xy equal "xy"
variable tilt_xz equal "xz"
variable tilt_yz equal "yz"
variable tot_press equal "press"
variable press_xx equal "pxx"
variable press_yy equal "pyy"
variable press_zz equal "pzz"
variable press_xy equal "pxy"
variable press_xz equal "pxz"
variable press_yz equal "pyz"

# ---- output ----
print "pypospack:output_section:begin"
pypospack:output_section:begin
print "tot_energy = ${tot_energy}"
tot_energy = -162.17896455406
print "num_atoms = ${natoms}"
num_atoms = 8
print "xx = ${length_x}"
xx = 4.21069146013408
print "yy = ${length_y}"
yy = 4.21069146013408
print "zz = ${length_z}"
zz = 4.21069146013408
print "xy = ${tilt_xy}"
xy = 0
print "xz = ${tilt_xz}"
xz = 0
print "yz = ${tilt_yz}"
yz = 0
print "tot_press = ${tot_press}"
tot_press = -1.34765197939399
print "pxx = ${press_xx}"
pxx = -1.34765197919426
print "pyy = ${press_yy}"
pyy = -1.3476519793348
print "pzz = ${press_zz}"
pzz = -1.34765197965291
print "pxy = ${press_xy}"
pxy = 2.55976090046832e-11
print "pxz = ${press_xz}"
pxz = 1.01629705561986e-11
print "pyz = ${press_yz}"
pyz = 2.80912827691917e-10
print "pypospack:output_section:done"
pypospack:output_section:done
print "pypospack:lammps_sim:done"
pypospack:lammps_sim:done
#------------------------------------------------------------------------------
# RUN THERMOSTAT
# running using an NPT Nose-Hoover style thermostat
#------------------------------------------------------------------------------
variable tempdamp equal 0.1
variable pressdamp equal 1.0
# set initial velocities
velocity all create 900 4614510 mom yes dist gaussian loop all
# fix for Nose-Hoover style thermostat
fix 20 all npt temp 900 900 0.1 aniso 0.0 0.0 1.0 drag 1.0 couple xyz
variable boxx equal lx
variable boxy equal ly
variable boxz equal lz
variable boxp equal press
variable boxt equal temp
# calculate averages every 10000 steps
reset_timestep 0
fix 21 all ave/time 10 10 100 v_boxx v_boxy v_boxz v_boxp v_boxt file lattice.out
thermo_style custom step temp pe ke etotal press lx ly lz press pxx pyy pzz pxy pxz pyz vol
thermo_modify flush yes
thermo 100
run 100000
PPPM initialization ...
  G vector (1/distance) = 0.355384
  grid = 8 8 8
  stencil order = 5
  estimated absolute RMS force accuracy = 5.2136e-05
  estimated relative force accuracy = 3.62065e-06
  using double precision FFTs
  3d grid and FFT values/proc = 3375 512
Memory usage per processor = 3.06549 Mbytes
Step Temp PotEng KinEng TotEng Press Lx Ly Lz Press Pxx Pyy Pzz Pxy Pxz Pyz Volume 
       0          900   -162.17896   0.81433891   -161.36462    11650.529    4.2106915    4.2106915    4.2106915    11650.529    10267.924    12846.845    11836.818      2276.72    154.33067   -8243.5845    74.655234 
     100    557.38134    -161.7586   0.50433035   -161.25427   -22776.277    4.2453843    4.2453843    4.2453843   -22776.277   -26292.404   -21437.298   -20599.129   -7252.7717    948.43639   -136.54508    76.515786 
     200    642.42028   -161.63299   0.58127537   -161.05171   -11896.632    4.2411214    4.2411214    4.2411214   -11896.632   -22710.864    -7481.573   -5497.4584   -377.51396   -2547.7216   -38.617671     76.28552 
     300    1050.3601    -161.7917   0.95038794   -160.84131    41383.421    4.2116624    4.2116624    4.2116624    41383.421    28759.628    44859.349    50531.287    3021.7328   -8684.4391   -456.45241    74.706887 
     400    805.23913   -161.44246   0.72859728   -160.71386    8123.1733      4.25585      4.25585      4.25585    8123.1733   -3503.4017    17665.019    10207.903   -2877.5056   -5091.0009    3771.1173     77.08306 
     500    712.64797   -161.22879   0.64481886   -160.58397   -15682.787    4.2721794    4.2721794    4.2721794   -15682.787   -40220.968   -3958.5654   -2868.8274    1819.7619    1548.1256    7730.8082    77.973754 
     600    902.09221   -161.33181   0.81623199   -160.51558   -1484.1343    4.2370527    4.2370527    4.2370527   -1484.1343   -13022.169    8528.5829     41.18291    2595.4284    2575.8318    19983.826    76.066179 
     700    719.51488   -161.16115   0.65103218   -160.51012   -6204.1381    4.2369464    4.2369464    4.2369464   -6204.1381     14241.22   -9648.1642    -23205.47    -9218.954    158.25643     34071.95    76.060452 
     800    898.98136   -161.33073   0.81341722   -160.51732   -26482.902    4.2461678    4.2461678    4.2461678   -26482.902   -11475.685   -34375.974   -33597.047    6419.5744   -7093.0795    18095.118    76.558157 
     900    806.05881   -161.26056   0.72933895   -160.53122    12048.514     4.247665     4.247665     4.247665    12048.514    1555.0008    11134.773     23455.77    -1090.105   -4720.4741     11027.07    76.639168 
    1000    734.74601   -161.20101   0.66481363    -160.5362    7580.4994    4.2724908    4.2724908    4.2724908    7580.4994    870.96532    10334.835    11535.698    2745.2382   -402.27836    14288.609    77.990803 
    1100    742.44877   -161.19557   0.67178325   -160.52379    20140.043      4.25324      4.25324      4.25324    20140.043   -7079.8611    52920.349    14579.642    3353.3406   -2946.5388    13432.263    76.941329 
    1200    781.59137   -161.21864    0.7072003   -160.51144    27184.409    4.2276285    4.2276285    4.2276285    27184.409    14596.179    48698.698    18258.348    -5437.003   -955.60446     15684.01    75.559742 
    1300     815.1016    -161.2664   0.73752106   -160.52887   -7637.5412    4.2499795    4.2499795    4.2499795   -7637.5412   -18156.565    4002.3342   -8758.3923   -2520.5257    8201.1352    11098.895    76.764517 
    1400     1359.027    -161.7486    1.2296762   -160.51893   -32265.986    4.2614135    4.2614135    4.2614135   -32265.986   -42249.069   -30569.749   -23979.141    3120.9377    5880.7319   -5315.0412    77.385756 
    1500    1220.4957   -161.62101    1.1043302   -160.51668   -29371.045    4.2539605    4.2539605    4.2539605   -29371.045    -38252.43   -14085.034   -35775.671    2949.8686   -5910.3779   -10859.745    76.980433 
    1600    994.78059   -161.42039   0.90009839    -160.5203   -12747.672    4.2455758    4.2455758    4.2455758   -12747.672   -9832.2165   -9534.9338   -18875.865    5643.2897    10506.325   -6286.6315    76.526138 
    1700    1267.2871   -161.67277     1.146668    -160.5261    1662.9243    4.2366233    4.2366233    4.2366233    1662.9243     26453.39   -14881.992   -6582.6253   -2296.7724    9823.3628   -4894.4624    76.043055 
    1800    993.01102   -161.43844   0.89849724   -160.53995    9390.7687    4.2447013    4.2447013    4.2447013    9390.7687    -1064.044    787.74766    28448.603   -3226.3894   -3603.5102    2552.2168    76.478862 
    1900    431.45628    -160.9278   0.39039071   -160.53741    2646.2968    4.2645945    4.2645945    4.2645945    2646.2968   -30387.377   -3722.2051    42048.472    3745.0203    8513.2549    10470.536    77.559184 
    2000    875.05599   -161.31589   0.79176905   -160.52412    2500.6091    4.2524896    4.2524896    4.2524896    2500.6091   -6778.4888    12548.423    1731.8927   -710.12636   -555.39024    16588.313    76.900607 
    2100    786.30901   -161.23462   0.71146892   -160.52315    3184.2068    4.2391141    4.2391141    4.2391141    3184.2068    17457.236    8123.6756   -16028.292     4677.387   -14195.812    23784.087    76.177257 
    2200    636.39562   -161.10502   0.57582413    -160.5292   -19021.674    4.2398917    4.2398917    4.2398917   -19021.674    24449.343   -41633.273   -39881.094    3090.6048   -1596.9732    29302.408    76.219182 
    2300    746.42029   -161.21086   0.67537676   -160.53548   -5279.5782     4.243698     4.243698     4.243698   -5279.5782    7052.3202   -22210.583   -680.47203   -1168.3402   -11199.883    10534.434    76.424641 
    2400    915.55915   -161.36749   0.82841716   -160.53907   -1514.8128    4.2614573    4.2614573    4.2614573   -1514.8128   -3897.1525    -12035.43    11388.144   -447.36064    -216.4779    14089.125    77.388143 
    2500    715.34602   -161.17541   0.64726011   -160.52815   -2523.7961      4.26423      4.26423      4.26423   -2523.7961    -29449.18    14964.556    6913.2356   -3192.0931    9925.2949    15290.987    77.539296 
    2600    614.79871   -161.08047   0.55628279   -160.52419    29139.475    4.2370413    4.2370413    4.2370413    29139.475    2720.2968    37511.655    47186.473   -6550.9625    -2723.956    12459.692    76.065562 
    2700    884.52891   -161.33212   0.80034035   -160.53178    19574.428    4.2317279    4.2317279    4.2317279    19574.428    7131.4994    15058.239    36533.546    13039.853   -2598.8203     16722.44    75.779755 
    2800    902.89026   -161.35488   0.81695408   -160.53792   -7507.9034    4.2492586    4.2492586    4.2492586   -7507.9034   -4656.4606   -23323.596    5456.3462    14200.708   -11903.702    11936.023    76.725456 
    2900    935.41982   -161.37704   0.84638752   -160.53066    -18379.12     4.254919     4.254919     4.254919    -18379.12   -5105.5233   -17352.938     -32678.9    2404.4334   -7846.2572   -10044.518    77.032482 
    3000    1196.2565   -161.60942     1.082398   -160.52702   -21527.183     4.255931     4.255931     4.255931   -21527.183   -24824.868   -25612.763   -14143.919    10248.757      5454.01   -5295.7331    77.087462 
    3100    1168.5865   -161.58212    1.0573617   -160.52476   -9341.7368    4.2539461    4.2539461    4.2539461   -9341.7368   -8364.0206    -18030.49   -1630.6999   -3996.6504    -1543.796   -2280.5972    76.979654 
    3200    858.85351   -161.30378    0.7771087   -160.52667    7498.0835     4.242036     4.242036     4.242036    7498.0835   -559.37024    4459.2978    18594.323   -11902.171    8994.0963    1808.0866    76.334886 
    3300    726.36112   -161.18894    0.6572268   -160.53172    13632.321    4.2424676    4.2424676    4.2424676    13632.321   -10185.174    14926.497    36155.641     9741.605    4927.4581    5882.9879    76.358187 
    3400    1097.1012   -161.52139    0.9926802   -160.52871   -10490.757    4.2597685    4.2597685    4.2597685   -10490.757   -13347.632   -7369.8406   -10754.797    9857.3162   -7824.8521   -966.53421    77.296173 
    3500     1023.428   -161.44504   0.92601919   -160.51902   -10128.813    4.2536777    4.2536777    4.2536777   -10128.813    16767.085   -24411.239   -22742.284    1562.0198    5293.9941    1282.3221    76.965082 
    3600    907.80814   -161.33847   0.82140388   -160.51706   -8206.7948    4.2421173    4.2421173    4.2421173   -8206.7948   -5423.8354    -12615.59   -6580.9596    12829.065   -3015.9384    8518.5411     76.33927 
    3700    1026.4315   -161.45487   0.92873681   -160.52613   -14659.493    4.2529142    4.2529142    4.2529142   -14659.493   -14461.547    -22939.83   -6577.1031    6517.8707   -2685.7533    13840.925    76.923646 
    3800    770.98893   -161.22161   0.69760699   -160.52401    9391.6037    4.2539979    4.2539979    4.2539979    9391.6037   -1321.9773    23062.728    6434.0607    2743.1077    18513.556    13435.403    76.982463 
    3900    503.16498   -160.97783   0.45527424   -160.52255    15284.478    4.2493857    4.2493857    4.2493857    15284.478   -28368.104    42679.742    31541.796    -5589.395    7629.8712    19154.423    76.732342 
    4000    800.17903   -161.24672    0.7240188    -160.5227   -1516.6988    4.2554827    4.2554827    4.2554827   -1516.6988   -22052.318    3635.0152    13867.207    1775.6637   -10697.976    8035.7077      77.0631 
    4100    1133.9672   -161.54759    1.0260374   -160.52155   -12336.713    4.2501585    4.2501585    4.2501585   -12336.713   -4391.4037   -35095.457    2476.7229   -29.241567   -5874.6983    11361.823    76.774213 
    4200    956.86338   -161.39241   0.86579009   -160.52662    8834.1801    4.2406895    4.2406895    4.2406895    8834.1801    32222.981   -33822.914    28102.473   -1447.5846    762.62478    12608.024    76.262215 
    4300    786.69359    -161.2477   0.71181689   -160.53588   -11718.886    4.2607335    4.2607335    4.2607335   -11718.886    19079.483   -30174.792   -24061.349   -4572.4436   -7849.6128   -3307.2773    77.348718 
    4400    1084.6152   -161.51617   0.98138261   -160.53478   -18325.913    4.2593643    4.2593643    4.2593643   -18325.913   -10437.346    2616.6787   -47157.071   -6116.5206    435.54803   -7569.5422    77.274172 
    4500    913.43851   -161.35954   0.82649836   -160.53304     13068.34    4.2388113    4.2388113    4.2388113     13068.34    43000.094    13053.207   -16848.279   -9762.4734   -2653.5718   -2574.9429     76.16093 
    4600    1044.5793   -161.47934   0.94515728   -160.53418    4818.8039    4.2376567    4.2376567    4.2376567    4818.8039    33732.921   -10049.723   -9226.7869   -15846.101    159.30341    -4899.782    76.098712 
    4700    1027.9655    -161.4685   0.93012477   -160.53838    2679.3527    4.2456754    4.2456754    4.2456754    2679.3527    29676.454   -17559.142   -4079.2535   -6091.6055    1728.1379    3100.8837    76.531522 
    4800    1113.1068   -161.54761    1.0071624   -160.54045   -2399.2031    4.2575415    4.2575415    4.2575415   -2399.2031     20553.55   -9890.5262   -17860.633    2154.4268   -4679.7997      2992.72    77.175006 
    4900    934.58875   -161.37699   0.84563554   -160.53135   -9099.6284     4.264115     4.264115     4.264115   -9099.6284    39831.643   -24894.701   -42235.827    8807.6949   -4179.6638   -2918.3751    77.533023 
    5000    820.41949   -161.27082   0.74233279   -160.52849    14059.821    4.2430641    4.2430641    4.2430641    14059.821      75525.7   -2560.7549   -30785.482    16638.172   -2907.1882    363.96498    76.390397 
    5100    1098.1796   -161.52839   0.99365594   -160.53473    15341.474    4.2344578    4.2344578    4.2344578    15341.474    62556.426    5035.8499   -21567.854    7495.2437   -2377.4068    10232.231    75.926506 
    5200    1164.7205   -161.59407    1.0538636    -160.5402   -13787.947    4.2524484    4.2524484    4.2524484   -13787.947    17893.952   -29112.984    -30144.81    1804.2789   -3027.8228    9535.8767    76.898374 
    5300    950.08663   -161.39616   0.85965835    -160.5365   -10641.978    4.2511901    4.2511901    4.2511901   -10641.978   -18822.979   -1700.7412   -11402.212   -2757.1976    569.14642    641.15484    76.830129 
    5400    1083.0675   -161.51186   0.97998222   -160.53188    -5612.583    4.2406362    4.2406362    4.2406362    -5612.583    -6949.487   -1093.6499    -8794.612   -5015.8589    5255.0677    1211.8161     76.25934 
    5500    924.21902   -161.37183   0.83625279   -160.53558   -1906.4549    4.2414461    4.2414461    4.2414461   -1906.4549    26389.372   -5161.8535   -26946.883    7667.1649   -526.28897    4385.8737    76.303045 
    5600    896.40983   -161.34725   0.81109045   -160.53615   -820.08608    4.2355925    4.2355925    4.2355925   -820.08608    2291.7763    4331.3996   -9083.4342    11941.458    27477.239   -1832.9134    75.987565 
    5700    636.44501   -161.11461   0.57586882   -160.53874    5951.5622    4.2374693    4.2374693    4.2374693    5951.5622    -36193.71    31224.532    22823.865    -65.26427    19465.638    3158.2876    76.088617 
    5800    688.99105   -161.16306   0.62341358   -160.53964    4216.0114    4.2492132    4.2492132    4.2492132    4216.0114   -42903.026    52316.054    3235.0063    2003.3845    17358.009    1511.0951    76.722997 
    5900    1010.8622   -161.44798    0.9146494   -160.53333   -2871.9412    4.2483237    4.2483237    4.2483237   -2871.9412   -2745.4432    18435.589    -24305.97   -3514.6705    26317.103    3315.7208    76.674827 
    6000    716.93838   -161.17967   0.64870091   -160.53097   -5812.2807    4.2424131    4.2424131    4.2424131   -5812.2807    16066.575   -15617.292   -17886.126    4188.3507    6779.3542    1618.4013    76.355244 
    6100    807.96604   -161.26449   0.73106465   -160.53342   -6807.5783    4.2391681    4.2391681    4.2391681   -6807.5783   -7382.6709   -24121.526    11081.461    15017.392    9514.5167   -4603.1239    76.180169 
    6200    899.95761   -161.35105   0.81430056   -160.53675    6679.0012    4.2413971    4.2413971    4.2413971    6679.0012     5245.497    768.28129    14023.225    10916.415    12370.009   -2447.8418    76.300396 
    6300    668.10508   -161.14261   0.60451552    -160.5381    5923.6967    4.2503591    4.2503591    4.2503591    5923.6967    920.19859    27883.014   -11032.123    14032.948    4398.6854   -7768.6922    76.785088 
    6400    519.23665   -161.00347   0.46981623   -160.53366    4432.5365    4.2557765    4.2557765    4.2557765    4432.5365    3034.6501      30075.2   -19812.241    13256.783     884.1091   -15085.012    77.079067 
    6500    601.89749     -161.083   0.54460949   -160.53839    19010.834    4.2473882    4.2473882    4.2473882    19010.834    65146.819    865.03014   -8979.3477    5598.1684   -9976.9467   -6990.9629    76.624188 
    6600    857.40272   -161.31657     0.775796   -160.54077    4168.0454    4.2407421    4.2407421    4.2407421    4168.0454    25616.864   -30331.033    17218.306    14435.377    1455.9692   -2120.0431    76.265057 
    6700     433.6045     -160.935   0.39233446   -160.54266    3594.4283    4.2409492    4.2409492    4.2409492    3594.4283    24883.976   -27798.273    13697.582      15146.7    495.08242   -4747.1027    76.276228 
    6800    894.10541   -161.35187   0.80900536   -160.54286   -10321.616    4.2491292    4.2491292    4.2491292   -10321.616   -5556.9452   -18769.203   -6638.6996   -8473.6819    297.55786   -10837.199    76.718447 
    6900    976.47799   -161.42531   0.88353781   -160.54178   -5563.8842    4.2591837    4.2591837    4.2591837   -5563.8842     18089.37    -3914.592    -30866.43    1361.6881    1316.9869    -8675.943    77.264341 
    7000    899.43701   -161.34776   0.81382951   -160.53393   -1751.2023    4.2537422    4.2537422    4.2537422   -1751.2023    3664.7496    11538.082   -20456.438   -2882.1023    605.51105   -10028.689    76.968586 
    7100    1016.7088   -161.44876   0.91993953   -160.52882     2152.311    4.2359442    4.2359442    4.2359442     2152.311   -228.11867     13481.37   -6796.3181   -2269.9157    7597.7301    1284.2074    76.006493 
    7200     1077.304   -161.50829   0.97476732   -160.53353    4918.3535    4.2376655    4.2376655    4.2376655    4918.3535   -11322.876    31254.022   -5176.0854     6661.118    7386.1658    10041.086    76.099186 
    7300    1136.2435   -161.56108     1.028097   -160.53299   -14491.164    4.2517558    4.2517558    4.2517558   -14491.164   -35184.718      -3325.6   -4963.1729   -12691.288   -2062.4699    6873.0436    76.860809 
    7400     802.4126   -161.25431   0.72603978   -160.52827   -10773.234    4.2549215    4.2549215    4.2549215   -10773.234   -19457.967   -9485.9157   -3375.8181   -519.38645   -4437.7933    11652.702    77.032616 
    7500    706.19285   -161.17197   0.63897813   -160.53299    10189.461    4.2500155    4.2500155    4.2500155    10189.461   -16627.266     34722.41    12473.239    16116.854   -9237.4216    16342.298    76.766467 
    7600    1164.4222     -161.587    1.0535937   -160.53341    4355.9195    4.2371864    4.2371864    4.2371864    4355.9195    9727.0093    7646.1575   -4305.4085   -3588.2365   -9818.1646    16665.619    76.073379 
    7700      1030.33   -161.46453   0.93226427   -160.53227   -10522.473    4.2367131    4.2367131    4.2367131   -10522.473    9738.4639   -13242.512   -28063.369    5612.9601    6101.5437    17190.936    76.047891 
    7800    858.91691   -161.31151   0.77716607   -160.53434   -21415.057    4.2526709    4.2526709    4.2526709   -21415.057   -35282.192   -2505.1865   -26457.793    424.25045    3524.0918    4186.6625    76.910444 
    7900    1116.8733   -161.54097    1.0105705    -160.5304   -8455.0295    4.2510903    4.2510903    4.2510903   -8455.0295   -24733.738    -10719.35    10087.999   -13427.546   -1314.5343   -367.79751    76.824723 
    8000    1003.0408    -161.4364   0.90757239   -160.52883    20350.804    4.2455535    4.2455535    4.2455535    20350.804     5478.804    30417.745    25155.864     5105.108   -7764.4143    10370.982    76.524931 
    8100    1062.2061   -161.49024   0.96110642   -160.52914    2515.3607    4.2441022    4.2441022    4.2441022    2515.3607   -16453.352    25059.281   -1059.8465    3264.9113   -9066.7902     11888.49     76.44648 
    8200    1161.6986   -161.58221    1.0511293   -160.53108   -16516.772    4.2393371    4.2393371    4.2393371   -16516.772   -16473.261   -20426.827   -12650.229    8630.9988   -808.10916    14875.749    76.189275 
    8300    1258.1679   -161.67555    1.1384168   -160.53714   -19261.341    4.2486887    4.2486887    4.2486887   -19261.341   -26320.058   -14207.795   -17256.171    11700.009   -533.91469     2966.738    76.694593 
    8400    1211.3213    -161.6322     1.096029   -160.53617   -6788.1169    4.2521645    4.2521645    4.2521645   -6788.1169   -1725.2412    -9522.034   -9117.0755    -7434.575    10047.923   -1146.3375    76.882973 
    8500    983.88919   -161.42389   0.89024362   -160.53364    10507.226    4.2392593    4.2392593    4.2392593    10507.226    5460.6003    6904.4034    19156.674    7414.9182    10009.387   -7218.6346    76.185083 
    8600    1133.5674   -161.56113    1.0256756   -160.53545   -9156.6435    4.2448388    4.2448388    4.2448388   -9156.6435   -31681.988    17577.407   -13365.349   -1634.7841    1900.5128    2965.4834    76.486291 
    8700    1270.7294   -161.68182    1.1497827   -160.53204   -24822.561    4.2525758    4.2525758    4.2525758   -24822.561    -38930.78   -6223.8867   -29313.016   -5231.6758   -3713.0437    2527.3182    76.905288 
    8800    963.38315   -161.40231   0.87168932   -160.53062   -171.10459    4.2428766    4.2428766    4.2428766   -171.10459    538.75131    6593.0257   -7645.0908    10926.677   -392.04711   -18774.959    76.380273 
    8900    806.97379   -161.26376   0.73016684    -160.5336    4692.9657    4.2456279    4.2456279    4.2456279    4692.9657    4013.4075    8976.1842    1089.3055   -4537.1842    8466.1848   -5068.3926    76.528953 
    9000    983.82969    -161.4236   0.89018978   -160.53341   -4406.8001     4.244278     4.244278     4.244278   -4406.8001   -12983.012   -13095.486    12858.098    3046.2801    18275.103    1430.2955     76.45598 
    9100      983.039   -161.42326   0.88947434   -160.53378    6883.2193    4.2308733    4.2308733    4.2308733    6883.2193   -7614.6131    14830.196    13434.076    6949.2682    20937.017   -14951.143    75.733854 
    9200    1028.8573   -161.47564   0.93093169    -160.5447   -20596.984    4.2480296    4.2480296    4.2480296   -20596.984   -39524.045   -19493.115   -2773.7928   -6030.9138     9523.838   -1552.8142    76.658904 
    9300    697.17918   -161.17171   0.63082237   -160.54089   -4945.2138    4.2626469    4.2626469    4.2626469   -4945.2138   -51254.208    20145.321    16273.246    7697.9826   -680.89922    4768.9578    77.452968 
    9400    923.68127   -161.36986   0.83576622    -160.5341    12000.423    4.2462817    4.2462817    4.2462817    12000.423   -9753.2215    33469.468    12285.023    884.29531   -9625.6826   -12119.272    76.564318 
    9500    804.89334   -161.25908   0.72828441   -160.53079     4307.926    4.2309234    4.2309234    4.2309234     4307.926   -3459.6785    853.39076    15530.066   -9694.7655   -8586.3799    3712.8202    75.736543 
    9600    723.59838   -161.18977   0.65472702   -160.53504    -7476.593    4.2349944    4.2349944    4.2349944    -7476.593   -14310.937    -13571.13    5452.2886   -465.18958    2772.3875     1180.291    75.955376 
    9700    897.27497   -161.35035   0.81187325   -160.53847   -12712.113    4.2545885    4.2545885    4.2545885   -12712.113   -23490.924    11628.093   -26273.507   -2378.5712    2274.5007   -15894.086    77.014534 
    9800    421.36027   -160.91971   0.38125562   -160.53846    25705.532    4.2591167    4.2591167    4.2591167    25705.532    17612.257    63865.076   -4360.7368     6220.576   -4043.2289   -262.46128    77.260697 
    9900    679.96979   -161.14713   0.61525096   -160.53188    8642.4702     4.239923     4.239923     4.239923    8642.4702    18365.244    7445.7045    116.46259   -757.51024   -10621.952   -13391.744    76.220869 
   10000    622.15756   -161.09469   0.56294123   -160.53175   -2325.6514    4.2281575    4.2281575    4.2281575   -2325.6514   -1485.2563   -1440.5056   -4051.1924   -6633.0906   -7652.7928    9000.1031    75.588109 
   10100    858.44912   -161.31392    0.7767428   -160.53718   -16431.309    4.2407178    4.2407178    4.2407178   -16431.309   -19067.915   -6539.0077   -23687.003     5926.328   -7142.2716    14789.959    76.263742 
   10200    924.67644   -161.37238   0.83666668   -160.53571   -8675.7796     4.255479     4.255479     4.255479   -8675.7796   -24188.895    34617.238   -36455.681   -9070.4138    2525.5733    3278.4433    77.062904 
   10300    887.40373   -161.33528   0.80294155   -160.53234    3503.4986    4.2536762    4.2536762    4.2536762    3503.4986    9867.6851    22982.682   -22339.872    -6560.226    6077.9044    6697.4868       76.965 
   10400    838.07613   -161.28857   0.75830889   -160.53026    4808.0253    4.2433569    4.2433569    4.2433569    4808.0253    19632.677   -13623.921    8415.3202   -4821.7374   -1404.0408    -3530.587    76.406212 
   10500    995.45409   -161.42881   0.90070778    -160.5281    6822.1114    4.2377679    4.2377679    4.2377679    6822.1114    16139.457    1508.9807    2817.8968   -10057.153    850.13181   -3822.9706    76.104701 
   10600      1006.57   -161.44371   0.91076573   -160.53294   -425.42082    4.2442474    4.2442474    4.2442474   -425.42082    2612.4121   -7345.8378    3457.1632    3496.5906   -3268.1374   -2011.8425    76.454327 
   10700    1107.3433   -161.53352    1.0019474   -160.53157   -22208.709    4.2583846    4.2583846    4.2583846   -22208.709   -46255.562    -5010.537   -15360.027    2709.2687   -3047.4985   -1755.4939    77.220865 
   10800    1158.4281   -161.57391    1.0481701   -160.52574   -17439.136    4.2573808    4.2573808    4.2573808   -17439.136   -34403.741    7431.7876   -25345.455    8179.9737   -2770.8785    3999.6457    77.166268 
   10900    935.15088   -161.37125   0.84614417    -160.5251   -2192.4369    4.2457755    4.2457755    4.2457755   -2192.4369    51.944112   -19864.342    13235.087     14837.96    7525.4252   -1523.0446    76.536939 
   11000    877.72556   -161.32641   0.79418453   -160.53223    4547.6774    4.2380061    4.2380061    4.2380061    4547.6774    577.60361   -14200.206    27265.634    9619.1375    10979.548    10868.654    76.117539 
   11100    750.99767   -161.21782   0.67951847    -160.5383    11806.859     4.243694     4.243694     4.243694    11806.859    8168.6541   -5420.3489    32672.272    10011.718    11305.675   -1819.1285    76.424427 
   11200    685.38877   -161.15854   0.62015416   -160.53839    5644.2624    4.2562551    4.2562551    4.2562551    5644.2624    31216.037   -12118.542   -2164.7077   -848.83208    11428.271   -8719.0924     77.10507 
   11300    717.29802   -161.18517   0.64902632   -160.53614    -52.33813    4.2543859    4.2543859    4.2543859    -52.33813    34320.538   -8832.9286   -25644.623    -3324.178     4662.461    4328.2884    77.003529 
   11400    721.46741   -161.18669   0.65279887   -160.53389    8033.6641    4.2407356    4.2407356    4.2407356    8033.6641    14933.753    15875.939   -6708.6996     11184.77    4012.2551   -714.31097    76.264702 
   11500     770.2972    -161.2278   0.69698109   -160.53082    723.01636      4.24099      4.24099      4.24099    723.01636   -16060.944    471.03252    17758.961     14036.08    1077.2752   -6554.4255    76.278432 
   11600    1045.7482   -161.47515   0.94621498   -160.52893   -14826.972    4.2492878    4.2492878    4.2492878   -14826.972   -8687.6898    -34092.42   -1700.8046    13882.795   -6524.1415   -1476.5395    76.727038 
   11700    873.79315   -161.32332    0.7906264   -160.53269    4528.4875    4.2521988    4.2521988    4.2521988    4528.4875    23032.436   -24622.157    15175.183      12757.9   -4132.0893   -4135.2246    76.884835 
   11800    812.76758   -161.27259   0.73540919   -160.53718    4690.3588    4.2554875    4.2554875    4.2554875    4690.3588    8739.3587   -22969.926    28301.644    6974.7477    4633.1284    1669.9145    77.063363 
   11900    1147.3925    -161.5715    1.0381848   -160.53332   -21582.785    4.2507577    4.2507577    4.2507577   -21582.785   -30610.109   -30259.673   -3878.5736   -1290.9542    6098.4793   -2334.0484     76.80669 
   12000    1217.7036   -161.63266    1.1018038   -160.53085   -23841.788     4.250734     4.250734     4.250734   -23841.788   -22816.491    -35577.56   -13131.312    -17370.23    2505.0783   -5378.8654    76.805405 
   12100     1017.852   -161.45727   0.92097386    -160.5363   -19983.002    4.2639235    4.2639235    4.2639235   -19983.002   -9782.3979   -23413.202   -26753.407   -13664.622    3845.1824   -3250.2684    77.522581 
   12200    1089.2707    -161.5208   0.98559504    -160.5352   -12298.554    4.2490707    4.2490707    4.2490707   -12298.554   -13326.364   -7497.9485    -16071.35   -7280.7538    4572.5267    6819.4885    76.715277 
   12300    996.37845   -161.43547   0.90154416   -160.53392    8719.4704     4.228799     4.228799     4.228799    8719.4704    1240.1816     2338.684    22579.546   -10492.905    726.42688   -2475.4405    75.622516 
   12400    1216.2356   -161.64914    1.1004755   -160.54867   -25779.455    4.2540441    4.2540441    4.2540441   -25779.455   -21633.191   -34163.569   -21541.605     -4464.97    1529.6222    3977.7257    76.984975 
   12500    895.12772   -161.35133   0.80993038    -160.5414   -21719.713    4.2675176    4.2675176    4.2675176   -21719.713     13381.61   -33366.889   -45173.862   -7789.4903   -8136.5976   -903.42843    77.718776 
   12600    882.29092   -161.33108   0.79831537   -160.53276   -7254.4101    4.2426236    4.2426236    4.2426236   -7254.4101   -10741.843    9126.5335   -20147.921    -6005.942   -15818.564   -10316.317     76.36661 
   12700    856.26212   -161.31139   0.77476396   -160.53662    6703.3251    4.2361934    4.2361934    4.2361934    6703.3251    13514.277    21194.375   -14598.677   -10500.693   -11654.383    -6181.987    76.019907 
   12800    803.19817   -161.26574   0.72675059   -160.53899    2961.9356    4.2526296    4.2526296    4.2526296    2961.9356    10556.069    15180.746   -16851.009   -14362.404   -2840.0445    3171.7599    76.908204 
   12900     381.5287   -160.88617   0.34521518   -160.54096    21455.541    4.2509751    4.2509751    4.2509751    21455.541    43798.718    19595.696    972.20788   -4649.4922   -2751.0971   -2199.8196    76.818477 
   13000    628.53133    -161.1129   0.56870835    -160.5442    15657.653    4.2471995    4.2471995    4.2471995    15657.653    34998.525    9686.1816    2288.2531   -12859.196   -3469.8446   -7241.3033    76.613972 
   13100     697.2438   -161.17468   0.63088084   -160.54379   -5757.9932    4.2488778    4.2488778    4.2488778   -5757.9932    24780.987   -2137.4316   -39917.535   -9119.5221   -12991.044   -12109.748    76.704829 
   13200    754.69729   -161.21933   0.68286597   -160.53646   -4786.7569     4.242712     4.242712     4.242712   -4786.7569    12298.901    5533.3105   -32192.482   -2216.3496   -12526.969    -28599.22    76.371382 
   13300    843.02108   -161.29609   0.76278319   -160.53331   -2292.3159    4.2506181    4.2506181    4.2506181   -2292.3159    16630.772   -9968.9532   -13538.767   -2271.5168   -11300.155    -14137.45    76.799121 
   13400    919.82981   -161.36113   0.83228134   -160.52885    750.95032    4.2555102    4.2555102    4.2555102    750.95032    5393.0378   -16020.484    12880.297    12728.023   -7718.0706   -1677.7365    77.064599 
   13500    848.79449   -161.29575   0.76800709   -160.52774    10185.487    4.2463709    4.2463709    4.2463709    10185.487    -8957.408    3366.9492    36146.919    2824.2193   -9635.2238   -2429.8064    76.569142 
   13600    767.45344   -161.22959     0.694408   -160.53518   -8874.3408    4.2483711    4.2483711    4.2483711   -8874.3408   -25606.002    5270.5853   -6287.6054   -590.03367    -5735.187    53.877946    76.677393 
   13700    719.80694   -161.18838   0.65129644   -160.53709   -8631.5521    4.2500813    4.2500813    4.2500813   -8631.5521   -2829.9854    464.89923    -23529.57   -6658.7014   -638.63939   -15370.068    76.770029 
   13800    909.50204   -161.35909   0.82293656   -160.53615    17810.355    4.2434163    4.2434163    4.2434163    17810.355    45499.764    21009.777   -13078.476   -16763.613   -439.74383   -5011.1146    76.409425 
   13900    803.27151    -161.2669   0.72681694   -160.54009    9606.8743    4.2544911    4.2544911    4.2544911    9606.8743    38341.176   -10928.764    1408.2105   -6267.0996     483.6084   -8236.8121    77.009244 
   14000    579.37781   -161.06069   0.52423322   -160.53645    4468.9122    4.2566197    4.2566197    4.2566197    4468.9122    23638.784   -29577.286    19345.239    2034.6836     6156.797   -10024.752    77.124889 
   14100    1012.8447   -161.44577   0.91644321   -160.52932     2516.772    4.2419704    4.2419704    4.2419704     2516.772    41612.321   -24113.089   -9948.9165    5699.1184   -3605.2361   -2876.7077    76.331343 
   14200    1073.3607   -161.50559   0.97119928   -160.53439   -10088.606    4.2459621    4.2459621    4.2459621   -10088.606    12041.177   -9949.0482   -32357.948    18602.835   -8035.0035   -16526.798    76.547029 
   14300    877.58846   -161.32459   0.79406048   -160.53053   -18315.517    4.2560411    4.2560411    4.2560411   -18315.517   -16458.391   -17163.035   -21325.126    480.08412   -3361.5052   -4757.0014    77.093444 
   14400    1002.7034   -161.43236   0.90726714    -160.5251   -6564.2662    4.2513703    4.2513703    4.2513703   -6564.2662   -14754.756   -10416.505    5478.4626   -5728.5042   -4884.3262    13023.743    76.839904 
   14500    1078.1465   -161.50235   0.97552962   -160.52682    13166.843    4.2450516    4.2450516    4.2450516    13166.843   -10305.218    12381.732    37424.013    2953.6584    7695.7442    988.37263    76.497797 
   14600    942.54053   -161.38496   0.85283048   -160.53213    7545.2899    4.2485998    4.2485998    4.2485998    7545.2899    3489.3247    15372.087    3774.4577    -15108.95    12423.093    5844.7302    76.689779 
   14700    910.13808   -161.35271   0.82351206    -160.5292    -19869.93     4.253359     4.253359     4.253359    -19869.93    6326.4706   -29196.485   -36739.777   -11302.094    1230.7419   -782.94279    76.947785 
   14800    1076.4159   -161.49939    0.9739637   -160.52543   -24793.785    4.2533263    4.2533263    4.2533263   -24793.785    11590.963   -51118.407   -34853.912    2776.1331   -4713.6799    -14499.84     76.94601 
   14900    1036.9268   -161.46838   0.93823316   -160.53015   -4194.6101    4.2508661    4.2508661    4.2508661   -4194.6101    26701.295   -28988.483   -10296.643   -9427.8288   -10397.335   -3247.2977    76.812569 
   15000    1012.0904   -161.44723   0.91576064   -160.53147   -4070.7706    4.2511391    4.2511391    4.2511391   -4070.7706   -16046.856    -18482.41    22316.954   -2151.7446   -5185.0731    4882.8135    76.827369 
   15100    977.10323   -161.41451   0.88410353   -160.53041    4833.3421    4.2452342    4.2452342    4.2452342    4833.3421   -15423.046    4896.7092    25026.363    8425.4846    6177.4372    12792.972    76.507666 
   15200    1176.2481   -161.60043     1.064294   -160.53614    3505.5303    4.2470021    4.2470021    4.2470021    3505.5303    4550.2311    11741.954   -5775.5946    -1957.512    11939.168    8760.5228    76.603292 
   15300     1148.574   -161.57803    1.0392539   -160.53878   -14692.636    4.2559611    4.2559611    4.2559611   -14692.636   -20690.795    9802.4433   -33189.556    3001.0678    6340.3765    5023.1873    77.089093 
   15400    733.93344    -161.1987    0.6640784   -160.53462    12562.218    4.2471402    4.2471402    4.2471402    12562.218    13946.037    36342.836   -12602.219   -4612.4422   -3769.9216   -2972.9054    76.610761 
   15500    927.57332    -161.3717   0.83928784   -160.53241    14997.081    4.2456172    4.2456172    4.2456172    14997.081    4628.7603    56497.874    -16135.39    -13036.13   -9144.9032    686.10287    76.528375 
   15600    1076.6963    -161.5088   0.97421747   -160.53459    3915.8297    4.2466913    4.2466913    4.2466913    3915.8297   -6211.9869    59573.593   -41614.117   -8560.0159    7244.1105    1031.5534    76.586474 
   15700    756.08454   -161.22343   0.68412118    -160.5393    9648.9499    4.2425574    4.2425574    4.2425574    9648.9499    3101.2538    63620.904   -37775.308   -10584.206    11818.719    9052.2886    76.363035 
   15800    961.52471   -161.40972   0.87000776   -160.53971    -8876.392    4.2449222    4.2449222    4.2449222    -8876.392   -31463.662    26487.896   -21653.409    3112.2381    7208.0529    16492.752    76.490802 
   15900    1077.2613   -161.51712   0.97472867   -160.54239   -6019.3054    4.2543719    4.2543719    4.2543719   -6019.3054    4253.3521   -12688.763   -9622.5054    14161.315   -3334.4257    506.17261    77.002771 
   16000    1224.0908   -161.64545    1.1075831   -160.53787   -12807.107    4.2589074    4.2589074    4.2589074   -12807.107     3084.066   -13641.752   -27863.636    2787.0621   -7589.7376   -106.45266    77.249306 
   16100    1134.7366   -161.55641    1.0267335   -160.52968    1214.7483    4.2377406    4.2377406    4.2377406    1214.7483    193.87474   -2946.7479    6397.1181    6349.4064   -9717.6578   -9077.8899    76.103235 
   16200    918.43799   -161.36413     0.831022    -160.5331    4545.9885    4.2366448    4.2366448    4.2366448    4545.9885    26827.132   -8281.7237   -4907.4426    6638.4512    -7024.892    2133.4985    76.044213 
   16300    985.49461   -161.42679   0.89169624   -160.53509   -16876.203    4.2533476    4.2533476    4.2533476   -16876.203   -6216.4603   -24818.991   -19593.157   -7961.6437   -3896.9034     8229.199    76.947163 
   16400    926.96567   -161.37025   0.83873802   -160.53151    -5189.595    4.2474376    4.2474376    4.2474376    -5189.595   -3921.9875    4167.6663   -15814.464    7559.5876   -2511.5652     -703.767    76.626857 
   16500    482.83761   -160.97425   0.43688162   -160.53736    9193.6136     4.248381     4.248381     4.248381    9193.6136    26836.215    23114.334   -22369.708   -1507.2746    5370.6095   -243.51988     76.67793 
   16600    725.93512    -161.1955   0.65684135   -160.53866    6771.0538    4.2476482    4.2476482    4.2476482    6771.0538    17126.152    17382.099    -14195.09   -8430.2779   -2088.5985   -13640.166    76.638256 
   16700    984.20716   -161.42591   0.89053132   -160.53538     12278.06    4.2390042    4.2390042    4.2390042     12278.06    32359.147    16751.888   -12276.855    10184.313   -4239.1768   -6090.1643    76.171329 
   16800    984.24711   -161.43004   0.89056746   -160.53947   -17294.659    4.2525928    4.2525928    4.2525928   -17294.659   -5793.8836    -30082.12   -16007.974    5866.7497    858.75933   -6483.6789    76.906209 
   16900    825.41924   -161.28689   0.74685668   -160.54003    -15818.56    4.2511305    4.2511305    4.2511305    -15818.56    10261.174   -49906.421   -7810.4321    9463.2332    8.3519986   -954.06205    76.826899 
   17000    1318.8235   -161.72866    1.1932992   -160.53536    -6866.929    4.2416348    4.2416348    4.2416348    -6866.929   -5298.7336   -5373.1054   -9928.9482     14411.31    3632.4707    8536.8028    76.313228 
   17100    1135.0411   -161.56266    1.0270091   -160.53565   -16683.269    4.2512201    4.2512201    4.2512201   -16683.269   -36358.335    22144.051   -35835.522    9430.9895    18071.406   -3572.7764    76.831761 
   17200    833.82972   -161.28631   0.75446666   -160.53185   -4376.9228    4.2377871    4.2377871    4.2377871   -4376.9228   -33165.095    24250.209   -4215.8816    2202.0379    16033.332   -4470.5516     76.10574 
   17300    757.29386   -161.22336    0.6852154   -160.53814    12756.299    4.2383693    4.2383693    4.2383693    12756.299    5113.0714    11895.954     21259.87    10905.405    10037.928   -6102.6064    76.137109 
   17400    830.71108   -161.28771   0.75164485   -160.53607    -190.1021    4.2617756    4.2617756    4.2617756    -190.1021    6467.9596    12373.237   -19411.503   -10487.825    7362.0555   -3430.8849    77.405485 
   17500    888.87167   -161.33429   0.80426977   -160.53002    15386.867    4.2427814    4.2427814    4.2427814    15386.867    7693.1008    23578.898    14888.603   -10810.441    13514.793    6311.0699    76.375131 
   17600    678.09319   -161.14689   0.61355297   -160.53334    13708.449    4.2343838    4.2343838    4.2343838    13708.449    13484.244    23982.126    3658.9788   -2753.6363     17817.56   -4338.1853    75.922526 
   17700     829.0164   -161.28928   0.75011146   -160.53917   -26934.684    4.2554163    4.2554163    4.2554163   -26934.684   -15320.737   -22856.958   -42626.358   -1898.5593    25908.506    2216.4573    77.059497 
   17800    1129.3316   -161.55552     1.021843   -160.53368   -10641.669     4.248027     4.248027     4.248027   -10641.669   -3969.1161   -13513.943   -14441.948    17829.174    5927.8884   -566.67011    76.658765 
   17900    840.15768   -161.29758   0.76019233   -160.53739     10296.11    4.2441358    4.2441358    4.2441358     10296.11    46376.187   -10765.348   -4722.5098    16606.229    1014.6571   -5307.8479    76.448295 
   18000    797.72241   -161.26223     0.721796   -160.54044   -1565.4851    4.2536968    4.2536968    4.2536968   -1565.4851    6730.0408   -19611.918    8185.4219    10858.888    -813.0359    4166.7224    76.966118 
   18100     1091.994   -161.52322   0.98805915   -160.53516    696.20878    4.2471059    4.2471059    4.2471059    696.20878   -19463.931    11278.653    10273.904    7582.3193   -5418.7172   -248.15442    76.608907 
   18200      1082.61   -161.51404   0.97956832   -160.53448    1595.1662    4.2481739    4.2481739    4.2481739    1595.1662   -17910.637    17408.922    5287.2141    3639.3408    4667.6396    6263.2289    76.666716 
   18300    969.54937   -161.40707   0.87726864    -160.5298   -28463.325    4.2556838    4.2556838    4.2556838   -28463.325   -20669.706   -32225.849   -32494.422    2470.7297    7846.9711    5251.7185    77.074029 
   18400    861.66173   -161.30694   0.77964964   -160.52729   -5537.3027    4.2468446    4.2468446    4.2468446   -5537.3027    43246.466     -29033.7   -30824.673   -268.01979    703.34579    8199.5703    76.594767 
   18500    1222.6271   -161.63395    1.1062587   -160.52769   -7111.7703    4.2414062    4.2414062    4.2414062   -7111.7703     26509.58   -12258.044   -35586.846    1308.9481   -9716.2931    15200.375    76.300892 
   18600    906.54743   -161.35043   0.82026316   -160.53016    3307.3287    4.2388906    4.2388906    4.2388906    3307.3287    -6024.653    12665.752    3280.8871    2172.8277   -13022.971    7121.9554    76.165205 
   18700    493.06058   -160.97939   0.44613157   -160.53326    2737.8631    4.2452636    4.2452636    4.2452636    2737.8631   -4255.8468    -5265.035    17734.471   -4573.3629   -14848.235    10672.436     76.50926 
   18800    976.73477   -161.41357   0.88377015    -160.5298   -837.96241    4.2502609    4.2502609    4.2502609   -837.96241    16492.803     4580.999   -23587.689   -3886.8156   -18236.429    15398.726    76.779765 
   18900    884.17471   -161.33473   0.80001986   -160.53471    25130.335    4.2415442    4.2415442    4.2415442    25130.335    84663.508    18376.436   -27648.941    5468.8478   -13316.648    11228.083     76.30834 
   19000    866.98463   -161.32247   0.78446591     -160.538    5368.8134    4.2352013    4.2352013    4.2352013    5368.8134    27707.687   -4228.4854   -7372.7619   -1109.1102   -9300.0716    12526.497     75.96651 
   19100    915.48097   -161.36538   0.82834642   -160.53704   -29755.447    4.2456523    4.2456523    4.2456523   -29755.447   -20290.363   -34549.675   -34426.305   -5906.2988   -8327.8712    150.62981    76.530274 
   19200    1338.6126   -161.74209    1.2112048   -160.53088   -27598.793    4.2491052    4.2491052    4.2491052   -27598.793   -32980.808    -11499.41   -38316.161   -6931.5905   -2484.0364   -9920.1701    76.717148 
   19300     1197.969   -161.61216    1.0839476   -160.52821   -13058.551    4.2483911    4.2483911    4.2483911   -13058.551   -7986.5574    5161.4956   -36350.592   -8546.1964    2359.9328    -6914.951    76.678476 
   19400     857.3951   -161.30639   0.77578911    -160.5306    12626.307    4.2404493    4.2404493    4.2404493    12626.307    24712.572     6617.468    6548.8794   -3930.3905    870.18566   -2702.6045    76.249258 
   19500    921.76158   -161.36888   0.83402925   -160.53485    27396.546     4.238387     4.238387     4.238387    27396.546    37536.271    11311.949    33341.418    3559.9269     -2077.11    2772.5905    76.138061 
   19600    783.01796   -161.24503   0.70849111   -160.53654    8850.6484    4.2521509    4.2521509    4.2521509    8850.6484    8876.3221    19350.427   -1674.8045     10599.49   -4033.4657   -3020.7272    76.882236 
   19700    728.90724   -161.18657   0.65953059   -160.52704   -14816.311    4.2521445    4.2521445    4.2521445   -14816.311    -18230.57   -8786.5923   -17431.772    14603.821   -246.76021   -10203.227    76.881891 
   19800    690.07279   -161.15035   0.62439236   -160.52596   -6567.2815     4.244545     4.244545     4.244545   -6567.2815    3779.7863   -22604.033   -877.59835    12105.476   -7645.9765    5934.3789    76.470411 
   19900    724.31712   -161.19287   0.65537735   -160.53749    1742.4244    4.2491473    4.2491473    4.2491473    1742.4244    18181.713   -23249.593    10295.153    8118.2031    3712.3349    1826.0953     76.71943 
   20000    848.63415   -161.30715   0.76786201   -160.53929   -5600.9105    4.2417405    4.2417405    4.2417405   -5600.9105   -27753.207   -22204.566    33155.042    5695.4764   -1808.2891   -8518.3704    76.318932 
   20100    504.12355   -160.99776   0.45614159   -160.54162    8188.1272    4.2362825    4.2362825    4.2362825    8188.1272   -8893.7545    8884.2313    24573.905    5731.3316   -848.86202   -13574.355    76.024706 
   20200    764.35956   -161.23532   0.69160859   -160.54371   -11775.865    4.2566426    4.2566426    4.2566426   -11775.865   -25240.009    4907.6318   -14995.217     7918.637    25.145447   -16448.131    77.126134 
   20300    883.85404   -161.33754   0.79972971   -160.53781   -6280.8695    4.2530876    4.2530876    4.2530876   -6280.8695    1094.8772    10574.393   -30511.879    15705.488    1864.2921    2122.1931    76.933055 
   20400    783.65736   -161.23632   0.70906964   -160.52725    6073.2935    4.2414794    4.2414794    4.2414794    6073.2935    12713.746   -10235.563    15741.698     17147.26   -4875.1172    12902.293    76.304841 
   20500    963.47727   -161.40106   0.87177449   -160.52929     252.1425    4.2426223    4.2426223    4.2426223     252.1425     23448.26    -38755.63    16063.798    19182.991    5647.7749    5083.8948    76.366538 
   20600      1141.36   -161.56454    1.0327265   -160.53181    4816.2121      4.24138      4.24138      4.24138    4816.2121    33006.925   -13863.137   -4695.1521    12578.344    1949.3009    10575.791    76.299478 
   20700    1184.1152   -161.60721    1.0714123    -160.5358   -2374.7482    4.2462212    4.2462212    4.2462212   -2374.7482    10319.848     5680.254   -23124.347    1955.6604    -321.8491     1618.366    76.561044 
   20800    1027.7506   -161.46277   0.92993032   -160.53284   -14568.412    4.2522595    4.2522595    4.2522595   -14568.412    4127.7928   -27907.256   -19925.772   -738.19204   -6258.8841    -1455.906    76.888126 
   20900    1201.2313   -161.61281    1.0868993   -160.52592   -6863.3261    4.2380314    4.2380314    4.2380314   -6863.3261    -434.7862   -6177.3447   -13977.847   -6375.6988   -9637.1429   -6822.3604    76.118902 
   21000    1092.4467   -161.51501   0.98846875   -160.52654   -1934.1741    4.2362373    4.2362373    4.2362373   -1934.1741    9921.0174    4909.7977   -20633.337   -2249.1548    -3606.277   -9762.8736    76.022274 
   21100    868.72113    -161.3171   0.78603714   -160.53106    -6308.456    4.2458126    4.2458126    4.2458126    -6308.456    21539.563   -13651.718   -26813.213   -9790.7098   -11360.827   -4723.0645    76.538946 
   21200    741.44287   -161.20244   0.67087309   -160.53156    7414.4944    4.2449335    4.2449335    4.2449335    7414.4944    24388.618   -10556.581    8411.4462   -11078.871   -3445.6971   -1787.0791    76.491411 
   21300    699.37485   -161.16601   0.63280906    -160.5332    10747.055    4.2432926    4.2432926    4.2432926    10747.055   -7050.8133    9262.9733    30029.006   -3715.7577   -11608.832    4288.5319    76.402742 
   21400    790.03537   -161.25077    0.7148406   -160.53593   -6848.3394    4.2401165    4.2401165    4.2401165   -6848.3394   -30731.297     19966.45   -9780.1716   -9319.2536   -21830.852   -1230.7434    76.231306 
   21500    495.40571   -160.98658    0.4482535   -160.53833   -4567.7453     4.238639     4.238639     4.238639   -4567.7453    3952.9885   -2186.6342    -15469.59    -8550.758    -10038.42   -16817.688    76.151647 
   21600    485.21242   -160.97563    0.4390304    -160.5366    3065.4321    4.2452261    4.2452261    4.2452261    3065.4321    47678.914   -25288.838    -13193.78     -4528.39    -5366.608   -14377.758    76.507229 
   21700    775.96848     -161.238   0.70211259   -160.53589    15374.512    4.2439189    4.2439189    4.2439189    15374.512    23530.469   -15042.471    37635.538   -8486.2598   -4509.0953   -8458.6021    76.436576 
   21800    610.08573   -161.09199   0.55201839   -160.53997    24459.519    4.2383563    4.2383563    4.2383563    24459.519    1806.7891    16210.727    55361.042   -7402.1603    5198.0263    -3510.899    76.136407 
   21900    645.00643   -161.12374   0.58361537   -160.54013   -7583.1522    4.2477803    4.2477803    4.2477803   -7583.1522   -11483.739    -10842.58   -423.13711   -8298.6663   -3537.2903   -3840.6734     76.64541 
   22000    871.15981   -161.32506   0.78824371   -160.53682   -13594.712    4.2456718    4.2456718    4.2456718   -13594.712    7298.1116    -26395.29   -21686.956   -10968.112    6016.1145   -16380.562    76.531332 
   22100    1102.0158   -161.53024   0.99712706   -160.53312   -16329.277    4.2397851    4.2397851    4.2397851   -16329.277    862.20158   -17997.625   -31852.409   -1553.8669    7274.3703   -16316.066    76.213433 
   22200    827.89876   -161.28065    0.7491002   -160.53155   -6417.3136    4.2440454    4.2440454    4.2440454   -6417.3136   -16900.672   -9315.9228     6964.654   -3753.7811    6599.6802   -19394.346    76.443411 
   22300    965.53946   -161.40582    0.8736404   -160.53218    6796.3879    4.2402113    4.2402113    4.2402113    6796.3879    -77.18741    2106.8424    18359.509     2953.642    2312.2488   -13995.646     76.23642 
   22400    939.65536   -161.38656   0.85021992   -160.53634    17413.905    4.2448668    4.2448668    4.2448668    17413.905    5260.3079    27922.006      19059.4    421.13201    1311.8709   -7098.3227    76.487807 
   22500    1121.0112   -161.54369    1.0143145   -160.52938   -7188.0858    4.2546482    4.2546482    4.2546482   -7188.0858   -26960.214   -9027.3265    14423.283   -5719.3109    2867.2682   -9046.7764    77.017773 
   22600    1157.1276   -161.56928    1.0469934   -160.52229   -23045.469     4.250191     4.250191     4.250191   -23045.469   -27656.801   -33887.993   -7591.6133    10981.911    2725.3926      6198.21    76.775976 
   22700    1092.6393   -161.51194   0.98864296    -160.5233   -9057.6475    4.2408016    4.2408016    4.2408016   -9057.6475   -5368.3992   -15015.722   -6788.8216    6417.8396   -4304.6188    7507.2164    76.268263 
   22800    1302.3431   -161.70553    1.1783874   -160.52715   -7392.9446    4.2345631    4.2345631    4.2345631   -7392.9446    2144.4257   -1375.8263   -22947.433   -4293.0535   -734.58177    7404.9125    75.932172 
   22900    864.94356    -161.3196   0.78261911   -160.53698    19461.145    4.2396293    4.2396293    4.2396293    19461.145    17559.078    32856.668    7967.6881   -879.45041   -3816.8844    603.47627    76.205035 
   23000    618.52745   -161.09738   0.55965663   -160.53773    3496.3654    4.2622507    4.2622507    4.2622507    3496.3654   -9232.8021     18928.58    793.31835   -3738.7118   -12068.373   -3348.6866    77.431376 
   23100    681.36212   -161.14807   0.61651076   -160.53156     6916.035    4.2523789    4.2523789    4.2523789     6916.035    40403.453    6900.5006   -26555.849   -10070.331   -11314.326    2834.3539    76.894605 
   23200    588.73405   -161.06119   0.53269894   -160.52849    2046.0918     4.231197     4.231197     4.231197    2046.0918    20884.951     4791.827   -19538.503    5723.4452   -17263.182   -107.17476    75.751241 
   23300    355.18757   -160.85972   0.32138118   -160.53834   -8415.1402    4.2340105    4.2340105    4.2340105   -8415.1402   -25343.821    2976.9681   -2878.5678   -3917.0655   -23133.052    3928.0891    75.902451 
   23400    622.99743   -161.10455   0.56370117   -160.54084    12733.559    4.2386532    4.2386532    4.2386532    12733.559   -14494.162    26219.961    26474.878   -341.99295   -16786.639    2041.1606    76.152409 
   23500    742.47311   -161.21158   0.67180528   -160.53978    19414.764     4.252814     4.252814     4.252814    19414.764    24513.553    26921.295    6809.4433   -4852.8973   -10774.199   -1416.8291    76.918209 
   23600    619.48491    -161.0928   0.56052296   -160.53228    11038.665    4.2563873    4.2563873    4.2563873    11038.665    29880.156    15517.057   -12281.217    -4510.829   -14217.897    2764.7947    77.112259 
   23700    996.37042   -161.42722    0.9015369   -160.52568    9109.7692      4.23126      4.23126      4.23126    9109.7692   -3490.0105    20426.777    10392.541   -6606.6058   -10284.275   -1534.1127    75.754623 
   23800    1115.7231   -161.53789    1.0095297   -160.52836   -1926.8418    4.2269928    4.2269928    4.2269928   -1926.8418    -13581.63    15582.477   -7781.3731   -7375.0279   -17363.354    4574.0944    75.525657 
   23900    1173.1569   -161.59137     1.061497   -160.52987   -26647.548     4.244258     4.244258     4.244258   -26647.548    -35698.61   -5290.0745   -38953.959   -3291.6071   -23582.911    462.93838    76.454903 
   24000    1211.5966   -161.62251    1.0962781   -160.52623   -25063.139    4.2481808    4.2481808    4.2481808   -25063.139   -41085.116   -14563.918   -19540.383   -5987.2679   -2047.8068   -1537.5091    76.667089 
   24100    1086.5403   -161.50963   0.98312448   -160.52651   -4134.4515     4.246987     4.246987     4.246987   -4134.4515   -1793.7823   -16103.272    5493.6999   -2681.9117    499.19986     4393.423    76.602471 
   24200    1121.2841   -161.54455    1.0145614   -160.52999   -2457.5308    4.2427968    4.2427968    4.2427968   -2457.5308   -4441.3008   -9160.8327    6229.5411    1291.5189    3501.2037    -4949.574    76.375961 
   24300    943.04943   -161.38411   0.85329094   -160.53082    558.75817    4.2307765    4.2307765    4.2307765    558.75817   -2778.3928    6223.2552   -1768.5879    12872.877    7862.8554    709.35584    75.728655 
   24400    675.54818   -161.14885   0.61125019    -160.5376    376.84184    4.2375332    4.2375332    4.2375332    376.84184    8658.1185   -2133.7078   -5393.8851    15737.412   -5011.6516   -236.11027     76.09206 
   24500    909.81317    -161.3606   0.82321808   -160.53739   -5286.5521    4.2487459    4.2487459    4.2487459   -5286.5521    10915.135   -22811.448    -3963.344     7717.618    3224.0163   -1525.7007    76.697691 
   24600    957.40645   -161.39874   0.86628147   -160.53246   -5477.3284    4.2467129    4.2467129    4.2467129   -5477.3284   -4535.4607   -18483.132    6586.6078    4652.2888    5534.2428     2041.523    76.587641 
   24700     721.3259   -161.18824   0.65267083   -160.53557   -1593.1279    4.2478949    4.2478949    4.2478949   -1593.1279   -21246.642   -13359.378    29826.637   -3054.0553    1259.9777    1140.4198    76.651611 
   24800    946.15694   -161.39291   0.85610268   -160.53681   -13129.038    4.2513539    4.2513539    4.2513539   -13129.038   -28435.314   -34770.594    23818.795   -1921.1354    2495.9177    3817.4359    76.839011 
   24900     1026.318   -161.46443   0.92863408    -160.5358   -16439.969    4.2489252    4.2489252    4.2489252   -16439.969    -16663.13   -38396.992    5740.2144    3733.1449    8100.3406   -6450.1607    76.707399 
   25000     869.5943   -161.32357    0.7868272   -160.53674   -22903.779    4.2478168    4.2478168    4.2478168   -22903.779   -29738.783   -29054.889   -9917.6653   -1654.3127     -1306.06    -14875.43    76.647384 
   25100    867.97165   -161.32441   0.78535899   -160.53905   -9586.9084    4.2453434    4.2453434    4.2453434   -9586.9084   -29819.586   -11576.459    12635.319    9918.6542   -7281.3133   -12257.758     76.51357 
   25200    1019.1668   -161.46295   0.92216353   -160.54078    6182.2522      4.24131      4.24131      4.24131    6182.2522    -11854.64   -5799.0651    36200.461    804.53537    2207.5143   -19032.051    76.295697 
   25300      843.094   -161.30346   0.76284917   -160.54061    4698.3908    4.2393614    4.2393614    4.2393614    4698.3908     1749.961    15426.335   -3081.1233    7106.6773   -6862.9846   -17350.124    76.190588 
   25400     674.6777   -161.14929   0.61046256   -160.53882   -87.696769    4.2409736    4.2409736    4.2409736   -87.696769    14053.497    17537.669   -31854.257    9791.4829   -3324.0382   -11986.149    76.277546 
   25500    1028.0989   -161.46734   0.93024548   -160.53709     1683.704    4.2473662    4.2473662    4.2473662     1683.704   -2136.9642    19187.649   -11999.573   -3353.2182    -13435.98   -2255.4815    76.622997 
   25600    924.96363   -161.37353   0.83692653    -160.5366    11188.523     4.248368     4.248368     4.248368    11188.523   -2065.8902    20962.994    14668.466   -1451.4677   -2622.7499   -2237.5731    76.677227 
   25700    773.93319   -161.23505   0.70027101   -160.53478    3215.8851    4.2394544    4.2394544    4.2394544    3215.8851   -10102.402    15234.816    4515.2412    -7016.351   -311.12998     9413.889    76.195601 
   25800    997.07452   -161.43971   0.90217398   -160.53754   -7112.7453    4.2384984    4.2384984    4.2384984   -7112.7453   -25821.428   -1211.0842    5694.2758    3121.2436    3909.4933   -1873.2948    76.144066 
   25900    1041.3387   -161.48463   0.94222518   -160.54241   -15199.279    4.2544087    4.2544087    4.2544087   -15199.279   -28457.086   -35405.935    18265.184    12070.056    5856.6787    849.10712    77.004771 
   26000    972.52946   -161.41756   0.87996509    -160.5376    -11189.83    4.2565478    4.2565478    4.2565478    -11189.83   -32914.699    -25541.09    24886.297    652.10576   -9739.4333    4915.5016    77.120979 
   26100    744.69547   -161.20993   0.67381611   -160.53611     8323.924    4.2495977    4.2495977    4.2495977     8323.924   -33462.008   -3375.6571    61809.438    1108.9811   -8705.1047    2186.1863    76.743827 
   26200    1084.2433   -161.52038   0.98104615   -160.53933    13367.647    4.2384072    4.2384072    4.2384072    13367.647   -7643.4406   -5701.2426    53447.623    2289.6293   -7830.9372   -3024.2907    76.139152 
   26300    947.89554   -161.39985    0.8576758   -160.54217     19436.27    4.2340122    4.2340122    4.2340122     19436.27    13342.958   -6091.5583    51057.411   -8899.5592    -9172.169   -9293.2396    75.902543 
   26400     993.3895   -161.44109    0.8988397   -160.54225   -7350.6111    4.2467495    4.2467495    4.2467495   -7350.6111    -23333.36   -4220.9605    5502.4869   -1643.9845   -3488.0415   -6972.2823    76.589622 
   26500    1115.8092   -161.54482    1.0096077   -160.53521   -15426.241    4.2540005    4.2540005    4.2540005   -15426.241   -39460.318   -14992.239    8173.8333   -1324.1196    5649.8751    2621.8944    76.982606 
   26600    1290.3197   -161.69757    1.1675084   -160.53006   -7045.8463    4.2444689    4.2444689    4.2444689   -7045.8463   -16590.885   -1181.1289   -3365.5253   -8628.7521   -4552.9442    5237.0584    76.466297 
   26700    1335.2738   -161.73358    1.2081838    -160.5254   -7775.6615    4.2352155    4.2352155    4.2352155   -7775.6615   -14236.734   -6382.2099   -2708.0404   -5275.4798   -685.07976     10917.04    75.967274 
   26800    1263.6405   -161.67414    1.1433685   -160.53078   -10386.328    4.2388496    4.2388496    4.2388496   -10386.328   -19059.679   -4871.2917   -7228.0123   -9168.0147    4133.0559    10737.088    76.162994 
   26900    1204.7366   -161.62596     1.090071   -160.53588   -13863.813    4.2479494    4.2479494    4.2479494   -13863.813   -10113.683   -9410.2842   -22067.471   -9231.2844   -6266.8077    6878.7782    76.654562 
   27000     1007.472   -161.44453   0.91158186   -160.53294    1391.6136    4.2477833    4.2477833    4.2477833    1391.6136    31260.222   -19537.548   -7547.8336   -7297.4507   -4980.4487   -4241.6777    76.645571 
   27100    868.00251   -161.31454   0.78538691   -160.52915     7364.327    4.2459483    4.2459483    4.2459483     7364.327    5871.3387    6855.1833    9366.4592   -11018.023   -3094.1727   -13226.245    76.546281 
   27200    955.39574   -161.39079   0.86446214   -160.52633   -7358.7856    4.2436974    4.2436974    4.2436974   -7358.7856    -32757.63    10956.159   -274.88574     8655.464    3943.5995   -19582.886    76.424611 
   27300    867.61189     -161.315   0.78503347   -160.52997   -5440.0615    4.2399156    4.2399156    4.2399156   -5440.0615   -26720.173    19232.918   -8832.9299   -4127.8467    13293.907   -2898.0042    76.220471 
   27400    873.96231   -161.32639   0.79077946   -160.53561   -10638.951    4.2477703    4.2477703    4.2477703   -10638.951   -28858.869    14427.185   -17485.168   -6780.9143    16943.899    7074.8385    76.644864 
   27500    1043.6938   -161.47691   0.94435612   -160.53255   -12361.897    4.2492111    4.2492111    4.2492111   -12361.897    -29403.97    7530.8879   -15212.609     -1987.85     5470.602    3525.2507    76.722886 
   27600    907.33103   -161.35039   0.82097219   -160.52942    9512.5657    4.2399165    4.2399165    4.2399165    9512.5657     11351.44   -844.71761    18030.975    3574.6657    5264.6181   -8489.2943     76.22052 
   27700    732.99211   -161.19648   0.66322667   -160.53325   -165.64831    4.2461568    4.2461568    4.2461568   -165.64831    9910.1441   -26344.125    15937.036    7989.3658    6818.9405   -15533.631     76.55756 
   27800    806.30546   -161.26348   0.72956213   -160.53392     2491.736    4.2480034    4.2480034    4.2480034     2491.736   -11576.082    17038.715    2012.5749   -2283.0528   -604.75702    -19303.84    76.657484 
   27900     786.8042   -161.24703   0.71191698   -160.53511    17648.005    4.2433238    4.2433238    4.2433238    17648.005   -25835.113    53081.921    25697.207     808.1566    10281.334   -20515.544    76.404429 
   28000    747.66804   -161.21567   0.67650576   -160.53917    18166.079    4.2449962    4.2449962    4.2449962    18166.079    -13477.55    25603.326    42372.461    1671.8802   -113.30303   -10227.423      76.4948 
   28100    898.91229    -161.3489   0.81335473   -160.53555   -2594.0639    4.2476878    4.2476878    4.2476878   -2594.0639   -18352.813   -7490.5325    18061.153    699.62109    1273.3853   -11613.651    76.640399 
   28200    1092.2617   -161.52183   0.98830138   -160.53353   -17090.975    4.2488024    4.2488024    4.2488024   -17090.975   -30729.035    9323.0394   -29866.931     7287.671    9335.5055    1840.0637     76.70075 
   28300    1130.9348   -161.55546    1.0232936   -160.53217   -32095.421    4.2530061    4.2530061    4.2530061   -32095.421   -32431.894   -13409.875   -50444.493    4309.3948   -5766.7688    7320.4454    76.928633 
   28400    999.54305   -161.43128   0.90440756   -160.52687   -7209.0531    4.2399983    4.2399983    4.2399983   -7209.0531    3621.2932   -11378.514   -13869.938   -5780.9754   -12444.693    8329.1318    76.224933 
   28500    932.05908   -161.37187   0.84334664   -160.52853    18062.137    4.2343226    4.2343226    4.2343226    18062.137    30147.318    28490.685   -4451.5913   -9290.6438   -3324.2275    3159.9262    75.919234 
   28600    881.72542    -161.3345   0.79780369    -160.5367    9574.0888    4.2529752    4.2529752    4.2529752    9574.0888   -6446.2486     21442.04    13726.475   -3505.9347    -10521.28    6690.6504    76.926955 
   28700     797.8258   -161.25157   0.72188955   -160.52968    9803.3878    4.2539905    4.2539905    4.2539905    9803.3878   -227.11846    19735.305    9901.9772    2129.7561    -11848.45    2586.0842    76.982063 
   28800    861.57838    -161.3054   0.77957423   -160.52583   -11200.859    4.2439818    4.2439818    4.2439818   -11200.859   -5174.2027   -7897.5276   -20530.846    -2524.299   -1141.6707    14431.677    76.439977 
   28900    860.42177   -161.30725   0.77852769   -160.52872   -21248.512    4.2452425    4.2452425    4.2452425   -21248.512   -18902.628   -12108.455   -32734.453    10154.813   -8433.6436    14114.267    76.508118 
   29000    950.64589    -161.3921   0.86016438   -160.53194    8074.7298    4.2375944    4.2375944    4.2375944    8074.7298    34681.504    6222.2407   -16679.555   -2759.3372   -2612.8565     9386.868    76.095355 
   29100    824.51546   -161.28359   0.74603892   -160.53755    8911.3505    4.2418582    4.2418582    4.2418582    8911.3505    43089.228   -23283.429    6928.2523   -4659.5311    7448.3272    18069.554    76.325285 
   29200    583.76786   -161.06787   0.52820543   -160.53967    3620.9391    4.2525474    4.2525474    4.2525474    3620.9391     42297.35   -26418.139   -5016.3929   -1830.2756   -212.93357    14044.077    76.903744 
   29300    793.98472    -161.2541   0.71841406   -160.53568    7093.2605    4.2466347    4.2466347    4.2466347    7093.2605    45851.176   -5153.8303   -19417.564   -5054.0425   -125.56912    16792.448    76.583411 
   29400    806.22145   -161.26593   0.72948611   -160.53645    2402.0849    4.2404498    4.2404498    4.2404498    2402.0849    33053.343   -13258.013   -12589.075   -5870.4949   -12466.211    8538.5515    76.249284 
   29500    698.73357   -161.17089   0.63222881   -160.53866    3400.0273     4.236933     4.236933     4.236933    3400.0273    34936.954   -21180.386   -3556.4863    1929.9663   -13339.704    5893.9009    76.059733 
   29600    844.81991   -161.30032   0.76441081   -160.53591    2844.0343    4.2389825    4.2389825    4.2389825    2844.0343    30073.269   -20795.723   -745.44344   -1255.1413   -4813.1047    7175.4423    76.170159 
   29700    916.49545   -161.36887   0.82926435    -160.5396    3907.5909    4.2530869    4.2530869    4.2530869    3907.5909    29993.628   -5328.6792   -12942.176    4491.1758     99.59869    8025.3434    76.933016 
   29800    842.94453   -161.30089   0.76271392   -160.53818     359.1385    4.2521838    4.2521838    4.2521838     359.1385    33753.699   -14137.809   -18538.475    6671.6482    11116.224    1232.6942    76.884021 
   29900    955.87361   -161.39658   0.86489453   -160.53168    11102.797     4.233209     4.233209     4.233209    11102.797    37485.299    468.04146   -4644.9496    2108.1185    10102.576   -5930.3252    75.859352 
   30000    972.57682   -161.41895   0.88000795   -160.53894   -4032.2177    4.2419552    4.2419552    4.2419552   -4032.2177    3830.7991   -14888.289   -1039.1633   -3760.9421     6022.395   -14864.514    76.330523 
   30100     1069.133   -161.50216   0.96737397   -160.53478   -22431.404    4.2517949    4.2517949    4.2517949   -22431.404   -31501.257   -31853.451   -3939.5024    -13312.99    149.16383   -7886.2234    76.862926 
   30200    949.40134   -161.39067   0.85903828   -160.53163    1778.2964     4.247338     4.247338     4.247338    1778.2964    9983.6827   -1068.1376   -3580.6558   -7596.5845   -1300.0917    1222.2032    76.621467 
   30300     682.3563   -161.15764   0.61741032   -160.54023    1382.7456    4.2539828    4.2539828    4.2539828    1382.7456     19218.27     5109.772   -20179.806   -2022.9156    7160.5262    2135.1693    76.981645 
   30400    898.61347   -161.35079   0.81308435   -160.53771   -16467.538      4.24148      4.24148      4.24148   -16467.538   -24212.221    15919.256   -41109.649    6401.7857    16219.626   -72.986054     76.30487 
   30500    918.14252   -161.36271   0.83075465   -160.53195    3178.7026    4.2270485    4.2270485    4.2270485    3178.7026    14582.591    -1812.685   -3233.7982    14772.652    5583.2544   -10740.734    75.528646 
   30600    665.42289   -161.14428   0.60208862   -160.54219    -9934.034    4.2563385    4.2563385    4.2563385    -9934.034    43251.016   -60019.069   -13034.049     10325.74    11752.657   -4771.2748    77.109607 
   30700    626.56684     -161.098   0.56693084   -160.53107    7862.4623    4.2628516    4.2628516    4.2628516    7862.4623    47586.672   -13368.546   -10630.738   -5873.7792    14577.435    12463.492    77.464129 
   30800    1000.4234   -161.43354   0.90520413   -160.52834    14870.664    4.2396629    4.2396629    4.2396629    14870.664    20444.917    20035.188    4131.8861   -19756.194    10457.887    1807.8009    76.206844 
   30900    864.81993   -161.31572   0.78250725   -160.53322   -4784.8601    4.2384699    4.2384699    4.2384699   -4784.8601    22070.429   -22928.419   -13496.591   -4703.7684    22560.171   -4062.6651    76.142529 
   31000    777.07764   -161.23772   0.70311618    -160.5346   -4846.2934    4.2439901    4.2439901    4.2439901   -4846.2934    40370.716   -34045.926    -20863.67    8261.2885    10044.078   -2924.2909    76.440422 
   31100    835.50117   -161.29751   0.75597901   -160.54153    14916.911    4.2458995    4.2458995    4.2458995    14916.911    76729.596   -1953.5415    -30025.32    4121.1442    4347.2006   -4766.0799    76.543643 
   31200    859.91338   -161.32323    0.7780677   -160.54516   -9848.9807    4.2589399    4.2589399    4.2589399   -9848.9807    20334.031   -21576.594   -28304.379     8343.597   -4033.0381    5265.0468    77.251075 
   31300    721.08202    -161.1913   0.65245017   -160.53885   -10985.068    4.2473712    4.2473712    4.2473712   -10985.068    5420.2864   -8580.9879   -29794.503    649.82775   -20690.836    3768.7911    76.623266 
   31400    797.86772   -161.25168   0.72192748   -160.52975    18978.325    4.2254739    4.2254739    4.2254739    18978.325     37943.23     25492.02   -6500.2757   -2782.8956   -21980.579   -2411.7015    75.444269 
   31500     1029.601   -161.47175   0.93160466   -160.54015   -2652.6233    4.2443515    4.2443515    4.2443515   -2652.6233    26669.074    -5228.848   -29398.096   -5885.6863   -15024.539   -4106.6937    76.459954 
   31600    719.80692   -161.18771   0.65129643   -160.53642   -6637.8681    4.2556314    4.2556314    4.2556314   -6637.8681    17771.121   -18807.045   -18877.681   -11181.025   -16391.546    144.95715    77.071179 
   31700    589.58814   -161.06538   0.53347174    -160.5319    4426.9465    4.2424965    4.2424965    4.2424965    4426.9465   -648.49786    9264.6685    4664.6688    1912.9447   -20686.855    8083.4159    76.359745 
   31800     591.6024    -161.0729   0.53529428    -160.5376    6560.1784    4.2434512    4.2434512    4.2434512    6560.1784   -19902.894    47615.874   -8032.4456   -5115.1903   -21200.441    7140.4661    76.411308 
   31900    774.17439     -161.239   0.70048925   -160.53852    13529.827    4.2392434    4.2392434    4.2392434    13529.827    17284.623    40045.593   -16740.736   -6500.8169   -11353.648      6859.37    76.184223 
   32000    816.18092   -161.27774   0.73849765   -160.53925    3980.7483    4.2409927    4.2409927    4.2409927    3980.7483    38618.878    -23269.13   -3407.5025   -12148.853   -6762.8224   -230.88626    76.278574 
   32100    811.05903     -161.276   0.73386325   -160.54214   -25879.342    4.2576371    4.2576371    4.2576371   -25879.342   -14041.658   -37481.697    -26114.67   -10356.419     -6531.02   -7757.9747    77.180205 
   32200    957.71734   -161.40343   0.86656278   -160.53687    2682.1198    4.2445151    4.2445151    4.2445151    2682.1198   -3534.9672    28623.557    -17042.23   -1714.1327   -21466.432    10199.667    76.468793 
   32300    796.45564   -161.25192    0.7206498   -160.53127    22423.874    4.2362074    4.2362074    4.2362074    22423.874    31345.231    37510.561   -1584.1718     11212.08     -27114.8    215.94562    76.020662 
   32400    637.41344   -161.11027   0.57674507   -160.53352   -2969.2668    4.2530345    4.2530345    4.2530345   -2969.2668    18455.314   -5837.4633   -21525.651    5822.9069   -15130.832   -3691.3645    76.930177 
   32500    1044.8539   -161.47603   0.94540572   -160.53063    -7714.797    4.2490561    4.2490561    4.2490561    -7714.797   -5141.2284   -17257.889   -745.27391    410.31257    -13094.19    4807.6868    76.714488 
   32600    1202.8264   -161.61862    1.0883426   -160.53028    1827.0348    4.2412739    4.2412739    4.2412739    1827.0348    226.97958   -5036.5692    10290.694      5037.08   -6062.1473   -10893.062    76.293747 
   32700    1077.9832   -161.50724   0.97538186   -160.53186   -29153.578    4.2565241    4.2565241    4.2565241   -29153.578   -26830.386   -29526.915   -31103.432   -3182.9669    451.09329   -8446.1086     77.11969 
   32800    847.80031   -161.29372   0.76710754   -160.52661   -3485.8933    4.2480985    4.2480985    4.2480985   -3485.8933   -16479.804    13345.337   -7323.2129    12619.914   -5229.6698    3137.7711    76.662636 
   32900    931.96214   -161.37246   0.84325893    -160.5292    16745.476    4.2381993    4.2381993    4.2381993    16745.476    2602.1042    38380.651    9253.6735    21120.609    -4715.091   -8885.0807    76.127949 
   33000    761.06436   -161.22232   0.68862702   -160.53369   -1229.0139    4.2564496    4.2564496    4.2564496   -1229.0139   -16915.242   -7095.9022    20324.102    18911.734    2961.6163    1312.6006    77.115642 
   33100    805.67447   -161.25089   0.72899119    -160.5219    -4904.876    4.2538575    4.2538575    4.2538575    -4904.876   -16131.616   -8959.4567    10376.445    9722.3093    5457.0582    5571.9943    76.974841 
   33200    1086.4668   -161.50101   0.98305797   -160.51795    12127.917     4.242321     4.242321     4.242321    12127.917   -3641.6535    35357.893    4667.5118   -3737.0857    5719.9598   -10623.429    76.350271 
   33300    1113.1038   -161.53572    1.0071597   -160.52856   -2634.1698    4.2489529    4.2489529    4.2489529   -2634.1698     23725.39   -11502.378   -20125.521   -6424.9564     6857.092   -8637.7431      76.7089 
   33400    757.10867   -161.21321   0.68504783   -160.52817    2690.5232    4.2391412    4.2391412    4.2391412    2690.5232    50969.772   -34659.538   -8238.6643    1763.6629   -4984.2518   -16372.294    76.178717 
   33500    727.32968   -161.19223   0.65810318   -160.53412    5722.4937     4.243808     4.243808     4.243808    5722.4937    43622.826   -9228.4019   -17226.943    3854.0831   -8337.7127   -8334.8724    76.430583 
   33600     1044.052   -161.47731   0.94468022   -160.53263   -22124.327    4.2627021    4.2627021    4.2627021   -22124.327    2524.2835   -12347.172   -56550.094    12664.817    -9140.792    427.68592    77.455981 
   33700     793.7689   -161.24365   0.71821878   -160.52543    3615.2449    4.2432387    4.2432387    4.2432387    3615.2449    5846.0936    27146.831    -22147.19    6232.0617   -9545.0137    12907.601     76.39983 
   33800    620.05898   -161.09024    0.5610424   -160.52919    9229.8034    4.2407161    4.2407161    4.2407161    9229.8034    13334.902     22325.01   -7970.5015     5069.568   -4565.7319     17895.62     76.26365 
   33900    832.21725   -161.28718   0.75300766   -160.53417   -4642.6857    4.2591218    4.2591218    4.2591218   -4642.6857   -24466.616    19173.353   -8634.7938   -289.46007   -3007.2259    6233.8616    77.260972 
   34000    638.56442   -161.10828    0.5777865   -160.53049    24460.721    4.2503274    4.2503274    4.2503274    24460.721    865.56856    55044.576     17472.02    -3847.067   -8202.2677    544.75843    76.783368 
   34100    432.22906   -160.92353   0.39108993   -160.53244    24301.218    4.2427652    4.2427652    4.2427652    24301.218    21250.349    42827.975    8825.3313   -9463.1141   -10833.477    3665.3398    76.374254 
   34200    539.49801   -161.02844   0.48814914   -160.54029    -574.9234    4.2510698    4.2510698    4.2510698    -574.9234    8781.5002    12399.303   -22905.574   -10492.027   -10012.345    14837.839    76.823609 
   34300    929.79758   -161.37635   0.84130039   -160.53505   -9199.2289    4.2461933    4.2461933    4.2461933   -9199.2289   -7223.0754    14808.973   -35183.584    5757.6061    3221.7833    33978.074    76.559533 
   34400     854.0675   -161.30125   0.77277823   -160.52847   -13582.905    4.2474397    4.2474397    4.2474397   -13582.905   -11865.644   -12052.066   -16831.004    8468.1438     6030.698    23904.823    76.626971 
   34500    776.27137   -161.23044   0.70238664   -160.52805   -1348.4037    4.2522391    4.2522391    4.2522391   -1348.4037    13704.029   -9813.2841   -7935.9562    2538.3532    3505.3728    26099.304    76.887022 
   34600    801.42952   -161.25261   0.72515027   -160.52746    25221.821    4.2455449    4.2455449    4.2455449    25221.821     30812.85    33487.077    11365.537    891.12862    852.46733     13774.33    76.524466 
   34700    953.46266   -161.39048   0.86271305   -160.52777    -11227.08    4.2473414    4.2473414    4.2473414    -11227.08   -173.49522   -18817.242   -14690.503   -5742.6634   -3369.4354     4745.976    76.621654 
   34800    804.76898   -161.25479   0.72817188   -160.52661   -23864.952    4.2431489    4.2431489    4.2431489   -23864.952   -15605.472   -36623.737   -19365.646    639.22072    10347.585    10345.307    76.394979 
   34900    953.48397   -161.39199   0.86273233   -160.52926   -7902.8014    4.2443687    4.2443687    4.2443687   -7902.8014   -14961.528    19501.714   -28248.591    8590.5947    7205.9912   -5632.9956    76.460883 
   35000    868.37771   -161.31799    0.7857264   -160.53227   -3893.7193    4.2584995    4.2584995    4.2584995   -3893.7193   -9198.9441    48333.661   -50815.875    10443.888   -3200.5887   -8465.0569    77.227114 
   35100    659.95659   -161.12938   0.59714259   -160.53224    7293.0814    4.2526341    4.2526341    4.2526341    7293.0814    29863.342    20210.051   -28194.149    17468.824   -4443.7802   -3386.3297    76.908446 
   35200    668.21971   -161.13944   0.60461923   -160.53482    25929.592    4.2440886    4.2440886    4.2440886    25929.592    48206.208    22922.387    6660.1806    16558.768   -1848.1829   -5958.7467    76.445744 
   35300    988.41627   -161.42782   0.89433981   -160.53348    -6525.993    4.2576396    4.2576396    4.2576396    -6525.993   -15731.888    15580.932   -19427.022     8721.171    1384.2376    1909.3719     77.18034 
   35400    1188.5787   -161.59908     1.075451   -160.52363   -28050.737    4.2518065    4.2518065    4.2518065   -28050.737   -19151.676   -33184.407   -31816.128   -1937.5288    724.48338   -10584.646    76.863554 
   35500    965.16877   -161.40438   0.87330499   -160.53107   -7028.7239    4.2469408    4.2469408    4.2469408   -7028.7239     42609.29   -51587.989   -12107.473   -8713.1759   -3486.4015   -1430.8994    76.599975 
   35600    937.15869   -161.38779   0.84796088   -160.53983   -9632.8659    4.2536151    4.2536151    4.2536151   -9632.8659   -1997.1998   -12506.954   -14394.444   -13305.138   -4244.9323    3133.6712    76.961686 
   35700    812.96029   -161.27279   0.73558356    -160.5372    1724.7109    4.2396992    4.2396992    4.2396992    1724.7109   -30009.295     25494.92    9688.5078    -11188.99   -3993.4393   -4227.6646      76.2088 
   35800    568.92174   -161.05345   0.51477235   -160.53868    -1132.115    4.2396269    4.2396269    4.2396269    -1132.115   -11319.425    8325.9577   -402.87749    6884.1163   -23221.016    7758.8437    76.204901 
   35900    532.25126   -161.02165   0.48159213   -160.54006   -3888.0776     4.251519     4.251519     4.251519   -3888.0776    23265.202   -22201.577   -12727.858    2554.6378   -18356.068   -3134.0857    76.847967 
   36000    933.42242   -161.38158   0.84458022     -160.537    66.460279    4.2424199    4.2424199    4.2424199    66.460279     15463.31   -9712.2185   -5551.7107    2427.8612   -12723.103     1709.476     76.35561 
   36100    836.19309   -161.29162   0.75660508   -160.53502    857.35841    4.2381724    4.2381724    4.2381724    857.35841   -9003.4838   -14603.615    26179.174    6589.9499   -8659.0985    929.90646    76.126498 
   36200    802.91412   -161.25835   0.72649357   -160.53186    -18257.71    4.2475647    4.2475647    4.2475647    -18257.71   -14191.592   -46815.338    6233.8006     5078.864   -2194.1497    1395.0687    76.633738 
   36300    725.47284   -161.18812   0.65642307    -160.5317    5394.0242    4.2481268    4.2481268    4.2481268    5394.0242    24196.894   -2058.2364   -5956.5851   -2360.3217   -8603.3184    9359.1353    76.664167 
   36400    663.62559   -161.13729   0.60046238   -160.53683    23440.375    4.2444017    4.2444017    4.2444017    23440.375    56847.714    32317.309   -18843.898   -1066.0678   -8237.9072    7260.1894    76.462665 
   36500    770.28227   -161.23076   0.69696759   -160.53379   -1657.5921    4.2480931    4.2480931    4.2480931   -1657.5921    29664.891   -13572.315   -21065.352   -799.78354   -6980.3196    8266.2288    76.662344 
   36600    652.81348   -161.12651   0.59067936   -160.53583   -1653.6558     4.246937     4.246937     4.246937   -1653.6558    19311.725   -30381.764    6109.0715    4836.1899    2476.2592    5768.9033    76.599769 
   36700    789.22375   -161.25128   0.71410624   -160.53717   -873.23637    4.2376668    4.2376668    4.2376668   -873.23637    7136.7945   -9107.4504   -649.05328     6893.546    7624.1137   -885.11066    76.099257 
   36800    923.56193   -161.37294   0.83565825   -160.53729   -7090.9205    4.2405955    4.2405955    4.2405955   -7090.9205    7334.6302   -5490.1908   -23117.201    9876.9517   -877.98577   -1419.0573    76.257147 
   36900    796.44147   -161.25646   0.72063698   -160.53583   -5414.3505    4.2513126    4.2513126    4.2513126   -5414.3505    20718.701   -12071.143    -24890.61    8454.1657    4210.6062    5860.3825    76.836776 
   37000    783.11936   -161.24131   0.70858285   -160.53273   -2355.5693    4.2495892    4.2495892    4.2495892   -2355.5693    5677.3543    5576.1308   -18320.193     1703.531   -39.245463    6581.3225    76.743368 
   37100    926.86998   -161.37104   0.83865144   -160.53239    6578.1966     4.240758     4.240758     4.240758    6578.1966   -15139.205    43782.504   -8908.7087    7974.8483    4131.5069    7933.5503    76.265914 
   37200    1103.5978   -161.52995   0.99855847   -160.53139     1175.759    4.2387006    4.2387006    4.2387006     1175.759   -20985.143    35754.349   -11241.928    -6720.437    8055.7916    8202.0685    76.154964 
   37300    1086.8435   -161.51273   0.98339887   -160.52933   -10017.974    4.2457894    4.2457894    4.2457894   -10017.974   -19925.942   -5982.9509     -4145.03   -2616.6612   -1661.5549    2260.0378    76.537689 
   37400    1211.3375   -161.62523    1.0960436   -160.52919   -19540.446    4.2496908    4.2496908    4.2496908   -19540.446   -18260.383   -27038.571   -13322.386     693.2927    2605.5205   -1978.4947    76.748872 
   37500    1470.0669   -161.86004    1.3301474   -160.52989   -5652.6968    4.2395528    4.2395528    4.2395528   -5652.6968    4225.1725   -10801.377   -10381.886   -5426.4062    4527.8124   -5550.5305     76.20091 
   37600    1334.1219   -161.74194    1.2071415    -160.5348   -4836.0086    4.2405386    4.2405386    4.2405386   -4836.0086    10224.419   -18415.351   -6317.0934    9810.7788    -5413.225   -2661.1885    76.254078 
   37700     848.2893   -161.30464   0.76754999   -160.53709   -11165.172    4.2518726    4.2518726    4.2518726   -11165.172   -12994.809   -4828.8439   -15671.864   -9218.8467    2153.4128    2478.2581    76.867139 
   37800    821.99493   -161.27635   0.74375829   -160.53259    2631.9699    4.2468376    4.2468376    4.2468376    2631.9699   -18934.676    54171.273   -27340.687   -9253.8778   -5142.0424    4142.1547    76.594392 
   37900      908.156   -161.35617   0.82171863   -160.53445    2490.5052    4.2440019    4.2440019    4.2440019    2490.5052   -18558.806    65215.445   -39185.124    -2459.399   -12197.733     6127.255    76.441062 
   38000    629.64904   -161.10832   0.56971969    -160.5386    4589.2164    4.2442597    4.2442597    4.2442597    4589.2164   -423.13777    41628.388   -27437.601   -9222.5383   -5847.4015    6743.1267    76.454993 
   38100    705.83113   -161.17775   0.63865084   -160.53909    4193.2729    4.2403065    4.2403065    4.2403065    4193.2729    8225.7876    21905.435   -17551.404    2890.8136   -3182.3266    6182.0758    76.241558 
   38200    882.72336   -161.33998   0.79870664   -160.54127    5901.3059     4.246498     4.246498     4.246498    5901.3059    3221.1909    21985.024   -7502.2971   -6977.6832    853.70925    2120.2915    76.576016 
   38300    989.88554   -161.43436   0.89566924   -160.53869   -5301.8667    4.2504404    4.2504404    4.2504404   -5301.8667   -8680.9488   -3870.4368   -3354.2144    -5116.587    10129.712    8234.2251    76.789492 
   38400    941.87806   -161.38666   0.85223106   -160.53443   -22538.821    4.2478046    4.2478046    4.2478046   -22538.821   -32610.465   -23588.281   -11417.718    857.60939    3849.9293    5434.7851    76.646723 
   38500    1016.1816   -161.45292   0.91946243   -160.53346   -21685.585    4.2410564    4.2410564    4.2410564   -21685.585   -34772.439   -20462.831   -9821.4864   -11356.981     2461.888     -2658.19     76.28201 
   38600    1068.7831     -161.503   0.96705742   -160.53594    2627.2412    4.2376799    4.2376799    4.2376799    2627.2412   -5582.8544    663.85522    12800.723   -344.78472   -5616.5603   -3552.6736    76.099964 
   38700    871.24342   -161.32611   0.78831936   -160.53779    2832.2496    4.2493963    4.2493963    4.2493963    2832.2496   -4335.7364   -12918.513    25750.998   -7069.1345   -7705.7161   -12562.577    76.732914 
   38800    678.81672   -161.14752   0.61420763   -160.53331    7348.5291    4.2502806    4.2502806    4.2502806    7348.5291   -27282.145    18576.774    30750.958   -9780.0625    2468.8368   -19375.338     76.78083 
   38900    751.33784   -161.21488   0.67982626   -160.53505    7789.5254    4.2443763    4.2443763    4.2443763    7789.5254   -35788.867    58684.468    472.97531   -7525.8939    -666.3303   -15741.782    76.461294 
   39000    714.78266   -161.18675   0.64675037      -160.54    6220.1298    4.2401059    4.2401059    4.2401059    6220.1298   -14293.644    39046.477    -6092.443   -3712.2358    -3753.413   -17770.132    76.230738 
   39100    512.48097   -161.00598   0.46370355   -160.54228     14765.14    4.2424978    4.2424978    4.2424978     14765.14   -8742.1235    46893.878    6143.6644    3353.4945   -1254.6277   -18365.868    76.359817 
   39200     482.3319    -160.9827   0.43642404   -160.54628    12358.613    4.2552863    4.2552863    4.2552863    12358.613   -28169.991    65644.477   -398.64837    7997.4183    -1474.821   -11544.215    77.052432 
   39300     750.3328   -161.21946   0.67891689   -160.54055     3984.623    4.2566443    4.2566443    4.2566443     3984.623   -36704.268    31724.396    16933.742    1501.9428    3854.4184    8381.5234    77.126229 
   39400    1041.6444   -161.47211   0.94250173   -160.52961    594.81262    4.2407535    4.2407535    4.2407535    594.81262   -25990.631    6488.1274    21286.941   -8283.6094   -2825.9668     5198.032    76.265668 
   39500    938.49314   -161.37784   0.84916831   -160.52867    8673.0149    4.2306507    4.2306507    4.2306507    8673.0149   -6652.9447    7725.1218    24946.868   -14706.711    4046.1124    1700.1891    75.721899 
   39600    978.83961   -161.42347   0.88567465    -160.5378   -9109.0065    4.2439452    4.2439452    4.2439452   -9109.0065   -21449.202    10302.821   -16180.638   -10049.187    2665.7651    13110.183    76.437996 
   39700    1146.0993   -161.57342    1.0370147    -160.5364   -17677.489    4.2561864    4.2561864    4.2561864   -17677.489   -39846.161   -2839.6835   -10346.623   -2629.2128   -6948.4251    4138.8417    77.101338 
   39800    1340.4168   -161.74605    1.2128373   -160.53322   -12396.221    4.2440363    4.2440363    4.2440363   -12396.221   -32951.817   -30868.535    26631.689    7335.9376    10515.515   -1718.2168    76.442922 
   39900    1125.2036   -161.55123    1.0181079   -160.53312    12078.349     4.231884     4.231884     4.231884    12078.349   -23155.981    8957.9233    50433.103    4956.3344   -2629.1853    17.220663    75.788145 
   40000    865.67626   -161.32404   0.78328207   -160.54076    2679.8289    4.2495381    4.2495381    4.2495381    2679.8289   -22267.861    10553.822    19753.526   -1092.1684   -7826.0671    -5331.776    76.740598 
   40100     998.3622   -161.44169    0.9033391   -160.53835    2068.5691    4.2530608    4.2530608    4.2530608    2068.5691   -23382.876    -9508.244    39096.827    3866.0287    8126.5376    -727.6149      76.9316 
   40200    1051.2878   -161.48664   0.95122733   -160.53542    8725.7209    4.2476267    4.2476267    4.2476267    8725.7209   -30463.477   -9235.7795    65876.419    4838.8819   -311.39738    167.68479    76.637094 
   40300    806.58942   -161.26867   0.72981906   -160.53886   -9938.1785    4.2565429    4.2565429    4.2565429   -9938.1785   -36692.431   -23626.236    30504.132    8061.6685    15117.743    14955.856    77.120712 
   40400    736.58086   -161.20539   0.66647384   -160.53892   -9.4838154    4.2473952    4.2473952    4.2473952   -9.4838154     3577.999   -19430.809    15824.358   -444.72046    19027.295    21643.227    76.624564 
   40500    840.81266   -161.30044   0.76078496   -160.53966    17286.372    4.2370695    4.2370695    4.2370695    17286.372    9354.6964   -23421.298    65925.718    -2618.355     2101.923     13032.22    76.067086 
   40600    748.38875    -161.2213   0.67715787   -160.54415   -7853.0876    4.2530678    4.2530678    4.2530678   -7853.0876   -28263.933   -44274.959    48979.629    250.92989   -2638.1786    15494.721     76.93198 
   40700    710.73163   -161.18337   0.64308491   -160.54029   -15137.638    4.2510508    4.2510508    4.2510508   -15137.638   -35120.407   -11494.791    1202.2825   -3349.6875   -10841.814   -2124.9915    76.822582 
   40800    719.65668   -161.18983   0.65116049   -160.53867    12340.092    4.2434414    4.2434414    4.2434414    12340.092    -5107.952    13681.818     28446.41   -5654.5227   -9361.0026    3090.9498    76.410779 
   40900    611.31784   -161.09364   0.55313322   -160.54051   -5082.1673    4.2574407    4.2574407    4.2574407   -5082.1673   -935.73656   -22572.836    8262.0709   -14280.107   -6500.8668    4097.1806    77.169523 
   41000    517.05753   -161.00302   0.46784452   -160.53517    412.22663    4.2409743    4.2409743    4.2409743    412.22663    19591.153   -11483.179   -6871.2936   -10494.446    8303.4108   -656.90208    76.277581 
   41100    697.77833    -161.1643    0.6313645   -160.53294    14884.392    4.2281325    4.2281325    4.2281325    14884.392    41755.428   -3845.7151    6743.4631   -6281.6122    7897.3176    14419.998    75.586767 
   41200    748.52772   -161.21968   0.67728361    -160.5424   -6173.3605    4.2537764    4.2537764    4.2537764   -6173.3605    1173.1126   -20617.749    924.55554     -6001.36     12060.93    3650.6584    76.970442 
   41300    711.29212   -161.17528   0.64359206   -160.53169   -3431.8502    4.2537602    4.2537602    4.2537602   -3431.8502   -38435.524    8928.8215    19211.152   -2445.5705    15277.276   -7749.1764    76.969562 
   41400    705.64773   -161.17158   0.63848489    -160.5331    9305.1532    4.2444425    4.2444425    4.2444425    9305.1532   -13913.264    22568.097    19260.627   -7691.4168    16067.907   -7029.5918     76.46487 
   41500    819.19752   -161.28218   0.74122713   -160.54095   -6204.7281    4.2542391    4.2542391    4.2542391   -6204.7281    -8711.503    -24557.75    14655.068   -22179.521    8233.0135   -8497.3945    76.995559 
   41600     826.6626   -161.28438   0.74798169    -160.5364   -5047.7879    4.2397176    4.2397176    4.2397176   -5047.7879   -1413.9542   -36912.725    23183.316   -31503.129    2427.8679   -3307.0117    76.209794 
   41700     736.5714   -161.19962   0.66646528   -160.53315     4351.805     4.231281     4.231281     4.231281     4351.805   -3780.0841   -1641.1969    18476.696   -28927.766    3234.8015   -722.02211     75.75575 
   41800    746.94486   -161.21535   0.67585141   -160.53949   -7507.3253    4.2519561    4.2519561    4.2519561   -7507.3253   -15430.854    622.93148   -7714.0535   -12663.997    9232.8305   -4725.4354    76.871669 
   41900    688.52472    -161.1579   0.62299163   -160.53491    6801.1982    4.2530784    4.2530784    4.2530784    6801.1982    16742.844    1750.4734    1910.2772    2761.7088     12939.07    -6985.947    76.932556 
   42000    593.46829   -161.07154   0.53698258   -160.53456    15392.277    4.2463977    4.2463977    4.2463977    15392.277    40884.117   -5163.7815    10456.496     3760.374     13795.45   -11524.887    76.570591 
   42100    783.46974   -161.24641   0.70889988   -160.53751    3283.0093    4.2442473    4.2442473    4.2442473    3283.0093    25463.206   -17313.135    1698.9569    -4631.118    11868.505    2094.1411    76.454323 
   42200    998.53651   -161.43811   0.90349681   -160.53461   -844.44849    4.2411925    4.2411925    4.2411925   -844.44849     34047.89   -27557.889   -9023.3473   -9705.3402    9828.6418   -1756.4215    76.289359 
   42300    818.00225   -161.27851   0.74014562   -160.53836   -2792.6317    4.2523498    4.2523498    4.2523498   -2792.6317    46526.271   -26361.276   -28542.891   -4035.2398   -1051.4935   -7681.4543    76.893028 
   42400    846.16441   -161.29889   0.76562734   -160.53326    1944.8095    4.2565076    4.2565076    4.2565076    1944.8095     51142.27   -6722.7136   -38585.128   -10736.123   -5993.8277    4482.8615    77.118793 
   42500    1024.0909   -161.45502   0.92661901    -160.5284     12304.27    4.2459036    4.2459036    4.2459036     12304.27    70883.497   -3637.2016   -30333.484   -6646.9637   -11106.385   -2408.5761    76.543865 
   42600    1045.9268   -161.47971   0.94637652   -160.53333   -1418.2373    4.2510671    4.2510671    4.2510671   -1418.2373    57226.383   -29106.997   -32374.098   -637.13217   -8150.7984    6015.9765    76.823461 
   42700     1032.687   -161.46583   0.93439689   -160.53143   -6368.3907    4.2554716    4.2554716    4.2554716   -6368.3907    36950.843   -27074.146   -28981.869    2664.1085     5839.789    6280.7892    77.062498 
   42800    864.63441   -161.31204   0.78233938    -160.5297    30104.269    4.2403696    4.2403696    4.2403696    30104.269    90813.798    2918.5882   -3419.5792    14724.327    6359.7124   -2024.1894    76.244962 
   42900    837.70108   -161.29404   0.75796954   -160.53607    19597.315    4.2462351    4.2462351    4.2462351    19597.315    89580.733   -15917.237   -14871.551    10912.429    2053.0501    301.72758    76.561796 
   43000    792.98976   -161.25087    0.7175138   -160.53336   -4901.8244    4.2624123    4.2624123    4.2624123   -4901.8244     73320.92    -48619.92   -39406.473    9735.9119   -6152.9143     2363.175    77.440182 
   43100     709.3501   -161.17525   0.64183488   -160.53341    17477.236    4.2538026    4.2538026    4.2538026    17477.236    91846.366   -18722.954   -20691.704    10453.439   -16049.977     2980.878    76.971864 
   43200    717.94829   -161.18813    0.6496147   -160.53852    25500.356    4.2485532    4.2485532    4.2485532    25500.356    101749.06    -22973.82   -2274.1714   -4130.4635   -16459.576     -10907.1    76.687253 
   43300    724.17944   -161.19635   0.65525277    -160.5411    11532.356    4.2548167    4.2548167    4.2548167    11532.356    80140.924    -38960.76   -6583.0952   -7489.3083    -9481.139   -12924.683    77.026924 
   43400    777.64532   -161.24112   0.70362983   -160.53749    14835.026    4.2502816    4.2502816    4.2502816    14835.026    52757.856   -1745.4492   -6507.3282   -2385.5108    5568.2704    1136.0787    76.780886 
   43500    938.78809   -161.38035    0.8494352   -160.53092    11092.274    4.2434322    4.2434322    4.2434322    11092.274    43223.953   -869.79077   -9077.3405   -3927.6444    10830.262   -6475.4941    76.410282 
   43600    1011.1297   -161.44539   0.91489136    -160.5305    1500.9599    4.2437596    4.2437596    4.2437596    1500.9599    50011.201   -40723.574   -4784.7473    6692.3951    14783.612   -5394.6765    76.427967 
   43700    1054.0285   -161.48335   0.95370718   -160.52964   -16266.575    4.2551446    4.2551446    4.2551446   -16266.575    -15947.76    -38426.16    5574.1954    3151.2179    14986.679    3122.2379    77.044733 
   43800    989.18147   -161.41857   0.89503218   -160.52353   -12801.239    4.2554861    4.2554861    4.2554861   -12801.239   -53869.313   -9371.2634    24836.858   -4895.7515    2645.4145   -9785.9751    77.063288 
   43900    1145.4413   -161.55506    1.0364193   -160.51864    4046.6057    4.2393843    4.2393843    4.2393843    4046.6057   -6379.7761   -14869.289    33388.882   -1139.7485   -6887.3745    3476.0769    76.191822 
   44000    1039.3518   -161.46822   0.94042734   -160.52779   -2568.6639    4.2475024    4.2475024    4.2475024   -2568.6639    9506.4111   -27780.276    10567.873   -6217.4176    -8461.737     11262.31    76.630368 
   44100    769.09854   -161.22402   0.69589652   -160.52812    284.04356    4.2586433    4.2586433    4.2586433    284.04356    18519.022   -8456.9457   -9209.9451    1927.2392   -10293.198    10708.236    77.234935 
   44200    827.23151   -161.27334   0.74849646   -160.52485    13057.618    4.2526156    4.2526156    4.2526156    13057.618     39916.62    1359.6622   -2103.4298    7752.8313   -3747.0714    14998.142    76.907444 
   44300    1013.2049   -161.44445    0.9167691   -160.52768   -12266.663    4.2524556    4.2524556    4.2524556   -12266.663   -3587.6945   -43824.422    10612.127   -1422.5068    2232.6947    8336.0684    76.898767 
   44400    1048.1667   -161.47392   0.94840324   -160.52551   -24723.785    4.2438718    4.2438718    4.2438718   -24723.785    -22646.97   -40403.049   -11121.336    688.93699    6960.3552    8130.8454    76.434031 
   44500    987.84106    -161.4208   0.89381935   -160.52698   -10923.559    4.2379469    4.2379469    4.2379469   -10923.559   -538.91191   -15912.866     -16318.9    3158.4873    7064.1815    12201.164    76.114348 
   44600    899.10866   -161.35052   0.81353241   -160.53699    -11264.62    4.2579719    4.2579719    4.2579719    -11264.62    35024.713   -49297.336   -19521.237    6612.8528   -3589.4988    6439.0394    77.198414 
   44700    794.86771   -161.25129   0.71921301   -160.53208   -5230.3289    4.2630526    4.2630526    4.2630526   -5230.3289    54945.235   -63350.568   -7285.6541    3343.3527   -3770.1645    1688.6156    77.475087 
   44800      702.204   -161.16199   0.63536893   -160.52662    16139.783    4.2446519    4.2446519    4.2446519    16139.783    53909.843   -18743.701    13253.208    254.11311   -7284.9159    637.31746     76.47619 
   44900    809.99142   -161.26011   0.73289726   -160.52721    8868.8973    4.2395371    4.2395371    4.2395371    8868.8973    44771.635   -18933.186     768.2423   -6088.0597   -17668.861   -8130.2868    76.200063 
   45000    987.63566   -161.42366    0.8936335   -160.53003     11929.68    4.2375666    4.2375666    4.2375666     11929.68    56255.077   -15394.473    -5071.566   -7638.2312   -5267.8621    -11163.58    76.093857 
   45100     1068.365   -161.50068    0.9666791     -160.534    3610.9531     4.245084     4.245084     4.245084    3610.9531    28884.337   -14018.528   -4032.9499   -3111.5424   -10929.951   -9763.7935     76.49955 
   45200    1150.8623   -161.57085    1.0413244   -160.52953   -20678.396    4.2585167    4.2585167    4.2585167   -20678.396   -39268.717   -20963.906   -1802.5663    1974.0644    2520.0494   -3692.6811    77.228049 
   45300    1100.0232   -161.51907   0.99532412   -160.52375   -9491.8555     4.245731     4.245731     4.245731   -9491.8555   -20306.815   -16634.888    8466.1367    3378.8735    8317.9539      5424.95    76.534528 
   45400    1133.5788   -161.54997    1.0256859   -160.52429    11811.967    4.2339222    4.2339222    4.2339222    11811.967    24086.744   -1570.2125     12919.37    -10644.92    4910.8949    2779.3922    75.897702 
   45500    1061.4526   -161.49327   0.96042459   -160.53284   -12216.328    4.2550757    4.2550757    4.2550757   -12216.328    17067.361   -25662.977   -28053.368   -8285.3431    12918.417   -5097.7752    77.040991 
   45600    893.98468   -161.33576   0.80889612   -160.52686   -11726.506    4.2595952    4.2595952    4.2595952   -11726.506    55277.928   -48077.481   -42379.964     5089.245    4164.1836   -5877.1111    77.286738 
   45700    851.28864   -161.30213   0.77026385   -160.53186    17608.697    4.2493516    4.2493516    4.2493516    17608.697     94021.55   -20370.868   -20824.591    7556.9474   -366.18136    3285.0844    76.730497 
   45800    997.96249   -161.44487   0.90297743   -160.54189    3650.3497    4.2579653    4.2579653    4.2579653    3650.3497    58362.164   -36514.793   -10896.322    14091.059   -6853.5895    8085.2766    77.198055 
   45900    943.71319   -161.39245   0.85389152   -160.53856    2958.7545    4.2546696    4.2546696    4.2546696    2958.7545    46920.977   -36546.656    -1498.058    5143.4587   -16981.431    3201.0087     77.01894 
   46000       962.18   -161.41124   0.87060069   -160.54063    -4816.058    4.2504006    4.2504006    4.2504006    -4816.058    33015.739   -38925.816   -8538.0968   -5706.5532    -12022.09    1359.3955    76.787334 
   46100    1173.3891    -161.6063    1.0617071   -160.54459    -23726.84     4.260934     4.260934     4.260934    -23726.84    3645.3188   -42603.487   -32222.353   -3030.1878   -4535.2387    1934.8437    77.359636 
   46200    860.27541   -161.32047   0.77839527   -160.54207   -4705.1457    4.2574428    4.2574428    4.2574428   -4705.1457    4308.5303   -31863.354    13439.387   -5773.8211    1264.8462   -11705.901    77.169636 
   46300    606.40037     -161.084    0.5486838   -160.53531    487.07864    4.2514709    4.2514709    4.2514709    487.07864   -587.35398   -39006.538    41055.128    2698.5138    11755.494   -13714.287    76.845355 
   46400    825.47576   -161.28127   0.74690781   -160.53436   -1643.4397    4.2530367    4.2530367    4.2530367   -1643.4397     11049.19    -38504.26    22524.751     124.3691    18123.732    -5019.875    76.930296 
   46500    899.59776   -161.34904   0.81397496   -160.53506    4485.9123    4.2482197    4.2482197    4.2482197    4485.9123    26905.552   -33598.577    20150.762   -4937.8084    10567.523    678.27185    76.669195 
   46600    514.17083   -161.00248   0.46523257   -160.53724    12325.493    4.2485846    4.2485846    4.2485846    12325.493    32587.025   -22681.829    27071.284   -6141.4848    15885.629   -929.03474    76.688955 
   46700    700.16812   -161.16916   0.63352683   -160.53564   -6046.7977     4.245914     4.245914     4.245914   -6046.7977    36002.585   -46981.143   -7161.8358   -7924.2744    1802.2339   -7614.4232    76.544429 
   46800    1159.1714   -161.57772    1.0488426   -160.52887   -7693.6893    4.2410048    4.2410048    4.2410048   -7693.6893    18542.359   -29141.631   -12481.795   -408.43502    -5091.995   -4963.1524     76.27923 
   46900    1026.6691   -161.45806   0.92895177   -160.52911   -21909.238    4.2544376    4.2544376    4.2544376   -21909.238   -28215.232   -54129.982      16617.5    6262.9775    -4118.611    -1779.111    77.006336 
   47000    735.88748   -161.19211   0.66584645   -160.52626   -10173.091    4.2514707    4.2514707    4.2514707   -10173.091   -12013.239   -41147.759    22641.726   -3781.8292   -3825.1878    8607.4915    76.845348 
   47100     933.9313   -161.37154   0.84504067    -160.5265    17226.299    4.2371865    4.2371865    4.2371865    17226.299    30011.615    648.12237    21019.159   -14558.349    3146.9113     15578.68    76.073383 
   47200    896.57302   -161.34468   0.81123811   -160.53344    581.09426    4.2528037    4.2528037    4.2528037    581.09426    8622.9305   -24821.972    17942.324   -2194.4197    9111.9405    16562.641    76.917649 
   47300    678.62569   -161.13703   0.61403479     -160.523   -12093.978    4.2596977    4.2596977    4.2596977   -12093.978   -38324.131   -52882.415    54924.612    5741.4202    10090.713    12254.269    77.292319 
   47400     643.1443   -161.10535   0.58193048   -160.52342    21003.805    4.2471012    4.2471012    4.2471012    21003.805   -9886.1817   -13770.862    86668.459   -2710.3683   -2166.0723   -3604.1711    76.608654 
   47500    773.03624   -161.23592   0.69945944   -160.53646    20285.935    4.2488424    4.2488424    4.2488424    20285.935    7350.5603   -15270.259    68777.504   -9153.4345   -5513.3042   -2114.6271    76.702916 
   47600    667.30035   -161.13705   0.60378738   -160.53326    1771.1786    4.2559494    4.2559494    4.2559494    1771.1786   -15616.472   -40315.363    61245.371    878.58912   -5581.2813    1479.9106    77.088457 
   47700    601.75607   -161.07414   0.54448154   -160.52966    1672.6934    4.2588138    4.2588138    4.2588138    1672.6934   -46930.379   -28066.067    80014.526    6379.3434   -1521.9982    10534.056    77.244215 
   47800    805.21266   -161.26227   0.72857334    -160.5337    15206.798    4.2571731    4.2571731    4.2571731    15206.798   -29604.166   -2560.9231    77785.483    1137.1696    7505.5921    24871.581    77.154972 
   47900    718.67033   -161.18457   0.65026802   -160.53431     20106.32    4.2467326    4.2467326    4.2467326     20106.32   -9609.5308    2874.8791    67053.613   -504.62259    1828.5665     17953.32    76.588708 
   48000    721.12138   -161.18084   0.65248578   -160.52836    6459.9735    4.2434345    4.2434345    4.2434345    6459.9735   -18055.098   -22785.764    60220.783    10144.664    6026.5257    12983.926    76.410409 
   48100    1162.2932   -161.57818    1.0516673   -160.52651   -5487.9937    4.2501027    4.2501027    4.2501027   -5487.9937   -8718.2798   -32974.347    25228.646    10684.684   -11924.322     1450.757    76.771189 
   48200    1318.2026   -161.72075    1.1927374   -160.52801    -14564.96    4.2556961    4.2556961    4.2556961    -14564.96   -816.07809   -24772.421   -18106.382   -1134.1952    -10963.74   -3791.0025    77.074695 
   48300    824.75004   -161.27429   0.74625117   -160.52804   -9528.2732    4.2543377    4.2543377    4.2543377   -9528.2732   -19048.015    13097.768   -22634.574   -5171.9192    1681.8026    4268.3593    77.000913 
   48400    715.44042   -161.17803   0.64734552   -160.53069    11425.991    4.2456179    4.2456179    4.2456179    11425.991    10256.485     33781.07     -9759.58   -21215.385    3210.5332    2029.5409    76.528416 
   48500    996.73484   -161.43092   0.90186663   -160.52905    27731.399    4.2387656    4.2387656    4.2387656    27731.399    33546.963    46559.103    3088.1303   -15962.516    4681.6987     15183.18    76.158468 
   48600    883.63807   -161.32841   0.79953429   -160.52888    6063.6175    4.2508598    4.2508598    4.2508598    6063.6175    -8909.626     25174.17    1926.3083   -3382.0098    5380.0413    10331.709    76.812223 
   48700    811.12437    -161.2608   0.73392238   -160.52688   -9880.9422    4.2570208    4.2570208    4.2570208   -9880.9422   -33092.897    7180.4371   -3730.3661   -2554.2578   -4594.4899   -58.865542    77.146691 
   48800    1173.9894   -161.58943    1.0622503   -160.52718    -7228.058    4.2505481    4.2505481    4.2505481    -7228.058    -1165.861   -14415.744   -6102.5692    689.87703   -3690.8274   -6944.2096    76.795327 
   48900    1016.5332   -161.45141   0.91978057   -160.53163   -13266.348    4.2478947    4.2478947    4.2478947   -13266.348    23336.248   -40356.794   -22778.496   -8964.7789    4434.4651   -5097.4064    76.651598 
   49000    546.55128   -161.02804   0.49453109   -160.53351    1548.7041    4.2447665    4.2447665    4.2447665    1548.7041    27838.001   -18992.286   -4199.6028   -16596.638     6745.844    6003.7887    76.482386 
   49100    590.15693   -161.07009   0.53398639    -160.5361    20258.482    4.2477646    4.2477646    4.2477646    20258.482    56444.107    2865.8331    1465.5067   -16124.049    11375.081    4871.4253     76.64456 
   49200    889.99158   -161.33927   0.80528308   -160.53399    14823.543    4.2554434    4.2554434    4.2554434    14823.543    49921.994    3661.3397   -9112.7046   -7575.5851    1198.6969   -6899.7999    77.060965 
   49300    938.53509    -161.3703   0.84920628   -160.52109   -9524.5602     4.256601     4.256601     4.256601   -9524.5602    -6199.327   -13177.421   -9196.9329   -2054.9011   -2845.1756   -14126.374     77.12387 
   49400    1052.0673   -161.46457    0.9519326   -160.51264   -18236.005    4.2479654    4.2479654    4.2479654   -18236.005   -40167.489   -29919.527        15379    4937.1687    592.17496   -15735.549    76.655426 
   49500    1108.8398   -161.52266    1.0033016   -160.51936   -1634.3672    4.2456553    4.2456553    4.2456553   -1634.3672   -20734.101   -4462.5784    20293.578   -5371.3439    5145.5434   -6096.1549    76.530437 
   49600    805.27613    -161.2532   0.72863076   -160.52457    16847.144    4.2466916    4.2466916    4.2466916    16847.144    7144.2533    26356.653    17040.525   -10571.355    10112.476    9495.6906    76.586491 
   49700    916.61555   -161.35349   0.82937301   -160.52412    875.87963    4.2486406    4.2486406    4.2486406    875.87963   -25252.323    9798.9321     18081.03   -2387.6005    339.98064    227.33557    76.691984 
   49800    1270.0216   -161.67249    1.1491422   -160.52335    -24717.17    4.2580078    4.2580078    4.2580078    -24717.17   -39923.148    -3054.472    -31173.89    8435.6323   -9282.4884    4148.6437    77.200367 
   49900    1165.7169   -161.57839    1.0547651   -160.52362   -2611.7767     4.249244     4.249244     4.249244   -2611.7767    16510.794    11926.341   -36272.465    11874.793    -7662.743   -4179.5153    76.724665 
   50000    979.57771   -161.41207    0.8863425   -160.52573    5220.1657     4.242938     4.242938     4.242938    5220.1657     26438.37   -12749.049    1971.1763    5241.1104    6764.0783   -12690.797    76.383588 
   50100     763.4565   -161.22226   0.69079149   -160.53147   -3.1997151    4.2574933    4.2574933    4.2574933   -3.1997151    22268.897   -33161.003    10882.507   -5409.6823    19284.583   -4355.1205    77.172382 
   50200    884.75997   -161.32691   0.80054941   -160.52636    13983.048    4.2527703    4.2527703    4.2527703    13983.048    40164.982    -17068.48     18852.64   -5123.5373    19590.305    6240.4992    76.915837 
   50300    734.25558    -161.1895   0.66436988   -160.52513    11069.938     4.250417     4.250417     4.250417    11069.938    44078.751     -27063.4    16194.464   -8888.1067    9856.1845    1875.9106    76.788221 
   50400    1004.2547    -161.4366   0.90867077   -160.52793   -28466.859    4.2647242    4.2647242    4.2647242   -28466.859   -28420.514    -66372.24    9392.1767   -3123.1222   -3129.1945   -4132.3662    77.566263 
   50500    1226.5396   -161.63364    1.1097988   -160.52384   -17872.116    4.2552048    4.2552048    4.2552048   -17872.116   -23937.571   -21695.062   -7983.7135   -1717.9503       -10699   -7126.3426    77.048006 
   50600    1172.5116   -161.58464    1.0609132   -160.52372   -11128.344    4.2411111    4.2411111    4.2411111   -11128.344   -17579.709    -2553.824   -13251.501    -13728.99   -7765.9152    9631.9064    76.284967 
   50700    960.99642   -161.40225   0.86952976   -160.53272   -16165.552    4.2481098    4.2481098    4.2481098   -16165.552   -39214.824   -16635.426    7353.5949    -11752.63   -12099.191    8360.6456    76.663245 
   50800    1026.5763   -161.46047   0.92886781    -160.5316    -15126.47     4.258659     4.258659     4.258659    -15126.47   -11091.243    -39491.73    5203.5618   -8312.9849    1586.4005    7821.9433    77.235791 
   50900    848.79557   -161.29514   0.76800807   -160.52714    9917.5035    4.2576121    4.2576121    4.2576121    9917.5035    25186.399   -6216.6489     10782.76    9.9800364    8535.7496    -2529.562    77.178844 
   51000    654.89211   -161.11866   0.59256014    -160.5261    16367.864     4.251314     4.251314     4.251314    16367.864    13949.181    -13800.02    48954.433    1126.6964    11473.376    -435.8353    76.836848 
   51100    834.96431    -161.2816   0.75549325   -160.52611   -417.31911    4.2426367    4.2426367    4.2426367   -417.31911   -13591.965   -34536.771    46876.779   -7051.1412    1088.9924     9448.794     76.36732 
   51200    1197.8966   -161.60967     1.083882   -160.52579   -5093.1472    4.2395867    4.2395867    4.2395867   -5093.1472   -16764.924   -21466.047     22951.53   -5873.1122   -8789.0377    7812.4988    76.202734 
   51300    1092.0791   -161.52055   0.98813613   -160.53241   -15867.991    4.2574799    4.2574799    4.2574799   -15867.991    4678.8447   -33614.174   -18668.645   -3809.9154   -12456.537    5236.1095    77.171655 
   51400    918.76481   -161.35754   0.83131771   -160.52622   -22710.541    4.2624043    4.2624043    4.2624043   -22710.541   -5748.0539   -39154.243   -23229.325    8940.2624   -2623.3136   -5594.5159    77.439746 
   51500    800.22048   -161.24483    0.7240563   -160.52077   -2099.6457    4.2465329    4.2465329    4.2465329   -2099.6457    21643.491   -35011.438    7069.0101    12544.078   -3887.1451   -18197.721    76.577906 
   51600    810.49476   -161.26033   0.73335269   -160.52698    18054.938    4.2416562    4.2416562    4.2416562    18054.938    75015.438   -16852.537   -3998.0851    6900.8811    16786.447   -9326.3242    76.314382 
   51700    453.75547   -160.94637   0.41056749    -160.5358    21330.947    4.2483414    4.2483414    4.2483414    21330.947    85464.977   -10244.986   -11227.149   -1720.7826    21795.634   -6423.6676    76.675784 
   51800    522.54408   -161.00823   0.47280886   -160.53542    3172.2943    4.2497324    4.2497324    4.2497324    3172.2943    29047.284    -2662.179   -16868.222   -11681.022    12663.832    147.52079    76.751127 
   51900     814.0905   -161.27175   0.73660619   -160.53515    5699.4161    4.2513229    4.2513229    4.2513229    5699.4161    4945.2898    1910.8075    10242.151   -3766.6859    9572.7789   -11252.237    76.837332 
   52000    1239.8665    -161.6521    1.1218573   -160.53024   -15247.606    4.2473415    4.2473415    4.2473415   -15247.606   -1473.7486   -28686.001   -15583.068    3347.8644    3096.3944   -16791.317    76.621656 
   52100    877.04801   -161.32029   0.79357147   -160.52672   -7887.1776    4.2385347    4.2385347    4.2385347   -7887.1776    17611.094   -20598.418   -20674.208   -2192.6335   -8218.6888   -12844.436    76.146026 
   52200    983.23802   -161.42142   0.88965442   -160.53177   -21879.019    4.2509699    4.2509699    4.2509699   -21879.019   -26567.346   -30230.445   -8839.2664   -6308.4597    3818.2081    -4614.917    76.818194 
   52300    961.57137   -161.39871   0.87004998   -160.52866   -6057.3424    4.2635274    4.2635274    4.2635274   -6057.3424    8026.8644   -47240.045    21041.153   -10118.676    2571.7975    9089.1846    77.500975 
   52400     707.1979   -161.16468   0.63988752   -160.52479    18209.126    4.2499573    4.2499573    4.2499573    18209.126    61997.858   -47376.924    40006.444    8140.3709    24366.041     11630.47    76.763312 
   52500    387.24495   -160.88105   0.35038737   -160.53066    18223.399    4.2467803    4.2467803    4.2467803    18223.399    54601.517   -48155.254    48223.934    1628.6241    23413.501    9167.8495     76.59129 
   52600     792.3635   -161.25547   0.71694715   -160.53853    3626.6836    4.2535789    4.2535789    4.2535789    3626.6836     24815.27   -43162.589     29227.37    238.09631    12048.922    16453.003    76.959721 
   52700    1072.5228   -161.50546   0.97044121   -160.53502    1921.8684    4.2510635    4.2510635    4.2510635    1921.8684    23340.966   -28633.828    11058.467   -7256.2901    6084.4859    2851.6073    76.823265 
   52800    990.09809   -161.42838   0.89586156   -160.53252   -16424.576    4.2568046    4.2568046    4.2568046   -16424.576    1627.4765   -36030.589   -14870.616    726.98127   -4459.4756    -2242.646    77.134942 
   52900    1082.8117   -161.50823   0.97975079   -160.52847   -29353.513    4.2597931    4.2597931    4.2597931   -29353.513   -42129.849    -24500.76   -21429.931    3949.4806   -9834.9008   -875.68478    77.297512 
   53000    1237.5889   -161.64365    1.1197965   -160.52386    42.230396    4.2395319    4.2395319    4.2395319    42.230396   -20788.927    2943.5155    17972.102    -3323.223    4040.9921   -868.54353     76.19978 
   53100    1076.1531   -161.50275   0.97372592   -160.52903    1917.4253    4.2393288    4.2393288    4.2393288    1917.4253   -11803.216   -18711.907    36267.399   -9089.8566    6080.3991    3598.7566    76.188832 
   53200    780.72726   -161.23967   0.70641843   -160.53325    -4416.263    4.2558426    4.2558426    4.2558426    -4416.263   -10876.656   -38966.805    36594.672   -9858.5963    12719.934   -3719.2653    77.082654 
   53300    746.21277   -161.20504   0.67518899   -160.52985    24227.881    4.2510587    4.2510587    4.2510587    24227.881    29900.865   -15027.774    57810.552    7280.1285     20930.56   -6734.7843     76.82301 
   53400    994.01784   -161.42665   0.89940823   -160.52724     23184.61    4.2452228    4.2452228    4.2452228     23184.61     45831.75   -31459.235    55181.316    6181.7434    7711.4098   -215.72516    76.507049 
   53500    1065.9297   -161.49216   0.96447561   -160.52768   -18394.466    4.2520442    4.2520442    4.2520442   -18394.466   -30066.555   -55237.042    30120.201   -4099.0972    5735.5199    5514.9689    76.876447 
   53600    1036.4341   -161.46414   0.93778739   -160.52636   -9820.9283    4.2396754    4.2396754    4.2396754   -9820.9283   -40691.968   -15433.106    26662.289    528.37488   -1242.6504    12088.961    76.207518 
   53700    1236.4876   -161.65002       1.1188   -160.53122   -9814.0407    4.2410696    4.2410696    4.2410696   -9814.0407    -20101.26   -18968.326    9627.4642    1727.3676   -8620.9507    4503.9046    76.282726 
   53800    1169.8587   -161.59062    1.0585128    -160.5321   -21815.255    4.2600927    4.2600927    4.2600927   -21815.255   -2733.8319   -44351.086   -18360.847    13456.896   -5491.9397    1585.6443    77.313824 
   53900    886.55093   -161.32744   0.80216991   -160.52527   -5471.9765    4.2531935    4.2531935    4.2531935   -5471.9765    24196.285   -25755.451   -14856.763    7500.4868   -3936.8284   -6782.6725    76.938801 
   54000     710.7507   -161.17023   0.64310217   -160.52712    30518.005    4.2447079    4.2447079    4.2447079    30518.005    69981.873     9163.625    12408.518   -5850.6298    5078.8692   -1086.0458    76.479217 
   54100    783.77434   -161.23918    0.7091755   -160.53001    18415.898     4.255787     4.255787     4.255787    18415.898    86707.708   -28315.317   -3144.6963    -7842.341    9071.0147    6612.4887    77.079634 
   54200    684.22576   -161.14681   0.61910184   -160.52771    14446.237    4.2478284    4.2478284    4.2478284    14446.237    76793.926   -33590.543    135.32763    -4307.872    70.245438    4174.8629    76.648013 
   54300    766.41138    -161.2231   0.69346513   -160.52964    9075.4631    4.2426317    4.2426317    4.2426317    9075.4631     63759.84   -22844.988   -13688.463   -385.67478    2182.8577   -589.29956    76.367048 
   54400     955.9171   -161.39983   0.86493388    -160.5349   -8030.2747    4.2555764    4.2555764    4.2555764   -8030.2747    51647.269   -43876.875   -31861.219    15276.461   -12173.284   -6475.9256    77.068195 
   54500     903.0445   -161.34827   0.81709364   -160.53118    4869.7926    4.2543349    4.2543349    4.2543349    4869.7926    39054.768   -29392.844    4947.4533    4318.8877   -10307.798    1001.1129    77.000764 
   54600    1035.2926   -161.46057   0.93675453   -160.52381   -4323.3218    4.2494997    4.2494997    4.2494997   -4323.3218   -4216.5629   -14672.786    5919.3836   -6824.0387   -4328.0464    7446.4157    76.738519 
   54700    1267.8134   -161.66945    1.1471442   -160.52231   -8970.0553    4.2425988    4.2425988    4.2425988   -8970.0553   -11537.763   -10913.611   -4458.7917   -5857.2364   -5889.4362   -2503.2127    76.365268 
   54800    1435.2863   -161.82396    1.2986772   -160.52528   -17984.219    4.2434663    4.2434663    4.2434663   -17984.219   -3650.0129   -32236.121   -18066.524   -12357.168    7964.2292   -4626.3635    76.412126 
   54900    1278.5321   -161.68709    1.1568428   -160.53025   -31553.591    4.2564562    4.2564562    4.2564562   -31553.591    -40735.34   -26369.741   -27555.691   -4117.6767   -1640.2915    -16.34757       77.116 
   55000    944.45136   -161.38314   0.85455944   -160.52858   -7266.3048    4.2518372    4.2518372    4.2518372   -7266.3048   -34033.014     34390.25   -22156.151    10585.554    -886.4268   -1478.6751     76.86522 
   55100     931.6483   -161.37085   0.84297496   -160.52787    15394.951    4.2411475    4.2411475    4.2411475    15394.951    19696.959    12626.722    13861.172    10331.561   -7868.5996    2136.2867    76.286927 
   55200     835.4059   -161.28578   0.75589282   -160.52989    10553.336    4.2459721    4.2459721    4.2459721    10553.336    29139.866   -2452.7641    4972.9071    15892.497   -9841.8814   -3573.1037    76.547568 
   55300    921.39816   -161.35942   0.83370042   -160.52572   -4599.7822    4.2470211    4.2470211    4.2470211   -4599.7822   -16348.675    242.84348    2306.4853    12448.098    5166.3775   -2792.3267    76.604319 
   55400    1074.8374    -161.4956   0.97253543   -160.52307    -14412.07    4.2464246    4.2464246    4.2464246    -14412.07   -35879.912    2521.9494   -9878.2484    2855.0572    5354.9758    -10818.62    76.572046 
   55500    971.74204   -161.40635   0.87925262    -160.5271   -18393.593    4.2558781    4.2558781    4.2558781   -18393.593   -23325.491   -48062.658     16207.37    11318.021    -3706.222     -8400.22    77.084584 
   55600    610.91738   -161.08159   0.55277088   -160.52882    12451.635      4.24977      4.24977      4.24977    12451.635    9354.0645    -21366.85     49367.69    10955.219   -11165.254    4899.9365    76.753164 
   55700    688.05782   -161.15286   0.62256917   -160.53029    25134.363    4.2411739    4.2411739    4.2411739    25134.363    13109.441    19713.201    42580.446    12594.877   -6494.4607    14682.453    76.288354 
   55800    981.25587   -161.41608   0.88786093   -160.52822    928.12762    4.2458836    4.2458836    4.2458836    928.12762   -1498.1687   -9499.9906    13782.542    4326.9637   -3146.2972    3144.8178    76.542783 
   55900    1238.4935   -161.64311     1.120615    -160.5225   -14258.352    4.2452778    4.2452778    4.2452778   -14258.352   -8287.7877   -33690.025   -797.24367   -3130.8636     1828.281   -1886.4899    76.510024 
   56000    1092.8432   -161.51711   0.98882753   -160.52829   -9740.4976    4.2513023    4.2513023    4.2513023   -9740.4976   -20388.229    -19711.43    10878.167   -579.80831    9678.5024   -2162.4217    76.836216 
   56100    1021.2736   -161.45257   0.92406981    -160.5285   -10091.537    4.2570055    4.2570055    4.2570055   -10091.537   -21518.894    8738.2538   -17493.971    4395.2246    4818.8887    2745.7383    77.145861 
   56200    1059.0148   -161.48257   0.95821884   -160.52435    8398.7087    4.2400491    4.2400491    4.2400491    8398.7087    31031.185    9366.0523   -15201.111    3501.9948    2220.0121    18013.831    76.227673 
   56300     914.8806   -161.35675   0.82780319   -160.52895   -1044.4731    4.2453005    4.2453005    4.2453005   -1044.4731    14624.494   -6017.9718   -11739.942    405.28453    524.12945    15633.249    76.511251 
   56400    1110.4736   -161.53054    1.0047798   -160.52576   -26776.834    4.2556106    4.2556106    4.2556106   -26776.834   -37452.417   -28849.553   -14028.533   -8465.9665   -8881.7867     7947.988    77.070051 
   56500    1125.8382   -161.54128    1.0186821    -160.5226    460.64095    4.2423117    4.2423117    4.2423117    460.64095   -12280.196   -8101.4266    21763.545   -10013.592   -1806.2473    9087.0821    76.349771 
   56600    945.49364   -161.38427   0.85550251   -160.52877    -7428.972    4.2510671    4.2510671    4.2510671    -7428.972    -1818.579   -35202.764    14734.426   -9042.2211    6680.5277   -2993.9476    76.823463 
   56700    651.16226   -161.11908   0.58918529    -160.5299   -883.28421    4.2549461    4.2549461    4.2549461   -883.28421   -18812.432    7075.5002    9087.0792   -770.78973    5762.0867    408.78974    77.033954 
   56800    569.15347   -161.04433   0.51498202   -160.52934    24731.731    4.2350064    4.2350064    4.2350064    24731.731   -1290.4224    61589.759    13895.855    9744.9115    1056.5925     9491.312    75.956021 
   56900    488.50608   -160.97658   0.44201056   -160.53457    16439.879    4.2388155    4.2388155    4.2388155    16439.879    3325.3891    49651.767   -3657.5183    11300.626    1556.9377      236.711     76.16116 
   57000    545.18553   -161.02982   0.49329533   -160.53652   -263.31261    4.2542631    4.2542631    4.2542631   -263.31261   -11055.333    10386.504    -121.1088    1299.9498   -394.04554    11702.306    76.996862 
   57100     880.7652   -161.32748   0.79693486   -160.53054   -5458.9903    4.2512424    4.2512424    4.2512424   -5458.9903   -16291.108   -12065.744    11979.881   -10459.664    603.68737    1724.1928     76.83297 
   57200    1034.8033   -161.46001   0.93631181   -160.52369   -7211.8037    4.2439419    4.2439419    4.2439419   -7211.8037    8154.4125   -27847.015   -1942.8086    -11687.17    8821.4955    10834.752    76.437821 
   57300    846.77316   -161.29529   0.76617815   -160.52911   -2999.8894    4.2446661    4.2446661    4.2446661   -2999.8894    49374.003   -45603.885   -12769.787   -2061.4998    5627.1211    7782.0753    76.476955 
   57400    708.16174   -161.17266   0.64075962    -160.5319    2490.4167    4.2531544    4.2531544    4.2531544    2490.4167    49666.996   -10232.979   -31962.767    6620.8851    5246.8845    -9360.135    76.936682 
   57500      743.861   -161.20635   0.67306106   -160.53329     18829.37    4.2555579    4.2555579    4.2555579     18829.37     54439.02     15891.65    -13842.56    15448.672    13415.458    1560.2902    77.067186 
   57600    862.17503   -161.31384   0.78011408   -160.53373    8216.1099    4.2490372    4.2490372    4.2490372    8216.1099    57260.944   -29605.681   -3006.9334    2204.9592    -886.0352    2492.5161    76.713465 
   57700    1036.6717   -161.46378    0.9380023   -160.52578   -9991.9493    4.2441397    4.2441397    4.2441397   -9991.9493     8262.994   -35170.239   -3068.6029    -12747.14   -3574.2252    1046.5265    76.448508 
   57800    1312.3013   -161.71212    1.1873978   -160.52472   -21769.827    4.2475448    4.2475448    4.2475448   -21769.827   -33340.975   -22882.819   -9085.6858    -9306.212    1820.1844    3334.7817    76.632658 
   57900    1171.0769   -161.58705    1.0596149   -160.52744   -16054.962    4.2523086    4.2523086    4.2523086   -16054.962   -9249.1667    -19312.18   -19603.538   -1286.7602    1868.2258   -8645.5182    76.890788 
   58000    934.65232   -161.37398   0.84569306   -160.52828    1655.3996    4.2484046    4.2484046    4.2484046    1655.3996    17845.513   -518.26099   -12361.054    9460.9204     8990.336   -11470.731    76.679209 
   58100     855.5294   -161.30282   0.77410098   -160.52872    18518.705     4.245486     4.245486     4.245486    18518.705    25326.376    40147.676   -9917.9382    17467.501    872.35177   -9180.6339    76.521282 
   58200    1110.2761   -161.53146    1.0046011   -160.52686    765.15076     4.250338     4.250338     4.250338    765.15076    928.32112    16002.738   -14635.607    6999.3782   -388.93527   -4756.8836     76.78394 
   58300     1259.879    -161.6637     1.139965   -160.52374   -21718.375    4.2525041    4.2525041    4.2525041   -21718.375   -6825.5105   -40870.995    -17458.62   -5142.2418   -2989.2708    5329.6648    76.901397 
   58400    1271.3818   -161.67363     1.150373   -160.52326   -13371.338     4.246359     4.246359     4.246359   -13371.338   -7017.2098   -29379.358   -3717.4455   -4809.9747   -4140.3822     3629.044    76.568496 
   58500    1078.4219   -161.50233    0.9757788   -160.52655    17572.223    4.2419778    4.2419778    4.2419778    17572.223    7385.4915    5894.7301    39436.447    1569.7593    12335.552   -4581.8224    76.331741 
   58600    888.53806   -161.33047   0.80396791    -160.5265    8283.8808    4.2520272    4.2520272    4.2520272    8283.8808    16389.687    1093.3084    7368.6466    6323.2287     14710.36   -10283.901    76.875524 
   58700     971.4679   -161.39987   0.87900457   -160.52087   -8219.1559    4.2528192    4.2528192    4.2528192   -8219.1559   -4306.0633   -30059.322     9707.918   -58.164973   -1309.5322   -9172.5178    76.918494 
   58800    1365.9502   -161.75402    1.2359404   -160.51808   -12037.299    4.2425561    4.2425561    4.2425561   -12037.299    -29105.88   -17326.264    10320.246   -9478.4295   -2634.1321     210.3622    76.362965 
   58900    1366.8231   -161.76003    1.2367303    -160.5233    -16297.16    4.2468089    4.2468089    4.2468089    -16297.16   -12974.089   -16498.438   -19418.953   -6486.3708   -5428.5888    4789.0371    76.592837 
   59000    914.75974   -161.35571   0.82769384   -160.52801   -3594.4959    4.2555598    4.2555598    4.2555598   -3594.4959     33614.95   -18076.733   -26321.704     7745.589   -2088.7105   -6591.4369    77.067292 
   59100    769.09044   -161.22216   0.69588919   -160.52627    19283.211    4.2542271    4.2542271    4.2542271    19283.211    66429.479    5100.8315   -13680.679    15711.885    12614.636   -8769.5359     76.99491 
   59200     889.8177    -161.3296   0.80512576   -160.52448    23257.436    4.2509232    4.2509232    4.2509232    23257.436    55415.129    22348.463   -7991.2854    14331.339    9995.9085    1810.8892     76.81566 
   59300    1032.2783   -161.45409   0.93402711   -160.52007   -11217.769    4.2556473    4.2556473    4.2556473   -11217.769    29307.607   -32063.019   -30897.895   -462.95168   -4365.5591    6830.2555    77.072045 
   59400    1107.3434   -161.52028    1.0019476   -160.51834   -21827.845    4.2562569    4.2562569    4.2562569   -21827.845   -16233.499   -43867.411   -5382.6246   -10449.789    -6354.029    11563.438    77.105172 
   59500    1149.6371   -161.56375    1.0402158   -160.52353   -6509.2652    4.2533493    4.2533493    4.2533493   -6509.2652   -46531.039    2082.4388    24920.804    -3247.337    656.61756    2539.6843     76.94726 
   59600    739.76349   -161.19599   0.66935355   -160.52664    27335.706    4.2499795    4.2499795    4.2499795    27335.706    2733.3523    33875.296     45398.47    10448.755    9771.4709   -20018.095    76.764512 
   59700    635.67536   -161.09847   0.57517242   -160.52329    28916.509    4.2460613    4.2460613    4.2460613    28916.509    8297.5212     18377.39    60074.616    5805.6637    8402.5214   -13639.504    76.552396 
   59800    1166.8076   -161.57786    1.0557521    -160.5221   -16348.001    4.2579009    4.2579009    4.2579009   -16348.001   -43593.287   -4517.8391   -932.87718   -4480.9323   -6539.9946   -2396.4199    77.194553 
   59900    1236.7872   -161.63704     1.119071   -160.51797   -25879.338    4.2575441    4.2575441    4.2575441   -25879.338   -19035.333    -26759.28   -31843.402    -17803.99   -7536.0132    103.96909    77.175145 
   60000    873.47736   -161.31234   0.79034067     -160.522    3939.8951    4.2470217    4.2470217    4.2470217    3939.8951    67205.237   -49360.813   -6024.7383   -2794.5965     2153.531    8541.2502     76.60435 
   60100    731.38578   -161.19176   0.66177323   -160.52999    25643.676    4.2537728    4.2537728    4.2537728    25643.676    89638.826   -6345.6188   -6362.1795    15590.779    14902.657   -137.55112    76.970243 
   60200    733.84287   -161.19139   0.66399645   -160.52739     28503.05    4.2525735    4.2525735    4.2525735     28503.05    79416.647     7950.094    -1857.591    11994.242    14882.662   -8190.8777     76.90516 
   60300    756.46675   -161.20615   0.68446701   -160.52168    4740.4779    4.2524466    4.2524466    4.2524466    4740.4779    60662.078   -37689.477   -8751.1672    70.942554    2878.1005     6431.601    76.898274 
   60400    1211.2085   -161.61566    1.0959269   -160.51974   -40194.411    4.2662689    4.2662689    4.2662689   -40194.411    -9888.067   -59043.715    -51651.45   -12109.329      -9608.9     12993.14    77.650575 
   60500    1083.2602   -161.49967   0.98015659   -160.51951   -6467.1047    4.2567021    4.2567021    4.2567021   -6467.1047   -49448.359    21813.114    8233.9316   -6110.7777   -4033.6855   -6316.1072     77.12937 
   60600    512.53771   -160.98548    0.4637549   -160.52173     39953.23    4.2457304    4.2457304    4.2457304     39953.23   -16422.966    53279.708    83002.949    7078.2741    7583.7957   -18316.721    76.534496 
   60700    593.98302   -161.06119   0.53744832   -160.52374    18245.172    4.2613512    4.2613512    4.2613512    18245.172   -25343.259    11967.239    68111.538    9013.5354    6218.6775    -17273.79    77.382363 
   60800    1120.9215   -161.53275    1.0142333   -160.51851   -7307.6418    4.2614756    4.2614756    4.2614756   -7307.6418   -50968.059    16133.279    12911.854   -12057.604   -1497.0061   -8948.5584     77.38914 
   60900    1171.7182   -161.57289    1.0601952    -160.5127   -12042.526    4.2503445    4.2503445    4.2503445   -12042.526   -20670.344   -7288.4885   -8168.7446   -8375.8779   -8191.8128    6419.2784    76.784295 
   61000    1013.8832   -161.43451   0.91738279   -160.51712   -20801.511    4.2551409    4.2551409    4.2551409   -20801.511    15354.479   -52013.892    -25745.12   -3169.2753   -262.36612     4036.502    77.044534 
   61100    879.57109   -161.31581    0.7958544   -160.51995     13092.19    4.2495901    4.2495901    4.2495901     13092.19     42584.01    15466.616   -18774.055    12305.322    11236.747   -5933.4857    76.743415 
   61200    765.85756   -161.21529   0.69296401   -160.52233    19319.061    4.2498647    4.2498647    4.2498647    19319.061    23242.822     36080.79   -1366.4281    13798.051    12264.061    -8446.815    76.758296 
   61300    903.39662   -161.33786   0.81741225   -160.52044   -17316.133    4.2614331    4.2614331    4.2614331   -17316.133   -13398.639   -22115.861   -16433.899    968.97436    5896.1058   -6607.8872    77.386826 
   61400    1221.0561   -161.62031    1.1048372   -160.51548   -23620.725    4.2568591    4.2568591    4.2568591   -23620.725   -9321.0609   -24503.884    -37037.23   -11950.232    -8317.219    1814.0144    77.137905 
   61500    1226.8542   -161.62599    1.1100835   -160.51591    -10313.31    4.2536735    4.2536735    4.2536735    -10313.31   -43868.722    19763.723   -6834.9309   -7219.6444   -3661.9433    2577.1481    76.964854 
   61600    665.53656   -161.12213   0.60219147   -160.51994    15408.602    4.2499462    4.2499462    4.2499462    15408.602   -9814.3667    42723.113     13317.06    6871.6828    9158.1863   -11272.742    76.762711 
   61700    613.30007   -161.07616   0.55492679   -160.52124    15410.588    4.2470869    4.2470869    4.2470869    15410.588     15485.51    25219.824    5526.4308    13060.621    9291.7452   -7292.6699    76.607879 
   61800     1128.029   -161.53916    1.0206643    -160.5185   -18099.601    4.2583082    4.2583082    4.2583082   -18099.601   -32798.641    836.34977   -22336.511     4515.191   -2475.4093    8448.1598    77.216704 
   61900     1325.364   -161.71026    1.1992172   -160.51104   -43840.442    4.2603148    4.2603148    4.2603148   -43840.442   -66981.782   -37856.517   -26683.026   -14655.379   -9206.9546    8781.9413    77.325917 
   62000    856.36528   -161.29101    0.7748573   -160.51615   -7424.0155    4.2502144    4.2502144    4.2502144   -7424.0155    6717.9505   -25606.508   -3383.4893   -2845.9455    -2511.991    2225.5259    76.777241 
   62100     772.4722   -161.22357   0.69894908   -160.52462    12878.414     4.250771     4.250771     4.250771    12878.414    18884.097     2916.598    16834.545    6533.3808    9371.9575   -6209.8267    76.807413 
   62200    863.46674   -161.30653   0.78128285   -160.52525    23444.503    4.2458447    4.2458447    4.2458447    23444.503    18906.844    14408.077    37018.588   -7336.5664    10369.031   -15430.628     76.54068 
   62300    752.91993   -161.20636   0.68125778   -160.52511   -1578.1642      4.24959      4.24959      4.24959   -1578.1642     1211.109   -32030.223    26084.621   -8187.0983    3065.2765    34.442994     76.74341 
   62400    905.54697   -161.34171   0.81935792   -160.52235   -32222.489    4.2576902    4.2576902    4.2576902   -32222.489   -27514.372   -65222.867   -3930.2275    -18804.41   -4139.3613    5551.2812    77.183093 
   62500    1070.4955   -161.49019   0.96860684   -160.52158   -13378.929    4.2487172    4.2487172    4.2487172   -13378.929   -5168.3847    796.58691   -35764.989   -13757.007    -13197.64   -2705.3833    76.696135 
   62600    632.26423   -161.10253   0.57208597   -160.53044    14366.625    4.2466074    4.2466074    4.2466074    14366.625    32681.876    32084.281   -21666.284    6441.9714   -7022.7891   -698.26397    76.581935 
   62700    318.60791   -160.82127   0.28828313   -160.53298    24920.183    4.2517814    4.2517814    4.2517814    24920.183    55196.129    24433.546   -4869.1269    5765.9939    2442.9832   -8639.0693    76.862194 
   62800      768.804   -161.22429   0.69563001   -160.52866    11726.744    4.2529107    4.2529107    4.2529107    11726.744     23226.13    28897.517   -16943.416   -4890.4092    2708.7584    1428.7551    76.923458 
   62900    1117.8835   -161.53532    1.0114845   -160.52383    -11205.97    4.2520731    4.2520731    4.2520731    -11205.97   -6588.7945    3964.4923   -30993.607   -624.06394   -4648.5726    6257.3889    76.878014 
   63000    1000.3985   -161.42813   0.90518158   -160.52294   -18663.613    4.2467768    4.2467768    4.2467768   -18663.613   -13004.705   -35911.103   -7075.0324   -13823.683   -10345.647    1954.7244    76.591102 
   63100     1029.228    -161.4575   0.93126714   -160.52623   -8689.5183    4.2438222    4.2438222    4.2438222   -8689.5183    830.55103   -41765.664    14866.558   -8779.7836    96.032268    483.37774    76.431351 
   63200    1021.3131   -161.45794   0.92410553   -160.53384   -2149.2954    4.2551385    4.2551385    4.2551385   -2149.2954    4247.9804    5783.5394   -16479.406    1764.1277   -103.64292   -9264.0786    77.044403 
   63300    777.54461   -161.23535    0.7035387   -160.53181    1420.8917    4.2522629    4.2522629    4.2522629    1420.8917    10810.206    24258.151   -30805.681    2831.0924    627.63715   -25.002878    76.888313 
   63400    463.18187   -160.94809   0.41909669     -160.529    15981.683    4.2384826    4.2384826    4.2384826    15981.683    35647.867     28445.46   -16148.278    9753.2119   -3284.5247    12804.059    76.143215 
   63500    761.28889   -161.22286   0.68883018   -160.53403     8935.525    4.2474085    4.2474085    4.2474085     8935.525    1412.0106    38228.247   -12833.683    4147.1015   -3137.9603    11382.625    76.625281 
   63600    969.87824   -161.40874   0.87756621   -160.53117    555.13767    4.2574069    4.2574069    4.2574069    555.13767   -21610.157    33787.627   -10512.057   -6235.7825   -3858.7332    14719.776    77.167689 
   63700    791.65716   -161.23993   0.71630803   -160.52362   -2803.6662    4.2526016    4.2526016    4.2526016   -2803.6662   -1944.8321   -12658.846      6192.68   -7033.0246    2608.2505    2691.5944    76.906683 
   63800    931.00729   -161.36264   0.84239496   -160.52025   -19668.919    4.2563832    4.2563832    4.2563832   -19668.919   -470.94463   -42357.919   -16177.895   -17704.343    10794.757   -3299.5888    77.112037 
   63900    1253.1012   -161.65498    1.1338323   -160.52115   -8325.7697    4.2508247    4.2508247    4.2508247   -8325.7697    23507.277   -14097.404   -34387.182    -11248.01   -579.55475    -1654.509    76.810322 
   64000    926.50708    -161.3651   0.83832308   -160.52677    956.73841    4.2499961    4.2499961    4.2499961    956.73841    32389.864    -24292.44   -5227.2091    1438.1686   -1214.5109   -6922.1622    76.765415 
   64100    961.00166   -161.39746    0.8695345   -160.52793   -33538.796    4.2628815    4.2628815    4.2628815   -33538.796   -14970.982   -64462.743   -21182.663    7032.5687    5468.2491   -175.60514    77.465758 
   64200    1148.9449   -161.56128    1.0395895   -160.52169   -23215.584    4.2580088    4.2580088    4.2580088   -23215.584   -39984.557   -8236.0493   -21426.146    9803.9764   -2148.6544    -1312.515    77.200422 
   64300    991.65301   -161.41894   0.89726848   -160.52167   -6969.4185     4.247414     4.247414     4.247414   -6969.4185   -11709.604    12658.615   -21857.266   -6747.4286    3593.3148   -5927.3413    76.625581 
   64400    652.55707   -161.12112   0.59044735   -160.53068    -2200.658    4.2499963    4.2499963    4.2499963    -2200.658    11739.447   -25823.099    7481.6784   -15720.603   -5314.0271   -11516.447    76.765426 
   64500     753.4745   -161.21345   0.68175957    -160.5317   -3406.7974    4.2535351    4.2535351    4.2535351   -3406.7974   -6720.3296   -25261.647    21761.584   -17400.711   -4736.4503   -17993.309    76.957342 
   64600    865.00878   -161.31567   0.78267813   -160.53299    7958.9675     4.249394     4.249394     4.249394    7958.9675   -6483.1547    21523.416    8836.6414   -8678.5464    4883.5339   -17414.088    76.732791 
   64700    866.46453   -161.31248   0.78399531   -160.52848   -1642.7928    4.2433893    4.2433893    4.2433893   -1642.7928   -10994.511    13275.501   -7209.3684    1825.2014    8722.7703   -9321.7226    76.407966 
   64800    819.51251   -161.27041   0.74151214   -160.52889    4671.8444    4.2413893    4.2413893    4.2413893    4671.8444    16520.123    1771.9565   -4276.5467     6025.294    6537.5269    3508.6117    76.299979 
   64900    1032.2391   -161.46423   0.93399161   -160.53024   -3252.7576    4.2530729    4.2530729    4.2530729   -3252.7576    19418.403    -5864.071   -23312.605    8888.1278   -2363.9802    10461.393    76.932256 
   65000    1056.8239   -161.48272   0.95623645   -160.52648   -5521.2554    4.2529084    4.2529084    4.2529084   -5521.2554    28662.931   -24764.515   -20462.182    5732.9479   -5579.1751     9710.562    76.923331 
   65100    874.95409   -161.31665   0.79167685   -160.52497    6458.1358    4.2459859    4.2459859    4.2459859    6458.1358    57028.526   -37248.387   -405.73153   -1942.3355    -5292.827    2504.1016    76.548316 
   65200    1060.5579   -161.48852   0.95961506   -160.52891    2203.1083    4.2493149    4.2493149    4.2493149    2203.1083    53126.089   -30012.429   -16504.335   -9089.0024   -6083.7547   -5803.9572    76.728506 
   65300      1037.38   -161.47025   0.93864325    -160.5316    812.69593    4.2539866    4.2539866    4.2539866    812.69593    50329.464   -1486.8813   -46404.495   -6048.4099    6115.9912   -2528.2009    76.981851 
   65400    958.65433   -161.39855   0.86741058   -160.53114   -1987.0415    4.2516789    4.2516789    4.2516789   -1987.0415    30890.101   -9997.2764   -26853.949   -781.09014    10595.569    9093.1047    76.856639 
   65500      912.445   -161.35683   0.82559941   -160.53123    2107.6328    4.2470769    4.2470769    4.2470769    2107.6328    34930.745   -29931.297    1323.4501    5842.0096    13989.318    9062.8202    76.607338 
   65600    1073.4239   -161.50279    0.9712565   -160.53153   -3726.9202    4.2471078    4.2471078    4.2471078   -3726.9202    367.50855   -19472.816    7924.5465    17469.899    13861.823    3054.9522    76.609011 
   65700    870.71571   -161.31727   0.78784187   -160.52943    499.86942    4.2461005    4.2461005    4.2461005    499.86942    1462.5408   -5774.9047    5811.9722    14743.955    1145.6892   -3687.8734    76.554514 
   65800    839.92402   -161.28868    0.7599809    -160.5287    -4177.574     4.248012     4.248012     4.248012    -4177.574    10080.251   -27404.971    4791.9977     9291.566   -3450.8559    -9257.656    76.657951 
   65900     1113.559   -161.53681    1.0075716   -160.52924   -20989.212    4.2530863    4.2530863    4.2530863   -20989.212   -4823.6688    -41142.64   -17001.326    3267.6994   -7442.9073    -6439.575    76.932983 
   66000    1200.2393   -161.61227    1.0860017   -160.52627   -21632.945    4.2460202    4.2460202    4.2460202   -21632.945   -19360.216   -14193.253   -31345.366     2014.786   -8644.2546   -4443.1499    76.550173 
   66100    790.84871   -161.24483   0.71557653   -160.52925   -3234.8187    4.2458983    4.2458983    4.2458983   -3234.8187    1678.4436   -20352.283    8969.3834    7163.1933   -518.69982   -8887.8402    76.543578 
   66200    857.26102    -161.3044   0.77566778   -160.52874    2448.3997    4.2565101    4.2565101    4.2565101    2448.3997    30020.156   -35754.476    13079.519    8849.8516     9407.884   -11256.654    77.118933 
   66300    929.99748   -161.36647   0.84148127   -160.52499    13807.008    4.2545266    4.2545266    4.2545266    13807.008    44556.482    -27320.59    24185.133    6245.4627    9041.6948    2770.4296    77.011169 
   66400     833.5133   -161.27984   0.75418035   -160.52566    18577.751    4.2437766    4.2437766    4.2437766    18577.751    35990.406   -17356.127    37098.974   -2299.7986    11674.928    4177.3887     76.42889 
   66500    931.46235   -161.37129    0.8428067   -160.52849    2950.3648    4.2416397    4.2416397    4.2416397    2950.3648    9021.0204   -24024.147    23854.221    -2909.667    2768.9881   -609.82977     76.31349 
   66600    1352.9623   -161.75191    1.2241887   -160.52772   -30277.571    4.2520614    4.2520614    4.2520614   -30277.571   -36708.398   -32649.611   -21474.703    3453.3271    -12031.42   -1566.5439    76.877379 
   66700    1417.4649   -161.80722    1.2825521   -160.52467   -30825.048    4.2549421    4.2549421    4.2549421   -30825.048   -23493.496   -35852.542   -33129.108    663.31892   -10364.471   -11848.813    77.033737 
   66800    851.32811   -161.29558   0.77029957   -160.52528   -4005.1597    4.2514843    4.2514843    4.2514843   -4005.1597    29321.034   -55556.516    14220.003   -2322.8156   -3058.8945   -7061.6821    76.846083 
   66900    852.17518   -161.29955   0.77106601   -160.52848    14964.766    4.2480472    4.2480472    4.2480472    14964.766    70348.522   -26852.367     1398.142   -11782.523    3145.6803    7356.9039    76.659855 
   67000     897.1125   -161.34209   0.81172624   -160.53036    21541.053    4.2427617    4.2427617    4.2427617    21541.053     90080.08    -19349.52   -6107.4016   -10421.643    12462.942   -537.57053    76.374069 
   67100    728.85843   -161.19326   0.65948642   -160.53378    1446.2153    4.2533805    4.2533805    4.2533805    1446.2153    55546.267   -44251.843   -6955.7786    883.13667    10281.297    7849.9838    76.948951 
   67200    642.24647   -161.11243    0.5811181   -160.53132    1678.3705    4.2591403    4.2591403    4.2591403    1678.3705    42569.488   -44696.287    7161.9103    5510.0423    3735.9956    56.744627     77.26198 
   67300    1167.7215    -161.5828     1.056579   -160.52622    6110.9077    4.2472647    4.2472647    4.2472647    6110.9077    18333.065   -18199.088    18198.746    6639.8382   -7161.8487    592.74859    76.617502 
   67400    1281.8533   -161.67931    1.1598478   -160.51947   -23643.359    4.2473102    4.2473102    4.2473102   -23643.359   -8791.6671   -38312.235   -23826.175   -2305.1838   -20822.849    9958.1066    76.619962 
   67500    912.55549   -161.34579   0.82569939    -160.5201   -25483.917    4.2531166    4.2531166    4.2531166   -25483.917   -15043.588   -39831.491   -21576.673    9385.7827   -15286.558   -879.58329    76.934631 
   67600    1042.5005   -161.46657   0.94327639    -160.5233   -5512.4115    4.2539446    4.2539446    4.2539446   -5512.4115     2199.676   -34397.084    15660.174    14415.056   -4198.6177   -9189.8651    76.979573 
   67700    886.33577   -161.32673   0.80197523   -160.52475    13662.918    4.2522927    4.2522927    4.2522927    13662.918    15106.879   -41825.447    67707.323    290.12899    11770.919   -14.669705    76.889925 
   67800    452.96951   -160.93966   0.40985633    -160.5298    23169.612    4.2501729    4.2501729    4.2501729    23169.612    30328.739   -45799.664    84979.761   -4070.5279    18913.146     2362.976    76.774994 
   67900    597.32626   -161.07384   0.54047335   -160.53337    15431.462     4.250932     4.250932     4.250932    15431.462      17950.1   -52447.175    80791.459   -962.59163    18577.641    591.63864    76.816138 
   68000     1055.691   -161.48873   0.95521136   -160.53352    7195.9713    4.2499962    4.2499962    4.2499962    7195.9713    152.07792   -28592.884     50028.72    3595.5347    6602.7272   -5053.1685    76.765418 
   68100    887.99052   -161.33575   0.80347248   -160.53228   -3885.2841    4.2503968    4.2503968    4.2503968   -3885.2841    1357.0327   -32355.751    19342.866    3150.7242   -4326.1422   -7713.9614    76.787127 
   68200    1037.9798   -161.46604   0.93918594   -160.52686    -33869.43    4.2568808    4.2568808    4.2568808    -33869.43   -15411.595   -64324.804    -21871.89   -10080.628   -16329.564    2845.3198    77.139081 
   68300    1297.1556   -161.69853    1.1736936   -160.52484   -20660.883    4.2563578    4.2563578    4.2563578   -20660.883   -20919.225   -25784.725   -15278.699   -7034.0571   -9414.6061    3071.3694    77.110654 
   68400    1004.5658   -161.43445   0.90895227    -160.5255   -6069.3558    4.2497004    4.2497004    4.2497004   -6069.3558   -19559.391   -36688.344    38039.668    5312.6313    3101.3615   -9215.9424    76.749393 
   68500    549.12141   -161.03169   0.49685659   -160.53483    5651.9697    4.2500579    4.2500579    4.2500579    5651.9697   -7504.9233   -59926.111    84386.943    1175.7302    9537.6073   -2316.6428    76.768762 
   68600    636.01696   -161.11561   0.57548151   -160.54013    22711.095    4.2565204    4.2565204    4.2565204    22711.095    33631.779   -42224.644    76726.151   -160.15519    25542.389    1379.3095    77.119493 
   68700    642.81783   -161.11891   0.58163508   -160.53727    31965.261    4.2561427    4.2561427    4.2561427    31965.261    80251.371   -42429.927     58074.34    5271.2821    29148.851     -1523.21    77.098962 
   68800    428.88415   -160.92372   0.38806339   -160.53565    18290.385    4.2541387    4.2541387    4.2541387    18290.385    51701.141   -63632.313    66802.326    3559.5202    19375.112   -3769.1645    76.990112 
   68900    910.74125   -161.35464   0.82405782   -160.53058   -8274.4886    4.2507916    4.2507916    4.2507916   -8274.4886     6929.659   -50382.398    18629.274   -2682.9277    4791.2849     4072.375    76.808529 
   69000    1313.6091   -161.71389    1.1885811   -160.52531   -19195.462    4.2512868    4.2512868    4.2512868   -19195.462    -7684.814   -24898.403    -25003.17   -9950.2381   -9560.0753    5735.0761    76.835376 
   69100    1137.5677   -161.55584    1.0292952   -160.52654   -36843.843    4.2604504    4.2604504    4.2604504   -36843.843   -24068.384   -62832.364   -23630.781   -441.69821   -11508.606    241.17478      77.3333 
   69200     1001.802   -161.43342   0.90645146   -160.52696   -17975.662    4.2572324    4.2572324    4.2572324   -17975.662   -3610.3391   -55478.712    5162.0641    3749.3812   -9600.5738    -2731.933    77.158199 
   69300     1069.539   -161.49557   0.96774139   -160.52783    7979.7946    4.2488056    4.2488056    4.2488056    7979.7946    11263.207   -21544.428    34220.605   -7351.0915     2839.802    7776.3775    76.700924 
   69400    770.07324   -161.22732   0.69677845   -160.53054    19573.525    4.2490726    4.2490726    4.2490726    19573.525     38430.11   -48886.311    69176.775   -8306.9902    17382.324   -3193.0947    76.715382 
   69500    363.97642   -160.86201   0.32933352   -160.53267    25136.674    4.2589217    4.2589217    4.2589217    25136.674    56472.219   -61050.908    79988.709    1226.0163    22020.004   -7875.6038    77.250083 
   69600    768.18062   -161.22433   0.69506597   -160.52927    15002.087    4.2595732    4.2595732    4.2595732    15002.087    17700.708    -46541.03    73846.584   -4930.0494    13521.223    999.03751    77.285544 
   69700     1053.264   -161.47746   0.95301541   -160.52444   -1644.4557     4.251512     4.251512     4.251512   -1644.4557   -2082.4838   -40450.111    37599.228   -9380.4254   -6946.0117    6184.6285    76.847587 
   69800    1103.0793   -161.52047   0.99808937   -160.52238   -24799.093    4.2558441    4.2558441    4.2558441   -24799.093    -25559.35   -42574.503   -6263.4263   -1884.5769   -15266.082    3152.3549    77.082736 
   69900    1333.2426   -161.72805    1.2063459    -160.5217   -36421.017    4.2607161    4.2607161    4.2607161   -36421.017   -31947.781   -44845.805   -32469.466    6138.2424   -18393.974   -8264.8785    77.347768 
   70000    1188.0964   -161.59977    1.0750146   -160.52476   -14615.395    4.2559125    4.2559125    4.2559125   -14615.395   -26645.715   -32320.187    15119.717    4750.4709   -14591.796    3585.9039    77.086455 
   70100    770.17864   -161.22761   0.69687382   -160.53074    -1205.479    4.2547916    4.2547916    4.2547916    -1205.479    13439.254   -58417.162    41361.472    1360.4545    3478.3031     4663.599    77.025563 
   70200    558.41065   -161.03831   0.50526169   -160.53305     18372.96    4.2559492    4.2559492    4.2559492     18372.96    37755.241   -56011.655    73375.295   -1198.6456    16112.932    240.93015    77.088448 
   70300    667.66167   -161.13757   0.60411431   -160.53345    29112.979    4.2536587    4.2536587    4.2536587    29112.979     44322.19   -33174.748    76191.495    9278.3932    21330.939   -7603.0055    76.964051 
   70400    748.42196   -161.20711   0.67718792   -160.52992    12083.005    4.2523414    4.2523414    4.2523414    12083.005    47056.522   -53953.713    43146.207    -1384.777    12454.188    183.76644    76.892569 
   70500    963.19414   -161.39468    0.8715183   -160.52316   -17874.669    4.2570379    4.2570379    4.2570379   -17874.669     21767.79   -48409.521   -26982.275   -3767.8162   -1938.2081    6601.9957    77.147621 
   70600    1169.5835   -161.57657    1.0582637   -160.51831   -25035.433    4.2555624    4.2555624    4.2555624   -25035.433   -26114.855   -16620.899   -32370.545     828.6047   -4107.1375   -1904.0064    77.067432 
   70700     1012.911   -161.43737   0.91650317   -160.52087   -11879.186    4.2465345    4.2465345    4.2465345   -11879.186   -34289.884   -9049.5063    7701.8322   -3743.0664   -429.24237   -919.03732    76.577991 
   70800    690.70063   -161.15568   0.62496044   -160.53072    4603.9822    4.2481497    4.2481497    4.2481497    4603.9822    2147.8468   -5026.0531    16690.153    3588.9564    11636.274   -1935.0118    76.665404 
   70900    407.60868   -160.89858    0.3688129   -160.52977    24010.901    4.2560341    4.2560341    4.2560341    24010.901    23970.243     13378.88    34683.578   -10018.402    25405.289    10594.532    77.093064 
   71000    533.84172   -161.00743   0.48303121    -160.5244    23411.896    4.2506378    4.2506378    4.2506378    23411.896    24831.308   -5589.9083    50994.287   -4173.8495    19939.473    7200.1271    76.800192 
   71100    924.25844   -161.35776   0.83628846   -160.52147    2067.9713    4.2486045    4.2486045    4.2486045    2067.9713    3428.5949   -39933.967    42709.286    2120.7241    7225.5929    410.71246    76.690031 
   71200      1244.54   -161.64655    1.1260859   -160.52046   -23348.103    4.2509185    4.2509185    4.2509185   -23348.103   -18497.416   -20379.595     -31167.3    9767.5141   -443.32137   -1701.9555    76.815408 
   71300    1153.4404   -161.56038    1.0436571   -160.51672   -27192.439    4.2517945    4.2517945    4.2517945   -27192.439   -44368.011   -12132.494    -25076.81    4455.5286   -3527.5749   -555.27322    76.862908 
   71400     1001.364   -161.42526   0.90605518    -160.5192    4887.5693    4.2497756    4.2497756    4.2497756    4887.5693   -3930.1928   -3653.3452    22246.246   -8564.2054    8456.7012    11622.499    76.753464 
   71500    990.07305   -161.41676    0.8958389   -160.52092    11156.319    4.2536943    4.2536943    4.2536943    11156.319    23837.985   -35090.897     44721.87   -1787.3138    7691.4684    1665.1942    76.965982 
   71600    858.61507   -161.29566   0.77689296   -160.51876   -1803.0377    4.2568782    4.2568782    4.2568782   -1803.0377   -5014.5644   -22410.264    22015.715    5924.3921     4977.232   -3229.6559     77.13894 
   71700    1206.5787   -161.60627    1.0917378   -160.51453   -19823.322     4.251722     4.251722     4.251722   -19823.322   -30861.063    -11256.66   -17352.243    5871.7419   -8071.6221   -10680.983    76.858976 
   71800    1392.5831   -161.77865    1.2600385   -160.51862   -16584.543    4.2500351    4.2500351    4.2500351   -16584.543   -19911.918    4438.9824   -34280.693    5616.4193   -8234.8239   -13816.558    76.767527 
   71900    855.19411   -161.29603    0.7737976   -160.52223    12844.923    4.2508247    4.2508247    4.2508247    12844.923    6501.2517    42672.612   -10639.093   -18665.623    8149.6241    4515.1485    76.810324 
   72000    691.44719    -161.1479   0.62563595   -160.52226    14116.413    4.2527686    4.2527686    4.2527686    14116.413   -16369.633    46700.947    12017.923    -13461.48     7016.694    7429.9266    76.915745 
   72100    1235.9943   -161.63569    1.1183537   -160.51734   -14109.043    4.2550674    4.2550674    4.2550674   -14109.043   -34540.705    6096.0827   -13882.507    5746.9118   -4272.1452   -404.67946    77.040544 
   72200    1200.5517   -161.60157    1.0862844   -160.51529   -13123.175     4.250439     4.250439     4.250439   -13123.175   -26898.271    1145.8967   -13617.151   -4135.4534   -3695.8443     -877.986    76.789416 
   72300    626.77588   -161.08895   0.56711999   -160.52183   -771.78479    4.2492162    4.2492162    4.2492162   -771.78479   -7709.1562    4983.1073    410.69453    10887.706    5049.1044   -3593.0982    76.723161 
   72400    430.89977   -160.91461   0.38988717   -160.52472    21579.437    4.2493064    4.2493064    4.2493064    21579.437    38188.624   -1443.7255    27993.412   -3810.1217     18657.05    8512.0681    76.728049 
   72500    699.75188   -161.15854   0.63315021   -160.52539    21038.943    4.2535014    4.2535014    4.2535014    21038.943    40494.327   -16271.215    38893.718   -5800.7808    17999.695    20854.732    76.955513 
   72600    764.97213   -161.21433   0.69216286   -160.52216   -8969.0346    4.2571071    4.2571071    4.2571071   -8969.0346   -22776.296   -13416.415     9285.607    479.94916   -4169.0745    12701.317    77.151385 
   72700    1013.5469    -161.4311   0.91707853   -160.51402   -28703.215    4.2524108    4.2524108    4.2524108   -28703.215   -46129.284   -17062.089   -22918.271   -462.71435   -11015.293    680.94329    76.896334 
   72800     1321.703   -161.71017    1.1959047   -160.51427   -18672.484    4.2504131    4.2504131    4.2504131   -18672.484   -21707.551   -35879.338    1569.4372    9072.3516   -14451.586   -3650.0168     76.78801 
   72900     1076.958   -161.49903   0.97445419   -160.52458   -60.381714    4.2532911    4.2532911    4.2532911   -60.381714    1162.1646   -28679.835    27336.525   -4821.4884    -1485.605    1118.7607    76.944101 
   73000    367.18091   -160.86046   0.33223301   -160.52823    15319.303    4.2586166    4.2586166    4.2586166    15319.303    7460.3935   -24502.734     63000.25    3968.5541    11792.695    172.73001    77.233483 
   73100    547.96196    -161.0215    0.4958075   -160.52569    21415.232    4.2570728    4.2570728    4.2570728    21415.232    35963.098   -33656.263    61938.861    237.95328    12406.317   -4714.2028    77.149522 
   73200    973.51084   -161.40804   0.88085307   -160.52718    16745.502    4.2541774    4.2541774    4.2541774    16745.502    59855.105   -40793.865    31175.267    4887.3315    9189.5272   -9616.2275    76.992213 
   73300    1042.0132   -161.46583   0.94283546   -160.52299   -17361.367    4.2571644    4.2571644    4.2571644   -17361.367   -2564.5659   -34461.417   -15058.118    1341.0022    -7062.825    -5180.112    77.154501 
   73400    1185.8028   -161.58913    1.0729393   -160.51619   -46883.784     4.259705     4.259705     4.259705   -46883.784   -58335.119    -48124.94   -34191.294   -8854.2947   -10095.377    669.92343    77.292718 
   73500    1432.2464   -161.81447    1.2959267   -160.51854   -21796.607    4.2559361    4.2559361    4.2559361   -21796.607   -20060.183   -42723.885   -2605.7541    3193.8184   -5262.4606   -2151.2681    77.087736 
   73600    899.95737   -161.34134   0.81430034   -160.52704    647.85137    4.2613572    4.2613572    4.2613572    647.85137    34859.768   -44991.782    12075.568   -5100.4575    6652.1444    766.29941    77.382691 
   73700    236.57187   -160.74121    0.2140552   -160.52715    28936.693    4.2617482    4.2617482    4.2617482    28936.693    75229.172   -26122.291      37703.2   -302.66183    19299.224    4273.2172     77.40399 
   73800    644.86205   -161.10985   0.58348474   -160.52637     39485.49     4.251476     4.251476     4.251476     39485.49    110048.51   -30637.962    39045.926   -5789.0733    18227.856     6983.681    76.845631 
   73900     1040.457   -161.46689   0.94142735   -160.52547    15654.384    4.2513854    4.2513854    4.2513854    15654.384    68198.425   -43094.912     21859.64    2726.2143    6234.6297    1395.5518    76.840721 
   74000    983.29304   -161.41081   0.88970421   -160.52111   -28095.897    4.2621276    4.2621276    4.2621276   -28095.897    -31612.05   -43037.086   -9638.5559    440.51134   -7048.7461   -1769.6301    77.424668 
   74100    1279.2897   -161.67134    1.1575282   -160.51381   -42754.646    4.2610994    4.2610994    4.2610994   -42754.646   -49060.547   -44083.313   -35120.078    509.19767    -14627.41   -1611.9241    77.368647 
   74200    1097.4894   -161.50783   0.99303146    -160.5148   -9848.5461    4.2500298    4.2500298    4.2500298   -9848.5461    11092.197   -26139.404   -14498.431    6270.7165    3931.1312   -6198.0585    76.767242 
   74300    582.77484   -161.04809   0.52730692   -160.52079    21216.033     4.244347     4.244347     4.244347    21216.033     46912.17   -7940.6293    24676.557   -1201.0412    19236.361   -8378.1844    76.459711 
   74400    200.42632   -160.70673   0.18134995   -160.52538    30150.925    4.2556647    4.2556647    4.2556647    30150.925    49767.649   -1657.2611    42342.388    3307.5116    21933.026   -7362.6627    77.072992 
   74500    827.58038   -161.27306   0.74881212   -160.52425    8490.9767    4.2561591    4.2561591    4.2561591    8490.9767    30792.362   -15195.665    9876.2326   -10799.034    10747.105   -295.60152    77.099856 
   74600    1322.9872   -161.70961    1.1970666   -160.51255   -13114.423    4.2500507    4.2500507    4.2500507   -13114.423   -9256.3368   -18879.431   -11207.502    954.84301   -4397.7923     1466.816    76.768374 
   74700    1282.6356   -161.67304    1.1605557   -160.51248   -40568.821    4.2571532    4.2571532    4.2571532   -40568.821   -56149.435    -32261.67   -33295.357   -1165.4246   -7806.6339   -325.24101    77.153889 
   74800    1043.3647    -161.4603   0.94405831   -160.51624   -10102.934     4.253476     4.253476     4.253476   -10102.934    -14554.73   -31409.244    15655.172    1531.6968   -2180.1918   -5064.0953    76.954132 
   74900    908.80955   -161.34437   0.82230998   -160.52206    23769.461    4.2513475    4.2513475    4.2513475    23769.461    59506.374   -49501.115    61303.124    657.64775    14490.487   -328.24101    76.838664 
   75000    610.89193   -161.07629   0.55274786   -160.52355    20254.619    4.2629965    4.2629965    4.2629965    20254.619    40026.615   -45504.005    66241.247   -11024.954    18595.584    6324.2534    77.472029 
   75100     549.9634   -161.02364   0.49761844   -160.52602    16985.214    4.2581415    4.2581415    4.2581415    16985.214    51067.963   -37904.879    37792.557    644.15801    10691.677   -242.34579    77.207637 
   75200     1107.599   -161.52799    1.0021788   -160.52581   -679.44363     4.251627     4.251627     4.251627   -679.44363    21591.068   -43085.688    19456.289    -900.3799   -1180.8055   -4966.2337     76.85382 
   75300    1318.5653   -161.71647    1.1930656    -160.5234   -28472.589     4.257541     4.257541     4.257541   -28472.589   -22010.498   -38959.539   -24447.729    420.79381   -15710.784   -2804.7804    77.174977 
   75400    1354.4357   -161.74585    1.2255219   -160.52033   -45914.353    4.2605595    4.2605595    4.2605595   -45914.353   -54750.985   -50410.847   -32581.225   -780.63167   -17394.132    1646.9282    77.339243 
   75500    1050.2959   -161.47458   0.95032981   -160.52425   -16747.931    4.2601169    4.2601169    4.2601169   -16747.931     16256.63   -53975.307   -12525.115    4610.2345   -2226.3506   -1484.0073    77.315142 
   75600     917.8042   -161.35916   0.83044853   -160.52872    16697.097     4.256444     4.256444     4.256444    16697.097    68478.785   -45526.814     27139.32    6166.9808    9650.6231   -6901.0556    77.115337 
   75700    574.81168    -161.0497   0.52010169   -160.52959    33592.834    4.2564596    4.2564596    4.2564596    33592.834    77346.148   -38185.502    61617.855    1156.4679    24934.131    8062.9387    77.116187 
   75800    502.92501   -160.98463   0.45505712   -160.52957    21264.678    4.2612025    4.2612025    4.2612025    21264.678      55797.9   -56252.688    64248.823    1341.5609    24925.272    7938.7866    77.374263 
   75900      919.876   -161.36248   0.83232314   -160.53015    9457.0263    4.2594825    4.2594825    4.2594825    9457.0263    40620.555   -61722.155    49472.679   -2516.4596    6352.4431    2166.5622    77.280605 
   76000    1343.7274   -161.73898    1.2158328   -160.52315   -17307.601     4.255218     4.255218     4.255218   -17307.601   -35188.701   -31033.399    14299.296     11527.97   -9033.2305   -5491.1583    77.048724 
   76100    1106.7663   -161.52176    1.0014254   -160.52033   -27454.091     4.255612     4.255612     4.255612   -27454.091   -31833.817   -25457.602   -25070.852    205.39747   -18367.256   -1068.6031    77.070125 
   76200    1115.0217   -161.53234    1.0088951   -160.52345   -32075.666      4.26224      4.26224      4.26224   -32075.666   -5116.6719   -40775.768   -50334.558   -4500.8396   -15731.093    55.918578    77.430795 
   76300    889.62461    -161.3306   0.80495105   -160.52565    11155.974    4.2558427    4.2558427    4.2558427    11155.974    29955.789   -11061.345    14573.479    -1001.071    6690.6191   -1515.7661    77.082662 
   76400    527.39257   -161.00296   0.47719588   -160.52576     34108.03    4.2485135    4.2485135    4.2485135     34108.03    29954.105    6298.2127    66071.773   -8493.0696    13047.397   -6657.0411    76.685103 
   76500    430.74459   -160.91419   0.38974676   -160.52445    13595.437    4.2550936    4.2550936    4.2550936    13595.437    24343.186   -28471.122    44914.248    4032.9163    14328.133   -11074.907    77.041965 
   76600    1124.9227   -161.53548    1.0178537   -160.51763   -9670.2344    4.2542154    4.2542154    4.2542154   -9670.2344   -16627.584   -16577.083    4193.9641   -5065.4746   -451.06413   -962.11878    76.994271 
   76700    1548.0165    -161.9115    1.4006779   -160.51082   -38898.286    4.2577722    4.2577722    4.2577722   -38898.286   -54578.956   -27480.194   -34635.707    2365.3487   -15337.818   -3807.5409    77.187554 
   76800    964.42076   -161.38398   0.87262817   -160.51136   -23652.269    4.2556266    4.2556266    4.2556266   -23652.269   -1378.6948   -46186.967   -23391.146    3003.5802   -3693.4472     1438.266     77.07092 
   76900    671.28905   -161.12273   0.60739644   -160.51533    21897.876    4.2489013    4.2489013    4.2489013    21897.876    70390.685   -29225.167    24528.111    344.55389    14141.365    5240.0516    76.706103 
   77000    772.35214   -161.21945   0.69884044   -160.52061    32183.146    4.2545084    4.2545084    4.2545084    32183.146    82147.403   -20621.288    35023.324    7206.2562     15535.31   -5913.3585    77.010185 
   77100    859.82261   -161.29496   0.77798557   -160.51697   -858.13836    4.2599448    4.2599448    4.2599448   -858.13836      22233.1   -30843.003    6035.4884    5509.0506    9616.0025    2215.6733    77.305772 
   77200    982.33385   -161.39996   0.88883631   -160.51112    -23530.05     4.257206     4.257206     4.257206    -23530.05   -20844.965   -29273.623   -20471.563    4166.5089   -11611.764   -5202.8442    77.156761 
   77300    1319.3753   -161.70537    1.1937985   -160.51158   -34508.604    4.2576841    4.2576841    4.2576841   -34508.604   -36294.559   -25810.419   -41420.835   -9778.4981   -12748.533   -835.20409    77.182761 
   77400      904.968   -161.33688   0.81883406   -160.51804   -131.79967    4.2519044    4.2519044    4.2519044   -131.79967    782.63378   -10412.274     9234.241   -16803.205    911.10888    4508.9251    76.868869 
   77500    406.68635   -160.89301   0.36797836   -160.52503    18574.847    4.2501789    4.2501789    4.2501789    18574.847     23422.82   -17060.009    49361.728    -9963.563    10406.222   -4355.7415    76.775319 
   77600    583.06206   -161.05423   0.52756681   -160.52666    19310.868    4.2542421    4.2542421    4.2542421    19310.868    21601.875   -3073.1725    39403.903   -9601.5583    11549.483    3200.0912    76.995725 
   77700     1049.872   -161.46821   0.94994624   -160.51827   -309.59914    4.2505047    4.2505047    4.2505047   -309.59914   -6776.7753   -5744.3241    11592.302   -11585.373    3403.6089   -8415.7269    76.792977 
   77800    1021.2137    -161.4362   0.92401563   -160.51218   -20205.153    4.2524103    4.2524103    4.2524103   -20205.153   -34957.942   -17671.694   -7985.8239   -4931.6379   -10894.353    213.08557    76.896306 
   77900    1103.9183   -161.51258   0.99884851   -160.51374   -25402.971    4.2568472    4.2568472    4.2568472   -25402.971   -14480.883   -25178.512   -36549.517   -10442.546   -2112.7538    5625.5263    77.137255 
   78000    950.96349   -161.38049   0.86045175   -160.52003     6310.867    4.2527162    4.2527162    4.2527162     6310.867    28722.933   -16101.657    6311.3257   -15214.242    11755.422    6274.2314    76.912904 
   78100    512.09542   -160.98913    0.4633547   -160.52578    19146.599    4.2545437    4.2545437    4.2545437    19146.599    43656.025   -48318.427    62102.198   -1721.1154    18668.926    4010.2649    77.012099 
   78200    435.52903   -160.91654   0.39407582   -160.52246    16276.487    4.2560638    4.2560638    4.2560638    16276.487     35430.16    -36622.54    50021.842     13567.13    19811.128   -7793.8794    77.094675 
   78300    899.01605   -161.33544   0.81344862   -160.52199    5088.3366    4.2496295    4.2496295    4.2496295    5088.3366    9821.6521   -29940.964    35384.321    8339.3889    5191.4615    993.75411    76.745548 
   78400    1030.7973   -161.45739   0.93268709    -160.5247   -22919.898    4.2571869    4.2571869    4.2571869   -22919.898   -14013.258   -40948.826   -13797.609    8235.1744   -5069.0285    6224.0119    77.155722 
   78500    895.79775    -161.3321   0.81053663   -160.52156   -35253.436    4.2533452    4.2533452    4.2533452   -35253.436   -37521.876    -39274.57   -28963.861    5011.6976   -1189.3015     7739.456    76.947038 
   78600    802.35046   -161.24921   0.72598356   -160.52323    3882.0043    4.2434325    4.2434325    4.2434325    3882.0043   -752.65431    12536.921   -138.25394    13400.091    620.91738   -3949.8645      76.4103 
   78700    638.82828   -161.10572   0.57802525   -160.52769    11607.592    4.2600943    4.2600943    4.2600943    11607.592    17702.906   -8203.9608     25323.83    8056.7136    13052.773   -3207.7082    77.313911 
   78800    527.34958   -160.99908   0.47715698   -160.52192    6387.6353    4.2586272    4.2586272    4.2586272    6387.6353    19646.768   -32081.924    31598.061   -1953.7097    9596.0662    13993.934    77.234061 
   78900    943.97133   -161.36806    0.8541251   -160.51393    5713.6582     4.237078     4.237078     4.237078    5713.6582    18415.947   -13057.274    11782.302    1274.1449   -3846.7262    17887.956    76.067539 
   79000    1388.7932   -161.77118    1.2566092   -160.51457   -18554.655     4.241351     4.241351     4.241351   -18554.655   -15688.404   -6151.0932   -33824.467    -11175.97   -7763.5107    16215.409    76.297912 
   79100     1210.285   -161.61278    1.0950913   -160.51769   -21377.318    4.2549403    4.2549403    4.2549403   -21377.318    -13009.97   -38061.327   -13060.658    5287.8477   -6136.1035    4808.7312    77.033637 
   79200    686.84084   -161.13732   0.62146803   -160.51585   -3442.3967    4.2607031    4.2607031    4.2607031   -3442.3967     20487.19   -48829.694    18015.315    3929.9627    6397.2157   -9841.7978    77.347059 
   79300    843.38263   -161.28195   0.76311032   -160.51884    19933.482     4.249438     4.249438     4.249438    19933.482    51610.533   -17907.873    26097.785   -5154.8978    13547.259   -9520.3234    76.735175 
   79400    1082.3132   -161.50033   0.97929975   -160.52103   -3103.9555    4.2494747    4.2494747    4.2494747   -3103.9555    29884.027   -32506.117   -6689.7767   -10076.995    9414.0714    -6129.531    76.737162 
   79500    1049.5549    -161.4687   0.94965929   -160.51904   -35039.958    4.2529057    4.2529057    4.2529057   -35039.958   -27757.959   -38660.188   -38701.727    -16679.45   -3601.9926    3545.1393    76.923183 
   79600    1011.3723   -161.43761   0.91511088   -160.52249   -2763.6637    4.2468077    4.2468077    4.2468077   -2763.6637    -11561.88    5372.5353   -2101.6468   -10948.776    5573.4897   -2138.9724    76.592771 
   79700    813.20616   -161.26422   0.73580602   -160.52842    29172.299    4.2551546    4.2551546    4.2551546    29172.299    21997.037    28656.841     36863.02    9921.5605    12451.827   -10883.803     77.04528 
   79800    705.08346   -161.15723   0.63797434   -160.51926    17383.584    4.2553899    4.2553899    4.2553899    17383.584    11591.647    9738.3346     30820.77    4573.9484    6115.3683    -11505.66    77.058061 
   79900    1007.9821   -161.41979   0.91204339   -160.50774   -15597.582    4.2484455    4.2484455    4.2484455   -15597.582   -13017.248   -14158.931   -19616.567     3042.541   -1602.8128    1163.4492    76.681422 
   80000     1206.412   -161.60237     1.091587   -160.51079   -26904.295    4.2494502    4.2494502    4.2494502   -26904.295   -26381.523   -25440.573   -28890.787   -4974.9988   -1858.4592    -1927.955    76.735836 
   80100    1022.3106   -161.44336   0.92500811   -160.51835   -3619.7886    4.2481475    4.2481475    4.2481475   -3619.7886    8595.5148   -40261.919    20807.038   -6842.8199    12756.977   -12881.934    76.665284 
   80200    502.36659   -160.97891   0.45455185   -160.52436    25355.595    4.2520161    4.2520161    4.2520161    25355.595    25664.678   -20729.835    71131.944    7071.9132    16482.925   -16554.933    76.874924 
   80300    753.61873    -161.2064   0.68189007   -160.52451    16919.177    4.2527121    4.2527121    4.2527121    16919.177    9744.7584   -5270.5359    46283.308   -5190.8466    7943.1162    -10104.52    76.912681 
   80400    1313.4049   -161.70319    1.1883963   -160.51479   -16394.861     4.252122     4.252122     4.252122   -16394.861   -16048.681   -20203.105   -12932.796   -7774.8439   -8061.9706    5449.0851    76.880669 
   80500    1134.2482     -161.537    1.0262917   -160.51071   -18487.391    4.2515347    4.2515347    4.2515347   -18487.391   -14009.397    -8890.998   -32561.778   -4247.5306   -12565.816     5501.539    76.848816 
   80600    739.57636   -161.18696   0.66918424   -160.51777    9902.1279      4.25447      4.25447      4.25447    9902.1279    14910.106    45375.347   -30579.069    12676.142   -517.42143    -7205.698    77.008099 
   80700    823.28419   -161.26543   0.74492484    -160.5205    19076.332    4.2602523    4.2602523    4.2602523    19076.332    15214.893    64591.179   -22577.076    17604.053    10763.023   -6660.7432    77.322514 
   80800    1037.6375   -161.45544   0.93887625   -160.51657    -773.1805    4.2540217    4.2540217    4.2540217    -773.1805    9147.3005    17695.564   -29162.406    916.20425   -1813.1079   -1761.8571    76.983756 
   80900    1121.7333   -161.52383    1.0149678   -160.50886   -21360.622     4.249838     4.249838     4.249838   -21360.622   -13141.847   -30179.264   -20760.755   -11203.753   -10114.089    3776.2605    76.756846 
   81000    1106.0379   -161.51457    1.0007663    -160.5138   -8712.3831    4.2569664    4.2569664    4.2569664   -8712.3831   -27599.112   -23732.146    25194.109    -3684.812    3257.1723    -524.1086    77.143736 
   81100    722.44137   -161.16896   0.65368013   -160.51528    31691.379    4.2533063    4.2533063    4.2533063    31691.379    23617.426   -6247.5769    77704.289    6129.7014    19005.254   -13947.159    76.944923 
   81200      613.783   -161.07105   0.55536376   -160.51569    21444.526    4.2503408    4.2503408    4.2503408    21444.526    13715.856   -10249.506    60867.228    4536.6405    13781.928    -12790.97    76.784092 
   81300    1157.1668    -161.5565    1.0470288   -160.50947   -25588.638    4.2579661    4.2579661    4.2579661   -25588.638   -40215.512   -25721.204   -10829.197   -11732.994   -2836.6568    4074.9894    77.198099 
   81400    1212.6173   -161.60432    1.0972016   -160.50712    -18340.48    4.2588339    4.2588339    4.2588339    -18340.48   -16948.902    678.60465   -38751.143   -4954.3577    -2876.336    4630.2426    77.245309 
   81500    569.98339   -161.02844   0.51573295   -160.51271    20120.294    4.2554468    4.2554468    4.2554468    20120.294    53671.547    27616.298   -20926.964     11735.11    7759.7694   -7893.2138     77.06115 
   81600    562.97148   -161.02747   0.50938843   -160.51809    21239.555    4.2543527    4.2543527    4.2543527    21239.555    43806.272    43350.775   -23438.383    17754.042     7116.598    -5263.697     77.00173 
   81700    1139.8095   -161.54995    1.0313236   -160.51863     205.9941    4.2528355    4.2528355    4.2528355     205.9941   -2906.1342    38185.332   -34661.216    3414.4567   -924.82912   -4580.0786    76.919374 
   81800    1321.3199   -161.70863     1.195558   -160.51307   -18922.883      4.25157      4.25157      4.25157   -18922.883    -15040.64   -38852.022   -2875.9856   -8836.8225   -13683.205    8489.3661    76.850733 
   81900     1021.929    -161.4415   0.92466285   -160.51683   -12907.316    4.2568207    4.2568207    4.2568207   -12907.316   -26488.354   -29470.188    17236.595   -5299.7295   -8828.2318   -1627.6618    77.135815 
   82000    857.52704   -161.29466   0.77590849   -160.51875    9980.4798    4.2586409    4.2586409    4.2586409    9980.4798   -13163.448    22457.577     20647.31    7177.8965    5835.6255   -15717.442    77.234809 
   82100    782.37265   -161.22338   0.70790721   -160.51548    25577.548    4.2508531    4.2508531    4.2508531    25577.548    13044.597    16287.517     47400.53    5151.0642    7083.0827   -1691.9867     76.81186 
   82200    1243.2007   -161.63017    1.1248741    -160.5053   -23839.923    4.2524234    4.2524234    4.2524234   -23839.923   -26145.598   -36494.749    -8879.423   -4728.0688   -3329.2969    4649.4377    76.897018 
   82300     1072.319   -161.47838   0.97025677   -160.50812   -24966.395    4.2616216    4.2616216    4.2616216   -24966.395   -32015.163    -25663.54    -17220.48   -9157.5712    67.171537    9000.7565    77.397094 
   82400    656.59566   -161.10903   0.59410155   -160.51493    24642.559    4.2591446    4.2591446    4.2591446    24642.559    55677.503    6531.5989    11718.576    7580.4092    20782.313   -2733.8022    77.262217 
   82500    619.71307   -161.07998   0.56072941   -160.51925    26014.733    4.2528284    4.2528284    4.2528284    26014.733    89046.541    -2216.805   -8785.5363    13012.374    19390.226   -10389.536     76.91899 
   82600    785.12778   -161.22611   0.71040011   -160.51571   -4654.6163    4.2539898    4.2539898    4.2539898   -4654.6163    30475.544   -22219.607   -22219.786   -4357.6578    7469.8793    4692.5118    76.982025 
   82700    1204.0784   -161.60108    1.0894754    -160.5116   -34034.222     4.261332     4.261332     4.261332   -34034.222   -50236.144   -23415.208   -28451.314   -8860.8613    1861.9095    5849.6115    77.381318 
   82800    909.54318   -161.33783   0.82297378   -160.51486    1049.0145    4.2572261    4.2572261    4.2572261    1049.0145   -34098.702    -507.7802    37753.525   -4708.0478    3061.9153   -5736.2337    77.157858 
   82900    444.70511   -160.92252   0.40237852   -160.52015    28714.602    4.2530395    4.2530395    4.2530395    28714.602   -11781.539    41398.012    56527.334    644.48862    9485.1758   -19431.861    76.930445 
   83000    766.78131   -161.21084   0.69379984   -160.51704    5175.1167    4.2533714    4.2533714    4.2533714    5175.1167   -32656.227    39504.748    8676.8298    5942.3877   -959.21167   -9024.0827    76.948458 
   83100    1423.8527   -161.79703    1.2883318    -160.5087   -20412.144    4.2508007    4.2508007    4.2508007   -20412.144   -23520.882   -13165.582   -24549.968   -9468.5191   -8432.5713    3713.0611     76.80902 
   83200    1145.9457   -161.55053    1.0368758   -160.51365   -21863.481    4.2583907    4.2583907    4.2583907   -21863.481      4773.38   -50665.535   -19698.288   -3947.3098   -1990.5615     9636.514    77.221196 
   83300    732.40321   -161.17883   0.66269382   -160.51613    11231.042    4.2540067    4.2540067    4.2540067    11231.042    6118.6771    6185.6737    21388.774    9668.9392    9682.4998   -6690.8662    76.982946 
   83400    929.72201   -161.35682   0.84123202   -160.51559     30056.05    4.2412943    4.2412943    4.2412943     30056.05    35340.986     36188.94    18638.225    3090.2658    6220.7022   -5549.9695    76.294849 
   83500    1255.7593   -161.64915    1.1362374   -160.51292   -9042.9037    4.2503085    4.2503085    4.2503085   -9042.9037    11806.843   -21009.014    -17926.54   -4471.6971   -1476.6663    2143.7913    76.782343 
   83600    1128.1381   -161.53201    1.0207631   -160.51124   -26374.158    4.2583588    4.2583588    4.2583588   -26374.158   -20233.677   -25592.588   -33296.208   -9573.6734   -9340.5739    5629.6904    77.219458 
   83700     981.9982   -161.40458    0.8885326   -160.51605   -6004.8101    4.2575313    4.2575313    4.2575313   -6004.8101   -47539.761    6420.3486    23104.982   -7907.3994    1994.3981   -8794.7065    77.174452 
   83800    687.86573   -161.14355   0.62239537   -160.52116    28865.264     4.248527     4.248527     4.248527    28865.264   -21985.796    31066.228     77515.36    5966.4909    13744.612   -18060.096    76.685836 
   83900    624.48898   -161.08687   0.56505075   -160.52182    16229.959    4.2484903    4.2484903    4.2484903    16229.959   -25397.448    15171.509    58915.815   -126.01791    10543.705   -9278.3588     76.68385 
   84000    930.23159   -161.36183   0.84169309   -160.52014   -16692.244    4.2598906    4.2598906    4.2598906   -16692.244    -46932.61   -6589.2992    3445.1769   -3853.2579   -1869.2161    547.75336    77.302821 
   84100    1238.7274   -161.63611    1.1208265   -160.51529    -14609.55    4.2590389    4.2590389    4.2590389    -14609.55    5322.0056    -11948.43   -37202.225   -10193.461   -1433.8987    12441.183     77.25646 
   84200     823.3227    -161.2635   0.74495968   -160.51855    2612.9781    4.2554207    4.2554207    4.2554207    2612.9781    41183.317   -32221.992   -1122.3906   -1895.3453    12457.698    7907.7684    77.059736 
   84300    495.15273   -160.96827   0.44802459   -160.52025    14901.074    4.2526987    4.2526987    4.2526987    14901.074    12341.092   -1306.9736    33669.105    6566.1384    15060.998   -9789.7406    76.911953 
   84400     905.3026   -161.33657   0.81913682   -160.51744    7082.2202    4.2504697    4.2504697    4.2504697    7082.2202    809.78322    25530.848   -5093.9707    1051.8812    8545.8092   -10663.391    76.791081 
   84500    1330.1445   -161.71274    1.2035427    -160.5092   -38250.028     4.258161     4.258161     4.258161   -38250.028   -29694.638   -45896.531   -39158.915   -6723.6626   -7959.7589    3034.1756    77.208697 
   84600    1055.6532    -161.4636    0.9551772   -160.50842   -37229.215    4.2595803    4.2595803    4.2595803   -37229.215   -40263.238   -49931.176   -21493.232    -338.3906   -9901.7364   -2562.0152     77.28593 
   84700    823.16391   -161.25806     0.744816   -160.51324    13332.813    4.2549726    4.2549726    4.2549726    13332.813    16766.229    5643.1022    17589.107    9799.7754    8149.1425    -2900.883    77.035396 
   84800    905.03556    -161.3319   0.81889519     -160.513    22266.402    4.2511669    4.2511669    4.2511669    22266.402     60178.16   -29718.364    36339.409      11638.3    14265.627   -5213.1324    76.828875 
   84900    955.24551   -161.37659   0.86432621   -160.51227    124.74563    4.2484047    4.2484047    4.2484047    124.74563    21030.107   -40868.787    20212.917   -4070.8738    8454.5423    4041.0908    76.679214 
   85000    1186.6224   -161.58801    1.0736809   -160.51433   -30461.522    4.2567775    4.2567775    4.2567775   -30461.522   -51175.107   -10969.891   -29239.567   -7395.1001   -3027.9077    16180.428    77.133468 
   85100    1153.6914    -161.5638    1.0438843   -160.51991   -10431.133      4.26136      4.26136      4.26136   -10431.133   -12969.027    11561.624   -29885.997   -586.32289   -2014.0439    757.13985    77.382843 
   85200    733.33119   -161.18554   0.66353347   -160.52201    16311.612    4.2555522    4.2555522    4.2555522    16311.612    4151.1948    24743.262    20040.379    10502.852    9537.1441   -9117.9499    77.066875 
   85300     589.4878   -161.05089   0.53338095   -160.51751    5433.8355    4.2544759    4.2544759    4.2544759    5433.8355   -33991.015    47385.063    2907.4579    8951.8295    4353.9178   -10800.735    77.008418 
   85400    984.20128   -161.40675     0.890526   -160.51623    -9149.841    4.2558179    4.2558179    4.2558179    -9149.841   -43691.065    52361.751   -36120.209    3972.7169    5782.5949   -5702.0627    77.081313 
   85500    1043.5763   -161.45988    0.9442498   -160.51563   -6480.0554     4.251727     4.251727     4.251727   -6480.0554   -16753.626    23631.884   -26318.424   -2312.8092    3918.6995    10909.956    76.859247 
   85600     563.6701   -161.03173   0.51002055   -160.52171    11326.389     4.255417     4.255417     4.255417    11326.389    15530.775    5114.0935    13334.297   -7627.7894    8347.9729    9661.5036    77.059533 
   85700    869.44188   -161.30811   0.78668928   -160.52142   -2614.7206    4.2648912    4.2648912    4.2648912   -2614.7206   -11947.555   -10375.752    14479.145   -4287.5023    11720.322    10120.526    77.575374 
   85800    1378.7592   -161.75945    1.2475303   -160.51192   -23036.931    4.2561566    4.2561566    4.2561566   -23036.931   -19393.051   -23173.685   -26544.055    13514.263   -5961.7929   -6093.0575    77.099717 
   85900    1035.6834   -161.44774   0.93710812   -160.51063   -26188.702    4.2523055    4.2523055    4.2523055   -26188.702    -17214.35   -45946.236    -15405.52    7518.2036   -3161.7339   -7638.8414    76.890621 
   86000    767.45639   -161.21378   0.69441067   -160.51937    9115.7194    4.2521748    4.2521748    4.2521748    9115.7194    9011.4422   -8086.5087    26422.225   -4361.0951    9844.7237    2147.6452    76.883535 
   86100    1129.2438   -161.54345    1.0217635   -160.52169    215.90584    4.2567959    4.2567959    4.2567959    215.90584    22998.844   -11635.133   -10715.994   -5929.1884    8050.6213    7083.1043    77.134468 
   86200    977.12627   -161.40092   0.88412439    -160.5168   -30208.425    4.2604622    4.2604622    4.2604622   -30208.425   -24060.636   -17260.365   -49304.273   -16242.232   -2566.4148    13609.853     77.33394 
   86300    598.54888   -161.05768   0.54157961   -160.51611    1480.1031    4.2510318    4.2510318    4.2510318    1480.1031   -34180.734    32575.823    6045.2206   -6184.4506    4893.2058   -2781.5061    76.821549 
   86400    731.41887   -161.18528   0.66180317   -160.52348    17964.441    4.2488448    4.2488448    4.2488448    17964.441   -22095.143    62717.944    13270.522    6561.4194    13981.244   -16719.834    76.703045 
   86500     873.6799   -161.31635   0.79052394   -160.52582    -5827.261    4.2518646    4.2518646    4.2518646    -5827.261   -34326.901    34554.087   -17708.969    6976.3608    5771.2351    -16555.11     76.86671 
   86600    621.57157   -161.08944   0.56241102   -160.52703   -5502.2367    4.2535507    4.2535507    4.2535507   -5502.2367   -30070.799    45102.375   -31538.286    213.79944   -1820.1572   -9045.6266    76.958187 
   86700     899.5333   -161.34192   0.81391663   -160.52801    7135.0869    4.2584455    4.2584455    4.2584455    7135.0869    5534.7468    53237.157   -37366.643   -14108.958    2676.0399    6382.7417    77.224177 
   86800    1002.7701   -161.43073   0.90732743   -160.52341    15660.012    4.2557537    4.2557537    4.2557537    15660.012    11585.558    51597.706   -16203.228   -14706.122    5413.8744    12770.194    77.077827 
   86900    749.69971   -161.19934   0.67834405   -160.52099    15609.216    4.2407881    4.2407881    4.2407881    15609.216    -15342.03    45078.459    17091.219   -2272.6569     1089.011    11345.956    76.267534 
   87000    1234.5664   -161.64017    1.1170616   -160.52311   -21451.384    4.2459979    4.2459979    4.2459979   -21451.384   -31497.176    -7770.975   -25086.002    10577.816   -9520.0253   -4070.4977    76.548967 
   87100    1475.4622   -161.85403    1.3350292     -160.519    -28998.38    4.2583029    4.2583029    4.2583029    -28998.38   -19500.334    -33802.54   -33692.264    12104.572   -10650.686   -9575.0699    77.216419 
   87200    814.04962   -161.25163   0.73656921   -160.51506   -961.44969    4.2543352    4.2543352    4.2543352   -961.44969   -15033.783   -16216.395    28365.829    -2230.379    1930.1197    11758.368    77.000779 
   87300    501.61049   -160.97061   0.45386771   -160.51674     11381.25    4.2525686    4.2525686    4.2525686     11381.25     -3475.77    18885.022    18734.497   -10377.255    8101.7681    8221.5527    76.904894 
   87400    1132.2316    -161.5388    1.0244669   -160.51433   -5948.6113    4.2435153    4.2435153    4.2435153   -5948.6113   -17895.188    27389.185   -27339.831    4061.0493    7817.6567   -640.61014    76.414773 
   87500    1186.5276   -161.58544    1.0735951   -160.51185   -8103.6279    4.2375024    4.2375024    4.2375024   -8103.6279   -25508.979    9683.5497   -8485.4544    5719.7569   -1949.7046   -9537.5066    76.090401 
   87600    592.95901   -161.05931   0.53652178   -160.52279   -19032.263    4.2612397    4.2612397    4.2612397   -19032.263   -39354.173   -30554.231    12811.615     1355.931   -418.25581   -5470.3483     77.37629 
   87700    529.85966    -160.9996   0.47942816   -160.52017    20308.337    4.2567989    4.2567989    4.2567989    20308.337    7310.3135    17966.978     35647.72   -17103.816    16858.961    7825.4206     77.13463 
   87800    893.09233   -161.32578   0.80808871   -160.51769    21156.665    4.2430227    4.2430227    4.2430227    21156.665    17653.173    20040.967    25775.855   -11211.327    13027.373    9798.6302    76.388162 
   87900    901.44891   -161.33316   0.81564992   -160.51751    -33916.44    4.2541562    4.2541562    4.2541562    -33916.44   -55556.174   -32997.909   -13195.237    3209.5539     5196.869    -3330.171     76.99106 
   88000    798.80048   -161.23894   0.72277146   -160.51616   -17926.172    4.2493835    4.2493835    4.2493835   -17926.172   -40827.548   -7690.4408   -5260.5266    5171.1398     2085.039   -1283.6879    76.732222 
   88100    866.62436   -161.30888   0.78413993   -160.52474    12101.786    4.2512433    4.2512433    4.2512433    12101.786     -2448.87    37519.299    1234.9283    140.56969     8336.059    3822.3738    76.833017 
   88200    650.80963   -161.11514   0.58886623   -160.52627     17401.25    4.2576861    4.2576861    4.2576861     17401.25   -3873.4384    51551.688    4525.4993   -15169.277    7845.4617    8925.0892    77.182869 
   88300    628.89949   -161.08776   0.56904148   -160.51871    10808.883    4.2421628    4.2421628    4.2421628    10808.883    -17388.27    34240.763    15574.157   -9313.5698   -4078.0547    7326.3144    76.341732 
   88400    1147.4074   -161.55676    1.0381984   -160.51856   -9131.4569    4.2403119    4.2403119    4.2403119   -9131.4569   -15581.585   -4485.2141   -7327.5712    666.10691   -10143.998    -7978.963    76.241845 
   88500    1442.9353   -161.82523    1.3055982   -160.51963   -24760.645    4.2512494    4.2512494    4.2512494   -24760.645   -25744.941   -26098.628   -22438.366     4972.351   -8605.0335    122.50836    76.833348 
   88600    867.86612   -161.30317    0.7852635   -160.51791    1584.9267    4.2488018    4.2488018    4.2488018    1584.9267   -26515.849   -6304.6583    37575.288    4287.9209   -4284.4641    6207.2938    76.700718 
   88700    669.88193   -161.12865   0.60612325   -160.52253    8526.8554     4.252048     4.252048     4.252048    8526.8554    -25131.01    4513.6412    46197.935    -4725.254    3257.2865    12116.451    76.876652 
   88800    1243.9671   -161.64892    1.1255675   -160.52335    -1041.983    4.2528352    4.2528352    4.2528352    -1041.983    -10410.49   -18451.129     25735.67   -5835.8408    4.5067042    4734.9382    76.919362 
   88900    1364.1135   -161.75267    1.2342786   -160.51839   -7241.1106    4.2424564    4.2424564    4.2424564   -7241.1106   -9633.6781   -12504.509    414.85504    12355.217   -8805.8989   -10411.532    76.357582 
   89000     1038.217   -161.46266   0.93940052   -160.52326   -16833.388    4.2487716    4.2487716    4.2487716   -16833.388   -7701.3093    -20447.01   -22351.845    1495.0279   -1908.6592    -4154.906    76.699078 
   89100    861.51642   -161.30381   0.77951816    -160.5243   -8237.9644    4.2602418    4.2602418    4.2602418   -8237.9644   -12672.112    8174.7023   -20216.484   -2357.8098    2182.6793    1206.1862    77.321942 
   89200    905.81178   -161.34011   0.81959754   -160.52051    20268.639    4.2454108    4.2454108    4.2454108    20268.639   -4074.5598    58492.783     6387.693   -2899.0913    12699.224    7384.4379    76.517214 
   89300    831.13974   -161.26843    0.7520327    -160.5164   -1893.8719    4.2436348    4.2436348    4.2436348   -1893.8719   -27057.989    16524.556    4851.8171   -3653.8811    10910.979    1562.3804    76.421229 
   89400    1042.2336    -161.4594   0.94303488   -160.51636   -26356.752    4.2510166    4.2510166    4.2510166   -26356.752   -16829.949   -33072.288   -29168.018    8726.7835   -3742.9763    -9811.736    76.820727 
   89500    1178.9189   -161.58707    1.0667106   -160.52036   -830.28459    4.2513461    4.2513461    4.2513461   -830.28459    745.35632   -2895.7704    -340.4397   -1662.6897    2937.4668    6844.5867    76.838593 
   89600     650.6818   -161.11229   0.58875056   -160.52354    25083.687    4.2522322    4.2522322    4.2522322    25083.687    5038.3576    17534.242    52678.461   -18209.057    12487.077    9676.2371    76.886646 
   89700    523.63062   -160.99639   0.47379199    -160.5226     14391.62    4.2492117    4.2492117    4.2492117     14391.62   -528.35842    4447.6362    39255.581   -16593.035    11630.237    2568.8633    76.722919 
   89800    1097.7726   -161.51181   0.99328775   -160.51852   -16232.151    4.2503223    4.2503223    4.2503223   -16232.151   -22227.388   -21083.893   -5385.1718    -8824.819   -2093.6953   -8226.2362    76.783093 
   89900    1241.0493   -161.64068    1.1229275   -160.51776   -29925.786    4.2511855    4.2511855    4.2511855   -29925.786   -44284.744   -19367.943    -26124.67   -11059.978   -804.19435   -14071.187    76.829882 
   90000    615.02516   -161.08117   0.55648769   -160.52468    3712.4227    4.2473093    4.2473093    4.2473093    3712.4227   -13256.786    13016.703    11377.351   -13756.755    5233.5903   -8975.6399    76.619915 
   90100    702.13432   -161.16251   0.63530589    -160.5272    8207.6997    4.2495592    4.2495592    4.2495592    8207.6997    10724.785    4009.3713    9888.9424    -12653.26    16929.907    7580.6355     76.74174 
   90200    795.31842   -161.25018   0.71962082   -160.53056    17115.401    4.2462934    4.2462934    4.2462934    17115.401    22066.857    18002.737     11276.61   -8932.4203    10476.823    4659.9376    76.564948 
   90300    1121.6466    -161.5396    1.0148894   -160.52471   -19161.778      4.25177      4.25177      4.25177   -19161.778    -42102.58   -8527.7742   -6854.9801    2628.8156   -1480.4788    5705.0697    76.861577 
   90400    1217.1481   -161.62062    1.1013011   -160.51932   -29308.866    4.2549078    4.2549078    4.2549078   -29308.866   -33667.708    -35967.17    -18291.72    6969.3863   -11725.237   -4237.1324    77.031875 
   90500    1147.6826   -161.55996    1.0384474   -160.52151   -11387.796    4.2516266    4.2516266    4.2516266   -11387.796    4575.3029    6890.2515   -45628.942    5075.9193    -6406.166    -373.1133      76.8538 
   90600    973.43833   -161.40593   0.88078746   -160.52514    5926.6829    4.2526562    4.2526562    4.2526562    5926.6829    9298.2725    37673.373   -29191.596   -5655.3309    4531.8824    13103.762    76.909647 
   90700    814.69059    -161.2638   0.73714917   -160.52665     19624.51    4.2508781    4.2508781    4.2508781     19624.51    13570.642    61906.536   -16603.649   -14248.248    1251.9861     2300.812    76.813216 
   90800    836.89812   -161.28218   0.75724301   -160.52494    8990.1163     4.250778     4.250778     4.250778    8990.1163    9711.0984    58408.723   -41149.472   -10296.447   -75.518863   -5514.9609    76.807793 
   90900    966.40057   -161.39861   0.87441954   -160.52419   -9775.9632    4.2574694    4.2574694    4.2574694   -9775.9632   -25451.625    34805.224   -38681.488    5606.7433   -10751.156   -10810.928    77.171085 
   91000    985.76495   -161.41409   0.89194084   -160.52215   -8813.8048    4.2577269    4.2577269    4.2577269   -8813.8048   -49301.454   -7805.7362    30665.776    14799.554   -1873.7183   -12619.389     77.18509 
   91100    789.52996    -161.2367    0.7143833   -160.52232    7096.5642    4.2504435    4.2504435    4.2504435    7096.5642   -10989.508   -7893.8312    40173.032      7087.55    15600.698   -3767.6087    76.789661 
   91200    898.02283   -161.33896   0.81254993   -160.52641    -3364.623    4.2502336    4.2502336    4.2502336    -3364.623   -663.27845    1766.7625   -11197.353     831.7929    7609.0604    10405.342    76.778286 
   91300    1188.2454   -161.59947    1.0751494   -160.52433    -35245.56    4.2561927    4.2561927    4.2561927    -35245.56    -46311.52   -18921.882   -40503.279   -2527.7532    4348.8512    12395.956    77.101682 
   91400    1052.2334   -161.47534   0.95208291   -160.52325   -17477.222    4.2543136    4.2543136    4.2543136   -17477.222   -32076.658   -32934.676    12579.667   -3559.7009    1559.2229    13147.225    76.999603 
   91500    686.48293   -161.14921   0.62114418   -160.52806    18571.453    4.2532263    4.2532263    4.2532263    18571.453    11866.158   -11772.979    55621.178    6737.8945    9124.9294    3352.2976    76.940584 
   91600    634.45319   -161.09929   0.57406658   -160.52522    16772.639    4.2545236    4.2545236    4.2545236    16772.639   -12684.903    2567.3969    60435.423   -1065.4793     11623.04   -14292.788    77.011007 
   91700    935.34614     -161.368   0.84632084   -160.52168    5447.3468    4.2453101    4.2453101    4.2453101    5447.3468   -39207.116   -7926.6266    63475.783    -10023.03    2749.3913   -7336.0265    76.511771 
   91800    1123.0959   -161.54019    1.0162008   -160.52399   -9426.4664    4.2465115    4.2465115    4.2465115   -9426.4664   -29111.243   -23146.313    23978.156   -9841.3706   -853.48147    3307.1127    76.576746 
   91900    948.76175   -161.38327   0.85845957   -160.52481   -15765.077    4.2529975    4.2529975    4.2529975   -15765.077   -8863.8641   -2589.2349   -35842.131   -8995.3694   -3510.0164    10809.918    76.928166 
   92000    807.64345   -161.25519   0.73077277   -160.52442    1528.1743    4.2462469    4.2462469    4.2462469    1528.1743    8561.9262    13031.202   -17008.605   -2514.9138    1164.0289    5735.4725    76.562431 
   92100    730.67255   -161.18825   0.66112787   -160.52713    12561.856    4.2493278    4.2493278    4.2493278    12561.856    28737.328    4365.4152    4582.8247    1793.5896    10560.087   -7014.8664    76.729206 
   92200     718.3105   -161.17654   0.64994243   -160.52659    16140.471    4.2507645    4.2507645    4.2507645    16140.471    48256.718   -7646.9768    7811.6712    4598.2155     13661.83   -1739.2293    76.807056 
   92300    946.83766   -161.37731   0.85671861   -160.52059   -3776.4955    4.2481219    4.2481219    4.2481219   -3776.4955   -395.78024   -3236.7546   -7696.9518   -4956.1771     3727.942   -1841.7572    76.663901 
   92400    1167.6505   -161.57773    1.0565147   -160.52121   -26405.047     4.253112     4.253112     4.253112   -26405.047   -55242.687   -2445.0947   -21527.359   -12834.551   -5230.0056    5644.5738    76.934382 
   92500    1173.5355   -161.58734    1.0618396    -160.5255   -18530.231    4.2537447    4.2537447    4.2537447   -18530.231   -9485.2697   -25969.855   -20135.569   -6417.1483    715.14831   -200.27284    76.968718 
   92600    978.26465   -161.41338   0.88515441   -160.52823   -7304.4187    4.2521866    4.2521866    4.2521866   -7304.4187      39250.6   -15769.466    -45394.39    2868.3233   -1143.6057   -5449.9968     76.88417 
   92700    850.00947   -161.29808   0.76910643   -160.52898   -6273.4546    4.2555423    4.2555423    4.2555423   -6273.4546    34420.964   -12619.465   -40621.863     12116.18    836.38137   -5985.2214    77.066339 
   92800    719.95652   -161.18106   0.65143179   -160.52963    15717.901    4.2535381    4.2535381    4.2535381    15717.901    66334.846    6072.6914   -25253.834    18470.728   -2916.2168     1220.934    76.957506 
   92900    637.97533   -161.10998   0.57725348   -160.53273    21808.572    4.2520951    4.2520951    4.2520951    21808.572    89904.169    10359.959   -34838.412    19111.139    -10122.46    5457.2322    76.879212 
   93000    854.26951   -161.30407   0.77296101   -160.53111   -2169.7479    4.2532947    4.2532947    4.2532947   -2169.7479    43368.213   -9457.4523   -40420.004    11380.308    7044.7699   -2972.9302    76.944293 
   93100    1028.9164   -161.45595   0.93098516   -160.52497   -818.90778    4.2468175    4.2468175    4.2468175   -818.90778   -870.75613   -3524.6773    1938.7101    1002.2537    12807.233   -8531.6633    76.593303 
   93200    1000.4639   -161.43065   0.90524079   -160.52541   -262.33522    4.2494946    4.2494946    4.2494946   -262.33522    2570.0761   -19252.477    15895.396   -3107.3019    8120.8566    4676.4871    76.738243 
   93300    844.84358   -161.29061   0.76443223   -160.52618    757.54425    4.2545455    4.2545455    4.2545455    757.54425   -20571.873    4916.4635    17928.042   -1104.8569    2539.3102    8979.3238    77.012197 
   93400    861.45805   -161.30394   0.77946535   -160.52448   -3369.6628    4.2531996    4.2531996    4.2531996   -3369.6628   -44258.954    15144.931    19005.034    8920.7822   -4311.7078    6807.8174    76.939136 
   93500    928.68262   -161.36492   0.84029155   -160.52462   -12101.893     4.251446     4.251446     4.251446   -12101.893   -10565.223   -15739.896   -10000.562    10625.001   -9217.2916     8931.414    76.844005 
   93600    907.69516   -161.34755   0.82130166   -160.52624   -5455.0416    4.2475476    4.2475476    4.2475476   -5455.0416    49695.822   -18838.465   -47222.482     9881.295   -10791.112   -482.22952    76.632812 
   93700    758.39062   -161.21608   0.68620777   -160.52987    16543.491    4.2505672    4.2505672    4.2505672    16543.491    74614.607   -20764.021   -4220.1148   -356.43309      5224.21    602.99681    76.796364 
   93800    512.81195   -160.99285   0.46400303   -160.52884     25356.49    4.2576918    4.2576918    4.2576918     25356.49    56986.735   -6453.4634    25536.198   -11330.502     21001.41    8675.5976    77.183179 
   93900    730.32953   -161.18264    0.6608175   -160.52182    6239.7142    4.2476198    4.2476198    4.2476198    6239.7142    48340.105     -12817.8   -16803.162    3878.5854    12247.354    1373.7687    76.636719 
   94000    1086.5215   -161.50048   0.98310753   -160.51738   -6297.0597    4.2376349    4.2376349    4.2376349   -6297.0597    18394.495    -3291.424    -33994.25    5042.1679    3671.6089   -5897.7481    76.097537 
   94100     1206.036   -161.61273    1.0912468   -160.52148   -15993.273    4.2437887    4.2437887    4.2437887   -15993.273     -23711.7    -15272.04   -8996.0805    10404.709   -2265.2622   -3376.0066     76.42954 
   94200    886.48485   -161.32666   0.80211013   -160.52455   -11126.925    4.2548556    4.2548556    4.2548556   -11126.925   -24875.499   -1798.0089   -6707.2669    6226.5878    1010.6137    8740.1078    77.029041 
   94300    681.98532   -161.13971   0.61707465   -160.52263    9858.5115     4.253823     4.253823     4.253823    9858.5115    13476.011   -128.72168    16228.245    -13591.66    14342.269    9266.2729     76.97297 
   94400    1000.9603   -161.42664   0.90568991   -160.52095    9789.0628    4.2470216    4.2470216    4.2470216    9789.0628   -1210.8924     23985.28    6592.8012     -407.811    3247.3639    1432.1883    76.604346 
   94500    1195.6063   -161.59807    1.0818097   -160.51626   -16256.504    4.2456672    4.2456672    4.2456672   -16256.504   -33556.717    -4501.466    -10711.33    8000.5336   -6114.2692   -7225.6039    76.531083 
   94600    1169.4213   -161.57646     1.058117   -160.51834   -13967.722    4.2398926    4.2398926    4.2398926   -13967.722    4033.6153   -14174.414   -31762.366    2570.1322   -3890.4089   -11766.089    76.219231 
   94700    913.75501   -161.35969   0.82678474   -160.53291    2072.2824    4.2511932    4.2511932    4.2511932    2072.2824    32538.705    14304.587   -40626.444   -4334.3905   -1596.5794   -8059.4245    76.830301 
   94800    984.11929   -161.41965   0.89045182    -160.5292   -1933.6125    4.2577571    4.2577571    4.2577571   -1933.6125    18165.757    -9298.956   -14667.639   -13040.466    13094.231    5351.3398    77.186732 
   94900    728.49619   -161.18457   0.65915867   -160.52541     7919.381    4.2433186    4.2433186    4.2433186     7919.381    48628.933   -6795.3178   -18075.472   -11116.448    7333.5825    2183.0764    76.404147 
   95000    865.54339   -161.30917   0.78316185     -160.526   -6553.2312    4.2430394    4.2430394    4.2430394   -6553.2312    49497.019   -26966.608   -42190.104    3221.3024   -4006.0614    4296.9705    76.389063 
   95100    1300.4671   -161.70302      1.17669   -160.52633   -17617.218     4.245729     4.245729     4.245729   -17617.218   -7995.7026   -14718.154   -30137.797    4802.6459   -9602.0526    3645.1549    76.534423 
   95200    1002.6856   -161.43522   0.90725104   -160.52797     -5596.49      4.24498      4.24498      4.24498     -5596.49   -37658.694    36678.311   -15809.087    5702.0909   -7638.4021    1926.3334    76.493927 
   95300    705.48467   -161.17266   0.63833736   -160.53432   -4165.6455     4.253641     4.253641     4.253641   -4165.6455   -15985.307    21175.237   -17686.867    3675.8587    4293.3061    14964.965     76.96309 
   95400    665.96549   -161.13326   0.60257957   -160.53068    16506.822    4.2513242    4.2513242    4.2513242    16506.822    12935.545    4898.8757    31686.045   -7868.9725    11468.913    19648.092      76.8374 
   95500    956.56481   -161.38875   0.86551995   -160.52323    17072.722    4.2377709    4.2377709    4.2377709    17072.722   -6573.3582    17479.761    40311.764   -3571.8471   -257.40474    11410.381    76.104864 
   95600    858.11315    -161.2991   0.77643881   -160.52266   -13445.574    4.2497325    4.2497325    4.2497325   -13445.574   -27875.418    14436.906   -26898.209     4238.003    -11402.88    4242.1909    76.751129 
   95700    943.19597   -161.37218   0.85342353   -160.51876   -17926.274    4.2560692    4.2560692    4.2560692   -17926.274    5431.5634   -10148.255    -49062.13    4489.3595   -9097.9266   -2233.5597    77.094969 
   95800      830.493   -161.27201   0.75144752   -160.52056    31739.579     4.243663     4.243663     4.243663    31739.579    49264.193    24919.046    21035.499   -7281.2358    1569.6089    414.74505    76.422752 
   95900    644.73256   -161.10879   0.58336757   -160.52543    13030.957     4.251941     4.251941     4.251941    13030.957     31346.11     14972.52   -7225.7602   -9285.2996    11283.675    8940.5424    76.870852 
   96000    799.68031   -161.24475   0.72356755   -160.52118   -11396.153    4.2481598    4.2481598    4.2481598   -11396.153    11988.241   -11567.616   -34609.084    1839.9463    10535.459    4514.2915     76.66595 
   96100    1077.4118   -161.49692   0.97486488   -160.52206   -2731.9226    4.2371215    4.2371215    4.2371215   -2731.9226    9849.6074   -10863.252    -7182.123   -5315.6517    5872.5395   -1585.4394    76.069883 
   96200    1231.5086   -161.63948    1.1142949   -160.52518   -26154.721    4.2515233    4.2515233    4.2515233   -26154.721   -47688.244   -23186.395   -7589.5231   -2297.1877   -5919.2191   -12031.713    76.848196 
   96300    790.41091   -161.23425   0.71518041   -160.51907   -9451.5821    4.2501982    4.2501982    4.2501982   -9451.5821   -19131.586    20088.145   -29311.306   -5831.6982   -4120.5761   -12518.411    76.776364 
   96400    569.52964   -161.03632   0.51532239     -160.521    27473.959    4.2405653    4.2405653    4.2405653    27473.959    44128.394    66533.125   -28239.641   -23104.733    2626.0842   -6313.8452    76.255514 
   96500    733.80884   -161.19727   0.66396566   -160.53331    19632.372    4.2527168    4.2527168    4.2527168    19632.372    35096.026    39248.796   -15447.706   -16802.437    4694.2901    3888.7168    76.912935 
   96600    689.44528   -161.15529   0.62382458   -160.53147    4972.9088    4.2502559    4.2502559    4.2502559    4972.9088   -6016.6861    20031.409    904.00381   -18180.825    48.015892   -948.57653    76.779494 
   96700    772.23823    -161.2208   0.69873738   -160.52206   -5092.8423    4.2385375    4.2385375    4.2385375   -5092.8423   -15462.663   -1288.1653    1472.3017   -9859.4648   -3015.4143    1656.3003    76.146176 
   96800    1218.5863   -161.62545    1.1026025   -160.52285   -22868.368     4.248229     4.248229     4.248229   -22868.368   -13777.272   -36442.587   -18385.246   -1512.4052   -4107.3662      -825.76    76.669697 
   96900     1230.102   -161.63656    1.1130222   -160.52354   -11632.928    4.2515686    4.2515686    4.2515686   -11632.928   -12285.706   -1329.2022   -21283.876    -7896.371   -2242.5203    4356.1156    76.850654 
   97000    709.87041   -161.16774   0.64230567   -160.52544     6288.884    4.2491919    4.2491919    4.2491919     6288.884    10485.359     37450.82   -29069.527   -11521.862     8231.263    11303.018    76.721842 
   97100    673.07445   -161.13663   0.60901191   -160.52762    21711.719    4.2487417    4.2487417    4.2487417    21711.719    48891.972    39925.395   -23682.209   -19205.375    5064.6954    5422.5773    76.697462 
   97200    859.17227   -161.30355   0.77739713   -160.52616    23612.695    4.2477566    4.2477566    4.2477566    23612.695    44052.722     43497.92   -16712.557    -27112.33   -3673.4509    2987.3484    76.644127 
   97300    854.70403   -161.29762   0.77335417   -160.52426   -4460.1412    4.2494812    4.2494812    4.2494812   -4460.1412    4049.2135    26403.982    -43833.62    -5215.558   -2694.7523   -2958.3404    76.737517 
   97400    896.23916    -161.3368   0.81093603   -160.52586    -28569.53    4.2546072    4.2546072    4.2546072    -28569.53   -8192.9419   -17778.114   -59737.533    6403.7749   -6647.6471   -5868.1949    77.015547 
   97500     1299.531   -161.70261    1.1758429   -160.52676   -14758.608    4.2491621    4.2491621    4.2491621   -14758.608    12059.984   -32983.885   -23351.923    9478.0646    4162.2903    3036.7918    76.720228 
   97600    1251.1963   -161.65693    1.1321087   -160.52482   -15319.253    4.2481929    4.2481929    4.2481929   -15319.253   -19096.243   -12028.523   -14832.993    8964.3425    2403.0876   -225.70876    76.667746 
   97700    652.16978   -161.11496   0.59009692   -160.52486    3886.6548    4.2504498    4.2504498    4.2504498    3886.6548    18907.496    7214.1368   -14461.668   -3216.5714   -8210.9882   -3770.1227    76.789999 
   97800    759.76106   -161.21186   0.68744778   -160.52441     16795.04     4.253033     4.253033     4.253033     16795.04    52985.199    9497.9044   -12097.982    -15616.43   -464.83648   -3795.3788    76.930093 
   97900    987.58898   -161.41825   0.89359126   -160.52466    16778.773      4.25126      4.25126      4.25126    16778.773    65352.265    9254.8032   -24270.748   -6946.3787   -5897.6961   -11314.114    76.833924 
   98000    921.12485   -161.35935   0.83345312   -160.52589    6446.0364    4.2414616    4.2414616    4.2414616    6446.0364    30029.374    26385.724    -37076.99   -1186.9869     138.0534   -3064.9785     76.30388 
   98100    1064.7969   -161.48988    0.9634506   -160.52643   -9848.0009    4.2408407    4.2408407    4.2408407   -9848.0009   -6209.6716    2417.4915   -25751.822    9861.5073    1281.5526    668.74673    76.270373 
   98200    1413.4288   -161.80479       1.2789   -160.52589   -28320.455    4.2549759    4.2549759    4.2549759   -28320.455   -39396.935   -35387.752   -10176.676    12928.713     -1905.37    513.05855    77.035571 
   98300    1158.9487   -161.57144    1.0486412    -160.5228   -14019.228    4.2559486    4.2559486    4.2559486   -14019.228    4236.2686   -24149.426   -22144.528   -1841.5216    4154.2492     1218.199    77.088416 
   98400    607.30779    -161.0711   0.54950485    -160.5216    8089.9421    4.2442581    4.2442581    4.2442581    8089.9421    65098.167   -5358.7604    -35469.58    -5542.741   -2064.5322     2035.658    76.454907 
   98500    474.42735   -160.95686   0.42927184   -160.52759    26415.557    4.2392355    4.2392355    4.2392355    26415.557    96871.039   -991.45035   -16632.919   -14214.505   -1886.8019   -1086.0666    76.183798 
   98600    794.75247   -161.25245   0.71910874   -160.53334    18316.533    4.2482801    4.2482801    4.2482801    18316.533     82551.74   -15797.168   -11804.973   -11006.361   -9122.6161    4792.1829    76.672466 
   98700    922.15615   -161.36474   0.83438627   -160.53036   -2499.3043    4.2557618    4.2557618    4.2557618   -2499.3043    34973.605   -29763.735   -12707.783    7161.4945    772.08988    12191.623    77.078265 
   98800    968.81792   -161.40097   0.87660681   -160.52437   -20140.199    4.2515089    4.2515089    4.2515089   -20140.199   -17226.989   -29819.435   -13374.174    9399.3818     4591.758    8078.9495    76.847416 
   98900    1350.0384   -161.74343    1.2215431   -160.52188   -16267.018    4.2425783    4.2425783    4.2425783   -16267.018   -21236.702   -19413.151   -8151.2006    10369.251   -962.81153      7437.93    76.364165 
   99000    1257.3052   -161.66743    1.1376362   -160.52979   -6132.7067    4.2491628    4.2491628    4.2491628   -6132.7067    13584.266   -46.473029   -31935.914    -722.0732    3099.3705   -2177.1675    76.720271 
   99100    792.78835   -161.24687   0.71733156   -160.52954    1811.9094    4.2561667    4.2561667    4.2561667    1811.9094    40475.232    9508.8579   -44548.362    -12408.66   -5718.7618   -4324.6091    77.100271 
   99200     645.6223   -161.11076   0.58417262   -160.52659    12683.132    4.2510823    4.2510823    4.2510823    12683.132    51959.071    13536.967   -27446.642   -15538.859    2782.7784    193.86152    76.824289 
   99300    998.32532   -161.42989   0.90330573   -160.52658    2140.6427    4.2522069    4.2522069    4.2522069    2140.6427     43092.24   -10280.516   -26389.795   -5681.8559    11489.008    55.166286    76.885271 
   99400    1084.8111   -161.50251   0.98155992   -160.52095   -14809.922    4.2506001    4.2506001    4.2506001   -14809.922    1427.1034   -12487.512   -33369.359     6444.974    7940.5944   -2205.3521    76.798147 
   99500     961.2365   -161.38627   0.86974698   -160.51652   -12430.232    4.2428011    4.2428011    4.2428011   -12430.232   -15852.415    -23965.66    2527.3772    11792.597   -790.94605    441.85771    76.376195 
   99600    1005.8563   -161.43248   0.91011992   -160.52236   -1660.5209    4.2449574    4.2449574    4.2449574   -1660.5209   -13526.637   -24025.796     32570.87    3142.2763   -10714.506   -16112.798    76.492704 
   99700    842.25437   -161.28937   0.76208946   -160.52728    2326.2166    4.2551791    4.2551791    4.2551791    2326.2166    557.40638    22605.957   -16184.714   -5418.2424   -12697.691   -12168.549    77.046609 
   99800    730.29088   -161.18292   0.66078253   -160.52213   -3655.6289    4.2518542    4.2518542    4.2518542   -3655.6289    30158.053    8129.3222   -49254.262    -11244.76   -10206.467    4130.0055    76.866145 
   99900    918.65524    -161.3522   0.83121856   -160.52098   -4722.4611    4.2433047    4.2433047    4.2433047   -4722.4611    34835.745    -38835.86   -10167.268   -2728.8493   -1913.9953    1462.0587    76.403396 
  100000    1157.9489   -161.57343    1.0477365   -160.52569   -16904.324    4.2486009    4.2486009    4.2486009   -16904.324   -10666.858   -40569.682    523.56603    10635.674    11524.785    2301.0798    76.689838 
Loop time of 39.8493 on 1 procs for 100000 steps with 8 atoms

Pair  time (%) = 13.4926 (33.859)
Kspce time (%) = 9.65712 (24.2341)
Neigh time (%) = 0 (0)
Comm  time (%) = 1.89959 (4.76695)
Outpt time (%) = 0.0548761 (0.137709)
Other time (%) = 14.7451 (37.0022)

Nlocal:    8 ave 8 max 8 min
Histogram: 1 0 0 0 0 0 0 0 0 0
Nghost:    2189 ave 2189 max 2189 min
Histogram: 1 0 0 0 0 0 0 0 0 0
Neighs:    2472 ave 2472 max 2472 min
Histogram: 1 0 0 0 0 0 0 0 0 0

Total # of neighbors = 2472
Ave neighs/atom = 309
Neighbor list builds = 0
Dangerous builds = 0
unfix 20
unfix 21
print "seeds:4614510"
seeds:4614510
