LAMMPS (16 Mar 2018)
# ---- initialize simulations
clear
units metal
dimension 3
boundary p p p
atom_style charge
atom_modify map array
# ---- create atoms
read_data /home/manuelesp/repos/pypospack/dev/MgO_iterative_sampler/rank_1/MgO_NaCl_001s.lmps_min_pos/lammps.structure
  triclinic box = (0 0 0) to (4.714 4.714 47.1402) with tilt (0 0 0)
  1 by 1 by 1 MPI processor grid
  reading atoms ...
  40 atoms
# ---- define interatomic potential
include potential.mod
mass 1 24.305
mass 2 15.999

group Mg type 1
20 atoms in group Mg
group O type 2
20 atoms in group O

set group Mg charge 1.6102951165102182
  20 settings made for charge
set group O charge -1.6102951165102182
  20 settings made for charge

variable R_cut equal 10.0

pair_style buck/coul/long ${R_cut}
pair_style buck/coul/long 10
pair_coeff 1 1 0.0 0.5 0.0 ${R_cut}
pair_coeff 1 1 0.0 0.5 0.0 10
pair_coeff 1 2 872.8291467350588 0.29889716378497794 0.0 ${R_cut}
pair_coeff 1 2 872.8291467350588 0.29889716378497794 0.0 10
pair_coeff 2 2 3727.0736816732065 0.3476815772257621 63.9105328410665 ${R_cut}
pair_coeff 2 2 3727.0736816732065 0.3476815772257621 63.9105328410665 10

kspace_style pppm 1.0e-5

neighbor 1.0 bin
neigh_modify every 1 delay 0 check yes
# ---- define settings
compute eng all pe/atom
compute eatoms all reduce sum c_eng

# ---- run minimization
reset_timestep 0
thermo 1
thermo_style custom step pe lx ly lz xy xz yz press pxx pyy pzz pxy pxz pyz c_eatoms
min_style cg
minimize 1e-20 1e-20 1000 100000
PPPM initialization ...
  using 12-bit tables for long-range coulomb (../kspace.cpp:321)
  G vector (1/distance) = 0.335458
  grid = 9 9 40
  stencil order = 5
  estimated absolute RMS force accuracy = 8.34702e-05
  estimated relative force accuracy = 5.79668e-06
  using double precision FFTs
  3d grid and FFT values/proc = 11520 3240
Neighbor list info ...
  update every 1 steps, delay 0 steps, check yes
  max neighbors/atom: 2000, page size: 100000
  master list distance cutoff = 11
  ghost atom cutoff = 11
  binsize = 5.5, bins = 1 1 9
  1 neighbor lists, perpetual/occasional/extra = 1 0 0
  (1) pair buck/coul/long, perpetual
      attributes: half, newton on
      pair build: half/bin/newton/tri
      stencil: half/bin/3d/newton/tri
      bin: standard
Per MPI rank memory allocation (min/avg/max) = 5.942 | 5.942 | 5.942 Mbytes
Step PotEng Lx Ly Lz Xy Xz Yz Press Pxx Pyy Pzz Pxy Pxz Pyz c_eatoms 
       0   -488.50964        4.714        4.714      47.1402            0            0            0   -2517.6914   -7747.9714   -7747.9714    7942.8685 4.4144517e-12 9.4946807e-11 1.7983094e-10   -488.50964 
       1   -488.61142        4.714        4.714      47.1402            0            0            0   -3520.9977    -8513.643    -8513.643    6464.2929 -2.7537029e-11 -2.8351517e-11 -2.253741e-12   -488.61142 
       2   -488.61258        4.714        4.714      47.1402            0            0            0   -3500.9963   -8453.5887   -8453.5887    6404.1886 -2.4149808e-11 1.5770125e-11 -3.9823978e-11   -488.61258 
       3   -488.61622        4.714        4.714      47.1402            0            0            0   -3448.0125   -8404.4895   -8404.4895    6464.9416 -4.9768457e-12 2.6183383e-11 6.9588655e-11   -488.61622 
       4   -488.62019        4.714        4.714      47.1402            0            0            0   -4358.2952   -9340.1264   -9340.1264    5605.3672 -7.870835e-12 -5.4024904e-11 -1.054022e-10   -488.62019 
       5   -488.62311        4.714        4.714      47.1402            0            0            0   -4979.5559   -10032.081   -10032.081    5125.4939 -5.6656913e-11 -9.1214847e-11 -4.2224103e-11   -488.62311 
       6   -488.62676        4.714        4.714      47.1402            0            0            0   -6685.4344    -11871.37    -11871.37    3686.4374 3.1012384e-11 -7.1339411e-11 -6.175633e-12   -488.62676 
       7   -488.63523        4.714        4.714      47.1402            0            0            0   -8979.3548   -14280.589   -14280.589    1623.1144 -4.1144798e-11 -2.4791872e-11 -1.4685842e-11   -488.63523 
       8    -488.6393        4.714        4.714      47.1402            0            0            0   -10311.054   -15640.287   -15640.287    347.41118 -1.3555074e-11 -9.6150084e-11 -6.9065395e-11    -488.6393 
       9   -488.64262        4.714        4.714      47.1402            0            0            0   -11199.563    -16635.59    -16635.59   -327.50918 1.092909e-11 -9.4253506e-11 -9.6428252e-11   -488.64262 
      10   -488.64268        4.714        4.714      47.1402            0            0            0   -11236.204   -16671.436   -16671.436   -365.73844 1.8250228e-11 -5.3861172e-11 -3.091463e-11   -488.64268 
      11   -488.64272        4.714        4.714      47.1402            0            0            0   -11229.448   -16657.156   -16657.156   -374.03308 -2.0730391e-11 -6.8043379e-11 -3.0608534e-11   -488.64272 
      12   -488.64284        4.714        4.714      47.1402            0            0            0   -11140.199   -16566.917   -16566.917   -286.76433 -2.9209304e-11 3.1358506e-11 1.7192916e-10   -488.64284 
      13   -488.64284        4.714        4.714      47.1402            0            0            0   -11129.539   -16554.835   -16554.835   -278.94656 1.8860306e-11 -6.0068492e-11 -1.7224332e-11   -488.64284 
      14   -488.64284        4.714        4.714      47.1402            0            0            0   -11097.309   -16518.161   -16518.161   -255.60474 -1.6517688e-11 -1.7370261e-10 -1.564622e-10   -488.64284 
      15   -488.64284        4.714        4.714      47.1402            0            0            0   -11097.309   -16518.161   -16518.161   -255.60474 1.0125749e-11 -2.0850895e-10 -1.5100258e-10   -488.64284 
Loop time of 0.246207 on 1 procs for 15 steps with 40 atoms

47.5% CPU use with 1 MPI tasks x no OpenMP threads

Minimization stats:
  Stopping criterion = linesearch alpha is zero
  Energy initial, next-to-last, final = 
        -488.509639436      -488.64284476      -488.64284476
  Force two-norm initial, final = 2.60122 0.0155
  Force max component initial, final = 0.962764 0.00456128
  Final line search alpha, max atom move = 3.05176e-05 1.39199e-07
  Iterations, force evaluations = 15 75

MPI task timing breakdown:
Section |  min time  |  avg time  |  max time  |%varavg| %total
---------------------------------------------------------------
Pair    | 0.085073   | 0.085073   | 0.085073   |   0.0 | 34.55
Kspace  | 0.15984    | 0.15984    | 0.15984    |   0.0 | 64.92
Neigh   | 0          | 0          | 0          |   0.0 |  0.00
Comm    | 0.00078559 | 0.00078559 | 0.00078559 |   0.0 |  0.32
Output  | 0.00026107 | 0.00026107 | 0.00026107 |   0.0 |  0.11
Modify  | 0          | 0          | 0          |   0.0 |  0.00
Other   |            | 0.0002501  |            |       |  0.10

Nlocal:    40 ave 40 max 40 min
Histogram: 1 0 0 0 0 0 0 0 0 0
Nghost:    1775 ave 1775 max 1775 min
Histogram: 1 0 0 0 0 0 0 0 0 0
Neighs:    7208 ave 7208 max 7208 min
Histogram: 1 0 0 0 0 0 0 0 0 0

Total # of neighbors = 7208
Ave neighs/atom = 180.2
Neighbor list builds = 0
Dangerous builds = 0

# ---- define output variables ----
variable natoms equal "count(all)"
variable tot_energy equal "c_eatoms"
variable a11 equal "xhi-xlo"
variable a22 equal "yhi-ylo"
variable a33 equal "zhi-zlo"
variable tilt_xy equal "xy"
variable tilt_xz equal "xz"
variable tilt_yz equal "yz"
variable tot_press equal "press"
variable press_xx equal "pxx"
variable press_yy equal "pyy"
variable press_zz equal "pzz"
variable press_xy equal "pxy"
variable press_xz equal "pxz"
variable press_yz equal "pyz"

# ---- output ----
print "pypospack:output_section:begin"
pypospack:output_section:begin
print "tot_energy = ${tot_energy}"
tot_energy = -488.642844759607
print "num_atoms = ${natoms}"
num_atoms = 40
print "a11 = ${a11}"
a11 = 4.714
print "a22 = ${a22}"
a22 = 4.714
print "a33 = ${a33}"
a33 = 47.1402
print "a12 = ${tilt_xy}"
a12 = 0
print "a13 = ${tilt_xz}"
a13 = 0
print "a23 = ${tilt_yz}"
a23 = 0
print "tot_press = ${tot_press}"
tot_press = -11097.3086020858
print "pxx = ${press_xx}"
pxx = -16518.1605308516
print "pyy = ${press_yy}"
pyy = -16518.1605308517
print "pzz = ${press_zz}"
pzz = -255.604744554243
print "pxy = ${press_xy}"
pxy = 1.01257492030956e-11
print "pxz = ${press_xz}"
pxz = -2.08508947181441e-10
print "pyz = ${press_yz}"
pyz = -1.5100257697839e-10
print "pypospack:output_section:done"
pypospack:output_section:done
print "pypospack:lammps_sim:done"
pypospack:lammps_sim:done
Total wall time: 0:00:00
