LAMMPS (10 Feb 2015)
# ---- initialize simulations
clear
units metal
dimension 3
boundary p p p
atom_style charge
atom_modify map array
# ---- create atoms
read_data /Users/eugeneragasa/pyflamestk_git/pypospack/tests/tests_integration/workflow/WorkflowLammpsThermalExpansion/param_8221/MgO_NaCl_unit.npt.T200/lammps.structure
  triclinic box = (0 0 0) to (4.2565 4.2565 4.2565) with tilt (0 0 0)
  1 by 1 by 1 MPI processor grid
  reading atoms ...
  8 atoms
# ---- define interatomic potential
include potential.mod
mass 1 24.305
mass 2 15.999

group Mg type 1
4 atoms in group Mg
group O type 2
4 atoms in group O

set group Mg charge 1.65389423724
  4 settings made for charge
set group O charge -1.65389423724
  4 settings made for charge

variable R_cut equal 10.0

pair_style buck/coul/long ${R_cut}
pair_style buck/coul/long 10
pair_coeff 1 1 0.0 0.5 0.0 ${R_cut}
pair_coeff 1 1 0.0 0.5 0.0 10
pair_coeff 1 2 1300.0678519 0.288744572517 0.0 ${R_cut}
pair_coeff 1 2 1300.0678519 0.288744572517 0.0 10
pair_coeff 2 2 40472.9144105 0.202420171096 26.2679081719 ${R_cut}
pair_coeff 2 2 40472.9144105 0.202420171096 26.2679081719 10

kspace_style pppm 1.0e-5

neighbor 1.0 bin
neigh_modify every 1 delay 0 check yes
# ---- define settings
compute eng all pe/atom
compute eatoms all reduce sum c_eng
# ---- run minimization
reset_timestep 0
fix 1 all box/relax iso 0.0 vmax 0.001
thermo 10
thermo_style custom step pe lx ly lz xy xz yz press pxx pyy pzz pxy pxz pyz c_eatoms
min_style cg
minimize 1e-25 1e-25 5000 10000
PPPM initialization ...
  G vector (1/distance) = 0.352799
  grid = 8 8 8
  stencil order = 5
  estimated absolute RMS force accuracy = 3.93787e-05
  estimated relative force accuracy = 2.7347e-06
  using double precision FFTs
  3d grid and FFT values/proc = 3375 512
Neighbor list info ...
  1 neighbor list requests
  update every 1 steps, delay 0 steps, check yes
  master list distance cutoff = 11
Memory usage per processor = 4.06549 Mbytes
Step PotEng Lx Ly Lz Xy Xz Yz Press Pxx Pyy Pzz Pxy Pxz Pyz eatoms 
       0   -110.27609       4.2565       4.2565       4.2565            0            0            0    110960.29    110960.29    110960.29    110960.29 9.3314123e-11 1.6239754e-10 5.8891323e-11   -110.27609 
      10   -110.39349     4.299065     4.299065     4.299065            0            0            0    52923.265    52923.265    52923.265    52923.265 1.8718586e-11 -3.674075e-11 -9.001309e-11   -110.39349 
      20   -110.43343      4.34163      4.34163      4.34163            0            0            0    2089.5567    2089.5567    2089.5567    2089.5567 6.9298069e-11 -1.296578e-10 -9.997383e-11   -110.43343 
      22   -110.43352     4.343513     4.343513     4.343513            0            0            0   -5.7193123   -5.7193123   -5.7193123   -5.7193123 4.586585e-11 9.062077e-11 2.6249224e-10   -110.43352 
Loop time of 0.0145812 on 1 procs for 22 steps with 8 atoms

Minimization stats:
  Stopping criterion = linesearch alpha is zero
  Energy initial, next-to-last, final = 
        -110.276087498     -110.433524975     -110.433524975
  Force two-norm initial, final = 16.0227 0.00180648
  Force max component initial, final = 16.0227 0.000859982
  Final line search alpha, max atom move = 0.00390625 3.35931e-06
  Iterations, force evaluations = 22 39

Pair  time (%) = 0.00400782 (27.4862)
Kspce time (%) = 0.00251198 (17.2275)
Neigh time (%) = 0 (0)
Comm  time (%) = 0.00049758 (3.41247)
Outpt time (%) = 4.19617e-05 (0.287779)
Other time (%) = 0.00752187 (51.5861)

Nlocal:    8 ave 8 max 8 min
Histogram: 1 0 0 0 0 0 0 0 0 0
Nghost:    2189 ave 2189 max 2189 min
Histogram: 1 0 0 0 0 0 0 0 0 0
Neighs:    2344 ave 2344 max 2344 min
Histogram: 1 0 0 0 0 0 0 0 0 0

Total # of neighbors = 2344
Ave neighs/atom = 293
Neighbor list builds = 0
Dangerous builds = 0
unfix 1
# ---- define output variables ----
variable natoms equal "count(all)"
variable tot_energy equal "c_eatoms"
variable length_x equal "lx"
variable length_y equal "ly"
variable length_z equal "lz"
variable tilt_xy equal "xy"
variable tilt_xz equal "xz"
variable tilt_yz equal "yz"
variable tot_press equal "press"
variable press_xx equal "pxx"
variable press_yy equal "pyy"
variable press_zz equal "pzz"
variable press_xy equal "pxy"
variable press_xz equal "pxz"
variable press_yz equal "pyz"

# ---- output ----
print "pypospack:output_section:begin"
pypospack:output_section:begin
print "tot_energy = ${tot_energy}"
tot_energy = -110.433524975286
print "num_atoms = ${natoms}"
num_atoms = 8
print "xx = ${length_x}"
xx = 4.34351296178449
print "yy = ${length_y}"
yy = 4.34351296178449
print "zz = ${length_z}"
zz = 4.34351296178449
print "xy = ${tilt_xy}"
xy = 0
print "xz = ${tilt_xz}"
xz = 0
print "yz = ${tilt_yz}"
yz = 0
print "tot_press = ${tot_press}"
tot_press = -5.71931225965551
print "pxx = ${press_xx}"
pxx = -5.71931225981032
print "pyy = ${press_yy}"
pyy = -5.71931225968463
print "pzz = ${press_zz}"
pzz = -5.71931225947158
print "pxy = ${press_xy}"
pxy = 4.5865850341772e-11
print "pxz = ${press_xz}"
pxz = 9.06207702771322e-11
print "pyz = ${press_yz}"
pyz = 2.62492238241466e-10
print "pypospack:output_section:done"
pypospack:output_section:done
print "pypospack:lammps_sim:done"
pypospack:lammps_sim:done
#------------------------------------------------------------------------------
# RUN THERMOSTAT
# running using an NPT Nose-Hoover style thermostat
#------------------------------------------------------------------------------
variable tempdamp equal 0.1
variable pressdamp equal 1.0
# set initial velocities
velocity all create 200 7095731 mom yes dist gaussian loop all
# fix for Nose-Hoover style thermostat
fix 20 all npt temp 200 200 0.1 aniso 0.0 0.0 1.0 drag 1.0 couple xyz
variable boxx equal lx
variable boxy equal ly
variable boxz equal lz
variable boxp equal press
variable boxt equal temp
# calculate averages every 10000 steps
reset_timestep 0
fix 21 all ave/time 10 10 100 v_boxx v_boxy v_boxz v_boxp v_boxt file lattice.out
thermo_style custom step temp pe ke etotal press lx ly lz press pxx pyy pzz pxy pxz pyz vol
thermo_modify flush yes
thermo 100
run 100000
PPPM initialization ...
  G vector (1/distance) = 0.351923
  grid = 8 8 8
  stencil order = 5
  estimated absolute RMS force accuracy = 4.10067e-05
  estimated relative force accuracy = 2.84776e-06
  using double precision FFTs
  3d grid and FFT values/proc = 3375 512
Memory usage per processor = 3.06549 Mbytes
Step Temp PotEng KinEng TotEng Press Lx Ly Lz Press Pxx Pyy Pzz Pxy Pxz Pyz Volume 
       0          200   -110.43354    0.1809642   -110.25257    2350.9909     4.343513     4.343513     4.343513    2350.9909    1930.9759    2173.2581    2948.7388    -303.5585   -186.30389   -811.40537    81.945171 
     100    84.017216   -110.30286  0.076020543   -110.22684   -1260.4649     4.350646     4.350646     4.350646   -1260.4649   -2376.8229    141.86922   -1546.4409    829.48596    771.63337    724.09497    82.349553 
     200    188.31705   -110.34826   0.17039322   -110.17787   -8579.7938    4.3549219    4.3549219    4.3549219   -8579.7938   -11780.613   -9199.8073   -4758.9612   -556.72552   -113.49564   -635.15986    82.592594 
     300    128.53539   -110.25163   0.11630152   -110.13532    8143.2413     4.349221     4.349221     4.349221    8143.2413    2830.7291    7660.4111    13938.584   -251.24132    138.90636    614.58161     82.26866 
     400     153.6043   -110.24201    0.1389844   -110.10302    787.13915     4.348785     4.348785     4.348785    787.13915   -3103.6325   -208.77926    5673.8292    1730.3583    171.77284    1519.9803    82.243923 
     500    87.596324   -110.16041  0.079258995   -110.08115   -5888.8583    4.3598579    4.3598579    4.3598579   -5888.8583   -7408.4392   -6966.9163   -3291.2194    449.41205     -987.607    717.31204    82.873752 
     600     217.2151   -110.26666   0.19654078   -110.07012    790.26688    4.3543413    4.3543413    4.3543413    790.26688   -1656.3037   -970.26273     4997.367    485.20302    741.50498    1735.7425    82.559568 
     700     164.3006    -110.2166   0.14866264   -110.06793    9520.6002    4.3455867    4.3455867    4.3455867    9520.6002    4126.5428    13209.814    11225.443    220.20471   -565.99471   -889.33235    82.062597 
     800    227.55044   -110.27512   0.20589242   -110.06923   -10648.636    4.3609493    4.3609493    4.3609493   -10648.636   -10181.348    -9455.463   -12309.096    2125.8127    468.09907    1343.6093    82.936006 
     900     261.7939   -110.30619   0.23687662   -110.06931   -3978.8228    4.3571434    4.3571434    4.3571434   -3978.8228   -1652.3086   -2648.9983   -7635.1617   -1332.1503    388.78632   -2071.1551    82.719053 
    1000    257.79669    -110.3029   0.23325986   -110.06964    8971.5837     4.344605     4.344605     4.344605    8971.5837    3080.8862    7804.4081    16029.457   -608.35408   -364.79259   -910.60662    82.006992 
    1100    157.04625   -110.21434   0.14209874   -110.07224    460.11778    4.3584461    4.3584461    4.3584461    460.11778    659.96946    627.02139    93.362481     994.8538    275.51226   -222.21456    82.793273 
    1200    253.60454   -110.29902   0.22946672   -110.06956   -4333.3054     4.359208     4.359208     4.359208   -4333.3054   -12289.719   -10429.968     9719.771     -738.512   -970.77781   -280.62818      82.8367 
    1300    148.03839   -110.20417   0.13394825   -110.07022    12481.214    4.3452969    4.3452969    4.3452969    12481.214    7389.3213    13909.983    16144.339    1623.5406    402.22522    1241.3241    82.046181 
    1400    152.00446   -110.20949   0.13753683   -110.07195   -1792.8239     4.355286     4.355286     4.355286   -1792.8239   -2393.1004   -4854.0639    1868.6926   -142.25445   -1388.0754    425.60496    82.613312 
    1500    234.66789   -110.28135   0.21233244   -110.06901    -8465.806    4.3617314    4.3617314    4.3617314    -8465.806    -8648.137   -8524.5723   -8224.7086    549.95831   -451.71779    2895.2245    82.980635 
    1600    187.57288   -110.23943   0.16971989   -110.06971    9550.9866    4.3473028    4.3473028    4.3473028    9550.9866    8667.2647    9123.1902    10862.505    1530.4506    799.29831   -700.80813    82.159856 
    1700    186.59351   -110.23957   0.16883373   -110.07074    45.773295    4.3524634    4.3524634    4.3524634    45.773295    1035.2609    2925.0604   -3823.0014    705.86464   -806.51735    1440.5805    82.452795 
    1800    246.11333   -110.29146   0.22268851   -110.06877   -11856.175    4.3626615    4.3626615    4.3626615   -11856.175   -12436.932   -12366.321   -10765.271    650.13707    864.56702   -1210.0812     83.03373 
    1900    158.75318   -110.21374   0.14364321   -110.07009    7163.4295    4.3491478    4.3491478    4.3491478    7163.4295    6479.5283   -152.37625    15163.136    788.42759   -224.92444   -945.17476    82.264505 
    2000    189.37936   -110.24274   0.17135442   -110.07138    3461.5152    4.3501665    4.3501665    4.3501665    3461.5152   -4594.4756    736.25695    14242.764    2088.1179    1143.2001    464.57985     82.32233 
    2100     177.9669   -110.23076   0.16102819   -110.06973   -3366.6803    4.3622813    4.3622813    4.3622813   -3366.6803   -6210.1647   -7488.3415    3598.4652   -1078.6988   -1028.2717   -1683.9816    83.012022 
    2200    253.99868   -110.30031   0.22982334   -110.07049    338.56027    4.3510214    4.3510214    4.3510214    338.56027   -4709.0261   -2597.1739    8321.8808   -184.61886   -784.79409    11.885149    82.370869 
    2300    146.30281   -110.20333   0.13237786   -110.07095    3699.8997    4.3497083    4.3497083    4.3497083    3699.8997   -1603.4156    5447.2858    7255.8289     87.09001   -1301.0056   -457.75276    82.296319 
    2400      318.282   -110.35685   0.28798824   -110.06886   -14210.285    4.3625524    4.3625524    4.3625524   -14210.285   -13242.303    -14100.12    -15288.43   -1089.2311   -1598.8034     2737.597      83.0275 
    2500    164.16756   -110.21918   0.14854226   -110.07064    4344.7571    4.3509734    4.3509734    4.3509734    4344.7571    2064.9787   -187.48512    11156.778    1531.0638    142.73824   -695.81231    82.368143 
    2600    204.81718   -110.25608   0.18532289   -110.07076    303.20297    4.3504171    4.3504171    4.3504171    303.20297   -3034.0004     1985.115    1958.4942   -516.81567   -1720.9506    510.97395    82.336557 
    2700    164.18188   -110.21846   0.14855521   -110.06991   -5225.6593    4.3615188    4.3615188    4.3615188   -5225.6593   -7715.7786   -6896.6557   -1064.5438    48.341973    1621.7565   -136.44085      82.9685 
    2800    174.96318   -110.22864   0.15831036   -110.07033     1444.481    4.3508317    4.3508317    4.3508317     1444.481   -3843.8527   -3520.4862    11697.782     1388.052    191.31431   -1105.4496    82.360099 
    2900    112.71637   -110.17317   0.10198814   -110.07119    5650.1043    4.3502926    4.3502926    4.3502926    5650.1043   -1565.6122    1310.4395    17205.486    474.37246   -43.343343   -1016.3224    82.329488 
    3000    269.20219   -110.31349   0.24357979   -110.06991   -8910.1793     4.361679     4.361679     4.361679   -8910.1793   -12604.248   -8713.0841   -5413.2063   -475.56169    896.80894    -2294.083    82.977645 
    3100    201.73054   -110.25369   0.18253003   -110.07116    3157.9964    4.3508045    4.3508045    4.3508045    3157.9964    1686.1421    4160.7548    3627.0922   -78.811918   -518.73881    1004.7216    82.358553 
    3200    247.30132   -110.29493   0.22376343   -110.07117    412.95316    4.3506581    4.3506581    4.3506581    412.95316    -5376.644    4310.2726    2305.2309    2337.6985    728.43732   -866.98805    82.350241 
    3300    260.27408   -110.30547   0.23550146   -110.06997   -8051.5754    4.3616534    4.3616534    4.3616534   -8051.5754   -7561.0621   -6997.1925   -9596.4716   -799.72254   -1334.0041    1206.3753    82.976184 
    3400    185.87464   -110.23901   0.16818328   -110.07082    3128.7765    4.3515396    4.3515396    4.3515396    3128.7765   -3621.9363   -59.519852    13067.786    258.68376     837.4225    47.078578    82.400305 
    3500    162.15195   -110.21742   0.14671849    -110.0707    5439.3988    4.3496181    4.3496181    4.3496181    5439.3988    2860.5417    1361.0494    12096.605    352.59976   -7.9846633    1629.2112    82.291196 
    3600    166.09605    -110.2204    0.1502872   -110.07012   -4147.6491    4.3606321    4.3606321    4.3606321   -4147.6491   -5289.6001   -8283.4303     1130.083   -759.81394    352.83701    916.18791    82.917911 
    3700    181.45571   -110.23573   0.16418494   -110.07155    908.75105    4.3533669    4.3533669    4.3533669    908.75105   -3986.0529    2052.1969    4660.1091    1774.7128    1347.0813   -1212.3232    82.504151 
    3800    149.88686   -110.20611   0.13562078   -110.07049    9080.5093    4.3484546    4.3484546    4.3484546    9080.5093    8107.6906    2385.4388    16748.399   -145.66951   -402.76816    827.50231    82.225176 
    3900     263.2655   -110.30775   0.23820816   -110.06954   -8098.3323    4.3595304    4.3595304    4.3595304   -8098.3323   -5734.1272   -8721.8183   -9839.0513     943.4968     1565.217   -1849.3631    82.855076 
    4000    213.87835   -110.26447   0.19352162   -110.07095   -3999.7741    4.3566635    4.3566635    4.3566635   -3999.7741    -5569.638   -2629.8712   -3799.8133    2043.5525   -386.52033   -425.66945    82.691722 
    4100    208.61604   -110.25863   0.18876018   -110.06987    8714.8268    4.3474837    4.3474837    4.3474837    8714.8268    11617.466    4915.9316     9611.083    967.35551    107.84241   -1686.5972    82.170115 
    4200    246.81272   -110.29415   0.22332134   -110.07083   -1533.3147    4.3566324    4.3566324    4.3566324   -1533.3147   -7170.7022   -3777.4799    6348.2381   -137.61092   -1269.5333    2209.5451    82.689954 
    4300    172.65805   -110.22744   0.15622463   -110.07121   -2927.9655    4.3601438    4.3601438    4.3601438   -2927.9655   -7282.5681   -8131.7329    6630.4045    154.56722    549.28114    1026.2395    82.890057 
    4400    169.76718   -110.22363   0.15360892   -110.07002    9721.8302    4.3470449    4.3470449    4.3470449    9721.8302    8371.3212    1054.6641    19739.505     1280.531    407.46571    604.26667    82.145233 
    4500    217.92734   -110.26722   0.19718524   -110.07003   -284.73994    4.3533746    4.3533746    4.3533746   -284.73994   -2178.9798   -3747.6033    5072.3633   -1408.0796   -518.96736    1937.9995    82.504589 
    4600    199.39683   -110.25002   0.18041844    -110.0696   -10562.081    4.3634502    4.3634502    4.3634502   -10562.081   -8169.2564   -12978.775   -10538.212   -108.29713    1522.3369   -497.27279    83.078771 
    4700    179.46181   -110.23325   0.16238081   -110.07087     7385.038    4.3484482    4.3484482    4.3484482     7385.038     4119.318    6574.7129    11461.083    1060.8997   -318.83133    1705.1982    82.224815 
    4800    253.58599   -110.29999   0.22944993   -110.07054    2024.1132    4.3496762    4.3496762    4.3496762    2024.1132    3301.2406    1010.1452    1760.9539   -1468.9955    739.45144   -1494.0826    82.294494 
    4900    154.67763   -110.20994   0.13995557   -110.06998   -12237.593    4.3651794    4.3651794    4.3651794   -12237.593   -11645.725   -15332.728   -9734.3261    442.17528   -510.10296     171.5247    83.177582 
    5000    194.01113   -110.24662   0.17554535   -110.07108    275.99661    4.3517633    4.3517633    4.3517633    275.99661   -3267.6837   -837.81308    4933.4866   -463.56684    285.08603   -555.05943    82.413014 
    5100     167.3328   -110.22086   0.15140624   -110.06945    12728.497    4.3460109    4.3460109    4.3460109    12728.497    7813.7779    6788.4999    23583.213    170.98795   -769.57192    420.92885    82.086634 
    5200    215.66179   -110.26532   0.19513532   -110.07018   -11937.239    4.3639661    4.3639661    4.3639661   -11937.239   -16795.292    -14931.75   -4084.6752    1816.9958    78.924291    1098.0365    83.108242 
    5300    176.63735   -110.23202   0.15982518    -110.0722   -3555.8379    4.3563487    4.3563487    4.3563487   -3555.8379    -9168.071   -1220.6789   -278.76394   -11.849369    1121.7965    447.54834      82.6738 
    5400    270.20467   -110.31288   0.24448687   -110.06839    7114.9119    4.3451643    4.3451643    4.3451643    7114.9119    7168.3041    5604.2128    8572.2187    370.24508   -1871.1283    1784.2266    82.038669 
    5500    215.51187   -110.26533   0.19499967   -110.07033   -8956.4414    4.3604631    4.3604631    4.3604631   -8956.4414   -12317.819   -10237.811   -4313.6945     125.2082     1944.192    86.683484    82.908271 
    5600    182.20551   -110.23537   0.16486337   -110.07051   -7148.7546    4.3604463    4.3604463    4.3604463   -7148.7546   -11942.223   -4896.5748   -4607.4662    1408.1993   -1842.8166    1441.5698    82.907313 
    5700    240.42789   -110.28711   0.21754421   -110.06957    9745.0584    4.3453667    4.3453667    4.3453667    9745.0584    3366.4183    8568.2822    17300.474   -1632.1346    -952.0228    -1934.827    82.050136 
    5800    149.85994   -110.20887   0.13559643   -110.07328    146.15773    4.3552951    4.3552951    4.3552951    146.15773   -2142.4454   -2504.3472    5085.2657    39.715899    -1064.486   -1095.9038    82.613833 
    5900    171.53376   -110.22601   0.15520735   -110.07081   -10635.482    4.3635965    4.3635965    4.3635965   -10635.482   -18381.504    -8472.359   -5052.5813    1732.2145   -1684.8848   -656.68915    83.087131 
    6000    189.50516   -110.24115   0.17146825   -110.06968    10757.679    4.3477829    4.3477829    4.3477829    10757.679    9550.2817    4654.0021    18068.752   -1585.7626    110.52277   -142.32532    82.187079 
    6100    211.53686   -110.26174   0.19140299   -110.07034    3116.2153    4.3509032    4.3509032    4.3509032    3116.2153   -1073.8911    3533.2297    6889.3073    1534.4255   -1731.6594    259.15042    82.364158 
    6200    180.48962   -110.23284    0.1633108   -110.06953   -12313.486    4.3643079    4.3643079    4.3643079   -12313.486   -14348.883   -10477.536   -12114.039    464.63872    723.24836    22.142708    83.127771 
    6300    269.38322   -110.31369    0.2437436   -110.06995    419.19778    4.3525254    4.3525254    4.3525254    419.19778    1595.9322    466.42774   -804.76665    147.22133   -741.12256    2770.6543    82.456318 
    6400    161.25137   -110.21597   0.14590363   -110.07006    11974.286    4.3471888    4.3471888    4.3471888    11974.286    7167.4037    7562.5517    21192.902     1347.573     625.1111   -300.80854    82.153392 
    6500    229.43179   -110.27715    0.2075947   -110.06956   -9749.3556    4.3626027    4.3626027    4.3626027   -9749.3556   -13898.212   -11700.848   -3649.0071    236.00814    27.368251    1408.0939    83.030375 
    6600    151.75826    -110.2086   0.13731406   -110.07129    3436.3266    4.3561439    4.3561439    4.3561439    3436.3266     799.9234   -3130.8991    12639.955    317.47097   -1243.4611   -879.55677    82.662141 
    6700    233.39481   -110.28085   0.21118053   -110.06967    7676.9585    4.3460796    4.3460796    4.3460796    7676.9585    1209.9797    6169.6859     15651.21   -250.66711    756.71878   -47.238927    82.090525 
    6800    165.08323   -110.21996   0.14937077   -110.07059   -3024.4487    4.3597853    4.3597853    4.3597853   -3024.4487    1907.3373   -8736.1569   -2244.5265    481.32585   -2383.5466   -956.87989    82.869613 
    6900    245.75139   -110.29233   0.22236102   -110.06997   -4113.0517    4.3590794    4.3590794    4.3590794   -4113.0517   -4840.1517   -4804.9129   -2694.0906   -1409.2838    181.33022   -1194.2292    82.829364 
    7000    218.89174    -110.2672   0.19805784   -110.06915      8461.37    4.3470361    4.3470361    4.3470361      8461.37    9310.5107    3401.2636    12672.336   -976.03549   -525.52468    81.726444    82.144736 
    7100     178.5087   -110.23218   0.16151842   -110.07066   -2155.8231    4.3569698    4.3569698    4.3569698   -2155.8231    363.39633   -3695.7136   -3135.1521    1306.6972    1431.0556   -921.51871     82.70917 
    7200    226.50748    -110.2751   0.20494873   -110.07015    -7634.722    4.3595344    4.3595344    4.3595344    -7634.722   -10931.276   -9448.4959   -2524.3941   -2570.0414    41.175352    2109.6357    82.855307 
    7300    137.62852   -110.19526   0.12452918   -110.07073    9462.2198    4.3497246    4.3497246    4.3497246    9462.2198    3770.0673    2584.8437    22031.748    694.48455    125.03888   -681.31501    82.297243 
    7400    209.71284   -110.26026   0.18975258   -110.07051    426.70529    4.3544746    4.3544746    4.3544746    426.70529    611.65864   -4298.5664    4967.0236    1604.8794    753.75267    1993.4859    82.567151 
    7500    172.36156   -110.22612   0.15595636   -110.07017    -4117.757    4.3584611    4.3584611    4.3584611    -4117.757   -11715.187   -4115.7032    3477.6191   -1223.0671   -2739.2097    359.41231    82.794123 
    7600    237.82477   -110.28572   0.21518885   -110.07053   -2392.6591    4.3535409    4.3535409    4.3535409   -2392.6591   -1570.0595   -6334.5329     726.6149     2123.161    695.53282   -140.72565    82.514048 
    7700    189.46456   -110.24192   0.17143151   -110.07049    1362.2782    4.3530514    4.3530514    4.3530514    1362.2782   -3633.2721    799.74336    6920.3634    811.76801   -1313.3943   -145.31539    82.486217 
    7800    253.34141   -110.29933   0.22922863    -110.0701   -6253.4123    4.3569476    4.3569476    4.3569476   -6253.4123   -3691.4211   -8075.2039   -6993.6118    545.86005    1603.1604   -1854.1553    82.707902 
    7900    163.87797   -110.21937   0.14828023   -110.07109     1778.062    4.3557582    4.3557582    4.3557582     1778.062   -4298.2502   -4509.2406    14141.677    -126.5933    485.87126    429.39638    82.640184 
    8000    226.59441   -110.27552   0.20502738   -110.07049   -325.40096    4.3524826    4.3524826    4.3524826   -325.40096    -1873.825   -2615.0058    3512.6279    606.87942     71.49168   -1482.9569    82.453885 
    8100    144.30647     -110.202   0.13057153   -110.07143    235.34921    4.3550482    4.3550482    4.3550482    235.34921   -6368.6465   -1456.8593    8531.5534   -308.03971    2166.7506    1285.1288     82.59978 
    8200    215.54763    -110.2661   0.19503203   -110.07107   -4649.1768    4.3572354    4.3572354    4.3572354   -4649.1768   -10129.053   -10382.001    6563.5232   -893.30242   -208.63123     -694.017    82.724292 
    8300    183.83671   -110.23734   0.16633932     -110.071    1121.3261    4.3524966    4.3524966    4.3524966    1121.3261    -4076.474    3207.2725    4233.1799    1552.3872    1506.3716    1519.1226    82.454683 
    8400     207.0203   -110.25807   0.18731632   -110.07075   -2462.5239    4.3553088    4.3553088    4.3553088   -2462.5239   -3290.1054   -4462.5834    365.11723   -1938.3527   -637.38407    1004.1717    82.614612 
    8500     233.8644   -110.28177   0.21160542   -110.07017   -4756.7153    4.3565501    4.3565501    4.3565501   -4756.7153   -9973.8379   -3403.9057    -892.4024    737.55899    1113.2784    -946.3547    82.685267 
    8600    172.30852   -110.22663   0.15590837   -110.07072    1618.2659    4.3529604    4.3529604    4.3529604    1618.2659   -5141.9099    1040.1281    8956.5795    1019.7203    1446.4311    666.11079    82.481044 
    8700    227.83104   -110.27658   0.20614631   -110.07043   -1653.1998    4.3558913    4.3558913    4.3558913   -1653.1998   -5466.5747   -4457.2469    4964.2222   -1329.8953   -288.37362   -1362.1392    82.647761 
    8800    155.83734   -110.21165    0.1410049   -110.07065    4713.9919    4.3545147    4.3545147    4.3545147    4713.9919    818.58849   -2575.1186    15898.506    1182.2188    2937.2772    204.79319    82.569432 
    8900    234.34187   -110.28224   0.21203745   -110.07021   -313.83674    4.3536048    4.3536048    4.3536048   -313.83674   -3286.8926    1138.7912    1206.5912    276.55494    924.11675   -2132.3804    82.517678 
    9000    170.97718   -110.22541   0.15470374   -110.07071    131.30221    4.3563176    4.3563176    4.3563176    131.30221    1877.0559   -5899.9559    4416.8066    137.72956    1274.9303    471.86998    82.672031 
    9100    218.78851   -110.26859   0.19796444   -110.07063    23.105951    4.3538634    4.3538634    4.3538634    23.105951   -1153.8656    3101.5036   -1878.3201   -726.77502    -1208.376    8.5937637    82.532383 
    9200    213.65418   -110.26407   0.19331879   -110.07075    253.95579    4.3539233    4.3539233    4.3539233    253.95579   -3852.0743   -3153.5376    7767.4794    -93.15941    43.723714     475.5927    82.535791 
    9300    175.77716   -110.23022   0.15904686   -110.07117   -1303.0172    4.3571901    4.3571901    4.3571901   -1303.0172    2451.9233    -2057.826   -4303.1488   -383.21269   -1019.8322    2274.0509    82.721712 
    9400     209.4036   -110.26015   0.18947278   -110.07068    644.67762    4.3538084    4.3538084    4.3538084    644.67762    -3395.516   -3045.0908    8374.6397   -2063.1549   -1661.2531     577.9118    82.529256 
    9500    186.57205   -110.23926   0.16881432   -110.07044    3879.8103    4.3531271    4.3531271    4.3531271    3879.8103    531.27906    1798.5129     9309.639    448.04498    1742.6887    2428.9156    82.490522 
    9600    202.58101   -110.25366   0.18329956   -110.07036    -2103.863    4.3573452    4.3573452    4.3573452    -2103.863   -2189.2488   -7459.8793     3337.539   -1594.8873    175.51089    -139.1046    82.730549 
    9700    197.15815   -110.24884   0.17839284   -110.07044     2110.113    4.3546474    4.3546474    4.3546474     2110.113   -370.61568   -664.27891    7365.2336    -209.6738    1830.6853    323.56894     82.57698 
    9800    254.07206   -110.29995   0.22988974   -110.07006    1517.9936    4.3528976    4.3528976    4.3528976    1517.9936    7975.8131   -4283.1824    861.35018    1515.1393    790.87234   -1173.8095    82.477475 
    9900    164.45533    -110.2197   0.14880264    -110.0709   -350.01167    4.3566378    4.3566378    4.3566378   -350.01167     2352.018   -234.88279   -3167.1703   -1208.8739    734.69596    -98.13062    82.690262 
   10000    260.77491   -110.30629   0.23595462   -110.07034   -5221.3642    4.3559539    4.3559539    4.3559539   -5221.3642   -981.40812   -9286.0305   -5396.6541    1901.6697   -828.40549   -313.90874    82.651326 
   10100    133.67767   -110.19177   0.12095437   -110.07082    6683.5212     4.352619     4.352619     4.352619    6683.5212    4289.7771    4903.1268     10857.66    463.03628    -1639.745   -668.95192    82.461639 
   10200    248.25651   -110.29524   0.22462771   -110.07062   -6041.9676    4.3557592    4.3557592    4.3557592   -6041.9676   -10159.613   -6667.1903   -1299.0998    931.21924   -478.68748    1852.8095    82.640245 
   10300    95.785854    -110.1581  0.086669054   -110.07143     2510.284    4.3566798    4.3566798    4.3566798     2510.284    1022.0524   -2367.6574    8876.4571     559.9859   -962.42718    621.20002    82.692653 
   10400    288.01609   -110.33053   0.26060301   -110.06993   -3599.3475    4.3537462    4.3537462    4.3537462   -3599.3475    -8022.446   -3872.3308    1096.7343   -728.57509    2550.1779     1952.301    82.525722 
   10500    100.39826   -110.16191  0.090842456   -110.07107    4995.9919      4.35395      4.35395      4.35395    4995.9919   -530.37096    3923.9134    11594.433    751.24334    1442.0768    358.85302    82.537308 
   10600    298.69998   -110.34014   0.27027002   -110.06987   -8780.8988    4.3579813    4.3579813    4.3579813   -8780.8988    -8721.979    -11716.98   -5903.7377   -2352.0002    1639.6562    1148.1777    82.766786 
   10700    156.94757   -110.21279   0.14200946   -110.07078    4163.5924    4.3543315    4.3543315    4.3543315    4163.5924    5550.3345    2819.8586     4120.584    173.54291    2349.4011   -153.75654    82.559006 
   10800    262.65638   -110.30823   0.23765701   -110.07058   -4078.1468    4.3539327    4.3539327    4.3539327   -4078.1468   -1596.0703   -5149.6746   -5488.6955    -1881.785   -1259.4658   -743.51424    82.536325 
   10900    140.75788   -110.19852   0.12736069   -110.07116    545.57557      4.35679      4.35679      4.35679    545.57557    3050.3949   -3224.6821    1811.0139   -84.164423   -952.72449   -659.31509    82.698929 
   11000    243.75168   -110.29062   0.22055165   -110.07007   -3816.3781    4.3558112    4.3558112    4.3558112   -3816.3781   -5668.1174   -5769.1305   -11.886483    1252.0561   -2464.1033   -2049.2449    82.643202 
   11100    123.21171   -110.18252   0.11148454   -110.07103    3408.3672    4.3532935    4.3532935    4.3532935    3408.3672   -4584.6706    2269.7319     12540.04   -1886.0646   -1057.5305    693.25209    82.499981 
   11200    214.38281   -110.26455   0.19397807   -110.07057   -3222.3431    4.3563164    4.3563164    4.3563164   -3222.3431   -2880.6597   -9997.8542    3211.4844    2059.9477   -1551.8228   -755.97647    82.671964 
   11300    186.15656    -110.2389   0.16843837   -110.07046   -553.76941     4.355931     4.355931     4.355931   -553.76941   -5087.1623    327.58321    3098.2708   -319.92253    256.89117    1381.4723    82.650023 
   11400    226.38468   -110.27535   0.20483762   -110.07051   -1756.8453    4.3541382    4.3541382    4.3541382   -1756.8453   -1881.1352   -6317.6868     2928.286   -1011.5169     1231.815    934.66216    82.548012 
   11500    215.04103   -110.26478   0.19457364   -110.07021    583.57816    4.3550518    4.3550518    4.3550518    583.57816    278.37638    726.94379    745.41432   -659.18229    351.67359    1322.5011    82.599987 
   11600    253.22101   -110.29963   0.22911969   -110.07051   -2566.2533    4.3561435    4.3561435    4.3561435   -2566.2533   -1740.4939   -4795.1408   -1163.1252   -1518.0717    541.42685    335.89336    82.662121 
   11700    193.44639    -110.2464   0.17503435   -110.07136    314.20435    4.3545733    4.3545733    4.3545733    314.20435    4176.8175   -1371.9896   -1862.2149   -693.80073   -999.81503   -1304.6627    82.572763 
   11800    172.00733   -110.22739   0.15563584   -110.07176    3611.3883    4.3540095    4.3540095    4.3540095    3611.3883    3151.7402   -1744.5126    9426.9372   -2341.2423   -1471.7066   -337.35107    82.540692 
   11900    203.93345   -110.25567   0.18452327   -110.07114    1011.4142    4.3554881    4.3554881    4.3554881    1011.4142    1701.3968    -996.8659    2329.7117   -201.51488   -2307.4536   -3234.0778    82.624815 
   12000    120.48528   -110.18043   0.10901761   -110.07141    3458.1333    4.3554722    4.3554722    4.3554722    3458.1333   -2639.1738   -2973.1068    15986.681   -1364.2382   -1125.7108   -62.422374    82.623911 
   12100    200.54475   -110.25179    0.1814571   -110.07033    1179.1013    4.3536403    4.3536403    4.3536403    1179.1013   -4734.9032    2468.9766    5803.2304    112.35801   -745.81223   -1779.7499    82.519699 
   12200    204.36363   -110.25488   0.18491251   -110.06997    25.687673    4.3557033    4.3557033    4.3557033    25.687673    1608.1107   -4521.8825    2990.8348    1551.7624    14.650026    265.78983    82.637063 
   12300    230.09982   -110.27835   0.20819916   -110.07015   -3249.6645    4.3561132    4.3561132    4.3561132   -3249.6645   -5579.1534   -821.64052   -3348.1997   -1696.4006    1452.9462    1406.3262    82.660392 
   12400    216.84679   -110.26626   0.19620754   -110.07005    1626.4879    4.3534399    4.3534399    4.3534399    1626.4879   -955.16453   -2667.4163    8502.0447    2881.2797    639.93263    502.06305    82.508304 
   12500    278.88819   -110.32192    0.2523439   -110.06958   -3191.2238    4.3567123    4.3567123    4.3567123   -3191.2238   -4356.4672   -3042.6636   -2174.5405    382.46328    888.37201    2423.8188    82.694502 
   12600    162.31829   -110.21785     0.146869   -110.07098    1482.8149    4.3550734    4.3550734    4.3550734    1482.8149   -1262.1892    -3966.104    9676.7378   -575.56617   -384.02412   -449.82035    82.601215 
   12700    208.48188   -110.25942   0.18863878   -110.07078    1299.9695    4.3532552    4.3532552    4.3532552    1299.9695   -3667.3381   -1368.5011    8935.7477    406.73972   -543.01919    1783.9657    82.497803 
   12800    201.97722   -110.25325   0.18275324    -110.0705   -414.40421    4.3573001    4.3573001    4.3573001   -414.40421    1215.1113   -6256.5118    3798.1878   -1027.9971   -1118.1929   -2463.9578    82.727982 
   12900    136.03482   -110.19456   0.12308716   -110.07147    1964.9936    4.3539397    4.3539397    4.3539397    1964.9936   -5122.0105    2918.6469    8098.3443    -482.9792   -2145.5498    -528.1857    82.536722 
   13000    207.33694   -110.25806   0.18760282   -110.07046   -594.67055    4.3533237    4.3533237    4.3533237   -594.67055   -2917.7847   -1553.7612    2687.5342   -2698.9901   -318.29833   -1122.9619    82.501697 
   13100    197.17492   -110.24845   0.17840801   -110.07004   -3663.5555    4.3588172    4.3588172    4.3588172   -3663.5555   -7493.7455    1155.0994   -4652.0203    118.89569   -421.03143   -1106.7611     82.81442 
   13200    198.15462   -110.24943   0.17929447   -110.07014   -2330.6233    4.3535157    4.3535157    4.3535157   -2330.6233   -2123.0517     -881.226   -3987.5922   -1818.4463    614.10007    1231.1306    82.512612 
   13300    181.75907   -110.23481   0.16445942   -110.07035    3259.2587    4.3529837    4.3529837    4.3529837    3259.2587   -3184.9911    2314.1193    10648.648   -950.93598    278.40059    48.518061    82.482368 
   13400    261.70017    -110.3068   0.23679182   -110.07001      -5493.4     4.358549     4.358549     4.358549      -5493.4   -7626.8297   -6428.6467   -2424.7235    690.46164   -291.02764    2923.6556    82.799136 
   13500     137.0314   -110.19534   0.12398889   -110.07135    988.26339    4.3540479    4.3540479    4.3540479    988.26339   -7890.5682   -109.45247    10964.811   -2230.4939    1003.2519    447.36582     82.54288 
   13600     249.3776   -110.29606   0.22564209   -110.07041   -916.21111    4.3531311    4.3531311    4.3531311   -916.21111    -2432.499   -5239.2391    4923.1048    1335.0797   -435.56055    1562.6028    82.490747 
   13700    192.38124   -110.24465   0.17407059   -110.07057   -1303.9239    4.3570453    4.3570453    4.3570453   -1303.9239   -5586.8324    -2968.743    4643.8035   -497.19097   -1406.5371   -1569.9769    82.713468 
   13800     212.0055   -110.26288   0.19182703   -110.07105   -4674.9618    4.3557935    4.3557935    4.3557935   -4674.9618   -2886.8943   -7968.9173   -3169.0737   -2600.5779    415.06095   -1142.6232    82.642196 
   13900    169.54479    -110.2241   0.15340769   -110.07069    4325.2611    4.3526647    4.3526647    4.3526647    4325.2611    1357.0796   -550.90107    12169.605   -991.78164    658.12844    835.69685    82.464236 
   14000    250.16135   -110.29678   0.22635124   -110.07043   -4420.3216     4.355425     4.355425     4.355425   -4420.3216   -6386.6185   -2390.1827   -4484.1636   -1336.6961    708.83632   -2040.8875    82.621223 
   14100    123.92386   -110.18353   0.11212892    -110.0714   -1526.2652    4.3573545    4.3573545    4.3573545   -1526.2652   -6097.5445   -3618.9845    5137.7333   -2748.0864    463.91343    1765.7302     82.73108 
   14200    215.80169   -110.26557   0.19526191   -110.07031    3500.8772    4.3527062    4.3527062    4.3527062    3500.8772    3503.7999    342.49335    6656.3382   -2015.9699     1346.922    363.53683    82.466593 
   14300     193.1377   -110.24503   0.17475505   -110.07028    4723.5855    4.3531199    4.3531199    4.3531199    4723.5855    -3644.962    3176.6879    14639.031    819.42595    442.77447    2783.0427    82.490114 
   14400    186.25127   -110.23987   0.16852406   -110.07134   -4900.6847    4.3588926    4.3588926    4.3588926   -4900.6847   -4141.7457   -7487.1293   -3073.1791   -1524.1247   -428.61337     210.4957     82.81872 
   14500    220.51006    -110.2705   0.19952213   -110.07098    996.12966    4.3530137    4.3530137    4.3530137    996.12966   -2112.2413    1972.8046    3127.8257      586.234   -595.71744    1296.2345    82.484072 
   14600    239.76687   -110.28751    0.2169461   -110.07056    2585.5583    4.3520861    4.3520861    4.3520861    2585.5583    913.56945    973.71623    5869.3892    1218.0874   -121.88327    614.50802    82.431355 
   14700    201.28541   -110.25284   0.18212727   -110.07071   -5517.7648     4.359554     4.359554     4.359554   -5517.7648   -5555.4874    -6023.026   -4974.7809   -1409.9984    955.53021   -1960.2482    82.856423 
   14800      176.858   -110.23077   0.16002483   -110.07075    3450.6558    4.3537279    4.3537279    4.3537279    3450.6558    2526.8967   -1379.6028    9204.6735    1093.5781   -409.04191    1309.6886    82.524681 
   14900    259.54712   -110.30451   0.23484369   -110.06967    2539.4848    4.3513872    4.3513872    4.3513872    2539.4848    1690.5047   -545.72429    6473.6741   -642.72439     1188.346   -2420.8872    82.391651 
   15000    98.251194   -110.16026  0.088899745   -110.07136   -226.45435     4.358083     4.358083     4.358083   -226.45435   -3349.2888   -1714.6457    4384.5715   -1500.3507    807.43515    1265.6503    82.772579 
   15100    257.43997   -110.30311    0.2329371   -110.07017   -4157.1552    4.3556765    4.3556765    4.3556765   -4157.1552   -6026.6116   -3250.2361   -3194.6178    -793.9466   -314.25829     226.6326    82.635535 
   15200    153.77866   -110.20919   0.13914216   -110.07004    11323.258    4.3509807    4.3509807    4.3509807    11323.258    8837.8055     6603.753    18528.216   -616.87348    822.69194    939.94244    82.368558 
   15300    241.59805   -110.28952   0.21860299   -110.07092   -5222.5227    4.3562354    4.3562354    4.3562354   -5222.5227   -8376.0977    844.45526   -8135.9256   -2072.9629   -313.68571     1757.648    82.667348 
   15400    148.01442   -110.20551   0.13392656   -110.07158   -1304.2755     4.357355     4.357355     4.357355   -1304.2755   -4421.0612   -2818.9486    3327.1832   -1980.3899    688.70389   -78.625403    82.731105 
   15500    292.78153   -110.33518   0.26491488   -110.07026   -3.8520332    4.3519966    4.3519966    4.3519966   -3.8520332   -1489.0934    1967.0768   -489.53951    1561.2627   -526.75287    1392.8749    82.426271 
   15600    122.02456   -110.18215   0.11041039   -110.07174    3759.7146    4.3532245    4.3532245    4.3532245    3759.7146   -5467.1528    3363.3138    13382.983   -2069.0249    1289.3786   -1818.0435    82.496057 
   15700    230.96753   -110.27935   0.20898427   -110.07037    -7010.166    4.3592399    4.3592399    4.3592399    -7010.166   -9251.1706   -10336.096   -1443.2317   -531.14755    897.34201    1226.3214    82.838514 
   15800    202.87333   -110.25404   0.18356405   -110.07048    3306.6275    4.3533581    4.3533581    4.3533581    3306.6275    414.21205   -480.05571    9985.7261     1092.259    1443.5946   -499.05812    82.503654 
   15900    195.24473   -110.24761   0.17666154   -110.07095   -922.47213    4.3512117    4.3512117    4.3512117   -922.47213    -4965.995   -2091.4114      4289.99   -2373.1926    3293.9534    790.25965    82.381677 
   16000    188.09414   -110.24062   0.17019153   -110.07043   -6834.9233    4.3595153    4.3595153    4.3595153   -6834.9233   -9840.7417   -7848.7129   -2815.3155   -1450.4671   -896.02253    1330.1908    82.854215 
   16100    249.56377   -110.29583   0.22581055   -110.07002   -1604.8311    4.3556878    4.3556878    4.3556878   -1604.8311   -2871.0627   -3023.1949    1079.7644   -1593.4965    1795.8832   -1363.4731    82.636182 
   16200    161.05743   -110.21658   0.14572815   -110.07085    4483.8125    4.3496044    4.3496044    4.3496044    4483.8125    -448.9409    5064.6733     8835.705   -1952.2444   -70.820104    1008.7053    82.290422 
   16300    177.93377   -110.23231   0.16099822   -110.07131   -5059.9618    4.3585539    4.3585539    4.3585539   -5059.9618     -7669.52   -7696.9985    186.63311   -1455.2648   -1199.5222   -1309.2613    82.799416 
   16400     231.7946   -110.28054   0.20973263   -110.07081   -4801.2149    4.3573005    4.3573005    4.3573005   -4801.2149    -6339.509   -3101.3392   -4962.7966   -77.827781    794.35826    801.40259    82.728001 
   16500    119.37407   -110.17932   0.10801217   -110.07131    6341.0768    4.3494653    4.3494653    4.3494653    6341.0768   -2319.8711    1750.4265    19592.675   -1894.4586   -529.72992   -1923.9794    82.282524 
   16600    235.81421   -110.28373   0.21336966   -110.07036   -4695.3814    4.3574292    4.3574292    4.3574292   -4695.3814   -6776.0055   -4862.1244   -2448.0141   -938.70024    1186.3433    1413.3845    82.735331 
   16700    194.28171    -110.2457   0.17579018   -110.06991   -1431.1814     4.357699     4.357699     4.357699   -1431.1814   -5132.0069    -3697.104    4535.5668    2207.2256   -454.57263    460.20131    82.750703 
   16800    247.29403    -110.2942   0.22375683   -110.07044   -1102.8016    4.3509159    4.3509159    4.3509159   -1102.8016     -1022.02   -2609.4128    323.02821   -2370.0265    2296.7379   -708.91475    82.364878 
   16900    172.25078   -110.22759   0.15585613   -110.07174    1853.0532     4.355794     4.355794     4.355794    1853.0532    133.09402    -2717.755    8143.8207    332.97045   -1572.4105     417.6943    82.642222 
   17000    285.05278   -110.32806   0.25792174   -110.07014   -5032.1118    4.3574522    4.3574522    4.3574522   -5032.1118   -9579.9898    -2866.101   -2650.2447     785.0518      43.5274   -1651.2273    82.736643 
   17100    129.28415   -110.18858   0.11697902   -110.07161      6904.94    4.3525959    4.3525959    4.3525959      6904.94    3733.8104    1233.5758    15747.434   -1845.2619    858.62529    615.25274    82.460328 
   17200    196.92417   -110.24889   0.17818113   -110.07071    3740.4677    4.3535508    4.3535508    4.3535508    3740.4677   -2040.0978    7170.7333    6090.7677   -643.01315   -2323.6754   -2783.4747     82.51461 
   17300    216.53727   -110.26586   0.19592747   -110.06993   -2069.4863    4.3570029    4.3570029    4.3570029   -2069.4863   -4268.4804   -2752.0961     812.1177   -1595.4807     1204.345   -462.74144    82.711055 
   17400    141.11076   -110.19929   0.12767998   -110.07161    2443.6799    4.3552735    4.3552735    4.3552735    2443.6799   -742.59943    4263.6245    3810.0148   -1307.3641   -277.81048   -305.45105    82.612599 
   17500    216.69728   -110.26649   0.19607226   -110.07042     3529.953    4.3519075    4.3519075    4.3519075     3529.953   -1014.0168    2517.3096    9086.5662   -1597.9276    1142.6041    1033.4457    82.421207 
   17600    225.76137    -110.2743   0.20427363   -110.07002    -2013.734    4.3568089    4.3568089    4.3568089    -2013.734   -5334.3986    1742.9898   -2449.7931    311.52958    189.29921    1149.6393    82.700004 
   17700    186.59343    -110.2398   0.16883365   -110.07096   -2563.5201    4.3575966    4.3575966    4.3575966   -2563.5201   -4022.4949   -2662.5018   -1005.5636   -672.68301    1012.1671    187.35754    82.744867 
   17800    204.68308   -110.25589   0.18520155   -110.07069    4821.9727    4.3506965    4.3506965    4.3506965    4821.9727   -1870.8266    1083.5477    15253.197   -346.96233     854.8861    2264.7335    82.352422 
   17900    265.36739   -110.31058   0.24010999   -110.07047   -2517.5746    4.3568001    4.3568001    4.3568001   -2517.5746    -4332.517   -5299.6681    2079.4613    2137.8358   -2007.0118   -2331.5456    82.699503 
   18000    137.11584    -110.1961   0.12406529   -110.07204   -216.41868    4.3584899    4.3584899    4.3584899   -216.41868   -7857.5024   -304.92968     7513.176   -2229.3687    1720.4043   -2131.1894    82.795769 
   18100    258.86386    -110.3049   0.23422547   -110.07068    1354.4955    4.3500907    4.3500907    4.3500907    1354.4955   -1495.6238    1148.2641    4410.8461    50.300584   -3078.3767   -2605.5018    82.318023 
   18200    173.28664   -110.22719   0.15679339    -110.0704    1644.3739    4.3571754    4.3571754    4.3571754    1644.3739   -2822.7975    7005.7598    750.15947    285.07715    927.30439   -869.43321    82.720876 
   18300     218.3073   -110.26789   0.19752904   -110.07036   -7734.3209     4.358548     4.358548     4.358548   -7734.3209   -10635.731   -4750.9879   -7816.2442   -2052.6931   -229.75157   -144.66788    82.799076 
   18400    131.56195   -110.19015   0.11904002   -110.07111    6832.5122    4.3509917    4.3509917    4.3509917    6832.5122    430.02365     7433.189    12634.324   -1534.5216   -73.390788    22.564763    82.369183 
   18500    258.24927   -110.30392   0.23366937   -110.07025   -2956.2887    4.3566164    4.3566164    4.3566164   -2956.2887   -5161.8116    -2515.053   -1192.0015   -1237.4517    2291.4994    3337.8279    82.689042 
   18600     97.45702   -110.15971  0.088181159   -110.07153    -1038.308    4.3567666    4.3567666    4.3567666    -1038.308   -9563.6052    662.73627     5785.945   -770.84122     167.9654    295.15021    82.697596 
   18700    229.02947   -110.27793   0.20723068   -110.07069     -1380.58    4.3541381    4.3541381    4.3541381     -1380.58   -4719.7751   -5745.1492    6323.1844   -2086.3097    2405.4781    1654.0301    82.548007 
   18800    219.08406   -110.26842   0.19823186   -110.07019     1474.295    4.3550352    4.3550352    4.3550352     1474.295   -3920.8684    -1809.631    10153.384    656.88713   -448.29587   -1297.4517    82.599042 
   18900    194.20434   -110.24707   0.17572017   -110.07135    -5020.006    4.3557283    4.3557283    4.3557283    -5020.006   -10447.509   -4603.9021   -8.6072865   -1793.9259    2359.8936   -237.47641    82.638485 
   19000    239.06244   -110.28747   0.21630872   -110.07116   -3800.1543     4.356833     4.356833     4.356833   -3800.1543   -8013.1048   -3957.0416    569.68349    443.44455    -285.3102   -1128.8781    82.701376 
   19100    253.01655   -110.29956   0.22893469   -110.07063   -489.08278    4.3536924    4.3536924    4.3536924   -489.08278    -4328.955    4653.1998   -1791.4932    1517.5366   -998.39718   -1105.2082     82.52266 
   19200    162.62039   -110.21833   0.14714234   -110.07119   -2367.6563    4.3548271    4.3548271    4.3548271   -2367.6563    -9282.552    2026.9474    152.63554   -2538.8121    3037.6926     1402.321    82.587203 
   19300    178.29833   -110.23296   0.16132808   -110.07164   -1113.5467    4.3579864    4.3579864    4.3579864   -1113.5467   -7690.1909    496.75474    3852.7961    322.42735   -1746.0141    801.91171    82.767074 
   19400    213.55835   -110.26434   0.19323209   -110.07111    2021.7022    4.3524303    4.3524303    4.3524303    2021.7022   -3483.8345    1936.0292    7612.9119   -1132.5526    2529.2507    3711.0391    82.450913 
   19500    108.10882   -110.16998  0.097819136   -110.07216     1892.105    4.3550199    4.3550199    4.3550199     1892.105   -6738.0844    6535.4783    5878.9212   -835.24645     1033.467    1119.2587    82.598172 
   19600    243.68016   -110.29113   0.22048693   -110.07064   -4293.9316    4.3581544    4.3581544    4.3581544   -4293.9316   -7936.1793   -2090.8013   -2854.8142   -2202.3238    1135.5498    1737.5548    82.776651 
   19700    185.84912    -110.2384   0.16816019   -110.07024    5102.7228    4.3522145    4.3522145    4.3522145    5102.7228    2716.3401    2874.1601    9717.6683   -1.6881456     1607.062   -202.20301    82.438648 
   19800    256.88379    -110.3029   0.23243385   -110.07047   -4893.4566    4.3557799    4.3557799    4.3557799   -4893.4566   -8095.1024   -1454.7673   -5130.5002   -195.89421   -193.67463   -1514.1246     82.64142 
   19900     166.6508   -110.22189   0.15078915    -110.0711    1867.7542    4.3565938    4.3565938    4.3565938    1867.7542    2110.0097    66.555525    3426.6974   -170.89838     796.1439   -373.37298    82.687756 
   20000    314.43486   -110.35434   0.28450727   -110.06983   -3101.0593    4.3534483    4.3534483    4.3534483   -3101.0593   -4561.3652   -2848.6918   -1893.1209    1797.3229   -2762.4355   -1951.0998    82.508784 
   20100    79.725357   -110.14375  0.072137178   -110.07162    5808.5924    4.3559989    4.3559989    4.3559989    5808.5924    140.99132    8157.5425    9127.2434   -1286.9212     684.2682     450.0064    82.653887 
   20200    267.57853   -110.31239   0.24211068   -110.07028   -2995.0792    4.3548911    4.3548911    4.3548911   -2995.0792   -2737.3612   -6651.3166    403.44008    1662.9863   -1641.7613   -478.66576    82.590845 
   20300    132.52285   -110.19098   0.11990946   -110.07107    6495.0334     4.353532     4.353532     4.353532    6495.0334   -1108.1443    3682.9503    16910.294    493.18441    184.34458    1723.2933    82.513542 
   20400    213.79568   -110.26537   0.19344683   -110.07192   -4494.9291    4.3566999    4.3566999    4.3566999   -4494.9291   -4390.9447   -5656.2281   -3437.6145   -1475.5982    1478.2119    668.72183    82.693798 
   20500    149.73727   -110.20718   0.13548543    -110.0717    3682.4899    4.3535851    4.3535851    4.3535851    3682.4899   -892.08638    3669.1358    8270.4202   -697.64307    685.90217    35.486749    82.516561 
   20600    300.87439   -110.34243   0.27223747    -110.0702   -2658.2971     4.354836     4.354836     4.354836   -2658.2971   -4235.8953   -3398.8151   -340.18089   -919.82464    1498.3013    2149.3797    82.587705 
   20700    138.40166   -110.19633   0.12522873    -110.0711    977.06722    4.3562791    4.3562791    4.3562791    977.06722     1273.202   -2636.5575    4294.5572   -1546.4987    277.05728   -2379.3869    82.669837 
   20800    253.56424   -110.29992   0.22943025   -110.07049    -2531.304    4.3541054    4.3541054    4.3541054    -2531.304   -6474.5224   -6743.1741    5623.7845   -3035.9059    1190.9984     522.4254    82.546147 
   20900    212.94863    -110.2633   0.19268039   -110.07062     2833.568    4.3541862    4.3541862    4.3541862     2833.568    3704.5852   -1802.5994    6598.7181    385.02198    -2603.267   -1548.8176    82.550746 
   21000     160.0006   -110.21631    0.1447719   -110.07154   -1489.8009    4.3555624    4.3555624    4.3555624   -1489.8009   -5104.3189   -7847.6365    8482.5527   -1164.5123    381.77105    1102.3623     82.62904 
   21100    203.10936   -110.25484   0.18377762   -110.07106   -1811.7767    4.3553483    4.3553483    4.3553483   -1811.7767   -4970.8575   -2111.0143    1646.5418   -1282.3358   -346.30939   -177.92894     82.61686 
   21200    192.57883   -110.24457   0.17424937   -110.07032    3869.4162    4.3540161    4.3540161    4.3540161    3869.4162    2320.5866   -3555.0521    12842.714    1753.5487   -2031.2225    63.136177    82.541067 
   21300    197.45442   -110.24955   0.17866091   -110.07089   -3824.7579    4.3539921    4.3539921    4.3539921   -3824.7579   -5038.2328   -5353.8416   -1082.1994   -1984.9533    1475.0687    1823.7119    82.539704 
   21400    164.74615   -110.22049   0.14906578   -110.07143   -3144.8898    4.3573783    4.3573783    4.3573783   -3144.8898   -7706.2214   -6466.6965    4738.2485    1006.2163   -20.358387   -976.66756    82.732433 
   21500    258.60492    -110.3043   0.23399117   -110.07031    364.24121    4.3539427    4.3539427    4.3539427    364.24121   -1296.5457    2775.5206   -386.25131   -450.00301    935.73291    579.29814    82.536895 
   21600    141.36396   -110.19928   0.12790908   -110.07137    3615.2034    4.3518014    4.3518014    4.3518014    3615.2034   -7100.0079   -1823.3208    19768.939   -2623.5735   -1078.1367   -956.88078    82.415179 
   21700    225.36285   -110.27457   0.20391304   -110.07066   -6275.3537    4.3591495    4.3591495    4.3591495   -6275.3537   -8502.5176   -4091.9903   -6231.5533   -192.15788    2024.6389    1572.7582     82.83336 
   21800    225.93309   -110.27495   0.20442901   -110.07052    684.65029    4.3541366    4.3541366    4.3541366    684.65029   -5713.8553   -3637.9958    11405.802   -631.76619    -2383.715   -521.11395    82.547925 
   21900    185.79041   -110.24012   0.16810707   -110.07201    1617.1668    4.3502459    4.3502459    4.3502459    1617.1668    -1124.186    2460.6981    3514.9884    -721.8172    669.92034   -1057.2281    82.326833 
   22000    215.58744   -110.26665   0.19506804   -110.07158   -6499.1032    4.3601448    4.3601448    4.3601448   -6499.1032   -11956.604   -7309.9669   -230.73849   -2240.7848    1174.4604    511.61053    82.890114 
   22100    212.52908   -110.26317   0.19230078   -110.07087    928.43014    4.3550764    4.3550764    4.3550764    928.43014   -1321.9544     1538.744    2568.5008    1416.2482     -1048.66   -806.58555    82.601387 
   22200    184.14725   -110.23733    0.1666203   -110.07071    3663.2591    4.3494006    4.3494006    4.3494006    3663.2591   -3930.7665    3073.3816    11847.162   -715.85667    2965.7413     404.2815    82.278855 
   22300    143.25446   -110.20076   0.12961965   -110.07114   -1655.6785    4.3585013    4.3585013    4.3585013   -1655.6785   -3839.0789    -3311.545    2183.5884   -902.16896    590.84234   -1433.9491    82.796418 
   22400    268.97247   -110.31316   0.24337194   -110.06979     -5388.36    4.3569736    4.3569736    4.3569736     -5388.36    -8548.172   -6320.3896   -1296.5183    1909.5472    1366.0404    1315.0399    82.709383 
   22500    98.634046   -110.16043  0.089246157   -110.07118    10352.225    4.3502576    4.3502576    4.3502576    10352.225    1776.5169    12759.014    16521.145   -2478.4306    855.24377   -301.17655    82.327497 
   22600    293.08922   -110.33556   0.26519329   -110.07036   -5285.9241    4.3557422    4.3557422    4.3557422   -5285.9241   -5938.0909   -7228.4511   -2691.2302    715.35216    782.89272    512.70292    82.639278 
   22700    154.62589   -110.21036   0.13990875   -110.07045   -422.20433     4.358063     4.358063     4.358063   -422.20433   -3994.6407    503.44119    2224.5865   -911.83908    418.06641     1908.909    82.771441 
   22800    280.54287   -110.32461   0.25384109   -110.07076   -4313.8138      4.35312      4.35312      4.35312   -4313.8138   -5814.4158   -3723.7184    -3403.307   -2382.1467   -261.61226    358.14995    82.490117 
   22900     106.5051   -110.16869  0.096368049   -110.07233    9023.2545     4.351848     4.351848     4.351848    9023.2545    5789.4808    1322.9289    19957.354   -1455.3228    2107.2214    1295.7813    82.417824 
   23000    309.28005   -110.35047   0.27984309   -110.07062   -8398.2438    4.3591399    4.3591399    4.3591399   -8398.2438   -11090.326   -8945.1124    -5159.293   -757.71575   -1472.0182   -1720.5722    82.832815 
   23100    78.180692   -110.14345  0.070739533   -110.07271    5732.4279    4.3551798    4.3551798    4.3551798    5732.4279    52.935012     2572.679     14571.67   -575.46242    1394.5873   -92.254708    82.607269 
   23200    265.47618    -110.3104   0.24020842   -110.07019    1115.0263     4.350068     4.350068     4.350068    1115.0263    917.80709   -1736.8681      4164.14   -2712.3102   -563.67238   -1793.4574    82.316735 
   23300    170.06574     -110.224   0.15387905   -110.07012    432.55091    4.3578409    4.3578409    4.3578409    432.55091    -1962.249   -1795.7178    5055.6196    1837.6392   -55.818078    129.51798    82.758785 
   23400    218.85463   -110.26925   0.19802427   -110.07123   -5399.3305    4.3581808    4.3581808    4.3581808   -5399.3305   -6465.3162   -5368.5355   -4364.1398   -1070.9155    1053.1929   -25.332538    82.778155 
   23500    169.39177   -110.22433   0.15326923   -110.07106    8301.5385    4.3491189    4.3491189    4.3491189    8301.5385    4600.0353    7057.5624    13247.018    -1749.106   -868.51182      594.018    82.262867 
   23600    261.65292   -110.30757   0.23674906   -110.07082    -3448.192    4.3566043    4.3566043    4.3566043    -3448.192   -5307.4843   -3625.0795   -1412.0123    2093.2293     437.7105    2014.5954    82.688352 
   23700    150.96826   -110.20837   0.13659925   -110.07177   -5500.7037    4.3597309    4.3597309    4.3597309   -5500.7037   -6786.3487   -6869.2884   -2846.4739    -3536.016   -438.36396   -258.67982    82.866512 
   23800    182.16208   -110.23588   0.16482408   -110.07105    5432.3352    4.3501967    4.3501967    4.3501967    5432.3352   -2007.0215    991.34908    17312.678   -489.60302    2608.6612    1111.3966    82.324041 
   23900    247.16722   -110.29387    0.2236421   -110.07023    786.07999    4.3542863    4.3542863    4.3542863    786.07999    2209.9695   -2823.0655     2971.336    -272.6223   -1110.8684   -1266.6297    82.556439 
   24000     132.6015   -110.19134   0.11998062   -110.07136   -5203.7951    4.3596262    4.3596262    4.3596262   -5203.7951   -11103.102   -6466.4715    1958.1881   -2743.9214    1501.6302   -925.48387    82.860539 
   24100     254.7644   -110.30112   0.23051618    -110.0706   -2942.6472     4.353221     4.353221     4.353221   -2942.6472   -6828.9647    699.77613    -2698.753   -1017.4255    1309.8292   -866.79195    82.495857 
   24200    195.12469   -110.24692   0.17655292   -110.07037    5468.4096    4.3526197    4.3526197    4.3526197    5468.4096    2852.0962    2291.0378    11262.095   -569.40639   -775.11539   -168.95479    82.461677 
   24300    223.10112   -110.27254   0.20186658   -110.07067    -7888.631    4.3584319    4.3584319    4.3584319    -7888.631   -11051.378   -5700.8029   -6913.7118   -1444.5495    1460.6456    526.60366     82.79246 
   24400    131.89716    -110.1917   0.11934332   -110.07236    3548.0834    4.3548377    4.3548377    4.3548377    3548.0834   -6355.6737    1701.3206    15298.603   -2422.9346   -1488.9568    971.80668    82.587803 
   24500    275.68752   -110.32045   0.24944787     -110.071     1930.511    4.3520413    4.3520413    4.3520413     1930.511    938.23485    245.96075    4607.3373    1714.3899    1208.7239    3069.1541     82.42881 
   24600    115.18917   -110.17658   0.10422558   -110.07236   -192.77073     4.356573     4.356573     4.356573   -192.77073   -10816.335   -12.060201    10250.083   -2072.9998   -528.99617   -189.65776    82.686571 
   24700    230.61023   -110.27967   0.20866098   -110.07101   -4386.4728    4.3571926    4.3571926    4.3571926   -4386.4728   -8633.2444   -3558.4022    -967.7717   -1472.1224    240.16512    1024.4446    82.721857 
   24800    219.79554   -110.26854   0.19887562   -110.06966    5256.4628    4.3522708    4.3522708    4.3522708    5256.4628    1000.1845     1619.723    13149.481    1574.4403   -321.44209   -984.21548    82.441848 
   24900    199.88509   -110.25141   0.18086023   -110.07055   -3572.2515    4.3550692    4.3550692    4.3550692   -3572.2515   -7684.7714   -1861.0189   -1170.9641   -3192.6084   -302.61985   -763.69082    82.600977 
   25000    187.67325   -110.24052    0.1698107   -110.07071   -4041.8893     4.358143     4.358143     4.358143   -4041.8893   -8060.8495   -4624.7782    559.95988    157.47642    599.23819   -965.45676    82.776001 
   25100    233.95229   -110.28128   0.21168495    -110.0696    2513.8974    4.3532481    4.3532481    4.3532481    2513.8974      -3910.1    40.318462    11411.474   -618.16657   -1963.2777    -984.3569    82.497398 
   25200    163.13678   -110.21852   0.14760959   -110.07091    1508.7719    4.3533215    4.3533215    4.3533215    1508.7719   -4900.8868    1220.8708    8206.3318   -1541.3166    762.89671    1867.4927    82.501573 
   25300     162.8292   -110.21831   0.14733128   -110.07098   -924.05716     4.358189     4.358189     4.358189   -924.05716   -6361.1265   -4987.7376    8576.6926   -510.45828    208.75687   -98.218667    82.778621 
   25400    281.07625   -110.32459    0.2543237   -110.07027   -1374.3471    4.3539255    4.3539255    4.3539255   -1374.3471   -3311.5175     20.97927   -832.50322    268.42283    130.66452    3000.3538    82.535915 
   25500    125.01039   -110.18554   0.11311203   -110.07242    3147.9077    4.3527145    4.3527145    4.3527145    3147.9077    -1121.726     141.2744    10424.175    -245.5322    2366.9184   -392.13257    82.467066 
   25600    265.78193   -110.31163   0.24048508   -110.07115   -7569.6723    4.3585071    4.3585071    4.3585071   -7569.6723   -9245.6699   -4178.1671   -9285.1797   -2021.0636    1038.4558    1130.8189    82.796749 
   25700    183.38894   -110.23652   0.16593417   -110.07059    3689.5048    4.3537366    4.3537366    4.3537366    3689.5048   -426.88183   -386.98671    11882.383    2055.8995    1266.3012    39.746919    82.525174 
   25800    207.68844   -110.25869   0.18792086   -110.07077   -1977.3155    4.3536431    4.3536431    4.3536431   -1977.3155    -3938.802   -1493.3404   -499.80393   -1556.5524   -382.46986   -771.51138    82.519855 
   25900    141.40353   -110.19939   0.12794488   -110.07145    138.08757    4.3568523    4.3568523    4.3568523    138.08757   -2550.6377   -6354.0369    9318.9373   -1510.1236     1680.479   -148.56074    82.702475 
   26000    244.48812   -110.29205   0.22121799   -110.07084   -640.79707    4.3541601    4.3541601    4.3541601   -640.79707    -3210.915   -1136.1845    2424.7083    1815.4919   -2508.1932   -802.12331    82.549262 
   26100    158.72494   -110.21548   0.14361767   -110.07187     1443.654    4.3541838    4.3541838    4.3541838     1443.654   -4300.4222   -4061.2266    12692.611   -2708.0421    510.38216    1400.8952    82.550606 
   26200    194.75902   -110.24763   0.17622205   -110.07141   -753.27376    4.3562282    4.3562282    4.3562282   -753.27376   -375.27831   -1068.4103   -816.13263   -425.98214     568.0559   -560.78075    82.666944 
   26300    276.04605   -110.31998   0.24977227   -110.07021   -968.32883    4.3542802    4.3542802    4.3542802   -968.32883   -3121.7292   -2529.1084    2745.8511   -561.10196    39.820585    1882.4029     82.55609 
   26400    147.83862    -110.2054   0.13376749   -110.07163    2879.9533    4.3544186    4.3544186    4.3544186    2879.9533    476.58911    1010.3698    7152.9009    -2366.762     843.0537    234.79127    82.563961 
   26500    241.28656   -110.28926   0.21832115   -110.07094    -3236.087    4.3557237    4.3557237    4.3557237    -3236.087   -5155.5436    -4112.723   -439.99447   -1434.4746   -23.439795   -279.30972    82.638225 
   26600    171.06965   -110.22584   0.15478742   -110.07105    4856.2307    4.3542943    4.3542943    4.3542943    4856.2307    -2581.902    2736.3441     14414.25    -432.4589     1006.238    1248.9149    82.556892 
   26700    215.73295    -110.2666   0.19519971    -110.0714   -1841.5381    4.3546756    4.3546756    4.3546756   -1841.5381   -4651.6427    -4122.479    3249.5074   -1362.9806   -748.01648   -1337.9393    82.578581 
   26800    120.09684   -110.18037   0.10866615   -110.07171    3423.8801    4.3549986    4.3549986    4.3549986    3423.8801   -2720.7969    1899.3642    11093.073   -2385.6318    480.39643     605.8807    82.596957 
   26900    312.76588   -110.35352   0.28299714   -110.07052   -4456.4767    4.3551544    4.3551544    4.3551544   -4456.4767   -3830.5251    -5459.264    -4079.641    1854.9567   -1322.8731   -681.41809    82.605823 
   27000    93.056106   -110.15684   0.08419912   -110.07265    5614.2868    4.3537668    4.3537668    4.3537668    5614.2868   -788.92926    5492.5842    12139.206   -1904.2971    221.91891    482.11982     82.52689 
   27100    295.98849   -110.33881   0.26781661     -110.071   -7600.7259    4.3558493    4.3558493    4.3558493   -7600.7259   -11162.633   -6217.9356   -5421.6094   -1060.0927    1560.8994   -695.72968    82.645374 
   27200    143.32514   -110.20097    0.1296836   -110.07129    4948.1205    4.3554152    4.3554152    4.3554152    4948.1205    2438.0049    4365.5724    8040.7841    1634.7914   -1418.1587    224.99231    82.620663 
   27300    246.11344    -110.2933   0.22268861   -110.07061   -2787.7831    4.3535607    4.3535607    4.3535607   -2787.7831   -7539.1784   -5053.8377    4229.6667   -2624.9337    1507.6113    804.99229    82.515171 
   27400     124.8574   -110.18426    0.1129736   -110.07129    3396.4704    4.3549437    4.3549437    4.3549437    3396.4704    -2851.395     2751.244    10289.562    343.11287    2155.3391   -772.33302    82.593834 
   27500    277.99516    -110.3218   0.25153586   -110.07027   -4527.2233     4.357105     4.357105     4.357105   -4527.2233   -7006.8329   -8022.4479     1447.611   -670.88206    86.456434    1956.3374    82.716867 
   27600    144.57771   -110.20184   0.13081695   -110.07102     2449.079     4.352886     4.352886     4.352886     2449.079   -5417.6149    4233.4687    8531.3832   -1507.3322   -1393.3052    274.55229    82.476814 
   27700    233.32863   -110.28164   0.21112065   -110.07052   -4496.4191     4.355057     4.355057     4.355057   -4496.4191   -8473.7002    -5945.267    929.70993   -801.29791    1142.3692    413.92807    82.600281 
   27800    219.07989   -110.26859   0.19822809   -110.07036   -2503.7744    4.3573375    4.3573375    4.3573375   -2503.7744   -4024.1648   -1378.3871   -2108.7714   -82.341361   -512.27752    107.95462    82.730112 
   27900    174.46221    -110.2292   0.15785707   -110.07134    948.05258    4.3533403    4.3533403    4.3533403    948.05258   -5830.2642   -4791.4274    13465.849    -774.2118   -2385.9739   -236.70137    82.502642 
   28000    187.15219   -110.24113   0.16933924    -110.0718    399.41266    4.3539468    4.3539468    4.3539468    399.41266    -5749.333    2527.5039    4420.0671   -1604.3574    2971.6911    -1629.799    82.537131 
   28100    215.35465   -110.26583   0.19485742   -110.07097   -3325.4432    4.3580583    4.3580583    4.3580583   -3325.4432   -9645.2778   -6563.9393    6232.8876    2207.8081   -784.44419   -488.54096     82.77117 
   28200    158.13838   -110.21434   0.14308693   -110.07125    1489.2682    4.3535442    4.3535442    4.3535442    1489.2682   -2439.5829    3186.9098    3720.4779   -1571.0728   -611.50175   -1485.1222    82.514237 
   28300     212.0691   -110.26216   0.19188458   -110.07027    781.23997    4.3533483    4.3533483    4.3533483    781.23997   -6926.0809   -251.52837    9521.3291   -1037.0107    1853.2579   -341.74492    82.503098 
   28400    233.45027    -110.2812   0.21123071   -110.06997   -3286.0518    4.3585139    4.3585139    4.3585139   -3286.0518   -3247.5161   -1265.7088   -5344.9305    1118.5159    13.637549    983.83305    82.797133 
   28500    184.46054   -110.23842   0.16690378   -110.07151   -1093.8616    4.3544051    4.3544051    4.3544051   -1093.8616   -7812.1259   -3662.3189      8192.86   -2323.3176    386.53263    1304.3761    82.563193 
   28600    201.84183   -110.25404   0.18263073   -110.07141    1553.8038    4.3526518    4.3526518    4.3526518    1553.8038   -3096.7779     4302.417    3455.7723   -823.32112    1107.2194    1705.6102    82.463504 
   28700    221.61355   -110.27122    0.2005206    -110.0707   -3273.8414    4.3580569    4.3580569    4.3580569   -3273.8414   -8542.2616   -8049.5429    6770.2803   -684.71519   -110.04932    100.98397    82.771093 
   28800    148.15721   -110.20559   0.13405576   -110.07154    484.63648    4.3553752    4.3553752    4.3553752    484.63648   -4379.5602   -2626.2099    8459.6796   -1914.9841   -508.75559    1106.9474    82.618392 
   28900    230.52237   -110.27906   0.20858149   -110.07048    2015.8796    4.3529714    4.3529714    4.3529714    2015.8796   -1436.8834   -2776.4883    10261.011   -1297.3197    1278.1458   -2370.4564    82.481671 
   29000     186.0009   -110.23906   0.16829752   -110.07076    1144.3342    4.3562632    4.3562632    4.3562632    1144.3342   -3091.7275    2063.2375    4461.4925    347.98688    151.43274   -801.94149    82.668932 
   29100    253.56897   -110.29999   0.22943453   -110.07056   -8250.3361    4.3575457    4.3575457    4.3575457   -8250.3361   -9965.7282   -8673.0118   -6112.2683   -1546.4155   -318.22161   -239.81373    82.741968 
   29200    132.87155   -110.19128   0.12022497   -110.07105    7877.4914    4.3527782    4.3527782    4.3527782    7877.4914    4010.1066    9122.2092    10500.158   -1129.2459    1876.4754   -1038.6977    82.470685 
   29300      305.519   -110.34624   0.27644001    -110.0698   -2491.3271    4.3540319    4.3540319    4.3540319   -2491.3271   -6162.8821   -3803.7114    2492.6122    2483.6748    41.683872    1859.9465     82.54197 
   29400    68.272467   -110.13396  0.061774363   -110.07219    2816.0982    4.3587011    4.3587011    4.3587011    2816.0982   -1727.8785    2714.2111    7461.9621   -1583.1031    -839.9828    916.04584    82.807805 
   29500    270.08021   -110.31573   0.24437425   -110.07135   -1307.1207    4.3536926    4.3536926    4.3536926   -1307.1207   -4434.6697   -3799.8099    4313.1175   -677.55232    1012.0753    3115.7376    82.522673 
   29600    130.50897   -110.18972   0.11808726   -110.07163    9513.1187    4.3515755    4.3515755    4.3515755    9513.1187    171.44016    10503.203    17864.713    772.15771    4.6407781   -157.95686    82.402344 
   29700    245.27041   -110.29325   0.22192582   -110.07132   -9344.2736    4.3605601    4.3605601    4.3605601   -9344.2736   -11769.969   -12314.884   -3947.9677   -2893.0685   -283.87949    729.32214    82.913805 
   29800    157.40872   -110.21368   0.14242672   -110.07125    3615.4655    4.3536561    4.3536561    4.3536561    3615.4655    20.639648    2840.1434    7985.6134   -1168.6258    1670.4458   -1029.7434    82.520597 
   29900    307.06886   -110.34745   0.27784235    -110.0696   -654.94608    4.3519067    4.3519067    4.3519067   -654.94608   -2284.5987   -2471.7506     2791.511   -896.55528     1023.571   -1698.1593     82.42116 
   30000    132.40065   -110.19098   0.11979889   -110.07119   -1962.3159    4.3597716    4.3597716    4.3597716   -1962.3159   -5003.4986   -620.77891   -262.67028   -1622.9702   -1290.2223    373.07534    82.868832 
   30100    248.91717   -110.29553   0.22522548    -110.0703   -2784.6928    4.3546473    4.3546473    4.3546473   -2784.6928   -9014.8546   -5407.4497    6068.2258   -1129.2386    956.35309   -1928.1448    82.576971 
   30200    158.47696    -110.2135   0.14339328   -110.07011    8695.0354    4.3521208    4.3521208    4.3521208    8695.0354    3815.5007    8029.2762    14240.329    884.28826    516.13222    3196.2633    82.433324 
   30300    198.64179   -110.25073   0.17973527   -110.07099   -5127.3063    4.3578918    4.3578918    4.3578918   -5127.3063   -12606.402   -9309.8188    6534.3014   -1793.1068   -1713.4984    738.79627    82.761686 
   30400    167.33282   -110.22303   0.15140625   -110.07162    22.959057    4.3549949    4.3549949    4.3549949    22.959057    -2774.704    1515.6749    1327.9062   -1045.7615     1011.063    1887.6518    82.596749 
   30500    237.76868   -110.28637   0.21513809   -110.07123    2595.5361    4.3538702    4.3538702    4.3538702    2595.5361   -4129.2059   -1064.4323    12980.247    2330.9325     -658.593    623.31186    82.532769 
   30600     185.7273   -110.24011   0.16804996   -110.07206   -2373.2917     4.355667     4.355667     4.355667   -2373.2917   -7601.6824    1984.8414   -1503.0342   -2403.0552   -50.722144    278.85878    82.634996 
   30700      193.264   -110.24635   0.17486933   -110.07148   -3220.0981    4.3564507    4.3564507    4.3564507   -3220.0981   -10362.109   -6511.1085    7212.9234   -689.21295   -589.76975    292.83348    82.679606 
   30800    234.21238   -110.28203   0.21192028   -110.07011    533.88401    4.3546255    4.3546255    4.3546255    533.88401   -3181.9467   -1783.2581    6566.8569    583.44168   -762.76753    -2021.287     82.57573 
   30900      173.993   -110.22849   0.15743252   -110.07106   -1750.9424    4.3542203    4.3542203    4.3542203   -1750.9424   -8480.8268    -6974.333    10202.333   -1880.2767   -1058.0866    2264.0845    82.552685 
   31000    179.56385   -110.23372   0.16247314   -110.07124   -1478.8401    4.3571008    4.3571008    4.3571008   -1478.8401   -8618.7934   -935.50109    5117.7743   -1127.2066   -2143.7141    -1549.842    82.716626 
   31100     267.9493   -110.31249   0.24244615   -110.07005   -779.92072     4.354716     4.354716     4.354716   -779.92072   -5634.8453   -5234.5949     8529.678   -444.62468    240.82675    1112.1127    82.580883 
   31200     149.8242   -110.20706   0.13556408    -110.0715    111.05432    4.3532169    4.3532169    4.3532169    111.05432   -5539.0663    2438.7104    3433.5188   -870.44907   -3736.8395    1456.2396    82.495623 
   31300    243.44762   -110.29104   0.22027652   -110.07076   -7502.0255    4.3583686    4.3583686    4.3583686   -7502.0255   -11574.837   -7998.1274    -2933.112   -1069.9402    289.44344    499.27113    82.788856 
   31400    173.33512   -110.22788   0.15683726   -110.07105    4137.9077    4.3539288    4.3539288    4.3539288    4137.9077    425.42749    1579.1544    10409.141    1782.4292      507.487    1088.1103    82.536104 
   31500    216.36297    -110.2677   0.19576977   -110.07193   -2841.4067    4.3537675    4.3537675    4.3537675   -2841.4067    -7038.758   -6055.4606    4569.9984   -1856.4393   -1195.6015   -1265.7906    82.526931 
   31600     101.1372   -110.16435  0.091511068   -110.07284    3262.3468    4.3572895    4.3572895    4.3572895    3262.3468   -6009.7234    4083.8335     11712.93    -899.1591    1656.2664    1302.6869    82.727374 
   31700    294.14044   -110.33682   0.26614445   -110.07068   -2365.7569    4.3538098    4.3538098    4.3538098   -2365.7569   -4482.2835   -5782.7961    3167.8089    1868.8682   -1400.3921   -1912.0278     82.52934 
   31800    113.32313   -110.17418   0.10253715   -110.07164    3343.7166    4.3543556    4.3543556    4.3543556    3343.7166   -4214.8294    1603.2899    12642.689   -2918.2949    222.22658    516.46139    82.560378 
   31900    291.02979   -110.33382   0.26332987   -110.07049   -7018.2245    4.3575292    4.3575292    4.3575292   -7018.2245    -9296.861   -7400.5513   -4357.2612   -762.69246   -1369.5586     -371.022     82.74103 
   32000    174.34395   -110.22909   0.15775007   -110.07134    6793.7285    4.3532991    4.3532991    4.3532991    6793.7285    1839.5956    4819.3606    13722.229   -139.31892     508.7953    1114.6821    82.500299 
   32100    260.55208   -110.30736     0.235753   -110.07161    -3908.578    4.3546594    4.3546594    4.3546594    -3908.578   -10000.543    -4989.575    3264.3834   -2212.9138   -1334.5333    751.68439    82.577663 
   32200    121.95652   -110.18245   0.11034882    -110.0721    3124.4297    4.3565234    4.3565234    4.3565234    3124.4297   -1551.9497    1620.8979     9304.341   -959.40555    427.48265   -594.55367     82.68375 
   32300    281.42795   -110.32486   0.25464192   -110.07022   -721.61087    4.3543691    4.3543691    4.3543691   -721.61087   -7364.8069   -4816.0198    10015.994   -695.37914     2330.255    1013.6995    82.561146 
   32400    115.98199   -110.17636   0.10494294   -110.07142    5320.8488    4.3536694    4.3536694    4.3536694    5320.8488    1882.8235    2612.8335     11466.89   -1079.4864   -1571.2288   -175.74256    82.521354 
   32500    224.86837   -110.27436   0.20346563   -110.07089   -3519.1528    4.3566304    4.3566304    4.3566304   -3519.1528   -5653.4209   -8076.9197    3172.8823   -1279.3074    1320.0952    400.57613    82.689838 
   32600    212.42698   -110.26279   0.19220839   -110.07058    1931.9563     4.355223     4.355223     4.355223    1931.9563    -1802.319    4605.0675    2993.1203    1184.9903    -1240.053   -1253.6695    82.609728 
   32700    190.03404   -110.24313    0.1719468   -110.07119    724.48986    4.3530945    4.3530945    4.3530945    724.48986   -3066.1225   -4823.1881     10062.78   -1521.7997    -692.5494    1341.5939    82.488668 
   32800    171.78601   -110.22677    0.1554356   -110.07133   -661.71793    4.3561532    4.3561532    4.3561532   -661.71793   -3614.5181   -2978.2832    4607.6475   -821.83378   -2201.7249   -1094.2972    82.662672 
   32900    231.53662   -110.28043    0.2094992   -110.07093   -1112.4779    4.3564985    4.3564985    4.3564985   -1112.4779   -7665.9557   -7409.4413    11737.963    1721.4989    182.75357   -725.18667    82.682333 
   33000    187.65631   -110.24235   0.16979537   -110.07256    1211.4702     4.352674     4.352674     4.352674    1211.4702   -1016.2497    519.48588    4131.1744   -2898.0014   -358.08534    335.23033    82.464764 
   33100    193.09878   -110.24725   0.17471983   -110.07253   -1620.4285    4.3552994    4.3552994    4.3552994   -1620.4285   -7766.5659   -7523.3976    10428.678   -367.69534    196.22601    1166.1591    82.614076 
   33200    248.31475   -110.29571   0.22468041   -110.07103    -4209.534    4.3580899    4.3580899    4.3580899    -4209.534   -8032.6917   -779.09121   -3816.8191    513.61951    3208.3962    131.76897    82.772975 
   33300    193.71967   -110.24629   0.17528163   -110.07101   -277.55168    4.3529593    4.3529593    4.3529593   -277.55168   -4705.1977   -7300.4302    11172.973   -2123.7951   -1855.5259    -511.2139    82.480981 
   33400    164.86909   -110.22027   0.14917702   -110.07109    616.36397     4.354137     4.354137     4.354137    616.36397   -2196.3678   -437.78897    4483.2487   -20.945344    1976.2658     1835.335    82.547947 
   33500     243.6605    -110.2903   0.22046914   -110.06983   -5174.5317    4.3588415    4.3588415    4.3588415   -5174.5317   -7122.5332   -11456.578    3055.5164   -433.69202   -1601.4718   -1684.5827    82.815805 
   33600    123.72917   -110.18307   0.11195275   -110.07112      3947.05    4.3536546    4.3536546    4.3536546      3947.05   -1604.6086    2380.5389     11065.22   -372.14684   -1376.5513     1370.518     82.52051 
   33700    221.03765   -110.27054   0.19999951   -110.07054     308.2861    4.3528493    4.3528493    4.3528493     308.2861    -3589.151   -4250.2211    8764.2304   -1110.2151   -1402.3788   -753.25499    82.474726 
   33800    181.46012   -110.23489   0.16418893    -110.0707   -297.13646    4.3581387    4.3581387    4.3581387   -297.13646   -3117.8537   -1584.7518    3811.1961    330.24871   -1353.0543   -1275.2239    82.775754 
   33900    265.82926   -110.31186   0.24052791   -110.07133   -6815.3033    4.3560353    4.3560353    4.3560353   -6815.3033   -8770.9677   -9853.6359   -1821.3062   -1587.8143    357.90898    462.45814    82.655958 
   34000    108.08244   -110.17049  0.097795265   -110.07269    8315.4371    4.3516624    4.3516624    4.3516624    8315.4371    2089.5069    8346.3134    14510.491   -1401.9101   -1251.8824    -1131.568    82.407284 
   34100    340.60603   -110.37903   0.30818749   -110.07084   -7700.2828    4.3574753    4.3574753    4.3574753   -7700.2828   -9876.9521   -9750.2032    -3473.693    1534.1221    3093.7588     2077.087    82.737956 
   34200    73.896342   -110.13919  0.066862963   -110.07232    3300.2348    4.3564785    4.3564785    4.3564785    3300.2348   -6989.2769    2869.5879    14020.393   -3154.8315   -2116.7135   -737.76797    82.681189 
   34300    273.22938    -110.3177   0.24722369   -110.07047     -2985.06    4.3525709    4.3525709    4.3525709     -2985.06     -9799.73   -816.83366    1661.3835   -209.10369   -770.20737    2296.4507    82.458906 
   34400    140.12162   -110.19745   0.12678498   -110.07066    5534.6999    4.3555664    4.3555664    4.3555664    5534.6999    1761.5798    1514.1268    13328.393    440.66852    541.33447   -641.54381    82.629272 
   34500    265.85553   -110.31119   0.24055167   -110.07064    -8329.593    4.3575346    4.3575346    4.3575346    -8329.593    -13247.88    -8427.274    -3313.625   -2537.2143   -2986.8778    773.84348    82.741337 
   34600    110.75368   -110.17209   0.10021226   -110.07188      6526.42    4.3531456    4.3531456    4.3531456      6526.42    1843.4888    7923.3816    9812.3896    286.52162   -1070.2668   -59.371745    82.491572 
   34700    312.08468   -110.35277   0.28238078   -110.07039   -2819.0984    4.3545664    4.3545664    4.3545664   -2819.0984    -2653.958   -6336.4579    533.12077    -338.0075    -945.7233   -2546.6662    82.572373 
   34800    124.19185   -110.18423    0.1123714   -110.07186    532.54541    4.3567804    4.3567804    4.3567804    532.54541   -3772.7082     2258.306    3112.0384    -920.8138    1398.1122      897.191    82.698381 
   34900    209.41227   -110.26111   0.18948063   -110.07163   -1258.3861    4.3553505    4.3553505    4.3553505   -1258.3861    -4069.005   -7867.7549    8161.6016   -1585.7926   -1462.5339   -908.00037    82.616982 
   35000    212.90334   -110.26368   0.19263942   -110.07104    4925.1566    4.3529718    4.3529718    4.3529718    4925.1566    3794.0461    4326.6451    6654.7786     680.3541      1817.53    990.00033    82.481689 
   35100    178.89499   -110.23376   0.16186795   -110.07189   -1614.7403    4.3561734    4.3561734    4.3561734   -1614.7403   -7206.4864   -8166.3176    10528.583   -1672.1937     28.02351    466.00378     82.66382 
   35200      192.314   -110.24555   0.17400974   -110.07154   -2957.4929    4.3566549    4.3566549    4.3566549   -2957.4929   -5441.6471   -843.63786   -2587.1936   -1634.6574   -1456.8826    2297.5186    82.691233 
   35300    227.57409   -110.27622   0.20591382    -110.0703    2415.5289    4.3531173    4.3531173    4.3531173    2415.5289    -3513.187   -3583.0683    14342.842    1639.3916    113.17542    267.71358    82.489964 
   35400    222.27187    -110.2721   0.20111626   -110.07098   -2394.6862    4.3554759    4.3554759    4.3554759   -2394.6862   -3142.6709   -1421.4104   -2619.9773    -2309.209   -1602.1319    46.686106    82.624121 
   35500    149.31295   -110.20744    0.1351015   -110.07234   -0.1837864    4.3565226    4.3565226    4.3565226   -0.1837864   -5865.9211   -8492.7525    14358.122    51.898222   -627.25415   -168.69363    82.683703 
   35600    253.65065   -110.30078   0.22950844   -110.07127    731.03645    4.3538891    4.3538891    4.3538891    731.03645   -2563.9704    2667.2898      2089.79    1029.9093   -1237.0816   -2326.5425    82.533845 
   35700    174.11122   -110.22922   0.15753949   -110.07168    1360.8795    4.3548354    4.3548354    4.3548354    1360.8795   -2763.5587   -7989.2688    14835.466   -2116.7718    653.55503   -131.25696    82.587671 
   35800    161.12188   -110.21722   0.14578647   -110.07144   -381.64401    4.3558551    4.3558551    4.3558551   -381.64401   -2154.7506   -1917.5146    2927.3332    93.271191    -1334.604   -1141.8935      82.6457 
   35900    261.87927   -110.30673   0.23695386   -110.06978   -1419.6299    4.3551733    4.3551733    4.3551733   -1419.6299   -4006.2924   -6790.5197    6537.9223   -202.09112      1405.61    1211.8877    82.606901 
   36000    145.60525   -110.20248   0.13174669   -110.07074    2905.1977    4.3546632    4.3546632    4.3546632    2905.1977    1580.1711   -1686.3536    8821.7756    -1078.281   -594.98381   -579.38313    82.577876 
   36100    235.73985   -110.28408   0.21330237   -110.07077   -5511.2409    4.3553812    4.3553812    4.3553812   -5511.2409   -9032.3886   -7767.1529    265.81885   -1820.2291   -2657.3656    1892.3297    82.618733 
   36200     148.2698   -110.20528   0.13415763   -110.07112    3406.7797    4.3552754    4.3552754    4.3552754    3406.7797   -3508.1145    2059.1642    11669.289    331.32821    899.67998    435.92699    82.612707 
   36300    272.19722   -110.31692   0.24628976   -110.07063   -5729.0424    4.3556398    4.3556398    4.3556398   -5729.0424   -9435.5555   -9756.2588    2004.6873   -1032.4468   -1513.0356   -289.50881     82.63345 
   36400    85.837845   -110.14975  0.077667886   -110.07208    4819.2347    4.3538376    4.3538376    4.3538376    4819.2347   -2412.2702    3507.2471    13362.727   -2067.1835    -1943.631    1227.8903    82.530918 
   36500    335.61476   -110.37436   0.30367129   -110.07069   -7340.6769    4.3559014    4.3559014    4.3559014   -7340.6769   -10080.337   -7358.3402   -4583.3541    2133.7917   -82.716636    -1630.125    82.648336 
   36600    111.16298   -110.17344    0.1005826   -110.07286    3618.3386    4.3553459    4.3553459    4.3553459    3618.3386   -3212.1587    1007.1761    13059.998   -1821.7157     1307.538    1197.9335    82.616719 
   36700    277.62318   -110.32295   0.25119929   -110.07175   -6485.4496    4.3545712    4.3545712    4.3545712   -6485.4496   -9314.4441    -4016.449   -6125.4556    -260.0419   -3197.7041   -913.67674    82.572641 
   36800    139.79983   -110.19795   0.12649383   -110.07145    5188.6526    4.3547755    4.3547755    4.3547755    5188.6526   -830.38342    3297.8427    13098.499    1403.6417   -1217.9584    1779.5791    82.584268 
   36900    266.50033   -110.31164    0.2411351    -110.0705   -5834.7795    4.3563781    4.3563781    4.3563781   -5834.7795   -7148.3013   -8114.3759   -2241.6613   -2163.1029     341.4951   -564.32482    82.675475 
   37000    81.550089   -110.14577  0.073788234   -110.07198    5642.5668    4.3539596    4.3539596    4.3539596    5642.5668   -137.25603    5991.1192    11073.837   -79.907716   -3612.9987    1967.8239    82.537858 
   37100    287.47916   -110.33085   0.26011718   -110.07073   -2825.8237    4.3547472    4.3547472    4.3547472   -2825.8237   -3841.8937   -6796.1193    2160.5418   -467.17999    56.203848    718.61858    82.582654 
   37200    126.76705   -110.18671   0.11470149   -110.07201    2742.0227    4.3556695    4.3556695    4.3556695    2742.0227   -5426.9446      6055.31    7597.7027     -1038.74   -2000.6631   -690.07097     82.63514 
   37300    224.38813   -110.27488    0.2030311   -110.07185   -3545.1262     4.355498     4.355498     4.355498   -3545.1262   -6999.7347   -7598.1386    3962.4949    -1800.933    394.76853    2021.4475    82.625379 
   37400    210.18457    -110.2614   0.19017941   -110.07122    3355.4995    4.3537196    4.3537196    4.3537196    3355.4995    1829.4264    3965.4662     4271.606    1081.7457    -773.5669   -1808.2991    82.524207 
   37500    211.01039   -110.26236   0.19092664   -110.07143   -778.50043    4.3553539    4.3553539    4.3553539   -778.50043   -8390.7352   -5299.7076    11354.941   -1303.9318      399.617    1861.0753    82.617176 
   37600    199.31687   -110.25196   0.18034609   -110.07161   -2319.7611    4.3564325    4.3564325    4.3564325   -2319.7611   -5608.8927   -2472.5809    1122.1903   -1412.8641   -150.75699   -474.98464    82.678572 
   37700    209.43593   -110.26034   0.18950203   -110.07084    3172.1241    4.3538384    4.3538384    4.3538384    3172.1241   -1287.1265   -2367.2007      13170.7    2038.7284   -112.21086    778.12285    82.530961 
   37800    236.06473   -110.28409   0.21359633   -110.07049   -1561.2013    4.3545743    4.3545743    4.3545743   -1561.2013   -5860.3382   -1914.0307    3090.7649   -1664.4715    218.14343   -139.54421    82.572821 
   37900    143.47514   -110.20101   0.12981932   -110.07119   -693.28534    4.3568474    4.3568474    4.3568474   -693.28534   -1636.4939   -8087.5531     7644.191   -440.80355   -2312.2225    297.67471    82.702196 
   38000    255.76628   -110.30179   0.23142271   -110.07037   -1191.5995    4.3544149    4.3544149    4.3544149   -1191.5995     1141.634   -2231.9374   -2484.4952    527.04178    1699.7108    2226.0542    82.563751 
   38100    154.34212   -110.21111   0.13965199   -110.07146    3896.8664    4.3534076    4.3534076    4.3534076    3896.8664   -716.97715   -4545.3402    16952.916   -1516.3179   -504.56334   -1943.2329    82.506466 
   38200    182.08162   -110.23643   0.16475128   -110.07168   -3393.3272    4.3571802    4.3571802    4.3571802   -3393.3272   -1275.9867   -4738.2733   -4165.7215    -1202.074    862.10137    3844.5909    82.721148 
   38300    201.57887   -110.25346    0.1823928   -110.07107    88.578381     4.355491     4.355491     4.355491    88.578381   -4038.1551   -5378.2714    9682.1616   -614.84045    310.04696   -1238.0831    82.624981 
   38400    184.88089   -110.23832   0.16728412   -110.07104     2870.106    4.3525791    4.3525791    4.3525791     2870.106    2782.7118   -1096.4289    6924.0352   -1086.3292    395.93288      1298.24     82.45937 
   38500    214.38638   -110.26532    0.1939813   -110.07134   -4887.2989    4.3569458    4.3569458    4.3569458   -4887.2989   -8279.5362   -7547.2918    1164.9312   -1709.3403   -1780.5187    674.91034    82.707802 
   38600    200.95796   -110.25289   0.18183099   -110.07106   -1053.4886    4.3563834    4.3563834    4.3563834   -1053.4886   -5770.4012   -613.20108    3223.1364    1108.6407   -1803.5559   -915.24756    82.675775 
   38700     258.4324   -110.30421   0.23383506   -110.07037   -1264.8569    4.3530448    4.3530448    4.3530448   -1264.8569   -4637.4595   -5135.4154    5978.3043    247.26026    1244.2575    1055.9363    82.485844 
   38800    161.06751   -110.21704   0.14573727    -110.0713   -660.98475    4.3565392    4.3565392    4.3565392   -660.98475   -7928.6964    1554.2549    4391.4873   -828.18894   -1964.3241   -1437.6493    82.684645 
   38900    247.98572   -110.29478   0.22438269    -110.0704   -4197.0823    4.3563465    4.3563465    4.3563465   -4197.0823   -6483.9165   -7641.3331    1534.0027     2537.825    469.42082    1992.0629    82.673674 
   39000    152.71434   -110.20919   0.13817915   -110.07101    5017.1765    4.3538427    4.3538427    4.3538427    5017.1765    893.33348   -246.49727    14404.693   -378.25952    1243.7618   -1531.0996    82.531209 
   39100    225.43762   -110.27502    0.2039807   -110.07104   -2705.5603    4.3554478    4.3554478    4.3554478   -2705.5603   -5714.4974   -3671.3036    1269.1201   -243.25342    212.44213    2678.3206     82.62252 
   39200    142.38638       -110.2   0.12883419   -110.07117    1959.6655     4.356165     4.356165     4.356165    1959.6655   -1212.6664    1022.5995    6069.0633    673.52363    786.77086    136.41577    82.663341 
   39300    261.60427   -110.30715   0.23670504   -110.07044   -1600.6555    4.3554847    4.3554847    4.3554847   -1600.6555   -48.504012   -4328.6466   -424.81595   -1718.8345   -1094.0197   -443.60819     82.62462 
   39400    112.82414   -110.17358   0.10208565    -110.0715    6733.4016    4.3538246    4.3538246    4.3538246    6733.4016    2109.7615    7825.8495    10264.594   -1092.5412   -427.95508    919.62581     82.53018 
   39500    272.41806   -110.31686   0.24648958   -110.07037   -4835.7412    4.3567127    4.3567127    4.3567127   -4835.7412   -3327.3217   -6597.6918     -4582.21   -1098.1453   -2577.7741   -2254.6068    82.694525 
   39600    135.18047   -110.19344   0.12231413   -110.07113    4498.5785     4.356259     4.356259     4.356259    4498.5785   -3572.2652    5293.2641    11774.737   -341.62932    301.18411   -29.614256    82.668695 
   39700    257.90462    -110.3041   0.23335752   -110.07074   -2744.2825    4.3530446    4.3530446    4.3530446   -2744.2825   -5401.0011   -2498.0826   -333.76396   -1247.3656   -2423.6671   -904.03808    82.485833 
   39800     145.9537   -110.20346   0.13206197    -110.0714    1785.2317     4.356689     4.356689     4.356689    1785.2317   -4686.8135    1761.1525    8281.3561    1449.0792    336.44735    937.52984    82.693178 
   39900    277.26517   -110.32188   0.25087535     -110.071   -5314.2761    4.3570272    4.3570272    4.3570272   -5314.2761   -6857.2208   -6338.0379   -2747.5696    328.40535    1296.9806   -55.150918    82.712436 
   40000    165.21986   -110.22117    0.1494944   -110.07167     1941.823    4.3527595    4.3527595    4.3527595     1941.823    488.71359   -1569.8939    6906.6494    98.878093   -1320.8061     1950.266    82.469622 
   40100     226.0415   -110.27572    0.2045271   -110.07119    -3652.751    4.3571434    4.3571434    4.3571434    -3652.751   -2157.1153   -4226.2182   -4574.9196     1679.237    212.05298    1715.8609    82.719053 
   40200    208.71824   -110.25912   0.18885265   -110.07027   -1030.4137    4.3563591    4.3563591    4.3563591   -1030.4137   -3403.2663   -3699.0364    4011.0616   -1212.6436   -657.55148   -1311.4969    82.674393 
   40300    166.02186   -110.22099   0.15022006   -110.07077    2795.3666    4.3537882    4.3537882    4.3537882    2795.3666    6920.6482   -2650.7694    4116.2209   -694.02061   -2167.6522    2316.2869    82.528108 
   40400     197.9292   -110.24999    0.1790905    -110.0709    436.89915    4.3558071    4.3558071    4.3558071    436.89915   -1247.2922   -1898.1226    4456.1122    -795.5387   -3468.0051   -2189.7352    82.642971 
   40500    165.33674   -110.22057   0.14960016   -110.07097     2270.385    4.3556407    4.3556407    4.3556407     2270.385    2867.5348   -4818.2085    8761.8288   -1092.5548   -457.63971   -961.61111    82.633496 
   40600    223.20931   -110.27311   0.20196447   -110.07115   -2260.7794    4.3556852    4.3556852    4.3556852   -2260.7794    -2523.575   -2684.9101   -1573.8532   -1516.9877   -1142.9549   -851.52866    82.636031 
   40700    154.22983   -110.21042   0.13955039   -110.07087    2801.0422    4.3549322    4.3549322    4.3549322    2801.0422   -986.96506   -1012.0373    10402.129   -426.47623   -1541.2429   -347.54177    82.593182 
   40800    281.11928   -110.32433   0.25436264   -110.06996   -4315.5386    4.3555636    4.3555636    4.3555636   -4315.5386   -7417.0249   -2255.5544   -3274.0367    489.54892    1944.3015    327.07077     82.62911 
   40900    151.21387   -110.20835   0.13682149   -110.07152    702.62047    4.3568032    4.3568032    4.3568032    702.62047   -2379.1707   -6002.6502    10489.682   -484.74072   -228.53014    574.99946    82.699678 
   41000    259.03272   -110.30525   0.23437825   -110.07088   -4212.4426    4.3539171    4.3539171    4.3539171   -4212.4426   -6146.6776   -2278.9105   -4211.7396    2314.4359   -448.83398    2041.8459    82.535441 
   41100    159.37758   -110.21503   0.14420818   -110.07082    1726.7532    4.3558009    4.3558009    4.3558009    1726.7532   -3081.9574    -4992.106    13254.323     962.9556   -54.644224   -164.37169     82.64262 
   41200    247.60151   -110.29438   0.22403505   -110.07034   -4947.4115     4.357117     4.357117     4.357117   -4947.4115   -5824.7614   -4448.5255   -4568.9475   -339.63653    -1414.412     1085.056    82.717553 
   41300    120.46385   -110.18047   0.10899823   -110.07148    5570.1005    4.3530626    4.3530626    4.3530626    5570.1005    5236.7653   -948.47029    12422.007    2060.8508   -2931.7938   -343.53245    82.486856 
   41400    252.57065   -110.29955   0.22853123   -110.07102   -3207.1346     4.356685     4.356685     4.356685   -3207.1346   -3044.6419    -4461.898   -2114.8639    -1139.433   -1128.8686   -411.99892     82.69295 
   41500    147.94108   -110.20564    0.1338602   -110.07178    526.76745    4.3557642    4.3557642    4.3557642    526.76745    1586.6741   -1811.0695    1804.6977   -755.02618   -1359.8037   -772.96502    82.640528 
   41600     214.5027   -110.26511   0.19408655   -110.07103    -1274.802    4.3537275    4.3537275    4.3537275    -1274.802   -1611.5628   -1521.4726   -691.37063   -143.34702    -1488.798    70.087647    82.524659 
   41700    201.64249   -110.25278   0.18245036   -110.07033    221.27466    4.3563944    4.3563944    4.3563944    221.27466   -1326.6971   -2510.7218    4501.2429   -1916.0709    2518.3008   -264.06489    82.676402 
   41800    196.49285   -110.24791   0.17779086   -110.07012   -995.48852    4.3557971    4.3557971    4.3557971   -995.48852   -6671.4742    3840.6347   -155.62608   -309.23663   -1414.7908    375.16068    82.642399 
   41900     213.7372   -110.26345   0.19339391   -110.07006   -400.61952    4.3544086    4.3544086    4.3544086   -400.61952   -719.82948   -3402.8117    2920.7826   -248.10059    53.007554    2406.4217    82.563392 
   42000    189.15252   -110.24121   0.17114918   -110.07006    1555.5048    4.3553516    4.3553516    4.3553516    1555.5048   -5999.8193    2745.5061    7920.8278     209.9343    561.12303   -32.347653    82.617045 
   42100    246.62268   -110.29326   0.22314938   -110.07011   -4167.7417      4.35565      4.35565      4.35565   -4167.7417    -5984.185   -4070.8222    -2448.218   -246.13684   -1359.1466    2260.9214     82.63403 
   42200    133.08626   -110.19165   0.12041924   -110.07124    4610.1791    4.3550572    4.3550572    4.3550572    4610.1791    1905.5669    2259.9881    9664.9824    1315.2556   -1722.6419    1119.0239    82.600296 
   42300    284.15715   -110.32744   0.25711136   -110.07033   -1287.7659    4.3538612    4.3538612    4.3538612   -1287.7659    446.82369   -1607.0666   -2703.0547    794.51801   -960.58138   -385.25274    82.532259 
   42400    115.91029   -110.17666   0.10487807   -110.07178    3944.7778    4.3561922    4.3561922    4.3561922    3944.7778    3027.1322    366.84777    8440.3534   -1327.7316    398.75275    1131.7872     82.66489 
   42500    250.52255   -110.29802   0.22667807   -110.07134   -3805.3417    4.3553401    4.3553401    4.3553401   -3805.3417    1699.7445   -4727.4743   -8388.2953    1225.6608   -1787.1018    8.7916497    82.616391 
   42600    138.28983   -110.19635   0.12512755   -110.07122    6188.5987    4.3528097    4.3528097    4.3528097    6188.5987    1947.7418     1868.853    14749.201   -1017.2558    877.00347     931.5678    82.472477 
   42700    257.90953    -110.3038   0.23336196   -110.07044    -5513.392    4.3571936    4.3571936    4.3571936    -5513.392   -4498.7563   -6285.0819   -5756.3378   -1166.9379    698.68885   -1347.6237    82.721913 
   42800    131.51662   -110.19047     0.118999   -110.07147    2279.8611    4.3549714    4.3549714    4.3549714    2279.8611   -2350.8005    3042.2026    6148.1811    833.01461   -1230.7414    2453.6755    82.595411 
   42900    273.18483   -110.31773   0.24718337   -110.07055   -2586.0399    4.3536138    4.3536138    4.3536138   -2586.0399    -2724.007   -4438.8766   -595.23617    -577.2139    1077.7783   -1235.9648    82.518191 
   43000    168.48889   -110.22361   0.15245229   -110.07116   -540.10187    4.3563579    4.3563579    4.3563579   -540.10187   -5821.7874    -859.5427    5061.0245   -131.59393   -1364.5194    624.55803    82.674324 
   43100    235.08977   -110.28356   0.21271417   -110.07085   -5644.8494     4.356335     4.356335     4.356335   -5644.8494   -6641.1884   -4337.1987    -5956.161    349.81326   -831.43047    2624.8177    82.673022 
   43200     178.7119   -110.23235   0.16170228   -110.07065    3766.2011    4.3531059    4.3531059    4.3531059    3766.2011    1743.0557    609.15506    8946.3926    1123.6081   -119.51577   -1103.1796    82.489313 
   43300    225.69627   -110.27494   0.20421472   -110.07073   -1579.0904    4.3555363    4.3555363    4.3555363   -1579.0904   -4430.2959   -1087.1033    780.12806   -713.14046    457.99448    1462.6898    82.627559 
   43400    159.29569    -110.2155   0.14413409   -110.07137   -900.94886    4.3563163    4.3563163    4.3563163   -900.94886   -237.91835   -674.13476   -1790.7935    1088.8405    28.041369   -699.40468    82.671955 
   43500    194.40447   -110.24707   0.17590125   -110.07117    1941.1137    4.3538748    4.3538748    4.3538748    1941.1137   -2123.9299    -1868.474    9815.7451    1430.9558    175.86086    80.310408    82.533031 
   43600    205.81764   -110.25713   0.18622813   -110.07091    1013.4001     4.354236     4.354236     4.354236    1013.4001    38.166873   -576.92476    3578.9582   -2240.0101    1348.8583   -1144.5853    82.553579 
   43700    160.93089    -110.2169   0.14561365   -110.07129   -737.30661    4.3565949    4.3565949    4.3565949   -737.30661   -5126.9797   -1002.9219    3917.9818    1868.9722   -719.28074   -791.19062    82.687817 
   43800    252.54712   -110.29971   0.22850994    -110.0712   -2100.8336     4.354437     4.354437     4.354437   -2100.8336   -4557.9837   -223.79564   -1520.7215   -421.15546    581.28559    640.39486    82.565011 
   43900    165.50894   -110.22189   0.14975596   -110.07214    4175.5058    4.3536625    4.3536625    4.3536625    4175.5058    -2890.659    2856.8252    12560.351   -2439.1441   -1373.1792   -1226.5796    82.520958 
   44000    264.53758    -110.3112   0.23935917   -110.07184   -7222.8408    4.3570062    4.3570062    4.3570062   -7222.8408   -11408.183   -3298.4914   -6961.8481    1076.6427    676.05772    2747.5158    82.711243 
   44100     145.3277   -110.20373   0.13149555   -110.07223    2319.4971    4.3549141    4.3549141    4.3549141    2319.4971   -4048.1836      1002.16    10004.515   -1741.0275   -977.29972   -881.81134    82.592154 
   44200    264.19568   -110.30944   0.23904981   -110.07039   -1374.1618    4.3532008    4.3532008    4.3532008   -1374.1618   -4791.0058   -1063.5405     1732.061   -619.72915      216.608    1462.2952    82.494708 
   44300    149.83556   -110.20673   0.13557436   -110.07116    222.02036    4.3564716    4.3564716    4.3564716    222.02036   -3360.3314    876.53202    3149.8605   -437.76431   -58.968556    1069.7843    82.680801 
   44400    223.88797   -110.27323   0.20257854   -110.07065   -3077.6176    4.3565367    4.3565367    4.3565367   -3077.6176   -3013.7906   -3991.0907   -2227.9714    513.03976   -497.05413   -641.12357    82.684505 
   44500    173.48953   -110.22742   0.15697697   -110.07044    5096.0967    4.3522871    4.3522871    4.3522871    5096.0967    870.18148    2880.5431    11537.565   -699.53596    2149.3798    650.89338    82.442775 
   44600    215.05533   -110.26477   0.19458658   -110.07018   -3326.5733     4.356238     4.356238     4.356238   -3326.5733   -210.33229   -4505.2887    -5264.099    39.271028   -1459.8428   -1443.4075    82.667498 
   44700    164.11976   -110.21889     0.148499   -110.07039   -1168.6427    4.3569658    4.3569658    4.3569658   -1168.6427   -3998.5251   -1129.0815    1621.6787    1870.0378   -723.57751     1394.454    82.708938 
   44800    218.54878   -110.26784   0.19774753   -110.07009    2229.3526    4.3530064    4.3530064    4.3530064    2229.3526    632.97686   -1690.2392      7745.32   -2221.2945   -97.183732   -1787.2986    82.483656 
   44900    193.51106   -110.24615   0.17509288   -110.07106    840.28724    4.3548383    4.3548383    4.3548383    840.28724   -2551.7014    1607.0886    3465.4745    1342.3522    -266.1056    2577.9118    82.587838 
   45000    190.43221   -110.24374   0.17230707   -110.07143   -2936.0052    4.3575322    4.3575322    4.3575322   -2936.0052   -8814.6948   -5892.1529    5898.8322   -112.30317   -75.876888   -348.91896      82.7412 
   45100    226.11649   -110.27534   0.20459496   -110.07075    307.61378    4.3536211    4.3536211    4.3536211    307.61378   -3082.8576   -1022.8863    5028.5852   -1961.2277     30.44226    208.24459    82.518607 
   45200    211.84461   -110.26219   0.19168146   -110.07051    107.69225    4.3545005    4.3545005    4.3545005    107.69225   -3896.7727   -2822.8924    7042.7418    890.96912    2156.0797    1601.3592    82.568624 
   45300    227.78509   -110.27699   0.20610474   -110.07088   -4499.8603    4.3574078    4.3574078    4.3574078   -4499.8603   -6267.9544   -4590.6911   -2640.9355   -685.61197   -1038.5551   -1313.7531    82.734113 
   45400    181.95808   -110.23645    0.1646395   -110.07181    3557.7459    4.3538428    4.3538428    4.3538428    3557.7459   -948.84772   -1488.3178    13110.403    41.931099    259.33779    252.21629    82.531212 
   45500    249.90836   -110.29769   0.22612233   -110.07156   -881.06651    4.3541172    4.3541172    4.3541172   -881.06651    -627.3548    -1221.529   -794.31574    277.54785   -691.82105   -1228.6544    82.546818 
   45600    126.08044   -110.18591   0.11408023   -110.07183    613.59445    4.3566553    4.3566553    4.3566553    613.59445    88.947604   -4460.2459    6212.0816    2153.5179   -927.63922    1075.1026    82.691257 
   45700    228.21637   -110.27686   0.20649497   -110.07037   -1407.5694    4.3555127    4.3555127    4.3555127   -1407.5694   -3525.3102   -2708.0046    2010.6067    51.552639   -839.50569   -949.82891    82.626215 
   45800    162.32354   -110.21696   0.14687375   -110.07009     5154.652    4.3533463    4.3533463    4.3533463     5154.652    4628.4218    599.79093    10235.743    410.38363   -1047.4248    910.43392    82.502982 
   45900    197.80552   -110.24936   0.17897859   -110.07038   -2855.1106    4.3560234    4.3560234    4.3560234   -2855.1106   -5552.3505   -1909.9773    -1103.004    2528.1849    78.420904    1809.7373    82.655285 
   46000    194.21733   -110.24643   0.17573192    -110.0707   -1522.7146    4.3567302    4.3567302    4.3567302   -1522.7146   -6694.9022   -2399.8433    4526.6017   -3085.9422    -79.49599   -1000.0814    82.695521 
   46100     235.4115   -110.28319   0.21300527   -110.07019    89.136277     4.353412     4.353412     4.353412    89.136277   -2015.7932     761.6166    1521.5854    528.71103    1004.7207     2525.539    82.506717 
   46200    191.22095   -110.24375   0.17302074   -110.07073   -1754.4518    4.3555012    4.3555012    4.3555012   -1754.4518   -8126.6473   -3777.0127    6640.3044   -382.37696   -811.95957   -520.78145    82.625561 
   46300    211.86527   -110.26294   0.19170015   -110.07124    -2631.629    4.3572237    4.3572237    4.3572237    -2631.629   -8183.1008   -2588.6843    2876.8982   -3462.1722    1017.5382     699.6026    82.723629 
   46400    254.10407   -110.30123    0.2299187   -110.07131   -532.62088    4.3535342    4.3535342    4.3535342   -532.62088   -5092.2775   -1941.0088    5435.4237    1019.4338    -1368.974   -54.645429    82.513668 
   46500    155.25156   -110.21347   0.14047488   -110.07299    1077.9027    4.3551104    4.3551104    4.3551104    1077.9027   -4619.4038    1824.5227    6028.5892   -1131.5392   -366.40518    388.06337    82.603321 
   46600    224.03716   -110.27448   0.20271353   -110.07176   -3972.9522    4.3570667    4.3570667    4.3570667   -3972.9522   -6011.6784   -5334.0125    -573.1655   -435.47368    132.25927   -193.44811    82.714688 
   46700    178.99724   -110.23318   0.16196046   -110.07122     3505.114    4.3540723    4.3540723    4.3540723     3505.114   -42.368868    3584.5602    6973.1506    411.74554    86.626253    366.57323    82.544264 
   46800    199.56708   -110.25155   0.18057249   -110.07098    -414.8081    4.3547009    4.3547009    4.3547009    -414.8081   -356.08336   -2602.3832    1714.0422    1490.8961    749.71419    1122.5779    82.580021 
   46900    135.01457   -110.19383   0.12216402   -110.07166    1342.0372    4.3567314    4.3567314    4.3567314    1342.0372   -3667.6245    2760.3473    4933.3888   -179.71958    595.54871   -1207.4772    82.695593 
   47000    258.11677   -110.30436   0.23354948   -110.07081   -1710.8521    4.3551691    4.3551691    4.3551691   -1710.8521    -2557.713   -2485.9001   -88.943206   -701.35405    2954.3929    1884.6949    82.606663 
   47100    111.32769   -110.17216   0.10073163   -110.07143    6446.2548    4.3536469    4.3536469    4.3536469    6446.2548    892.44077    5021.3983    13424.925     1946.087   -394.06448   -854.95626    82.520074 
   47200    268.36917   -110.31327   0.24282606   -110.07045   -6394.0812     4.357388     4.357388     4.357388   -6394.0812   -9285.9021   -8107.6957    -1788.646   -3104.1599    1195.3815    599.55492    82.732985 
   47300    170.14001   -110.22453   0.15394625   -110.07059    2545.6231    4.3554547    4.3554547    4.3554547    2545.6231     -2203.13    1897.4638    7942.5354    428.85695    -546.9246    625.58334    82.622914 
   47400    278.87435   -110.32272   0.25233137   -110.07039   -4910.9696    4.3541014    4.3541014    4.3541014   -4910.9696   -8779.2132    -4098.218   -1855.4775   -883.45141   -2455.9438    447.64062    82.545921 
   47500    148.82194   -110.20585   0.13465722   -110.07119    42.349671    4.3567777    4.3567777    4.3567777    42.349671   -4638.7097   -270.67784    5036.4366   -1450.8036    451.75772    241.35564    82.698226 
   47600     294.1623   -110.33589   0.26616423   -110.06973   -5372.1121    4.3564802    4.3564802    4.3564802   -5372.1121   -9823.0457   -3902.9038   -2390.3869    1285.5489   -2317.3255   -1191.6491    82.681287 
   47700    125.13102   -110.18399   0.11322118   -110.07077    4696.7192    4.3536812    4.3536812    4.3536812    4696.7192    1335.9839    2511.1282    10243.046    -74.03088    1182.8145    1358.3109    82.522023 
   47800    213.12152   -110.26364   0.19283683    -110.0708    -3444.412    4.3561313    4.3561313    4.3561313    -3444.412   -4839.9864   -7848.9855    2355.7357    1376.0763   -51.525809   -2087.7631    82.661424 
   47900    183.68945   -110.23734   0.16620608   -110.07113    1522.5543    4.3560962    4.3560962    4.3560962    1522.5543   -2580.6687    1973.2801    5175.0514     718.8629    2902.5882     771.8208    82.659427 
   48000    183.33512   -110.23742   0.16588547   -110.07153    2298.7599    4.3543841    4.3543841    4.3543841    2298.7599    5872.5166   -4601.3051    5625.0683    1896.6336    338.76819   -113.91426    82.561998 
   48100    180.10742   -110.23465   0.16296498   -110.07168    749.42433    4.3550682    4.3550682    4.3550682    749.42433   -2782.8923   -1225.5458    6256.7111   -1534.3518    559.27267   -518.57372    82.600917 
   48200    244.88813   -110.29204   0.22157993   -110.07046   -2132.9529    4.3572102    4.3572102    4.3572102   -2132.9529    939.04865   -5816.2163   -1521.6911   -928.67028    191.58592    1142.6186     82.72286 
   48300    191.03694   -110.24326   0.17285424   -110.07041    1194.9462     4.354587     4.354587     4.354587    1194.9462   -675.57068   -842.57396    5102.9832    819.95919   -3074.0008   -1426.7472    82.573544 
   48400    214.60746   -110.26466   0.19418134   -110.07048   -1962.7031    4.3548846    4.3548846    4.3548846   -1962.7031   -6932.4674   -6004.0005    7048.3587   -4213.7803    620.83413    351.95444    82.590473 
   48500    205.95033   -110.25656   0.18634818   -110.07021    324.19543    4.3573409    4.3573409    4.3573409    324.19543   -4760.8953    2896.8758    2836.6058   -61.306992   -2438.9897   -3380.9749    82.730301 
   48600    197.30207   -110.24888   0.17852306   -110.07036    1500.2513    4.3547943    4.3547943    4.3547943    1500.2513   -7504.1969    -1843.501    13848.452   -521.63836    145.52716   -185.41338    82.585334 
   48700    186.14547   -110.23897   0.16842833   -110.07054   -67.597271    4.3548414    4.3548414    4.3548414   -67.597271   -5655.7759    3775.2138    1677.7702   -2276.3367    384.57627   -1719.5198    82.588014 
   48800     204.3649   -110.25479   0.18491366   -110.06988   -1049.8017    4.3573395    4.3573395    4.3573395   -1049.8017   -6853.6513   -3157.5256    6861.7717    1184.2043    836.55081   -754.24309    82.730221 
   48900    239.11513   -110.28687   0.21635639   -110.07051   -2624.0172    4.3550701    4.3550701    4.3550701   -2624.0172   -5753.8699    2884.3314   -5002.5131   -486.89893    583.25316    1445.8572    82.601026 
   49000    147.83807   -110.20582   0.13376699   -110.07205    2285.2236    4.3544383    4.3544383    4.3544383    2285.2236   -1442.3883   -1641.4985    9939.5575   -239.73218   -2653.8179    284.89717    82.565085 
   49100    260.03149   -110.30638   0.23528196    -110.0711   -3774.8403    4.3575609    4.3575609    4.3575609   -3774.8403   -5958.4453   -188.29142   -5177.7843   -109.98716    1660.4467    2595.3337    82.742836 
   49200    157.26994   -110.21321   0.14230115   -110.07091     2069.191    4.3549117    4.3549117    4.3549117     2069.191   -2166.0845   -1973.7306    10347.388    403.15352   -5118.9201   -847.65846    82.592013 
   49300    173.77341   -110.22787   0.15723383   -110.07063     349.2749    4.3550402    4.3550402    4.3550402     349.2749   -3743.0586    494.98292    4295.9004   -2231.5513   -1343.4853    806.67142    82.599326 
   49400    215.80256   -110.26557   0.19526269    -110.0703   -573.76715    4.3559822    4.3559822    4.3559822   -573.76715   -6111.4784   -6469.3995    10859.576   -941.98327   -2430.1381     -2334.05    82.652939 
   49500    154.00955   -110.21084   0.13935108   -110.07149    2047.2729    4.3561362    4.3561362    4.3561362    2047.2729   -4598.6094    6683.3338    4057.0944    456.84988   -1513.0458   -2012.2751    82.661701 
   49600    237.98853   -110.28685   0.21533702   -110.07151   -3337.0919     4.355219     4.355219     4.355219   -3337.0919   -7500.7902   -5822.7163    3312.2309   -4689.1049    813.85199   -1375.6836    82.609501 
   49700    167.35075   -110.22268   0.15142247   -110.07126    2346.3862    4.3547413    4.3547413    4.3547413    2346.3862   -3634.5402    7934.0789      2739.62    1164.3368   -600.23309   -1661.9015    82.582322 
   49800    284.65011   -110.32774    0.2575574   -110.07018   -7931.0189    4.3580435    4.3580435    4.3580435   -7931.0189   -12515.377   -5571.9513   -5705.7281    -1070.972    2633.3266    2913.6575    82.770329 
   49900    116.21871   -110.17654   0.10515713   -110.07138    3539.4099    4.3547417    4.3547417    4.3547417    3539.4099   -4764.2882    3378.3197    12004.198   -1329.9435   -776.39066   -186.92334    82.582342 
   50000    275.93519   -110.31973   0.24967196   -110.07006   -2470.2889    4.3542367    4.3542367    4.3542367   -2470.2889   -5428.9201   -3604.3618    1622.4152    1344.3581     1830.882    2760.3637    82.553619 
   50100    139.24479   -110.19677   0.12599161   -110.07078    1719.5206    4.3575063    4.3575063    4.3575063    1719.5206   -7766.5361    2962.1263    9962.9715   -644.70034   -178.09674    483.22573    82.739726 
   50200    232.07595   -110.28058    0.2099872    -110.0706   -4190.3179     4.355461     4.355461     4.355461   -4190.3179   -2649.5076   -10043.727    122.28055    -172.3262   -1282.2097   -254.62078    82.623274 
   50300    136.15863   -110.19378   0.12319919   -110.07058     6283.582    4.3533047    4.3533047    4.3533047     6283.582   -1687.4018    7041.5043    13496.644   -1305.5228    878.32973   -346.01128    82.500616 
   50400    303.00026   -110.34449     0.274161   -110.07033   -7696.3736    4.3578431    4.3578431    4.3578431   -7696.3736   -5606.3677   -9318.1058   -8164.6472    297.00618   -2264.7574   -2605.7314    82.758909 
   50500    79.944318   -110.14493  0.072335299   -110.07259     4489.321    4.3549421    4.3549421    4.3549421     4489.321   -152.58209    5327.5183    8293.0267   -4349.1604    1661.1506    1281.6163    82.593744 
   50600    312.90599   -110.35398   0.28312391   -110.07085    -3636.128    4.3538876    4.3538876    4.3538876    -3636.128   -5688.8522   -479.16303   -4740.3688   -760.10782   -633.36576   -1737.6272    82.533762 
   50700    123.53056   -110.18325   0.11177304   -110.07147    4972.3412    4.3562465    4.3562465    4.3562465    4972.3412    1631.3801    5855.6753    7429.9681    79.991786    1556.1573    2372.1885    82.667983 
   50800    235.82245   -110.28437   0.21337711   -110.07099    -5154.341    4.3562749    4.3562749    4.3562749    -5154.341   -10989.983   -4560.4814    87.441428   -4739.3094    715.41481    814.63964      82.6696 
   50900    153.30097   -110.20992   0.13870994   -110.07121    6198.3887    4.3531484    4.3531484    4.3531484    6198.3887   -1088.3328    6656.4792     13027.02    1938.5461    1061.7782    1019.6698    82.491733 
   51000    258.95394   -110.30487   0.23430697   -110.07057   -1717.2965    4.3560139    4.3560139    4.3560139   -1717.2965   -2425.4159   -3798.0264    1071.5528   -1019.1234    639.96833    1831.8171    82.654742 
   51100    161.09059   -110.21717   0.14575815   -110.07141   -996.89865    4.3561646    4.3561646    4.3561646   -996.89865   -9901.9859    4141.8439     2769.446   -2159.0672   -1631.5104   -1628.4423    82.663322 
   51200    218.47262   -110.26876   0.19767862   -110.07108    965.53474    4.3538307    4.3538307    4.3538307    965.53474    1061.9134   -2271.3592    4106.0501   -54.341458    2082.2777    509.85333    82.530526 
   51300    242.93358   -110.29023    0.2198114   -110.07042   -556.40607    4.3555909    4.3555909    4.3555909   -556.40607   -5048.0051    3948.7373   -569.95042    20.118398   -1227.7994   -1776.4885    82.630664 
   51400      147.898   -110.20566   0.13382122   -110.07184   -823.43853    4.3553366    4.3553366    4.3553366   -823.43853   -6801.6175   -2462.5523    6793.8542   -2418.5691    1173.1721    -561.9719    82.616195 
   51500    220.27616   -110.27094    0.1993105   -110.07163   -1918.5352    4.3551372    4.3551372    4.3551372   -1918.5352   -3551.4156    -302.7699   -1901.4201   -2174.8133    379.23643   -469.21311    82.604847 
   51600    174.97292   -110.22984   0.15831917   -110.07152     3616.912    4.3544345    4.3544345    4.3544345     3616.912   -3725.5999    2204.6213    12371.715    1496.8178    1819.2558   -1152.1999     82.56487 
   51700    210.30736   -110.26211   0.19029052   -110.07182   -3652.4289    4.3549812    4.3549812    4.3549812   -3652.4289   -7440.4182   -4701.2922    1184.4237   -4782.9978    461.78333    1116.3123    82.595971 
   51800    149.72487   -110.20716   0.13547421   -110.07169    489.56865    4.3562656    4.3562656    4.3562656    489.56865   -5865.3734   -2977.3438    10311.423    318.12751    49.439695   -2091.0938    82.669069 
   51900     289.9509   -110.33255   0.26235367    -110.0702   -4380.9586    4.3546683    4.3546683    4.3546683   -4380.9586   -7122.9446   -3416.8085   -2603.1228    565.88457    2111.6805    1586.8344    82.578167 
   52000    132.60922   -110.19174   0.11998761   -110.07175     1715.836    4.3539141    4.3539141    4.3539141     1715.836   -5166.7045    247.02915    10067.183   -5245.4185    -1812.032   -743.55868    82.535271 
   52100    264.96055   -110.31054   0.23974188    -110.0708   -6382.3361    4.3576039    4.3576039    4.3576039   -6382.3361    -8846.141   -5407.8954   -4892.9719    2054.0513    2225.0517    365.77403    82.745283 
   52200     151.3698   -110.20796   0.13696257   -110.07099    5003.9996     4.353438     4.353438     4.353438    5003.9996   -3126.4136    4474.5612    13663.851   -2274.3031   -684.98537    543.94628    82.508199 
   52300    235.96188   -110.28422   0.21350327   -110.07071   -3342.4626    4.3545823    4.3545823    4.3545823   -3342.4626   -7667.9008   -7061.2474    4701.7603   -2519.6724    566.89156   -636.15648    82.573273 
   52400    123.06308    -110.1826   0.11135006   -110.07125    2323.3048    4.3569852    4.3569852    4.3569852    2323.3048   -4304.0535    1032.5601    10241.408    -889.5293    1093.3405    118.98043    82.710044 
   52500    266.72119   -110.31155   0.24133494   -110.07021   -1760.9076    4.3535625    4.3535625    4.3535625   -1760.9076   -6091.5261    -2739.261    3548.0643   -588.49621    72.164128   -1529.9347    82.515275 
   52600    167.51893   -110.22265   0.15157465   -110.07107    2218.4738      4.35556      4.35556      4.35556    2218.4738   -1130.9196    753.55126    7032.7899   -1486.0909     260.0691   -358.66617    82.628909 
   52700    221.88185     -110.272   0.20076336   -110.07124   -1842.2927    4.3555996    4.3555996    4.3555996   -1842.2927   -4702.4599   -1716.2973    891.87914   -1173.2201   -30.557326   -1068.3317    82.631158 
   52800    215.90366   -110.26642   0.19535417   -110.07107     314.7073    4.3541153    4.3541153    4.3541153     314.7073   -4598.1533    549.87783    4992.3973    2232.7374     1323.706    264.30936     82.54671 
   52900     189.5111    -110.2427   0.17147363   -110.07123   -53.568631    4.3569601    4.3569601    4.3569601   -53.568631   -2664.2748   -5021.3397    7524.9086   -2890.2915   -2092.7265    1965.9773    82.708617 
   53000    187.56589    -110.2407   0.16971356   -110.07098    1382.5132    4.3541492    4.3541492    4.3541492    1382.5132   -6261.7706     5694.755    4714.5553     266.4518    2785.7469    41.953616    82.548637 
   53100    199.74858   -110.25131   0.18073671   -110.07058    2215.7699    4.3543844    4.3543844    4.3543844    2215.7699   -3697.4101   -1034.0586    11378.778    993.52542    2106.5652     1998.462    82.562018 
   53200    198.34378   -110.25005   0.17946562   -110.07058   -410.85041    4.3577618    4.3577618    4.3577618   -410.85041   -4586.5553    1809.0855    1544.9186   -3347.2794    155.31186    910.40086     82.75428 
   53300    209.05175   -110.25932   0.18915442   -110.07017    1.6559977    4.3535605    4.3535605    4.3535605    1.6559977   -6500.6102   -244.53671    6750.1149    1065.1236     2537.496   -1068.8692     82.51516 
   53400    227.18465   -110.27551   0.20556145   -110.06995   -859.82773    4.3556647    4.3556647    4.3556647   -859.82773   -2466.6614    745.80523     -858.627   -1592.9349    378.67903   -951.25041    82.634867 
   53500    185.87621   -110.23884    0.1681847   -110.07065   -249.97116    4.3569922    4.3569922    4.3569922   -249.97116   -3946.8931   -5955.0533    9152.0329   -1861.5626    262.57561   -1694.8764    82.710442 
   53600    210.84726   -110.26157   0.19077903   -110.07079    440.47039    4.3534062    4.3534062    4.3534062    440.47039   -1136.1485   -81.497941    2539.0576   -607.10408   -1933.9342   -859.08897    82.506389 
   53700    159.19937   -110.21531   0.14404694   -110.07126     3009.013    4.3563269    4.3563269    4.3563269     3009.013    278.75817    -5470.655    14218.936   -672.98546   -32.033318   -366.67553    82.672558 
   53800    212.50477   -110.26377   0.19227878    -110.0715   -2381.3094    4.3553715    4.3553715    4.3553715   -2381.3094   -5001.5457   -4865.9233    2723.5407   -1145.7641   -2083.2539     1610.059    82.618181 
   53900    167.72178   -110.22319   0.15175819   -110.07143    683.41859    4.3552796    4.3552796    4.3552796    683.41859   -445.08686   -8185.5729    10680.916   -1509.7098    165.51949    1811.8429     82.61295 
   54000    234.33753   -110.28233   0.21203352    -110.0703   -1588.5983    4.3565083    4.3565083    4.3565083   -1588.5983   -3984.4077    1687.7778    -2469.165      1777.41    1095.1193    613.49502    82.682889 
   54100    206.61509   -110.25714   0.18694968   -110.07019    -908.2405    4.3539952    4.3539952    4.3539952    -908.2405   -5048.9333   -5821.8709    8146.0827   -3021.3462     101.5733    2414.3033     82.53988 
   54200    193.20741   -110.24547   0.17481812   -110.07066   -2295.3752     4.356985     4.356985     4.356985   -2295.3752   -5251.7409   -1142.5254   -491.85947   -1051.0274    2741.8135   -518.17738    82.710036 
   54300    238.55556   -110.28638   0.21585008   -110.07053   -3570.8761    4.3560691    4.3560691    4.3560691   -3570.8761    -9749.479   -5587.7655    4624.6161    626.31992    302.21711   -1563.8769    82.657885 
   54400    142.83558   -110.20042   0.12924064   -110.07118    2261.7078    4.3534054    4.3534054    4.3534054    2261.7078   -5931.0233    433.23609    12282.911   -5535.4723      943.916   -51.750612    82.506343 
   54500    250.64444   -110.29722   0.22678835   -110.07043   -6103.7198    4.3586839    4.3586839    4.3586839   -6103.7198   -9089.5864   -10514.286    1292.7127    326.97625   -1906.7744   -1980.1456    82.806822 
   54600    136.45079   -110.19461   0.12346355   -110.07115    4553.6221    4.3545316    4.3545316    4.3545316    4553.6221   -1221.1971     6064.734    8817.3293   -1860.8689    19.602383    570.48666    82.570391 
   54700    266.74289   -110.31183   0.24135457   -110.07047    -2931.761    4.3536736    4.3536736    4.3536736    -2931.761   -2503.7115   -8540.4709    2248.8995   -2386.4007   -1780.4489    445.80975    82.521592 
   54800     131.3298   -110.19015   0.11882996   -110.07132    1495.9178    4.3580892    4.3580892    4.3580892    1495.9178   -429.73439    2446.1785    2471.3093    980.61742    407.80205    1021.4564    82.772936 
   54900     269.9415   -110.31425   0.24424874      -110.07   -4140.5987    4.3549708    4.3549708    4.3549708   -4140.5987   -2466.8925   -6203.3238   -3751.5797   -901.42956    3034.9379    360.27775    82.595375 
   55000    105.92699   -110.16677   0.09584497   -110.07092     7849.733    4.3539255    4.3539255    4.3539255     7849.733    1296.9145    5047.8568    17204.428   -764.88278    154.50373    710.31389    82.535918 
   55100    268.50863   -110.31296   0.24295225      -110.07   -4420.5803    4.3570984    4.3570984    4.3570984   -4420.5803   -2946.2745    -4998.574   -5316.8925    373.38406    3080.9325    546.56886    82.716492 
   55200    106.06384   -110.16712   0.09596879   -110.07115    4978.3657    4.3549589    4.3549589    4.3549589    4978.3657   -2717.6045    1982.6643    15670.037    982.15876    1581.4798   -1205.2528    82.594699 
   55300    277.44927   -110.32213   0.25104193   -110.07109   -3629.4231    4.3549258    4.3549258    4.3549258   -3629.4231   -6262.3337   -3374.9599   -1250.9757   -2657.6246     946.8364    814.26149    82.592817 
   55400    138.86479   -110.19725   0.12564778   -110.07161    4064.5854    4.3551201    4.3551201    4.3551201    4064.5854   -2799.4004    1935.7678    13057.389    448.76967   -1918.9288    84.475143    82.603872 
   55500    297.16984   -110.33914   0.26888552   -110.07026   -7021.7134    4.3565858    4.3565858    4.3565858   -7021.7134   -8102.5306   -8326.3459   -4636.2636    689.30749    167.43984   -411.45701    82.687303 
   55600    155.66115   -110.21164   0.14084548    -110.0708    3083.0148    4.3557571    4.3557571    4.3557571    3083.0148   -211.06787    3912.8203     5547.292   -3409.1152   -567.17131    774.71913    82.640122 
   55700    264.48622   -110.30955   0.23931269   -110.07023   -2682.6758    4.3535806    4.3535806    4.3535806   -2682.6758   -1886.3405   -7790.9908     1629.304    1923.2905   -2148.8316   -408.98121    82.516305 
   55800    159.36007   -110.21522   0.14419234   -110.07103    587.94634    4.3564622    4.3564622    4.3564622    587.94634   -1220.9342   -436.48202    3421.2553   -101.03224    2037.7151   -114.62283    82.680261 
   55900    188.56247   -110.24162   0.17061528   -110.07101   -375.16976    4.3567231    4.3567231    4.3567231   -375.16976    239.32495   -8188.6634    6823.8292   -1031.7304    245.62717   -231.64454    82.695119 
   56000    183.26774   -110.23673    0.1658245   -110.07091    3337.1227     4.352036     4.352036     4.352036    3337.1227    511.73681    1694.6892    7804.9421    1337.7331    3240.0599    123.75993     82.42851 
   56100     163.1555   -110.21871   0.14762652   -110.07109    307.75771    4.3570738    4.3570738    4.3570738    307.75771    4324.5437   -9008.6886     5607.418    32.613035    1259.4974   -984.82226    82.715088 
   56200    234.59987   -110.28333    0.2122709   -110.07106   -4131.7061     4.356536     4.356536     4.356536   -4131.7061   -5619.0945   -4031.5073   -2744.5163   -1409.6192    746.29059    461.75531    82.684466 
   56300    166.86777   -110.22268   0.15098547   -110.07169    3764.2018    4.3521721    4.3521721    4.3521721    3764.2018    2481.4432   -5324.7045    14135.867   -960.14733    146.27346    576.30908    82.436243 
   56400    259.08966   -110.30519   0.23442977   -110.07076   -4385.8859    4.3570513    4.3570513    4.3570513   -4385.8859   -4678.3627   -4827.9505   -3651.3446    938.17799   -1398.7181   -1595.9715    82.713809 
   56500    172.00316   -110.22657   0.15563207   -110.07094   -179.85206    4.3562679    4.3562679    4.3562679   -179.85206   -6669.5419   -6861.6304    12991.616   -4095.0915   -205.95416    247.89162    82.669204 
   56600    240.03909    -110.2875   0.21719242   -110.07031   -510.35281    4.3533025    4.3533025    4.3533025   -510.35281   -1540.6754   -2642.3932    2652.0101   -20.089565   -2226.4595   -1408.1592    82.500489 
   56700    162.81473   -110.21811   0.14731819   -110.07079    2357.6436     4.356076     4.356076     4.356076    2357.6436   -4362.3474   -3830.2903    15265.569    1436.2704    1970.2509   -1068.2715    82.658274 
   56800    234.89098   -110.28337   0.21253429   -110.07083    -3770.872    4.3556121    4.3556121    4.3556121    -3770.872    -8032.697   -3540.6433    260.72428   -4204.3795    -444.0863    187.37815     82.63187 
   56900    169.03981   -110.22451   0.15295077   -110.07156    2099.3588    4.3547447    4.3547447    4.3547447    2099.3588   -312.49827   -3687.5373    10298.112    1640.6295    871.63459   -419.51981    82.582513 
   57000    215.43497   -110.26617   0.19493009   -110.07124   -675.24705     4.354808     4.354808     4.354808   -675.24705   -4674.1315    2890.8116   -242.42128    556.42338    950.53528    934.61514    82.586114 
   57100    183.23946   -110.23679   0.16579892   -110.07099   -712.93917    4.3554767    4.3554767    4.3554767   -712.93917   -1215.5399   -6011.1785    5087.9009   -1281.3958    -716.7566   -190.71715    82.624165 
   57200    190.77276   -110.24347    0.1726152   -110.07085   -289.41541    4.3568193    4.3568193    4.3568193   -289.41541   -4389.8713       911.97    2609.6551    849.84378    495.57728     1509.375    82.700595 
   57300    194.62451   -110.24648   0.17610035   -110.07038    1362.4788    4.3527853    4.3527853    4.3527853    1362.4788   -2614.8266    -2351.973    9054.2361    302.94866   -1439.4695   -1204.3085     82.47109 
   57400    182.68741   -110.23565   0.16529941   -110.07035    -1050.868    4.3557059    4.3557059    4.3557059    -1050.868   -7456.2431   -1184.9459    5488.5849   -1012.7744    1598.6548   -803.19821    82.637207 
   57500    239.11295   -110.28641   0.21635442   -110.07005    -4710.394    4.3579086    4.3579086    4.3579086    -4710.394   -6215.2397   -5263.1015   -2652.8406   -779.79147   -1772.4452    692.17596    82.762646 
   57600    160.70875   -110.21592   0.14541265   -110.07051    3791.4732    4.3516591    4.3516591    4.3516591    3791.4732   -4092.1389    3177.6421    12288.916    1952.0676     1090.434    -2450.967    82.407094 
   57700    282.04817   -110.32532   0.25520311   -110.07012   -5718.0198       4.3567       4.3567       4.3567   -5718.0198    -8215.218   -4754.8602   -4183.9813   -2502.6877    401.89414    489.60668    82.693802 
   57800    127.65726   -110.18736   0.11550698   -110.07185    2336.9824     4.356662     4.356662     4.356662    2336.9824   -5695.1558    1604.2907    11101.812    1037.6225   -16.708718    752.86303     82.69164 
   57900     265.6488   -110.31182   0.24036461   -110.07146   -2696.8623    4.3517268    4.3517268    4.3517268   -2696.8623   -4823.3261   -3276.1295    8.8688096    2251.3717    1195.4873    920.78212    82.410939 
   58000    125.92025   -110.18582   0.11393529   -110.07189    4057.0692    4.3569705    4.3569705    4.3569705    4057.0692   -5159.9404    1527.2441    15803.904   -2518.3482   -246.13087    182.94064    82.709209 
   58100    241.97653   -110.28997   0.21894545   -110.07102   -3018.7024    4.3551568    4.3551568    4.3551568   -3018.7024   -140.42069   -8760.7311   -154.95546    2974.4565    753.03992     861.7993    82.605962 
   58200    132.63508   -110.19145     0.120011   -110.07144    4872.0434    4.3531729    4.3531729    4.3531729    4872.0434   -1411.2915   -368.18843     16395.61    525.94998   -836.67474    332.47349    82.493126 
   58300     262.4996   -110.30801   0.23751515   -110.07049   -3998.0388    4.3571036    4.3571036    4.3571036   -3998.0388   -1750.4291   -8282.9786   -1960.7087    -1290.167    1152.7668   -1633.1428     82.71679 
   58400    164.68189   -110.21988   0.14900763   -110.07087    1125.4871     4.354128     4.354128     4.354128    1125.4871   -1161.6195   -2502.3014    7040.3821    753.27459   -592.08889    2058.1645    82.547432 
   58500    234.53085   -110.28287   0.21220845   -110.07067    -2240.374    4.3554861    4.3554861    4.3554861    -2240.374   -2466.5411   -6576.3723    2321.7914   -84.312865    735.44471   -509.52649    82.624701 
   58600    188.19649   -110.24084   0.17028414   -110.07055    2235.3036    4.3554108    4.3554108    4.3554108    2235.3036   -1476.0855   -950.12974    9132.1262   -533.87896    217.87795    1086.2101    82.620413 
   58700      203.104    -110.2544   0.18377276   -110.07063    -653.2014    4.3543732    4.3543732    4.3543732    -653.2014   -3865.0415   -4907.5063    6812.9436   -1014.2014   -685.64987    3077.8833    82.561382 
   58800    210.31046   -110.26148   0.19029333   -110.07119   -2627.7383    4.3566265    4.3566265    4.3566265   -2627.7383    -3900.228   -4879.0639    896.07713    1537.8144     277.2671    597.19787    82.689617 
   58900    172.82056   -110.22809   0.15637167   -110.07172    2312.1732    4.3538225    4.3538225    4.3538225    2312.1732   -3165.6149    948.32462      9153.81   -1608.1494   -701.23005     1779.083    82.530057 
   59000    259.70987   -110.30603   0.23499095   -110.07104   -4436.0791     4.355526     4.355526     4.355526   -4436.0791   -4866.3909   -4125.3479   -4316.4985    877.55789     472.0891    1080.2117    82.626968 
   59100    132.82113   -110.19204   0.12017935   -110.07186    2299.4514    4.3565524    4.3565524    4.3565524    2299.4514     1797.439   -2853.5443    7954.4596    1618.1128    670.41334    169.51741      82.6854 
   59200    273.50972    -110.3179   0.24747735   -110.07042   -2550.4313    4.3533484    4.3533484    4.3533484   -2550.4313   -4555.7285   -1703.8296   -1391.7357   -2254.0679    2453.0209   -892.36806    82.503101 
   59300    124.82505   -110.18518   0.11294433   -110.07223    4127.8057    4.3553881    4.3553881    4.3553881    4127.8057    2067.3778    -4247.948    14563.987    1508.1147    912.19695    1096.3969    82.619121 
   59400     229.0106   -110.27954   0.20721361   -110.07233   -2223.5719    4.3559029    4.3559029    4.3559029   -2223.5719   -2201.6237   -3420.7858   -1048.3062    135.36009    2248.3267   -147.90557    82.648423 
   59500     162.6763   -110.21889   0.14719293   -110.07169    5440.5512    4.3534933    4.3534933    4.3534933    5440.5512   -1549.1728    -1384.961    19255.787   -1262.6939    915.88743   -137.51049    82.511343 
   59600    231.76335   -110.28041   0.20970435    -110.0707   -1733.0515    4.3561899    4.3561899    4.3561899   -1733.0515   -3079.0573   -2416.8349    296.73763    40.481682   -1613.1754    2651.1135     82.66476 
   59700    181.56324   -110.23491   0.16428224   -110.07063   -530.51401    4.3555809    4.3555809    4.3555809   -530.51401   -3491.6248   -3076.8509    4976.9337    484.45717    822.21576    1080.1567    82.630093 
   59800    236.64615   -110.28414   0.21412241   -110.07002   -620.70697    4.3539785    4.3539785    4.3539785   -620.70697   -7798.7069   -2019.1719    7955.7579   -375.75196   -2261.2507    630.20934     82.53893 
   59900    207.40569   -110.25804   0.18766503   -110.07038   -1580.1271    4.3564366    4.3564366    4.3564366   -1580.1271    -5571.176   -2768.1255    3598.9202   -473.50201     642.3539    1130.0639    82.678803 
   60000    172.12988   -110.22679   0.15574673   -110.07104    197.02244    4.3555345    4.3555345    4.3555345    197.02244   -6607.1423    -2589.137    9787.3467     2666.676   -832.98554    1033.3082    82.627456 
   60100    232.93238    -110.2813   0.21076211   -110.07054    553.93361    4.3539469    4.3539469    4.3539469    553.93361   -3495.0487   -3583.9852    8740.8348   -1238.3566    2660.3657   -1299.0673    82.537134 
   60200     155.6683   -110.21186   0.14085195     -110.071    1319.2991    4.3563039    4.3563039    4.3563039    1319.2991   -3061.1078   -706.38135    7725.3864    654.17118    553.42222    995.20271    82.671252 
   60300    232.70658   -110.28165    0.2105578   -110.07109   -5079.9228    4.3561007    4.3561007    4.3561007   -5079.9228   -3771.9235   -9225.2589    -2242.586    2051.3659    771.14385    -550.9258    82.659684 
   60400      158.215   -110.21487   0.14315626   -110.07171    4558.6738    4.3532766    4.3532766    4.3532766    4558.6738    1826.7287     1357.748    10491.545   -1928.2694    1174.3766   -685.49097     82.49902 
   60500    257.40511   -110.30381   0.23290556    -110.0709   -4882.6991    4.3565523    4.3565523    4.3565523   -4882.6991   -2378.3958   -6482.8116   -5786.8897    1501.2272   -2223.6989    863.73092    82.685392 
   60600    113.77914   -110.17415   0.10294976    -110.0712     1503.804    4.3565734    4.3565734    4.3565734     1503.804   -406.61441   -4380.2444    9298.2709    402.84365   -54.114554   -215.06017    82.686595 
   60700    265.13314   -110.30959   0.23989804   -110.06969   -1481.1341    4.3538655    4.3538655    4.3538655   -1481.1341   -1988.0962   -3432.6761    977.36986   -802.30091   -2999.9544   -240.65993    82.532506 
   60800    116.75177   -110.17664   0.10563945     -110.071    3933.0498    4.3552579    4.3552579    4.3552579    3933.0498   -2530.4162   -3380.3575    17709.923    873.42897   -149.53274    106.35207    82.611716 
   60900    245.48609   -110.29309   0.22212098   -110.07097   -6691.1922    4.3570375    4.3570375    4.3570375   -6691.1922   -9131.1216   -10609.257   -333.19765    1004.5992   -790.61647    1671.0744    82.713021 
   61000    191.00386   -110.24389    0.1728243   -110.07106    3131.7172    4.3549699    4.3549699    4.3549699    3131.7172   -495.06201   -469.91429    10360.128   -90.267732    1119.0757   -822.77876    82.595328 
   61100    255.73393   -110.30229   0.23139344    -110.0709   -2689.4236    4.3541663    4.3541663    4.3541663   -2689.4236   -4865.7564   -6548.9956    3346.4812   -4.7755672    2017.4935    1525.5913    82.549614 
   61200    194.89224   -110.24744    0.1763426    -110.0711   -3573.7199     4.357187     4.357187     4.357187   -3573.7199   -3428.2744   -5697.0786   -1595.8065    1902.6138   -191.14309    1057.8062    82.721535 
   61300    226.65935   -110.27591   0.20508614   -110.07082    -307.9138    4.3567204    4.3567204    4.3567204    -307.9138   -3038.5539    -7571.067    9685.8795   -1341.8895    1161.9855   -1510.3631    82.694966 
   61400    194.26142   -110.24683   0.17577181   -110.07106    2014.0144    4.3519191    4.3519191    4.3519191    2014.0144    1245.2163   -1621.3176    6418.1444     839.6661   -3268.9181    2309.1679    82.421868 
   61500    136.03845   -110.19467   0.12309045   -110.07158   -568.71921    4.3576569    4.3576569    4.3576569   -568.71921   -290.29108   -10515.283    9099.4168    771.03276   -233.21436    389.00757    82.748302 
   61600    223.41147   -110.27255   0.20214739    -110.0704   -255.28677    4.3568686    4.3568686    4.3568686   -255.28677   -978.14905   -1631.4402    1843.7289    -2223.244   -2260.8876   -350.62088    82.703407 
   61700    160.74502     -110.216   0.14544547   -110.07056    5174.4709     4.351272     4.351272     4.351272    5174.4709    5920.8085   -3821.5743    13424.178    1576.2468   -1214.5766    2096.5608    82.385104 
   61800    217.84903   -110.26787   0.19711438   -110.07075   -5525.7482    4.3585433    4.3585433    4.3585433   -5525.7482   -2063.5277   -6128.5558    -8385.161    444.45103     84.52963    1752.1592    82.798808 
   61900    208.42246   -110.25978   0.18858502    -110.0712   -1005.5581    4.3561444    4.3561444    4.3561444   -1005.5581   -4564.7803   -5816.7492    7364.8553    287.07752    1718.1879    742.72152    82.662169 
   62000    218.17076   -110.26865   0.19740549   -110.07125    1159.6218    4.3523286    4.3523286    4.3523286    1159.6218    3118.8344   -714.38454    1074.4155    608.95613    2915.6946    1743.5064    82.445137 
   62100    182.03258     -110.236    0.1647069   -110.07129   -1476.2874    4.3578073    4.3578073    4.3578073   -1476.2874   -6590.1322    -8866.363    11027.633    1420.0787   -640.05528    1328.9398    82.756873 
   62200    204.14969   -110.25495   0.18471893   -110.07024    522.50458    4.3557754    4.3557754    4.3557754    522.50458   -5756.7723    890.19736    6434.0887    350.07761    3052.2446   -1822.9231    82.641168 
   62300    232.48625   -110.28082   0.21035844   -110.07046    12.180172    4.3541937    4.3541937    4.3541937    12.180172   -4008.6552   -5515.1882     9560.384   -542.98149   -1166.4063    377.48068    82.551169 
   62400    143.69317   -110.20144    0.1300166   -110.07142     2453.369    4.3555123    4.3555123    4.3555123     2453.369   -1228.3845    871.33464    7717.1568    1741.4435   -443.08523     186.5049    82.626192 
   62500    301.60437    -110.3425   0.27289797    -110.0696    -5940.309    4.3566611    4.3566611    4.3566611    -5940.309   -7453.4609    -6559.326   -3808.1402   -1727.0773   -716.66942   -962.28058    82.691587 
   62600    133.24042    -110.1915   0.12055873   -110.07094    5143.3741     4.355741     4.355741     4.355741    5143.3741    2514.2395    762.57575    12153.307    833.15272    154.26712    1454.7779    82.639207 
   62700    236.10929   -110.28416   0.21363665   -110.07052   -1085.4894     4.353482     4.353482     4.353482   -1085.4894   -1978.3301   -4446.6087    3168.4706     1208.456    2226.7919    1524.2601      82.5107 
   62800    122.98971   -110.18237   0.11128367   -110.07109    4293.7733    4.3566635    4.3566635    4.3566635    4293.7733   -2274.9873   -689.16506    15845.472   -1433.1277    1502.9272    525.20138    82.691727 
   62900    253.95199   -110.30122   0.22978109   -110.07144   -4778.4607    4.3570332    4.3570332    4.3570332   -4778.4607   -4527.6719   -8170.4433   -1637.2669     2095.333    2394.8481    1363.4541    82.712776 
   63000    76.541784   -110.14163  0.069256614   -110.07237    8569.0867    4.3514398    4.3514398    4.3514398    8569.0867    4381.7341    2943.1166     18382.41     861.2835    45.024905    970.36326    82.394634 
   63100    329.13622   -110.36791   0.29780937    -110.0701   -8080.1988    4.3580212    4.3580212    4.3580212   -8080.1988   -8724.9368   -10451.111   -5064.5485   -134.25423    1394.4135   -369.70797    82.769059 
   63200    130.76419   -110.18948   0.11831819   -110.07116    1241.4139    4.3572017    4.3572017    4.3572017    1241.4139   -1098.7583    1459.3939     3363.606    1276.3995   -1426.7537   -213.09682    82.722376 
   63300    274.15232   -110.31831   0.24805878   -110.07025   -3939.4511    4.3521508    4.3521508    4.3521508   -3939.4511   -5204.5675   -7444.4101    830.62441    1699.4905   -760.08897    2356.3728     82.43503 
   63400     168.5061   -110.22355   0.15246786   -110.07108    2488.1815    4.3568362    4.3568362    4.3568362    2488.1815   -1580.3492    1667.2377     7377.656   -467.86307   -696.55826   -467.94139    82.701558 
   63500    230.29565    -110.2794   0.20837635   -110.07102   -4791.7611    4.3571476    4.3571476    4.3571476   -4791.7611    -9051.872   -9991.3192    4667.9078    112.37411   -149.31784    1648.9387    82.719294 
   63600    140.49597   -110.19901   0.12712371   -110.07189    3615.4264    4.3529499    4.3529499    4.3529499    3615.4264    698.04836   -349.01641    10497.247    1341.9206    1088.4867    2712.3335    82.480447 
   63700    227.41932   -110.27655   0.20577378   -110.07078   -227.44044    4.3561178    4.3561178    4.3561178   -227.44044   -1065.0575   -7094.6073    7477.3434   -1633.5746    729.56771   -1512.6192    82.660658 
   63800    210.10565   -110.26098   0.19010801   -110.07087   -3641.6511    4.3565757    4.3565757    4.3565757   -3641.6511    -5908.438   -2441.5531   -2574.9623    1365.9158    2327.7387     1490.743    82.686726 
   63900    165.78185   -110.22175    0.1500029   -110.07175    1042.2592    4.3544726    4.3544726    4.3544726    1042.2592    2164.0183   -9086.8439    10049.603    982.41744   -1281.7071   -1138.9594    82.567032 
   64000    241.27288   -110.28882   0.21830878   -110.07051    996.46279    4.3546352    4.3546352    4.3546352    996.46279    2373.7919   -606.40445    1222.0009   -882.25598    1418.8231   -1028.2791    82.576285 
   64100    185.02946   -110.23849   0.16741854   -110.07107   -1096.8377    4.3562186    4.3562186    4.3562186   -1096.8377   -5533.6694    -8991.748    11234.904    3002.6316   -913.10035   -54.821452    82.666393 
   64200    157.00624   -110.21381   0.14206254   -110.07175    544.48495    4.3554664    4.3554664    4.3554664    544.48495    1014.6106   -3756.7682    4375.6124    567.65653   -1745.7236    284.61104    82.623576 
   64300     232.2041   -110.28049   0.21010315   -110.07039    1658.1774     4.353913     4.353913     4.353913    1658.1774   -5401.4464   -3532.0576    13908.036   -377.59447   -512.07744     1167.955    82.535205 
   64400    194.27909   -110.24703    0.1757878   -110.07124   -1169.8942    4.3558498    4.3558498    4.3558498   -1169.8942   -3630.8522   -604.91388    726.08335    1385.4933   -57.163634   -722.44284    82.645402 
   64500     204.6508   -110.25679   0.18517235   -110.07162   -3690.6751    4.3563869    4.3563869    4.3563869   -3690.6751   -5901.3877   -7953.0559    2782.4182    684.95598     1423.397    3315.0238    82.675976 
   64600    225.94074   -110.27521   0.20443593   -110.07078    1082.0404     4.353754     4.353754     4.353754    1082.0404   -2071.1106    2453.5232    2863.7084   -753.94617   -1244.2465    -1434.635    82.526165 
   64700    221.67234   -110.27142   0.20057379   -110.07085   -2948.1862    4.3559612    4.3559612    4.3559612   -2948.1862   -5948.3191   -5598.3422    2702.1029   -681.34635    2006.7699    324.78587    82.651744 
   64800    136.00426   -110.19458   0.12305951   -110.07152    488.99022    4.3562437    4.3562437    4.3562437    488.99022   -4368.7394   -834.28817    6669.9983    1357.7806   -1703.5576    1999.3972    82.667821 
   64900    237.95572   -110.28549   0.21530734   -110.07018    429.53353    4.3539794    4.3539794    4.3539794    429.53353   -4083.8753   -2004.8967    7377.3726   -1486.3448    961.60347   -1431.0682    82.538985 
   65000    149.88416   -110.20669   0.13561834   -110.07107    2481.8629    4.3551497    4.3551497    4.3551497    2481.8629   -306.56035    1201.0905    6551.0584    726.26656    17.890686    1865.2576    82.605554 
   65100    233.19146   -110.28191   0.21099653   -110.07091   -4981.3262    4.3564351    4.3564351    4.3564351   -4981.3262    -5356.871    -6871.786   -2715.3216    1333.6222   -979.37952    359.39561    82.678722 
   65200    172.89703   -110.22738   0.15644087   -110.07094    4189.1635      4.35431      4.35431      4.35431    4189.1635    899.83755    4390.8963    7276.7567   -1046.9328    1763.4595    979.02574    82.557783 
   65300    284.43611   -110.32806   0.25736377   -110.07069   -4587.4442     4.355433     4.355433     4.355433   -4587.4442   -7228.4728   -5568.7489   -965.11103    2663.9706   -512.83577   -821.94306     82.62168 
   65400     103.3115   -110.16581  0.093478416   -110.07233    3941.1711    4.3556075    4.3556075    4.3556075    3941.1711   -1019.7798    4032.3041     8810.989      389.074    1140.6451    1594.3676    82.631607 
   65500    279.01868   -110.32348   0.25246197   -110.07102   -1935.0503    4.3541906    4.3541906    4.3541906   -1935.0503   -7245.0491    -6547.024    7986.9223   -278.32885    -1405.353    422.57028    82.550992 
   65600     150.3016   -110.20758   0.13599605   -110.07159    3323.8815    4.3557049    4.3557049    4.3557049    3323.8815   -1760.6375    2562.1989    9170.0832    584.00212    1412.7695   -1158.7678    82.637153 
   65700     209.8902   -110.26127   0.18991306   -110.07136   -2797.4801    4.3557464    4.3557464    4.3557464   -2797.4801   -5141.5668   -8196.3652    4945.4918    809.76785     -1611.05    2883.0349    82.639513 
   65800    205.33765   -110.25638   0.18579382   -110.07059    1923.3154    4.3540299    4.3540299    4.3540299    1923.3154   -2861.1316    2464.0375    6167.0401   -537.59491   -737.75416   -665.41202    82.541853 
   65900    254.67968    -110.3011   0.23043953   -110.07066   -4003.0868    4.3569521    4.3569521    4.3569521   -4003.0868    -3191.206   -7164.9272   -1653.1271   -197.07402    2323.9274    719.18308     82.70816 
   66000    139.41497    -110.1977    0.1261456   -110.07155    1053.3678    4.3551611    4.3551611    4.3551611    1053.3678    409.29647   -2945.7518    5696.5586    2948.7994   -1132.5092    91.288321    82.606204 
   66100    248.59936   -110.29618   0.22493792   -110.07125   -614.79116     4.353799     4.353799     4.353799   -614.79116   -1757.1804   -5199.0365    5111.8434   -1168.5987     1890.615    775.08127     82.52872 
   66200    142.97226   -110.20151    0.1293643   -110.07215    2907.0272     4.356829     4.356829     4.356829    2907.0272    1555.9431   -2622.8314      9787.97     1662.501     1433.841   -773.92428    82.701149 
   66300    194.03804   -110.24736    0.1755697   -110.07179   -2730.3805    4.3553816    4.3553816    4.3553816   -2730.3805   -4750.6625   -8968.2154    5527.7363    1934.0769    1865.9822    750.91638    82.618754 
   66400     179.2263    -110.2335   0.16216773   -110.07134    2834.6123    4.3542261    4.3542261    4.3542261    2834.6123    2846.6852    -68.62129    5725.7731      -342.24   -620.62051    2639.8135    82.553014 
   66500    246.11351   -110.29347   0.22268867   -110.07079   -3876.0623    4.3569041    4.3569041    4.3569041   -3876.0623     -4480.94   -7372.5815    225.33449    1975.0787   -173.90357   -1310.4936    82.705424 
   66600    186.38673   -110.23995   0.16864663    -110.0713   -2820.2261    4.3550627    4.3550627    4.3550627   -2820.2261   -1952.3977   -5985.4332    -522.8474   -609.86311   -198.51145    4944.5775    82.600604 
   66700    225.63461   -110.27504   0.20415893   -110.07088   -556.60752    4.3557782    4.3557782    4.3557782   -556.60752   -1336.9095   -4746.4711    4413.5581   -316.99098   -1211.6105    852.44906    82.641324 
   66800    221.37517   -110.27092   0.20030491   -110.07061   -659.89537    4.3551643    4.3551643    4.3551643   -659.89537    -6381.675   -2463.2162     6865.205    -26.14178    1655.5541    380.73939    82.606389 
   66900    144.09293   -110.20178   0.13037831    -110.0714    315.08613    4.3556558    4.3556558    4.3556558    315.08613   -1659.9703   -7623.4467    10228.675   -240.99384    640.37549    1723.1243     82.63436 
   67000    215.35941   -110.26543   0.19486172   -110.07057    699.55673    4.3566895    4.3566895    4.3566895    699.55673   -959.66275   -2804.4678    5862.8008   -753.52178     2528.627   -484.59491    82.693208 
   67100    216.85146   -110.26653   0.19621176   -110.07032    1403.4642    4.3535989    4.3535989    4.3535989    1403.4642   -2184.4941   -4244.4864    10639.373   -652.93729    1520.4681   -52.305177    82.517342 
   67200    175.05546   -110.22986   0.15839386   -110.07146   -1675.2683    4.3567317    4.3567317    4.3567317   -1675.2683    1248.0091    -3823.164     -2450.65    1467.1124    1520.9259   -227.52867    82.695606 
   67300    243.61424   -110.29124   0.22042728   -110.07081   -2253.6787    4.3571417    4.3571417    4.3571417   -2253.6787   -3180.3583   -6386.6579    2805.9802   -589.76633   -1688.2873    1612.2454     82.71896 
   67400    184.31788   -110.23758   0.16677469    -110.0708    3931.6154    4.3525284    4.3525284    4.3525284    3931.6154    1924.9879    4632.6513     5237.207     1081.401   -298.13581   -790.26347    82.456488 
   67500    177.74209   -110.23187   0.16082478   -110.07104   -1503.7397    4.3580031    4.3580031    4.3580031   -1503.7397   -2142.4952   -10032.479    7663.7553    1410.3097   -1702.7939    1982.7408    82.768028 
   67600    168.57563   -110.22302   0.15253078   -110.07049    2606.0486    4.3559384    4.3559384    4.3559384    2606.0486   -4559.1394     2355.498    10021.787   -389.03447   -2542.9891    1301.2199    82.650445 
   67700    226.15556   -110.27494    0.2046303   -110.07031    576.84726      4.35306      4.35306      4.35306    576.84726   -2708.8521   -3389.0572    7828.4511    1908.2739    1458.7154   -241.68669    82.486704 
   67800    161.51736   -110.21728    0.1461443   -110.07114   -1101.7572    4.3582471    4.3582471    4.3582471   -1101.7572   -7856.4115    840.13983    3711.0001   -201.76734    154.38922    2366.6773    82.781928 
   67900    286.39464   -110.32955   0.25913589   -110.07041   -5372.2005    4.3554703    4.3554703    4.3554703   -5372.2005   -5201.6144   -5170.3526   -5744.6344   -140.51675    1002.7451    41.214462      82.6238 
   68000    183.00563   -110.23656   0.16558734   -110.07097    2218.8946    4.3545093    4.3545093    4.3545093    2218.8946   -3652.1336    3465.0176    6843.7999    627.15417    1382.8886   -42.952323    82.569122 
   68100    252.49706   -110.29969   0.22846464   -110.07123   -5678.7427    4.3574488    4.3574488    4.3574488   -5678.7427   -4792.2501   -7571.2572   -4672.7207   -391.34623    1008.7501    3.1456233     82.73645 
   68200    141.63817   -110.19957    0.1281572   -110.07142    3412.2844    4.3545518    4.3545518    4.3545518    3412.2844    246.84856    4.6612817    9985.3433   -496.46096   -3277.7277    1724.2288    82.571539 
   68300    234.23558   -110.28254   0.21194128    -110.0706   -1705.6929    4.3562011    4.3562011    4.3562011   -1705.6929   -5281.0571   -6007.1593    6171.1377   -11.815571   -1636.7312   -1676.4222    82.665398 
   68400    92.678499   -110.15534  0.083857454   -110.07149    5059.6087    4.3556385    4.3556385    4.3556385    5059.6087    3488.8739    104.59059    11585.362    1388.1991   -1828.4926    1717.7538    82.633376 
   68500    248.63935   -110.29515   0.22497411   -110.07017   -2404.0243    4.3551504    4.3551504    4.3551504   -2404.0243    130.08112   -7985.6254    643.47138   -797.07263   -3168.9393     1530.067    82.605599 
   68600    179.29296   -110.23304   0.16222804   -110.07081    950.88696    4.3566226    4.3566226    4.3566226    950.88696    642.40221   -767.77618    2978.0348    1698.7255    767.12165   -1504.7471    82.689394 
   68700     209.7581   -110.26081   0.18979354   -110.07101   -2435.3822    4.3550038    4.3550038    4.3550038   -2435.3822    1525.9804   -7369.8928   -1462.2342    1199.0943   -417.21161    2730.3751    82.597252 
   68800    236.49169   -110.28455   0.21398265   -110.07057   -1991.2292    4.3560181    4.3560181    4.3560181   -1991.2292   -4638.8375   -1925.3916    590.54141    182.31307    2599.2065   -757.67671    82.654982 
   68900    187.18373   -110.24051   0.16936777   -110.07114    1305.8703    4.3562285    4.3562285    4.3562285    1305.8703    56.280272   -6755.4606    10616.791    1534.3242    406.64547    -63.01033    82.666959 
   69000    211.00233   -110.26215   0.19091935   -110.07123    -1004.463     4.354743     4.354743     4.354743    -1004.463   -4825.9337    -3148.848    4961.3927   -522.45695    1304.4066   -1026.1822    82.582415 
   69100    180.34695   -110.23412   0.16318171   -110.07094    1537.3674    4.3566739    4.3566739    4.3566739    1537.3674   -671.30363   -8735.3283    14018.734   -353.29982   -1211.4974    219.87889    82.692315 
   69200    240.16257   -110.28749   0.21730414   -110.07018   -1842.5593    4.3551808    4.3551808    4.3551808   -1842.5593   -3122.4976   -1526.7355   -878.44488    185.28892    -1126.354   -1535.1255    82.607329 
   69300    167.42854   -110.22195   0.15149286   -110.07046    472.55646    4.3552644    4.3552644    4.3552644    472.55646    837.23033   -8763.7625    9344.2016   -799.10849   -118.87868   -1018.8882    82.612086 
   69400    233.83377    -110.2816   0.21157771   -110.07003   -2034.6872     4.356975     4.356975     4.356975   -2034.6872    2755.8175   -1710.9954   -7148.8838   -1843.9261   -2581.5655    2470.2923    82.709465 
   69500     183.3244   -110.23643   0.16587577   -110.07056    1588.5296    4.3546749    4.3546749    4.3546749    1588.5296    4518.7181   -6911.2104     7158.081    697.36963    2559.7608   -2402.1948    82.578542 
   69600    174.37047   -110.22878   0.15777407     -110.071   -425.44125    4.3556265    4.3556265    4.3556265   -425.44125    3336.0114   -3844.1572   -768.17787   -466.18874    750.12597    2216.4842    82.632693 
   69700    194.16722   -110.24642   0.17568658   -110.07073   -571.39832    4.3568517    4.3568517    4.3568517   -571.39832    1100.1348   -8547.2538     5732.924   -176.31542    2539.8569    762.56882    82.702439 
   69800    181.14483   -110.23476   0.16390365   -110.07085    1698.8274    4.3544398    4.3544398    4.3544398    1698.8274   -2608.7615    1048.2969    6656.9466    1419.9532    1040.9518   -1871.8792    82.565169 
   69900     220.2291   -110.27016   0.19926791   -110.07089   -2506.4806    4.3552831    4.3552831    4.3552831   -2506.4806   -199.54956   -8664.1989    1344.3067    1178.4261    1554.0474     1433.939    82.613145 
   70000     192.6922   -110.24544   0.17435195   -110.07108   -781.14141    4.3567495    4.3567495    4.3567495   -781.14141   -6166.1105    2911.1321    911.55424    682.14235   -800.43695   -1077.7111    82.696622 
   70100    271.84138   -110.31635    0.2459678   -110.07038   -5017.2692     4.355643     4.355643     4.355643   -5017.2692   -4566.7941   -5969.5018   -4515.5116    692.46919   -2526.3388   -246.26472    82.633628 
   70200    149.24854   -110.20596   0.13504321   -110.07092    1560.2976    4.3548774    4.3548774    4.3548774    1560.2976   -3811.7819     2010.887    6481.7876    10.151523    1804.8828    -309.8819    82.590062 
   70300    268.83369   -110.31311   0.24324637   -110.06986   -4840.9368    4.3565256    4.3565256    4.3565256   -4840.9368   -5332.4411   -4425.9883    -4764.381   -1576.3831   -2420.5741    2881.5242    82.683874 
   70400    108.68251   -110.16957  0.098338217   -110.07123    6029.1533     4.355139     4.355139     4.355139    6029.1533   -693.42541    2999.2216    15781.664    572.42187    1516.9072   -239.77581    82.604948 
   70500    245.57967   -110.29366   0.22220564   -110.07146   -1901.3921    4.3545493    4.3545493    4.3545493   -1901.3921   -1158.4291   -4129.0535   -416.69362   -1106.8027    746.35015    1167.1735    82.571398 
   70600    112.61279   -110.17375   0.10189442   -110.07186    6026.0366    4.3558446    4.3558446    4.3558446    6026.0366    2592.3313    1220.8992    14264.879   -1190.6573    1489.5011    1647.1024    82.645102 
   70700     267.5718   -110.31271   0.24210459   -110.07061   -4226.7115    4.3562442    4.3562442    4.3562442   -4226.7115   -3730.3525   -8020.4308   -929.35108    2026.7074    1344.3051   -2047.9086    82.667851 
   70800    127.65818   -110.18649   0.11550781   -110.07099     4736.663    4.3544579    4.3544579    4.3544579     4736.663    3664.4586    3029.9393    7515.5911    306.32032   -1146.0066    608.71134    82.566197 
   70900    271.33946   -110.31524   0.24551365   -110.06972   -2963.8587    4.3555995    4.3555995    4.3555995   -2963.8587   -1927.1168   -9017.3509    2052.8917    346.43409    802.22791   -680.59742    82.631156 
   71000    175.25825   -110.22927   0.15857734   -110.07069    210.45593    4.3564466    4.3564466    4.3564466    210.45593   -4672.6585    2001.7061    3302.3203    2835.0044   -2406.9422   -119.78248    82.679376 
   71100     213.9784    -110.2645   0.19361215   -110.07088   -2074.4667    4.3553292    4.3553292    4.3553292   -2074.4667   -3941.6446   -8136.3476    5854.5922     454.6348    1037.1734   -669.95266    82.615772 
   71200    192.38614    -110.2445   0.17407503   -110.07043    1895.8659    4.3544112    4.3544112    4.3544112    1895.8659   -4940.4962    1684.2765    8943.8174    63.102143   -1703.3663    2262.9089    82.563542 
   71300    228.61337    -110.2773   0.20685418   -110.07044   -3960.7835    4.3568655    4.3568655    4.3568655   -3960.7835     -7262.92   -7521.9422    2902.5118     526.9887    160.18473    497.22511     82.70323 
   71400    184.32302   -110.23826   0.16677935   -110.07148   -1867.4163    4.3557575    4.3557575    4.3557575   -1867.4163   -3935.9274   -1296.1694   -370.15226   -868.48226    1853.9776   -515.18792    82.640144 
   71500    210.84188   -110.26297   0.19077416    -110.0722    1415.0206     4.353183     4.353183     4.353183    1415.0206    2031.5363   -4048.9451    6262.4706   -1740.9402   -514.37104    2952.2812    82.493701 
   71600     215.6535   -110.26687   0.19512782   -110.07174   -2754.1276    4.3572757    4.3572757    4.3572757   -2754.1276   -3167.5895    -1458.875   -3635.9184   -61.030177    1282.6404   -1400.0612     82.72659 
   71700    161.04279    -110.2174   0.14571491   -110.07169   -1009.4527    4.3559677    4.3559677    4.3559677   -1009.4527    82.912766   -8468.2138    5356.9428   -952.10272   -678.06286    626.47714    82.652113 
   71800    203.11084   -110.25431   0.18377896   -110.07053    2676.4429    4.3529369    4.3529369    4.3529369    2676.4429     6341.514     -202.284    1890.0988   -1228.7972    1340.0671    1287.0211    82.479706 
   71900    185.21992   -110.23844   0.16759088   -110.07085    483.87115    4.3564875    4.3564875    4.3564875    483.87115   -2293.0826   -5589.7203    9334.4164    2495.0553   -2700.1366   -828.81033    82.681706 
   72000    190.93728   -110.24445   0.17276406   -110.07168   -1966.6675    4.3561702    4.3561702    4.3561702   -1966.6675    295.68464   -4094.6095   -2101.0775    -112.3748    984.13086    463.48772    82.663639 
   72100    195.86572   -110.24819   0.17722342   -110.07096    4060.5601    4.3537529    4.3537529    4.3537529    4060.5601   -709.09196   -600.11286    13490.885    425.56431   -915.83702    1389.7099    82.526103 
   72200    242.49272   -110.29007   0.21941251   -110.07066   -1356.4808    4.3553829    4.3553829    4.3553829   -1356.4808   -4370.1894   -60.936187     361.6831    2266.3695   -499.50647    111.40606    82.618829 
   72300    180.96107   -110.23478   0.16373738   -110.07104   -2529.5378     4.356936     4.356936     4.356936   -2529.5378   -5553.4839   -5781.2802    3746.1508    338.21372    1385.3902     48.18484    82.707244 
   72400    215.40421   -110.26534   0.19490225   -110.07043    2199.8995    4.3544378    4.3544378    4.3544378    2199.8995   -5530.1445    4222.0661    7907.7769    -851.2268   -1617.9277    1207.4514    82.565054 
   72500    245.64253   -110.29269   0.22226252   -110.07043    189.64767    4.3540794    4.3540794    4.3540794    189.64767   -3085.2128   -3967.6935    7621.8494    191.44801    527.62425   -518.04087    82.544667 
   72600     143.7694   -110.20146   0.13008558   -110.07138   -279.90286    4.3573815    4.3573815    4.3573815   -279.90286    -7012.423   -329.13339    6501.8479   -95.361199   -2186.1676    429.69579    82.732617 
   72700    257.63894   -110.30327   0.23311712   -110.07015   -2069.4984    4.3552487    4.3552487    4.3552487   -2069.4984   -3326.2893   -5616.2137    2734.0079   -2405.5438    714.69722    792.25469    82.611192 
   72800    164.51391   -110.21926   0.14885564    -110.0704    3914.6958     4.353415     4.353415     4.353415    3914.6958    1196.4079    1800.6694    8747.0102    1293.0974   -1541.7754     260.6078    82.506889 
   72900    236.28043   -110.28452   0.21379149   -110.07073   -6385.6769    4.3578745    4.3578745    4.3578745   -6385.6769   -5460.8325   -8198.6994   -5497.4987    360.12403   -282.44192   -941.23179      82.7607 
   73000    127.61536   -110.18781   0.11546906   -110.07234    5615.2025    4.3540754    4.3540754    4.3540754    5615.2025    2224.2195    4065.7299    10555.658   -532.38958    1136.6958      1770.58    82.544443 
   73100    261.78586   -110.30857   0.23686935    -110.0717   -2211.6145    4.3545338    4.3545338    4.3545338   -2211.6145    -1802.264   -2793.5832   -2038.9961    3150.9359    -642.0606    -1518.343    82.570513 
   73200     96.26745   -110.15953  0.087104812   -110.07242    1808.8965    4.3567904    4.3567904    4.3567904    1808.8965   -4078.8065    2066.3921    7439.1038    308.94819    2729.0938   -546.42994    82.698951 
   73300    245.28297    -110.2924   0.22193719   -110.07046   -3199.4318    4.3551584    4.3551584    4.3551584   -3199.4318   -4734.4686   -4413.3677   -450.45914    51.194641    -2014.069    1750.4373    82.606051 
   73400    181.87572   -110.23489   0.16456498   -110.07033    1995.3644    4.3549324    4.3549324    4.3549324    1995.3644   -4954.1229    3181.5312     7758.685    1792.1535    1328.8761   -1049.2916    82.593193 
   73500    212.24571   -110.26277   0.19204437   -110.07072   -3864.0208    4.3558884    4.3558884    4.3558884   -3864.0208   -9364.5532   -4428.2662    2200.7571   -362.32474   -1225.1666    847.18682      82.6476 
   73600    230.26861   -110.27864   0.20835188   -110.07029   -2445.1338    4.3560081    4.3560081    4.3560081   -2445.1338   -6417.3618   -688.16582    -229.8737   -1584.3973   -480.09682    962.75151    82.654413 
   73700    235.94913   -110.28397   0.21349173   -110.07048   -1349.8293    4.3554597    4.3554597    4.3554597   -1349.8293   -10047.743   -1179.3441    7177.5989    355.16281    336.99736   -18.277217    82.623197 
   73800    189.28757   -110.24221   0.17127138   -110.07094   -846.47411     4.354504     4.354504     4.354504   -846.47411    -4510.903   -2686.3229    4657.8035    459.24919   -774.38824   -1192.6959     82.56882 
   73900    199.92795   -110.25239   0.18089901   -110.07149   -38.665084    4.3566754    4.3566754    4.3566754   -38.665084   -6042.4284   -494.91872    6421.3518    -1701.477    2614.6857   -840.39654    82.692402 
   74000    225.53445   -110.27588   0.20406831   -110.07181   -630.62042    4.3549326    4.3549326    4.3549326   -630.62042   -3821.1426   -1758.3114    3687.5927    2443.9768   -489.64849   -1194.9935    82.593202 
   74100    126.33512   -110.18754   0.11431067   -110.07323    2827.6666    4.3537468    4.3537468    4.3537468    2827.6666    1096.1431    1042.9571    6343.8996    1625.1995    1839.4504   -3869.1452    82.525753 
   74200     228.9299   -110.27904   0.20714058    -110.0719    -2928.145     4.357598     4.357598     4.357598    -2928.145   -2290.8003   -4125.4997   -2368.1351    152.80593   -912.70538    1535.7985    82.744948 
   74300     166.9263   -110.22245   0.15103842   -110.07142    2144.6227    4.3540823    4.3540823    4.3540823    2144.6227    603.39592    1501.2105    4329.2616    3735.2176    152.01748   -2044.6116    82.544832 
   74400    203.62205   -110.25566   0.18424151   -110.07142   -2434.2646    4.3555754    4.3555754    4.3555754   -2434.2646   -244.42935   -6380.2568   -678.10778    448.75717    -1605.778   -48.405349    82.629782 
   74500    162.81017   -110.21884   0.14731406   -110.07153    1987.0705    4.3563186    4.3563186    4.3563186    1987.0705    -313.2722    2801.0382    3473.4454    275.27783    -1147.714    691.56644     82.67209 
   74600    259.47801   -110.30574   0.23478115   -110.07096   -2630.3433     4.354405     4.354405     4.354405   -2630.3433     -4654.37   -5579.6686    2343.0088    232.60442   -312.71885    -884.7354    82.563192 
   74700    137.92469    -110.1962   0.12479716    -110.0714    1996.8209    4.3566318    4.3566318    4.3566318    1996.8209    -3231.563    2479.5799    6742.4458   -52.613135   -1613.7865   -1031.1472    82.689918 
   74800    269.60411   -110.31377   0.24394346   -110.06982   -3498.2369     4.355925     4.355925     4.355925   -3498.2369   -8266.4607   -3140.8475    912.59746   -1532.5895    2232.9675   -893.75328    82.649682 
   74900    213.36387   -110.26296   0.19305612    -110.0699     490.6723    4.3550788    4.3550788    4.3550788     490.6723   -6460.7972    3068.8749    4863.9393    448.92183     60.04405     25.01803    82.601521 
   75000    223.73737   -110.27328   0.20244228   -110.07084   -3216.5994    4.3571886    4.3571886    4.3571886   -3216.5994     -6676.66   -3649.1593    676.02108    743.91863    1929.1624   -2168.1028    82.721627 
   75100    213.62187   -110.26405   0.19328956   -110.07076    908.71686    4.3544432    4.3544432    4.3544432    908.71686   -3968.4728    5824.5491    870.07429   -1188.6581   -469.34338    2533.7422    82.565362 
   75200    237.63624   -110.28542   0.21501827    -110.0704   -392.21989    4.3561681    4.3561681    4.3561681   -392.21989   -2983.7855    -4228.066    6035.1918    2696.9439   -500.23352    -59.57724    82.663519 
   75300    129.59657   -110.18811    0.1172617   -110.07085    3417.9494     4.356158     4.356158     4.356158    3417.9494   -849.37651     3774.236    7328.9886    668.99117    -650.6478    167.04989    82.662946 
   75400    218.67797   -110.26837   0.19786442   -110.07051    1127.5177    4.3543607    4.3543607    4.3543607    1127.5177    4109.5189   -6414.7235    5687.7578   -93.860467   -3135.5282    1662.1934    82.560671 
   75500    162.28619   -110.21847   0.14683995   -110.07163    4065.0863    4.3563954    4.3563954    4.3563954    4065.0863    2625.0404    5222.2584      4347.96    1716.2576    -972.3953   -698.37001    82.676463 
   75600    178.31371   -110.23354   0.16134199    -110.0722    101.01915     4.354714     4.354714     4.354714    101.01915    3899.3957   -7327.1926    3730.8543   -347.71558   -2391.3193   -1044.5099    82.580764 
   75700    178.60973   -110.23301   0.16160983    -110.0714    1098.5808    4.3560152    4.3560152    4.3560152    1098.5808    2159.5473    2601.0676   -1464.8725    609.38477    1785.8236   -1279.3324    82.654813 
   75800    251.63106    -110.2977   0.22768107   -110.07002   -2737.3669    4.3568467    4.3568467    4.3568467   -2737.3669   -2644.4268   -5620.8787    53.204747    -692.1216    -101.3799     495.8451    82.702157 
   75900    160.31887   -110.21573   0.14505988   -110.07067    3.3732396    4.3540376    4.3540376    4.3540376    3.3732396   -1931.6714    427.73291    1514.0582    528.73408    1940.6654   -2974.9543    82.542291 
   76000    246.87642   -110.29354   0.22337898   -110.07017   -5651.9791    4.3581241    4.3581241    4.3581241   -5651.9791   -7908.5256   -8433.5363   -613.87539   -944.34576    1646.0211    703.93392    82.774924 
   76100    210.97199   -110.26133   0.19089189   -110.07044   -793.96032    4.3555758    4.3555758    4.3555758   -793.96032   -8283.0498    1492.6677    4408.5012    1248.1156   -663.73384    -23.86499    82.629808 
   76200    187.40671   -110.24007   0.16956953    -110.0705   -1803.9365    4.3544423    4.3544423    4.3544423   -1803.9365   -6353.6575   -6535.4832    7477.3313    1531.5312   -118.52353   -2799.1646    82.565309 
   76300    219.68074   -110.26882   0.19877175   -110.07005   -3958.2308    4.3584389    4.3584389    4.3584389   -3958.2308   -6488.2438   -3006.8451   -2379.6036   -1377.6208   -2497.8438    1615.8929    82.792862 
   76400    228.86949   -110.27691   0.20708592   -110.06982   -1269.2964    4.3549907    4.3549907    4.3549907   -1269.2964   -2382.5997   -6242.2325    4816.9429    3387.1617    -1140.652   -1360.6206    82.596509 
   76500     163.8611   -110.22006   0.14826497   -110.07179    989.54293    4.3551459    4.3551459    4.3551459    989.54293    3066.9954    -93.63637   -4.7302443   -701.29577   -2267.0904    718.15453     82.60534 
   76600    226.02332   -110.27618   0.20451065   -110.07167   -2388.9685    4.3572147    4.3572147    4.3572147   -2388.9685    2433.6087   -8650.8357   -949.67849    11.242271    1911.7476   -349.87147    82.723116 
   76700    161.81773   -110.21786   0.14641609   -110.07144    4374.3407    4.3547324    4.3547324    4.3547324    4374.3407    5575.9771    4641.7649    2905.2801    1803.6676    1583.8961    1583.7504    82.581812 
   76800    188.74299   -110.24191   0.17077862   -110.07113    625.06584    4.3559274    4.3559274    4.3559274    625.06584    2886.4042   -8932.0881    7920.8814   -342.75298    1770.3855   -1111.3597    82.649818 
   76900    130.22677   -110.18902   0.11783192   -110.07119    4467.9072    4.3555094    4.3555094    4.3555094    4467.9072    3264.3634    6931.8136    3207.5445   -27.319403    2610.0833    584.91604    82.626026 
   77000    259.71187   -110.30559   0.23499275    -110.0706   -2099.8419     4.356427     4.356427     4.356427   -2099.8419   -4271.2986   -9067.2456    7039.0187   -185.42056    958.50571   -317.32667    82.678257 
   77100    115.71339   -110.17665   0.10469991   -110.07195    4589.3521    4.3558345    4.3558345    4.3558345    4589.3521   -2391.2668    10255.004    5904.3186    1797.5702    345.05367   -2013.3889    82.644528 
   77200    296.74702   -110.33919   0.26850294   -110.07068   -5685.6957    4.3552439    4.3552439    4.3552439   -5685.6957   -7643.3707    -5785.583   -3628.1335   -1656.5465   -2820.2433     -117.782    82.610915 
   77300    199.23066   -110.25075   0.18026808   -110.07048    103.92055    4.3577906    4.3577906    4.3577906    103.92055   -6861.7356    5855.7526    1317.7446    940.61702   -1129.7669   -678.33602    82.755918 
   77400    284.15587   -110.32732    0.2571102   -110.07021   -6134.5572    4.3561435    4.3561435    4.3561435   -6134.5572   -8374.0838    -1769.319   -8260.2688    379.84786   -2725.4304    217.35242    82.662116 
   77500    175.30346   -110.22937   0.15861825   -110.07075    1437.8789    4.3550933    4.3550933    4.3550933    1437.8789   -1984.3067    2936.3534      3361.59   -1349.0436   -771.46002   -1089.1378    82.602348 
   77600    273.50732   -110.31747   0.24747517      -110.07   -4298.5039    4.3584172    4.3584172    4.3584172   -4298.5039   -5910.7248   -2570.3682   -4414.4187    1585.2121    294.37273    1319.7234    82.791622 
   77700    115.71752   -110.17543   0.10470364   -110.07073    4333.4516    4.3552113    4.3552113    4.3552113    4333.4516     3369.075     1827.757     7803.523   -1485.5002    937.34633   -2323.9301    82.609061 
   77800    196.77677   -110.24835   0.17804775    -110.0703    367.64259    4.3553976    4.3553976    4.3553976    367.64259    5060.2345   -3857.1445   -100.16229    702.15062    3694.0296   -1538.2615    82.619662 
   77900    135.16234   -110.19305   0.12229773   -110.07075    4420.3542     4.357116     4.357116     4.357116    4420.3542     5442.659    1589.2208    6229.1827     752.8566      2609.62   -39.001511    82.717492 
   78000    177.67778   -110.23205   0.16076659   -110.07128    219.08706    4.3555445    4.3555445    4.3555445    219.08706    4974.4163   -3415.7379   -901.41716    1055.9624    2619.3493   -4189.7751    82.628026 
   78100    160.60256   -110.21738   0.14531657   -110.07207      1636.09    4.3562763    4.3562763    4.3562763      1636.09     4760.441    2109.2186   -1961.3896    1641.1839     -73.7857    507.89673    82.669678 
   78200     236.7033   -110.28525   0.21417412   -110.07107    -1988.666      4.35651      4.35651      4.35651    -1988.666    254.48325   -2334.7677   -3885.7134    3.4020569   -298.74577   -1485.8409    82.682983 
   78300    218.14269   -110.26869   0.19738009   -110.07131   -3568.3346    4.3564099    4.3564099    4.3564099   -3568.3346   -1831.1543   -2203.8425   -6670.0069    1790.3359   -2657.8544   -440.78915    82.677285 
   78400    231.28756   -110.28015   0.20927385   -110.07088   -3452.5168    4.3572751    4.3572751    4.3572751   -3452.5168   -6047.1416   -2594.0012   -1716.4076   -1706.5262   -2354.2596    392.26551    82.726558 
   78500    260.75761   -110.30591   0.23593896   -110.06997   -2425.6974    4.3555051    4.3555051    4.3555051   -2425.6974   -8610.2514    903.21055    429.94865    1342.2773   -839.26972    423.35407    82.625781 
   78600    198.02171   -110.24976   0.17917421   -110.07058   -1881.6477    4.3575795    4.3575795    4.3575795   -1881.6477   -6902.9311   -2526.6001    3784.5881   -355.71783   -411.97726    272.72805    82.743892 
   78700    210.13444   -110.26039   0.19013406   -110.07026   -1606.8041    4.3568979    4.3568979    4.3568979   -1606.8041   -5637.4771   -848.80925     1665.874   -685.17894    1553.2634   -1214.1021    82.705072 
   78800    164.61676   -110.21943    0.1489487   -110.07048    4689.9656    4.3545713    4.3545713    4.3545713    4689.9656    3114.4939    4480.1455    6475.2574    2209.8771      2163.26    532.28836    82.572648 
   78900    203.75641   -110.25468   0.18436308   -110.07031   -1486.9175    4.3579228    4.3579228    4.3579228   -1486.9175    2751.0471   -3893.7076   -3318.0919   -322.37947    3391.5902   -2993.1717    82.763454 
   79000    88.590133   -110.15128  0.080158214   -110.07112    5709.0293    4.3562286    4.3562286    4.3562286    5709.0293    9974.2784    8166.7323   -1013.9229    2875.7958    1218.5774    245.44181    82.666963 
   79100     254.5195   -110.30051   0.23029459   -110.07021   -38.396602    4.3551013    4.3551013    4.3551013   -38.396602    8794.0054   -4102.8491   -4806.3461    480.96747    730.98992    -402.7401    82.602805 
   79200    107.44223   -110.16837  0.097215989   -110.07116    4882.9931    4.3576444    4.3576444    4.3576444    4882.9931    8332.9787    10752.775   -4436.7748      384.994   -906.84998    -849.5354    82.747589 
   79300    287.83815   -110.33058   0.26044201   -110.07013   -6539.4036    4.3565671    4.3565671    4.3565671   -6539.4036    476.30868   -8267.8922   -11826.627    521.37406   -2022.4214    1653.7676    82.686238 
   79400    173.90083   -110.22754   0.15734913    -110.0702    4037.3375    4.3559993    4.3559993    4.3559993    4037.3375    103.04251    10493.746     1515.224    351.11566   -2138.8486   -550.57966     82.65391 
   79500    317.51707   -110.35713   0.28729612   -110.06983   -7469.6294    4.3572425    4.3572425    4.3572425   -7469.6294   -6638.7552   -6972.1877   -8797.9454   -819.43394   -2620.0264     845.1424    82.724697 
   79600    157.60434   -110.21421   0.14260372   -110.07161    142.56884    4.3566584    4.3566584    4.3566584    142.56884   -4177.2632    4963.4072   -358.43747   -1293.9686   -794.01196    -1451.179    82.691434 
   79700    288.20507   -110.33148   0.26077401   -110.07071   -4193.0809    4.3575641    4.3575641    4.3575641   -4193.0809   -3024.9613    -5943.882   -3610.3994    1922.3353     971.0348    370.11695    82.743017 
   79800     139.7073   -110.19768    0.1264101   -110.07127    4351.6485    4.3544679    4.3544679    4.3544679    4351.6485    6269.1918    5657.8662    1127.8875   -252.78824    2208.1723   -1861.2064    82.566769 
   79900    175.26492   -110.22918   0.15858338    -110.0706   -1502.3539    4.3577134    4.3577134    4.3577134   -1502.3539    8868.8479   -7248.9281   -6126.9814     1313.006    2320.3529   -2239.2137     82.75152 
   80000    138.37537   -110.19545   0.12520494   -110.07024    4571.5237    4.3569022    4.3569022    4.3569022    4571.5237    12694.314    2232.0818   -1211.8248    1586.9633     2685.833     633.4445    82.705319 
   80100    188.00383   -110.24014   0.17010982   -110.07003      1938.42    4.3538007    4.3538007    4.3538007      1938.42    15892.651   -4265.3953   -5811.9957    408.18966    1729.0749   -3699.9608    82.528819 
   80200    138.59062   -110.19633    0.1253997   -110.07093    100.18244    4.3584972    4.3584972    4.3584972    100.18244     7135.803   -1818.9877    -5016.268    106.90746    155.82292    174.37549    82.796181 
   80300    295.25033   -110.33677    0.2671487   -110.06962    -6930.202    4.3572259    4.3572259    4.3572259    -6930.202   -3073.3187   -5940.4473    -11776.84    154.19689   -1683.5262   -158.03785    82.723755 
   80400    179.77179   -110.23311   0.16266129   -110.07045     1280.052    4.3539168    4.3539168    4.3539168     1280.052    1275.5735    3099.6534   -535.07093    189.69359   -1337.4354    -2834.085    82.535425 
   80500    310.19663   -110.35115   0.28067243   -110.07048   -10477.662    4.3592069    4.3592069    4.3592069   -10477.662   -9975.1234    -7271.858   -14186.004   -719.72186    -1936.539    1883.4972    82.836634 
   80600    191.81987   -110.24502   0.17356265   -110.07146   -151.22915    4.3559241    4.3559241    4.3559241   -151.22915    -1620.558    3087.0137   -1920.1432     1863.736    -975.2606   -2134.3917     82.64963 
   80700    239.30861   -110.28808   0.21653146   -110.07155   -1775.1254    4.3555346    4.3555346    4.3555346   -1775.1254    5258.9848   -3754.8169   -6829.5439   -364.69462    318.77945   -313.25664    82.627463 
   80800    112.42456   -110.17377   0.10172411   -110.07205    3871.7716    4.3571144    4.3571144    4.3571144    3871.7716    10272.493    5321.9173   -3979.0951    912.24274    1273.8269    -897.7112      82.7174 
   80900    191.37254   -110.24378   0.17315789   -110.07062    1325.5926    4.3559614    4.3559614    4.3559614    1325.5926    12752.921   -5918.9605   -2857.1832    1042.6409    2994.9581   -40.804356    82.651752 
   81000    111.97169   -110.17259   0.10131434   -110.07127    6174.4098    4.3561135    4.3561135    4.3561135    6174.4098    15446.612    4302.0807   -1225.4631    845.68822    2479.8833      -1742.3    82.660412 
   81100    200.72782   -110.25229   0.18162275   -110.07066    33.735252    4.3558854    4.3558854    4.3558854    33.735252    7286.5404   -3384.6159   -3800.7188   -459.06883    2603.9397   -96.887639    82.647425 
   81200    203.29575   -110.25436   0.18394627   -110.07041    267.10286    4.3571987    4.3571987    4.3571987    267.10286    718.78354    477.58753    -395.0625    561.58779    343.53791    938.03951    82.722206 
   81300    263.30666   -110.30833    0.2382454   -110.07008   -3907.3021    4.3572937    4.3572937    4.3572937   -3907.3021    -3737.083   -790.03587   -7194.7874   -309.27966   -162.72129   -1625.8791    82.727614 
   81400    212.56523    -110.2624   0.19233349   -110.07007   -746.56822     4.355318     4.355318     4.355318   -746.56822    -1325.372    73.846889   -988.17956   -1108.0691   -1897.4676     2445.272    82.615135 
   81500    278.46305   -110.32165   0.25195922   -110.06969   -4839.0616    4.3582729    4.3582729    4.3582729   -4839.0616   -1974.7674   -2184.0938   -10358.323    1335.9346   -2465.6156    385.38172      82.7834 
   81600     173.2513   -110.22707   0.15676142   -110.07031     1383.459    4.3563764    4.3563764    4.3563764     1383.459    9830.0859   -1618.4717   -4061.2372   -104.73642   -1413.0754   -369.40593    82.675377 
   81700    195.52236   -110.24749   0.17691274   -110.07058    659.21681    4.3549809    4.3549809    4.3549809    659.21681    13203.388   -2796.2699   -8429.4674    994.03783   -483.00683    2853.5965    82.595951 
   81800    159.41726   -110.21481   0.14424409   -110.07057    2852.0468     4.357887     4.357887     4.357887    2852.0468    13890.993   -258.78755   -5076.0653    1047.0705    1671.2457   -935.17319    82.761415 
   81900    172.95498   -110.22744    0.1564933   -110.07094    1177.0278    4.3551511    4.3551511    4.3551511    1177.0278    10403.002   -4132.0784   -2739.8401    1681.5067    1643.2499    1045.9689    82.605639 
   82000    174.90859   -110.22945   0.15826097   -110.07119    514.21122    4.3561395    4.3561395    4.3561395    514.21122    5751.5796   -2274.8313   -1934.1146    921.49088    2400.6618   -409.69511    82.661892 
   82100    237.15468   -110.28502   0.21458253   -110.07044   -2766.7378     4.357471     4.357471     4.357471   -2766.7378   -4863.5983   -3873.7921    437.17699    1052.4653    1573.3806    236.90367    82.737716 
   82200     192.4961   -110.24522   0.17417451   -110.07104   -916.71522    4.3547206    4.3547206    4.3547206   -916.71522   -1435.4746   -3913.9118    2599.2408    391.91461   -536.55989   -484.64851    82.581144 
   82300    237.12547   -110.28533   0.21455611   -110.07078   -4160.9872    4.3577564    4.3577564    4.3577564   -4160.9872   -3354.3437   -3757.1234   -5371.4945   -603.39603   -1464.1041   -277.37678    82.753973 
   82400    212.61314   -110.26257   0.19237684    -110.0702   -363.24287    4.3562395    4.3562395    4.3562395   -363.24287   -16.716331   -2667.5668    1594.5545    1819.4527   -2601.9742    1529.5116    82.667581 
   82500    184.52014   -110.23766    0.1669577    -110.0707    235.65067    4.3548538    4.3548538    4.3548538    235.65067    10780.993   -3172.4391   -6901.6014    270.97388   -683.46634    -2056.678    82.588723 
   82600    180.74943   -110.23401   0.16354588   -110.07046   -666.33017    4.3580704    4.3580704    4.3580704   -666.33017    8064.7082   -4775.2675   -5288.4313    570.16503    -1249.387    1797.4038    82.771862 
   82700    176.71447   -110.23009   0.15989496    -110.0702    2523.2516    4.3551995    4.3551995    4.3551995    2523.2516    11803.364   -374.11034   -3859.4989    3462.3433    853.56149   -356.69706    82.608393 
   82800    197.07362   -110.24903   0.17831635   -110.07072    38.340933    4.3555953    4.3555953    4.3555953    38.340933    7957.4754   -2764.1449   -5078.3077    919.29375    1820.1998   -1079.6389    82.630915 
   82900    176.04932   -110.23006   0.15929312   -110.07077    218.24694    4.3573963    4.3573963    4.3573963    218.24694    1615.5938    1281.7877   -2242.6406    1576.2119    1917.0207    778.11416    82.733461 
   83000    277.61482   -110.32137   0.25119173   -110.07018   -3794.3597    4.3556759    4.3556759    4.3556759   -3794.3597   -5900.7051   -3120.4556   -2361.9185    807.35054    1425.7066   -1866.0457    82.635501 
   83100    167.23851   -110.22289   0.15132092   -110.07157    1992.7119    4.3562311    4.3562311    4.3562311    1992.7119    710.54593    3958.2603    1309.3294    129.13387   -808.56662    433.35629    82.667106 
   83200     258.1959   -110.30445   0.23362108   -110.07083    -3017.229    4.3560522    4.3560522    4.3560522    -3017.229   -2035.3853   -3125.2518     -3891.05   -338.71184   -426.41338    -768.0955    82.656924 
   83300    193.67722   -110.24637   0.17524322   -110.07113    1499.7145     4.356417     4.356417     4.356417    1499.7145    4180.6483    1292.8299   -974.33472    232.56764   -1434.8792    758.39974    82.677693 
   83400    174.75478   -110.22919    0.1581218   -110.07107    1879.4355    4.3559432    4.3559432    4.3559432    1879.4355    12265.815   -348.36423   -6279.1443    1031.4097   -1751.5085   -698.00467    82.650717 
   83500    180.39549   -110.23422   0.16322563   -110.07099    2405.8653    4.3546243    4.3546243    4.3546243    2405.8653     9739.365    2278.4135   -4800.1828    294.08053   -536.94235    627.66037    82.575663 
   83600    198.91666   -110.25061   0.17998397   -110.07062    158.11032    4.3576521    4.3576521    4.3576521    158.11032    10637.851   -2849.9664   -7313.5539      2757.95    140.55851    1396.6853    82.748031 
   83700    155.99885   -110.21206   0.14115104   -110.07091    1955.8973     4.355297     4.355297     4.355297    1955.8973    4230.0352    6810.0153   -5172.3587     1098.531    1537.7722   -2166.1127    82.613939 
   83800    244.98866   -110.29172   0.22167089   -110.07005   -2666.4932    4.3548529    4.3548529    4.3548529   -2666.4932    2436.0584   -4922.4792   -5513.0587    186.38419     1100.824    2266.9369    82.588672 
   83900    194.41321   -110.24607   0.17590915   -110.07016   -1324.7825    4.3584506    4.3584506    4.3584506   -1324.7825   -7143.4558     5576.133   -2407.0247    519.91446    571.36875   -958.25216    82.793525 
   84000    268.58695    -110.3136   0.24302311   -110.07058   -6419.4567    4.3549955    4.3549955    4.3549955   -6419.4567   -4279.6743   -8733.4839   -6245.2119   -736.71373    155.21721   -198.04558    82.596782 
   84100    138.00811   -110.19655   0.12487264   -110.07168    2682.6535    4.3552987    4.3552987    4.3552987    2682.6535    1751.7264    4919.2961    1376.9379     -1.25482   -1178.7938     3488.866    82.614037 
   84200    303.43901   -110.34461     0.274558   -110.07006   -8211.7177    4.3589293    4.3589293    4.3589293   -8211.7177   -4908.8497   -9389.9843   -10336.319    27.665937   -1652.3191   -941.43916    82.820809 
   84300    64.032393   -110.12966  0.057937855   -110.07172    6295.1031    4.3535436    4.3535436    4.3535436    6295.1031    13282.419    5281.9139    320.97689    2472.9537   -2191.6279    3119.0049      82.5142 
   84400    252.62285   -110.29896   0.22857846   -110.07038   -3843.3938    4.3569169    4.3569169    4.3569169   -3843.3938    5467.0744   -6626.7506   -10370.505   -115.68203   -789.77609    574.22406    82.706155 
   84500    109.69464   -110.17029  0.099254019   -110.07103    5599.3931    4.3563615    4.3563615    4.3563615    5599.3931    10124.348    10869.979   -4196.1483    3549.0044   -290.25213    1458.9741    82.674531 
   84600    230.40064   -110.27978   0.20847134   -110.07131   -3274.6395    4.3554653    4.3554653    4.3554653   -3274.6395    4192.3696   -5658.1259   -8358.1622    2111.0012   -224.90631   -387.16058    82.623515 
   84700    154.17033   -110.21043   0.13949655   -110.07093     2708.477    4.3566873    4.3566873    4.3566873     2708.477    2665.1415    10668.055   -5207.7655   -221.99928    1624.4222    3.7197954    82.693078 
   84800     300.1069    -110.3412   0.27154303   -110.06966    -5276.841    4.3560757    4.3560757    4.3560757    -5276.841   -5150.6188   -5200.5553   -5479.3488    1316.6376    919.90456    268.62062    82.658261 
   84900    169.02422   -110.22381   0.15293666   -110.07087    -194.9588    4.3567686    4.3567686    4.3567686    -194.9588   -4762.2111    5631.0178   -1453.6831    -1856.971     659.6931   -1513.2408    82.697712 
   85000    263.80881   -110.30912   0.23869975   -110.07042   -3106.7196    4.3561608    4.3561608    4.3561608   -3106.7196   -3499.5949    545.26757   -6365.8316    608.93107   -331.20147    2404.8708    82.663105 
   85100    205.38938   -110.25616   0.18584063   -110.07032    2393.9394    4.3553801    4.3553801    4.3553801    2393.9394   -2577.6607    5270.7156    4488.7633   -343.10624   -1147.8287   -93.239565    82.618668 
   85200     184.4143   -110.23761   0.16686194   -110.07075    229.44839    4.3573512    4.3573512    4.3573512    229.44839    4028.8812    4075.7098   -7416.2458    1551.8397   -1259.3044    366.59363    82.730888 
   85300    143.73183   -110.20084   0.13005158   -110.07079    5340.0511    4.3547704    4.3547704    4.3547704    5340.0511    9023.6615    7140.3808   -143.88902    2070.9495   -1924.4244     1353.495    82.583975 
   85400    208.66532   -110.25872   0.18880476   -110.06992    2767.4497     4.355739     4.355739     4.355739    2767.4497     10789.19     2224.573   -4711.4138    1536.6891   -946.22574   -1124.3327    82.639094 
   85500    148.78506   -110.20615   0.13462385   -110.07152    2048.5155    4.3569388    4.3569388    4.3569388    2048.5155     10538.78    2163.4654   -6556.6986    2316.0229   -1340.4045    191.92606    82.707402 
   85600    199.49058   -110.25198   0.18050327   -110.07147    489.82336     4.354349     4.354349     4.354349    489.82336    8479.3444   -1102.3529   -5907.5214   -1022.3533    572.21714   -2463.4877    82.560005 
   85700    252.33107   -110.29896   0.22831445   -110.07064   -2545.6066    4.3579899    4.3579899    4.3579899   -2545.6066    93.800363   -750.55555   -6980.0645    717.09088    1831.3408   -29.975863    82.767274 
   85800    229.03975    -110.2783   0.20723998   -110.07106    -4421.288    4.3563948    4.3563948    4.3563948    -4421.288   -2353.3505   -1898.6366   -9011.8768   -1077.4403    834.07418   -2453.9908    82.676425 
   85900    220.41112   -110.27007   0.19943261   -110.07063   -2919.1091    4.3554821    4.3554821    4.3554821   -2919.1091   -1378.1362   -2661.9226   -4717.2686    43.775748    1532.3202   -553.82525    82.624471 
   86000    263.89755    -110.3089   0.23878005   -110.07012   -4439.4539    4.3585839    4.3585839    4.3585839   -4439.4539   -5853.5017    2205.0995   -9669.9595     1198.923   -18.565904    1165.6244    82.801124 
   86100    161.97503   -110.21728   0.14655841   -110.07072    251.03761    4.3553525    4.3553525    4.3553525    251.03761    7870.8232   -3981.1356   -3136.5748    1648.7917    -422.9475   -2115.4394    82.617097 
   86200     157.8023   -110.21367   0.14278283   -110.07089    1348.4664    4.3564103    4.3564103    4.3564103    1348.4664    10327.797     1672.391   -7954.7889      2325.03   -2379.9528    2575.5757     82.67731 
   86300    187.61496   -110.23973   0.16975796   -110.06998    1245.3874    4.3574913    4.3574913    4.3574913    1245.3874    13423.917   -4164.0831    -5523.672    948.92918   -2479.2153   -496.49502    82.738868 
   86400    111.86342   -110.17203   0.10121638   -110.07081    3718.5078    4.3552911    4.3552911    4.3552911    3718.5078    15470.191    84.141944   -4398.8099    1737.6391   -2243.6684   -909.15588    82.613603 
   86500    216.35698   -110.26592   0.19576434   -110.07016   -2249.3658     4.357133     4.357133     4.357133   -2249.3658    6944.7261   -5299.4428   -8393.3806   -1030.4289   -1888.5731    1107.8764     82.71846 
   86600    180.55551   -110.23351   0.16337042   -110.07014    2044.7583    4.3563327    4.3563327    4.3563327    2044.7583    2965.2663    6332.7273   -3163.7189   -1040.3066    -548.1249   -2996.3486    82.672892 
   86700     264.6714   -110.31009   0.23948025   -110.07061   -5547.1129    4.3566611    4.3566611    4.3566611   -5547.1129    -4341.316     -4722.26   -7577.7627   -738.90521   -745.86024   -623.70271    82.691588 
   86800    181.13116   -110.23467   0.16389128   -110.07078    139.97116    4.3571756    4.3571756    4.3571756    139.97116   -3512.8055    12366.161   -8433.4421    44.876259     1510.152   -749.91773    82.720887 
   86900    287.74806   -110.32997    0.2603605   -110.06961   -3473.3712    4.3554281    4.3554281    4.3554281   -3473.3712   -2288.7415   -3444.1776   -4687.1947    1586.2355    1787.8519   -619.92061    82.621401 
   87000    156.62102   -110.21257   0.14171399   -110.07086    1485.1246    4.3573357    4.3573357    4.3573357    1485.1246    6366.8707    10119.666   -12031.163    1619.1914    583.03485   -244.59732    82.730005 
   87100    206.36908   -110.25769   0.18672708   -110.07097    319.30809    4.3558674    4.3558674    4.3558674    319.30809    12557.727   -4482.0008   -7117.8018    1511.3189    590.18447    1554.0834    82.646401 
   87200    166.66058   -110.22153     0.150798   -110.07073    4992.0055    4.3554206    4.3554206    4.3554206    4992.0055    16649.254    6455.0866   -8128.3239    616.98597   -833.16458     1392.803    82.620971 
   87300    205.39959    -110.2567   0.18584986   -110.07085   -1296.8286    4.3577826    4.3577826    4.3577826   -1296.8286    11550.737   -5784.2689    -9656.954   -958.39319   -1167.7178   -283.35713    82.755464 
   87400    142.93593   -110.20026   0.12933143   -110.07093    3493.6562     4.354947     4.354947     4.354947    3493.6562    10211.601     4539.352   -4269.9843    -2390.494   -2358.0328    2729.2307    82.594024 
   87500     297.9325   -110.33902   0.26957559   -110.06944   -4803.7749    4.3574563    4.3574563    4.3574563   -4803.7749   -2372.0815   -4608.0641    -7431.179   -1145.7102   -2133.5635   -560.56509    82.736879 
   87600    169.23646   -110.22346    0.1531287   -110.07033   -133.99037    4.3573324    4.3573324    4.3573324   -133.99037    -2865.745    6080.3309   -3616.5569   -767.30892   -101.53669    -974.8977    82.729816 
   87700    253.78362   -110.29982   0.22962875   -110.07019   -4450.1758    4.3554467    4.3554467    4.3554467   -4450.1758   -1938.2254   -7462.0031   -3950.2989    1207.0266     403.3156    1812.2908    82.622459 
   87800    189.82243   -110.24212   0.17175533   -110.07036    500.94436    4.3583851    4.3583851    4.3583851    500.94436     1792.785    5771.3163   -6061.2682    737.78711    2610.1142    -1621.162    82.789795 
   87900     183.5371   -110.23649   0.16606823   -110.07042   -833.58813    4.3562085    4.3562085    4.3562085   -833.58813    11751.596    -10517.13   -3735.2296    2103.7309    1923.6853    867.80117    82.665822 
   88000    108.42852   -110.16911  0.098108403     -110.071    4399.0576    4.3554343    4.3554343    4.3554343    4399.0576    20053.155    2504.7934   -9360.7759    1322.6011    2667.9519    1540.6526    82.621751 
   88100    213.52994   -110.26335   0.19320638   -110.07014   -1110.3027    4.3586865    4.3586865    4.3586865   -1110.3027    14297.441   -11609.316   -6019.0325    4.4385909    1600.9031   -216.31692    82.806972 
   88200    115.35912   -110.17593   0.10437935   -110.07156    3822.8735    4.3545551    4.3545551    4.3545551    3822.8735    16402.424    2176.7045   -7110.5075    -1104.761   -283.07059     2538.767    82.571729 
   88300    279.04568   -110.32272   0.25248639   -110.07023    -6766.877    4.3577174    4.3577174    4.3577174    -6766.877    1147.1372   -10164.953   -11282.815   -958.08821    -61.36681    628.14843     82.75175 
   88400    211.08366   -110.26106   0.19099293   -110.07007   -1081.6595     4.357876     4.357876     4.357876   -1081.6595    -3299.986    4105.6205   -4050.6131     117.2057   -1778.6309    1169.1801    82.760784 
   88500    291.31846   -110.33339   0.26359106   -110.06979   -7081.3176    4.3552334    4.3552334    4.3552334   -7081.3176   -2886.9812   -8091.5411   -10265.431   -794.30621   -582.69751    848.50913    82.610321 
   88600    175.79199   -110.22982   0.15906028   -110.07076    450.77931    4.3576498    4.3576498    4.3576498    450.77931    1604.2674    5843.1442   -6095.0737     1084.493   -888.21036    534.21455      82.7479 
   88700     250.0404   -110.29608   0.22624181   -110.06984   -1082.3446    4.3565376    4.3565376    4.3565376   -1082.3446    7874.8778    -5953.802   -5168.1096    603.98216    173.77011    253.52205    82.684557 
   88800    117.01301   -110.17683   0.10587583   -110.07095    5578.3371    4.3548177    4.3548177    4.3548177    5578.3371    19004.632    4269.3014   -6538.9223    1610.2335    945.48227   -551.17607    82.586666 
   88900    172.81041   -110.22734   0.15636249   -110.07098    2153.7035    4.3569282    4.3569282    4.3569282    2153.7035    15941.324   -5462.5586   -4017.6545     680.1911    1444.9067    1007.8893    82.706798 
   89000    168.18428   -110.22295   0.15217667   -110.07078      4773.65    4.3552846    4.3552846    4.3552846      4773.65    13732.341      4929.91   -4341.3011   -1136.7137     2420.631   -782.26788    82.613236 
   89100    223.40854   -110.27293   0.20214474   -110.07078   -1598.4382    4.3564916    4.3564916    4.3564916   -1598.4382    4156.3865   -4143.3687   -4808.3324    410.83873   -483.32958    350.05402    82.681937 
   89200    191.05283   -110.24342   0.17286862   -110.07056    1090.9047    4.3564493    4.3564493    4.3564493    1090.9047   -2271.3343    7914.7851   -2370.7367   -939.40388    905.55132    2037.4433    82.679527 
   89300    319.35692   -110.35876   0.28896086    -110.0698   -5044.3995     4.355888     4.355888     4.355888   -5044.3995   -5634.6269   -4117.5991   -5380.9725      503.064   -98.755478      -1211.4    82.647577 
   89400    153.03343   -110.20933   0.13846786   -110.07087    1353.9673    4.3572875    4.3572875    4.3572875    1353.9673   -466.70545    8439.2425   -3910.6352    351.86854   -1363.8607    2148.9402    82.727264 
   89500    243.62293   -110.29116   0.22043515   -110.07072   -1995.3592    4.3556821    4.3556821    4.3556821   -1995.3592    7659.9882   -7286.6953   -6359.3706    772.47677   -1149.4043    520.69034    82.635854 
   89600    140.85587   -110.19837   0.12744935   -110.07092    5779.3924    4.3561177    4.3561177    4.3561177    5779.3924    15329.735    7531.4561   -5523.0144    1295.8931   -1121.0619    138.16945    82.660652 
   89700      155.572    -110.2122   0.14076481   -110.07144    1382.9046    4.3566061    4.3566061    4.3566061    1382.9046    19086.174   -8783.8026   -6153.6573    -224.2133    1029.6026    824.62094    82.688457 
   89800    145.09903   -110.20277   0.13128865   -110.07148    3466.5683    4.3555701    4.3555701    4.3555701    3466.5683    14814.883    2666.4784   -7081.6569   -272.06633    291.47728    5.3702287    82.629481 
   89900    242.33735   -110.28959   0.21927193   -110.07032   -1679.3063     4.357459     4.357459     4.357459   -1679.3063     5963.419   -6609.1219   -4392.2159   -1098.2825    1603.1074    722.13494    82.737033 
   90000    193.25895   -110.24559   0.17486476   -110.07072   -1882.2479    4.3559695    4.3559695    4.3559695   -1882.2479    293.77423    1078.2135   -7018.7314   -532.13137    453.09509    168.10225    82.652211 
   90100    272.36009   -110.31651   0.24643714   -110.07007   -5712.5138    4.3570932    4.3570932    4.3570932   -5712.5138   -3530.7792   -7410.3277   -6196.4345    465.71099     312.0017    1310.0329    82.716192 
   90200    229.72596   -110.27749   0.20786087   -110.06963   -767.33326    4.3573081    4.3573081    4.3573081   -767.33326   -1390.8049    3461.9492   -4373.1441    959.19347    611.94825   -138.27483    82.728432 
   90300    207.11332   -110.25795   0.18740049   -110.07055   -2141.8274    4.3552953    4.3552953    4.3552953   -2141.8274    8631.5689   -8044.0294   -7013.0217    1509.4199    -1384.446    158.94344    82.613844 
   90400    137.22504   -110.19511    0.1241641   -110.07095    2790.5392    4.3570254    4.3570254    4.3570254    2790.5392    14488.086   -780.69888   -5335.7698    700.28301   -433.91228    1831.8154    82.712332 
   90500    217.54953   -110.26691   0.19684339   -110.07006    130.13444    4.3568085    4.3568085    4.3568085    130.13444    15422.065   -7725.5592   -7306.1029    348.09097   -361.39988    -1511.192    82.699985 
   90600    100.03729   -110.16205  0.090515842   -110.07153    4492.6345    4.3541016    4.3541016    4.3541016    4492.6345    19109.121     1078.959   -6710.1769   -151.09402    788.88052    1760.9619    82.545933 
   90700    235.27368   -110.28362   0.21288057   -110.07074   -4397.5707    4.3580196    4.3580196    4.3580196   -4397.5707     2149.072   -8771.3988   -6570.3853   -1120.9587    688.95406    989.34303    82.768966 
   90800    213.88069   -110.26463   0.19352374    -110.0711   -66.990363    4.3561205    4.3561205    4.3561205   -66.990363    1359.1737     5219.487   -6779.6318   -1278.8061    1457.4125   -683.56818    82.660809 
   90900    243.91777   -110.29182   0.22070192   -110.07112   -4441.2955    4.3550576    4.3550576    4.3550576   -4441.2955   -5002.6447   -4006.2751   -4314.9666   -759.14728    1209.2145    3263.1986    82.600317 
   91000    198.46921    -110.2504   0.17957911   -110.07082   -2949.8941    4.3584085    4.3584085    4.3584085   -2949.8941   -5327.1813    4284.5686   -7807.0695    991.78258   -300.43023   -101.28209    82.791128 
   91100    262.59337   -110.30741       0.2376   -110.06981   -3312.5415    4.3561464    4.3561464    4.3561464   -3312.5415    -1700.873   -3775.2175    -4461.534    973.99969    573.84842    1344.1536    82.662285 
   91200    117.41101   -110.17735   0.10623594   -110.07111    4611.2398    4.3546572    4.3546572    4.3546572    4611.2398    15121.812     4028.918   -5317.0108    947.12722   -1184.1118    1641.5447    82.577533 
   91300    203.94767   -110.25567   0.18453614   -110.07113   -983.11938    4.3576522    4.3576522    4.3576522   -983.11938    9684.3838   -6005.2566   -6628.4853    1022.1685   -342.20968    299.28071    82.748038 
   91400    151.25535   -110.20786   0.13685902     -110.071    4211.1217    4.3561072    4.3561072    4.3561072    4211.1217    15780.958     1009.857   -4157.4495   -728.03507   -787.48679     405.8387    82.660052 
   91500    182.03359   -110.23534   0.16470781   -110.07063    1179.7531     4.355332     4.355332     4.355332    1179.7531     12228.14   -1621.2486   -7067.6322   -1709.7746    25.582741    280.62839    82.615933 
   91600    207.56995   -110.25785   0.18781365   -110.07004   -796.58056    4.3574288    4.3574288    4.3574288   -796.58056    2223.8383    2055.1255   -6668.7055   -1470.7892   -429.00613    1215.0915    82.735311 
   91700    253.13133   -110.29863   0.22903854   -110.06959   -2265.0019    4.3570177    4.3570177    4.3570177   -2265.0019   -1276.7809   -655.00195   -4863.2227   -1423.0508    1086.9989   -1156.5255    82.711897 
   91800    236.60891   -110.28426   0.21408872   -110.07017   -2778.4656    4.3556228    4.3556228    4.3556228   -2778.4656   -4200.8794    3876.2457   -8010.7632    599.62261    1107.3213    2588.9398    82.632482 
   91900    207.79708   -110.25914   0.18801917   -110.07112   -1349.0762    4.3569724    4.3569724    4.3569724   -1349.0762    726.48382   -2798.3449   -1975.3675    630.28513   -1200.6813     204.6005    82.709315 
   92000    247.83823   -110.29443   0.22424923   -110.07018   -2521.6163    4.3574751    4.3574751    4.3574751   -2521.6163    2687.2596   -693.07219   -9559.0362    2033.8862    331.36048   -440.89768    82.737949 
   92100    130.22068   -110.18924   0.11782641   -110.07141    3615.2673    4.3551706    4.3551706    4.3551706    3615.2673    16694.782   -4021.5868   -1827.3937    281.01923   -1646.2597    1889.2766    82.606746 
   92200    179.78459   -110.23336   0.16267287   -110.07069    1117.5778     4.356527     4.356527     4.356527    1117.5778    12784.578   -3072.4464   -6359.3985     324.5405   -691.94426   -1295.4403    82.683952 
   92300      177.061   -110.23085   0.16020851   -110.07064    1993.7072    4.3568806    4.3568806    4.3568806    1993.7072    11537.356   -2628.3334   -2927.9006   -1700.6835   -2110.1689   -230.67467    82.704088 
   92400    161.63193   -110.21809   0.14624796   -110.07184    1489.6148    4.3549025    4.3549025    4.3549025    1489.6148    6769.2382    426.97091   -2727.3647   -2744.4658   -1656.6052   -540.94166    82.591493 
   92500    208.83007   -110.25981   0.18895383   -110.07086   -1479.7532    4.3571743    4.3571743    4.3571743   -1479.7532   -1543.1906     840.7435   -3736.8125   -603.40253   -652.73538   -1037.8155    82.720815 
   92600    248.78058   -110.29534   0.22510189   -110.07024   -2947.2918    4.3572627    4.3572627    4.3572627   -2947.2918   -7245.0547    2216.5544    -3813.375   -1411.5802   -604.14644   -937.17773    82.725849 
   92700    190.56887   -110.24301   0.17243072   -110.07058   -828.99005     4.354993     4.354993     4.354993   -828.99005   -3356.2808    1987.7769   -1118.4662     1308.231    1398.3209    182.21635    82.596643 
   92800    261.99688   -110.30701   0.23706028   -110.06995   -5000.0433    4.3576565    4.3576565    4.3576565   -5000.0433   -4539.9517   -2490.0584   -7970.1199    1002.5849    217.81707    1312.3623    82.748282 
   92900    190.77874   -110.24305   0.17262061   -110.07043    1194.3394    4.3568469    4.3568469    4.3568469    1194.3394   -438.20998    1553.8025    2467.4255     1659.501    989.67656    82.323782    82.702168 
   93000    226.64841    -110.2756   0.20507624   -110.07052   -2156.1997    4.3551449    4.3551449    4.3551449   -2156.1997    9777.5918    -6265.985   -9980.2059   -93.250306    241.05941    2594.2614    82.605286 
   93100    127.74771    -110.1869   0.11558881   -110.07131    4352.7426    4.3571688    4.3571688    4.3571688    4352.7426    5684.3897    6620.0771    753.76093   -1872.9309   -682.00064    1541.1808    82.720502 
   93200    247.83888   -110.29411   0.22424982   -110.06986   -860.77207    4.3565669    4.3565669    4.3565669   -860.77207    8266.1422   -3543.7088   -7304.7496   -929.70057   -636.55777    -555.1957    82.686226 
   93300    75.812846   -110.14007  0.068597056   -110.07147    6967.1048     4.355065     4.355065     4.355065    6967.1048    8010.9718    12452.682    437.66064   -3784.3257   -1972.9069    1309.4285    82.600735 
   93400    238.07881   -110.28654   0.21541871   -110.07112   -2750.1133    4.3571141    4.3571141    4.3571141   -2750.1133   -2515.8683   -1722.0159   -4012.4555   -807.69869   -940.05252   -1233.0242    82.717383 
   93500    148.20203   -110.20512   0.13409631   -110.07103    4639.1777    4.3562676    4.3562676    4.3562676    4639.1777   -1250.0629    12596.813    2570.7828   -1515.0905   -1853.7795   -875.49126    82.669185 
   93600    245.89708   -110.29288   0.22249285   -110.07039   -4529.3281     4.356929     4.356929     4.356929   -4529.3281   -9067.5184   -1978.6843   -2541.7817    297.80757    106.22634   -248.23194    82.706844 
   93700    193.78156   -110.24525   0.17533763   -110.06992   -917.21095    4.3568457    4.3568457    4.3568457   -917.21095    -7408.759    5020.3913   -363.26519    1517.0287    526.27963    1025.9736    82.702101 
   93800    303.44401   -110.34389   0.27456252   -110.06933   -5560.1592    4.3565834    4.3565834    4.3565834   -5560.1592   -11020.577   -4033.9721   -1625.9287    484.04519     455.7622     44.43969    82.687165 
   93900    192.32787   -110.24489    0.1740223   -110.07087   -2327.9524    4.3567423    4.3567423    4.3567423   -2327.9524    -6969.535     3494.068   -3508.3901    1978.6432    2161.5715     2986.138    82.696214 
   94000    248.03581   -110.29526   0.22442801   -110.07083     -4913.14    4.3571356    4.3571356    4.3571356     -4913.14   -7557.4366    749.98863   -7931.9719   -1238.9452    54.037338    1508.5104    82.718611 
   94100    197.75463   -110.24925   0.17893254   -110.07032    1785.4311    4.3559806    4.3559806    4.3559806    1785.4311    -4039.195    9146.7294    248.75894   -205.80751    319.29299   -1320.8399    82.652844 
   94200    188.54359   -110.24148    0.1705982   -110.07088   -753.72517    4.3567323    4.3567323    4.3567323   -753.72517   -935.81178    6630.8254   -7956.1891   -2785.1221   -447.79107    1147.0987    82.695645 
   94300    143.85576    -110.2016   0.13016372   -110.07144    2727.8854     4.356383     4.356383     4.356383    2727.8854    2247.4976    4149.0108    1787.1479   -2740.8097   -2456.7372   -2046.2549    82.675752 
   94400    189.20958   -110.24235    0.1712008   -110.07115    3628.5885    4.3554175    4.3554175    4.3554175    3628.5885    4139.0075    6300.5246    446.23335   -645.67905   -2594.7495   -1383.5088    82.620796 
   94500    172.11783   -110.22724   0.15573583   -110.07151    924.37612    4.3561907    4.3561907    4.3561907    924.37612    6431.4292    -4398.324     740.0232   -2362.5199   -2130.1157    376.77891    82.664804 
   94600     143.6778   -110.20135   0.13000269   -110.07135    2152.0175    4.3567285    4.3567285    4.3567285    2152.0175    2399.3964    3493.0046    563.65152     2184.213   -2521.9654     1213.577    82.695428 
   94700    252.43881   -110.29843   0.22841194   -110.07002   -936.60501     4.356157     4.356157     4.356157   -936.60501   -436.23113    1283.3499   -3656.9338   -283.07537     -772.989    743.27236    82.662887 
   94800    149.66046   -110.20596   0.13541593   -110.07054    1958.7473    4.3563353    4.3563353    4.3563353    1958.7473   -843.61104     3670.116    3049.7371    2698.0659    693.35712    1996.0981    82.673039 
   94900    273.77283     -110.318   0.24771541   -110.07028   -6189.2437    4.3567277    4.3567277    4.3567277   -6189.2437   -9049.7592    1249.7143   -10767.686    378.10418    480.64854     1775.008    82.695382 
   95000    186.73706   -110.23956   0.16896362    -110.0706    2450.0617    4.3558079    4.3558079    4.3558079    2450.0617   -6611.4785    9395.6155    4566.0481    47.102956    1503.2579     -665.889    82.643013 
   95100    287.30763   -110.33017   0.25996198   -110.07021   -6433.5797    4.3565477    4.3565477    4.3565477   -6433.5797     -9704.45   -2612.8393   -6983.4498    497.73786      693.942    1042.3268    82.685132 
   95200    159.57624   -110.21568   0.14438794   -110.07129     112.6763    4.3568309    4.3568309    4.3568309     112.6763   -4851.2309    4692.7974    496.46239   -3070.1765    1146.4067    267.38255    82.701257 
   95300    282.42015    -110.3257   0.25553969   -110.07016   -3816.5107    4.3563525    4.3563525    4.3563525   -3816.5107   -5525.3214    -4493.125   -1431.0858    1690.9465   -1832.1145    -675.3211     82.67402 
   95400    118.65395   -110.17866   0.10736059    -110.0713    3674.3167    4.3555899    4.3555899    4.3555899    3674.3167     3505.235    6735.1527    782.56231    -844.2973   -900.44524    3206.4317    82.630605 
   95500    209.15738   -110.26038   0.18924999   -110.07113   -2729.0785    4.3567298    4.3567298    4.3567298   -2729.0785    2249.8491    -4989.021   -5448.0634    1758.8585   -1533.2054     1046.994    82.695503 
   95600    103.62926   -110.16555  0.093765932   -110.07178    7452.7931     4.355088     4.355088     4.355088    7452.7931    7865.2763     13488.24     1004.863    1580.4998   -2614.2479    1213.5967    82.602046 
   95700    222.90943   -110.27288   0.20169313   -110.07118   -1477.9479    4.3560841    4.3560841    4.3560841   -1477.9479    5587.9251   -1258.4436   -8763.3253    1567.0813   -484.90167    1432.5385    82.658736 
   95800    104.60553   -110.16638  0.094649286   -110.07173    4120.4495    4.3568303    4.3568303    4.3568303    4120.4495    4271.3656    10663.415   -2573.4325    1743.9112   -909.94535    1560.0891    82.701221 
   95900     286.4916   -110.32929   0.25922362   -110.07006   -3780.1269    4.3561322    4.3561322    4.3561322   -3780.1269   -181.97999   -1014.1044   -10144.296   -972.77894    176.26882   -795.11306    82.661478 
   96000    187.75407   -110.24059   0.16988383    -110.0707    741.71335    4.3555553    4.3555553    4.3555553    741.71335    -2001.351    6895.0832   -2668.5922    180.25674     294.2616     1031.432    82.628639 
   96100    256.01998    -110.3019   0.23165226   -110.07024    -5273.704    4.3577979    4.3577979    4.3577979    -5273.704   -5979.7019    2520.0591   -12361.469   -1472.2517    841.84363     1329.036    82.756336 
   96200    253.68287   -110.29971   0.22953759   -110.07017   -1641.5794    4.3558048    4.3558048    4.3558048   -1641.5794   -8183.2059    6271.2723   -3012.8047    63.343292    336.89368   -582.85207    82.642837 
   96300    202.39021   -110.25354   0.18312691   -110.07041    209.20313    4.3559483    4.3559483    4.3559483    209.20313   -4320.1802      12653.8   -7706.0102    1523.2254   -590.87376    2405.9699    82.651008 
   96400    221.19934   -110.27035   0.20014581   -110.07021   -2840.7072    4.3579889    4.3579889    4.3579889   -2840.7072   -1643.9126   -486.86224   -6391.3467    1081.0602    137.85863    1188.0196    82.767217 
   96500    158.49231    -110.2138   0.14340717    -110.0704    4472.2501    4.3552928    4.3552928    4.3552928    4472.2501    3316.2512    14331.706   -4231.2064    2254.4328   -2602.9491    153.49747    82.613702 
   96600    200.23669   -110.25141   0.18117836   -110.07023    574.42044    4.3558294    4.3558294    4.3558294    574.42044    11872.732   -5576.8147   -4572.6565    428.56109   -2035.2864     1665.129    82.644242 
   96700    119.90165   -110.17981   0.10848953   -110.07132    2711.9819    4.3572335    4.3572335    4.3572335    2711.9819    9175.7482    6138.9977   -7178.8001   -81.649045   -1542.7197    -62.05824    82.724187 
   96800    185.93078   -110.23867   0.16823408   -110.07043    1607.1025    4.3562104    4.3562104    4.3562104    1607.1025    8629.1873   -768.38135   -3039.4986   -2064.1811   -3831.6265   -1183.2089    82.665926 
   96900    178.11813    -110.2317   0.16116503   -110.07053    1314.9344    4.3562214    4.3562214    4.3562214    1314.9344    4369.3584     7017.127   -7441.6822   -1813.0884   -614.95963    299.77508    82.666553 
   97000    180.43629   -110.23429   0.16326255   -110.07102   -1322.4842    4.3565122    4.3565122    4.3565122   -1322.4842   -1304.0598    952.57089   -3615.9638   -1371.6223    -1849.115    -902.0432     82.68311 
   97100    258.67147   -110.30444   0.23405138   -110.07039   -4619.3409     4.357569     4.357569     4.357569   -4619.3409   -8109.0352    4174.4097   -9923.3972    54.974277    5.2862738   -1079.4564    82.743298 
   97200    218.30207   -110.26792    0.1975243   -110.07039   -1622.2947    4.3559303    4.3559303    4.3559303   -1622.2947   -5595.7345    2085.8771   -1357.0267    2559.6239    895.56786    603.75414     82.64998 
   97300    252.15182    -110.2981   0.22815227   -110.06995   -6222.5521    4.3566403    4.3566403    4.3566403   -6222.5521   -4472.7226   -3102.6154   -11092.318    725.93426   -13.487344    1029.8766    82.690404 
   97400    229.37482   -110.27782   0.20754316   -110.07028   -3351.4749    4.3583313    4.3583313    4.3583313   -3351.4749    -3954.673   -818.59231   -5281.1595    1601.4713    1412.5381   -465.48749    82.786729 
   97500     200.5986   -110.25167   0.18150583   -110.07017    803.47909    4.3552855    4.3552855    4.3552855    803.47909     8851.984   -181.61409   -6259.9327     -289.173   -579.54623    1323.0722    82.613283 
   97600    172.17015   -110.22687   0.15578317   -110.07109    861.14317    4.3556423    4.3556423    4.3556423    861.14317    7037.2881    223.19199   -4677.0506   -1662.2761    -139.4548    521.11536    82.633588 
   97700    162.99376   -110.21858   0.14748018    -110.0711    1944.2551    4.3578758    4.3578758    4.3578758    1944.2551    8908.5195    4707.5628    -7783.317   -3694.8317   -1974.8838   -2021.9301    82.760772 
   97800     152.5985   -110.20902   0.13807433   -110.07095    5686.7453    4.3549541    4.3549541    4.3549541    5686.7453    7462.5918    6698.0778    2899.5664   -2263.8791   -2133.4636   -567.06579    82.594428 
   97900    171.23492   -110.22588   0.15493695   -110.07094    2379.9762    4.3561862    4.3561862    4.3561862    2379.9762    4152.3618    8872.4877   -5884.9209   -1742.8172   -1569.5345   -1734.0555    82.664551 
   98000    181.67941   -110.23482   0.16438735   -110.07043    952.09508    4.3583035    4.3583035    4.3583035    952.09508   -1693.2899    916.99514      3632.58   -166.32456   -2481.4368   -2214.0583    82.785142 
   98100    270.64849   -110.31509   0.24488844    -110.0702   -2530.7317    4.3555308    4.3555308    4.3555308   -2530.7317   -5766.9988    1235.2983   -3060.4946    1932.1448    3.0006888    1372.1941    82.627242 
   98200    181.42447   -110.23453   0.16415668   -110.07037    473.78807    4.3564466    4.3564466    4.3564466    473.78807   -2912.1434    1193.3692    3140.1384    1207.9165    237.96156    1328.7053    82.679375 
   98300    300.79438    -110.3413   0.27216507   -110.06914   -7252.4143     4.358764     4.358764     4.358764   -7252.4143   -11419.501   -3523.8682   -6813.8741    2310.7084    1758.3707    962.82522     82.81139 
   98400    198.18795   -110.24916   0.17932462   -110.06983    1166.0588    4.3560331    4.3560331    4.3560331    1166.0588   -979.68057     5720.402   -1242.5451   -19.654669    1740.3273     2879.332    82.655832 
   98500    243.95737   -110.29051   0.22073775   -110.06978   -3097.9758    4.3567168    4.3567168    4.3567168   -3097.9758   -403.48238   -584.77837   -8305.6667   -208.30243    1211.8033    1527.5891    82.694759 
   98600     146.4376   -110.20301   0.13249982   -110.07051    2486.3694    4.3577942    4.3577942    4.3577942    2486.3694    1094.7768    8989.8972   -2625.5659   -1861.5259    727.37312   -483.76949    82.756126 
   98700    222.51899   -110.27094   0.20133986    -110.0696   -676.89484    4.3565135    4.3565135    4.3565135   -676.89484    7381.0448   -2703.4296   -6708.2996   -2890.8612   -1754.2323    285.24247    82.683184 
   98800    85.595569   -110.14865   0.07744867    -110.0712     6551.385    4.3554764    4.3554764    4.3554764     6551.385    6845.4492    7221.1834    5587.5224   -1352.9344   -2260.0192   -1346.5366    82.624146 
   98900     207.1299    -110.2583   0.18741549   -110.07088    -477.1629    4.3569741    4.3569741    4.3569741    -477.1629    5536.6658   -5905.7799   -1062.3746   -2591.3931   -3686.8601   -3359.2826    82.709411 
   99000     134.9286   -110.19359   0.12208623    -110.0715    3848.9886    4.3572539    4.3572539    4.3572539    3848.9886    1784.5143   -608.75339    10371.205    1372.1855    -3026.467    -83.01901    82.725351 
   99100    221.67312   -110.27111    0.2005745   -110.07054   -2453.8952     4.356251     4.356251     4.356251   -2453.8952   -1952.0789   -6664.6784    1255.0716    127.83685    -1526.854   -940.28063    82.668238 
   99200    191.41756   -110.24295   0.17319863   -110.06975   -174.37684     4.356815     4.356815     4.356815   -174.37684   -1419.7655   -3939.0493    4835.6844     847.6198   -1300.2487   -869.37601    82.700353 
   99300    304.42405   -110.34467   0.27544928   -110.06922   -7357.4933    4.3581098    4.3581098    4.3581098   -7357.4933   -10311.782   -7738.6204   -4022.0778     2023.872     1737.502    1797.7294    82.774106 
   99400    197.59105   -110.24894   0.17878454   -110.07016   -1716.6403    4.3561821    4.3561821    4.3561821   -1716.6403    71.310505   -3837.9126   -1383.3186    79.548041    656.06664    974.61802    82.664317 
   99500    275.22212     -110.319   0.24902676   -110.06997   -4947.9139    4.3568942    4.3568942    4.3568942   -4947.9139   -6321.7524   -6633.4986   -1888.4906    689.42792    1432.6265   -552.44707    82.704863 
   99600    202.59789   -110.25371   0.18331483    -110.0704    -553.2738    4.3573579    4.3573579    4.3573579    -553.2738   -609.92858   -1729.0162     679.1234   -1779.8032   -80.967864   -178.84786    82.731271 
   99700    147.34549   -110.20425    0.1333213   -110.07093    2077.4449    4.3560871    4.3560871    4.3560871    2077.4449    4045.8826   -5837.7077    8024.1598   -1067.1866   -1954.6963   -1203.0104     82.65891 
   99800    184.46946   -110.23759   0.16691185   -110.07068     1662.617    4.3563506    4.3563506    4.3563506     1662.617    2028.2091    127.30056    2832.3414   -2611.5294   -1640.8614    -3589.488    82.673908 
   99900    118.56332   -110.17816   0.10727858   -110.07088    5336.3842    4.3561354    4.3561354    4.3561354    5336.3842    7873.2884   -5349.9654     13485.83   -2205.3648   -3297.6566   -347.46286    82.661659 
  100000    190.14958   -110.24343   0.17205134   -110.07138   -1371.0463    4.3561374    4.3561374    4.3561374   -1371.0463    3153.5578   -3809.3949   -3457.3018   -979.57979   -1677.1309   -1.3177355     82.66177 
Loop time of 22.8824 on 1 procs for 100000 steps with 8 atoms

Pair  time (%) = 7.29644 (31.8866)
Kspce time (%) = 5.53585 (24.1926)
Neigh time (%) = 0 (0)
Comm  time (%) = 1.12067 (4.89752)
Outpt time (%) = 0.0279844 (0.122296)
Other time (%) = 8.90148 (38.901)

Nlocal:    8 ave 8 max 8 min
Histogram: 1 0 0 0 0 0 0 0 0 0
Nghost:    2189 ave 2189 max 2189 min
Histogram: 1 0 0 0 0 0 0 0 0 0
Neighs:    2056 ave 2056 max 2056 min
Histogram: 1 0 0 0 0 0 0 0 0 0

Total # of neighbors = 2056
Ave neighs/atom = 257
Neighbor list builds = 0
Dangerous builds = 0
unfix 20
unfix 21
print "seeds:7095731"
seeds:7095731
