LAMMPS (10 Feb 2015)
# ---- initialize simulations
clear
units metal
dimension 3
boundary p p p
atom_style charge
atom_modify map array
# ---- create atoms
read_data /Users/eugeneragasa/pyflamestk_git/pypospack/tests/tests_integration/workflow/WorkflowLammpsThermalExpansion/MgO_NaCl_unit.npt.T500/lammps.structure
  triclinic box = (0 0 0) to (4.2565 4.2565 4.2565) with tilt (0 0 0)
  1 by 1 by 1 MPI processor grid
  reading atoms ...
  8 atoms
# ---- define interatomic potential
include potential.mod
mass 1 24.305
mass 2 15.999

group Mg type 1
4 atoms in group Mg
group O type 2
4 atoms in group O

set group Mg charge 2.0
  4 settings made for charge
set group O charge -2.0
  4 settings made for charge

variable R_cut equal 10.0

pair_style buck/coul/long ${R_cut}
pair_style buck/coul/long 10
pair_coeff 1 1 0.0 0.5 0.0 ${R_cut}
pair_coeff 1 1 0.0 0.5 0.0 10
pair_coeff 1 2 821.6 0.3242 0.0 ${R_cut}
pair_coeff 1 2 821.6 0.3242 0.0 10
pair_coeff 2 2 2274.0 0.149 27.88 ${R_cut}
pair_coeff 2 2 2274.0 0.149 27.88 10

kspace_style pppm 1.0e-5

neighbor 1.0 bin
neigh_modify every 1 delay 0 check yes
# ---- define settings
compute eng all pe/atom
compute eatoms all reduce sum c_eng
# ---- run minimization
reset_timestep 0
fix 1 all box/relax iso 0.0 vmax 0.001
thermo 10
thermo_style custom step pe lx ly lz xy xz yz press pxx pyy pzz pxy pxz pyz c_eatoms
min_style cg
minimize 1e-25 1e-25 5000 10000
PPPM initialization ...
  G vector (1/distance) = 0.354854
  grid = 8 8 8
  stencil order = 5
  estimated absolute RMS force accuracy = 5.34408e-05
  estimated relative force accuracy = 3.71126e-06
  using double precision FFTs
  3d grid and FFT values/proc = 3375 512
Neighbor list info ...
  1 neighbor list requests
  update every 1 steps, delay 0 steps, check yes
  master list distance cutoff = 11
Memory usage per processor = 4.06549 Mbytes
Step PotEng Lx Ly Lz Xy Xz Yz Press Pxx Pyy Pzz Pxy Pxz Pyz eatoms 
       0   -162.12848       4.2565       4.2565       4.2565            0            0            0    -64012.53    -64012.53    -64012.53    -64012.53 -3.8759874e-11 -1.4292379e-10 -3.6687737e-10   -162.12848 
      10   -162.17871     4.213935     4.213935     4.213935            0            0            0   -4821.7526   -4821.7526   -4821.7526   -4821.7526 8.9106085e-11 8.5332225e-11 -4.2335946e-10   -162.17871 
      14   -162.17896    4.2106915    4.2106915    4.2106915            0            0            0    -1.347652    -1.347652    -1.347652    -1.347652 2.5597609e-11 1.0162971e-11 2.8091283e-10   -162.17896 
Loop time of 0.0158122 on 1 procs for 14 steps with 8 atoms

Minimization stats:
  Stopping criterion = linesearch alpha is zero
  Energy initial, next-to-last, final = 
        -162.128476026     -162.178964554     -162.178964554
  Force two-norm initial, final = 9.24344 0.000276677
  Force max component initial, final = 9.24344 0.000190436
  Final line search alpha, max atom move = 0.125 2.38044e-05
  Iterations, force evaluations = 14 33

Pair  time (%) = 0.00428772 (27.1166)
Kspce time (%) = 0.00248384 (15.7084)
Neigh time (%) = 0 (0)
Comm  time (%) = 0.000461578 (2.91914)
Outpt time (%) = 2.09808e-05 (0.132688)
Other time (%) = 0.00855803 (54.1231)

Nlocal:    8 ave 8 max 8 min
Histogram: 1 0 0 0 0 0 0 0 0 0
Nghost:    2189 ave 2189 max 2189 min
Histogram: 1 0 0 0 0 0 0 0 0 0
Neighs:    2344 ave 2344 max 2344 min
Histogram: 1 0 0 0 0 0 0 0 0 0

Total # of neighbors = 2344
Ave neighs/atom = 293
Neighbor list builds = 0
Dangerous builds = 0
unfix 1
# ---- define output variables ----
variable natoms equal "count(all)"
variable tot_energy equal "c_eatoms"
variable length_x equal "lx"
variable length_y equal "ly"
variable length_z equal "lz"
variable tilt_xy equal "xy"
variable tilt_xz equal "xz"
variable tilt_yz equal "yz"
variable tot_press equal "press"
variable press_xx equal "pxx"
variable press_yy equal "pyy"
variable press_zz equal "pzz"
variable press_xy equal "pxy"
variable press_xz equal "pxz"
variable press_yz equal "pyz"

# ---- output ----
print "pypospack:output_section:begin"
pypospack:output_section:begin
print "tot_energy = ${tot_energy}"
tot_energy = -162.17896455406
print "num_atoms = ${natoms}"
num_atoms = 8
print "xx = ${length_x}"
xx = 4.21069146013408
print "yy = ${length_y}"
yy = 4.21069146013408
print "zz = ${length_z}"
zz = 4.21069146013408
print "xy = ${tilt_xy}"
xy = 0
print "xz = ${tilt_xz}"
xz = 0
print "yz = ${tilt_yz}"
yz = 0
print "tot_press = ${tot_press}"
tot_press = -1.34765197939399
print "pxx = ${press_xx}"
pxx = -1.34765197919426
print "pyy = ${press_yy}"
pyy = -1.3476519793348
print "pzz = ${press_zz}"
pzz = -1.34765197965291
print "pxy = ${press_xy}"
pxy = 2.55976090046832e-11
print "pxz = ${press_xz}"
pxz = 1.01629705561986e-11
print "pyz = ${press_yz}"
pyz = 2.80912827691917e-10
print "pypospack:output_section:done"
pypospack:output_section:done
print "pypospack:lammps_sim:done"
pypospack:lammps_sim:done
#------------------------------------------------------------------------------
# RUN THERMOSTAT
# running using an NPT Nose-Hoover style thermostat
#------------------------------------------------------------------------------
variable tempdamp equal 0.1
variable pressdamp equal 1.0
# set initial velocities
velocity all create 500 2424822 mom yes dist gaussian loop all
# fix for Nose-Hoover style thermostat
fix 20 all npt temp 500 500 0.1 aniso 0.0 0.0 1.0 drag 1.0 couple xyz
variable boxx equal lx
variable boxy equal ly
variable boxz equal lz
variable boxp equal press
variable boxt equal temp
# calculate averages every 10000 steps
reset_timestep 0
fix 21 all ave/time 10 10 100 v_boxx v_boxy v_boxz v_boxp v_boxt file lattice.out
thermo_style custom step temp pe ke etotal press lx ly lz press pxx pyy pzz pxy pxz pyz vol
thermo_modify flush yes
thermo 100
run 100000
PPPM initialization ...
  G vector (1/distance) = 0.355384
  grid = 8 8 8
  stencil order = 5
  estimated absolute RMS force accuracy = 5.2136e-05
  estimated relative force accuracy = 3.62065e-06
  using double precision FFTs
  3d grid and FFT values/proc = 3375 512
Memory usage per processor = 3.06549 Mbytes
Step Temp PotEng KinEng TotEng Press Lx Ly Lz Press Pxx Pyy Pzz Pxy Pxz Pyz Volume 
       0          500   -162.17896   0.45241051   -161.72655    6472.2966    4.2106915    4.2106915    4.2106915    6472.2966    5156.4239    2833.5486    11426.917   -377.09985    3347.7762    556.61895    74.655234 
     100    343.20287   -161.96923   0.31053717   -161.65869   -7584.7586    4.2260283    4.2260283    4.2260283   -7584.7586   -4569.3519   -21874.103    3689.1787    2964.8365    2640.0827     5382.347     75.47397 
     200    555.75033   -162.04634   0.50285458   -161.54348   -9844.7463     4.225626     4.225626     4.225626   -9844.7463   -6242.5591   -19365.731   -3925.9489    1263.7695     2879.714    4189.7418    75.452421 
     300    539.69458   -161.92161     0.488327   -161.43328   -8723.7363     4.234561     4.234561     4.234561   -8723.7363    2757.5602   -30058.968    1130.1987   -95.488902    3719.9002     4424.388     75.93206 
     400    571.05249   -161.87023   0.51670029   -161.35353     12650.87    4.2243623    4.2243623    4.2243623     12650.87    26850.417   -6522.2654     17624.46    1307.3954    3698.5401    4948.3537    75.384743 
     500    690.21374   -161.92322    0.6245199    -161.2987    1043.5392    4.2262916    4.2262916    4.2262916    1043.5392    20013.907   -16648.147   -235.14223   -3938.9503    2424.9793   -608.82528    75.488079 
     600    441.10337   -161.67201    0.3991196   -161.27289   -5571.4199    4.2338909    4.2338909    4.2338909   -5571.4199    27924.106   -41934.024   -2704.3419    3505.8197    1861.5471    7595.3148    75.896019 
     700    653.23211   -161.85683   0.59105814   -161.26577   -11786.347    4.2371479    4.2371479    4.2371479   -11786.347    21233.134   -34990.195    -21601.98   -762.22226    1905.8245    2216.0592    76.071307 
     800    511.73131   -161.73366   0.46302524   -161.27063    1920.3064    4.2363298    4.2363298    4.2363298    1920.3064    46363.202   -33727.275   -6875.0076    1339.5504     2969.387   -4268.9515    76.027252 
     900    591.72696   -161.80952   0.53540699   -161.27412    11995.382    4.2236083    4.2236083    4.2236083    11995.382    32683.761   -4043.8848    7346.2695     2568.533    1877.3214    4123.8989    75.344387 
    1000    488.04162   -161.71747   0.44159031   -161.27588      8870.64     4.229217     4.229217     4.229217      8870.64    29390.921   -5855.0292    3076.0285    -1129.583   -1118.6491   -367.07422    75.644946 
    1100    578.70102   -161.79813   0.52362085   -161.27451     7478.526    4.2309785    4.2309785    4.2309785     7478.526    34250.091   -22944.633     11130.12    5228.8052   -504.34203    1689.5498    75.739503 
    1200    520.58177   -161.74335   0.47103333   -161.27232   -11125.996    4.2428076    4.2428076    4.2428076   -11125.996    24040.255   -39488.833    -17929.41   -3080.0254   -4508.6029    2852.6021    76.376545 
    1300    521.96084   -161.74455   0.47228114   -161.27227   -2561.3516    4.2287683    4.2287683    4.2287683   -2561.3516    27396.623   -26517.501   -8563.1767    2674.9021   -2719.4389   -6581.4227    75.620868 
    1400    478.43645   -161.70633   0.43289935   -161.27343    8176.6749    4.2262981    4.2262981    4.2262981    8176.6749    43879.806    -18710.04   -639.74144    437.03884    5423.6908   -3514.4053    75.488428 
    1500    568.35203    -161.7878   0.51425686   -161.27354    22438.793    4.2237657    4.2237657    4.2237657    22438.793     39476.44    8191.0447    19648.895   -4941.8782   -120.97772    -2276.065    75.352813 
    1600    553.75032   -161.77584   0.50104492    -161.2748    650.37979    4.2390592    4.2390592    4.2390592    650.37979    23258.943   -24064.463    2756.6591    2725.9431    1092.4035    30.749994    76.174293 
    1700    583.85669   -161.79989    0.5282858    -161.2716    -15434.66    4.2387285    4.2387285    4.2387285    -15434.66    -8355.494    -26415.48   -11533.007    173.03796   -4487.2636    1837.7479    76.156468 
    1800    487.60032   -161.71213   0.44119102   -161.27094    2722.5834    4.2267338    4.2267338    4.2267338    2722.5834    20483.466   -10641.474   -1674.2417    2285.6115   -8752.8605   -835.08807    75.511779 
    1900    730.84388   -161.93243    0.6612829   -161.27115    4680.8634    4.2245427    4.2245427    4.2245427    4680.8634    21865.646   -11444.367    3621.3109   -2456.4362    1322.2968   -4624.6887    75.394406 
    2000    506.88921   -161.73215   0.45864401   -161.27351    13101.313    4.2291276    4.2291276    4.2291276    13101.313    17336.479   -8069.6307    30037.089   -2375.7228   -4234.1638   -4906.3333     75.64015 
    2100     635.1742   -161.84458   0.57471896   -161.26986   -23416.228    4.2460751    4.2460751    4.2460751   -23416.228   -11114.104   -39844.628   -19289.952    4644.6327    5524.0356    -925.0519    76.553141 
    2200    547.41191    -161.7637    0.4953098   -161.26839   -12736.971    4.2331089    4.2331089    4.2331089   -12736.971   -1464.7561   -18404.405   -18341.751   -939.83791   -4398.8377   -1898.0455     75.85397 
    2300    499.21982   -161.72239   0.45170458   -161.27068    980.49742     4.225361     4.225361     4.225361    980.49742     11537.73   -3723.2984   -4872.9394   -839.44101   -15017.831   -1490.3645    75.438226 
    2400     624.6484   -161.83568     0.565195   -161.27048    12840.228    4.2171593    4.2171593    4.2171593    12840.228    6279.8102    5630.9343     26609.94    863.82901    1513.7861    272.83999    74.999787 
    2500     375.5327   -161.61376   0.33978988   -161.27397    1686.3925    4.2328091    4.2328091    4.2328091    1686.3925    7271.7869   -21356.954    19144.344    2114.7306   -7056.6772   -1527.6664    75.837859 
    2600    485.82944    -161.7096   0.43958868   -161.27002   -8722.5114    4.2394978    4.2394978    4.2394978   -8722.5114    18405.095   -30175.224   -14397.405    9542.1666   -4784.6148   -666.31714    76.197944 
    2700    424.60719   -161.65589   0.38419351    -161.2717   -2791.4204    4.2362702    4.2362702    4.2362702   -2791.4204    25867.414   -26826.463   -7415.2126    6789.4637   -7053.2135    92.735703    76.024041 
    2800    389.26689   -161.62671   0.35221686    -161.2745    10317.628    4.2223413    4.2223413    4.2223413    10317.628    26304.865    2253.9805    2394.0376    9528.9017   -16224.015   -346.52028    75.276599 
    2900    442.92053   -161.67469   0.40076381   -161.27393    5385.1252    4.2183759    4.2183759    4.2183759    5385.1252     4389.994   -6023.3205    17788.702    9092.3295   -5775.3878    -598.5674    75.064714 
    3000    275.03917    -161.5227   0.24886122   -161.27384    -842.0733    4.2334384    4.2334384    4.2334384    -842.0733    11241.201   -22393.649    8626.2275    2037.3789   -6384.8658    -3273.185    75.871684 
    3100    537.17814   -161.75707   0.48605007   -161.27102   -5661.8047    4.2402603    4.2402603    4.2402603   -5661.8047    19906.221   -27280.736   -9610.8992    4269.1752   -6736.7708    801.72947    76.239065 
    3200    497.33669   -161.72237   0.45000068   -161.27237   -8693.2837    4.2393745    4.2393745    4.2393745   -8693.2837    25432.033    -29380.49   -22131.394    6757.0797    -9224.506    3398.4828    76.191292 
    3300    478.62559   -161.70348    0.4330705   -161.27041    4118.0912    4.2200366    4.2200366    4.2200366    4118.0912    11935.632   -1268.5767    1687.2183    4863.5524   -14682.442    247.49307    75.153401 
    3400    436.98408   -161.66807   0.39539238   -161.27268    -2405.623    4.2270548    4.2270548    4.2270548    -2405.623   -669.51607   -18011.771    11464.418    4231.1018   -1485.7516   -1012.0564    75.528983 
    3500    455.17115   -161.68401   0.41184842   -161.27216    -1416.143    4.2376102    4.2376102    4.2376102    -1416.143    19774.038    -26397.23    2374.7625    1902.3252   -5413.5901   -2959.7818     76.09621 
    3600    514.83007   -161.73808   0.46582907   -161.27225   -3171.9638    4.2422477    4.2422477    4.2422477   -3171.9638    20950.448   -32427.885    1961.5448   -1060.7662   -5188.5692    229.93219    76.346313 
    3700    357.60292   -161.59815   0.32356664   -161.27458    9754.0519    4.2275076    4.2275076    4.2275076    9754.0519    31971.539   -14863.317    12153.934   -234.99087   -9475.9843   -1161.9469    75.553257 
    3800    485.24903   -161.71193   0.43906352   -161.27287    1827.8114    4.2196556    4.2196556    4.2196556    1827.8114   -3373.8195   -9433.7076    18290.961    -4597.838   -9839.6062    2002.7991    75.133052 
    3900    461.49087   -161.69096   0.41756664   -161.27339   -2655.5059    4.2286699    4.2286699    4.2286699   -2655.5059    9100.6717   -26307.241    9240.0516   -2101.7191      528.114    4575.3661    75.615591 
    4000    548.26326   -161.76882   0.49608012   -161.27274   -8482.6871    4.2416363    4.2416363    4.2416363   -8482.6871    13660.172   -33599.493   -5508.7409   -2251.2709    344.51554   -392.11891    76.313306 
    4100    521.51222   -161.74748   0.47187522    -161.2756   -159.12409    4.2368583    4.2368583    4.2368583   -159.12409    33526.113   -30408.005   -3595.4804   -7656.4442    4377.3367   -1330.3664    76.055707 
    4200    534.82354    -161.7573   0.48391958   -161.27338    1433.6953    4.2254669    4.2254669    4.2254669    1433.6953    19508.627   -9354.3668   -5853.1739   -8000.9019   -3070.7398     -2485.34    75.443899 
    4300    573.02338   -161.79079    0.5184836   -161.27231   -8823.9288    4.2230657    4.2230657    4.2230657   -8823.9288   -14519.184   -19118.191    7165.5878   -13075.359   -802.58281     863.1815    75.315352 
    4400    575.70552   -161.79333   0.52091045   -161.27242   -16615.957     4.236779     4.236779     4.236779   -16615.957   -7138.0033   -32747.285   -9962.5829   -10052.911   -626.68161    2949.4407    76.051439 
    4500    513.27548   -161.73511   0.46442244   -161.27069   -6870.4409    4.2427992    4.2427992    4.2427992   -6870.4409    14735.878   -34153.097   -1194.1038   -2026.3999   -4812.0758    173.19756    76.376094 
    4600    492.21336   -161.71586   0.44536499   -161.27049    6792.7642    4.2331089    4.2331089    4.2331089    6792.7642    25768.931   -20656.752    15266.113   -3632.9276    4552.4612    2491.6661    75.853974 
    4700    560.70873   -161.77701   0.50734104   -161.26967    10766.242    4.2215472    4.2215472    4.2215472    10766.242    6020.3488    696.36692    25582.009    82.777724   -8569.0803    443.35666    75.234139 
    4800    563.23497   -161.78046   0.50962684   -161.27083    979.00877    4.2231543    4.2231543    4.2231543    979.00877   -9187.4469   -15546.565    27671.038    249.67883   -5575.6061   -3635.1318    75.320092 
    4900    505.77178   -161.73007   0.45763293   -161.27244   -10014.224    4.2380706    4.2380706    4.2380706   -10014.224   -3904.2738   -37573.435    11435.038   -7499.5148   -1829.5074   -1026.5765    76.121013 
    5000    569.42174   -161.78726   0.51522476   -161.27204   -3763.0244    4.2383488    4.2383488    4.2383488   -3763.0244    10499.148   -30418.483    8630.2621    1182.4322   -7638.5493    3699.0372    76.136007 
    5100    642.18701   -161.85237    0.5810643   -161.27131    766.58711    4.2291367    4.2291367    4.2291367    766.58711    16498.869    -20698.42    6499.3129    4273.1954    1862.7996    3693.6789    75.640637 
    5200    648.70155   -161.85639   0.58695879   -161.26943     7037.449    4.2194166    4.2194166    4.2194166     7037.449    12957.486   -4448.0192     12602.88      2947.71    -4401.579     90.15062    75.120283 
    5300    546.46435   -161.76504   0.49445243   -161.27059   -646.13302    4.2306666    4.2306666    4.2306666   -646.13302    3783.5446   -20355.995    14634.051    9075.4698   -1111.7257   -1158.6033    75.722753 
    5400    566.53305   -161.78197   0.51261101   -161.26936   -5133.0839    4.2399442    4.2399442    4.2399442   -5133.0839    8057.6809   -33644.747    10187.815    1047.6803   -1452.9893    1591.4373    76.222016 
    5500    656.09193   -161.86506   0.59364577   -161.27142   -3198.9187    4.2358254    4.2358254    4.2358254   -3198.9187    8491.5868   -25480.177    7391.8343    3297.2602   -4033.2584    3411.3064    76.000099 
    5600     555.7322   -161.77527   0.50283818   -161.27243    5553.4488    4.2254104    4.2254104    4.2254104    5553.4488    21721.848   -16796.191     11734.69    8263.9621   -408.71795    -4338.268    75.440869 
    5700    632.65518   -161.84317   0.57243971   -161.27073    5177.9208    4.2231446    4.2231446    4.2231446    5177.9208    14091.632   -10103.288    11545.419   -2638.7707   -5534.0183   -3866.9381    75.319577 
    5800    579.79442   -161.79503   0.52461018   -161.27042   -6240.8375    4.2366138    4.2366138    4.2366138   -6240.8375   -1217.8709   -28457.433    10952.792    5628.7865    2424.4678   -1378.0883    76.042542 
    5900     673.8521   -161.87967   0.60971554   -161.26996   -13943.138     4.241443     4.241443     4.241443   -13943.138   -10245.176   -28964.274   -2619.9633    3679.8322    1953.3748   -6346.7078    76.302877 
    6000    621.03131   -161.83511   0.56192218   -161.27319   -7064.5811    4.2329569    4.2329569    4.2329569   -7064.5811   -4900.0805   -25952.926    9659.2627   -3874.6127   -2682.0871   -5596.6224    75.845803 
    6100    576.90655   -161.79498   0.52199717   -161.27299    4681.6215     4.222195     4.222195     4.222195    4681.6215    10236.707   -10137.812     13945.97    3766.3598    4203.5742   -2810.2402    75.268778 
    6200    671.54042   -161.87901   0.60762388   -161.27139   -4180.3209    4.2280505    4.2280505    4.2280505   -4180.3209    -9961.191   -9258.3372    6678.5655    1129.7486   -3013.2008    336.65952    75.582369 
    6300    611.21613   -161.82351    0.5530412   -161.27047   -5146.0131    4.2377403    4.2377403    4.2377403   -5146.0131    9115.8144   -25660.176    1106.3221    1016.6333    4394.2957    2720.7182    76.103218 
    6400    557.19447   -161.77466   0.50416127   -161.27049   -12097.845     4.240192     4.240192     4.240192   -12097.845   -2112.7809   -33253.779   -926.97601   -227.40514    5195.2568   -705.90326    76.235379 
    6500    524.97561   -161.74721   0.47500897    -161.2722   -8709.5432    4.2296468    4.2296468    4.2296468   -8709.5432   -298.22832    -23203.45   -2626.9509   -6826.1784    6554.5215   -910.08967    75.668011 
    6600    594.01506   -161.80965   0.53747731   -161.27217   -3388.4807    4.2251421    4.2251421    4.2251421   -3388.4807    6860.2437   -18963.052    1937.3659   -7369.8101    8706.6363    1174.2423    75.426502 
    6700    528.72348   -161.75111   0.47840012   -161.27271    7020.3388    4.2303755    4.2303755    4.2303755    7020.3388    28171.199   -8632.0643    1521.8817    -1996.505    -4882.953   -1465.5825    75.707125 
    6800    458.27648   -161.68678   0.41465819   -161.27212   -2359.7807    4.2417897    4.2417897    4.2417897   -2359.7807    27336.089   -29321.934   -5093.4975   -2143.6677    2380.0097     1834.067     76.32159 
    6900    481.81877   -161.70908   0.43595975   -161.27312   -9606.1369     4.236705     4.236705     4.236705   -9606.1369   -760.63337   -22122.202    -5935.575    1678.2236   -864.03892    6904.5224    76.047455 
    7000    421.83171   -161.65601    0.3816822   -161.27433    2681.4672    4.2263878    4.2263878    4.2263878    2681.4672     15262.73   -22259.226    15040.898   -4349.0057    801.31231     7962.676    75.493232 
    7100    577.83957   -161.79551   0.52284138   -161.27267    11798.393    4.2221982    4.2221982    4.2221982    11798.393     26752.83   -17219.754    25862.101    -3027.425    1737.3585    8532.5847    75.268946 
    7200    351.98444   -161.59306   0.31848292   -161.27458    11681.476     4.232157     4.232157     4.232157    11681.476    35974.261   -23298.697    22368.865   -1980.4885   -11174.703    2102.1686     75.80281 
    7300    529.69414   -161.75021   0.47927839   -161.27094   -11505.341    4.2402531    4.2402531    4.2402531   -11505.341   -4047.9076   -31658.899    1190.7838   -6137.5818    1501.0496   -695.68734    76.238675 
    7400    459.35078   -161.68612   0.41563023   -161.27049   -2730.4052    4.2349086    4.2349086    4.2349086   -2730.4052    14578.296   -16112.434   -6657.0775   -2929.1985   -3958.2827    545.40737    75.950761 
    7500    506.58585   -161.73062   0.45836953   -161.27225    7999.4935    4.2269574    4.2269574    4.2269574    7999.4935    12218.059   -10267.227    22047.649   -3437.8987   -7221.4279   -540.83691    75.523763 
    7600    567.90545   -161.78653   0.51385279   -161.27268    6828.1844      4.22884      4.22884      4.22884    6828.1844    19205.947   -16343.299    17621.906   -2261.2268    4207.5923    940.08062    75.624718 
    7700    487.73182    -161.7132      0.44131   -161.27189    -2996.763    4.2375392    4.2375392    4.2375392    -2996.763    2687.5503   -26506.001    14828.161   -497.39219   -1637.0842    2814.7721    76.092385 
    7800    689.96012   -161.89327   0.62429041   -161.26898   -22689.192    4.2388641    4.2388641    4.2388641   -22689.192   -24099.851     -28770.7   -15197.025   -2713.6499      7907.47    2485.1806    76.163777 
    7900    620.49416   -161.83095   0.56143615   -161.26951   -17497.379    4.2339654    4.2339654    4.2339654   -17497.379   -18509.824   -23672.789   -10309.526    2894.8201    445.66698    317.83146    75.900024 
    8000    442.79326   -161.67366   0.40064865   -161.27301     9146.868    4.2278547    4.2278547    4.2278547     9146.868   -3182.6347    2819.7791     27803.46    1205.2756    3.4561119    3375.2247    75.571867 
    8100    557.54406   -161.77759   0.50447758   -161.27311    7695.0666    4.2283176    4.2283176    4.2283176    7695.0666    16206.244    1621.2581    5257.6981   -186.90632    7794.1859    3408.2751    75.596695 
    8200    382.26967   -161.61998   0.34588563    -161.2741    4054.7441    4.2332248    4.2332248    4.2332248    4054.7441    16940.521    2393.0784   -7169.3673   -3229.6545   -2336.3763     204.8607    75.860204 
    8300     630.9256   -161.84319   0.57087474   -161.27232   -17418.224    4.2369677    4.2369677    4.2369677   -17418.224    -7650.253   -23720.484   -20883.935   -1058.9149      7918.85   -6547.8144    76.061601 
    8400    450.97434   -161.68025   0.40805106    -161.2722   -3626.7027    4.2295819    4.2295819    4.2295819   -3626.7027    1108.6818   -23186.136    11197.346    9828.8715   -5887.8925   -5327.5771    75.664527 
    8500     477.7658   -161.70372   0.43229253   -161.27142    7907.5939    4.2269238    4.2269238    4.2269238    7907.5939    12156.019   -8218.0512    19784.814    5032.8989   -3769.1765   -4212.4987    75.521959 
    8600    590.07596    -161.8046   0.53391313   -161.27068    3640.9238    4.2318328    4.2318328    4.2318328    3640.9238    17243.114   -4244.0392    -2076.303    6231.9329   -3209.5348   -931.48237    75.785392 
    8700    459.20715   -161.68526   0.41550028   -161.26976   -368.21074    4.2368715    4.2368715    4.2368715   -368.21074   -2115.6792   -474.25744    1485.3044    8027.1901   -10018.077   -4666.8242    76.056418 
    8800     537.9189   -161.75771   0.48672032   -161.27099    -3345.425    4.2347296    4.2347296    4.2347296    -3345.425    4141.3985   -15337.267    1159.5937    7888.6732   -1694.4033   -4169.6001     75.94113 
    8900    482.94562   -161.71039   0.43697935   -161.27341    1864.3104    4.2340923    4.2340923    4.2340923    1864.3104     7919.232    -11970.96    9644.6588     6769.364   -38.744828   -2402.4536    75.906847 
    9000    594.41259   -161.80919     0.537837   -161.27135    -7258.029    4.2341874    4.2341874    4.2341874    -7258.029   -3643.0969   -21423.756    3292.7664    -2270.739     1606.995   -4341.8274    75.911966 
    9100    683.26082   -161.88901   0.61822875   -161.27078    -10765.97    4.2343754    4.2343754    4.2343754    -10765.97    496.52998   -13909.462    -18884.98   -3183.0829    3126.9004   -4115.1403    75.922074 
    9200    603.14876   -161.81866   0.54574167   -161.27292    -12191.81    4.2371143    4.2371143    4.2371143    -12191.81   -3919.9711   -12407.434   -20248.024    1436.0786    3806.2619   -1064.2108    76.069497 
    9300    518.10507   -161.74415   0.46879235   -161.27536    -150.6654    4.2343987    4.2343987    4.2343987    -150.6654    10548.907   -6517.9529   -4482.9501   -541.78671    637.10444   -1758.4794    75.923329 
    9400    713.39355   -161.92125   0.64549348   -161.27576   -7687.2871     4.232893     4.232893     4.232893   -7687.2871   -226.32969   -11237.691    -11597.84   -3043.9158    1177.3009    -3896.531    75.842366 
    9500    529.65147   -161.75402   0.47923978   -161.27478   -4979.2047    4.2318832    4.2318832    4.2318832   -4979.2047   -6681.5482   -7174.1738   -1081.8923   -3324.9576    6511.9395   -541.37872    75.788097 
    9600    499.71012   -161.72598   0.45214822   -161.27383   -9436.7568    4.2343712    4.2343712    4.2343712   -9436.7568    6203.6045   -18123.697   -16390.178    5040.3257    4614.8623   -119.62692    75.921848 
    9700    557.86815   -161.77804   0.50477082   -161.27327   -12257.099    4.2329396    4.2329396    4.2329396   -12257.099    2287.4774   -19779.573   -19279.202    8160.7604    2421.1717   -2703.2368    75.844871 
    9800    513.74914   -161.73684   0.46485102   -161.27199   -7899.0495     4.229179     4.229179     4.229179   -7899.0495   -17823.196   -143.45049   -5730.5025    6376.3437   -14445.228   -3649.6607    75.642907 
    9900    580.29845   -161.79613   0.52506623   -161.27106   -6767.4458    4.2314323    4.2314323    4.2314323   -6767.4458   -4503.4595   -3944.5015   -11854.376    5080.1918   -4409.1822   -2218.2303    75.763875 
   10000    434.60254   -161.66526   0.39323751   -161.27202    2052.1979    4.2340191    4.2340191    4.2340191    2052.1979    3318.2905    12672.588   -9834.2847    6991.3961    117.35581   -783.52559    75.902913 
   10100    519.48553   -161.74149   0.47004142   -161.27145   -10248.834    4.2347103    4.2347103    4.2347103   -10248.834   -16066.266   -1340.7329   -13339.501    4410.5801    1323.6696    2531.6114    75.940091 
   10200    495.01293   -161.71927    0.4478981   -161.27137   -7492.2895    4.2296002    4.2296002    4.2296002   -7492.2895   -8472.7377   -9114.0354   -4890.0955    6897.0123    785.89581    4943.0779    75.665509 
   10300    455.94162   -161.68341   0.41254556   -161.27086   -9982.3678    4.2305082    4.2305082    4.2305082   -9982.3678   -8037.2923    -19605.35   -2304.4612    13199.781   -7270.7251    1742.5531    75.714252 
   10400    421.55741   -161.65371     0.381434   -161.27227   -8948.9314    4.2359537    4.2359537    4.2359537   -8948.9314   -6879.8395   -15127.439   -4839.5158    12258.699   -857.09616    609.90866    76.007005 
   10500    498.36303   -161.72289   0.45092934   -161.27196   -4598.6543    4.2366442    4.2366442    4.2366442   -4598.6543   -4286.8835    1594.0315   -11103.111     3112.875    4412.6783    26.763222    76.044181 
   10600    499.22002   -161.72437   0.45170477   -161.27267    -1278.763    4.2362986    4.2362986    4.2362986    -1278.763   -3855.1527    10645.818   -10626.955    4863.0213     9104.389    2979.8993    76.025573 
   10700    561.09684    -161.7802   0.50769221   -161.27251   -5779.6055    4.2341895    4.2341895    4.2341895   -5779.6055    -6451.139   -7319.1125   -3568.5649    5105.4704    6451.9461    210.24901    75.912077 
   10800    551.88445   -161.77282   0.49935664   -161.27346   -12024.105    4.2335638    4.2335638    4.2335638   -12024.105   -2518.8579   -26070.487   -7482.9686    8906.9968    924.51295    -482.8111    75.878428 
   10900    525.97797   -161.75002   0.47591592   -161.27411   -15260.716    4.2366583    4.2366583    4.2366583   -15260.716    -13928.18   -19736.014   -12117.955    1201.7358   -4843.6952   -600.44965    76.044941 
   11000    653.09004   -161.86474    0.5909296   -161.27381   -16731.534    4.2382546    4.2382546    4.2382546   -16731.534   -10465.373   -19896.639    -19832.59   -1922.2252   -4513.9362   -7481.4583     76.13093 
   11100    644.49264   -161.85481   0.58315048   -161.27166   -13151.306    4.2379639    4.2379639    4.2379639   -13151.306   -9532.7978   -12961.197   -16959.923    294.00162   -2507.5283    326.12677    76.115266 
   11200    699.04392   -161.90476   0.63250963   -161.27225   -16908.917    4.2381734    4.2381734    4.2381734   -16908.917   -9165.8241   -23437.063   -18123.864   -1866.2004   -6433.9186    4665.4757    76.126553 
   11300    747.87559   -161.95357   0.67669355   -161.27687   -14014.538    4.2385107    4.2385107    4.2385107   -14014.538   -9027.3745   -18335.927   -14680.314   -1115.3414   -2736.2011    1622.6149    76.144728 
   11400    663.05916    -161.8812   0.59994986   -161.28125   -7233.1526    4.2373601    4.2373601    4.2373601   -7233.1526    3740.4214   -13109.435   -12330.445   -2144.6664   -8267.8233   -2673.6772    76.082735 
   11500    526.12068    -161.7572   0.47604505   -161.28116   -9426.6431    4.2391582    4.2391582    4.2391582   -9426.6431    4095.7232   -15239.879   -17135.773    1931.2445    1642.6206   -743.67107    76.179635 
   11600    649.09005   -161.86521   0.58731032    -161.2779   -15607.325    4.2371705    4.2371705    4.2371705   -15607.325    10641.906   -29974.578   -27489.303    2036.9773   -643.66591     386.7954    76.072522 
   11700    548.18576   -161.77429      0.49601   -161.27828   -9109.4014    4.2392572    4.2392572    4.2392572   -9109.4014    14743.298   -23969.117   -18102.385   -1076.7653    4251.6949    3041.4004     76.18497 
   11800    532.53865   -161.75828   0.48185217   -161.27643    1048.4136    4.2352631    4.2352631    4.2352631    1048.4136    27726.296   -17673.176   -6907.8792    783.20894    2799.5409    758.76916    75.969838 
   11900    412.15138   -161.64922   0.37292323    -161.2763    8164.9491    4.2367276    4.2367276    4.2367276    8164.9491    41912.168    1782.7723   -19200.093      203.833    1922.3882   -2260.3209    76.048673 
   12000    410.87831   -161.64929   0.37177133   -161.27752     9216.516    4.2362136    4.2362136    4.2362136     9216.516    44202.197     3272.495   -19825.144    2957.3948    9997.0034   -5846.4034    76.020997 
   12100     355.8392   -161.60301   0.32197079   -161.28104    13010.181    4.2386981    4.2386981    4.2386981    13010.181    67587.956   -6906.1402   -21651.272   -96.082837     1340.602   -1844.1774    76.154828 
   12200    402.84693   -161.64726   0.36450437   -161.28275    6312.1215    4.2374764    4.2374764    4.2374764    6312.1215    71519.095   -29579.685   -23003.045   -2497.5145    8504.0554     3520.807    76.089001 
   12300    176.66717   -161.44501   0.15985217   -161.28516    12773.185    4.2343817    4.2343817    4.2343817    12773.185     80456.39   -29094.204    -13042.63    -10566.23   -5812.5229    364.60139    75.922413 
   12400     292.4394   -161.55009   0.26460532   -161.28549    11472.887    4.2360046    4.2360046    4.2360046    11472.887    75288.024   -24409.236   -16460.128     -8073.25     1270.657    1473.1005    76.009745 
   12500     519.9785   -161.75519   0.47048747    -161.2847    5698.3823    4.2367268    4.2367268    4.2367268    5698.3823    48754.548   -9055.7232   -22603.678   -2398.3816   -4455.3689   -747.73117    76.048627 
   12600    496.16191   -161.73279   0.44893772   -161.28386    73.845024    4.2362651    4.2362651    4.2362651    73.845024    25642.744   -2936.4597   -22484.749   -6845.2591    1231.7325   -180.86761    76.023769 
   12700    571.70328   -161.79829   0.51728914     -161.281   -3352.5595    4.2330115    4.2330115    4.2330115   -3352.5595    18855.534   -16359.478   -12553.734    -5902.543   -119.39801     7307.003    75.848733 
   12800    601.06578    -161.8224   0.54385695   -161.27854   -6112.4931    4.2324995    4.2324995    4.2324995   -6112.4931    17492.493   -24705.156   -11124.817   -3714.0169   -6191.8401    6444.5389    75.821219 
   12900    641.97302     -161.858   0.58087068   -161.27713   -9592.8674    4.2345268    4.2345268    4.2345268   -9592.8674   -571.25243   -19270.499   -8936.8512   -460.28524     3126.203    2856.1005    75.930222 
   13000    674.75137   -161.88616   0.61052922   -161.27563   -11336.837    4.2370005    4.2370005    4.2370005   -11336.837   -4138.1579   -10686.837   -19185.518   -17.038033   -277.38582   -176.11669    76.063366 
   13100    549.84267   -161.77396    0.4975092   -161.27645   -1592.2246     4.233452     4.233452     4.233452   -1592.2246    6855.1406    4973.3831   -16605.197    631.26182    5622.5115    -1281.798    75.872417 
   13200    537.16686   -161.76072   0.48603986   -161.27468    1148.2992    4.2263558    4.2263558    4.2263558    1148.2992    8593.6562    3153.0492   -8301.8078   -4951.0434   -1655.2105    3676.4066    75.491519 
   13300    650.65559   -161.86205   0.58872685   -161.27332   -12825.966    4.2297015    4.2297015    4.2297015   -12825.966   -852.07521   -17872.423     -19753.4    3036.0917   -2933.8096    5676.6029    75.670946 
   13400    488.97411   -161.71801   0.44243405   -161.27558    -7832.561    4.2329129    4.2329129    4.2329129    -7832.561    13849.921   -17825.777   -19521.827    5294.7326    5238.6081   -3477.7365    75.843436 
   13500    418.56551    -161.6535   0.37872687   -161.27478   -3235.2555    4.2330786    4.2330786    4.2330786   -3235.2555    12906.792   -8434.3045   -14178.254   -2368.9561    3322.6777   -1707.7608    75.852344 
   13600    489.88166   -161.71817   0.44325522   -161.27492   -991.32277    4.2296419    4.2296419    4.2296419   -991.32277    -80.31707    14264.168   -17157.819   -3296.5476    3916.4904      -2085.2    75.667745 
   13700    452.74712   -161.68526   0.40965511    -161.2756     1249.188    4.2286169    4.2286169    4.2286169     1249.188    9867.6913    7096.7721   -13216.899    -4230.771   -4375.0568   -3040.8404    75.612747 
   13800    295.85139    -161.5436   0.26769255    -161.2759    2082.1262    4.2297616    4.2297616    4.2297616    2082.1262    26220.743   -5381.6493   -14592.715   -6473.8642   -9297.5759    3450.2652    75.674171 
   13900    313.40387   -161.56073   0.28357441   -161.27716   -6308.0763    4.2328906    4.2328906    4.2328906   -6308.0763    15825.683   -7097.0877   -27652.824    3822.9374   -3614.5216   -5856.1516    75.842239 
   14000    457.93924   -161.68992   0.41435304   -161.27557   -4772.2841    4.2333158    4.2333158    4.2333158   -4772.2841     15321.86   -4532.8939   -25105.818   -4464.2695   -566.18231   -7471.9339    75.865096 
   14100    355.34696   -161.59871    0.3215254   -161.27718    4887.9283    4.2347517    4.2347517    4.2347517    4887.9283    24582.816    15733.786   -25652.817   -8363.3846    104.76029   -347.74891    75.942318 
   14200    397.95198   -161.63864   0.36007531   -161.27857    8593.7354    4.2291095    4.2291095    4.2291095    8593.7354    23805.323    15043.188   -13067.305   -8831.6056     1078.652   -5523.0732    75.639178 
   14300       433.09   -161.66819   0.39186893   -161.27632    1434.0559    4.2307495    4.2307495    4.2307495    1434.0559    31877.354   -22643.886   -4931.3007   -9481.1041   -1094.2366    1444.3582    75.727204 
   14400    468.65839   -161.70074   0.42405196   -161.27669   -7824.0498    4.2347186    4.2347186    4.2347186   -7824.0498    19068.046   -31646.117   -10894.078   -1198.7605    198.28076   -678.11221    75.940538 
   14500    584.49244   -161.80534   0.52886105   -161.27647   -8077.3801    4.2328928    4.2328928    4.2328928   -8077.3801    16126.219    -16036.14    -24322.22    1003.6561    1217.8056   -12730.907    75.842353 
   14600    441.05841   -161.67351   0.39907892   -161.27443    185.47112    4.2331731    4.2331731    4.2331731    185.47112    31679.187    3140.0951   -34262.869   -1133.9061     1398.268   -1971.8485    75.857423 
   14700    460.67901   -161.69026   0.41683205   -161.27343    6454.9676    4.2293951    4.2293951    4.2293951    6454.9676    25053.773    19507.485   -25196.355    3840.8956    494.68294   -2227.0293      75.6545 
   14800    641.33053   -161.85397   0.58028934   -161.27368   -512.90245    4.2318728    4.2318728    4.2318728   -512.90245    18131.652   -5388.4151   -14281.944    2588.5943   -2069.6985   -7730.5851     75.78754 
   14900    462.80664    -161.6928   0.41875717   -161.27404    2539.4221    4.2320809    4.2320809    4.2320809    2539.4221    25108.806   -16307.488   -1183.0518   -776.41308   -3588.2337    3646.0377    75.798725 
   15000    543.51111   -161.76421   0.49178028   -161.27243   -3502.2583    4.2312807    4.2312807    4.2312807   -3502.2583    10366.378    -15148.67   -5724.4837    4078.0482    -2652.822   -1230.1134    75.755733 
   15100    673.71029   -161.88154   0.60958723   -161.27195    2376.6476    4.2282235    4.2282235    4.2282235    2376.6476    13316.648     11902.44   -18089.145    3256.8466   -2319.8502   -4909.6083    75.591649 
   15200    489.97171   -161.71742    0.4433367   -161.27408    11931.184    4.2270345    4.2270345    4.2270345    11931.184    24709.111    33241.559   -22157.117   -1417.3407   -6926.6672   -369.81847    75.527892 
   15300    702.10865   -161.90801   0.63528266   -161.27273   -17811.954    4.2328199    4.2328199    4.2328199   -17811.954   -2047.6525   -17485.163   -33903.047     5838.886   -908.35201   -11985.935    75.838438 
   15400    591.06596   -161.80654    0.5348089   -161.27174   -13245.466    4.2292038    4.2292038    4.2292038   -13245.466    13477.925   -29147.284    -24067.04    3998.7087    1794.1736    1383.1523    75.644235 
   15500    540.25272   -161.75962   0.48883201   -161.27079   -431.29126     4.228641     4.228641     4.228641   -431.29126     16086.94   -14980.058   -2400.7562   -6664.3164    172.77758    7019.7897     75.61404 
   15600    713.94253   -161.91598    0.6459902   -161.26999    8270.6349     4.225541     4.225541     4.225541    8270.6349    6794.5281    27011.748   -8994.3711   -4494.5593    5099.0013   -2382.2514    75.447867 
   15700    550.26068   -161.76966   0.49788743   -161.27177    5237.6429      4.23154      4.23154      4.23154    5237.6429    6115.6063    27245.809   -17648.486   -1947.8504   -1858.6496    6017.8482    75.769665 
   15800    514.62263   -161.73823   0.46564137   -161.27259   -2615.1434    4.2320787    4.2320787    4.2320787   -2615.1434     12412.84   -6739.9164   -13518.353   -6929.8978   -1593.3368   -4394.8269    75.798602 
   15900    566.84319   -161.78639   0.51289163   -161.27349   -8142.3219     4.231772     4.231772     4.231772   -8142.3219     11384.05   -10307.562   -25503.453    -3382.252     566.6333    2975.7285    75.782124 
   16000    503.59518   -161.72832    0.4556635   -161.27266     472.6848    4.2297896    4.2297896    4.2297896     472.6848    9193.1406   -1762.9699   -6012.1163   -4541.7606   -2369.6174    11009.699    75.675675 
   16100    520.75146   -161.74392   0.47118687   -161.27273    2060.0334    4.2326347    4.2326347    4.2326347    2060.0334    3778.8036    21082.255   -18680.958   -6508.2568     617.4043   -2053.3549    75.828483 
   16200    546.48641   -161.76976   0.49447239   -161.27528    3159.0078     4.231134     4.231134     4.231134    3159.0078    4186.9554    26145.443   -20855.375   -4267.9733   -1502.8864    3043.4509    75.747856 
   16300    492.13441   -161.72142   0.44529356   -161.27613   -4774.2719    4.2350655    4.2350655    4.2350655   -4774.2719    6941.8304   -10179.627   -11085.019    514.75724   -2327.1991   -3666.6935      75.9592 
   16400    505.73691   -161.73244   0.45760139   -161.27484    -8379.843    4.2319864    4.2319864    4.2319864    -8379.843    23453.228     -27172.2   -21420.557   -869.02207   -471.29308   -5841.8289    75.793642 
   16500     530.5853   -161.75377   0.48008473   -161.27369   -14230.266     4.228008     4.228008     4.228008   -14230.266   -6764.3894   -22854.023   -13072.384   -1945.5406    5666.8333    5492.2649    75.580088 
   16600    437.38393   -161.66789   0.39575417   -161.27214   -5033.9733    4.2286157    4.2286157    4.2286157   -5033.9733   -12385.382    8539.8873   -11256.425   -6569.2438    10810.028   -2207.1887    75.612681 
   16700    398.67188   -161.63464   0.36072669   -161.27392    9274.9247    4.2330833    4.2330833    4.2330833    9274.9247    17814.715    24528.953   -14518.894   -5064.8044    5499.3698   -69.222506    75.852593 
   16800    400.15958    -161.6372    0.3620728   -161.27513    7064.1026    4.2308979    4.2308979    4.2308979    7064.1026     16208.07    4025.4488    958.78922   -1860.3553     883.3524   -761.13924    75.735177 
   16900    299.12078   -161.54429   0.27065077   -161.27364   -3602.7034    4.2248524    4.2248524    4.2248524   -3602.7034    5190.3733   -6646.3221   -9352.1614   -4505.8112    836.55629   -7725.5749    75.410988 
   17000    294.84295   -161.53995    0.2667801   -161.27317    -9807.758      4.22649      4.22649      4.22649    -9807.758    2308.9651   -12169.412   -19562.827   -10174.063    12581.742    167.64293    75.498714 
   17100    355.76921   -161.59486   0.32190746   -161.27295   -2883.2441    4.2334607    4.2334607    4.2334607   -2883.2441    8149.4964    6779.1682   -23578.397   -10762.205    6772.4192   -515.38104    75.872885 
   17200    343.96905   -161.58603   0.31123043    -161.2748    8252.8048    4.2329067    4.2329067    4.2329067    8252.8048     15796.43    31066.488   -22104.504    -12457.39    8399.5991   -2927.6364    75.843101 
   17300    343.49804   -161.58574   0.31080425   -161.27494    8098.7781    4.2263188    4.2263188    4.2263188    8098.7781    7718.7575    16269.204    308.37266   -10302.321    1174.2641    2566.1616    75.489538 
   17400    303.32023   -161.54761   0.27445052   -161.27316    2429.8778    4.2274045    4.2274045    4.2274045    2429.8778    10943.558   -7248.6053    3594.6802   -3104.4048    3995.8389   -1060.6067     75.54773 
   17500    401.10303    -161.6346   0.36292645   -161.27167     -887.062    4.2313197    4.2313197    4.2313197     -887.062    36456.077    -19178.31   -19938.953   -2932.0557    9461.8513   -2373.8002    75.757827 
   17600    423.44843   -161.65684   0.38314504    -161.2737   -2844.4497    4.2345571    4.2345571    4.2345571   -2844.4497     20308.36   -414.00526   -28427.704   -4874.6981    7264.1324    -41.63581    75.931849 
   17700    340.38293   -161.58469   0.30798563    -161.2767   -958.30033     4.234535     4.234535     4.234535   -958.30033    9227.2871     24823.25   -36925.438   -2566.8758    15448.228   -2585.2442    75.930663 
   17800    496.17161   -161.72298    0.4489465   -161.27404    1597.9524    4.2283522    4.2283522    4.2283522    1597.9524    17979.448    6340.2248   -19525.815   -3302.3403    5080.7914     697.3076    75.598548 
   17900    462.32058   -161.69123   0.41831738   -161.27292    10988.232    4.2235103    4.2235103    4.2235103    10988.232    31251.442   -877.00326    2590.2573   -6185.9978   -820.83365    509.70819    75.339144 
   18000    441.99714   -161.67124    0.3999283   -161.27131   -907.74725    4.2327025    4.2327025    4.2327025   -907.74725    20067.599    -10201.24   -12589.601    748.31643    4278.2477   -1405.2159    75.832126 
   18100    548.42222   -161.76684   0.49622395   -161.27062   -4698.5499    4.2368011    4.2368011    4.2368011   -4698.5499    2393.6394    5297.8677   -21787.157    5214.1726     1160.599    3961.7835    76.052626 
   18200    354.40262   -161.59506   0.32067094   -161.27439    9602.6226     4.231917     4.231917     4.231917    9602.6226    12171.427    35269.508   -18633.068    2087.2628     8494.785    998.62417    75.789917 
   18300    551.28924   -161.77268   0.49881809   -161.27386    9284.2812    4.2222876    4.2222876    4.2222876    9284.2812     15405.93      18653.3    -6206.387    4958.1397    1463.2254   -15.893786     75.27373 
   18400      443.858   -161.67771   0.40161205   -161.27609   -281.80243    4.2310781    4.2310781    4.2310781   -281.80243    21250.685   -1438.7893   -20657.303   -2903.4116    1272.5878    1177.1704    75.744854 
   18500    412.34247   -161.64731   0.37309614   -161.27421   -2766.0778    4.2365017    4.2365017    4.2365017   -2766.0778    798.32279    9395.6769   -18492.233   -3878.0304    5054.2928   -3191.7603    76.036508 
   18600    501.26715   -161.72566   0.45355705    -161.2721   -2553.7688    4.2380594    4.2380594    4.2380594   -2553.7688   -21679.532    36951.048   -22932.823   -83.797887    250.36527   -3455.3623    76.120412 
   18700    433.22979   -161.66541   0.39199541   -161.27342    10237.225    4.2268786    4.2268786    4.2268786    10237.225   -5856.6498    39195.706    -2627.381    3179.0167    4095.0147    -3390.666    75.519539 
   18800    410.38415   -161.64566    0.3713242   -161.27433   -694.90647    4.2270928    4.2270928    4.2270928   -694.90647   -15055.215    13428.728   -458.23306   -4761.6507     4153.623   -570.85987    75.531021 
   18900     479.3761   -161.70578   0.43374956   -161.27203   -7917.9647    4.2340399    4.2340399    4.2340399   -7917.9647   -5534.4046    4016.4083   -22235.898     -12601.9   -4402.6418    1238.9584    75.904032 
   19000    388.88874   -161.62366   0.35187471   -161.27179    789.34882    4.2381435    4.2381435    4.2381435    789.34882   -9810.0342      36490.2   -24312.119   -4154.5644   -5051.1039   -2691.5862    76.124944 
   19100    518.90402   -161.74359   0.46951526   -161.27408   -3648.1539    4.2373075    4.2373075    4.2373075   -3648.1539    -14459.15    31402.816   -27888.128   -11802.786   -3178.4817    725.50994    76.079903 
   19200    354.88895   -161.59806   0.32111098   -161.27695    8944.6467    4.2269304    4.2269304    4.2269304    8944.6467    13951.458    12427.921    454.56059   -2076.3159   -501.54453    2158.7691    75.522313 
   19300    380.98566   -161.62042   0.34472383   -161.27569    7607.6392    4.2247203    4.2247203    4.2247203    7607.6392    7858.0744    276.87689    14687.966   -5779.1975    504.49096    641.46609    75.403913 
   19400     435.6099   -161.66749   0.39414899   -161.27334    6667.0974    4.2323747    4.2323747    4.2323747    6667.0974    5949.3013    17885.963    -3833.972   -9166.3463    897.63812    1921.3628    75.814507 
   19500    394.27778   -161.62979   0.35675082   -161.27304    2262.0001    4.2401313    4.2401313    4.2401313    2262.0001   -6372.2978    36258.555   -23100.257   -7170.9086   -2010.3332    2202.8754    76.232107 
   19600    466.62392    -161.6943   0.42221113   -161.27209   -3803.9521     4.234576     4.234576     4.234576   -3803.9521   -3937.2582    19879.177   -27353.775   -7269.9191    -8086.486    597.43023    75.932865 
   19700    372.35927   -161.60971   0.33691849   -161.27279    9847.0149    4.2261699    4.2261699    4.2261699    9847.0149    26738.073    3784.5597   -981.58745   -1.9476381   -2899.6063   -3397.7496    75.481556 
   19800    475.84028   -161.70368   0.43055028   -161.27313    7956.5809    4.2284613    4.2284613    4.2284613    7956.5809    25560.126   -8390.3002    6699.9166   -9480.8389   -2895.7555   -6649.3548    75.604401 
   19900    365.46579    -161.6044   0.33068113   -161.27372    8094.2739    4.2354545    4.2354545    4.2354545    8094.2739    10929.679    6539.7857     6813.357   -2200.9586    -3657.139    62.219176    75.980135 
   20000    526.99133   -161.74741   0.47683283   -161.27057    -10141.07    4.2409205    4.2409205    4.2409205    -10141.07   -7806.9257    -2419.477   -20196.809    3189.8269   -3701.0954   -755.43876     76.27468 
   20100    395.78213   -161.63115   0.35811199   -161.27304    3145.4461    4.2328777    4.2328777    4.2328777    3145.4461    32227.942    -4484.215   -18307.389    374.50801   -8136.1614   -808.82064    75.841545 
   20200    497.73794   -161.72592   0.45036375   -161.27556   -1689.9632    4.2293891    4.2293891    4.2293891   -1689.9632    15738.931    800.02236   -21608.843    391.80015   -6006.2833    4774.0856    75.654177 
   20300    453.01176   -161.68477   0.40989456   -161.27487    785.19869    4.2295568    4.2295568    4.2295568    785.19869    4299.0714   -1572.8923   -370.58305    -5188.468    395.02252   -2512.0813    75.663177 
   20400    394.21021   -161.62989   0.35668968    -161.2732   -1737.8681     4.237809     4.237809     4.237809   -1737.8681    720.43607     533.8652   -6467.9056   -2000.1009   -2187.7784   -5417.1677    76.106918 
   20500    385.36813   -161.62129   0.34868918   -161.27261    3836.2048    4.2378581    4.2378581    4.2378581    3836.2048    5735.5269    6103.8078    -330.7202    2449.2318    -282.1443   -3879.7305    76.109561 
   20600    431.39211   -161.66342   0.39033264   -161.27309    8258.9987     4.233646     4.233646     4.233646    8258.9987    18590.077    7289.2244   -1102.3056   -509.32476    1222.6817   -1860.2165    75.882848 
   20700     404.0123    -161.6388   0.36555882   -161.27325    997.77765    4.2318212    4.2318212    4.2318212    997.77765     10001.38    1739.0374   -8747.0845   -8297.1189   -4985.9068   -533.48374    75.784769 
   20800    499.26922   -161.72258   0.45174928   -161.27083   -11838.483    4.2305123    4.2305123    4.2305123   -11838.483   -11298.732   -15047.028   -9169.6889   -10420.974    -12397.59   -2072.6276     75.71447 
   20900    487.50834   -161.71117   0.44110779   -161.27006    -12604.29     4.236487     4.236487     4.236487    -12604.29   -14372.114   -9634.4466    -13806.31   -2991.9729   -7577.3053    1456.3849    76.035713 
   21000    450.77003   -161.67906    0.4078662   -161.27119     2420.202    4.2365552    4.2365552    4.2365552     2420.202    9987.5605   -2748.2387    21.284281   -8272.8239    -2711.884    4708.1745    76.039387 
   21100    508.01401   -161.73199   0.45966176   -161.27233    -2053.939     4.233801     4.233801     4.233801    -2053.939    14064.678   -13826.738   -6399.7568   -3776.7518   -2121.2225   -396.72724    75.891186 
   21200    337.46756   -161.57837   0.30534774   -161.27303    2485.1389     4.222842     4.222842     4.222842    2485.1389    3171.0562    3488.5758    795.78473   -11999.044   -4824.7542     2485.293    75.303386 
   21300    409.86226   -161.64456   0.37085198   -161.27371   -9312.8205    4.2269312    4.2269312    4.2269312   -9312.8205   -15121.417   -11100.854   -1716.1906   -13914.758   -6338.5175    -174.8088    75.522357 
   21400    389.86748   -161.62669   0.35276029   -161.27393     6284.762    4.2329144    4.2329144    4.2329144     6284.762    13659.607    8924.1042   -3729.4256   -7625.4148   -2077.0986   -4164.9828    75.843516 
   21500    479.64632   -161.70541   0.43399407   -161.27142    4233.9151    4.2378827    4.2378827    4.2378827    4233.9151    25040.844   -3311.6009   -9027.4981    -5823.924   -2100.2439   -1010.1929    76.110889 
   21600    487.15412   -161.71305   0.44078728   -161.27226   -56.870001    4.2285539    4.2285539    4.2285539   -56.870001    919.80931    5259.9212   -6350.3405   -1566.1443    3165.6052   -31.144914     75.60937 
   21700    361.51393   -161.60062   0.32710541   -161.27352   -3634.6796    4.2218096    4.2218096    4.2218096   -3634.6796   -10900.893    16503.438   -16506.583   -7646.7101   -3097.0606    6227.3715     75.24817 
   21800    497.32473   -161.72275   0.44998987   -161.27276   -4366.1434    4.2259655    4.2259655    4.2259655   -4366.1434   -7100.1338    13883.751   -19882.047   -662.38859   -7057.0336    247.58643    75.470606 
   21900    383.06574   -161.62058   0.34660593   -161.27398    9038.5139     4.236452     4.236452     4.236452    9038.5139     25646.34    23585.627   -22116.425   -2015.0099   -648.97246    213.32288     76.03383 
   22000     458.9987   -161.68811   0.41531167    -161.2728    5880.4794    4.2369716    4.2369716    4.2369716    5880.4794    17268.823    11864.572   -11491.957   -5098.3863   -8634.3884    5788.8498     76.06181 
   22100    383.33715   -161.61875   0.34685151    -161.2719    5602.1679    4.2295011    4.2295011    4.2295011    5602.1679   -4920.4985    18485.885    3241.1176    1620.5161   -766.70336    2504.3735    75.660188 
   22200    437.25209   -161.66805   0.39563488   -161.27242    1071.6835     4.228104     4.228104     4.228104    1071.6835   -8703.7492    21744.774   -9825.9749   -1832.9423   -3193.0466    1896.7852    75.585238 
   22300    473.01034   -161.70054    0.4279897   -161.27255   -1030.1847     4.231548     4.231548     4.231548   -1030.1847   -5542.4999     24765.63   -22313.684   -1654.6567   -10123.036   -1795.5924    75.770091 
   22400    456.79784   -161.68586   0.41332028   -161.27254   -499.29362     4.237978     4.237978     4.237978   -499.29362    14498.953    10986.365   -26983.198   -1335.6218    770.17875    2208.8662    76.116022 
   22500    596.18662   -161.81014   0.53944219    -161.2707   -11465.057    4.2383161    4.2383161    4.2383161   -11465.057   -1608.6279   -12671.878   -20114.666    -8025.065   -1078.0472   -5375.4842    76.134244 
   22600    515.68375   -161.73547   0.46660149   -161.26887   -1047.5795    4.2315531    4.2315531    4.2315531   -1047.5795   -332.28667   -9281.2256    6470.7738    -11249.38   -7936.9124   -8823.7655    75.770365 
   22700    618.31988   -161.82995   0.55946882   -161.27048   -6139.0383    4.2297978    4.2297978    4.2297978   -6139.0383   -12054.637   -900.87882   -5461.5987   -9249.8061   -7077.4016    616.98161    75.676113 
   22800    459.03497   -161.68801   0.41534449   -161.27266   -978.35815    4.2345391    4.2345391    4.2345391   -978.35815   -2733.1008   -144.53863   -57.435032   -8041.7943   -3788.2944   -6251.9335     75.93088 
   22900    572.85025   -161.78884   0.51832694   -161.27051   -10150.156    4.2387416    4.2387416    4.2387416   -10150.156   -489.68845    -23595.89   -6364.8892   -5728.7436    1656.4805    1652.5432    76.157174 
   23000    581.15897   -161.79467   0.52584485   -161.26882   -10874.232    4.2372475    4.2372475    4.2372475   -10874.232   -9217.8338    -17136.74   -6268.1211   -4828.1279   -1665.5896   -783.19207    76.076673 
   23100    601.57065   -161.81234   0.54431377   -161.26803   -6510.5113     4.235571     4.235571     4.235571   -6510.5113   -8641.3772   -7791.8484   -3098.3082    -2802.244      3315.37    3129.3035    75.986403 
   23200    689.19065   -161.89031   0.62359418   -161.26672   -7463.9755     4.231922     4.231922     4.231922   -7463.9755   -16222.758    9191.7464   -15360.915   -2547.0935    4538.5833    4404.1065    75.790185 
   23300    555.70088   -161.77233   0.50280984   -161.26952    -3225.343    4.2332462    4.2332462    4.2332462    -3225.343   -3886.7228   -615.59952   -5173.7067   -3820.6427   -1897.2098   -2505.4825    75.861352 
   23400     609.2119   -161.82113   0.55122773    -161.2699   -10116.837    4.2365862    4.2365862    4.2365862   -10116.837   -14677.993   -12463.172    -3209.347   -184.89818    1191.3528    6663.3335    76.041056 
   23500    599.41444   -161.81092   0.54236278   -161.26856   -6290.1487    4.2394887    4.2394887    4.2394887   -6290.1487   -11665.636    2631.1182   -9835.9285   -1101.1801    3588.7851   -3087.3346     76.19745 
   23600    590.96091   -161.80316   0.53471385   -161.26844    1402.1101    4.2313188    4.2313188    4.2313188    1402.1101   -13439.415    22785.323   -5139.5776     856.5482   -5117.0738    -4881.299     75.75778 
   23700    588.84707   -161.80074    0.5328012   -161.26794    8990.1119    4.2250117    4.2250117    4.2250117    8990.1119     1591.446    16652.969    8725.9209    716.67633   -840.09572   -2627.2406    75.419515 
   23800    679.40131   -161.88467   0.61473658   -161.26993    667.07272    4.2267508    4.2267508    4.2267508    667.07272   -95.939077    7099.3369   -5002.1797    4807.5685   -433.10503    260.97139     75.51269 
   23900    667.83636   -161.87385   0.60427237   -161.26958   -11124.323    4.2369292    4.2369292    4.2369292   -11124.323   -14089.503   -12723.476   -6559.9903    10052.541    1480.3468    5208.7466    76.059525 
   24000    713.53825   -161.91304   0.64562441   -161.26742   -9496.2515    4.2362682    4.2362682    4.2362682   -9496.2515   -13544.496   -6732.6115   -8211.6469    3780.9489      3880.93   -3603.3335    76.023932 
   24100    640.61006   -161.84607   0.57963745   -161.26643   -1814.4581    4.2296386    4.2296386    4.2296386   -1814.4581   -6374.9028    9772.3206   -8840.7922    8233.2097    2426.1533    2222.4792    75.667568 
   24200    681.99023     -161.884   0.61707909   -161.26692    801.54731    4.2248442    4.2248442    4.2248442    801.54731    4567.6159    1240.2995   -3403.2734    7904.0676    4086.9252   -3174.2216    75.410549 
   24300    729.54288    -161.9303   0.66010573    -161.2702   -3397.6494    4.2253277    4.2253277    4.2253277   -3397.6494    -814.0258   -745.07297   -8633.8493    7354.3793   -2106.0094   -10519.192    75.436442 
   24400    593.18031   -161.80775   0.53672201   -161.27102   -6486.7875     4.231899     4.231899     4.231899   -6486.7875   -3546.1673   -16688.847    774.65191    6012.7037   -876.86969    4749.2738     75.78895 
   24500    596.91211   -161.80903   0.54009862   -161.26893   -12000.788     4.236572     4.236572     4.236572   -12000.788   -2715.1742   -27400.562    -5886.629    499.62142    4233.0524   -2138.0076    76.040294 
   24600    530.29764   -161.74907   0.47982445   -161.26925   -4188.1862    4.2298684    4.2298684    4.2298684   -4188.1862   -8534.6747   -1429.7364   -2600.1474   -8876.7633   -7477.7382   -8225.7751    75.679901 
   24700    518.40571   -161.73996   0.46906438    -161.2709    8343.7771    4.2231188    4.2231188    4.2231188    8343.7771     2601.467    18515.726    3914.1385   -5354.2903   -302.32654    -678.5191    75.318192 
   24800    492.32573   -161.71692   0.44546667   -161.27145    5588.1753    4.2276957    4.2276957    4.2276957    5588.1753    7961.8449    9820.1912   -1017.5103   -5533.8295    3717.8249   -6650.1646    75.563343 
   24900    323.07954    -161.5631   0.29232916   -161.27077    4193.1601    4.2307932    4.2307932    4.2307932    4193.1601    5720.8855   -4497.5497    11356.144    -12836.96   -3240.6805    337.49277    75.729555 
   25000    437.77631    -161.6653    0.3961092   -161.26919   -8700.4156    4.2359545    4.2359545    4.2359545   -8700.4156     -5614.46    -18964.36   -1522.4263   -17422.055    4832.3504    4947.0138    76.007045 
   25100    393.81827   -161.62506   0.35633504   -161.26872   -3219.3232    4.2309114    4.2309114    4.2309114   -3219.3232   -14121.806    1272.8036    3191.0331   -23963.082    3785.9108    595.09699      75.7359 
   25200    326.44438   -161.56397   0.29537374   -161.26859    1277.4488    4.2305333    4.2305333    4.2305333    1277.4488   -17505.957    12277.381     9060.922   -22139.743   -3744.6036   -2584.6036    75.715596 
   25300    401.21773   -161.63212   0.36303024   -161.26909    6247.8736    4.2277646    4.2277646    4.2277646    6247.8736    10174.171    1768.8112    6800.6384   -17904.648    682.42431   -3564.3664    75.567038 
   25400    286.37137   -161.53062   0.25911483   -161.27151    5139.2059    4.2332234    4.2332234    4.2332234    5139.2059    3127.4234   -3529.4841    15819.678   -12663.853    913.21492    5388.1848    75.860127 
   25500    367.42535   -161.60118   0.33245418   -161.26873     3260.321    4.2345671    4.2345671    4.2345671     3260.321   -675.02049    12.487595    10443.496   -13244.197   -3525.3878   -57.793895    75.932386 
   25600    375.41489   -161.60714   0.33968328   -161.26745     522.7972    4.2351509    4.2351509    4.2351509     522.7972   -4077.6845    11577.339   -5931.2634   -18148.728   -1549.4489   -3930.5131    75.963799 
   25700    290.39199   -161.53157   0.26275278   -161.26882    2468.4802    4.2301721    4.2301721    4.2301721    2468.4802   -8928.0059    16523.713   -190.26658   -14648.955   -2966.2139    6789.2167    75.696205 
   25800    503.80079   -161.72338   0.45584954   -161.26753    1219.1446    4.2256635    4.2256635    4.2256635    1219.1446    4372.0335    1547.6464   -2262.2461   -9935.7044   -2762.6888   -2200.3588    75.454428 
   25900    464.87038   -161.69045   0.42062449   -161.26983    2896.7328    4.2303766    4.2303766    4.2303766    2896.7328    5831.9581   -2473.4994    5331.7396   -6582.2667   -984.36182   -574.56183    75.707182 
   26000    514.02456    -161.7355   0.46510022    -161.2704   -949.81897    4.2339912    4.2339912    4.2339912   -949.81897    1074.6489   -3759.1173   -164.98843   -2594.0543     616.0723    7346.5405    75.901412 
   26100    600.20287   -161.81308   0.54307617   -161.27001   -10738.427    4.2361552    4.2361552    4.2361552   -10738.427   -19223.024    3829.7882   -16822.044   -100.47256    511.67522    1208.3349    76.017853 
   26200    503.20483   -161.72588    0.4553103   -161.27057     -384.878    4.2272885    4.2272885    4.2272885     -384.878   -18157.343    19647.683   -2644.9745    163.52183    -5844.299    3478.2843     75.54151 
   26300    682.12692   -161.88634   0.61720277   -161.26914   -6193.5597    4.2272125    4.2272125    4.2272125   -6193.5597    -9365.779   -2655.7939   -6559.1062    2916.4045   -2760.4662   -882.85862    75.537438 
   26400    579.43502   -161.79404   0.52428499   -161.26976     119.0528    4.2264413    4.2264413    4.2264413     119.0528   -3582.0608   -3003.5413    6942.7606    6755.1705   -2313.7553    9478.7291      75.4961 
   26500    555.06219   -161.77156   0.50223193   -161.26933   -1496.4509    4.2337803    4.2337803    4.2337803   -1496.4509   -2801.1761   -4773.5001    3085.3234    9554.3318   -4638.5606    3441.2904     75.89007 
   26600    690.48849   -161.89251    0.6247685   -161.26774   -4529.0477     4.235265     4.235265     4.235265   -4529.0477   -2114.5091   -6670.2759    -4802.358    8679.0992   -3569.1698    3669.2894    75.969936 
   26700    536.67639   -161.75432   0.48559607   -161.26873    4140.5777    4.2316951    4.2316951    4.2316951    4140.5777   -10561.411    8326.9381    14656.206    7994.7932    -7086.481    3708.9135    75.777995 
   26800    611.28323   -161.82267   0.55310191   -161.26957      135.196    4.2270865    4.2270865    4.2270865      135.196   -5059.4929   -4550.6393     10015.72    5610.7634   -4969.6691   -4552.1743    75.530684 
   26900    469.80937   -161.69529   0.42509339   -161.27019   -603.09574     4.228398     4.228398     4.228398   -603.09574   -4073.8939   -6641.6354     8906.242    2067.8444    3114.2024    8256.1842    75.601006 
   27000    550.10892   -161.76659   0.49775011   -161.26884     1855.608    4.2327562    4.2327562    4.2327562     1855.608    9095.6811   -9885.0952    6356.2382    2751.0437   -1886.7967   -1049.1712    75.835013 
   27100     581.0455   -161.79495   0.52574218   -161.26921    174.93052    4.2360265    4.2360265    4.2360265    174.93052    1699.7945   -17868.179    16693.176   -609.20329   -4867.2476   -1669.4616    76.010924 
   27200    411.10414   -161.64127   0.37197567   -161.26929    3197.2636    4.2319827    4.2319827    4.2319827    3197.2636   -5678.2744    -3576.574    18846.639   -3206.8608    663.99631    3621.3751    75.793444 
   27300    534.51195   -161.75167   0.48363764   -161.26803   -12892.636       4.2298       4.2298       4.2298   -12892.636   -14540.424   -25423.055     1285.572   -9792.5471    998.19249   -1050.4491    75.676232 
   27400    449.18494    -161.6748   0.40643197   -161.26837   -3353.2984    4.2266202    4.2266202    4.2266202   -3353.2984    2093.7571    -16222.05    4068.3972   -16336.283   -1383.8866    4766.8884    75.505689 
   27500    445.08338   -161.67182    0.4027208    -161.2691    1522.6841    4.2328226    4.2328226    4.2328226    1522.6841    16263.276   -14815.022    3119.7987   -12851.324    2570.0089     1656.299    75.838581 
   27600    407.38679   -161.64016   0.36861213   -161.27155    7113.2743    4.2333242    4.2333242    4.2333242    7113.2743    8795.4421   -4012.5387     16556.92   -10027.001    654.63128    728.54836    75.865545 
   27700    282.23151   -161.52843     0.255369   -161.27306    5680.5374    4.2338718    4.2338718    4.2338718    5680.5374    2822.1016    5087.5721    9131.9384   -12561.562   -3692.4178    2687.4995     75.89499 
   27800    417.11805   -161.64865   0.37741718   -161.27123   -1906.0982    4.2265703    4.2265703    4.2265703   -1906.0982    12785.042   -20481.613    1978.2757   -19950.273   -2798.8247   -1821.5102    75.503016 
   27900    276.07786   -161.52343   0.24980105   -161.27363   -2359.1125    4.2261372    4.2261372    4.2261372   -2359.1125    14777.354   -30121.302    8266.6105   -25879.712   -2299.4475    6428.4811    75.479808 
   28000    273.61507   -161.52193   0.24757266   -161.27436    4687.0473    4.2299824    4.2299824    4.2299824    4687.0473     23402.73   -21700.263    12358.674   -21884.039   -2143.5066     303.6433    75.686022 
   28100    311.11953   -161.55617   0.28150749   -161.27466    10315.263    4.2347038    4.2347038    4.2347038    10315.263    19037.134   -8686.1551     20594.81   -11772.909   -4200.4099   -2718.2989    75.939741 
   28200    275.04384   -161.52477   0.24886545    -161.2759    13314.699    4.2337317    4.2337317    4.2337317    13314.699    6386.9678    10259.038    23298.091   -2255.4405   -5172.4532    3530.4144    75.887457 
   28300    406.66349   -161.64087   0.36795767   -161.27291     5608.021     4.228086     4.228086     4.228086     5608.021    17864.362   -12154.645    11114.346   -7346.6861   -6863.0844   -1197.4277    75.584273 
   28400    345.04874   -161.58574   0.31220735   -161.27353   -4819.1296    4.2292129    4.2292129    4.2292129   -4819.1296     19508.21   -30940.646   -3024.9526   -14867.588   -5200.0137    10820.445    75.644723 
   28500    404.42195   -161.63999   0.36592948   -161.27406   -8152.3147     4.230754     4.230754     4.230754   -8152.3147    11253.096    -26526.66   -9183.3803   -12364.396    2852.5935    10051.827    75.727446 
   28600     488.6581   -161.71526   0.44214812   -161.27311   -2881.9839    4.2338532    4.2338532    4.2338532   -2881.9839    7335.6021   -18245.898    2264.3447   -5432.5396    1414.1696    -3148.537    75.893989 
   28700    323.01163   -161.56401   0.29226771   -161.27174    6979.1009    4.2349365    4.2349365    4.2349365    6979.1009    13151.766   -2252.4686    10038.005    1116.2217   -3831.4647    6916.7493    75.952263 
   28800    390.60784    -161.6249   0.35343018   -161.27147    3844.1216    4.2311306    4.2311306    4.2311306    3844.1216    14969.412   -8751.8958    5314.8484    4313.4988    2662.7659   -465.81029    75.747673 
   28900    329.66397   -161.57124   0.29828689   -161.27295   -31.617938    4.2272798    4.2272798    4.2272798   -31.617938    10537.903   -21621.775    10989.018   -5115.2187    1874.2843    2734.8998    75.541044 
   29000    241.07591   -161.49252   0.21813055   -161.27439    3780.4425    4.2263922    4.2263922    4.2263922    3780.4425    9793.3811   -17917.896    19465.842   -7273.0298   -398.52647    10446.359    75.493471 
   29100    348.86129    -161.5897   0.31565703   -161.27404    1481.1115    4.2315993    4.2315993    4.2315993    1481.1115    12790.889   -27632.371    19284.816    3303.3786    5031.7825   -2815.6435    75.772848 
   29200    173.61018   -161.43323   0.15708614   -161.27614    9655.1031    4.2332736    4.2332736    4.2332736    9655.1031    9589.1724   -4241.6988    23617.836    11339.102   -311.23764    4244.0077    75.862824 
   29300    291.60399   -161.53949   0.26384942   -161.27565    8492.8225    4.2319878    4.2319878    4.2319878    8492.8225    9794.2288   -536.01974    16220.258    11953.144   -3628.9848    2436.4021    75.793721 
   29400    368.82956   -161.60767   0.33372474   -161.27394    3608.7307    4.2290833    4.2290833    4.2290833    3608.7307    19690.151   -19352.045    10488.086    3963.6272    1827.3398    10193.949    75.637769 
   29500     263.2664   -161.51247   0.23820897   -161.27426    4171.7457    4.2260581    4.2260581    4.2260581    4171.7457    19704.407   -15735.762    8546.5918   -5646.0884    3637.9706    16287.589     75.47557 
   29600    428.52599   -161.65961   0.38773932   -161.27187   -3940.1675    4.2327583    4.2327583    4.2327583   -3940.1675    12041.641   -27789.464    3927.3201   -267.10108   -686.14873    3416.3635    75.835127 
   29700    412.99353   -161.64467   0.37368523   -161.27098   -2994.2747    4.2383771    4.2383771    4.2383771   -2994.2747    10377.492   -17961.053   -1399.2629    5125.2048   -102.21378    4992.4766    76.137531 
   29800      474.619   -161.70076   0.42944524   -161.27131   -2840.8947    4.2353633    4.2353633    4.2353633   -2840.8947    4865.1082   -7763.0237   -5624.7684    5491.0335    626.83929   -370.08735    75.975229 
   29900    491.82895   -161.71809   0.44501717   -161.27308    4200.1837    4.2287435    4.2287435    4.2287435    4200.1837    14188.317   -15005.977    13418.211    644.48611   -2996.3757       2226.9    75.619539 
   30000    494.89641    -161.7218   0.44779267   -161.27401   -1920.2934    4.2279567    4.2279567    4.2279567   -1920.2934    10431.354   -11130.443   -5061.7912   -5269.6683   -5045.4002    6371.1017    75.577338 
   30100    473.17432   -161.70279   0.42813807   -161.27465   -6787.5446    4.2303084    4.2303084    4.2303084   -6787.5446   -7220.3663   -14099.671    957.40346   -7511.9551    -6394.273   -2149.4097    75.703525 
   30200    596.12934   -161.81155   0.53939036   -161.27215   -15617.445    4.2386181    4.2386181    4.2386181   -15617.445   -22204.853   -22033.336   -2614.1452    700.54136   -13356.579    1916.3512     76.15052 
   30300    540.85358   -161.76017   0.48937568   -161.27079   -10796.088    4.2398749    4.2398749    4.2398749   -10796.088   -11438.203   -20258.822    -691.2392    2628.8339   -2872.9293   -3052.3047    76.218276 
   30400    577.33468   -161.79203   0.52238455   -161.26965   -1775.6985    4.2318373    4.2318373    4.2318373   -1775.6985    9665.8417   -17674.447    2681.5099   -3642.9698   -3409.7434   -1162.9984    75.785632 
   30500    444.68377   -161.67513   0.40235922   -161.27277    7722.9058    4.2289033    4.2289033    4.2289033    7722.9058    7414.4321    2642.8596    13111.426   -768.45883   -7134.2963    418.98674    75.628115 
   30600    464.78771   -161.69393   0.42054969   -161.27338    -4784.876    4.2343864    4.2343864    4.2343864    -4784.876   -9306.0199   -3400.1633   -1648.4446   -7039.6209    3500.7829    3116.4004    75.922668 
   30700    501.25656   -161.72652   0.45354747   -161.27297   -6885.8969    4.2370908    4.2370908    4.2370908   -6885.8969   -1173.2762   -24096.074    4611.6592   -4968.1231    153.12275    4502.3317    76.068229 
   30800    370.24116    -161.6085   0.33500198    -161.2735   -1007.5756    4.2388023    4.2388023    4.2388023   -1007.5756    6980.3431   -22498.393    12495.323    2808.8445   -1899.9114    99.462818    76.160447 
   30900     472.9416   -161.69939   0.42792749   -161.27147     5978.865    4.2279287    4.2279287    4.2279287     5978.865    15939.266    -8797.307    10794.636     1852.539    4594.1434    10890.641    75.575837 
   31000    394.09565   -161.62857   0.35658603   -161.27199    11344.228    4.2259951    4.2259951    4.2259951    11344.228    5840.0973    6084.7295    22107.856     5243.221   -4239.8144    3540.4028    75.472194 
   31100    404.17186   -161.63946   0.36570319   -161.27376    6437.6218    4.2312439    4.2312439    4.2312439    6437.6218   -10923.918    17031.525    13205.258    522.32477   -5970.6453    676.89708    75.753757 
   31200    415.09191   -161.64898   0.37558388   -161.27339   -3885.1021    4.2400897    4.2400897    4.2400897   -3885.1021   -13976.993   -9471.0158    11792.702   -1648.4598   -6343.9803    1415.2447    76.229864 
   31300    391.72402   -161.62641   0.35444013   -161.27197    4021.2056    4.2303539    4.2303539    4.2303539    4021.2056    12280.618   -11050.009    10833.009    5937.2492   -8951.7533   -5817.0351    75.705964 
   31400    375.25265   -161.61094   0.33953648    -161.2714    4201.5436    4.2236559    4.2236559    4.2236559    4201.5436    8409.7606   -1645.2533    5840.1235     3801.802    -14656.05    8360.7213    75.346937 
   31500     453.1432   -161.68153   0.41001349   -161.27151    5019.9585    4.2250267    4.2250267    4.2250267    5019.9585   -1808.4547    13148.173    3720.1575    2895.1402   -19266.053    1333.7685    75.420322 
   31600    312.94419   -161.55722   0.28315848   -161.27406    6596.4456    4.2367723    4.2367723    4.2367723    6596.4456   -23272.968    27568.514    15493.791    3787.7328   -7773.0278    2511.1946    76.051075 
   31700    487.36608   -161.71442   0.44097907   -161.27344    -5863.613    4.2377675    4.2377675    4.2377675    -5863.613   -13816.439   -7850.4391    4076.0389    1303.3631   -11444.549    3316.5318    76.104685 
   31800    510.81872   -161.73366   0.46219951   -161.27146   -10201.941    4.2316462    4.2316462    4.2316462   -10201.941    10635.761   -21687.507   -19554.076    6984.6812   -4355.5477    2822.7156    75.775367 
   31900    554.71609   -161.77159   0.50191878   -161.26967   -1155.6276    4.2271373    4.2271373    4.2271373   -1155.6276    5568.7781   -4645.5301   -4390.1307     6362.524   -943.25634    901.36106    75.533403 
   32000    597.52751   -161.81099   0.54065545   -161.27034   -358.75445    4.2296326    4.2296326    4.2296326   -358.75445   -14246.627    22160.824   -8990.4602    5567.8055   -5050.4871    289.91561    75.667249 
   32100    499.76096   -161.72294   0.45219422   -161.27075   -6388.9276    4.2384032    4.2384032    4.2384032   -6388.9276   -30685.292    30128.936   -18610.427    6192.5543    -806.0893    4182.0644    76.138937 
   32200    614.74837   -161.82531   0.55623724   -161.26907   -10415.852    4.2358678    4.2358678    4.2358678   -10415.852   -16309.032    -4965.615   -9972.9106    1094.6871   -1096.0372   -2785.2952    76.002377 
   32300    488.12183   -161.71125   0.44166289   -161.26959   -5754.1954    4.2298965    4.2298965    4.2298965   -5754.1954   -1711.3856   -8399.8008   -7151.3999    1546.9972    1067.7795   -8514.4477    75.681412 
   32400    509.34916   -161.73031   0.46086983   -161.26944    11427.836    4.2250716    4.2250716    4.2250716    11427.836    1354.8506    17454.926    15473.732   -4613.2197    1394.1328    661.07907    75.422726 
   32500    465.76813   -161.69239   0.42143679   -161.27096    10588.785    4.2332532    4.2332532    4.2332532    10588.785   -17960.042    40789.071    8937.3243   -5277.4238   -2093.1022    -3729.449    75.861728 
   32600    571.35099   -161.79018   0.51697038   -161.27321   -7815.2217     4.235344     4.235344     4.235344   -7815.2217   -21225.441   -6727.5847    4507.3605   -5369.6448   -135.48869   -4702.2267    75.974189 
   32700    498.96037   -161.72548   0.45146983   -161.27401    -8476.015    4.2322296    4.2322296    4.2322296    -8476.015   -14959.178   -14414.657    3945.7901     -7465.56    1726.7123    3193.3311    75.806711 
   32800    651.00936    -161.8591   0.58904695   -161.27006   -9234.1826    4.2275601    4.2275601    4.2275601   -9234.1826   -15806.062   -3595.6046   -8300.8808   -7108.4647    3110.3877    2398.1887    75.556071 
   32900    498.87271   -161.72083   0.45139051   -161.26944    4270.5289    4.2292097    4.2292097    4.2292097    4270.5289   -10150.663    30790.853   -7828.6031   -1113.2711    5635.9622    5028.2589    75.644553 
   33000    719.13872   -161.92057   0.65069183   -161.26988   -12579.429    4.2368558    4.2368558    4.2368558   -12579.429     -19009.1   -9781.2972   -8947.8899    2928.2025    1554.1212    4031.1074    76.055574 
   33100    552.03748   -161.77028   0.49949511   -161.27079   -3810.7612    4.2338934    4.2338934    4.2338934   -3810.7612    677.77991   -18093.383    5983.3196   -4888.3011    255.91709    5794.8226    75.896152 
   33200    502.98409   -161.72791   0.45511057    -161.2728   -840.46482    4.2288317    4.2288317    4.2288317   -840.46482   -5910.8011   -5230.3996    8619.8062   -11340.442   -2548.9852   -3396.4616    75.624269 
   33300    525.32819    -161.7493   0.47532798   -161.27397    1969.3542    4.2291663    4.2291663    4.2291663    1969.3542   -9458.1606    14931.286    434.93729   -4089.9206     5310.889   -1846.0748    75.642224 
   33400    446.07131   -161.67667   0.40361469   -161.27305    5193.0938    4.2346145    4.2346145    4.2346145    5193.0938   -10031.213     18808.47    6802.0244    -3120.473    1317.5359    458.61518    75.934938 
   33500    447.17015   -161.67475   0.40460895   -161.27014     4842.261    4.2368046    4.2368046    4.2368046     4842.261   -14138.885   -4365.1976    33030.866   -1433.7553   -2152.2933   -3433.0408    76.052815 
   33600    447.50504   -161.67473   0.40491197   -161.26982    8881.6436    4.2322903    4.2322903    4.2322903    8881.6436   -2687.8391    3833.5913    25499.179   -1409.7837    4168.8851   -6821.1243    75.809975 
   33700    519.92412   -161.74114   0.47043827    -161.2707    2090.2659    4.2288468    4.2288468    4.2288468    2090.2659    399.94585    2601.8957    3268.9561    1823.8956    2266.6159   -1939.0457    75.625081 
   33800    445.32539   -161.67365   0.40293977   -161.27071   -2492.7326     4.230076     4.230076     4.230076   -2492.7326   -626.47847    1873.9467    -8725.666    56.647504    -1752.582    5374.5564    75.691044 
   33900    565.98357   -161.78327   0.51211383   -161.27115   -10377.957    4.2348974    4.2348974    4.2348974   -10377.957   -11961.185   -13418.312    -5754.373   -4911.0232    8514.7203   -1718.5668     75.95016 
   34000    369.53971   -161.60794    0.3343673   -161.27357   -50.134536    4.2376344    4.2376344    4.2376344   -50.134536   -8868.2301   -21323.797    30041.624    3835.5656    3535.8629    4245.5261    76.097511 
   34100    519.61567   -161.74268   0.47015918   -161.27252    2387.6663    4.2291473    4.2291473    4.2291473    2387.6663    4927.7976   -17315.898    19551.099    246.63413   -2193.8813   -1027.1968    75.641202 
   34200    441.80228   -161.67094   0.39975198   -161.27119   -2963.8698    4.2272151    4.2272151    4.2272151   -2963.8698      19583.1   -12911.139    -15563.57   -7321.1791   -1120.3581    4771.8755    75.537574 
   34300    343.85025   -161.58298   0.31112293   -161.27186   -2300.3625    4.2288509    4.2288509    4.2288509   -2300.3625    18070.971   -10310.607   -14661.451   -4692.5853    5104.3143     6839.377      75.6253 
   34400     514.1211   -161.73643   0.46518757   -161.27124   -11015.813    4.2361078    4.2361078    4.2361078   -11015.813    -13186.13   -19756.102   -105.20788    -4586.064    684.09116   -1057.2734    76.015297 
   34500    318.53012   -161.56011   0.28821275    -161.2719    10227.204    4.2356305    4.2356305    4.2356305    10227.204   -1281.0302   -13512.536    45475.178   -7815.1721   -3040.2996    804.31778    75.989607 
   34600    481.76866   -161.70596   0.43591441   -161.27005    7247.0445    4.2289822    4.2289822    4.2289822    7247.0445   -138.12784   -5713.5919    27592.853    -6615.838    5232.3063   -3670.1782    75.632346 
   34700    423.14126   -161.65312    0.3828671   -161.27026    702.49476    4.2245084    4.2245084    4.2245084    702.49476    12308.757    665.51645   -10866.789   -1570.8388   -872.87278   -3365.9047    75.392567 
   34800    353.03989   -161.59081   0.31943791   -161.27137    114.17548    4.2280229    4.2280229    4.2280229    114.17548    13009.085     1693.095   -14359.653   -1772.5869   -9242.9661    -7167.217    75.580888 
   34900    590.70108    -161.8045   0.53447875   -161.27002   -11274.176    4.2355215    4.2355215    4.2355215   -11274.176   -12948.823   -13074.761   -7798.9455   -4033.3173   -46.335802   -10713.507    75.983739 
   35000    398.90092   -161.63054   0.36093393   -161.26961    3956.1969     4.235417     4.235417     4.235417    3956.1969    2208.4211   -20580.958    30241.128    3873.2805   -1607.0605   -7991.1579    75.978117 
   35100    523.94484   -161.74315    0.4740763   -161.26907    3908.0615    4.2313011    4.2313011    4.2313011    3908.0615    10774.482   -15528.256    16477.959   -2555.6572   -2396.1797   -12711.269    75.756832 
   35200    567.90661   -161.78334   0.51385383   -161.26949   -2915.1045    4.2271235    4.2271235    4.2271235   -2915.1045     10404.37   -3884.4203   -15265.263   -4446.5399     3770.308   -11951.093    75.532665 
   35300    490.79781   -161.71472   0.44408417   -161.27063   -3545.0047    4.2284702    4.2284702    4.2284702   -3545.0047    13756.245   -7117.1246   -17274.134    803.58895    4806.5328   -12666.123    75.604877 
   35400    624.55932   -161.83441    0.5651144   -161.26929   -13538.941    4.2360345    4.2360345    4.2360345   -13538.941    5748.4072   -26758.251   -19606.977    453.02979   -1066.2625   -11357.659    76.011354 
   35500    485.90014   -161.70876   0.43965265   -161.26911    814.42898    4.2356366    4.2356366    4.2356366    814.42898    10838.689   -16203.021    7807.6187   -7594.5721    4677.8884   -1949.8554    75.989934 
   35600    556.73313   -161.77275   0.50374383   -161.26901    1499.4414     4.231148     4.231148     4.231148    1499.4414   -7934.4986   -819.18815    13252.011   -7275.8396    7387.6895   -1055.7374    75.748604 
   35700    561.81221   -161.77732    0.5083395   -161.26898     850.8721    4.2274719    4.2274719    4.2274719     850.8721   -8750.2011    7393.7084     3909.109    2436.1787   -473.16406   -6169.6894    75.551341 
   35800    486.86637   -161.71017   0.44052692   -161.26965    3390.9608    4.2319636    4.2319636    4.2319636    3390.9608    7394.8198    3785.8379   -1007.7753   -5345.6286   -4279.0662   -3956.9097    75.792419 
   35900    662.18199   -161.86907   0.59915618   -161.26991   -4808.6096    4.2351689    4.2351689    4.2351689   -4808.6096    3150.5581   -3040.8806   -14535.506     -1583.18   -473.32895    243.91622    75.964767 
   36000    548.47265    -161.7689   0.49626958   -161.27263   -1831.6956    4.2366311    4.2366311    4.2366311   -1831.6956    7331.0607   -8499.4214    -4326.726    917.73361   -4440.1811   -2865.3529    76.043474 
   36100    629.89261   -161.84172   0.56994007   -161.27178   -4895.4302    4.2290962    4.2290962    4.2290962   -4895.4302   -4473.8373   -7096.2958   -3116.1575   -1285.7046   -4966.8871   -4021.6319    75.638462 
   36200    611.09752    -161.8231   0.55293388   -161.27017   -6226.9275    4.2237512    4.2237512    4.2237512   -6226.9275   -8713.2161   -5255.6152   -4711.9512    3151.0586    2052.7173   -8518.9205    75.352035 
   36300    599.92565     -161.813   0.54282534   -161.27018   -4094.2916     4.231224     4.231224     4.231224   -4094.2916   -632.77121   -504.96936   -11145.134    4523.6193    1898.5594   -7355.1613    75.752688 
   36400     637.6306   -161.84649   0.57694157   -161.26955   -2596.6163    4.2377479    4.2377479    4.2377479   -2596.6163    2642.8934    2997.1865   -13429.929    8678.4955   -886.64521   -7383.8607    76.103627 
   36500    552.63634   -161.77033   0.50003697   -161.27029   -3358.0031    4.2375434    4.2375434    4.2375434   -3358.0031    13414.553   -14604.804   -8883.7583    2666.2221    3824.9569   -114.94785     76.09261 
   36600    528.85907   -161.75119    0.4785228   -161.27267    3365.6909    4.2273314    4.2273314    4.2273314    3365.6909    14645.444   -16032.193    11483.822    6264.0457    6715.7724   -3670.0712    75.543812 
   36700    504.46259   -161.72884   0.45644835    -161.2724   -932.18723    4.2306669    4.2306669    4.2306669   -932.18723    2951.7903   -18141.431    12393.079    6352.6266   -2043.6878   -5146.3566    75.722769 
   36800    566.26109   -161.78194   0.51236493   -161.26958    3067.0295    4.2332624    4.2332624    4.2332624    3067.0295    4264.2634   -2002.6697    6939.4948   -1885.8413    4503.8625    6182.3088    75.862225 
   36900    521.79009   -161.74064   0.47212664   -161.26852   -2252.5322    4.2411132    4.2411132    4.2411132   -2252.5322    10214.677   -5051.6884   -11920.585    1102.7304    3604.2492    3628.9534     76.28508 
   37000    624.90754   -161.83175   0.56542947   -161.26632   -5836.9147    4.2376492    4.2376492    4.2376492   -5836.9147    14594.844   -9723.6414   -22381.947    1423.0384   -6323.8215   -161.34446    76.098311 
   37100     664.8959   -161.86806   0.60161178   -161.26645   -11480.467    4.2324462    4.2324462    4.2324462   -11480.467   -9162.1591   -15942.536   -9336.7044    3046.5967   -5211.3694    9113.7079    75.818351 
   37200    574.86383    -161.7879   0.52014887   -161.26775   -9284.6012    4.2281721    4.2281721    4.2281721   -9284.6012   -19389.531   -13201.039    4736.7667    12048.779    420.68469   -1401.7591     75.58889 
   37300    548.86717   -161.76746   0.49662655   -161.27084    774.64641    4.2316333    4.2316333    4.2316333    774.64641    -1776.352   -2757.7042    6857.9954    9291.4648   -3444.3213   -4097.0513    75.774674 
   37400    432.45345   -161.66476   0.39129297   -161.27347    7704.7654    4.2373736    4.2373736    4.2373736    7704.7654    6662.9117    7261.6832    9189.7013    11114.279    -1075.294    1401.1946    76.083461 
   37500    470.22727   -161.69919   0.42547151   -161.27372    5527.8231    4.2341535    4.2341535    4.2341535    5527.8231    -788.5671    2455.9212    14916.115    10694.042    3164.4294   -826.75288    75.910141 
   37600    436.58811   -161.66559   0.39503409   -161.27056    1941.8074    4.2261926    4.2261926    4.2261926    1941.8074   -13146.959   -10850.087    29822.468    21902.039    1929.6184   -1389.8534    75.482775 
   37700    335.49673   -161.57392   0.30356449   -161.27035    1171.2612    4.2247136    4.2247136    4.2247136    1171.2612    -23834.09    -13742.07    41089.944    26287.446    -2337.133   -189.93563    75.403554 
   37800    459.74027   -161.68709   0.41598266    -161.2711     -2065.01    4.2346855    4.2346855    4.2346855     -2065.01   -13047.122   -6488.9485     13341.04    11705.446    3299.6977    1316.8149     75.93876 
   37900    450.79378   -161.67779   0.40788768    -161.2699    3354.7686    4.2374414    4.2374414    4.2374414    3354.7686    2719.0778    12393.458   -5048.2302    6873.7472    968.14294   -2190.1385    76.087112 
   38000    510.41788    -161.7292   0.46183683   -161.26736    1110.0352    4.2342783    4.2342783    4.2342783    1110.0352    -6243.332     15741.39   -6167.9526     6530.939   -17.766349    2293.5676    75.916853 
   38100    587.63093   -161.79821   0.53170081   -161.26651   -6448.6117     4.227426     4.227426     4.227426   -6448.6117    -14738.91   -5534.5081    927.58276    6399.1315    8282.1303    912.27324     75.54888 
   38200    503.52589   -161.72337   0.45560081   -161.26777    -11998.64    4.2296981    4.2296981    4.2296981    -11998.64   -15375.053   -21941.516    1320.6498    4482.5896    2776.8601    -785.1572    75.670761 
   38300    564.51524   -161.78065   0.51078525   -161.26987   -8224.0253    4.2320895    4.2320895    4.2320895   -8224.0253   -9722.0182   -11910.474   -3039.5832    222.76392   -1152.1091      5038.47    75.799185 
   38400    513.95501   -161.73521   0.46503729   -161.27017    -2571.163    4.2384509    4.2384509    4.2384509    -2571.163   -5484.3066    7724.6139   -9953.7963   -3693.5981    1036.5272      -3156.2    76.141509 
   38500    366.51044   -161.59994   0.33162635   -161.26831    16076.796    4.2355382    4.2355382    4.2355382    16076.796      8187.91    24551.585    15490.891   -7316.3205   -383.64307   -3565.9449    75.984642 
   38600    540.87733   -161.75626   0.48939718   -161.26687    1982.5793    4.2294851    4.2294851    4.2294851    1982.5793    -7658.935   -3927.2999    17533.973    -4114.223    -779.5026    273.66926    75.659332 
   38700    404.32716   -161.63492   0.36584371   -161.26907    4862.1033    4.2246315    4.2246315    4.2246315    4862.1033    5128.3964   -12520.077    21977.991    471.61504     4787.406    684.26979    75.399159 
   38800    425.00203   -161.65555   0.38455077     -161.271     3405.534    4.2315884    4.2315884    4.2315884     3405.534    2313.1222    -10020.25     17923.73   -5896.4574    1291.1549    1003.6334    75.772265 
   38900    526.05192   -161.74504   0.47598283   -161.26906   -5217.6916    4.2399744    4.2399744    4.2399744   -5217.6916   -5319.9539    3671.0142   -14004.135   -10199.848    1917.1377    3333.2096    76.223643 
   39000    445.53431   -161.66955    0.4031288   -161.26642    5274.3557    4.2368794    4.2368794    4.2368794    5274.3557    9257.9622    13121.597   -6556.4924   -2274.8302    3385.7035    4282.8018    76.056845 
   39100    594.27068   -161.80317    0.5377086   -161.26546   -9116.8283    4.2303073    4.2303073    4.2303073   -9116.8283   -4013.1659   -11486.847   -11850.472   -4371.6156   -1618.8337    3496.7629    75.703462 
   39200    402.29047   -161.63258   0.36400087   -161.26857   -4592.4555    4.2260879    4.2260879    4.2260879   -4592.4555    18816.246   -16252.474   -16341.138   -9774.2882    1126.5422    8983.9401    75.477166 
   39300    494.55804   -161.71865   0.44748651   -161.27117    -7431.108    4.2325582    4.2325582    4.2325582    -7431.108    4961.3605   -10234.782   -17019.902    1676.1515    5726.7082    4082.4758    75.824371 
   39400     455.6731   -161.68221    0.4123026   -161.26991    1232.6935    4.2381708    4.2381708    4.2381708    1232.6935    7959.2211    12725.536   -16986.677    1759.8402   -215.33709    100.77474    76.126414 
   39500    365.70458   -161.59957   0.33089719   -161.26867    1542.2902    4.2374473    4.2374473    4.2374473    1542.2902   -266.94237    11183.158   -6289.3449    1173.6156    1310.3273    865.10711    76.087433 
   39600    414.55441   -161.64444   0.37509754   -161.26935   -96.361584    4.2273759    4.2273759    4.2273759   -96.361584   -6049.9213   -10098.465    15859.302    9861.0818    7764.3288   -3501.7943    75.546197 
   39700    292.31622   -161.53632   0.26449386   -161.27183    7555.9624    4.2229207    4.2229207    4.2229207    7555.9624    18992.155   -15188.613    18864.345    8379.1559    1500.7269     1790.044    75.307593 
   39800    475.34863   -161.70324   0.43010543   -161.27313    2596.3499    4.2293782    4.2293782    4.2293782    2596.3499    4547.1988   -8720.7184    11962.569    2668.8442   -469.13663   -995.31812    75.653596 
   39900    337.74532     -161.577   0.30559907    -161.2714    8396.6626    4.2390235    4.2390235    4.2390235    8396.6626    13254.386    7222.6695    4712.9322    4776.5725    1815.9968     117.4941     76.17237 
   40000    495.13144   -161.71674   0.44800533   -161.26874   -611.72637      4.23521      4.23521      4.23521   -611.72637    -2551.855   -1637.4039    2354.0797    9168.7414    3419.3179    3696.4502    75.966978 
   40100    546.49069   -161.76358   0.49447626    -161.2691   -2984.7335    4.2276328    4.2276328    4.2276328   -2984.7335   -9922.3179    -18209.98    19178.098    7374.3464   -1526.8777    7097.0693     75.55997 
   40200    522.49013   -161.74274   0.47276005   -161.26998     122.3073    4.2273447    4.2273447    4.2273447     122.3073    4979.0816   -13903.207     9291.047    13.064608    5151.0692    3520.8592    75.544522 
   40300    701.27715   -161.90289    0.6345303   -161.26836   -15852.546    4.2357283    4.2357283    4.2357283   -15852.546    -16956.31   -17538.228     -13063.1    5986.6118    4274.4027     5212.256    75.994873 
   40400     548.3519   -161.76347   0.49616032   -161.26731   -6794.7052    4.2393255    4.2393255    4.2393255   -6794.7052   -2437.6362   -4989.5695    -12956.91    4601.9074   -929.12179    6194.5047    76.188654 
   40500    719.67618   -161.91625   0.65117813   -161.26507   -8989.6494    4.2340768    4.2340768    4.2340768   -8989.6494   -7852.5141   -5922.8217   -13193.612   -4239.7872    336.06802    688.36908    75.906016 
   40600    636.25651   -161.84174   0.57569826   -161.26604   -3252.4717    4.2308805    4.2308805    4.2308805   -3252.4717   -4774.6716   -3866.6372   -1116.1063    10543.731    1173.4305    1771.2516    75.734243 
   40700    652.67647   -161.85882   0.59055538   -161.26826   -3805.3357    4.2291979    4.2291979    4.2291979   -3805.3357   -13079.789    843.10647    820.67495    5366.9027     4615.427    2222.8017    75.643922 
   40800    614.47251   -161.82463   0.55598764   -161.26864   -4528.3076    4.2341319    4.2341319    4.2341319   -4528.3076   -5560.3046   -8534.1435     509.5254   -4824.7964    5287.7467    3217.6288    75.908977 
   40900    631.34788   -161.83914   0.57125683   -161.26788   -3845.4241    4.2349257    4.2349257    4.2349257   -3845.4241   -4899.8766   -3029.5522   -3606.8436   -11.181911    246.85516    3731.5601    75.951682 
   41000    645.10337   -161.85223   0.58370308   -161.26852   -366.51425    4.2330488    4.2330488    4.2330488   -366.51425   -2941.8148   -6117.6855    7959.9576     1574.336    3967.6209   -121.83112     75.85074 
   41100    534.72683   -161.75314   0.48383207   -161.26931    9949.3784    4.2290562    4.2290562    4.2290562    9949.3784    6805.9407   -800.92905    23843.124   -242.59438    765.54278    3739.7013    75.636316 
   41200    593.30355   -161.80595   0.53683352   -161.26912   -5609.2482    4.2298866    4.2298866    4.2298866   -5609.2482   -18815.746   -7886.3923    9874.3939   -4968.9223   -1635.9248    8188.0053    75.680882 
   41300    521.77641   -161.74148   0.47211426   -161.26937   -4917.3579    4.2328593    4.2328593    4.2328593   -4917.3579   -3950.9716   -8820.8044   -1980.2978    1034.0522   -2093.9413    14240.841    75.840552 
   41400    606.95779   -161.81884   0.54918817   -161.26965   -3957.8728    4.2351561    4.2351561    4.2351561   -3957.8728   -17476.794    8214.8739   -2611.6979    550.30907    1028.3907    13428.402    75.964078 
   41500    498.53608   -161.72268   0.45108592   -161.27159    1673.0635    4.2356867    4.2356867    4.2356867    1673.0635   -2667.7861     1599.403    6087.5738   -7825.7746    786.46468    12572.253    75.992634 
   41600    533.42921   -161.75389   0.48265796   -161.27123    1285.0228    4.2294367    4.2294367    4.2294367    1285.0228   -2838.3038    237.68747    6455.6847    -2987.826   -4438.7909    13551.872    75.656733 
   41700    510.31827   -161.73242    0.4617467   -161.27067   -4936.1187    4.2301515    4.2301515    4.2301515   -4936.1187   -2289.0259   -26.538456   -12492.792    2147.0629   -2024.6959    16242.805    75.695099 
   41800    541.07474   -161.75937   0.48957579   -161.26979   -9826.0348    4.2320151    4.2320151    4.2320151   -9826.0348   -4249.1098    1126.7542   -26355.749   -4199.1453    1182.7976      13501.5    75.795185 
   41900     470.7105   -161.69545   0.42590875   -161.26954   -5273.6974    4.2371255    4.2371255    4.2371255   -5273.6974   -10608.197    8630.5468   -13843.442   -4320.5336    1651.9551     11979.66      76.0701 
   42000    450.88574    -161.6792   0.40797089   -161.27123    9446.0166    4.2328631    4.2328631    4.2328631    9446.0166    10449.639    2990.9816    14897.429    3978.6606    956.37067    11672.648    75.840758 
   42100    561.05688   -161.77848   0.50765605   -161.27083    332.63195    4.2293545    4.2293545    4.2293545    332.63195    6276.0198   -1864.5714   -3413.5525    273.67222    4846.0153    12926.746    75.652325 
   42200    394.33713   -161.62789   0.35680452   -161.27108    2075.6539    4.2271525    4.2271525    4.2271525    2075.6539    18929.183   -2962.5797   -9739.6412   -5071.6998    8473.8632    14929.526    75.534219 
   42300    512.86369   -161.73419   0.46404984   -161.27014   -16577.945    4.2335754    4.2335754    4.2335754   -16577.945   -10420.011   -23389.501   -15924.323   -1811.4285    59.288777    12292.442    75.879053 
   42400    380.95534   -161.61506    0.3446964   -161.27036   -747.01527    4.2355026    4.2355026    4.2355026   -747.01527   -304.18438   -15332.992     13396.13    5625.2379   -4343.6239    10263.425    75.982723 
   42500    429.89575   -161.65911   0.38897871   -161.27013    4357.4707    4.2339114    4.2339114    4.2339114    4357.4707    -5659.785   -9455.3739    28187.571    4205.4939    6864.2916    6192.4214    75.897118 
   42600     344.5889    -161.5819   0.31179128   -161.27011    14020.273    4.2281896    4.2281896    4.2281896    14020.273    7468.3238    9062.8352    25529.659    4279.8176   -1053.2489    5024.9754    75.589827 
   42700    390.25492   -161.62371   0.35311086    -161.2706    1480.5182    4.2304391    4.2304391    4.2304391    1480.5182   -7934.5517   -9362.8337     21738.94    6623.6776   -3265.7483    14038.645    75.710542 
   42800    284.99756   -161.53087   0.25787178     -161.273    5489.1771    4.2342112    4.2342112    4.2342112    5489.1771   -4311.3312   -17974.677    38753.539    4792.0651    929.66754    10839.897    75.913242 
   42900    355.67509   -161.59612   0.32182229   -161.27429    1922.7092    4.2354866    4.2354866    4.2354866    1922.7092   -11200.369    -25398.47    42366.967    7868.9906     1565.035    5789.6893    75.981861 
   43000     343.0077   -161.58418   0.31036057   -161.27382    6415.1851    4.2350633    4.2350633    4.2350633    6415.1851   -10734.264   -11399.022    41378.842    8210.9537     7302.522    4222.3223    75.959084 
   43100     403.5919   -161.63737   0.36517844   -161.27219    13001.155    4.2320055    4.2320055    4.2320055    13001.155    1986.8878   -8075.7997    45092.376    6257.9561   -2780.3563   -250.23682    75.794671 
   43200    450.44262   -161.67937   0.40756995    -161.2718    11021.108    4.2306094    4.2306094    4.2306094    11021.108    -4659.705   -5728.7043    43451.733   -1062.2938   -3235.4824    658.98027    75.719684 
   43300    388.56265   -161.62406   0.35157965   -161.27248    13788.322    4.2318541    4.2318541    4.2318541    13788.322    2748.8861   -2417.7111    41033.791   -4832.6548    4100.4717   -561.62068    75.786536 
   43400    552.02921   -161.77132   0.49948763   -161.27183   -7525.9699    4.2375742    4.2375742    4.2375742   -7525.9699   -28887.884   -25829.693    32139.667    6929.7632    1405.6798    1128.2529    76.094268 
   43500    396.14233   -161.63124    0.3584379    -161.2728   -2725.8243    4.2349593    4.2349593    4.2349593   -2725.8243   -14462.886   -18915.135    25200.548    -2646.786    215.42824   -91.179256     75.95349 
   43600    583.10443   -161.79725   0.52760514   -161.26964    -7319.013    4.2299024    4.2299024    4.2299024    -7319.013   -5024.9967   -24408.636     7476.594   -6436.4359    245.87376   -6675.8664    75.681726 
   43700    527.70751   -161.74715   0.47748084   -161.26967    6644.8036     4.226531     4.226531     4.226531    6644.8036    15690.355   -9815.6207    14059.676     6809.984    5833.3584   -5992.2816    75.500906 
   43800    439.28443   -161.66841   0.39747379   -161.27094    8087.2708    4.2311207    4.2311207    4.2311207    8087.2708    1088.3017    234.95164    22938.559   -2179.2614   -2909.6218   -6701.0376    75.747143 
   43900    499.02887    -161.7224   0.45153181   -161.27087   -3645.5429    4.2356781    4.2356781    4.2356781   -3645.5429   -5766.2842   -12554.507    7384.1629   -2114.4058   -965.04889   -10406.457     75.99217 
   44000    401.53204   -161.63334   0.36331463   -161.27003   -5643.5295    4.2334816    4.2334816    4.2334816   -5643.5295    4864.8097    -16665.62   -5129.7787    2851.1996     6480.766   -13383.223    75.874008 
   44100    421.22962   -161.65041   0.38113741   -161.26928   -9440.7598    4.2285757    4.2285757    4.2285757   -9440.7598     6688.399   -28721.207   -6289.4711    -2318.928    1770.4667   -20670.759     75.61054 
   44200    372.70287   -161.60737   0.33722938   -161.27014    5435.2433    4.2252525    4.2252525    4.2252525    5435.2433    27544.259   -15201.764    3963.2343   -3327.7971    -1512.723   -21567.562    75.432415 
   44300    351.24756   -161.58884   0.31781618   -161.27103    5284.3679    4.2321652    4.2321652    4.2321652    5284.3679    7191.7871    231.85899    8429.4576   -3376.1056    -1414.569   -19310.333    75.803254 
   44400    338.49729   -161.57662   0.30627946   -161.27034    7400.9539    4.2353895    4.2353895    4.2353895    7400.9539    7073.8262    5573.7536    9555.2818    959.17632    4897.4171   -18024.753    75.976637 
   44500    393.91983   -161.62506   0.35642694   -161.26863    974.26639    4.2348578    4.2348578    4.2348578    974.26639    -554.4316    117.67522    3359.5556   -4475.9675   -2245.3352   -20229.775    75.948029 
   44600    361.85301   -161.59517   0.32741221   -161.26776   -187.16424    4.2282486    4.2282486    4.2282486   -187.16424   -1066.0851   -12491.902    12996.495   -7933.6726   -3605.9003   -21064.937    75.592995 
   44700    376.30259   -161.60957   0.34048649   -161.26908    1397.4485     4.228589     4.228589     4.228589    1397.4485    6728.7796    -16497.88    13961.446    4688.1336    4017.7439   -17990.774    75.611252 
   44800    453.23345   -161.68127   0.41009515   -161.27117    4987.5832    4.2305186    4.2305186    4.2305186    4987.5832    7519.6334    781.53523     6661.581   -3606.4303   -1023.0097   -13905.581     75.71481 
   44900    428.88526   -161.66025    0.3880644   -161.27219    5697.0112    4.2348794    4.2348794    4.2348794    5697.0112    8990.1438   -2019.6648    10120.555   -3348.9947   -5374.4853   -10624.805    75.949189 
   45000    558.79774   -161.77745   0.50561194   -161.27184   -6041.3813    4.2351814    4.2351814    4.2351814   -6041.3813   -13063.624   -11204.783    6144.2628    4799.2481    3534.1795   -6573.1635    75.965437 
   45100    497.10179   -161.72062   0.44978814   -161.27083    807.89939    4.2304934    4.2304934    4.2304934    807.89939      3084.15   -7063.6795    6403.2278   -5807.5205     1568.783   -4667.1562    75.713454 
   45200     659.7173   -161.86617   0.59692608   -161.26924   -5535.0643    4.2283125    4.2283125    4.2283125   -5535.0643   -587.45196   -10913.092   -5104.6487   -7238.8219   -2520.5044    -3311.179     75.59642 
   45300    637.37398   -161.84516   0.57670937   -161.26845   -3862.1228    4.2298614    4.2298614    4.2298614   -3862.1228    835.54245    5116.3429   -17538.254   -1952.2342   -2147.9871    1018.1325     75.67953 
   45400    586.32764   -161.79842   0.53052157   -161.26789   -3182.4561    4.2348559    4.2348559    4.2348559   -3182.4561    566.98433    3715.9026   -13830.255    2476.3301    1255.1826    2009.8477    75.947927 
   45500    689.43491   -161.89043   0.62381519   -161.26661   -9529.8391    4.2356365    4.2356365    4.2356365   -9529.8391   -11748.686   -4760.4081   -12080.424   -5242.6197    200.80253     574.3131     75.98993 
   45600    510.42596   -161.72932   0.46184413   -161.26748    2594.2544     4.234955     4.234955     4.234955    2594.2544    14828.255    3440.6407   -10486.133   -8125.9051   -1589.6828    2288.8004    75.953259 
   45700    660.33253    -161.8644   0.59748275   -161.26692    1298.5962    4.2276813    4.2276813    4.2276813    1298.5962   -1673.1296    8079.7141   -2510.7958    5177.7829    6787.8683     3512.641    75.562569 
   45800    563.89396    -161.7783   0.51022311   -161.26808   -700.89772    4.2268886    4.2268886    4.2268886   -700.89772   -12556.523    17733.864   -7280.0338   -2119.0208    5585.1841    4302.0652    75.520071 
   45900    544.14439   -161.76072   0.49235328   -161.26836   -3596.8756      4.23052      4.23052      4.23052   -3596.8756   -4383.6445     3996.959   -10403.941   -6705.8504   -4636.2207    5287.5902    75.714886 
   46000    687.19497   -161.88915   0.62178845   -161.26736    -11397.22    4.2354459    4.2354459    4.2354459    -11397.22    2041.4195   -19089.375   -17143.704    2325.1456    3183.4035    5107.0956    75.979672 
   46100    491.97589   -161.71321   0.44515012   -161.26806   -1476.6286    4.2349056    4.2349056    4.2349056   -1476.6286    25779.764   -17872.378   -12337.272   -9612.9967   -1.5068438    4628.2137    75.950597 
   46200    616.21705   -161.82658   0.55756614   -161.26901   -6583.9932    4.2276111    4.2276111    4.2276111   -6583.9932   -3571.1203   -17324.303    1143.4438   -7143.8759    1136.2438    2902.8752    75.558804 
   46300     511.0586   -161.73427   0.46241656   -161.27186   -2783.0871    4.2284098    4.2284098    4.2284098   -2783.0871   -621.12643   -9504.6961    1776.5614    5009.8669    9844.7882    1444.8099    75.601637 
   46400     478.2078   -161.70479   0.43269247    -161.2721    5316.4417    4.2304585    4.2304585    4.2304585    5316.4417    18867.237   -3156.1921    238.28023    114.67881   -1475.7338   -1870.8558    75.711579 
   46500    547.68229   -161.76662   0.49555445   -161.27107   -3891.4074    4.2370461    4.2370461    4.2370461   -3891.4074     9015.735   -16533.328   -4156.6291   -1276.5445   -1754.2916   -7540.5617    76.065821 
   46600    353.33452   -161.59054   0.31970449   -161.27083    10010.593    4.2322115    4.2322115    4.2322115    10010.593    23700.174    2554.9403    3776.6654   -2290.2693    1385.6998   -10141.673    75.805739 
   46700    494.90165   -161.71821   0.44779742   -161.27041   -4853.5357    4.2304156    4.2304156    4.2304156   -4853.5357   -6940.8826   -8685.1238    1065.3994   -9559.5445   -951.36008   -9803.4008    75.709278 
   46800    502.93057   -161.72601   0.45506215   -161.27095   -549.77728    4.2263307    4.2263307    4.2263307   -549.77728      4710.62   -3749.7748    -2610.177   -2414.5348    1908.2106    -7225.818    75.490176 
   46900    485.05385   -161.71071   0.43888692   -161.27182    781.92643    4.2306198    4.2306198    4.2306198    781.92643    21687.598    -5245.644   -14096.175   -2424.7063    240.28105   -6752.8148    75.720241 
   47000      567.245   -161.78433   0.51325519   -161.27108   -5813.9549    4.2339151    4.2339151    4.2339151   -5813.9549    19905.776   -20959.751   -16387.891    -153.2943    3919.5629   -7804.7731    75.897317 
   47100    430.62085   -161.66065    0.3896348   -161.27102    952.42522     4.233884     4.233884     4.233884    952.42522    18682.474   -13265.429   -2559.7691   -6535.1925   -5201.9866   -7599.9118    75.895644 
   47200    460.44746   -161.68621   0.41662254   -161.26959   -3882.6154    4.2313029    4.2313029    4.2313029   -3882.6154   -7732.4896    -7662.996    3747.6392   -7375.7768   -2759.3473   -10387.295    75.756927 
   47300    418.39098   -161.64837   0.37856895    -161.2698    6421.0457    4.2257886    4.2257886    4.2257886    6421.0457    1913.9139    9799.6841    7549.5392   -1164.5674   -1925.6117   -10727.688    75.461132 
   47400    423.38692   -161.65303   0.38308939   -161.26994    5364.5004    4.2318072    4.2318072    4.2318072    5364.5004    15308.647   -1668.3186    2453.1726   -7561.7438   -2525.5587   -10026.679    75.784015 
   47500     521.5722   -161.74125   0.47192949   -161.26933    1409.7513    4.2335216    4.2335216    4.2335216    1409.7513    25810.587   -18181.465   -3399.8686    678.99355   -1023.6519   -10274.693    75.876159 
   47600    521.01194   -161.74063   0.47142256    -161.2692   -7797.2449    4.2362422    4.2362422    4.2362422   -7797.2449    11743.804   -20477.751   -14657.787    1580.5022   -1980.5167   -6792.5145    76.022534 
   47700    576.51324   -161.79115   0.52164129   -161.26951      -9145.7    4.2278116    4.2278116    4.2278116      -9145.7   -14921.915   -4186.2768   -8328.9085   -6811.5607   -3465.0257   -4679.6823    75.569557 
   47800    516.96859   -161.73871   0.46776405   -161.27094   -1034.7334    4.2256708    4.2256708    4.2256708   -1034.7334   -5391.9699     8545.139   -6257.3692   -260.99714    2094.6205   -3461.6384     75.45482 
   47900    604.25013   -161.81701   0.54673821   -161.27027    2190.3251    4.2278652    4.2278652    4.2278652    2190.3251    23603.982   -9985.5212   -7047.4851    1512.2238    841.87951     -2360.34    75.572434 
   48000    550.18869   -161.76728   0.49782229   -161.26946    -7059.792    4.2381217    4.2381217    4.2381217    -7059.792    28983.884   -34127.493   -16035.766   -3827.5156    784.58562   -3807.7852    76.123767 
   48100    522.41776   -161.74163   0.47269457   -161.26893   -2955.2511    4.2350481    4.2350481    4.2350481   -2955.2511    11647.179   -19888.348   -624.58451   -840.98481    2956.7083   -6337.5811    75.958267 
   48200     547.5013   -161.76485   0.49539069   -161.26946   -6753.5065    4.2289348    4.2289348    4.2289348   -6753.5065   -20543.777   -15214.713     15497.97    -711.4077   -2461.7658   -4499.0053    75.629804 
   48300    530.12354   -161.74865   0.47966692   -161.26898    2810.9796    4.2244128    4.2244128    4.2244128    2810.9796   -10731.002   -2915.3714    22079.312   -6686.0814   -2551.9679   -5949.0176    75.387447 
   48400     651.3716   -161.85771   0.58937471   -161.26833    2016.4828    4.2305017    4.2305017    4.2305017    2016.4828    18154.071   -16539.713    4435.0911   -515.99615   -1638.0532   -4803.7844      75.7139 
   48500     548.6647    -161.7638   0.49644335   -161.26736    1162.2998     4.234593     4.234593     4.234593    1162.2998    32089.204   -17060.489   -11541.816    2277.2144   -525.33653   -4289.3125    75.933781 
   48600    632.56195   -161.83993   0.57235534   -161.26757   -13751.216     4.235188     4.235188     4.235188   -13751.216   -10906.347    -14069.03    -16278.27    1901.0998    865.83713   -2949.8815    75.965795 
   48700    583.72451   -161.79589   0.52816621   -161.26772   -15187.091    4.2303591    4.2303591    4.2303591   -15187.091   -21889.209   -25473.647    1801.5845    1286.7144   -3266.7497   -470.89145    75.706246 
   48800    480.69266   -161.70382   0.43494082   -161.26888   -2747.2873     4.226345     4.226345     4.226345   -2747.2873    -1263.402   -10602.391     3623.931    1076.3533   -2557.6567     2866.397     75.49094 
   48900     436.6821   -161.66616   0.39511914   -161.27104    5027.8879    4.2308302    4.2308302    4.2308302    5027.8879    32051.463   -8568.7075   -8399.0924    1660.3844    341.36226    6904.7379    75.731539 
   49000    441.12513   -161.67341   0.39913929   -161.27427    6527.7961    4.2335232    4.2335232    4.2335232    6527.7961    27937.936   -3240.8086   -5113.7385    305.00344    2849.8413     1843.903    75.876245 
   49100    433.88631   -161.66948   0.39258945   -161.27689   -2238.1089    4.2336123    4.2336123    4.2336123   -2238.1089     -10866.6    -2442.416    6594.6891    8976.5452    7364.9596     1889.242    75.881036 
   49200    390.77769   -161.63191   0.35358386   -161.27833   -3948.8357    4.2309292    4.2309292    4.2309292   -3948.8357    1596.3585   -16161.569    2718.7035    7486.6841    5956.7938    2336.5871    75.736854 
   49300    433.95449   -161.66713   0.39265115   -161.27447    425.04531    4.2273707    4.2273707    4.2273707    425.04531    26862.476   -11468.079   -14119.261    3780.8473    299.10796    7979.0279    75.545917 
   49400    286.99921   -161.53347   0.25968291   -161.27379     5184.565    4.2307679    4.2307679    4.2307679     5184.565    42214.652   -5990.8061    -20670.15    8191.9445    3011.0928    16106.067    75.728193 
   49500    381.38929   -161.61983   0.34508904   -161.27474    2197.1906    4.2351796    4.2351796    4.2351796    2197.1906    4510.0186     19664.29   -17582.737    2609.3931    2039.6608    13911.845    75.965339 
   49600    288.38751   -161.53582   0.26093908   -161.27489    8410.8169     4.232926     4.232926     4.232926    8410.8169    2162.5811    18263.525    4806.3444    11388.864    571.05111    9319.4714    75.844141 
   49700    279.92661   -161.52821   0.25328348   -161.27493    7057.6324    4.2285626    4.2285626    4.2285626    7057.6324    6518.5366    14641.019    13.341832    15413.997   -123.96709    6572.1423    75.609834 
   49800    223.19827   -161.47626   0.20195448   -161.27431    10526.721    4.2272002    4.2272002    4.2272002    10526.721    25105.909    16502.038   -10027.784    3049.9776   -236.95615    10054.629    75.536779 
   49900    344.18081   -161.58461   0.31142203   -161.27318    551.31466    4.2314806    4.2314806    4.2314806    551.31466    19795.924    5141.7849   -23283.765    7691.6179    3594.0942    13675.041    75.766472 
   50000    357.02758   -161.59466   0.32304606   -161.27162    1126.8981    4.2358199    4.2358199    4.2358199    1126.8981   -4748.3864    25714.285   -17585.204    6108.6654   -2095.3608    10920.329    75.999803 
   50100    357.68097   -161.59428   0.32363725   -161.27065    -5974.199    4.2369457    4.2369457    4.2369457    -5974.199   -23178.461    11500.832   -6244.9675    5784.0004    3386.2362    4531.9925    76.060414 
   50200    291.57575   -161.53515   0.26382387   -161.27133   -3826.6885    4.2252407    4.2252407    4.2252407   -3826.6885   -17960.822   -7590.5378    14071.294    17749.031    3440.9819   -788.39823     75.43178 
   50300    292.56257    -161.5377   0.26471676   -161.27298    2597.4871    4.2240636    4.2240636    4.2240636    2597.4871    1527.7592   -2580.1985    8844.9007    10544.627   -4386.4286    4596.5473    75.368757 
   50400    321.83149   -161.56486    0.2911999   -161.27366    8378.9781    4.2328887    4.2328887    4.2328887    8378.9781    9903.5486    25529.001   -10295.616    2653.5601   -415.30507    6171.4826    75.842135 
   50500    171.23669   -161.43013   0.15493856   -161.27519    11418.687    4.2370334    4.2370334    4.2370334    11418.687    5388.7253    27725.959    1141.3764    4416.2124   -3092.8158    8702.9609    76.065138 
   50600    340.69825    -161.5819   0.30827094   -161.27363    -892.2063    4.2295205    4.2295205    4.2295205    -892.2063    5762.1981   -13238.904     4800.087    9778.9402   -4189.8179    12607.386     75.66123 
   50700    360.36362   -161.59922   0.32606458   -161.27316   -2346.3148    4.2268427    4.2268427    4.2268427   -2346.3148   -8872.6358   -6039.1852    7872.8767    13965.782    1540.1879    4611.8166    75.517616 
   50800    412.05298   -161.64406    0.3728342   -161.27123    571.82332    4.2317061    4.2317061    4.2317061    571.82332   -14326.654    15358.928    683.19617    8035.7451    6246.8963   -1715.4618    75.778586 
   50900    483.98869   -161.70538   0.43792314   -161.26745    115.88101    4.2341173    4.2341173    4.2341173    115.88101   -17455.122    38619.459   -20816.694    8377.7282    3875.2738   -2869.2796    75.908194 
   51000    436.57683   -161.66361   0.39502389   -161.26859   -1619.7133    4.2333946    4.2333946    4.2333946   -1619.7133   -3752.0538    10996.503   -12103.589    8933.6682    2406.9422    7356.3952    75.869332 
   51100    392.36556   -161.62446   0.35502061   -161.26944   -3834.4954    4.2283555    4.2283555    4.2283555   -3834.4954    10834.632    -16539.67   -5798.4472    2706.0992    3840.1452    8573.1898    75.598729 
   51200     477.5596   -161.70177   0.43210596   -161.26967   -3245.6321    4.2263115    4.2263115    4.2263115   -3245.6321    635.87236   -9370.0105   -1002.7581    6296.0709   -535.11105   -1100.0541    75.489147 
   51300    288.66923   -161.53335   0.26119399   -161.27215     10749.67    4.2318906    4.2318906    4.2318906     10749.67   -1641.9188    38342.743   -4451.8156    10094.355    82.521584    7018.9691    75.788498 
   51400    461.43115   -161.69039    0.4175126   -161.27288    1794.9776    4.2343098    4.2343098    4.2343098    1794.9776   -11596.904     27048.35   -10066.513    5402.6993    5208.4388    2295.5298    75.918548 
   51500    526.16727   -161.74839    0.4760872    -161.2723   -4701.1118    4.2285656    4.2285656    4.2285656   -4701.1118    1461.5866   -6916.3074   -8648.6146    5836.7507    455.30371   -4023.6852    75.609995 
   51600    409.16837   -161.64251   0.37022414   -161.27228   -935.92541    4.2259369    4.2259369    4.2259369   -935.92541    8384.1683   -4247.4902   -6944.4543    5939.1476    -2209.506    5808.2801    75.469077 
   51700    582.76425   -161.79813   0.52729734   -161.27083   -7816.8329    4.2316378    4.2316378    4.2316378   -7816.8329   -16711.825    2363.0092   -9101.6832    3483.1116    6534.8068    2373.2052    75.774915 
   51800    496.63243    -161.7197   0.44936346   -161.27034    -807.0306    4.2349458    4.2349458    4.2349458    -807.0306   -17974.185    28009.215   -12456.122    3050.4818    6038.8069   -5865.3965    75.952764 
   51900    616.41801    -161.8285   0.55774797   -161.27076   -14749.325    4.2350486    4.2350486    4.2350486   -14749.325   -21150.743   -9677.0863   -13420.147     4289.237    2745.9964    1732.3596    75.958291 
   52000    541.98344   -161.76265     0.490398   -161.27226   -3939.0298    4.2289989    4.2289989    4.2289989   -3939.0298    5.2638178   -13272.264     1449.911     2069.305    3134.9762   -336.86917    75.633242 
   52100     420.3759   -161.65272   0.38036495   -161.27235    5920.2518    4.2319697    4.2319697    4.2319697    5920.2518    5831.5503    9554.1275    2375.0777    5671.1694    760.29178    3817.1098    75.792747 
   52200    535.79317   -161.75511   0.48479692   -161.27031    6552.3648    4.2316038    4.2316038    4.2316038    6552.3648   -4108.2743    15831.004    7934.3643    6252.2583   -5149.8458     4610.864    75.773088 
   52300    484.54516   -161.70841   0.43842664   -161.26999    2791.6662    4.2338345    4.2338345    4.2338345    2791.6662   -4071.8504    14383.958   -1937.1085    4697.2575   -1557.1143   -919.44731    75.892986 
   52400    482.89171   -161.70535   0.43693057   -161.26842   -8388.7604    4.2329887    4.2329887    4.2329887   -8388.7604   -14108.855   -3168.7223   -7888.7035    5723.2475    4036.1905    3845.9309    75.847509 
   52500     452.5882   -161.67844   0.40951131   -161.26893   -2272.0196    4.2311417    4.2311417    4.2311417   -2272.0196   -810.84832   -4800.6455    -1204.565    2607.0322    110.13439   -4572.0213    75.748269 
   52600    540.07975   -161.75969    0.4886755   -161.27101    2153.0037    4.2308355    4.2308355    4.2308355    2153.0037    2946.2064    13896.991   -10384.187    2871.2284    837.59271    3225.0178    75.731825 
   52700    595.21389   -161.80992   0.53856204   -161.27136   -2631.3307    4.2309458    4.2309458    4.2309458   -2631.3307   -17186.793    22016.386   -12723.585    3723.1816    6598.8423    4241.7206     75.73775 
   52800    443.89978   -161.67419   0.40164985   -161.27254   -8773.5108    4.2344547    4.2344547    4.2344547   -8773.5108   -25404.249    17758.858   -18675.141    2818.9279    4706.3422   -6329.5738    75.926343 
   52900    396.60679   -161.63193   0.35885816   -161.27307    -1720.179    4.2310247    4.2310247    4.2310247    -1720.179   -11834.858    10297.138   -3622.8169   -1331.3827    1592.0051    1057.7435    75.741986 
   53000    440.27579   -161.67014   0.39837079   -161.27177    810.36968    4.2341678    4.2341678    4.2341678    810.36968   -2696.0992    3199.4648    1927.7434   -6614.2673    630.68551     -3772.29    75.910907 
   53100    379.44578     -161.613   0.34333051   -161.26967    14950.843    4.2308553    4.2308553    4.2308553    14950.843    7416.9825    43142.775   -5707.2284   -4980.1777   -2768.6885   -5926.3372    75.732889 
   53200    364.76394   -161.60023   0.33004608   -161.27018    10885.902    4.2293547    4.2293547    4.2293547    10885.902     633.1136    37868.775   -5844.1833   -8189.2261   -7315.2875   -912.73774    75.652331 
   53300     395.2115   -161.62857   0.35759567   -161.27098   -2875.6972    4.2325686    4.2325686    4.2325686   -2875.6972   -10612.366    15587.596   -13602.322   -3194.6358   -1927.6217   -1577.1131    75.824929 
   53400    426.77846   -161.65672   0.38615812   -161.27056   -3795.8452    4.2349416    4.2349416    4.2349416   -3795.8452     -10271.1    12694.216   -13810.651     -7044.25    5539.4682    2635.8876    75.952535 
   53500     504.5552   -161.72789   0.45653215   -161.27136   -3538.1639    4.2329658    4.2329658    4.2329658   -3538.1639   -4730.7434    300.64498   -6184.3933   -8884.7238    1082.4682   -2187.4808    75.846279 
   53600    386.16735   -161.62179   0.34941233   -161.27238    7236.4124    4.2300649    4.2300649    4.2300649    7236.4124     2296.352    24157.783   -4744.8973   -5285.1834    6777.4522   -1651.1841    75.690453 
   53700      406.239   -161.64009   0.36757359   -161.27251    5129.0009    4.2319398    4.2319398    4.2319398    5129.0009   -18804.923    22949.688    11242.238   -6403.2002    2320.9166    3390.6544     75.79114 
   53800    490.99528   -161.71649   0.44426285   -161.27223   -1054.8005    4.2304286    4.2304286    4.2304286   -1054.8005    -22138.35    5790.5355    13183.413   -8729.7731   -6134.2153   -1840.1937    75.709976 
   53900    449.25121   -161.67799   0.40649193    -161.2715   -7186.5408     4.236335     4.236335     4.236335   -7186.5408    -17510.29   -4935.1619    885.82945   -3598.4132    2547.4707    1764.0844    76.027531 
   54000    485.29265   -161.70974   0.43910299   -161.27064   -3664.1516    4.2346156    4.2346156    4.2346156   -3664.1516   -13542.301    8766.4699   -6216.6232   -4566.1822   -2383.7973   -511.06795    75.934996 
   54100    532.78257    -161.7516   0.48207287   -161.26952   -1229.4684    4.2324673    4.2324673    4.2324673   -1229.4684    -5577.526    15750.505   -13861.384   -5285.4039   -4125.7352   -10663.499    75.819485 
   54200    639.64704   -161.84683   0.57876609   -161.26806    2990.4085    4.2260157    4.2260157    4.2260157    2990.4085    1205.4462    6429.8937    1335.8855   -2798.7884   -128.27694   -4382.6366    75.473294 
   54300     610.8291   -161.82177     0.552691   -161.26908   -11760.393    4.2315679    4.2315679    4.2315679   -11760.393   -13046.748   -14591.451   -7642.9793    4228.5253   -993.63116   -723.50423    75.771163 
   54400    475.74449   -161.69941   0.43046361   -161.26895   -8720.4807    4.2354678    4.2354678    4.2354678   -8720.4807   -7307.6356   -6979.4948   -11874.312    3292.4249     1279.603   -2277.9442     75.98085 
   54500    587.24388   -161.79875    0.5313506    -161.2674   -6410.4034    4.2362783    4.2362783    4.2362783   -6410.4034   -17064.899   -5618.4883    3452.1774    1612.1116    2945.6867   -2243.4091    76.024479 
   54600    520.34487   -161.73865   0.47081897   -161.26783    7022.2699    4.2310505    4.2310505    4.2310505    7022.2699   -2466.9216    8357.7366    15175.995    5519.3834    8293.2172   -6679.3499    75.743373 
   54700    488.53978   -161.71095   0.44204106   -161.26891    11280.755    4.2286488    4.2286488    4.2286488    11280.755     1062.545    11860.587    20919.134   -4021.3628    7980.9966   -7555.4138     75.61446 
   54800    528.93314   -161.74779   0.47858982    -161.2692    -2655.818    4.2328775    4.2328775    4.2328775    -2655.818   -7633.7023   -15697.181     15363.43    -1195.347    237.73074   -4575.3044    75.841534 
   54900    427.58098    -161.6563   0.38688426   -161.26941   -2464.3579    4.2353366    4.2353366    4.2353366   -2464.3579   -9114.4293   -11276.229    12997.584    5635.2037    5134.2492     539.3075    75.973791 
   55000    615.00261    -161.8254   0.55646729   -161.26893   -9790.1407    4.2355446    4.2355446    4.2355446   -9790.1407   -24976.785   -10180.583    5786.9461   -1380.5969   -2026.7329     780.6663    75.984983 
   55100    623.06418   -161.83194   0.56376156   -161.26818   -2137.6838    4.2295136    4.2295136    4.2295136   -2137.6838   -9811.7873    1838.9176    1559.8183   -5392.9959   -1897.5302   -7016.4884    75.660859 
   55200    521.47695   -161.73973    0.4718433   -161.26788    489.70117    4.2285521    4.2285521    4.2285521    489.70117    1360.7302    1184.6661   -1076.2928    3499.3942    2996.1684   -7195.3989    75.609272 
   55300    708.75728   -161.90881   0.64129848   -161.26751   -8892.6132    4.2311455    4.2311455    4.2311455   -8892.6132     6426.821   -17172.084   -15932.577    -1350.088   -2156.9839   -7235.9242    75.748471 
   55400    657.27163   -161.86509   0.59471318   -161.27037   -8953.9144    4.2365823    4.2365823    4.2365823   -8953.9144    2871.1163   -17292.111   -12440.748     1877.214   -2450.0682   -2247.0113    76.040846 
   55500    566.04963   -161.78244    0.5121736   -161.27026   -5615.3783    4.2351059    4.2351059    4.2351059   -5615.3783   -4555.3587   -10182.865    -2107.911    648.57131   -94.502226    4002.8752    75.961374 
   55600    585.58264    -161.7984   0.52984748   -161.26855    2909.4125    4.2301514    4.2301514    4.2301514    2909.4125    7257.2461   -4192.5583    5663.5496   -1339.5955     7444.238   -2661.6028    75.695093 
   55700    523.97994   -161.74278   0.47410806   -161.26867    9277.0567    4.2288279    4.2288279    4.2288279    9277.0567    17446.153   -6661.2041    17046.221    33.201993    6261.1271   -4840.8382    75.624068 
   55800    567.76627   -161.78326   0.51372686   -161.26954   -1438.9321    4.2337897    4.2337897    4.2337897   -1438.9321    3931.1288   -14738.849    6490.9239    154.73268    5129.1801   -3979.2208    75.890577 
   55900    498.97984   -161.71961   0.45148744   -161.26812   -3810.4087    4.2389229    4.2389229    4.2389229   -3810.4087   -6285.8221   -18603.191    13457.787    1726.8466    9306.0392   -4783.6244    76.166949 
   56000    429.04222   -161.65578   0.38820642   -161.26757     937.6573     4.233497     4.233497     4.233497     937.6573   -19973.078   -9051.5002     31837.55    1320.4291   -445.14577    3481.4473    75.874838 
   56100    426.64025   -161.65597   0.38603306   -161.26993    7705.4654    4.2310882    4.2310882    4.2310882    7705.4654   -7432.4007    -2205.508    32754.305     77.14749   -1027.2954    6470.3478    75.745393 
   56200     511.6509    -161.7338   0.46295249   -161.27085    4857.2817    4.2304821    4.2304821    4.2304821    4857.2817   -2181.6031   -15245.903    31999.351    1530.7337   -1793.7076   -2480.6328     75.71285 
   56300    282.46397   -161.52763   0.25557934   -161.27205    7241.0583    4.2339203    4.2339203    4.2339203    7241.0583    11229.723   -6024.8236    16518.276     3503.894   -1652.7853   -517.86641      75.8976 
   56400    321.95922   -161.56204   0.29131547   -161.27072    5919.2985    4.2347785    4.2347785    4.2347785    5919.2985    3543.7003   -11535.063    25749.258    2047.8102   -6875.0481    2734.2847     75.94376 
   56500     423.2786   -161.65467   0.38299137   -161.27168    1485.9193    4.2366752    4.2366752    4.2366752    1485.9193    -14843.94   -11749.414    31051.112    542.86611   -10108.504    4458.9474    76.045849 
   56600    304.66076   -161.54895   0.27566345   -161.27328    2897.5761    4.2324901    4.2324901    4.2324901    2897.5761   -1442.5762   -8289.6619    18424.966    986.34218    4597.1711    12318.114     75.82071 
   56700    411.87916   -161.64389   0.37267692   -161.27121   -2613.0039    4.2278116    4.2278116    4.2278116   -2613.0039    5073.9352   -16043.502    3130.5554   -2179.4361    2062.4337    10775.415    75.569557 
   56800    417.61035   -161.64794   0.37786262   -161.27007    2492.9634    4.2308896    4.2308896    4.2308896    2492.9634    19656.242   -9820.4247   -2356.9269   -2900.1719   -3884.4531    684.39563    75.734728 
   56900    409.90871   -161.64257   0.37089401   -161.27168    8845.4663    4.2336041    4.2336041    4.2336041    8845.4663    12340.144   -9495.8721    23692.127    1023.3952    3714.0453    3569.1876    75.880597 
   57000    518.62405   -161.74037   0.46926194   -161.27111   -6367.3471    4.2366956    4.2366956    4.2366956   -6367.3471   -12238.313   -14054.373    7190.6441    318.55007    721.80831    4207.1539    76.046946 
   57100    474.82396    -161.6992   0.42963069   -161.26957   -10899.495    4.2280514    4.2280514    4.2280514   -10899.495   -4575.3205   -9726.1621   -18397.002   -2283.3485    3817.0706    11759.555    75.582419 
   57200    409.90474   -161.64153   0.37089042   -161.27064   -6281.7864    4.2290614    4.2290614    4.2290614   -6281.7864    14120.511   -9851.8112   -23114.059   -2399.6216    3314.6873        15619    75.636595 
   57300     601.1426    -161.8146   0.54392646   -161.27067    4702.0177    4.2276516    4.2276516    4.2276516    4702.0177    17658.748   -2694.7722   -857.92265   -1372.2912    6812.2971     5510.503    75.560979 
   57400    488.58943   -161.71316   0.44208598   -161.27107    8745.1525    4.2340948    4.2340948    4.2340948    8745.1525    8666.3508     3866.834    13702.273     3913.694   -2491.4345    9087.7181    75.906984 
   57500    472.10084   -161.69597   0.42716676    -161.2688     1290.712    4.2345697    4.2345697    4.2345697     1290.712   -8674.1658    5637.1325    6909.1693   -52.767605   -1159.0733    10377.743    75.932525 
   57600    578.16521   -161.79317   0.52313604   -161.27003   -11848.182     4.233855     4.233855     4.233855   -11848.182   -14710.789    -15618.34   -5215.4159   -1276.8381   -407.02121    11935.038    75.894088 
   57700     410.5159   -161.64501   0.37144342   -161.27356     1480.344    4.2291217    4.2291217    4.2291217     1480.344    7457.3234   -15095.295    12079.004    7485.1981    -2669.684    15890.202    75.639831 
   57800    596.28256   -161.81229   0.53952899   -161.27276    5321.8592    4.2271696    4.2271696    4.2271696    5321.8592    1822.4459   -10896.888    25040.019   -6483.9146   -104.23952    4157.7946    75.535137 
   57900    424.93025   -161.65861   0.38448582   -161.27413    4923.8207    4.2354078    4.2354078    4.2354078    4923.8207   -12539.083    10817.333    16493.211    2722.0357    1926.6151    1349.7702    75.977622 
   58000    468.40714     -161.696   0.42382463   -161.27217    200.34716    4.2350266    4.2350266    4.2350266    200.34716   -11014.096    11461.545    153.59242    1921.2096    1300.2907    61.144937    75.957107 
   58100    656.59851    -161.8671   0.59410413   -161.27299   -16564.347    4.2346997    4.2346997    4.2346997   -16564.347   -13472.178   -14522.905   -21697.957   -3101.7321    -2048.711    7662.4707     75.93952 
   58200    589.47955    -161.8051   0.53337349   -161.27173   -6095.7035     4.227779     4.227779     4.227779   -6095.7035    10163.033   -8964.7829   -19485.361    6351.8053     1209.727    6575.5032     75.56781 
   58300    617.84748   -161.82843   0.55904138   -161.26939   -2110.7702    4.2303836    4.2303836    4.2303836   -2110.7702    886.52619    11955.393    -19174.23   -4695.1208    2525.9608   -1499.5717    75.707561 
   58400    547.15563    -161.7637   0.49507791   -161.26862    584.65343    4.2349842    4.2349842    4.2349842    584.65343   -13936.576        27233   -11542.464    15.673785     71.46204    3430.9966    75.954829 
   58500    596.97802   -161.81016   0.54015826   -161.27001   -4728.0008    4.2360023    4.2360023    4.2360023   -4728.0008   -16659.349    6274.9614    -3799.615    207.48265   -892.85905   -10.575985    76.009619 
   58600    611.20822   -161.82465   0.55303404   -161.27161   -5609.3711    4.2320576    4.2320576    4.2320576   -5609.3711   -15736.666    6911.8906   -8003.3376   -2399.7673   -4479.6901    1301.3543     75.79747 
   58700     513.9059   -161.73561   0.46499286   -161.27061    1622.4013    4.2254612    4.2254612    4.2254612    1622.4013     7485.612    4207.3733   -6825.7814    1974.6782   -3638.0578     10197.53    75.443589 
   58800    558.05157   -161.77419   0.50493679   -161.26926    259.94243    4.2312221    4.2312221    4.2312221    259.94243   -458.16078    15294.613   -14056.625    958.18469    634.77161    4465.6462    75.752585 
   58900    614.52553   -161.82551   0.55603561   -161.26947    1590.7427    4.2346301    4.2346301    4.2346301    1590.7427    4211.3604    21772.802   -21211.934   -3246.5463    1760.4742    3932.8123    75.935776 
   59000      566.239    -161.7844   0.51234495   -161.27205   -5501.5583    4.2356491    4.2356491    4.2356491   -5501.5583    6024.7912    823.28282   -23352.749   -8724.8666    985.36268   -3475.5626    75.990609 
   59100    534.05986   -161.75454   0.48322859   -161.27131   -8163.7454    4.2280844    4.2280844    4.2280844   -8163.7454   -9804.7705    4060.2221   -18746.688   -5185.7251   -5725.2187   -4537.5182    75.584188 
   59200    426.10391    -161.6558   0.38554777   -161.27025    7816.9249    4.2238401    4.2238401    4.2238401    7816.9249   -581.15887    23285.614     746.3196   -6195.1537   -4211.1522   -3809.4189    75.356791 
   59300    527.47331   -161.74777   0.47726894    -161.2705    8478.9533    4.2314849    4.2314849    4.2314849    8478.9533   -1100.9977    27404.803   -866.94526   -8315.8718   -532.80894    -9758.196    75.766702 
   59400    467.04145   -161.69321   0.42258892   -161.27062    11308.655    4.2362784    4.2362784    4.2362784    11308.655    17610.137    33865.046   -17549.217   -543.66071   -661.45188   -1759.6824    76.024486 
   59500    360.32215   -161.59554   0.32602706   -161.26951   -592.77314    4.2378355    4.2378355    4.2378355   -592.77314    14240.956    18072.518   -34091.794   -9624.7472   -408.79998   -5900.4728    76.108348 
   59600    505.34582   -161.72674   0.45724752    -161.2695   -2612.2395    4.2285891    4.2285891    4.2285891   -2612.2395   -7474.6017    24704.045   -25066.161   -5077.9584      1375.17    -6724.273    75.611257 
   59700    464.74958   -161.69222   0.42051519   -161.27171     796.4038    4.2314785    4.2314785    4.2314785     796.4038    -21140.55     39711.19   -16181.428    1500.5343   -864.40281    744.31606    75.766358 
   59800    386.89302   -161.62287   0.35006894    -161.2728    6863.1882    4.2324831    4.2324831    4.2324831    6863.1882   -19910.519    44254.617   -3754.5329   -7198.3198   -860.18499     882.3005    75.820333 
   59900    477.23007   -161.70698   0.43180779   -161.27517    -5330.807    4.2374658    4.2374658    4.2374658    -5330.807   -6105.8368    142.12563    -10028.71    1.0769774    15.600584    1203.1956    76.088432 
   60000      355.916   -161.59602   0.32204028   -161.27398    14428.365    4.2291455    4.2291455    4.2291455    14428.365    28028.702     18252.85   -2996.4584   -4971.8086    -740.5552   -2555.2109    75.641107 
   60100    677.55437   -161.88308   0.61306543   -161.27002    3471.0975    4.2290504    4.2290504    4.2290504    3471.0975     3099.273     19753.11    -12439.09   -1345.8568    1960.4149    1879.7856    75.636004 
   60200    620.19478   -161.83127   0.56116527    -161.2701   -10032.649      4.23409      4.23409      4.23409   -10032.649   -25641.343    21376.589   -25833.192    1098.9246   -476.18623   -1461.5564    75.906727 
   60300    588.62162   -161.80327   0.53259721   -161.27067   -19062.703    4.2350904    4.2350904    4.2350904   -19062.703    -30030.89    1138.7277   -28295.948    82.188137    2460.3414   -6796.8239    75.960544 
   60400    577.72124    -161.7971   0.52273432   -161.27436    3043.6666    4.2286346    4.2286346    4.2286346    3043.6666   -5891.8668     15446.96   -424.09303    -411.5456    2074.8096   -5201.3692    75.613697 
   60500    573.62957   -161.79316   0.51903209   -161.27413    12502.011    4.2287291    4.2287291    4.2287291    12502.011    19607.566    13735.899    4162.5694   -3177.9849   -1971.1522   -3658.0092    75.618767 
   60600    519.00758   -161.74136   0.46960896   -161.27175   -3268.7436    4.2354683    4.2354683    4.2354683   -3268.7436   -5525.9878    4150.5433   -8430.7864   -5666.2981    1803.4683    92.188131    75.980879 
   60700    559.17979   -161.77776   0.50595762    -161.2718   -11271.674     4.235487     4.235487     4.235487   -11271.674   -9392.9668   -3135.5251    -21286.53   -2636.1894   -1058.9232   -13.080334    75.981882 
   60800    415.57899   -161.65011    0.3760246   -161.27408   -79.969425      4.23356      4.23356      4.23356   -79.969425    473.62341    15211.571   -15925.102    4643.9084   -1574.6813    4778.9231    75.878226 
   60900    659.30929     -161.868    0.5965569   -161.27144   -4424.4971    4.2283495    4.2283495    4.2283495   -4424.4971    4039.4761   -14232.808   -3080.1593    7288.6481    2308.7429    3256.5347    75.598407 
   61000    309.51108   -161.55204   0.28005213   -161.27199    6059.6511    4.2319636    4.2319636    4.2319636    6059.6511    24833.719   -3546.9111   -3107.8544    8242.2785    264.22693    5373.8381    75.792418 
   61100     431.4346   -161.66042    0.3903711   -161.27005   -1447.1238    4.2345859    4.2345859    4.2345859   -1447.1238    9116.1311   -18456.031    4998.5283    9059.9341    2464.7756    116.70033    75.933402 
   61200    353.20401   -161.59077   0.31958641   -161.27119    1278.9082    4.2346807    4.2346807    4.2346807    1278.9082    9527.0319   -1059.7615   -4630.5457    8287.6553     2118.866   -3320.4849    75.938496 
   61300    458.48978   -161.68582   0.41485119   -161.27097     4616.832    4.2271182    4.2271182    4.2271182     4616.832     9925.133    159.42617    3765.9369    9857.5444    649.16749    -855.8641    75.532381 
   61400    525.19538   -161.74577   0.47520782   -161.27056   -1843.4707    4.2250902    4.2250902    4.2250902   -1843.4707    10403.012   -15831.915   -101.50866    7522.4532    -2447.206   -6221.3646     75.42372 
   61500    294.19379     -161.538   0.26619272   -161.27181   -2621.9085     4.230616     4.230616     4.230616   -2621.9085     19088.18   -11601.474   -15352.432    5657.9965   -4871.9595    1354.7323    75.720036 
   61600    498.32488   -161.72338   0.45089482   -161.27248    -9048.925    4.2348194    4.2348194    4.2348194    -9048.925    1790.5561   -27887.105   -1050.2262    6712.5195    2499.0047   -208.95215    75.945963 
   61700    377.08724   -161.61495   0.34119646   -161.27376    2467.3856    4.2333513    4.2333513    4.2333513    2467.3856    11214.775   -6506.2767    2693.6581     1805.373    215.93048   -6035.1367    75.867001 
   61800    467.88206   -161.69435   0.42334952     -161.271    10882.275    4.2241699    4.2241699    4.2241699    10882.275    15854.507   -3199.8969    19992.214    2162.5728   -2753.4676    1006.1715    75.374446 
   61900    410.20078   -161.64285   0.37115829   -161.27169    5726.5155    4.2251019    4.2251019    4.2251019    5726.5155    18845.688   -9035.4692    7369.3279    1842.0654    2772.9888   -4442.8085     75.42435 
   62000    487.95786   -161.71259   0.44151453   -161.27107   -4636.7981    4.2300861    4.2300861    4.2300861   -4636.7981    2356.5317   -10498.311   -5768.6149    1204.0078     1709.137   -2416.4677    75.691586 
   62100    639.05275   -161.84835   0.57822836   -161.27012   -18458.332    4.2369583    4.2369583    4.2369583   -18458.332   -12216.644   -24333.987   -18824.366    10071.669    801.13084     75.04562    76.061096 
   62200    504.94212    -161.7255   0.45688225   -161.26862   -2604.0798    4.2310021    4.2310021    4.2310021   -2604.0798    16005.451   -11022.525   -12795.166    3440.6419   -2397.9151   -3446.4675    75.740773 
   62300    544.74088   -161.76008     0.492893   -161.26719    10907.411     4.226005     4.226005     4.226005    10907.411    32706.617   -6086.1112    6101.7276   -1904.2172   -2576.6018    26.615898    75.472723 
   62400    455.46452   -161.68243   0.41211387   -161.27032    14214.915     4.225781     4.225781     4.225781    14214.915    26931.544    4766.3544    10946.845   -5703.6144   -3601.9259   -3473.9296    75.460722 
   62500    555.38766   -161.77353   0.50252643     -161.271   -3423.3828    4.2332554    4.2332554    4.2332554   -3423.3828   -4692.0186   -10596.798    5018.6679    267.06976   -6852.8414   -4049.2824    75.861849 
   62600    559.58946    -161.7761   0.50632831   -161.26977   -12175.612    4.2376933    4.2376933    4.2376933   -12175.612   -2329.0133   -15944.436   -18253.386    5871.4602    1454.9981    138.25446    76.100686 
   62700     525.9748    -161.7433   0.47591306   -161.26739   -483.75178    4.2291729    4.2291729    4.2291729   -483.75178    28426.849   -8211.7568   -21666.347    0.6609301    1262.9654   -4683.7975    75.642578 
   62800    637.07697   -161.84536   0.57644063   -161.26892    4966.3572    4.2247784    4.2247784    4.2247784    4966.3572    28006.382    -1379.086   -11728.224    4447.4737    486.77837   -1231.8801    75.407022 
   62900    475.31961   -161.70285   0.43007917   -161.27277    6455.0911    4.2280769    4.2280769    4.2280769    6455.0911    20425.397    6814.0945   -7874.2178   -4136.1215    5110.0471   -350.19115    75.583786 
   63000    569.77974   -161.78798   0.51554869   -161.27243   -9649.6883    4.2362107    4.2362107    4.2362107   -9649.6883   -1614.8571   -18602.804   -8731.4036    1461.8612    2428.2839   -3284.1514    76.020837 
   63100    442.54196   -161.67319   0.40042126   -161.27277    223.50479    4.2348458    4.2348458    4.2348458    223.50479    23298.557   -7513.7598   -15114.283    7390.8779    1413.2299    -3742.408    75.947381 
   63200    491.67601   -161.71582   0.44487879   -161.27095    10244.726    4.2311945    4.2311945    4.2311945    10244.726    38812.108    1002.2943   -9080.2253    3982.4403    3695.4337   -572.51967    75.751107 
   63300    648.44533   -161.85733   0.58672696   -161.27061    7262.2473     4.226982     4.226982     4.226982    7262.2473    29924.821    3139.7997   -11277.879    5212.4926    1044.2864    956.06017    75.525078 
   63400    571.69494   -161.78884    0.5172816   -161.27156   -5773.6727     4.233125     4.233125     4.233125   -5773.6727    11866.563   -5886.2253   -23301.356    4837.2894    149.89717    2057.4448    75.854837 
   63500    538.65446   -161.75744   0.48738588   -161.27006   -11774.594    4.2387714    4.2387714    4.2387714   -11774.594    4971.9705   -18337.741   -21958.013    3356.1127   -4853.4855    4086.1038    76.158779 
   63600    485.99939   -161.71056   0.43974246   -161.27082     2740.303     4.233319     4.233319     4.233319     2740.303    35677.384   -16624.487   -10831.987    2488.6227   -6816.0084    1600.4598    75.865265 
   63700    671.65381   -161.88026   0.60772648   -161.27253    3729.5411    4.2286358    4.2286358    4.2286358    3729.5411    16030.052   -4566.9481   -274.48022      7209.58   -1021.8858   -604.01949    75.613763 
   63800    536.75523   -161.75729   0.48566741   -161.27162    5441.9863     4.225941     4.225941     4.225941    5441.9863    15754.026    12416.411   -11844.478    4333.4595   -329.68629   -1778.9363    75.469294 
   63900    690.14683   -161.89487   0.62445935   -161.27041   -16764.163    4.2363673    4.2363673    4.2363673   -16764.163    -9935.952   -11986.513   -28370.023    2999.2976    2211.0509   -1244.1667     76.02927 
   64000    604.58692   -161.82101   0.54704295   -161.27396   -2926.9982     4.234903     4.234903     4.234903   -2926.9982    19971.485   -14214.185   -14538.294    5264.7296    6767.8086    1020.6466     75.95046 
   64100    567.32895   -161.78762   0.51333116   -161.27429    3343.9619    4.2334337    4.2334337    4.2334337    3343.9619    23375.917   -13395.278     51.24622    1784.3561    4739.1928    580.23559    75.871435 
   64200    682.30458   -161.88838   0.61736352   -161.27102    -9113.249    4.2299427    4.2299427    4.2299427    -9113.249   -13493.398   -11667.902   -2178.4478    308.48214   -14.834329    2731.1124    75.683889 
   64300    589.58515   -161.80476   0.53346904   -161.27129    -10988.91    4.2326621    4.2326621    4.2326621    -10988.91    -11920.25   -4547.7523   -16498.727    5408.8654   -2436.9511    4232.1511    75.829956 
   64400    786.23048   -161.98165   0.71139786   -161.27025   -14721.597     4.236824     4.236824     4.236824   -14721.597    -7190.572   -14831.733   -22142.487    1775.0338   -4979.8483    4283.7612     76.05386 
   64500     680.0374   -161.88623   0.61531213   -161.27092   -2380.9845    4.2347978    4.2347978    4.2347978   -2380.9845    20101.858   -13966.529   -13278.282    2918.2086   -2767.6397    2581.9851    75.944801 
   64600    627.74662   -161.84163   0.56799833   -161.27363   -947.93217    4.2303075    4.2303075    4.2303075   -947.93217    3732.6957   -4613.6951   -1962.7972      4152.97    1407.9091    2794.6045    75.703475 
   64700    592.23981   -161.80894   0.53587103   -161.27307   -873.94614     4.223337     4.223337     4.223337   -873.94614   -5769.7244   -5050.6681     8198.554     1659.462    3603.4998   -881.18324     75.32987 
   64800    646.75391   -161.85803   0.58519653   -161.27284    -14867.15    4.2345236    4.2345236    4.2345236    -14867.15   -11762.652   -13426.759   -19412.037    1289.3077    6172.5967     -2203.05    75.930046 
   64900    768.67428    -161.9688   0.69551264   -161.27329   -4538.9309    4.2337765    4.2337765    4.2337765   -4538.9309    8979.8926   -7651.8153    -14944.87    1853.5569   -2116.9779   -4642.6373    75.889864 
   65000    650.02602   -161.85932    0.5881572   -161.27117   -3105.7992    4.2352277    4.2352277    4.2352277   -3105.7992    16627.306   -6844.8193   -19099.885    7943.5454   -1667.5111   -1136.9714    75.967928 
   65100    734.69591   -161.93361    0.6647683   -161.26884   -4063.9884    4.2281217    4.2281217    4.2281217   -4063.9884   -2664.2201   -2083.4878   -7444.2572    6001.0231   -144.35106   -458.36238    75.586188 
   65200    611.41656   -161.82557   0.55322255   -161.27235    -2634.321     4.226913     4.226913     4.226913    -2634.321   -10461.313    2353.3426    205.00726     8056.583   -3716.0857   -4532.0603    75.521382 
   65300    682.14001    -161.8889   0.61721462   -161.27168   -7460.6853    4.2275102    4.2275102    4.2275102   -7460.6853   -11045.462   -3248.7412   -8087.8525    4817.4806    277.43606   -1908.3421    75.553397 
   65400    757.18908   -161.95613    0.6851206   -161.27101   -15528.191     4.236295     4.236295     4.236295   -15528.191    -7899.244   -15728.704   -22956.625    6865.2333   -132.86063    1898.7876    76.025378 
   65500    620.73633   -161.83416   0.56165527   -161.27251   -1284.7226    4.2330293    4.2330293    4.2330293   -1284.7226    14452.707    9489.0044    -27795.88    4397.5574   -1641.0678    1363.4595    75.849693 
   65600    720.03969    -161.9218   0.65150705    -161.2703    3619.8424    4.2262635    4.2262635    4.2262635    3619.8424    9358.4383    10194.192   -8693.1026    5951.2945     1940.348    5613.7065    75.486573 
   65700     642.8923   -161.85248   0.58170246   -161.27078   -4254.3744    4.2282071    4.2282071    4.2282071   -4254.3744   -751.13326   -4657.3984   -7354.5916    10334.466    2979.5309    195.69106    75.590765 
   65800    555.80015   -161.77449   0.50289965   -161.27159   -4253.8478    4.2291371    4.2291371    4.2291371   -4253.8478   -3971.0615    -2120.072     -6670.41    10796.526    493.09477   -1129.1184    75.640655 
   65900    509.13481    -161.7304   0.46067587   -161.26972   -4759.9381    4.2346604    4.2346604    4.2346604   -4759.9381    2952.0772   -4736.2337   -12495.658    6296.8853   -1206.2802   -1053.0568    75.937406 
   66000    513.49154   -161.73352   0.46461793   -161.26891    890.33309    4.2349301    4.2349301    4.2349301    890.33309     23648.59    1582.4542   -22560.045    2197.2186   -536.68647   -2474.8059    75.951916 
   66100     643.4742   -161.85317   0.58222897   -161.27094   -4180.4453    4.2308803    4.2308803    4.2308803   -4180.4453    9105.7447    957.22901    -22604.31    2840.2121   -225.75685    3913.1411    75.734229 
   66200    484.38806   -161.71114   0.43828449   -161.27285   -594.61605    4.2203088    4.2203088    4.2203088   -594.61605    12216.063    4192.2001   -18192.111    398.60266    4422.1779    4348.3022    75.167947 
   66300    507.70392   -161.73304   0.45938118   -161.27366   -5990.1931    4.2270671    4.2270671    4.2270671   -5990.1931    4196.3553   -6036.7234   -16130.211    2778.8524    3956.2899    1756.6205     75.52964 
   66400    495.86513   -161.72198   0.44866919   -161.27331    592.54261    4.2362595    4.2362595    4.2362595    592.54261    14255.168   -989.41738   -11488.123     5320.411    2622.0881    5458.0592    76.023466 
   66500    473.97814   -161.70185   0.42886538   -161.27299    6060.0711    4.2341496    4.2341496    4.2341496    6060.0711    17492.113    5216.9299   -4528.8294   -396.46666    1709.2123    4612.3695     75.90993 
   66600    646.27393   -161.85554   0.58476223   -161.27077    -3970.323    4.2269822    4.2269822    4.2269822    -3970.323     79.23176   -3072.2903   -8917.9104    1988.7999    3487.3196    7122.1669     75.52509 
   66700    508.00674   -161.73033   0.45965518   -161.27067   -3556.1732    4.2258738    4.2258738    4.2258738   -3556.1732    16287.093   -8745.5926    -18210.02    1093.8423    2134.1467    4310.1872    75.465692 
   66800    635.03139   -161.84545   0.57458975   -161.27086   -9385.8247    4.2313652    4.2313652    4.2313652   -9385.8247    8814.0707   -15700.129   -21271.416   -3368.6557    3321.1126    138.75043    75.760274 
   66900    698.60163   -161.90329   0.63210944   -161.27118   -6699.7228    4.2347137    4.2347137    4.2347137   -6699.7228    5059.4336   -8669.9011   -16488.701    3903.0047    5518.1212    654.33622    75.940275 
   67000    591.33748   -161.80634   0.53505458   -161.27129     -4826.67    4.2333741    4.2333741    4.2333741     -4826.67    1608.4469   -6799.0064   -9289.4506    1133.9818    1223.1917   -227.45939    75.868228 
   67100    619.90366    -161.8335   0.56090186    -161.2726   -796.62228    4.2252056    4.2252056    4.2252056   -796.62228   -2852.7311   -5694.6055    6157.4698    40.704621    1277.5746     3384.621    75.429899 
   67200     652.5606   -161.86417   0.59045054   -161.27372    8392.7054    4.2231637    4.2231637    4.2231637    8392.7054    28061.061   -7555.1185    4672.1742    2150.4447    3612.1842    6245.3417    75.320595 
   67300    712.93382   -161.91913    0.6450775   -161.27405   -2436.9602    4.2331488    4.2331488    4.2331488   -2436.9602    20771.139   -21614.721   -6467.2994   -2393.4857   -3809.5009    2630.1511    75.856119 
   67400    723.44291   -161.92481   0.65458635   -161.27022   -20699.652    4.2379316    4.2379316    4.2379316   -20699.652   -12064.857   -20788.085   -29246.014   -2974.8827    2493.4704    2712.2844    76.113525 
   67500    611.52545   -161.82174   0.55332108   -161.26842    -19494.52    4.2318347    4.2318347    4.2318347    -19494.52    -17110.38   -20059.998   -21313.182     4941.225    3079.6548    1826.7893    75.785493 
   67600    553.13742   -161.76944   0.50049036   -161.26895    5210.1794    4.2248367    4.2248367    4.2248367    5210.1794     21138.64   -3715.1556   -1792.9457    1394.6935   -4839.9696   -3463.3271    75.410145 
   67700    630.36473   -161.84206   0.57036726   -161.27169    10771.278    4.2280115    4.2280115    4.2280115    10771.278    33176.006   -2024.9532    1162.7795   -2528.5022     1687.227   -988.73715    75.580278 
   67800    593.96713   -161.80958   0.53743394   -161.27215   -2069.8503    4.2343191    4.2343191    4.2343191   -2069.8503    6124.4851   -886.14093   -11447.895    2335.5688   -787.05901   -1002.0867     75.91905 
   67900    539.29389    -161.7595   0.48796444   -161.27154   -11080.108    4.2353222    4.2353222    4.2353222   -11080.108    71.041742   -13389.722   -19921.644    175.95571   -613.04525    -1773.511    75.973015 
   68000    558.52612   -161.77933   0.50536617   -161.27397   -2764.4309    4.2327394    4.2327394    4.2327394   -2764.4309    27963.405   -18070.001   -18186.697    3945.6709    5582.2384    325.08405    75.834108 
   68100     484.2468   -161.71541   0.43815669   -161.27725    5114.5714     4.231132     4.231132     4.231132    5114.5714    45813.344   -13547.622   -16922.008    4179.6769    5007.2682   -4183.5308    75.747747 
   68200    459.12085   -161.69196   0.41542219   -161.27654   -2918.6316    4.2294254    4.2294254    4.2294254   -2918.6316    6467.0858    4300.5308   -19523.511    1199.5202    12955.739   -9838.4733    75.656127 
   68300    307.03641   -161.55244   0.27781299   -161.27462     819.3356    4.2294315    4.2294315    4.2294315     819.3356    1655.5642    25467.523   -24665.081    5147.9235    3661.8445   -9379.5318    75.656457 
   68400    547.07684   -161.76748   0.49500662   -161.27247   -4380.1634    4.2335453    4.2335453    4.2335453   -4380.1634    5495.8032    586.05775   -19222.351     641.8968   -706.63653   -9458.5085    75.877432 
   68500    443.75994   -161.67389   0.40152332   -161.27237    4103.5094    4.2349958    4.2349958    4.2349958    4103.5094    40702.461   -14071.268   -14320.665   -753.22729     3143.451   -2336.8567    75.955452 
   68600    565.58575   -161.78364   0.51175388   -161.27188   -7343.0296    4.2315116    4.2315116    4.2315116   -7343.0296    12191.394    -18584.54   -15635.942   -365.79615   -2708.8049   -4406.1238    75.768137 
   68700    444.47847   -161.67493   0.40217346   -161.27275    122.41868    4.2243211    4.2243211    4.2243211    122.41868    728.23343    12461.152    -12822.13     416.6666    17.905997   -6429.8016    75.382538 
   68800    517.30509   -161.74166   0.46806852   -161.27359   -274.26851    4.2284812    4.2284812    4.2284812   -274.26851   -5851.8848    9707.1149   -4678.0356   -3597.6949    4408.5571   -5189.0187    75.605468 
   68900    623.13604   -161.83746   0.56382659   -161.27363    -773.7788    4.2318387    4.2318387    4.2318387    -773.7788    14147.029   -12892.713   -3575.6529    3258.0212    3257.1001   -10789.754    75.785709 
   69000    553.11072   -161.77319   0.50046621   -161.27272   -9556.8999    4.2393764    4.2393764    4.2393764   -9556.8999    5592.7739    -21063.61   -13199.864    995.49098    3805.3487   -5918.9963    76.191395 
   69100    580.52687   -161.79741   0.52527291   -161.27214   -4127.8066    4.2333718    4.2333718    4.2333718   -4127.8066   -3775.3244   -427.50865   -8180.5867   -5107.4332     3936.014   -7527.3315    75.868107 
   69200    566.62853   -161.78425   0.51269741   -161.27155    812.86724    4.2303182    4.2303182    4.2303182    812.86724    1823.0826    18205.728   -17590.209    4535.6134    8250.8149   -7375.9658     75.70405 
   69300    665.86269   -161.87274   0.60248655   -161.27025   -1357.1645    4.2282767    4.2282767    4.2282767   -1357.1645   -5952.5994    19488.877   -17607.771    5923.3424    4148.1732   -2283.8071    75.594498 
   69400    547.47485   -161.76698   0.49536675   -161.27162   -7418.8655    4.2356244    4.2356244    4.2356244   -7418.8655   -4025.8998    884.70107   -19115.398    4742.7267   -2033.1798   -6017.0531    75.989278 
   69500     445.3629   -161.67433   0.40297371   -161.27136   -5410.8586    4.2363987    4.2363987    4.2363987   -5410.8586    7069.8544   -11809.234   -11493.196    6898.7766    3356.2937   -3561.2667    76.030962 
   69600    556.66836   -161.77522   0.50368523   -161.27153   -174.26713    4.2304589    4.2304589    4.2304589   -174.26713    630.27448   -12141.278    10988.202     5933.446   -1491.7119     473.5899    75.711603 
   69700    561.80882   -161.78089   0.50833643   -161.27256     8005.437    4.2233028    4.2233028    4.2233028     8005.437    1745.3197    19276.582    2994.4092    6478.6434    4267.6122   -3481.9486    75.328041 
   69800    528.36367   -161.75067   0.47807455   -161.27259   -762.15917    4.2251872    4.2251872    4.2251872   -762.15917   -7702.1058    14279.694   -8864.0662    7937.7806    6753.6128   -4788.8154    75.428917 
   69900    550.66267   -161.76888   0.49825116   -161.27063   -17288.525    4.2346275    4.2346275    4.2346275   -17288.525   -7874.5891   -17245.536   -26745.449    13022.414    -3759.897   -9543.1377    75.935637 
   70000    456.27301   -161.68255   0.41284541   -161.26971   -5812.2154    4.2343432    4.2343432    4.2343432   -5812.2154    12089.507   -15991.452   -13534.701    1674.9255    800.73657   -7348.2858    75.920344 
   70100    498.88061   -161.72253   0.45139766   -161.27113    2130.8708    4.2320645    4.2320645    4.2320645    2130.8708   -5403.8209     4834.697    6961.7364    293.85806     2367.261    -2297.503     75.79784 
   70200    377.00826   -161.61281     0.341125   -161.27169    13892.186    4.2270917    4.2270917    4.2270917    13892.186    6874.9954    34569.994    231.56793    530.91026    2068.6302   -3238.1942    75.530959 
   70300    341.56389   -161.58101   0.30905419   -161.27195    4183.3298     4.229666     4.229666     4.229666    4183.3298    11919.511    9422.6339   -8792.1556   -3081.3607    9328.8109   -2044.6777    75.669041 
   70400    464.07509   -161.69168   0.41990489   -161.27178    -2757.196     4.232303     4.232303     4.232303    -2757.196    8752.5766   -3400.2845    -13623.88   -5373.8446   -655.06854   -1629.9487    75.810655 
   70500    472.96232   -161.69946   0.42794625   -161.27151   -3510.4041    4.2371173    4.2371173    4.2371173   -3510.4041    7410.6889   -708.42445   -17233.477   -6434.6722    1978.0665    -4918.695    76.069659 
   70600    438.67751   -161.66735   0.39692463   -161.27043     3162.423    4.2293347    4.2293347    4.2293347     3162.423   -10706.841    13305.645    6888.4646   -5688.4428   -4648.4635   -3478.6329    75.651259 
   70700    485.21244   -161.70887   0.43903042   -161.26984   -2017.5638    4.2250993    4.2250993    4.2250993   -2017.5638   -9282.1209    11428.094   -8198.6644   -8272.1266   -6507.5823    -6272.992    75.424211 
   70800    458.40675   -161.68633   0.41477606   -161.27156    1305.6199    4.2269047    4.2269047    4.2269047    1305.6199    3813.8566   -972.91181    1075.9149   -2071.0576    7454.6416   -6541.5039    75.520939 
   70900    456.88853   -161.68579   0.41340234   -161.27239   -1542.7731    4.2348093    4.2348093    4.2348093   -1542.7731   -1214.4788   -1981.3931   -1432.4475   -3918.7376   -4255.5243   -977.64084    75.945418 
   71000    399.61075   -161.63293    0.3615762   -161.27135    -657.5853    4.2338583    4.2338583    4.2338583    -657.5853   -4184.0949    6834.8643   -4623.5252   -13031.903    291.95138   -3656.8015    75.894266 
   71100    392.04369   -161.62692   0.35472937   -161.27219   -2377.0982    4.2268537    4.2268537    4.2268537   -2377.0982   -17059.776   -5824.8297    15753.312   -11275.461    2090.1063    3840.2058    75.518201 
   71200    467.38358   -161.69586   0.42289848   -161.27296   -494.11473    4.2258925    4.2258925    4.2258925   -494.11473   -5581.6116   -5647.1697    9746.4371   -3629.3771   -4496.1054    3239.8225    75.466694 
   71300    427.41819    -161.6593   0.38673696   -161.27257    6921.3091     4.230385     4.230385     4.230385    6921.3091    10990.663    5784.6962    3988.5683   -7234.9823    7915.8714    787.80587    75.707636 
   71400    447.38057   -161.67748   0.40479934   -161.27268    1660.1089    4.2358619    4.2358619    4.2358619    1660.1089    11440.904    3849.0325    -10309.61   -9947.4092    3571.7218    6122.9406    76.002061 
   71500    439.20388   -161.66805    0.3974009   -161.27065    2606.8636    4.2312864    4.2312864    4.2312864    2606.8636    18028.838    5374.1908   -15582.438   -6571.8556   -1329.0495    5422.4934     75.75604 
   71600    453.68697   -161.68025   0.41050551   -161.26975   -5830.6057    4.2298258    4.2298258    4.2298258   -5830.6057   -7004.9491     -6073.06    -4413.808   -11334.477    387.06419    4560.7278    75.677615 
   71700    567.25668   -161.78258   0.51326576   -161.26931   -5734.3943    4.2285403    4.2285403    4.2285403   -5734.3943   -3041.2202   -10613.919   -3548.0432   -10854.217   -4633.2641    2289.1973    75.608642 
   71800    451.27204   -161.67924   0.40832043   -161.27092     3637.133    4.2309693    4.2309693    4.2309693     3637.133    5691.2195    8740.6695   -3520.4901   -3717.2174    1155.9196     1630.182    75.739009 
   71900    450.16444   -161.67992   0.40731825    -161.2726   -2432.5884    4.2349798    4.2349798    4.2349798   -2432.5884   -2421.9358     7502.784   -12378.613   -3057.8663   -1179.3722    6467.1787     75.95459 
   72000    518.47685   -161.74163   0.46912875    -161.2725   -4441.9029    4.2316201    4.2316201    4.2316201   -4441.9029   -2146.0655   -5503.6446   -5675.9986   -5805.7071   -869.04252    11860.243    75.773965 
   72100    406.54701   -161.64056   0.36785227   -161.27271    697.32263    4.2295606    4.2295606    4.2295606    697.32263   -12573.205   -7532.5883    22197.761   -10501.983    4745.6363    8588.9246    75.663384 
   72200    428.85776   -161.66022   0.38803951   -161.27218    9981.8062    4.2260635    4.2260635    4.2260635    9981.8062   -2450.3402    3963.4819    28432.277   -4759.3595   -3828.5009    7832.9041    75.475857 
   72300    369.55603   -161.60645   0.33438206   -161.27206    5099.3862    4.2328424    4.2328424    4.2328424    5099.3862   -8984.1986    13908.401    10373.956   -4266.0005      3952.21    6905.1049    75.839645 
   72400    401.54117   -161.63464   0.36332289   -161.27132    2977.9052    4.2326832    4.2326832    4.2326832    2977.9052    501.72651    7022.4582    1409.5308   -5513.6319    7590.5106    6294.2104    75.831087 
   72500     506.7557   -161.72849   0.45852321   -161.26997   -5938.5115    4.2359635    4.2359635    4.2359635   -5938.5115   -5288.2366   -15912.694    3385.3963    1830.1143   -3320.2904    14214.664    76.007533 
   72600    410.42435   -161.64126   0.37136058    -161.2699    4345.2055    4.2294419    4.2294419    4.2294419    4345.2055   -9920.7457   -8313.7018    31270.064    661.71569    3792.8112     5362.729    75.657014 
   72700    413.24718   -161.64545   0.37391473   -161.27153     5988.909    4.2304225    4.2304225    4.2304225     5988.909    497.86291   -560.93655    18029.801   -3744.7194    -3710.706    3203.7737    75.709646 
   72800    543.58329   -161.76184   0.49184558      -161.27   -2500.8153    4.2328841    4.2328841    4.2328841   -2500.8153   -18212.224    10571.655    138.12348     2110.878    -10401.83    1102.1606    75.841885 
   72900    498.00186   -161.71941   0.45060255    -161.2688    54.668591    4.2346375    4.2346375    4.2346375    54.668591     -4487.08    16429.105   -11778.019   -1566.2986    116.88571   -1630.3478    75.936175 
   73000    503.55713   -161.72467   0.45562908   -161.26904    -4341.014    4.2357602    4.2357602    4.2357602    -4341.014    -2108.461    2702.9031   -13617.484   -3827.3107   -6904.6802    7382.8496    75.996589 
   73100    534.77328   -161.75435    0.4838741   -161.27048   -1684.3771    4.2294479    4.2294479    4.2294479   -1684.3771   -2291.6857   -9957.0814    7195.6357   -902.31415   -3194.4839    4496.0341    75.657335 
   73200    488.18158   -161.71431   0.44171695   -161.27259    -5774.433    4.2306866    4.2306866    4.2306866    -5774.433   -1553.5052     -8588.11   -7181.6836    704.40664   -5971.4117    1296.9177     75.72383 
   73300    569.18403   -161.78688   0.51500967   -161.27187   -2076.6113    4.2269088    4.2269088    4.2269088   -2076.6113   -10030.688    16313.565   -12512.711    611.32878   -9220.7384    4903.8175    75.521155 
   73400    475.29342   -161.70319   0.43005548   -161.27313   -2905.9233    4.2350262    4.2350262    4.2350262   -2905.9233   -6702.1591    17427.516   -19443.127    1385.3493    522.28771    1889.7571    75.957088 
   73500    424.13297   -161.65505   0.38376443   -161.27128    8523.2088    4.2304837    4.2304837    4.2304837    8523.2088    8004.1986    10875.528    6689.8997    5245.5489    -4126.188    6236.2563    75.712933 
   73600     474.7987   -161.69899   0.42960785   -161.26939    766.92589     4.232157     4.232157     4.232157    766.92589   -3677.4345   -11719.189    17697.401    5304.3352    2885.1861    7586.3647    75.802811 
   73700    368.12185   -161.60221   0.33308439   -161.26913    5549.6786    4.2282371    4.2282371    4.2282371    5549.6786    6910.8812   -8424.0558    18162.211    6473.3528    3568.2839    3689.3419    75.592376 
   73800    392.05479   -161.62427   0.35473942   -161.26953   -3494.6322    4.2301991    4.2301991    4.2301991   -3494.6322    -14194.96    -519.3316    4230.3947    15576.222   -7022.4615     180.2977    75.697654 
   73900    390.64101   -161.62305   0.35346019   -161.26959    2061.9659     4.232208     4.232208     4.232208    2061.9659   -310.92155    10370.254   -3873.4347    11818.896    81.711736   -3399.0398    75.805551 
   74000     456.7804   -161.68309    0.4133045   -161.26979    4884.9765    4.2324626    4.2324626    4.2324626    4884.9765    4776.8331    12441.839   -2563.7428    10857.945   -3586.7273    714.73608    75.819235 
   74100    490.04402   -161.71287   0.44340213   -161.26947   -5084.6053    4.2335404    4.2335404    4.2335404   -5084.6053   -8831.5915   -3709.0172   -2713.2073    12059.672   -3426.1416    1416.2711    75.877172 
   74200    379.41418   -161.61183   0.34330193   -161.26853    -2341.775    4.2312442    4.2312442    4.2312442    -2341.775     420.9161   -2543.3165   -4902.9247    15625.471   -479.58689    941.59359    75.753776 
   74300    401.02639   -161.63213   0.36285711   -161.26927   -5496.9505    4.2323469    4.2323469    4.2323469   -5496.9505   -19681.423    5756.8339    -2566.263     19879.47   -5886.2887    3701.3099    75.813018 
   74400    374.71522   -161.60967    0.3390502   -161.27062    7221.7682    4.2265176    4.2265176    4.2265176    7221.7682   -614.48091    10363.209    11916.577    22687.873    4106.1137   -228.55255     75.50019 
   74500    382.47921   -161.61654   0.34607522   -161.27047     2160.777    4.2304948    4.2304948    4.2304948     2160.777    4100.7492    2469.4429   -87.861018    19173.131    4528.6731    -2108.417    75.713531 
   74600    465.50335   -161.69246   0.42119721   -161.27126    -3711.062    4.2312687    4.2312687    4.2312687    -3711.062   -5459.3815    260.28283   -5934.0872    10313.714    2377.0927    2250.8029    75.755088 
   74700    446.06471   -161.67588   0.40360872   -161.27227   -4995.6406    4.2365389    4.2365389    4.2365389   -4995.6406    -1818.827   -496.43405   -12671.661     7431.469    5042.1104   -721.20269     76.03851 
   74800    518.20078   -161.74235   0.46887896   -161.27347    2194.4821    4.2318552    4.2318552    4.2318552    2194.4821    1639.9042    11796.759   -6853.2167    6310.7593   -1913.6194   -4343.0716    75.786595 
   74900    418.64743    -161.6538   0.37880099     -161.275    4823.0986    4.2292412    4.2292412    4.2292412    4823.0986    13746.685    2292.7833   -1570.1724    6980.3482     3914.033   -1483.7479    75.646245 
   75000    434.11932   -161.66664   0.39280029   -161.27384    94.352813    4.2312159    4.2312159    4.2312159    94.352813    9812.9187   -9051.2247   -478.63557    4409.6347   -4640.8176   -3248.6347    75.752255 
   75100    387.94517   -161.62562   0.35102094    -161.2746    3121.9435    4.2364597    4.2364597    4.2364597    3121.9435    17099.893    1173.2642    -8907.327    4401.6516   -5803.5436   -2762.2972    76.034246 
   75200    465.28113   -161.69396   0.42099615   -161.27296    4296.1189    4.2377266    4.2377266    4.2377266    4296.1189    6224.5493    15290.578   -8626.7707    1716.0675   -694.90513   -3441.5507    76.102477 
   75300    448.95316   -161.67778   0.40622226   -161.27156    7213.8114    4.2321851    4.2321851    4.2321851    7213.8114    10888.498     18330.83   -7577.8938    1240.0774   -2405.7735    1441.5969     75.80432 
   75400    387.80551    -161.6221   0.35089458   -161.27121    1415.8668    4.2299004    4.2299004    4.2299004    1415.8668    13929.162    6944.7206   -16626.282    7246.4075    4598.9096    2212.8814    75.681618 
   75500    444.07787    -161.6761   0.40181099   -161.27428    1773.1921    4.2292851    4.2292851    4.2292851    1773.1921    10486.769   -322.14086   -4845.0516    6632.8606     4763.174   -2024.7869    75.648596 
   75600     341.5606     -161.587    0.3090512   -161.27795    2147.0285    4.2335209    4.2335209    4.2335209    2147.0285    8960.3481    6594.9414   -9114.2039    8331.3761     302.2523   -211.64451    75.876124 
   75700    395.60621   -161.63552   0.35795281   -161.27757    801.35963     4.233286     4.233286     4.233286    801.35963   -17744.955    18254.199    1894.8348    12417.474    3442.8006    1165.4275    75.863493 
   75800    350.70639    -161.5947   0.31732651   -161.27738    3585.8811    4.2298478    4.2298478    4.2298478    3585.8811       -15495    16874.213     9378.431    15847.817    -2903.923    -176.3673    75.678798 
   75900    399.00742    -161.6361   0.36103029   -161.27507    4269.8629     4.226049     4.226049     4.226049    4269.8629   -2523.7129    13824.891    1508.4106    15916.934   -1548.5514   -1355.2841    75.475083 
   76000    511.21898   -161.73508   0.46256168   -161.27252   -10053.377     4.233647     4.233647     4.233647   -10053.377   -15717.275     306.6156   -14749.471    11977.925   -3072.6336   -9839.4111    75.882905 
   76100    290.90842    -161.5363   0.26322005   -161.27308     4849.013    4.2330541    4.2330541    4.2330541     4849.013   -2233.8733    27357.683   -10576.771    15191.503   -5965.4671   -11117.004    75.851025 
   76200    391.82037   -161.62964   0.35452731   -161.27512    1433.6958    4.2338563    4.2338563    4.2338563    1433.6958   -19456.402    24774.073   -1016.5828    15029.184    2787.9777   -6059.4996    75.894157 
   76300    252.29566   -161.50584   0.22828241   -161.27756    12961.684    4.2303974    4.2303974    4.2303974    12961.684   -5410.5376    24652.426    19643.164    19367.926    -2650.005   -4635.8335    75.708302 
   76400    318.98996   -161.56556   0.28862882   -161.27693    6485.4966    4.2322009    4.2322009    4.2322009    6485.4966   -3350.6745    17365.004    5442.1606    17526.166    1303.7644    518.22274     75.80517 
   76500    346.88099   -161.58808   0.31386521   -161.27422    222.63533    4.2330468    4.2330468    4.2330468    222.63533   -6289.3639    23158.662   -16201.392    10212.915     1378.584   -4415.1319    75.850633 
   76600    215.62473   -161.46964   0.19510179   -161.27454    7557.5301    4.2346051    4.2346051    4.2346051    7557.5301   -1721.8027    40787.367   -16392.974     3715.696     -7753.01   -6314.4637     75.93443 
   76700    528.87528    -161.7496   0.47853747   -161.27106   -3558.4016     4.232196     4.232196     4.232196   -3558.4016   -17998.536    13438.677   -6115.3454    798.45667   -4694.7828    106.72438    75.804906 
   76800    360.76732   -161.59776   0.32642985   -161.27133    6009.0133    4.2313019    4.2313019    4.2313019    6009.0133   -15093.767    13883.421    19237.386    4219.1136   -158.57762    2612.3954    75.756871 
   76900    383.16997   -161.61766   0.34670024   -161.27096   -3754.9028    4.2374371    4.2374371    4.2374371   -3754.9028   -21949.212    9913.1613    771.34196    -1003.293   -4446.6418   -267.06332    76.086883 
   77000    553.62269   -161.77174   0.50092945   -161.27081   -4275.4487    4.2332244    4.2332244    4.2332244   -4275.4487   -14530.866    5871.9567   -4167.4369   -4273.2718    104.99275   -533.77238    75.860178 
   77100    429.64063   -161.66267   0.38874787   -161.27392   -2029.1292    4.2305023    4.2305023    4.2305023   -2029.1292     107.8552    6566.4599   -12761.703   -1290.0623   -3825.2535   -974.09011    75.713934 
   77200    590.80908   -161.80678   0.53457647   -161.27221   -5253.6614    4.2275008    4.2275008    4.2275008   -5253.6614   -11129.573     7253.271   -11884.682   -3806.6318    2080.2049   -5128.5429    75.552892 
   77300    547.02652   -161.76653   0.49496109   -161.27157    -1226.941    4.2292368    4.2292368    4.2292368    -1226.941   -1635.5755    4440.3243    -6485.572    1292.1239    4806.6051   -5328.9245    75.646005 
   77400    473.97379   -161.69913   0.42886145   -161.27027    2192.6959    4.2315536    4.2315536    4.2315536    2192.6959   -724.53841    -3415.193    10717.819    4372.6787   -2167.3196   -494.57982    75.770393 
   77500    648.84918   -161.85571   0.58709238   -161.26862   -10245.991    4.2360888    4.2360888    4.2360888   -10245.991   -13264.228   -17014.471   -459.27502   -5330.5628   -4311.3442   -94.326799    76.014279 
   77600    540.27017   -161.75623    0.4888478   -161.26739   -3613.8025    4.2348526    4.2348526    4.2348526   -3613.8025    332.90035   -912.61483   -10261.693   -4986.2551   -1802.6635    -2423.415    75.947748 
   77700    447.08728   -161.67082   0.40453396   -161.26629    7746.4172    4.2260718    4.2260718    4.2260718    7746.4172    2322.6583     23147.08   -2230.4864    90.384713   -11485.499    2997.6912      75.4763 
   77800     657.3298   -161.86282   0.59476581   -161.26805    4850.6252    4.2258557    4.2258557    4.2258557    4850.6252    6362.1083     13369.05    -5179.283    -3228.549   -4637.3244   -159.78762    75.464722 
   77900    593.06682   -161.80641   0.53661933   -161.26979    2702.9821     4.231993     4.231993     4.231993    2702.9821    5567.7065    2581.0619   -39.821965   -1994.4304    1147.7647   -4913.8596    75.793998 
   78000     584.8368    -161.7972   0.52917262   -161.26803   -10864.023    4.2373437    4.2373437    4.2373437   -10864.023   -2058.7428   -13053.756   -17479.569    -4545.905   -4410.5786   -4221.5347    76.081853 
   78100    671.69403   -161.87463   0.60776287   -161.26686   -15077.808    4.2305057    4.2305057    4.2305057   -15077.808   -1562.4599   -17227.995   -26442.969   -3115.1112    4510.5567   -7270.3472    75.714116 
   78200    503.19505   -161.72308   0.45530145   -161.26777   -2723.6179    4.2285868    4.2285868    4.2285868   -2723.6179   -3892.6766    4187.1571   -8465.3341   -2832.1758   -486.20072   -7194.4912    75.611135 
   78300    586.11406   -161.79786   0.53032832   -161.26753    309.15127    4.2289035    4.2289035    4.2289035    309.15127   -10087.533    14676.896   -3661.9094   -924.94114   -1243.5777   -1477.2398    75.628121 
   78400     555.2269   -161.77282   0.50238097   -161.27044   -2949.5185    4.2333082    4.2333082    4.2333082   -2949.5185   -2535.7727   -162.68463   -6150.0982    1903.3116    432.25982    159.00753    75.864683 
   78500    308.02851   -161.55088   0.27871067   -161.27217    6313.5849    4.2349904    4.2349904    4.2349904    6313.5849    13719.016    3784.2753    1437.4633   -373.94474   -7621.5051    948.57879    75.955159 
   78600    474.58888   -161.69887   0.42941799   -161.26946    405.18948    4.2353298    4.2353298    4.2353298    405.18948   -5201.8308    14367.386   -7949.9871    6972.4971    -1123.446    7201.3627    75.973424 
   78700    408.02832   -161.63974    0.3691926   -161.27054   -2288.8544    4.2339629    4.2339629    4.2339629   -2288.8544   -19613.763     10335.51    2411.6893    14153.518   -1385.5261    3642.5275    75.899892 
   78800    312.39531   -161.55583   0.28266184   -161.27317     7699.731    4.2285734    4.2285734    4.2285734     7699.731   -9840.5837    18996.621    13943.156    15255.318    1991.4601    930.88055    75.610414 
   78900    397.56137   -161.63167   0.35972188   -161.27195   -195.83072    4.2343694    4.2343694    4.2343694   -195.83072     540.5814    10712.886   -11840.959    8228.8912    3521.9903   -3111.5142     75.92175 
   79000    410.21018   -161.64249   0.37116679   -161.27132     1785.601    4.2363118    4.2363118    4.2363118     1785.601    14914.716    3538.6691   -13096.583    10401.244   -4678.2365    801.83735     76.02628 
   79100    378.63945   -161.61334   0.34260093   -161.27074    2462.3415    4.2372741    4.2372741    4.2372741    2462.3415    11612.784    2151.4622   -6377.2222    11744.339    1495.4532    2459.3119    76.078101 
   79200     391.5708    -161.6226   0.35430149    -161.2683    1338.2691    4.2292329    4.2292329    4.2292329    1338.2691   -9558.2155    1745.9494    11827.073    16185.572    719.17345   -4620.8022    75.645795 
   79300    228.89953   -161.47797   0.20711311   -161.27086    568.46134    4.2298714    4.2298714    4.2298714    568.46134   -11012.452   -4676.6491    17394.485    20579.888    -6925.906     471.1407    75.680066 
   79400    360.66654   -161.59805   0.32633867   -161.27171    1044.6533    4.2310946    4.2310946    4.2310946    1044.6533     6874.831   -16212.715    12471.844    14894.082    2884.0384    -3236.779    75.745739 
   79500    304.29957   -161.54792   0.27533664   -161.27258    8146.5155     4.236896     4.236896     4.236896    8146.5155    30954.323   -11743.372    5228.5954    13655.811   -8659.5085   -1259.7518    76.057738 
   79600    313.26331   -161.55684   0.28344723    -161.2734    12164.212    4.2332497    4.2332497    4.2332497    12164.212    25450.087    10736.146    306.40079    12453.928   -9167.7232    5289.6863    75.861543 
   79700    406.17631    -161.6405   0.36751686   -161.27298   -2530.5248    4.2304773    4.2304773    4.2304773   -2530.5248    3733.6153   -6652.1405   -4673.0491    14990.483    1181.8548    -2080.816     75.71259 
   79800       357.06   -161.59369    0.3230754   -161.27061     -2630.04    4.2306446    4.2306446    4.2306446     -2630.04   -1165.5629   -10729.607    4005.0501    15824.183   -912.01323   -2175.5275    75.721572 
   79900    515.54769   -161.73619   0.46647838   -161.26972   -9487.4723    4.2347442    4.2347442    4.2347442   -9487.4723    10113.975   -28745.894   -9830.4978     6109.427    5511.1631    294.48619    75.941913 
   80000    467.84807   -161.69506   0.42331876   -161.27174   -1236.4235    4.2375212    4.2375212    4.2375212   -1236.4235    22499.854   -13839.101   -12370.024    8215.9756    6743.9846   -602.37779    76.091414 
   80100    449.20506   -161.67794   0.40645018   -161.27149    5430.4705    4.2340719    4.2340719    4.2340719    5430.4705    10415.312    2991.4957    2884.6044    2977.4255    3827.8896    1456.7266     75.90575 
   80200    460.70419   -161.68678   0.41685483   -161.26992    435.31351    4.2324132    4.2324132    4.2324132    435.31351   -11436.095   -2335.9464    15077.982   -2373.2661    3522.3109    4725.3802    75.816581 
   80300    583.28499   -161.79705   0.52776851   -161.26928   -4560.7085    4.2304539    4.2304539    4.2304539   -4560.7085   -18060.212   -12555.205    16933.291    6899.4903    1811.4543    478.32658    75.711333 
   80400    422.30495   -161.65626   0.38211039   -161.27415    678.60916    4.2363634    4.2363634    4.2363634    678.60916   -828.49448   -17714.895    20579.217    1966.6748    8429.0545    441.47483    76.029058 
   80500    475.39429   -161.70385   0.43014674    -161.2737    4234.8618    4.2336669    4.2336669    4.2336669    4234.8618    6727.9535   -19410.508     25387.14    4314.8734    2112.0673    4598.1497    75.883974 
   80600     556.3858   -161.77499   0.50342956   -161.27156   -895.54984    4.2341878    4.2341878    4.2341878   -895.54984   -9700.4656   -12956.708    19970.524    4224.2178    1397.1178    3527.4767    75.911983 
   80700    451.15829   -161.67927    0.4082175   -161.27105    8095.0599    4.2296005    4.2296005    4.2296005    8095.0599   -14684.161    1792.9213     37176.42   -7968.2009    2741.9702     2586.666    75.665522 
   80800    668.64529   -161.87484   0.60500431   -161.26984   -3035.9991    4.2291053    4.2291053    4.2291053   -3035.9991   -6085.4695   -16918.125    13895.598   -3719.0818   -7812.1419    4866.9512    75.638948 
   80900    595.86839   -161.80992   0.53915424   -161.27077    -5732.265    4.2334665    4.2334665    4.2334665    -5732.265    4457.3498   -17463.734   -4190.4109   -7112.5283     1056.139   -2882.7831    75.873196 
   81000    725.08293   -161.92578   0.65607027   -161.26971   -6117.3858    4.2326173    4.2326173    4.2326173   -6117.3858   -1191.4673    -10531.79   -6628.9002   -5145.7834     2333.483   -3641.9337    75.827547 
   81100    818.77129   -162.00966   0.74084147   -161.26882   -9198.3659    4.2309403    4.2309403    4.2309403   -9198.3659   -6970.1299   -1105.8649   -19519.103   -3795.9592   -6502.6115    1249.0173    75.737455 
   81200    735.14498   -161.93221   0.66517463   -161.26703   -423.25455      4.22623      4.22623      4.22623   -423.25455    994.92992    1176.5793   -3441.2728   -6681.1396     4714.372   -3198.2615    75.484781 
   81300    795.83589   -161.98735   0.72008904   -161.26726   -14359.998    4.2330593    4.2330593    4.2330593   -14359.998   -9626.3926   -15639.169   -17814.432   -4083.4071     453.2706   -2448.8056    75.851304 
   81400     645.8192   -161.85185   0.58435078    -161.2675    -5547.918    4.2343075    4.2343075    4.2343075    -5547.918   -13064.188   -4770.3379     1190.772   -8057.0181   -4650.0512    2688.3252    75.918425 
   81500    660.86799   -161.86468   0.59796725   -161.26672   -4328.1135    4.2339921    4.2339921    4.2339921   -4328.1135    -22705.46   -11943.815    21664.935   -3553.3874      2604.55    2305.6035    75.901462 
   81600    543.23346   -161.76024   0.49152905   -161.26871    10211.819    4.2278554    4.2278554    4.2278554    10211.819    1418.0473    6550.9108      22666.5   -1031.8458    4199.1183    5787.5055    75.571906 
   81700    502.58226   -161.72471   0.45474699   -161.26997    9788.7821    4.2313153    4.2313153    4.2313153    9788.7821    4522.2327   -1332.1299    26176.243   -1738.5162    3450.9267    6957.5783    75.757593 
   81800    488.88451   -161.71112   0.44235297   -161.26877    3296.6744    4.2373311    4.2373311    4.2373311    3296.6744    -8681.897   -5066.3444    23638.265    2911.9037    2346.2599   -919.48852    76.081174 
   81900    472.41639   -161.69524   0.42745228   -161.26779   -5166.5023    4.2370631    4.2370631    4.2370631   -5166.5023   -21230.907   -14865.947    20597.347    7398.2954    928.70899    1092.2316    76.066739 
   82000    513.79194    -161.7326   0.46488974   -161.26771   -8067.6287    4.2339312    4.2339312    4.2339312   -8067.6287   -16688.737   -29026.399     21512.25    10697.593   -3908.9284    899.49899    75.898187 
   82100    421.84723   -161.65068   0.38169624   -161.26899    2349.6183    4.2310621    4.2310621    4.2310621    2349.6183   -2444.4389   -7263.4024    16756.696    13029.748   -2144.4197   -3691.9397    75.743992 
   82200     491.7415   -161.71389   0.44493805   -161.26895   -2291.6458     4.234004     4.234004     4.234004   -2291.6458    9284.6725    -15668.08   -491.52994    14493.081    1762.9454   -4251.8466    75.902102 
   82300    465.07423   -161.69078   0.42080894   -161.26997    1101.0269    4.2354384    4.2354384    4.2354384    1101.0269    9637.3606   -2586.9414   -3747.3386     13557.28   -5661.9672   -4628.9193    75.979268 
   82400    391.92185   -161.62548   0.35461913   -161.27086   -1710.6697     4.237593     4.237593     4.237593   -1710.6697   -5912.7288    3173.3603   -2392.6406     10219.24    1272.5989   -2076.8819    76.095282 
   82500    391.75505   -161.62746    0.3544682     -161.273   -5877.9605    4.2336128    4.2336128    4.2336128   -5877.9605   -1124.2852   -16524.313    14.716751     8645.457     4700.698   -1918.4137    75.881066 
   82600    266.61385   -161.51459   0.24123782   -161.27335    9072.0544    4.2281932    4.2281932    4.2281932    9072.0544    16344.786    1079.7472    9791.6295    5868.8801   -3530.3625     8212.447     75.59002 
   82700    318.29099   -161.56111   0.28799638   -161.27311    14749.552    4.2273325    4.2273325    4.2273325    14749.552     30387.36    5178.5681    8682.7277    544.78153    5973.6408    10240.447     75.54387 
   82800    297.38696   -161.54471   0.26908197   -161.27563    6771.5409    4.2347102    4.2347102    4.2347102    6771.5409    20857.982    591.07827   -1134.4374    5732.2466    6035.4853   -282.86152    75.940089 
   82900     308.3621   -161.55351   0.27901251    -161.2745    1370.0974    4.2352473    4.2352473    4.2352473    1370.0974    1521.9969    -5463.042    8051.3374    12010.354   -960.47685    4978.8765    75.968983 
   83000    417.87577   -161.65001   0.37810278   -161.27191   -7114.3331      4.23491      4.23491      4.23491   -7114.3331   -2366.1084   -24881.093    5904.2027     8341.272    3600.2307    1450.2758    75.950837 
   83100    436.20071   -161.66527   0.39468356   -161.27059    863.35172    4.2314127    4.2314127    4.2314127    863.35172    22026.029   -18490.526   -945.44756    9351.4475   -1677.9665    487.77029    75.762822 
   83200    432.05904   -161.66188    0.3909361   -161.27095   -908.50594    4.2317138    4.2317138    4.2317138   -908.50594    22043.266   -16337.012   -8431.7718    10908.106    -3253.808    1439.5354    75.778996 
   83300    371.64719   -161.60753   0.33627419   -161.27126   -5270.3177    4.2328024    4.2328024    4.2328024   -5270.3177    10742.762   -22087.404   -4466.3111     8198.761   -4111.1969   -808.78506    75.837494 
   83400     312.5609   -161.55474   0.28281167   -161.27193   -1175.0183    4.2319504    4.2319504    4.2319504   -1175.0183   -13574.132   -15365.597    25414.675    13907.031   -2753.4507    1305.6242    75.791708 
   83500    310.12714   -161.55367   0.28060955   -161.27306    3942.0136     4.232216     4.232216     4.232216    3942.0136   -3804.5476    -19941.54    35572.129    10006.106    3338.0997    2835.4873    75.805982 
   83600    286.87395   -161.53455   0.25956958   -161.27498     10194.76    4.2345514    4.2345514    4.2345514     10194.76    16321.462   -6471.2844    20734.101    3416.7306    459.01821    7890.7967    75.931542 
   83700    275.07843   -161.52295   0.24889675   -161.27405    7702.9877    4.2342822    4.2342822    4.2342822    7702.9877    23395.301   -8339.5746    8053.2369    181.85854     3792.601    4872.5551    75.917063 
   83800     407.0819    -161.6389   0.36833625   -161.27057    1589.0954    4.2297363    4.2297363    4.2297363    1589.0954    12553.299   -9814.0967    2028.0837    -2107.342    181.58145    3296.8785    75.672814 
   83900    441.29343   -161.66952   0.39929157   -161.27023   -992.50581    4.2307826    4.2307826    4.2307826   -992.50581    -5394.979   -14577.866    16995.327   -292.28093    92.648643    3327.2263    75.728982 
   84000    478.34825   -161.70253   0.43281955   -161.26971   -5800.4804    4.2346458    4.2346458    4.2346458   -5800.4804    4733.3081    -32980.42    10845.671   -881.68742    6547.3896   -666.52108     75.93662 
   84100    476.54534   -161.70013   0.43118824   -161.26894   -8435.5053    4.2396854    4.2396854    4.2396854   -8435.5053    18927.436   -29010.193   -15223.759     578.7135    2249.7216    57.890817    76.208058 
   84200    440.61413   -161.66896   0.39867693   -161.27029    1548.7745    4.2342168    4.2342168    4.2342168    1548.7745    35433.273    -18955.07    -11831.88    2667.3122   -1789.2313   -3797.9709    75.913547 
   84300    450.52431    -161.6798   0.40764386   -161.27216    3742.0444    4.2336125    4.2336125    4.2336125    3742.0444    31575.667   -11800.545   -8548.9887   -16.272134     2675.939    1273.6574    75.881045 
   84400    425.54902   -161.65709    0.3850457   -161.27204    6067.8431    4.2328178    4.2328178    4.2328178    6067.8431    24793.769   -22386.815    15796.576   -926.45156   -3268.4298    6465.9467    75.838326 
   84500    391.43907   -161.62662    0.3541823   -161.27243    1282.4634    4.2362999    4.2362999    4.2362999    1282.4634    24560.889    -19650.58   -1062.9185   -724.97558   -10222.886    4790.0902    76.025643 
   84600    415.87258   -161.65197   0.37629025   -161.27568    570.28627    4.2358388    4.2358388    4.2358388    570.28627    28537.251   -26207.495   -618.89737   -2984.3834   -8672.6515    2771.7013    76.000817 
   84700    315.08114   -161.56182   0.28509204   -161.27673    7248.8483    4.2327469    4.2327469    4.2327469    7248.8483    40274.522   -27412.958    8884.9818   -5321.3003   -597.21145   -4377.4479    75.834514 
   84800    359.21951    -161.6011   0.32502936   -161.27607    4986.0124    4.2281839    4.2281839    4.2281839    4986.0124    25314.225   -27863.932    17507.743   -13159.614   -6482.5284   -3789.1982    75.589522 
   84900    331.21391   -161.57557    0.2996893   -161.27588    7323.7714    4.2295457    4.2295457    4.2295457    7323.7714    23171.334   -25571.064    24371.044   -10576.554    3111.6651   -932.98472    75.662581 
   85000    431.47592   -161.66584   0.39040848   -161.27543     4075.838    4.2358932    4.2358932    4.2358932     4075.838    27481.523   -19552.001    4297.9915    -7847.817   -2657.2353    635.81779    76.003745 
   85100    336.10108   -161.57962   0.30411132   -161.27551    7793.5216    4.2358178    4.2358178    4.2358178    7793.5216    27470.827   -11295.841     7205.579   -7277.2837   -55.379456    2729.2848     75.99969 
   85200    566.81882   -161.78471   0.51286958   -161.27184   -7506.5937    4.2325674    4.2325674    4.2325674   -7506.5937    9030.3119   -23915.112   -7634.9806   -2649.8631    5751.0874   -1761.2687    75.824863 
   85300    458.74959   -161.68551   0.41508627   -161.27042   -5110.9646    4.2265808    4.2265808    4.2265808   -5110.9646   -3471.7745   -25140.501    13279.381   -9361.6189    7021.7907   -1523.4954    75.503575 
   85400     482.9838   -161.70876   0.43701389   -161.27174   -12734.348     4.231304     4.231304     4.231304   -12734.348   -3693.5193   -33825.685   -683.83974   -7395.5922    4258.3408   -2828.3126    75.756986 
   85500    581.94971   -161.80059   0.52656033   -161.27403   -9781.3061    4.2363623    4.2363623    4.2363623   -9781.3061    10730.783   -34956.487   -5118.2149   -4560.9762    6286.5583   -4308.8764    76.029003 
   85600    438.46743   -161.66991   0.39673455   -161.27318   -330.81599    4.2383622    4.2383622    4.2383622   -330.81599    9115.5629   -17963.022    7855.0114   -983.09324    7102.3587   -1810.6579    76.136729 
   85700    480.13332    -161.7041   0.43443472   -161.26966   -1056.8687    4.2297303    4.2297303    4.2297303   -1056.8687   -4578.2357   -8514.7499    9922.3793    3449.5555    285.54508   -1366.8561    75.672488 
   85800    404.10718   -161.63535   0.36564467    -161.2697    4291.0745    4.2266632    4.2266632    4.2266632    4291.0745   -290.74087   -17192.847    30356.812   -2401.9572     1922.271   -1030.4007    75.507994 
   85900    416.53536   -161.64707   0.37688995   -161.27018    554.70807    4.2305737    4.2305737    4.2305737    554.70807    17358.871   -33746.743    18051.996   -6920.1193    568.15899   -2247.6743    75.717767 
   86000    324.86775   -161.56611   0.29394717   -161.27216    2011.4287    4.2354702    4.2354702    4.2354702    2011.4287    36932.182   -33382.974    2485.0778   -1500.2812    1188.4473   -7017.7493    75.980982 
   86100     449.7182   -161.67947   0.40691448   -161.27255   -2156.8083    4.2340918    4.2340918    4.2340918   -2156.8083    12828.719   -30560.412    11261.269    6783.8872   -7822.8059    167.08584    75.906822 
   86200    376.54301    -161.6146   0.34070403    -161.2739    5443.2769    4.2267894    4.2267894    4.2267894    5443.2769    11456.536   -10420.606    15293.901    7750.0826    411.69935    184.55146    75.514757 
   86300     470.7129   -161.69933   0.42591092   -161.27342    3188.4114    4.2285185    4.2285185    4.2285185    3188.4114     18013.07    -22116.92    13669.084    1245.2546    466.43095   -1425.6535    75.607471 
   86400     464.3962    -161.6921   0.42019545   -161.27191    3624.3347    4.2328514    4.2328514    4.2328514    3624.3347    42462.658   -25942.101   -5647.5529    -4005.501   -7644.8037   -2445.1779    75.840128 
   86500    459.66014   -161.68998   0.41591015   -161.27407   -3036.4559    4.2364071    4.2364071    4.2364071   -3036.4559    30293.489   -23837.579   -15565.278    -5875.262   -1647.7972   -8132.0175    76.031414 
   86600    543.56758   -161.76623   0.49183137    -161.2744   -4542.1229    4.2346045    4.2346045    4.2346045   -4542.1229    17007.947   -17470.614   -13163.702   -3594.2465   -4765.7326   -3096.9626    75.934399 
   86700    479.23952   -161.70612   0.43362599    -161.2725    2970.9112    4.2310629    4.2310629    4.2310629    2970.9112    24159.638   -17176.118    1929.2144    149.31536    5323.7391   -1292.1344    75.744037 
   86800    471.50659   -161.69859   0.42662907   -161.27197    5816.4309    4.2302862    4.2302862    4.2302862    5816.4309    36404.484   -13630.433   -5324.7579   -49.982735    8096.8701    3381.7132    75.702331 
   86900    486.44626   -161.71267    0.4401468   -161.27252    1536.4287    4.2350059    4.2350059    4.2350059    1536.4287    37846.046   -23142.495   -10094.264    342.64335    7257.6441    6955.7337    75.955994 
   87000    545.77777   -161.76634   0.49383119   -161.27251   -6478.0271      4.23685      4.23685      4.23685   -6478.0271    7515.0832   -26525.828   -423.33657   -7200.1875    5071.7774   -3430.6382    76.055261 
   87100     468.3059   -161.69596   0.42373302   -161.27223    3342.5248    4.2312229    4.2312229    4.2312229    3342.5248    15688.536   -12853.582    7192.6197    469.01733    3196.6201   -2732.7333    75.752627 
   87200    539.10998   -161.75914   0.48779804   -161.27134    14616.449    4.2266039    4.2266039    4.2266039    14616.449    29649.594   -7150.9678    21350.722     11007.01    10539.218    -796.4663    75.504815 
   87300    443.41312   -161.67321    0.4012095     -161.272    9752.8885    4.2341928    4.2341928    4.2341928    9752.8885    27688.771   -5311.8718     6881.766    5526.7316    5338.3211    -2175.368    75.912256 
   87400    609.70778   -161.82243   0.55167641   -161.27076   -10662.708    4.2381046    4.2381046    4.2381046   -10662.708    4077.1838   -25683.665   -10381.642    2192.6638    3491.4732    3802.9988    76.122845 
   87500     635.7376   -161.84651   0.57522874   -161.27128    -8753.517    4.2344023    4.2344023    4.2344023    -8753.517    3473.7425   -16538.786   -13195.507   -4391.1561    105.15718    2583.7431    75.923525 
   87600    676.72619   -161.88251   0.61231607    -161.2702    388.01334    4.2280713    4.2280713    4.2280713    388.01334    18361.248   -7606.3774   -9590.8302   -590.80075    602.35967    4187.3809    75.583483 
   87700    656.19574   -161.86449    0.5937397   -161.27075   -3719.5772    4.2341667    4.2341667    4.2341667   -3719.5772    12637.731   -12209.301   -11587.162   -3236.5361   -2997.7698   -53.903922    75.910853 
   87800     663.1024   -161.87065   0.59998898   -161.27066   -11590.952    4.2365767    4.2365767    4.2365767   -11590.952   -9302.1671   -16106.164   -9364.5234   -2444.4241   -7819.7864   -2632.4518    76.040546 
   87900     592.6858   -161.80786   0.53627456   -161.27159   -11993.552    4.2378328    4.2378328    4.2378328   -11993.552   -6648.4704   -18842.626   -10489.561    1031.2661   -541.57193    2051.2074    76.108201 
   88000    621.88274    -161.8358   0.56269257   -161.27311   -5671.4659    4.2333242    4.2333242    4.2333242   -5671.4659    225.06784   -11542.683   -5696.7828   -1960.3425   -6413.7017     140.0305    75.865546 
   88100    618.12493   -161.83099   0.55929242   -161.27169   -2170.6303     4.230149     4.230149     4.230149   -2170.6303   -3209.3516   -7167.0015    3864.4623    116.04514    5039.9927    -5196.224    75.694964 
   88200    641.45021   -161.85201   0.58039763   -161.27161   -5688.8285     4.233374     4.233374     4.233374   -5688.8285   -1023.5018    -12368.04   -3674.9439     2099.896    6595.3424    444.66717    75.868223 
   88300       718.57   -161.92403   0.65017724   -161.27385   -12068.339    4.2366581    4.2366581    4.2366581   -12068.339    50.929327   -26028.213   -10227.734    9029.1756     3678.517    2909.6191    76.044928 
   88400    601.86602    -161.8203   0.54458102   -161.27572   -6666.3862    4.2342429    4.2342429    4.2342429   -6666.3862    7813.1276   -8361.6854   -19450.601    6364.2745    7755.8578    5189.2748     75.91495 
   88500    682.13658   -161.89146   0.61721151   -161.27424   -18522.247    4.2320084    4.2320084    4.2320084   -18522.247   -15795.204    -16083.35   -23688.187    131.36854    7996.8497    7887.0133    75.794825 
   88600    549.31015   -161.76985   0.49702737   -161.27282    -8485.879    4.2327243    4.2327243    4.2327243    -8485.879   -21283.741    601.29247   -4775.1883    723.00218    15063.902    2655.2161    75.833301 
   88700    581.92245    -161.7982   0.52653566   -161.27166   -1915.2706    4.2358703    4.2358703    4.2358703   -1915.2706    -7994.513   -5025.0008    7273.7021    906.08545    9542.2091   -225.54017    76.002515 
   88800    569.50117   -161.78802   0.51529663   -161.27272    2082.2999    4.2336816    4.2336816    4.2336816    2082.2999    5052.9109    -7665.586    8859.5748    1270.9916    3448.6363   -4682.6163     75.88476 
   88900    489.67598   -161.71536   0.44306911    -161.2723   -4736.9283    4.2312989    4.2312989    4.2312989   -4736.9283   -11514.363   -10397.383    7700.9613   -7410.4281    6713.0429    2691.2976     75.75671 
   89000    517.01317   -161.73864   0.46780438   -161.27083   -6596.9176    4.2290613    4.2290613    4.2290613   -6596.9176   -4757.7966   -20151.336    5118.3798   -3016.5787    8196.5024    11045.495     75.63659 
   89100    502.67715   -161.72559   0.45483285   -161.27076   -1520.0785    4.2328497    4.2328497    4.2328497   -1520.0785    1543.7179   -11493.733    5389.7793     2380.129    3529.3875    2877.4486    75.840036 
   89200    425.71634   -161.65666   0.38519709   -161.27146    8819.2446    4.2347772    4.2347772    4.2347772    8819.2446    16357.081   -8049.4729    18150.126   -3491.8476    1348.2838    3568.7603    75.943693 
   89300     499.4975   -161.72254   0.45195584   -161.27059    6934.5804     4.233089     4.233089     4.233089    6934.5804    21146.434   -13041.586    12698.893    3112.1751    3698.7142     6720.525      75.8529 
   89400    544.66389   -161.76477   0.49282333   -161.27195   -1941.8634    4.2270067    4.2270067    4.2270067   -1941.8634    9872.8361   -11787.958   -3910.4688    2176.7236    198.38805    10120.912    75.526404 
   89500    515.20538   -161.73799   0.46616866   -161.27182   -2320.4456      4.22665      4.22665      4.22665   -2320.4456    1233.9239   -966.19206   -7229.0685    972.58718    5026.9617    5999.9096    75.507284 
   89600    698.15357   -161.90123   0.63170402   -161.26953   -7706.5654    4.2320076    4.2320076    4.2320076   -7706.5654   -7764.0626   -10096.835   -5258.7983    1767.7743    8352.4984    879.77533    75.794784 
   89700    612.25548    -161.8224   0.55398162   -161.26842   -4810.9236    4.2362578    4.2362578    4.2362578   -4810.9236   -11074.469   -14489.075    11130.773    -1605.594     7802.092     1931.604    76.023373 
   89800      762.581   -161.95903   0.68999931   -161.26904    -13806.45    4.2351804    4.2351804    4.2351804    -13806.45   -17780.776   -15217.059   -8421.5152    1407.1584    5189.1514   -2805.5615    75.965387 
   89900    808.52555   -162.00391   0.73157091   -161.27234   -8177.1291    4.2276307    4.2276307    4.2276307   -8177.1291   -8534.1979   -15533.964   -463.22503   -1845.8334    4919.8212   -5214.8693     75.55986 
   90000    663.37773   -161.87318   0.60023811   -161.27294    1928.3114    4.2275245    4.2275245    4.2275245    1928.3114   -2831.8013    5875.6904    2741.0451   -2036.7776     4338.148    516.32899    75.554166 
   90100    702.15013   -161.90623    0.6353202   -161.27091   -10717.748    4.2365337    4.2365337    4.2365337   -10717.748   -8596.5208    -15090.46    -8466.262    5555.0241    1666.3273    2221.5929    76.038231 
   90200    667.61442   -161.87403   0.60407156   -161.26996   -10490.973    4.2378225    4.2378225    4.2378225   -10490.973    2631.7807   -19136.239    -14968.46   -1852.8804   -3174.2367    1655.4781    76.107646 
   90300    709.88843   -161.91425   0.64232197   -161.27193   -10259.064     4.233946     4.233946     4.233946   -10259.064   -9456.7769   -16854.603    -4465.813   -145.39548   -1576.5313   -1334.0509    75.898979 
   90400    694.89555   -161.90021   0.62875609   -161.27145   -3614.6763    4.2300755    4.2300755    4.2300755   -3614.6763   -9846.7784   -11111.134    10113.883    1913.6069   -687.21711    2616.7147    75.691021 
   90500    766.28087   -161.96375   0.69334703    -161.2704   -12399.846     4.231378     4.231378     4.231378   -12399.846     -18950.3   -13843.261   -4405.9773   -3893.5592   -7005.6599    9620.2817    75.760961 
   90600    623.02295   -161.83496   0.56372425   -161.27123   -9383.5225    4.2359477    4.2359477    4.2359477   -9383.5225   -12327.355   -6991.4714   -8831.7413    1809.3662   -2656.2796    1385.5871    76.006678 
   90700    607.69371   -161.82101   0.54985404   -161.27115   -7301.4565    4.2362679    4.2362679    4.2362679   -7301.4565   -9934.0704   -14546.332    2576.0334   -128.47252   -373.91922   -1520.9068    76.023916 
   90800    496.86579   -161.72092   0.44957461   -161.27135    9342.9332    4.2298447    4.2298447    4.2298447    9342.9332    4623.8742   -7378.5706    30783.496    126.06903    2323.6053    1087.2651    75.678633 
   90900    445.33658   -161.67534   0.40294989   -161.27239    8396.6741    4.2241192    4.2241192    4.2241192    8396.6741    14075.496   -6704.5683    17819.094       5387.8    4645.4857    5794.6826    75.371732 
   91000    537.99387   -161.75995   0.48678816   -161.27316   -9547.9897    4.2318077    4.2318077    4.2318077   -9547.9897    2831.5763   -21539.239   -9936.3065   -632.40738    4138.5097    6678.7307    75.784045 
   91100     503.5031   -161.72736   0.45558019   -161.27178   -9156.7731    4.2410011    4.2410011    4.2410011   -9156.7731   -16492.982   -15959.944    4982.6066   -2726.4057    8077.2926    -1536.678     76.27903 
   91200    417.79188   -161.64865   0.37802688   -161.27063    2479.5284     4.233871     4.233871     4.233871    2479.5284   -24980.097   -10487.251    42905.933    1319.5144    5084.1373    5488.7361    75.894948 
   91300    498.97384   -161.72216   0.45148201   -161.27068    6760.7975    4.2222668    4.2222668    4.2222668    6760.7975   -9894.2746   -5209.0213    35385.688   -7486.5785    1053.4009    5986.7781    75.272618 
   91400    452.42311   -161.68215   0.40936194   -161.27278    561.88596    4.2256766    4.2256766    4.2256766    561.88596   -6678.0595   -12482.714    20846.431   -3925.1963     4610.599    5074.2161     75.45513 
   91500    473.30001   -161.70085    0.4282518    -161.2726   -1773.2173    4.2362451    4.2362451    4.2362451   -1773.2173   -1005.5061   -23120.603    18806.457    3758.6373    1840.8591    5209.1833    76.022692 
   91600    389.82585   -161.62525   0.35272262   -161.27253     2245.792    4.2417044    4.2417044    4.2417044     2245.792   -20259.419   -22307.085     49303.88   -1855.5466   -4491.6503    5037.8263    76.316986 
   91700    348.69378   -161.59171   0.31550546   -161.27621    12054.563    4.2325616    4.2325616    4.2325616    12054.563   -17398.936   -570.65385    54133.279    1596.7302   -2151.8521    2286.2438    75.824551 
   91800    381.14269   -161.62092   0.34486592   -161.27606    8069.8982    4.2257751    4.2257751    4.2257751    8069.8982   -5845.4336   -11653.707    41708.835   -4680.6548    4581.6921   -3095.0724    75.460408 
   91900    410.57019   -161.64547   0.37149254   -161.27397    6660.6166    4.2246278    4.2246278    4.2246278    6660.6166    -5047.354   -15101.318    40130.521   -9453.3721   -2586.4402   -1086.9484    75.398959 
   92000    318.77075   -161.56325   0.28843047   -161.27482    6782.4094    4.2381254    4.2381254    4.2381254    6782.4094   -6813.8878   -26423.788    53584.904   -2952.6719     -964.119    153.64279    76.123964 
   92100    439.11308   -161.67248   0.39731874   -161.27516    6193.4729    4.2387394    4.2387394    4.2387394    6193.4729   -7147.6445   -26390.229    52118.292    -4883.166    215.66269   -1186.0297    76.157058 
   92200    424.75855   -161.66037   0.38433047   -161.27604   -321.57761    4.2345871    4.2345871    4.2345871   -321.57761   -25057.656   -4073.3667     28166.29    724.66252    5649.1523    -5675.661    75.933464 
   92300    416.80921   -161.65252   0.37713773   -161.27538    7600.4663    4.2253367    4.2253367    4.2253367    7600.4663   -16446.241    352.47511    38895.164    4666.5761    8394.8209   -2937.2497    75.436921 
   92400    458.41734   -161.68819   0.41478564    -161.2734    12316.036    4.2287292    4.2287292    4.2287292    12316.036   -6281.6628   -10581.921    53811.691   -5635.5754    4314.5235   -2554.7342    75.618771 
   92500     422.9627   -161.65535   0.38270554   -161.27264     10547.83    4.2346271    4.2346271    4.2346271     10547.83   -2134.3316   -21318.335    55096.157   -2745.5684    7247.6599   -2481.4213    75.935616 
   92600    546.57579   -161.76704   0.49455326   -161.27248   -3574.4546    4.2390994    4.2390994    4.2390994   -3574.4546   -5352.5018     -22126.4    16755.538   -2245.7775    2704.3641    405.30276    76.176461 
   92700    517.15714   -161.73908   0.46793465   -161.27115    -11049.47    4.2348826    4.2348826    4.2348826    -11049.47   -27773.081   -12126.615    6751.2855   -5580.9654    4164.7603    3564.8015    75.949362 
   92800    474.61702    -161.6995   0.42944346   -161.27006    3766.1421    4.2260361    4.2260361    4.2260361    3766.1421   -20088.367    5182.4271    26204.367     473.6651    5744.3809    3847.5504    75.474392 
   92900    523.42962    -161.7449   0.47361012   -161.27129    8873.0755    4.2310291    4.2310291    4.2310291    8873.0755   -17940.333    2832.3505    41727.209    192.73311    1683.5302    1195.8673    75.742222 
   93000    571.37874   -161.78914   0.51699549   -161.27214    1024.5822    4.2330469    4.2330469    4.2330469    1024.5822   -3689.3623   -1312.7806    8075.8894    4783.2213   -6401.6092   -828.87673    75.850636 
   93100    407.84925   -161.64117   0.36903057   -161.27213    2571.5346    4.2335436    4.2335436    4.2335436    2571.5346    2734.1402    4310.4182    670.04525    5059.9147    -7466.057     424.8925    75.877344 
   93200    693.32636   -161.89595   0.62733626   -161.26861   -4941.0663     4.231948     4.231948     4.231948   -4941.0663   -4556.6516   -14782.539    4515.9917   -185.97653    6490.2687   -2343.1823    75.791581 
   93300    635.81959   -161.84355   0.57530292   -161.26825   -9845.4649    4.2332726    4.2332726    4.2332726   -9845.4649   -19617.959   -19171.105    9252.6692    2398.6942    38.869155   -7581.7697    75.862774 
   93400    689.13272   -161.89158   0.62354177   -161.26803   -14652.987    4.2320514    4.2320514    4.2320514   -14652.987   -24333.781   -11799.909    -7825.271   -2234.4621    3532.6207   -8599.9228     75.79714 
   93500    682.29758   -161.88671   0.61735719   -161.26935   -9244.2851    4.2341186    4.2341186    4.2341186   -9244.2851    -13358.79    -924.6028   -13449.462   -459.11772    5538.4581   -4671.9002    75.908265 
   93600    558.96259   -161.77575    0.5057611   -161.26999    2590.5715    4.2356644    4.2356644    4.2356644    2590.5715    7818.1165    14184.278   -14230.681    6882.0854     1782.439   -2238.3402    75.991432 
   93700     536.0419   -161.75528   0.48502198   -161.27026    6494.0412    4.2376907    4.2376907    4.2376907    6494.0412    26403.514    8661.8046   -15583.195    5104.0934   -410.23192     1423.271    76.100544 
   93800    604.98058   -161.81546   0.54739915   -161.26806   -2145.9046    4.2357724    4.2357724    4.2357724   -2145.9046   -4785.0163    11127.947   -12780.645    3564.7673   -8544.3162    5560.0324    75.997246 
   93900    521.53837   -161.73996   0.47189888   -161.26806   -4868.6825    4.2318416    4.2318416    4.2318416   -4868.6825   -13833.372    8069.2216   -8841.8971    7708.5289   -3989.9152    5585.5556    75.785865 
   94000    707.72911   -161.90924   0.64036817   -161.26888   -12843.146    4.2349055    4.2349055    4.2349055   -12843.146   -23070.354    -10627.11    -4831.974    978.22378    3996.6448    4533.1432    75.950596 
   94100    691.70376   -161.89425    0.6258681   -161.26838    1206.5278    4.2344174    4.2344174    4.2344174    1206.5278   -903.19721   -5359.6618    9882.4424   -791.12796   -9017.6014    4091.7544    75.924338 
   94200    556.78787    -161.7733   0.50379337   -161.26951    2682.9005    4.2359459    4.2359459    4.2359459    2682.9005    14702.436   -18434.593    11780.859    -652.3334      1042.37    3626.8516    76.006584 
   94300    614.75444   -161.82516   0.55624273   -161.26892   -8305.2235    4.2326332    4.2326332    4.2326332   -8305.2235   -23705.422   -8726.5709    7516.3225     3165.417    1666.4381   -4560.8571    75.828401 
   94400    371.75807   -161.60632   0.33637451   -161.26994    6903.6459    4.2251948    4.2251948    4.2251948    6903.6459   -12247.882    13639.815    19319.005    6183.6816   -5040.4324   -6888.8831    75.429321 
   94500    555.23481   -161.77292   0.50238813   -161.27053    102.11095    4.2310424    4.2310424    4.2310424    102.11095   -18646.209    1722.3304    17230.212    5418.2483   -647.77138   -4307.8328    75.742934 
   94600    401.12905   -161.63434   0.36294999   -161.27139    12325.013     4.236668     4.236668     4.236668    12325.013     20975.99   -2416.0656    18415.114    5290.5552   -1694.8261   -982.31728    76.045463 
   94700    574.82035   -161.79008   0.52010953   -161.26997   -6470.3966    4.2397974    4.2397974    4.2397974   -6470.3966    4639.8523   -20527.502   -3523.5402     2784.629   -1086.2195     7.895962    76.214095 
   94800    615.13476   -161.82801   0.55658685   -161.27142   -7881.5473    4.2290732    4.2290732    4.2290732   -7881.5473   -18471.683   -9255.1386    4082.1799   -1644.2523   -7346.7978    3092.1233     75.63723 
   94900    482.08305     -161.709   0.43619888    -161.2728   -10648.433    4.2281366    4.2281366    4.2281366   -10648.433   -24734.987   -11774.614    4564.3015    8014.2515   -8394.3277    4492.8811    75.586984 
   95000    543.48832   -161.76485   0.49175965   -161.27309   -9100.5759    4.2327632    4.2327632    4.2327632   -9100.5759   -23253.327   -1385.1641   -2663.2361    4148.8709   -7416.5798    5848.9392     75.83539 
   95100    388.92454    -161.6266    0.3519071   -161.27469    2177.6601    4.2400615    4.2400615    4.2400615    2177.6601    17017.839    5409.1591   -15894.018    -1813.781   -3440.5039    845.97641    76.228339 
   95200    560.17681   -161.77997   0.50685975   -161.27311   -2744.4789    4.2372884    4.2372884    4.2372884   -2744.4789    588.70437    12918.195   -21740.336    5690.7694   -4200.2031    2188.9903    76.078876 
   95300    472.21817   -161.70278   0.42727292    -161.2755   -1971.4491    4.2298931    4.2298931    4.2298931   -1971.4491   -24714.045    18260.613    539.08515   -632.29333   -8003.4991   -42.637395    75.681228 
   95400    437.90304   -161.67228   0.39622388   -161.27605   -9393.6264    4.2269299    4.2269299    4.2269299   -9393.6264   -27432.147    62.570592   -811.30314    3110.2669   -7484.7643   -1792.7352    75.522287 
   95500    546.13889   -161.76738   0.49415794   -161.27322   -11841.704    4.2291981    4.2291981    4.2291981   -11841.704   -10054.762   -14324.513   -11145.838    1140.6036   -6867.3846     3616.343    75.643932 
   95600    481.90941   -161.70844   0.43604176    -161.2724   -5078.0586    4.2371583    4.2371583    4.2371583   -5078.0586    19751.416   -17812.759   -17172.832   -1831.9862   -66.403005     820.1239    76.071868 
   95700    454.59929   -161.68366   0.41133099   -161.27233    5717.2317    4.2362259    4.2362259    4.2362259    5717.2317    5920.4106    -2305.717    13537.001    3753.2259   -4511.3236    2564.0102    76.021655 
   95800    456.34982   -161.68364   0.41291491   -161.27073    1768.5098    4.2292416    4.2292416    4.2292416    1768.5098   -20879.211    15467.085    10717.655    883.43296   -7999.4478    4721.0633    75.646263 
   95900    404.43136   -161.63802   0.36593799   -161.27209    2687.2677    4.2219283    4.2219283    4.2219283    2687.2677   -13658.902    11349.617    10371.089    7785.4566   -11144.661    11310.821    75.254512 
   96000    520.93696   -161.74239   0.47135471   -161.27104   -16592.384    4.2370054    4.2370054    4.2370054   -16592.384   -20623.917   -20144.125   -9009.1111     4250.483   -3650.5822    7524.5526    76.063632 
   96100    466.55101   -161.69076   0.42214516   -161.26861    2681.3089     4.237067     4.237067     4.237067    2681.3089    10395.431   -17013.912    14662.407   -4074.5473    368.39128    227.18007    76.066948 
   96200    618.48207   -161.82694   0.55961557   -161.26733   -269.65003    4.2346559    4.2346559    4.2346559   -269.65003   -5048.3761   -14926.208    19165.634   -1037.4625    5434.9826    5933.3392    75.937162 
   96300    599.72594   -161.80899   0.54264463   -161.26634    6561.3247    4.2240895    4.2240895    4.2240895    6561.3247    8977.9637    -412.1991     11118.21   -4731.6878    5685.1221   -2794.6681    75.370144 
   96400    637.10238   -161.84483   0.57646362   -161.26836   -11274.544    4.2343989    4.2343989    4.2343989   -11274.544   -258.26525   -22467.366   -11098.001   -878.59575    6222.9806   -3644.0029    75.923338 
   96500    547.78161   -161.76471   0.49564431   -161.26907   -4152.5734    4.2379586    4.2379586    4.2379586   -4152.5734    16045.818   -4879.2757   -23624.263    3544.5515    8342.9807    3076.1255    76.114977 
   96600     544.9338   -161.76222   0.49306756   -161.26915    2600.4059    4.2369677    4.2369677    4.2369677    2600.4059    20786.516    4850.3703   -17835.668      4467.07    2097.5749   -4709.4777    76.061599 
   96700    506.32908   -161.72962   0.45813719   -161.27148    10147.175    4.2295157    4.2295157    4.2295157    10147.175    19176.466    8806.8286    2458.2296   -1846.6819    6427.2547   -1895.4522    75.660973 
   96800    518.26836   -161.73979    0.4689401   -161.27085    7480.6675    4.2284223    4.2284223    4.2284223    7480.6675    15230.955     12313.82   -5102.7719   -3010.9975    2133.6838   -7.0524987    75.602311 
   96900     580.2293   -161.79617   0.52500366   -161.27116    2617.0291    4.2318439    4.2318439    4.2318439    2617.0291    21284.397    -4084.962   -9348.3475    1945.0547    1831.3179      3766.76    75.785987 
   97000    467.22588   -161.69648    0.4227558   -161.27373    2998.7102    4.2362652    4.2362652    4.2362652    2998.7102    31207.589   -8687.0426   -13524.416    -2493.452    3931.3456    3041.8898    76.023775 
   97100    650.83448   -161.86102   0.58888871   -161.27213   -11135.132    4.2367101    4.2367101    4.2367101   -11135.132    2570.8749   -24353.188   -11623.083   -1139.0198    -997.2104   -3648.7883     76.04773 
   97200    500.52046   -161.72475   0.45288143   -161.27186   -6026.4187    4.2282919    4.2282919    4.2282919   -6026.4187   -7523.1156   -15163.779    4607.6381    -13183.27    3629.9086   -1465.0817    75.595313 
   97300     668.5657   -161.87527   0.60493229   -161.27033   -10235.487    4.2289667    4.2289667    4.2289667   -10235.487   -5868.9958   -15041.774   -9795.6898   -5636.1619    2114.3245   -6922.5315    75.631515 
   97400    510.85435   -161.73447   0.46223175   -161.27223    7704.9519    4.2305187    4.2305187    4.2305187    7704.9519    29692.585   -3706.4886   -2871.2408   -5558.9609    3644.6172   -3784.2715    75.714812 
   97500    439.74868   -161.67069   0.39789385   -161.27279    567.94881    4.2359972    4.2359972    4.2359972    567.94881    16202.964   -5571.3881   -8927.7296    1682.3739    2740.3638    2226.2949    76.009344 
   97600    537.31105   -161.75685   0.48617033   -161.27068   -10971.943    4.2329169    4.2329169    4.2329169   -10971.943   -14021.808   -12122.108   -6771.9125    1374.6494   -3820.6448   -1425.9412     75.84365 
   97700    318.18457   -161.55943   0.28790009   -161.27153   -3436.3281    4.2299434    4.2299434    4.2299434   -3436.3281   -16678.548    12187.417   -5817.8535   -4233.0197    2406.2199    3489.3998     75.68393 
   97800    464.13896    -161.6929   0.41996269   -161.27294    5114.1198     4.228829     4.228829     4.228829    5114.1198    14639.312    8673.5032   -7970.4556     8267.572    817.79146    2044.4705    75.624124 
   97900    334.61159     -161.577    0.3027636   -161.27424    11887.502    4.2347338    4.2347338    4.2347338    11887.502    37333.453    7097.6252   -8768.5723    2820.7062   -2394.2912   -970.45991    75.941356 
   98000    439.59699    -161.6701   0.39775659   -161.27235    4970.1003    4.2316544    4.2316544    4.2316544    4970.1003    11945.808    2426.5931    537.89997    6240.7994     1577.418   -362.40758     75.77581 
   98100    325.79156   -161.56886   0.29478305   -161.27408    283.39737    4.2318315    4.2318315    4.2318315    283.39737   -11572.815    11056.704    1366.3027   -2319.2464    1446.8634   -3774.4735    75.785322 
   98200     418.4799   -161.65171   0.37864941   -161.27306    1065.2273    4.2311377    4.2311377    4.2311377    1065.2273    5261.0882     7465.824   -9531.2303    3649.5617    848.58298     822.8588    75.748055 
   98300    401.10856   -161.63484   0.36293146   -161.27191    5347.8412    4.2344906    4.2344906    4.2344906    5347.8412    45018.533   -16113.874   -12861.135    4806.9094     3066.905    2286.2025    75.928275 
   98400    413.26994   -161.64795   0.37393533   -161.27402    8588.0646    4.2320194    4.2320194    4.2320194    8588.0646    42991.567   -3618.9036   -13608.469    6823.6053    3107.6889    1818.8682    75.795418 
   98500    401.22956   -161.63985   0.36304094   -161.27681   -2402.1828    4.2342972    4.2342972    4.2342972   -2402.1828    24084.104    -24383.41   -6907.2428   -1093.9429    3169.6348    5068.3002    75.917869 
   98600    305.02314   -161.55168   0.27599134   -161.27569    3766.5532    4.2312181    4.2312181    4.2312181    3766.5532    23112.785   -15782.077    3968.9509   -12140.583   -4979.5105    2758.4989     75.75237 
   98700    401.18112   -161.63539   0.36299711    -161.2724    10153.796    4.2327197    4.2327197    4.2327197    10153.796    60454.218   -24587.789   -5405.0416   -1829.9007   -7915.2014    565.22389    75.833051 
   98800    390.13897   -161.62875   0.35300594   -161.27575    13521.734     4.231045     4.231045     4.231045    13521.734    62649.125   -11425.244   -10658.678   -4677.3559   -3241.8282    -753.5974    75.743076 
   98900    223.97241    -161.4826   0.20265495   -161.27995    6163.1229    4.2328744    4.2328744    4.2328744    6163.1229    31080.205    1389.7526   -13980.589    6371.4611    781.66028   -1835.7697    75.841364 
   99000    379.90309   -161.62034    0.3437443    -161.2766   -829.05157    4.2341426    4.2341426    4.2341426   -829.05157     38397.48   -21862.384   -19022.251     -9964.87    2324.4433     3184.451    75.909553 
   99100    249.75974   -161.50109   0.22598786    -161.2751    12597.933    4.2344087    4.2344087    4.2344087    12597.933    55148.722   -14314.088    -3040.836   -12758.129   -1050.5003   -817.37619    75.923868 
   99200     385.4711   -161.62541   0.34878235   -161.27663    7302.0488    4.2322777    4.2322777    4.2322777    7302.0488    36978.231   -15568.857    496.77272   -13123.072    4258.9949   -760.89042    75.809299 
   99300    390.32298   -161.62924   0.35317244   -161.27607    7571.5334    4.2275585    4.2275585    4.2275585    7571.5334    18051.721    127.20479    4535.6739   -639.62502    5730.1326    1695.0433    75.555987 
   99400     389.2374   -161.62644   0.35219018   -161.27425    8025.1616    4.2289134    4.2289134    4.2289134    8025.1616    17813.068     9454.036   -3191.6197    1150.8128   -232.79037   -2583.5291    75.628655 
   99500    478.38843   -161.70516   0.43285591   -161.27231    1962.3502    4.2343629    4.2343629    4.2343629    1962.3502    39014.833   -21027.633   -12100.149   -5113.3844   -2885.1006    623.39686    75.921404 
   99600    465.61544   -161.69462   0.42129864   -161.27332   -8695.6819    4.2384248    4.2384248    4.2384248   -8695.6819    12310.754   -28861.853   -9535.9465   -6124.4942   -5358.0993   -724.41277    76.140102 
   99700    461.89887   -161.68983   0.41793581   -161.27189   -11537.834     4.231704     4.231704     4.231704   -11537.834   -8483.4403   -26819.322    689.25874   -9363.4254    284.71432   -1597.1505     75.77847 
   99800    302.74459   -161.54598   0.27392967   -161.27205    3413.4661      4.22459      4.22459      4.22459    3413.4661   -6078.2237   -2735.0783      19053.7    5328.5301   -1537.3999    3396.9534    75.396935 
   99900     480.1406   -161.70693    0.4344413   -161.27249    3244.5135    4.2289635    4.2289635    4.2289635    3244.5135    13667.099   -10115.456    6181.8975   -5120.3572   -2738.0488    1080.2525    75.631342 
  100000    334.49861   -161.57546   0.30266137    -161.2728    9125.3403    4.2336416    4.2336416    4.2336416    9125.3403    46463.639   -20755.324    1667.7057   -6098.8178    2894.4092    7069.5027    75.882609 
Loop time of 40.2642 on 1 procs for 100000 steps with 8 atoms

Pair  time (%) = 13.4948 (33.5157)
Kspce time (%) = 10.0541 (24.9703)
Neigh time (%) = 0 (0)
Comm  time (%) = 1.9326 (4.7998)
Outpt time (%) = 0.101991 (0.253305)
Other time (%) = 14.6807 (36.4609)

Nlocal:    8 ave 8 max 8 min
Histogram: 1 0 0 0 0 0 0 0 0 0
Nghost:    2189 ave 2189 max 2189 min
Histogram: 1 0 0 0 0 0 0 0 0 0
Neighs:    2472 ave 2472 max 2472 min
Histogram: 1 0 0 0 0 0 0 0 0 0

Total # of neighbors = 2472
Ave neighs/atom = 309
Neighbor list builds = 0
Dangerous builds = 0
unfix 20
unfix 21
print "seeds:2424822"
seeds:2424822
