LAMMPS (10 Feb 2015)
# ---- initialize simulations
clear
units metal
dimension 3
boundary p p p
atom_style charge
atom_modify map array
# ---- create atoms
read_data /Users/eugeneragasa/pyflamestk_git/pypospack/tests/tests_integration/workflow/WorkflowLammpsThermalExpansion/MgO_NaCl_unit.npt.T800/lammps.structure
  triclinic box = (0 0 0) to (4.2565 4.2565 4.2565) with tilt (0 0 0)
  1 by 1 by 1 MPI processor grid
  reading atoms ...
  8 atoms
# ---- define interatomic potential
include potential.mod
mass 1 24.305
mass 2 15.999

group Mg type 1
4 atoms in group Mg
group O type 2
4 atoms in group O

set group Mg charge 1.7
  4 settings made for charge
set group O charge -1.7
  4 settings made for charge

variable R_cut equal 10.0

pair_style buck/coul/long ${R_cut}
pair_style buck/coul/long 10
pair_coeff 1 1 0.0 0.5 0.0 ${R_cut}
pair_coeff 1 1 0.0 0.5 0.0 10
pair_coeff 1 2 929.69 0.29909 0.0 ${R_cut}
pair_coeff 1 2 929.69 0.29909 0.0 10
pair_coeff 2 2 4870 0.2679 77 ${R_cut}
pair_coeff 2 2 4870 0.2679 77 10

kspace_style pppm 1.0e-5

neighbor 1.0 bin
neigh_modify every 1 delay 0 check yes
# ---- define settings
compute eng all pe/atom
compute eatoms all reduce sum c_eng
# ---- run minimization
reset_timestep 0
fix 1 all box/relax iso 0.0 vmax 0.001
thermo 10
thermo_style custom step pe lx ly lz xy xz yz press pxx pyy pzz pxy pxz pyz c_eatoms
min_style cg
minimize 1e-25 1e-25 5000 10000
PPPM initialization ...
  G vector (1/distance) = 0.353152
  grid = 8 8 8
  stencil order = 5
  estimated absolute RMS force accuracy = 4.10333e-05
  estimated relative force accuracy = 2.84961e-06
  using double precision FFTs
  3d grid and FFT values/proc = 3375 512
Neighbor list info ...
  1 neighbor list requests
  update every 1 steps, delay 0 steps, check yes
  master list distance cutoff = 11
Memory usage per processor = 4.06549 Mbytes
Step PotEng Lx Ly Lz Xy Xz Yz Press Pxx Pyy Pzz Pxy Pxz Pyz eatoms 
       0   -119.82944       4.2565       4.2565       4.2565            0            0            0   -43102.631   -43102.631   -43102.631   -43102.631 -1.1410716e-10 2.0651384e-11 1.0044018e-10   -119.82944 
       9    -119.8549     4.222448     4.222448     4.222448            0            0            0   -490.28356   -490.28356   -490.28356   -490.28356 -3.7927136e-11 -7.2182599e-11 3.2130495e-11    -119.8549 
Loop time of 0.113475 on 1 procs for 9 steps with 8 atoms

Minimization stats:
  Stopping criterion = linesearch alpha is zero
  Energy initial, next-to-last, final = 
        -119.829437963     -119.854898204     -119.854898204
  Force two-norm initial, final = 6.22404 0.0696885
  Force max component initial, final = 6.22404 0.069669
  Final line search alpha, max atom move = 1.75215e-06 1.2207e-07
  Iterations, force evaluations = 9 35

Pair  time (%) = 0.0137403 (12.1087)
Kspce time (%) = 0.00577569 (5.08983)
Neigh time (%) = 0 (0)
Comm  time (%) = 0.00219655 (1.93571)
Outpt time (%) = 0 (0)
Other time (%) = 0.0917625 (80.8658)

Nlocal:    8 ave 8 max 8 min
Histogram: 1 0 0 0 0 0 0 0 0 0
Nghost:    2189 ave 2189 max 2189 min
Histogram: 1 0 0 0 0 0 0 0 0 0
Neighs:    2344 ave 2344 max 2344 min
Histogram: 1 0 0 0 0 0 0 0 0 0

Total # of neighbors = 2344
Ave neighs/atom = 293
Neighbor list builds = 0
Dangerous builds = 0
unfix 1
# ---- define output variables ----
variable natoms equal "count(all)"
variable tot_energy equal "c_eatoms"
variable length_x equal "lx"
variable length_y equal "ly"
variable length_z equal "lz"
variable tilt_xy equal "xy"
variable tilt_xz equal "xz"
variable tilt_yz equal "yz"
variable tot_press equal "press"
variable press_xx equal "pxx"
variable press_yy equal "pyy"
variable press_zz equal "pzz"
variable press_xy equal "pxy"
variable press_xz equal "pxz"
variable press_yz equal "pyz"

# ---- output ----
print "pypospack:output_section:begin"
pypospack:output_section:begin
print "tot_energy = ${tot_energy}"
tot_energy = -119.854898204259
print "num_atoms = ${natoms}"
num_atoms = 8
print "xx = ${length_x}"
xx = 4.222448
print "yy = ${length_y}"
yy = 4.222448
print "zz = ${length_z}"
zz = 4.222448
print "xy = ${tilt_xy}"
xy = 0
print "xz = ${tilt_xz}"
xz = 0
print "yz = ${tilt_yz}"
yz = 0
print "tot_press = ${tot_press}"
tot_press = -490.283556338482
print "pxx = ${press_xx}"
pxx = -490.283556338668
print "pyy = ${press_yy}"
pyy = -490.283556338614
print "pzz = ${press_zz}"
pzz = -490.283556338163
print "pxy = ${press_xy}"
pxy = -3.79271362347293e-11
print "pxz = ${press_xz}"
pxz = -7.2182599384956e-11
print "pyz = ${press_yz}"
pyz = 3.21304951944417e-11
print "pypospack:output_section:done"
pypospack:output_section:done
print "pypospack:lammps_sim:done"
pypospack:lammps_sim:done
#------------------------------------------------------------------------------
# RUN THERMOSTAT
# running using an NPT Nose-Hoover style thermostat
#------------------------------------------------------------------------------
variable tempdamp equal 0.1
variable pressdamp equal 1.0
# set initial velocities
velocity all create 800 4640459 mom yes dist gaussian loop all
# fix for Nose-Hoover style thermostat
fix 20 all npt temp 800 800 0.1 aniso 0.0 0.0 1.0 drag 1.0 couple xyz
variable boxx equal lx
variable boxy equal ly
variable boxz equal lz
variable boxp equal press
variable boxt equal temp
# calculate averages every 10000 steps
reset_timestep 0
fix 21 all ave/time 10 10 100 v_boxx v_boxy v_boxz v_boxp v_boxt file lattice.out
thermo_style custom step temp pe ke etotal press lx ly lz press pxx pyy pzz pxy pxz pyz vol
thermo_modify flush yes
thermo 100
run 100000
PPPM initialization ...
  G vector (1/distance) = 0.353501
  grid = 8 8 8
  stencil order = 5
  estimated absolute RMS force accuracy = 4.03791e-05
  estimated relative force accuracy = 2.80417e-06
  using double precision FFTs
  3d grid and FFT values/proc = 3375 512
Memory usage per processor = 3.06549 Mbytes
Step Temp PotEng KinEng TotEng Press Lx Ly Lz Press Pxx Pyy Pzz Pxy Pxz Pyz Volume 
       0          800    -119.8549   0.72385681   -119.13104     9780.339     4.222448     4.222448     4.222448     9780.339     7332.403    8426.3793    13582.235    41.417621    98.615578    269.51559    75.282309 
     100    222.13268   -119.23618   0.20099032   -119.03519   -5269.7469    4.2559713    4.2559713    4.2559713   -5269.7469   -8057.8063   -6596.1606   -1155.2737    3595.0175    3357.2857    542.69104    77.089652 
     200    626.14075   -119.41333   0.56654531   -118.84679   -23348.775    4.2591479    4.2591479    4.2591479   -23348.775   -25682.504   -20920.786   -23443.035    1055.6523   -6652.0509   -4949.3952    77.262395 
     300    482.57141   -119.09991   0.43664075   -118.66327    40264.331    4.2381429    4.2381429    4.2381429    40264.331    10088.813    44345.314    66358.867    1627.0924    722.67436   -4164.5334     76.12491 
     400    954.53541   -119.39893    0.8636837   -118.53525   -17791.554     4.272867     4.272867     4.272867   -17791.554   -13757.477    -20220.17   -19397.015    3149.7371   -1087.4275    7401.4303     78.01141 
     500    568.64647   -118.95263   0.51452328   -118.43811    4910.4639    4.2693594    4.2693594    4.2693594    4910.4639   -30330.462    5358.6239     39703.23    -6523.509    2969.4102   -3425.4401    77.819446 
     600    753.19696   -119.06925   0.68150844   -118.38774    5305.7751     4.242952     4.242952     4.242952    5305.7751    3721.9105    10914.387    1281.0277    2057.1961   -5338.3123    11055.099    76.384347 
     700    856.81494   -119.17161   0.77526417   -118.39634   -8467.1804    4.2706281    4.2706281    4.2706281   -8467.1804   -16934.464   -26905.267     18438.19   -4718.3782   -7.9783237   -17.785404    77.888845 
     800    955.64465   -119.25254   0.86468736   -118.38786   -38948.923     4.282826     4.282826     4.282826   -38948.923   -45773.861   -49765.408   -21307.498   -9865.5767    14645.872   -796.51175    78.558157 
     900     648.6138     -118.969    0.5868794   -118.38212    18379.337    4.2393212    4.2393212    4.2393212    18379.337    9529.0121    19370.846    26238.152    5521.8623    11244.457    5149.9691    76.188419 
    1000    698.46153   -119.04612   0.63198267   -118.41413    20437.705     4.262238     4.262238     4.262238    20437.705    23653.501   -19055.853    56715.466   -5229.9627   -10393.889   -1120.3774    77.430681 
    1100    923.91879   -119.23232   0.83598114   -118.39634   -59872.622    4.2976719    4.2976719    4.2976719   -59872.622   -48921.321     -61179.9   -69516.645     1462.714   -2239.6539   -3817.7634    79.377928 
    1200    454.62284   -118.80835    0.4113523     -118.397    45225.543    4.2143548    4.2143548    4.2143548    45225.543    53160.591    44071.304    38444.733    2055.4651    11389.889   -15220.791    74.850254 
    1300    468.05301   -118.87646    0.4235042   -118.45296    25199.193    4.2555068    4.2555068    4.2555068    25199.193   -10125.821    23751.169    61972.231   -960.10875    19209.314    2592.4551    77.064414 
    1400    1041.8931   -119.32739   0.94272681   -118.38467   -68686.721    4.3086708    4.3086708    4.3086708   -68686.721   -88329.514   -67025.862   -50704.786   -3870.3954   -10292.801   -5433.4078    79.988942 
    1500    1071.3185   -119.31927   0.96935145   -118.34992    93170.064    4.1882967    4.1882967    4.1882967    93170.064     65107.88     99184.65    115217.66    1782.8082   -298.95948   -9057.7089    73.470385 
    1600    535.52302   -118.92608   0.48455248   -118.44152   -35106.994    4.2668124    4.2668124    4.2668124   -35106.994   -60805.522      1213.67   -45729.131    -582.4094    33106.667   -3991.2945    77.680258 
    1700    567.07733   -118.88598   0.51310348   -118.37288     -62695.7    4.2916836    4.2916836    4.2916836     -62695.7   -77906.193   -36943.359   -73237.548   -969.95148    15816.064   -10610.039    79.046584 
    1800    1034.9996   -119.25518   0.93648938   -118.31869    68863.395    4.2097039    4.2097039    4.2097039    68863.395    58301.263    82394.962    65893.961   -8616.6625   -14114.024    15339.253    74.602718 
    1900     1030.978   -119.29173   0.93285055   -118.35888   -41912.214    4.2782462    4.2782462    4.2782462   -41912.214   -50441.204   -28137.041   -47158.397    1382.7113    13089.687    7587.4328    78.306412 
    2000     714.3344   -119.02475   0.64634478   -118.37841    30046.022    4.2460255    4.2460255    4.2460255    30046.022    11580.924    47317.389    31239.752    5686.1868    18752.692   -10112.934    76.550459 
    2100    769.43755    -119.0912   0.69620327   -118.39499    10665.629    4.2496434    4.2496434    4.2496434    10665.629    15816.369    1022.9382    15157.579     603.9916    4425.7874   -171.65763    76.746304 
    2200    789.74572   -119.11213   0.71457853   -118.39755     -31225.2    4.2650285    4.2650285    4.2650285     -31225.2   -27259.824   -37004.331   -29411.445   -7031.1181   -6741.3015   -3504.4995    77.582867 
    2300    1012.7597    -119.2995    0.9163663   -118.38314      44618.4    4.2175788    4.2175788    4.2175788      44618.4    66975.769    40022.457    26856.972   -13038.859   -1221.6419    433.89584    75.022168 
    2400    762.05785   -119.09156   0.68952596   -118.40203   -54865.113    4.2851224    4.2851224    4.2851224   -54865.113   -52055.988   -38196.622   -74342.731    4931.4062    13646.966   -7604.0203    78.684589 
    2500    619.59129    -118.9813   0.56061922   -118.42069   -3134.5186    4.2402326    4.2402326    4.2402326   -3134.5186   -4668.4512    -883.1375   -3851.9671    7050.5802    15568.286   -16728.543    76.237568 
    2600    647.71131   -118.98581    0.5860628   -118.39975    45581.054    4.2191728    4.2191728    4.2191728    45581.054    22950.276    54694.975    59097.912   -5914.5271   -6354.6034   -5102.8203    75.107264 
    2700    773.54215   -119.06913    0.6999172   -118.36922   -55798.669    4.2906661    4.2906661    4.2906661   -55798.669   -72871.665   -43895.644   -50628.697   -8135.3152   -15382.178    8214.6733    78.990369 
    2800    983.83189   -119.25567   0.89019177   -118.36548    31638.878    4.2286348    4.2286348    4.2286348    31638.878    35817.367    45921.693    13177.573    2337.3842    144.75302   -1274.0715    75.613707 
    2900    736.27939   -119.05417   0.66620106   -118.38797    -430.0815    4.2480716    4.2480716    4.2480716    -430.0815     11333.33   -2298.0083   -10325.566    7299.5262    2303.9851   -8778.5012    76.661178 
    3000    792.43496   -119.10505   0.71701181   -118.38804   -15028.078    4.2598414    4.2598414    4.2598414   -15028.078   -23521.095   -20007.077   -1556.0615    17798.944   -5383.9747   -8818.4238     77.30014 
    3100    657.02402     -118.982   0.59448914   -118.38751    38743.906    4.2400506    4.2400506    4.2400506    38743.906    26329.448    66563.758    23338.512    -3285.097   -17992.985    3143.7618    76.227754 
    3200    915.16453   -119.21661    0.8280601   -118.38855   -32841.255    4.2667224    4.2667224    4.2667224   -32841.255   -32456.992   -22055.668   -44011.105   -9847.9423   -6634.4984    2445.4369    77.675343 
    3300    829.61391   -119.14022    0.7506521   -118.38957    40481.927    4.2220442    4.2220442    4.2220442    40481.927    36683.195    24548.505    60214.081    2420.8737    2636.2578   -4847.0834    75.260715 
    3400    794.44161   -119.13856   0.71882746   -118.41973   -15996.567    4.2612699    4.2612699    4.2612699   -15996.567   -30030.868   -21934.841     3976.009    15542.631   -6626.7568   -7039.2151    77.377934 
    3500    804.75247   -119.12533   0.72815695   -118.39717   -35877.072    4.2669133    4.2669133    4.2669133   -35877.072   -55129.787   -22251.886   -30249.542    4424.4757   -20196.594    537.20255    77.685767 
    3600    826.77945   -119.11814   0.74808742   -118.37005    41015.253    4.2143773    4.2143773    4.2143773    41015.253    38110.962    36349.324    48585.474   -10564.077   -1021.0324    11361.662    74.851454 
    3700    786.04121   -119.10256   0.71122661   -118.39134   -33696.631    4.2696598    4.2696598    4.2696598   -33696.631    -15480.85   -58158.152   -27450.892    5682.6317    6822.1165    10851.121    77.835876 
    3800    742.41842   -119.06245   0.67175579    -118.3907    3615.1544    4.2530421    4.2530421    4.2530421    3615.1544    23314.898   -30798.292    18328.857    8640.3215   -2401.5421    -8078.329    76.930584 
    3900    902.94456   -119.19956   0.81700321   -118.38256    18449.898    4.2364714    4.2364714    4.2364714    18449.898    22579.919    4041.0934    28728.682    5974.7705    -19068.82   -4846.5507    76.034873 
    4000    887.21825   -119.18844   0.80277371   -118.38566   -15097.518    4.2577168    4.2577168    4.2577168   -15097.518    -29673.98    -26726.32    11107.747   -6998.4188   -9226.1599    6752.0045     77.18454 
    4100    662.83096   -118.99325   0.59974338   -118.39351    8226.6547    4.2448787    4.2448787    4.2448787    8226.6547    4306.8703   -18859.602    39232.696    -2949.376    13867.238   -2642.3097     76.48845 
    4200    740.96901   -119.07056   0.67044433   -118.40012   -23747.489    4.2550999    4.2550999    4.2550999   -23747.489   -9622.4503   -40770.537   -20849.481    11623.576   -4427.7106   -13564.938    77.042306 
    4300    942.28799   -119.24694   0.85260198   -118.39433   -9125.2798    4.2425692    4.2425692    4.2425692   -9125.2798   -11398.995   -28663.558    12686.713    831.15971   -13870.302   -6205.7914    76.363673 
    4400    887.01387   -119.19972   0.80258879   -118.39713   -7493.8641    4.2494978    4.2494978    4.2494978   -7493.8641    132.69935   -16655.511   -5958.7806   -11741.366    7031.9519    6540.3431    76.738413 
    4500    634.95757     -118.974   0.57452295   -118.39948    4712.2035    4.2552564    4.2552564    4.2552564    4712.2035    24405.683   -19533.767    9264.6949   -7495.4888    461.72508   -13831.027    77.050811 
    4600    758.64731   -119.08146   0.68644003   -118.39502    16995.158    4.2436856    4.2436856    4.2436856    16995.158    35225.399   -21069.236    36829.311    9172.9656    9007.8712    -14425.55    76.423971 
    4700    850.73482    -119.1643   0.76976275   -118.39453    7491.1389    4.2467078    4.2467078    4.2467078    7491.1389    36193.426   -25789.683    12069.674   -5808.1665   -3950.4385    5011.2273    76.587365 
    4800    803.25986   -119.12373    0.7268064   -118.39693    2221.2481    4.2520267    4.2520267    4.2520267    2221.2481   -5073.6541   -13498.247    25235.645   -17214.227   -549.64888     5231.503    76.875501 
    4900    850.97503   -119.16508   0.76998009    -118.3951   -8481.0641    4.2531648    4.2531648    4.2531648   -8481.0641    49.704616   -22214.893   -3278.0038   -2688.6572    8003.2421   -13870.902    76.937243 
    5000    746.14515   -119.06928   0.67512781   -118.39415    6081.9515    4.2427842    4.2427842    4.2427842    6081.9515    15895.977    4441.9009   -2092.0229    4264.3617    128.30899    -10862.84    76.375282 
    5100    677.90948   -119.01055   0.61338674   -118.39717   -11377.376    4.2536829    4.2536829    4.2536829   -11377.376   -18676.841   -16477.515    1022.2271   -10178.217   -1631.8606    11607.797    76.965367 
    5200    798.56485   -119.11731   0.72255826   -118.39475   -10690.901    4.2556061    4.2556061    4.2556061   -10690.901   -18411.691   -29818.063    16157.052   -24645.719    848.19208    8612.7992    77.069804 
    5300    1039.7902   -119.33008   0.94082405   -118.38926    13946.179    4.2368529    4.2368529    4.2368529    13946.179    26610.706   -5714.2858    20942.118   -2581.8697   -5147.8563   -13277.639    76.055419 
    5400    848.23889   -119.16378   0.76750437   -118.39628   -6186.3203     4.253923     4.253923     4.253923   -6186.3203    2578.4876   -30750.602     9613.154    6791.4894   -3273.3232   -4447.3588    76.978397 
    5500    635.99243   -118.97141   0.57545932   -118.39595   -6684.3878    4.2542115    4.2542115    4.2542115   -6684.3878    5408.7008   -27853.414    2391.5497   -15899.957    7755.8398    16112.494    76.994064 
    5600    638.44904   -118.97165    0.5776821   -118.39397    14080.679    4.2453875    4.2453875    4.2453875    14080.679    24221.945    8878.9512    9141.1413   -13651.419   -10175.618    4012.8619    76.515957 
    5700    987.35685     -119.282   0.89338123   -118.38862   -11664.119    4.2598312    4.2598312    4.2598312   -11664.119   -16842.516   -7842.2092    -10307.63    9438.2008    1346.3876   -12867.734    77.299587 
    5800    936.42284   -119.23226   0.84729506   -118.38497    48.525816    4.2501982    4.2501982    4.2501982    48.525816     12561.52     1837.068   -14253.011    10056.842    7944.0233   -2653.9597    76.776367 
    5900    604.61647   -118.93645   0.54706969   -118.38938    3084.2685    4.2476571    4.2476571    4.2476571    3084.2685    11461.274    5878.2048   -8086.6736   -9064.5701   -5253.0723    20289.543    76.638738 
    6000    809.69115    -119.1242   0.73262557   -118.39157   -10195.479    4.2535794    4.2535794    4.2535794   -10195.479    5274.1423   -27635.198    -8225.381   -8809.2373    3279.4721    8713.5009    76.959748 
    6100    913.11329   -119.21749   0.82620409   -118.39129     10031.85      4.24638      4.24638      4.24638     10031.85    37164.247   -18062.576    10993.879    14237.633   -4443.7014    -11788.28    76.569633 
    6200    818.27742   -119.13335   0.74039461   -118.39296    -46.51235    4.2521964    4.2521964    4.2521964    -46.51235     14567.77   -4744.7728   -9962.5344    8691.6993     2795.622    13609.239    76.884706 
    6300    533.05013    -118.8744   0.48231496   -118.39209   -551.38687    4.2568872    4.2568872    4.2568872   -551.38687    9763.9573   -5058.5485   -6359.5693   -14432.395    8574.9732    20125.713    77.139429 
    6400    1054.6283   -119.33955   0.95424983    -118.3853    384.84908    4.2467115    4.2467115    4.2467115    384.84908   -3627.9877   -2687.8164    7470.3513   -6035.4487   -6934.3248   -3147.5749    76.587565 
    6500    927.43007   -119.22574   0.83915822   -118.38658   -521.65064     4.250113     4.250113     4.250113   -521.65064   -14646.369   -3740.8951    16822.313    8189.7281   -5739.2394   -9729.8585     76.77175 
    6600    535.15048   -118.87781    0.4842154    -118.3936   -6360.3873    4.2540855    4.2540855    4.2540855   -6360.3873   -14986.913   -9509.5687    5415.3196    9206.9721    8642.8604    14750.424     76.98722 
    6700    641.77751   -118.97646   0.58069378   -118.39577    283.67718    4.2511877    4.2511877    4.2511877    283.67718    4726.6419    7219.1493    -11094.76   -6781.6991     12765.63    14244.423        76.83 
    6800    1137.2747    -119.4195      1.02903   -118.39047    3700.6609    4.2471875    4.2471875    4.2471875    3700.6609   -4029.3479   -3843.2349    18974.566    -529.2748   -2294.5735   -4822.0725    76.613326 
    6900    880.04766   -119.19182   0.79628562   -118.39553    1865.1596    4.2518379    4.2518379    4.2518379    1865.1596    3191.0148   -4585.1051     6989.569    14667.014   -10412.514   -10868.057    76.865259 
    7000    479.34254   -118.83214   0.43371921   -118.39842    7041.4076    4.2483277    4.2483277    4.2483277    7041.4076    24755.638    1845.5791   -5476.9937    7740.1163    10458.538    21001.166    76.675045 
    7100    693.63446   -119.02422   0.62761503    -118.3966    1082.9811    4.2468566    4.2468566    4.2468566    1082.9811    1097.5271   -7748.4637    9899.8801   -2401.6506    17291.365    11794.228    76.595416 
    7200    1008.7573   -119.30562   0.91274484   -118.39288    -10901.71    4.2506158    4.2506158    4.2506158    -10901.71   -13911.922   -9451.0348   -9342.1716   -372.24212   -1731.0935   -15225.237    76.798999 
    7300    913.53142   -119.22035   0.82658243   -118.39377   -4743.6293    4.2442986    4.2442986    4.2442986   -4743.6293   -13935.864   -12509.237    12214.213    8834.3284   -13527.261    -242.4523    76.457096 
    7400    456.80062   -118.81637    0.4133228   -118.40304   -7099.7747    4.2540861    4.2540861    4.2540861   -7099.7747   -12623.281   -2966.3406   -5709.7028     1825.086    15473.591    25999.971    76.987256 
    7500    656.47071   -118.99349   0.59398849    -118.3995    1920.8921    4.2496338    4.2496338    4.2496338    1920.8921   -3016.1481    21373.184   -12594.359   -4355.4338    18613.017    18246.052    76.745784 
    7600     1175.985    -119.4548    1.0640559   -118.39074    112.33175    4.2473037    4.2473037    4.2473037    112.33175   -8902.5718    5217.7177    4021.8494   -1466.8683   -3760.9228    -8164.867    76.619611 
    7700    849.10915   -119.16113    0.7682918   -118.39284   -1766.4343    4.2591522    4.2591522    4.2591522   -1766.4343   -12585.158    12941.792   -5655.9362    2223.0909   -3721.1283    4087.6125    77.262627 
    7800    632.82613   -118.96664   0.57259438   -118.39405    2667.2649    4.2466133    4.2466133    4.2466133    2667.2649    29863.637    4969.9685    -26831.81    2186.2642    5500.8025    36125.717    76.582253 
    7900     689.8257   -119.02038   0.62416879   -118.39621    10293.073    4.2421415    4.2421415    4.2421415    10293.073    25221.107    3709.5537    1948.5587    5987.4203    9178.4765    7435.2734    76.340579 
    8000     1030.423   -119.32395   0.93234841    -118.3916   -20682.032    4.2588258    4.2588258    4.2588258   -20682.032   -22405.298   -16021.101   -23619.696   -2579.1153    10081.128   -27787.656    77.244866 
    8100    790.20794   -119.10601   0.71499675   -118.39101   -3592.9762    4.2480402    4.2480402    4.2480402   -3592.9762   -749.63215   -21001.908    10972.611   -366.87591   -6397.9863    9193.4319    76.659476 
    8200    732.45368   -119.05773   0.66273948     -118.395    5272.9732    4.2441648    4.2441648    4.2441648    5272.9732    11515.707    3228.0041    1075.2084    14462.218    2651.9622    29873.562    76.449865 
    8300    694.57344   -119.02281   0.62846464   -118.39435   -5183.3727    4.2569585    4.2569585    4.2569585   -5183.3727   -15642.159    22578.762   -22486.721    46.374038    17272.931    2578.8338    77.143306 
    8400    896.12181   -119.20156   0.81082985   -118.39073    2145.8709    4.2484058    4.2484058    4.2484058    2145.8709   -2472.0725    1063.0901     7846.595   -29.507249   -4349.4782   -22535.283    76.679272 
    8500    793.02728   -119.11149   0.71754775   -118.39394    13907.243    4.2402387    4.2402387    4.2402387    13907.243     11828.63    10142.045    19751.053    7718.2651   -2063.4193    11738.374    76.237898 
    8600    662.01311   -118.99681   0.59900337    -118.3978   -4154.6432    4.2566338    4.2566338    4.2566338   -4154.6432    -3072.137   -6753.8139   -2637.9787    3112.2805    5074.0309    38540.132    77.125653 
    8700    802.69112   -119.11673    0.7262918   -118.39044    -4920.757    4.2563001    4.2563001    4.2563001    -4920.757   -19798.401   -16407.217    21443.346       5734.6    563.14041    -2349.036    77.107516 
    8800    966.97509   -119.26028   0.87493938   -118.38534    4734.9285    4.2421288    4.2421288    4.2421288    4734.9285    12051.975   -12535.712    14688.522   -605.43254    11463.556    -18354.15    76.339893 
    8900     677.1745   -119.00935   0.61272172   -118.39663   -5596.4374    4.2526031    4.2526031    4.2526031   -5596.4374    5722.0105   -38375.963     15864.64     1530.962   -1680.0226    17822.646    76.906767 
    9000    703.09994   -119.03527    0.6361796   -118.39909    1293.7943    4.2493505    4.2493505    4.2493505    1293.7943     8672.034   -24265.318    19474.667    12747.205   -2509.9007    23377.068    76.730437 
    9100    864.59948   -119.17578   0.78230778   -118.39347    11885.285    4.2425132    4.2425132    4.2425132    11885.285    16808.362    10133.464    8714.0276    -3409.338    9624.1159   -6207.7301    76.360646 
    9200     747.2799   -119.07162   0.67615455   -118.39546   -469.20444    4.2579443    4.2579443    4.2579443   -469.20444    5290.2645   -19796.529    13098.652   -9743.6517   -559.09166    -16265.57    77.196911 
    9300     650.3706   -118.98268   0.58846898   -118.39421    5283.0222    4.2509883    4.2509883    4.2509883    5283.0222    24267.264    -14237.31    5819.1123   -613.30071   -7399.4085    11429.281    76.819193 
    9400    866.98027   -119.17382   0.78446197   -118.38936    4517.2972    4.2443163    4.2443163    4.2443163    4517.2972    24059.763   -13315.859    2807.9876    328.62849   -180.97366    17460.704    76.458052 
    9500    887.46602    -119.1927    0.8029979    -118.3897   -2300.9259    4.2534615    4.2534615    4.2534615   -2300.9259   -8032.8385   -18579.924    19709.985    5219.4968   -1716.6544   -22.395369    76.953349 
    9600    679.08154   -119.00829   0.61444725   -118.39385    1577.8307     4.253363     4.253363     4.253363    1577.8307    7748.7712   -5360.3652    2345.0862    -2516.312     11846.52    4529.8921    76.948001 
    9700    740.20269   -119.06188   0.66975095   -118.39213    8060.6403    4.2478696    4.2478696    4.2478696    8060.6403    25473.848   -21768.215    20476.288   -533.01222   -3824.4901    18358.935    76.650241 
    9800    873.13554   -119.18003   0.79003139      -118.39    87.773998    4.2482645    4.2482645    4.2482645    87.773998    16148.664   -34082.736    18197.393    5630.7265   -834.03601    7421.5851    76.671621 
    9900     793.5297   -119.11029   0.71800235   -118.39229   -3766.2012    4.2477898    4.2477898    4.2477898   -3766.2012    13694.603   -10177.057    -14816.15   -2313.7535    25572.088   -7496.7794    76.645923 
   10000    759.84587   -119.08319   0.68752451   -118.39567   -2596.3544    4.2524234    4.2524234    4.2524234   -2596.3544     7524.556   -7363.6212   -7949.9979    1699.1912    12526.322    2315.9308    76.897019 
   10100    947.26354   -119.24994   0.85710396   -118.39284   -16552.653    4.2520349    4.2520349    4.2520349   -16552.653     5768.407   -38444.102   -16982.264    4246.4784   -6889.1669    22908.788    76.875944 
   10200    774.06766   -119.09335   0.70039269   -118.39295   -3848.3943    4.2422325    4.2422325    4.2422325   -3848.3943    12118.072   -27606.749    3943.4939    4160.5953    8196.1182     8692.711     76.34549 
   10300    706.91509   -119.03774   0.63963163   -118.39811   -2885.3294     4.248729     4.248729     4.248729   -2885.3294   -6109.2255     31.26103   -2578.0238    5180.7618    14746.654   -9269.4381    76.696775 
   10400    878.83684   -119.19127   0.79519004   -118.39608   -4780.0021    4.2536343    4.2536343    4.2536343   -4780.0021    8627.3466   -12936.437   -10030.916     816.3384    11951.532    9085.9585    76.962726 
   10500    930.15344   -119.23378   0.84162238   -118.39215    12449.369     4.246389     4.246389     4.246389    12449.369    19510.073   -5584.3365    23422.371    2121.4755   -12119.659    27558.913    76.570121 
   10600    734.24821   -119.05545   0.66436321   -118.39109   -8851.5934     4.256006     4.256006     4.256006   -8851.5934     6314.351   -13587.504   -19281.628    3090.8043    5533.9431     3472.462    77.091538 
   10700    751.22528   -119.06986   0.67972442   -118.39013     456.6211    4.2484945    4.2484945    4.2484945     456.6211    9305.1417    7719.1154   -15654.394   -1541.9148    30956.689   -14190.378    76.684075 
   10800    979.94186   -119.27956   0.88667199   -118.39289   -13364.602    4.2536028    4.2536028    4.2536028   -13364.602   -11905.972    1105.0267   -29292.861    241.21111     5625.961    3156.0194    76.961019 
   10900    979.42995   -119.27722    0.8862088   -118.39101    -14324.87    4.2520796    4.2520796    4.2520796    -14324.87   -3242.5298   -27545.929    -12186.15   -4201.9859   -8942.9781    18851.767    76.878369 
   11000    731.96166   -119.05431   0.66229429   -118.39202   -770.66754    4.2469234    4.2469234    4.2469234   -770.66754   -7208.1088   -255.58273    5151.6889    1589.8029    16407.608    749.51371    76.599035 
   11100    628.59076   -118.96304   0.56876213   -118.39428   -12806.067    4.2605015    4.2605015    4.2605015   -12806.067    -38856.15    11859.001   -11421.052    6497.6287    21412.835   -13547.824     77.33608 
   11200    991.79977   -119.28264   0.89740128   -118.38524    5060.2782    4.2454488    4.2454488    4.2454488    5060.2782    2997.2892      12060.2    123.34595    -3176.081   -1202.4959    2245.6677    76.519268 
   11300    988.88317   -119.28039   0.89476228   -118.38562   -5136.3517    4.2490904    4.2490904    4.2490904   -5136.3517   -8600.1166   -7522.5691    713.63069    3704.0998   -2551.6878    21621.764    76.716346 
   11400    579.40598   -118.91957   0.52425871   -118.39531   -12551.352    4.2521046    4.2521046    4.2521046   -12551.352   -16812.791   -7568.0725   -13273.192    5456.6293    23202.057    2490.0462    76.879726 
   11500    630.74166   -118.96694   0.57070831   -118.39623    23337.593    4.2368267    4.2368267    4.2368267    23337.593    5907.0915    26687.516    37418.173    813.03925    23936.736    -10980.71    76.054006 
   11600    1033.6007    -119.3302   0.93522366   -118.39497   -14265.516    4.2621853    4.2621853    4.2621853   -14265.516   -26429.142    -13119.95   -3247.4566    2525.0031   -12923.459   -4855.3549     77.42781 
   11700    990.24341   -119.28817   0.89599305   -118.39218    16403.061    4.2405934    4.2405934    4.2405934    16403.061    16034.983    15430.288    17743.911   -3897.1755    -7331.334    3997.9023    76.257031 
   11800    640.39982   -118.98201   0.57944721   -118.40256    6854.8819     4.242971     4.242971     4.242971    6854.8819    10640.559    9520.4643    403.62299    436.28928     30850.58    5922.2357    76.385369 
   11900    573.76757   -118.91708   0.51915695   -118.39792    -15088.96    4.2605364    4.2605364    4.2605364    -15088.96   -26031.964   -10442.711   -8792.2058    11470.848    24098.164   -6577.9515    77.337981 
   12000    859.74331   -119.16814   0.77791381   -118.39023    21610.429    4.2379068    4.2379068    4.2379068    21610.429    26697.901    4291.5783    33841.808    4254.8794   -20938.197   -12640.531    76.112188 
   12100    975.79254    -119.2746    0.8829176   -118.39168   -9296.5478    4.2513571    4.2513571    4.2513571   -9296.5478    3902.5356   -23607.778   -8184.4015    1567.8962    -5931.285    1361.4416    76.839186 
   12200    679.65568   -119.00941   0.61496674   -118.39444    810.71953    4.2514286    4.2514286    4.2514286    810.71953    6388.3521   -6883.2967    2927.1032    4580.3271    32455.161    4629.7573    76.843061 
   12300    700.18335   -119.03027   0.63354061   -118.39673   -2054.6594    4.2452011    4.2452011    4.2452011   -2054.6594   -8505.7125   -1154.4683    3496.2026    13095.808    14126.344    -5196.407    76.505878 
   12400    770.13073   -119.09241   0.69683047   -118.39558   -3867.0939    4.2488488    4.2488488    4.2488488   -3867.0939     12895.33   -25420.275    923.66432    10055.973   -11370.466   -15602.551    76.703261 
   12500    898.00649   -119.20748   0.81253515   -118.39494   -5191.6716    4.2484167    4.2484167    4.2484167   -5191.6716    11827.659   -17682.093   -9720.5807    -5006.001   -2808.6097   -1368.5441     76.67986 
   12600    755.69194   -119.08092   0.68376595   -118.39716    3145.0014    4.2493193    4.2493193    4.2493193    3145.0014    3252.5861    3210.3254    2972.0928    5184.3228    16269.522    10626.962    76.728748 
   12700    910.36419   -119.21695   0.82371665   -118.39323   -4538.4803    4.2523596    4.2523596    4.2523596   -4538.4803    6632.4424   -15348.475   -4899.4084    11288.339    13181.555   -10044.141    76.893557 
   12800    786.62335   -119.10209   0.71175333   -118.39034    4105.6176    4.2514332    4.2514332    4.2514332    4105.6176    22901.868   -19651.041    9066.0265   -1740.9419   -8928.6818   -17463.383    76.843314 
   12900    788.59591   -119.10319   0.71353816   -118.38965   -1393.7819    4.2519941    4.2519941    4.2519941   -1393.7819    17952.154     -11410.5       -10723   -4463.8539    1140.9012    6202.3262    76.873729 
   13000    773.86847   -119.08789   0.70021245   -118.38767     3193.373    4.2516298    4.2516298    4.2516298     3193.373    15766.882    14223.103   -20409.866   -5498.8825     22753.66    18121.149    76.853973 
   13100    888.93351   -119.19274   0.80432572   -118.38841   -4459.2452    4.2485141    4.2485141    4.2485141   -4459.2452   -3319.7131    9712.9626   -19770.985    3511.0921    1227.2102   -14667.342    76.685137 
   13200    760.78874   -119.08054   0.68837764   -118.39216   -1981.7355    4.2463616    4.2463616    4.2463616   -1981.7355    21200.791   -19056.088   -8089.9099    9664.4196   -6977.9133   -20363.641    76.568636 
   13300    824.01746   -119.13672   0.74558832   -118.39113   -11065.564    4.2559405    4.2559405    4.2559405   -11065.564   -2212.9264   -23200.869   -7782.8977   -4035.5803    10095.557    9431.2951    77.087979 
   13400      912.043   -119.21343   0.82523568    -118.3882   -7554.7463    4.2520245    4.2520245    4.2520245   -7554.7463   -25246.868   -579.81906    3162.4478    1580.9677    14564.144    9064.1608    76.875379 
   13500    747.20865   -119.06489   0.67609009    -118.3888    10728.472    4.2474112    4.2474112    4.2474112    10728.472   -5571.4577    13070.266    24686.607    10048.093   -2774.2036   -15171.942    76.625429 
   13600    672.79879   -118.99653   0.60876248   -118.38777   -8053.1514     4.261319     4.261319     4.261319   -8053.1514   -17045.476   -19721.732    12607.754     3465.289    -8101.806    -21620.95    77.380607 
   13700    764.88698   -119.07805   0.69208581   -118.38596    8876.7769    4.2463277    4.2463277    4.2463277    8876.7769   -4786.6266      6614.04    24802.917   -1080.7821    5507.3446    11286.595    76.566805 
   13800    922.88875   -119.22443   0.83504914   -118.38938    791.04064    4.2429445    4.2429445    4.2429445    791.04064    -13664.13    21398.907   -5361.6551    1950.1685     16476.14    15404.703    76.383939 
   13900    632.77901   -118.96854   0.57255175   -118.39598   -2424.3256    4.2546772    4.2546772    4.2546772   -2424.3256   -9585.7511    7977.5711   -5664.7968    -1892.005   -5106.9261   -16881.542    77.019349 
   14000     557.1611   -118.90349   0.50413108   -118.39936   -901.67267    4.2501329    4.2501329    4.2501329   -901.67267   -12010.476    7211.9916    2093.4667    12059.904   -11725.324   -15236.641    76.772828 
   14100     958.3543   -119.26245   0.86713911   -118.39531    7759.7281    4.2409542    4.2409542    4.2409542    7759.7281     8872.553    12834.827    1571.8041    13656.116    9313.9924    6380.5163    76.276499 
   14200    1241.1799   -119.51662    1.1230456   -118.39357   -1749.6587    4.2501169    4.2501169    4.2501169   -1749.6587   -8599.4281    10765.431    -7414.979   -6604.5562    -677.8576    6337.7433    76.771961 
   14300    734.70028    -119.0649   0.66477225   -118.40013   -12587.351    4.2543356    4.2543356    4.2543356   -12587.351   -16171.764   -2191.5897   -19398.701    3509.9529   -6167.2245   -15961.856    77.000801 
   14400    334.16649   -118.70297   0.30236086   -118.40061     4448.215    4.2445297    4.2445297    4.2445297     4448.215    3728.8979   -9755.0821    19370.829    13156.766    -4224.964   -19891.764    76.469584 
   14500    967.18659   -119.27172   0.87513075   -118.39659   -11866.335    4.2524929    4.2524929    4.2524929   -11866.335    -28481.83   -7648.2474    531.07152     9303.165     -5404.83    6154.4336    76.900791 
   14600    1104.1866   -119.38879   0.99909126    -118.3897   -11665.504    4.2575125    4.2575125    4.2575125   -11665.504   -15263.076   -7497.8929   -12235.543    -6712.313    6305.1281    3927.0668    77.173429 
   14700    617.00939   -118.95151   0.55828307   -118.39323    11182.605    4.2429139    4.2429139    4.2429139    11182.605    23238.069   -1791.4466    12101.192   -770.13503    1356.6144    -17087.48    76.382289 
   14800    444.17781   -118.80095   0.40190142   -118.39904    1047.0519    4.2497656    4.2497656    4.2497656    1047.0519   -14062.824   -6798.4619    24002.442    23106.969   -7787.7141   -16921.171    76.752923 
   14900    859.85259   -119.17041    0.7780127    -118.3924   -14485.799    4.2584525    4.2584525    4.2584525   -14485.799   -39821.871   -21262.225      17626.7    15590.115    2851.5305    4266.9345    77.224554 
   15000    1179.1803   -119.45061    1.0669471   -118.38366   -3287.6853    4.2465089    4.2465089    4.2465089   -3287.6853    2776.9064   -13698.607    1058.6442   -6201.1086    7094.8115    11294.618    76.576608 
   15100    659.16694   -118.98973    0.5964281    -118.3933   -10994.806    4.2563834    4.2563834    4.2563834   -10994.806   -26572.263   -26212.897    19800.742    13541.714   -4880.6159   -4717.8532    77.112047 
   15200    626.11617    -118.9603   0.56652307   -118.39377   -885.98305    4.2502715    4.2502715    4.2502715   -885.98305    -8635.768   -13893.785    19871.604    25863.046   -1369.3428   -10402.776    76.780336 
   15300    1028.5528   -119.31632   0.93065617   -118.38566    11324.213    4.2436131    4.2436131    4.2436131    11324.213    28067.225   -1164.7227    7070.1352    2184.9443    -2465.737    7485.3678    76.420055 
   15400    871.14972   -119.17718   0.78823458   -118.38894    3893.9748    4.2555467    4.2555467    4.2555467    3893.9748    7522.6137   -3821.3496    7980.6603   -16095.127   -1680.2742    4020.7901    77.066581 
   15500    670.81534   -118.99791   0.60696782   -118.39094    6830.8106     4.252367     4.252367     4.252367    6830.8106    17502.544    3809.1111   -819.22267    2022.2477   -5348.9495    -17243.82    76.893961 
   15600     619.0687   -118.95242   0.56014637   -118.39227    6535.1951    4.2502434    4.2502434    4.2502434    6535.1951    34350.468   -21798.511     7053.629     11710.93   -10143.742   -20188.566    76.778815 
   15700     1016.018    -119.3064   0.91931439   -118.38709   -10130.868    4.2537072    4.2537072    4.2537072   -10130.868   -14874.642   -22042.511    6524.5484    2101.4512    6236.3386    7269.1413    76.966683 
   15800    872.94659   -119.17731   0.78986042   -118.38745   -7628.4725    4.2502075    4.2502075    4.2502075   -7628.4725    10184.262    -24515.67    -8554.009   -9218.7731    4126.3926   -3780.1275    76.776868 
   15900    681.88948    -119.0076   0.61698793   -118.39061   -6757.9241    4.2461399    4.2461399    4.2461399   -6757.9241    12269.459   -41022.834    8479.6035    3434.7742    622.33915    -33062.07    76.556646 
   16000    826.98865   -119.14156   0.74827671   -118.39328    -7380.865    4.2513765    4.2513765    4.2513765    -7380.865   -14380.266   -20751.909     12989.58     15694.56    6396.8538   -6922.8792    76.840238 
   16100    920.89681   -119.22493   0.83324679   -118.39168    2136.9561    4.2520873    4.2520873    4.2520873    2136.9561    6950.6977    960.24508   -1500.0745   -6482.0754   -1348.6057    13570.059    76.878784 
   16200    565.36362   -118.90808   0.51155288   -118.39653     12507.44    4.2494301    4.2494301    4.2494301     12507.44    35784.445   -14258.356    15996.232   -15439.105    6989.9755   -14503.706     76.73475 
   16300    489.86078   -118.84206   0.44323633   -118.39882    6468.0099    4.2555791    4.2555791    4.2555791    6468.0099    17988.512   -1443.6012    2859.1188    -2422.561    6073.5502   -24880.359    77.068341 
   16400    1230.6165   -119.50034    1.1134877   -118.38685   -6896.5321    4.2486019    4.2486019    4.2486019   -6896.5321    -3803.078    -7451.143   -9435.3752    6097.5765   -4817.2348    1480.1416     76.68989 
   16500    1114.9906   -119.39886    1.0088669      -118.39    4628.3387    4.2446833    4.2446833    4.2446833    4628.3387   -6525.7593    7832.1846    12578.591    3709.4834   -387.19275    -1359.732    76.477887 
   16600    470.51454     -118.826   0.42573144   -118.40027   -9410.0572    4.2600021    4.2600021    4.2600021   -9410.0572    5024.2372   -26343.846   -6910.5627   -8699.4669   -1089.4207   -31692.758    77.308893 
   16700    628.79473   -118.96191   0.56894669   -118.39296    10261.097    4.2490391    4.2490391    4.2490391    10261.097    35096.074   -32790.829    28478.047    -7450.357    3587.3116   -13032.873    76.713569 
   16800    1111.5067   -119.39136    1.0057147   -118.38564    3083.6361    4.2464739    4.2464739    4.2464739    3083.6361    8819.9707   -861.79743    1292.7349   -1086.5519   -3636.7019     16758.96    76.574713 
   16900    756.44315   -119.07624   0.68444566   -118.39179   -4491.8938    4.2503235    4.2503235    4.2503235   -4491.8938   -1218.4069    -12464.32    207.04604    6090.5733   -8553.2795    -13134.74    76.783154 
   17000    594.97373    -118.9361   0.53834474   -118.39775   -1164.7449    4.2496532    4.2496532    4.2496532   -1164.7449    15278.369   -35679.432    16906.829   -7491.5126   -1742.2284   -23627.883    76.746834 
   17100    972.33486    -119.2739   0.87978901   -118.39411    -15245.44    4.2529927    4.2529927    4.2529927    -15245.44   -12223.509   -31506.535   -2006.2771   -10033.102     5367.003    4800.0966    76.927904 
   17200    1093.6232   -119.37842   0.98953326   -118.38889    694.23652    4.2449595    4.2449595    4.2449595    694.23652   -6493.2272   -5431.6644    14007.601    11808.824    1128.0054    13508.678    76.492818 
   17300    660.54338   -118.99603   0.59767353   -118.39835    7575.2023    4.2496217    4.2496217    4.2496217    7575.2023    15424.542    2367.8655    4933.1993    10540.972   -7985.9326   -9827.3781    76.745128 
   17400    480.15905   -118.83272     0.434458   -118.39826    1487.5101    4.2580454    4.2580454    4.2580454    1487.5101    -4610.591    5621.8413    3451.2801   -6065.1712   -10735.664   -19238.546    77.202411 
   17500    827.76145   -119.14418   0.74897596    -118.3952    15916.815    4.2396209    4.2396209    4.2396209    15916.815     12989.87    2460.6487    32299.927   -17115.983   -4774.4493     2175.177    76.204581 
   17600    997.16705   -119.29661    0.9022577   -118.39435      13430.2    4.2431615    4.2431615    4.2431615      13430.2    30019.401   -2862.6273    13133.826    3551.8177    1487.6635    8205.5414    76.395658 
   17700    737.79396   -119.06364   0.66757148   -118.39607   -15866.517    4.2661834    4.2661834    4.2661834   -15866.517    -17094.12   -20644.289   -9861.1405    22629.581   -5174.7049   -7245.8085    77.645908 
   17800     643.1965   -118.97471   0.58197771   -118.39274    7532.6741    4.2434551    4.2434551    4.2434551    7532.6741   -1911.2617    3807.8479    20701.436    109.74935   -8605.0721   -13411.545    76.411517 
   17900    1088.5304   -119.37299   0.98492514   -118.38807   -839.94312    4.2420745    4.2420745    4.2420745   -839.94312    4797.9986   -6966.6333    -351.1946    -12373.83    1232.2805   -3443.0328    76.336963 
   18000    959.97724    -119.2556   0.86860758   -118.38699   -15166.624    4.2658163    4.2658163    4.2658163   -15166.624   -30820.722   -21719.971    7040.8206    4178.9769    415.67726    1178.1711    77.625866 
   18100     392.9028   -118.74667   0.35550671   -118.39116    7977.9937    4.2540667    4.2540667    4.2540667    7977.9937    14741.292     6654.158    2538.5311    11375.779   -12702.404   -22818.374      76.9862 
   18200    537.56683   -118.87838   0.48640176   -118.39198    17496.273    4.2424794    4.2424794    4.2424794    17496.273    38968.794    1928.0889    11591.936    3763.0456   -8996.0263   -20861.344    76.358826 
   18300    1208.8442    -119.4775    1.0937876   -118.38371   -5569.8398    4.2557964    4.2557964    4.2557964   -5569.8398   -1730.8771   -14439.852   -538.79071   -3080.1799    1696.0482     2634.942    77.080144 
   18400    917.64251   -119.21247   0.83030223   -118.38217   -31516.947    4.2679099    4.2679099    4.2679099   -31516.947   -30430.222    -27937.34    -36183.28     2612.743    2552.6131   -3667.3284    77.740215 
   18500    462.90099   -118.80385   0.41884254     -118.385    -2095.846    4.2433752    4.2433752    4.2433752    -2095.846    11254.017   -20103.942    2562.3869    14095.966    826.75401   -23529.529    76.407201 
   18600    998.80502   -119.29164   0.90373977    -118.3879    7608.7589    4.2453693    4.2453693    4.2453693    7608.7589     9303.146    4751.3667     8771.764    9617.3824   -4829.4084   -381.35165    76.514974 
   18700    980.81921    -119.2674   0.88746583   -118.37993   -25999.133     4.273291     4.273291     4.273291   -25999.133   -20652.184   -22967.746   -34377.469   -7979.3257    5681.2177    14058.756    78.034633 
   18800    515.92667   -118.85239   0.46682129   -118.38557    22889.857    4.2343049    4.2343049    4.2343049    22889.857    40540.989    19295.078    8833.5037   -9104.5322    1556.7407   -12304.458    75.918282 
   18900    629.46633   -118.96574   0.56955436   -118.39618    4462.4157     4.243931     4.243931     4.243931    4462.4157    1115.2746    16800.566   -4528.5934    70.870352     -11461.5   -23939.791    76.437232 
   19000    1019.7857   -119.30743   0.92272356   -118.38471   -26001.534    4.2625347    4.2625347    4.2625347   -26001.534   -36738.511   -15701.649   -25564.442    10017.311   -4338.7073    4748.5347    77.446854 
   19100    854.99916   -119.15698   0.77362121   -118.38335    9901.0058     4.237954     4.237954     4.237954    9901.0058    17151.464   -5426.9517    17978.506    5782.9599    13116.137    20561.108     76.11473 
   19200    572.89115   -118.91337   0.51836395     -118.395   -14707.923    4.2510378    4.2510378    4.2510378   -14707.923    3978.5053    -30323.83   -17778.446     1484.266    5396.9175   -11223.061    76.821872 
   19300    883.99059   -119.19425   0.79985326   -118.39439    3561.6337    4.2453291    4.2453291    4.2453291    3561.6337    4240.0421   -7267.2088    13712.068   -1233.8986     2169.248   -25409.903    76.512797 
   19400    1039.9512    -119.3362   0.94096966   -118.39523   -1525.9401    4.2540581    4.2540581    4.2540581   -1525.9401   -16867.133   -5773.1311    18062.444   -1935.4997     1140.775    5668.6942    76.985733 
   19500     690.1725   -119.01489   0.62448258   -118.39041   -10578.036    4.2581586    4.2581586    4.2581586   -10578.036   -30090.106     1098.009   -2742.0102   -23.477715    7098.6969    18293.849     77.20857 
   19600    516.08603    -118.8537   0.46696549   -118.38673    20343.975    4.2412692    4.2412692    4.2412692    20343.975    9751.4631    16569.176    34711.285    329.16912    2534.3927   -8438.4033    76.293497 
   19700    842.52344   -119.14908   0.76233291   -118.38675   -16908.187    4.2622315    4.2622315    4.2622315   -16908.187    -23253.54   -16062.766   -11408.256   -2120.0057   -3726.5231   -20735.714    77.430329 
   19800    1000.8144   -119.29174   0.90555794   -118.38618    2814.3854    4.2442654    4.2442654    4.2442654    2814.3854   -21154.355    19041.745    10555.766   -4155.5036    4619.9853    7318.8743    76.455298 
   19900    767.22382   -119.08487   0.69420023   -118.39067    3545.4514    4.2395297    4.2395297    4.2395297    3545.4514   -2008.7978    10505.386    2139.7664    656.26715     7277.579    21655.064     76.19966 
   20000    640.85921   -118.97557   0.57986288   -118.39571   -12089.883    4.2540808    4.2540808    4.2540808   -12089.883    1764.3947    -30569.32   -7464.7243   -1137.6156    1493.0083   -2567.0603    76.986967 
   20100    875.34729   -119.18654   0.79203263    -118.3945    197.79094    4.2470178    4.2470178    4.2470178    197.79094   -10805.203   -5087.9223    16486.498   -5704.5208    -5983.304   -22151.302     76.60414 
   20200    985.95805   -119.28425   0.89211557   -118.39214   -13955.391    4.2507875    4.2507875    4.2507875   -13955.391   -31211.606   -12032.541    1377.9737   -5015.6372   -8978.9593   -2491.0956    76.808308 
   20300    899.13996   -119.20248   0.81356073   -118.38892   -10537.171    4.2526409    4.2526409    4.2526409   -10537.171   -15752.376   -8660.5044    -7198.634    2030.0489    4272.5358    16762.808     76.90882 
   20400    586.38398   -118.92465   0.53057255   -118.39408   -4312.4365    4.2533271    4.2533271    4.2533271   -4312.4365   -2339.0076   -10003.047   -595.25526   -348.62085   -3467.4669   -1632.7679    76.946054 
   20500    664.12522   -118.99608   0.60091446   -118.39517    16066.447    4.2411997    4.2411997    4.2411997    16066.447   -2026.4448    23741.234    26484.551   -8194.0619   -12725.026   -18705.502    76.289746 
   20600    937.37177   -119.24255   0.84815367   -118.39439    5359.0216    4.2481514    4.2481514    4.2481514    5359.0216   -27534.364    23915.989    19695.439   -6992.7606   -2760.5326   -3292.3907    76.665497 
   20700    875.47997   -119.18698   0.79215267   -118.39483   -4710.9656    4.2519969    4.2519969    4.2519969   -4710.9656   -17283.514   -15875.588    19026.205    1311.5739    5855.6142    14318.476    76.873881 
   20800    720.75199   -119.04944   0.65215154   -118.39729    10386.835    4.2373807    4.2373807    4.2373807    10386.835     25347.34   -20652.209    26465.375    10197.309   -5373.1372    3697.3734    76.083846 
   20900    662.32089   -119.00049   0.59928186   -118.40121   -15442.643    4.2521524    4.2521524    4.2521524   -15442.643    4977.6592   -45084.741   -6220.8474   -4621.3139   -10937.853   -17622.244    76.882318 
   21000    882.59585   -119.19249   0.79859128    -118.3939   -18852.567    4.2511419    4.2511419    4.2511419   -18852.567   -28229.823   -30748.346    2420.4687   -18952.008    3904.0593   -9369.5483    76.827517 
   21100    929.56664    -119.2333   0.84109143    -118.3922    -5455.868    4.2462493    4.2462493    4.2462493    -5455.868   -5149.3364    -5498.711   -5719.5567   -7406.4993    9281.8933     6751.179    76.562564 
   21200    879.34335   -119.18969   0.79564834   -118.39405    -3565.444    4.2507342    4.2507342    4.2507342    -3565.444    11502.104   -10987.191   -11211.245    13107.437    2204.8216   -6583.5856    76.805415 
   21300    635.97671   -118.97038   0.57544509   -118.39493    16630.466    4.2442241    4.2442241    4.2442241    16630.466    29876.754   -14841.368    34856.011   -274.68216   -2547.0214   -12122.035    76.453071 
   21400    529.92963   -118.87894   0.47949146   -118.39945     4345.672    4.2524755    4.2524755    4.2524755     4345.672   -5160.8251    538.20476    17659.636   -30191.646    4254.7335   -4412.4092    76.899846 
   21500    882.42755   -119.19863   0.79843899   -118.40019    6011.7514    4.2434495    4.2434495    4.2434495    6011.7514   -9861.9908    21131.371    6765.8739     -15783.5    9079.8843    5172.9579    76.411216 
   21600    1161.9371   -119.44782    1.0513451   -118.39648    8289.0313     4.239843     4.239843     4.239843    8289.0313     8906.664    6227.6334    9732.7967    15231.556    -1236.091   -576.60204    76.216556 
   21700     643.3657   -118.98403   0.58213081    -118.4019   -21064.687    4.2607411    4.2607411    4.2607411   -21064.687   -21566.804    -38510.38    -3116.876   -2791.0383    -4199.555    -5484.066    77.349128 
   21800     384.2291   -118.75172   0.34765857   -118.40406    4373.8818    4.2425622    4.2425622    4.2425622    4373.8818    19904.324   -31885.006    25102.328   -38063.322    446.12552   -5782.6472    76.363295 
   21900    796.30822   -119.12412   0.72051641    -118.4036    8528.8811    4.2395248    4.2395248    4.2395248    8528.8811    23877.044   -12592.168    14301.768   -9449.1856    9194.5949   -2331.7464    76.199398 
   22000     1160.509   -119.44206    1.0500529   -118.39201   -17892.098    4.2586096    4.2586096    4.2586096   -17892.098   -996.74359   -25731.418   -26948.133    9139.0159     5448.467    1126.8745    77.233102 
   22100    681.50571   -119.01218   0.61664069   -118.39554    5854.4474    4.2497109    4.2497109    4.2497109    5854.4474    37268.965    -18446.04   -1259.5832   -29212.046   -3593.4753   -6664.0783    76.749963 
   22200    507.21733   -118.85782    0.4589409   -118.39888    918.36114    4.2467233    4.2467233    4.2467233    918.36114    6431.1706   -12722.424    9046.3364   -37303.627    4137.5068     -4454.54    76.588206 
   22300    818.31457   -119.13594   0.74042822   -118.39552    10249.254    4.2456565    4.2456565    4.2456565    10249.254    22135.329   -78.357254    8690.7904    7668.1744    10831.024   -1218.9573    76.530504 
   22400    881.56011   -119.18577   0.79765411   -118.38811   -10945.543    4.2625206    4.2625206    4.2625206   -10945.543   -4116.0214   -10254.482   -18466.124    13472.793   -642.00294    866.63051    77.446084 
   22500    835.42797   -119.14403   0.75591278   -118.38812   -7737.4303     4.250972     4.250972     4.250972   -7737.4303   -17793.715   -3413.8496   -2004.7262   -27070.812   -10157.122    -2657.312    76.818309 
   22600    857.14196   -119.16219   0.77556005   -118.38662    17536.519    4.2362416    4.2362416    4.2362416    17536.519    18724.218    7484.5735    26400.765   -19062.914    3951.4368   -8380.7912    76.022504 
   22700    829.71274   -119.13947   0.75074152   -118.38873   -15891.893    4.2635662    4.2635662    4.2635662   -15891.893   -21890.828   -14333.137   -11451.713    11247.452    14823.047   -2115.3721    77.503092 
   22800    770.24871   -119.08388   0.69693722   -118.38694    3844.7798     4.247121     4.247121     4.247121    3844.7798   -22084.416    8738.0749     24880.68   -623.04326    1500.7273    5510.3281    76.609725 
   22900    800.36503   -119.11243    0.7241871   -118.38824    6221.1975    4.2423436    4.2423436    4.2423436    6221.1975   -20111.838    939.17723    37836.253    -27838.11    -4558.165    8010.5097    76.351491 
   23000    723.42822   -119.04246   0.65457306   -118.38789   -16645.742    4.2617898    4.2617898    4.2617898   -16645.742   -35071.333    6915.5347   -21781.428   -12554.796    12652.715   -2747.2746    77.406256 
   23100    706.08121   -119.02342   0.63887712   -118.38454    853.59635    4.2523883    4.2523883    4.2523883    853.59635   -10264.719    19632.514    -6807.006    10747.642    11630.328   -9547.2877    76.895115 
   23200    931.31305   -119.22304   0.84267162   -118.38036   -7516.4105    4.2515187    4.2515187    4.2515187   -7516.4105   -13069.891   -16814.703    7335.3626   -6995.8457   -1998.4833   -959.74054    76.847948 
   23300     1011.021   -119.29743   0.91479308   -118.38263    3351.5683    4.2447404    4.2447404    4.2447404    3351.5683    1831.6851   -6119.0873    14342.107   -15942.774    2440.9194   -1002.2234    76.480973 
   23400     812.4872   -119.12681   0.73515549   -118.39165    -2653.832    4.2513833    4.2513833    4.2513833    -2653.832    8698.8532    -8402.259   -8258.0903   -1223.1448    20452.425   -8175.0539    76.840607 
   23500    575.77331   -118.91735   0.52097179   -118.39638   -7510.8363    4.2515414    4.2515414    4.2515414   -7510.8363    6334.3979   -23498.578   -5368.3291    8572.7161     15218.98   -11983.215    76.849181 
   23600    814.42449   -119.12892   0.73690839   -118.39201    13824.359    4.2336314    4.2336314    4.2336314    13824.359    15343.807   -14029.125    40158.395   -494.64024   -6545.6471    2847.9789    75.882063 
   23700    1085.1659   -119.37622   0.98188095   -118.39434   -13845.744    4.2562432    4.2562432    4.2562432   -13845.744   -11048.046   -30809.387    320.20199   -6270.7017    4798.7787    6725.7794    77.104425 
   23800     746.9436    -119.0695   0.67585027   -118.39365   -10262.932    4.2567115    4.2567115    4.2567115   -10262.932   -2345.5284   -18954.728   -9488.5394    4191.4236    19040.928   -7423.7413    77.129876 
   23900    558.11972   -118.89635   0.50499845   -118.39135    12087.133    4.2378513    4.2378513    4.2378513    12087.133    31120.173   -14740.807    19882.033    10827.236    12563.784   -10402.902    76.109199 
   24000     1052.433   -119.34104   0.95226347   -118.38877   -11330.381    4.2503469    4.2503469    4.2503469   -11330.381    13564.779    -42161.41   -5394.5109   -2022.2588   -3025.0939    8155.8435    76.784425 
   24100    1100.2869   -119.38363   0.99556267   -118.38806   -7925.7348    4.2499407    4.2499407    4.2499407   -7925.7348    16054.363   -8498.8533   -31332.714   -4832.0121   -1652.3265    5540.4007    76.762412 
   24200    595.62042   -118.93627   0.53892988   -118.39734   -3530.5138    4.2448818    4.2448818    4.2448818   -3530.5138    6003.8748    17124.826   -33720.242    5579.6988    14805.939   -11959.484    76.488615 
   24300    659.68507   -118.99529   0.59689691    -118.3984   -5633.2397    4.2509098    4.2509098    4.2509098   -5633.2397    18877.125   -7775.5645   -28001.279    10141.587    5566.7746    -7694.045    76.814936 
   24400    1255.0436   -119.52313    1.1355898   -118.38754   -15371.863    4.2541527    4.2541527    4.2541527   -15371.863    4546.7507   -28093.081   -22569.258    3163.4317    -3652.351     2909.896     76.99087 
   24500    964.18579   -119.26635   0.87241557   -118.39393   -2425.9126    4.2436229    4.2436229    4.2436229   -2425.9126    2898.2888    8018.4961   -18194.523   -10673.011     9941.221    127.75632    76.420582 
   24600    453.35888   -118.81262   0.41020864   -118.40241    10928.728    4.2415294    4.2415294    4.2415294    10928.728    24324.585    30873.916   -22412.317   -1049.4072    11087.301   -20074.799     76.30754 
   24700    706.84087   -119.03507   0.63956447   -118.39551   -15640.178    4.2619111    4.2619111    4.2619111   -15640.178     3880.659   -7165.2661   -43635.927   -1466.6711   -5562.9998   -13828.051    77.412867 
   24800    956.44042    -119.2486   0.86540739   -118.38319   -7819.3191    4.2535482    4.2535482    4.2535482   -7819.3191    20914.513   -22601.671   -21770.799   -7990.7381   -10304.368    15755.739    76.958054 
   24900    756.43895    -119.0688   0.68444186   -118.38436    4523.6426    4.2405301    4.2405301    4.2405301    4523.6426    26839.798   -7576.6134   -5692.2564   -3746.6555    10064.793    10275.509    76.253616 
   25000    705.80054   -119.03097   0.63862316   -118.39235   -2466.4017    4.2524407    4.2524407    4.2524407   -2466.4017    6381.8943       6598.7   -20379.799   -5275.5615    17525.478   -10578.893    76.897955 
   25100    932.24649   -119.23253   0.84351621   -118.38901   -1822.2296    4.2490924    4.2490924    4.2490924   -1822.2296    16443.447   -4680.9662    -17229.17    4104.6804    4371.7254   -2801.8163    76.716454 
   25200    825.35731   -119.13863   0.74680064   -118.39183    2492.4249    4.2435379    4.2435379    4.2435379    2492.4249    16441.059   -16341.733    7377.9481    4258.1834   -6811.1121    16864.708    76.415993 
   25300    687.95043   -119.02163   0.62247201   -118.39916   -1065.8816    4.2480008    4.2480008    4.2480008   -1065.8816    750.64794   -2711.1552   -1237.1377     5870.604    6102.2752    12221.729    76.657343 
   25400    793.81081    -119.1138    0.7182567   -118.39555   -9034.5572    4.2557265    4.2557265    4.2557265   -9034.5572   -21598.528    11911.146    -17416.29    2465.0912    21837.679    -6462.262    77.076349 
   25500    929.78136   -119.22618   0.84128571    -118.3849   -4630.9438    4.2551355    4.2551355    4.2551355   -4630.9438   -13143.203    10010.816   -10760.445   -2639.5339    3929.9129    1219.8649    77.044244 
   25600    692.61415   -119.01126   0.62669184   -118.38456    15790.646    4.2450861    4.2450861    4.2450861    15790.646    21655.473     17803.82    7912.6453   -5757.5308   -4819.4484    22651.417    76.499658 
   25700    583.63678   -118.91886   0.52808682   -118.39077    7432.8682    4.2532528    4.2532528    4.2532528    7432.8682    -23004.74    47750.762    -2447.417   -3712.1836    17656.848    8627.7838    76.942019 
   25800    898.73731   -119.19642   0.81319641   -118.38323   -15513.685    4.2599611    4.2599611    4.2599611   -15513.685   -47652.953    9165.5174   -8053.6199    11062.527     9364.291   -8214.8181    77.306659 
   25900    929.02785   -119.21851   0.84060393   -118.37791   -6881.0159    4.2436076    4.2436076    4.2436076   -6881.0159    6048.7646   -20148.544   -6543.2683    6754.0844   -14354.053    13816.836    76.419759 
   26000    646.84095     -118.973   0.58527528   -118.38772   -5375.5791    4.2494363    4.2494363    4.2494363   -5375.5791    12595.313   -15968.093   -12753.957   -3489.6495    2060.2331    20509.052    76.735084 
   26100    811.58935   -119.12163    0.7343431   -118.38729    -7727.017    4.2597154    4.2597154    4.2597154    -7727.017   -5412.3635   -13026.943   -4741.7446    6897.6734     22394.76   -2474.4594    77.293285 
   26200    958.42353   -119.25023   0.86720175   -118.38303    7772.6725    4.2455207    4.2455207    4.2455207    7772.6725    17832.736   -13410.543    18895.824    6372.9691    11203.077    -82.99588     76.52316 
   26300    587.49711   -118.92099   0.53157973   -118.38941    9428.0165    4.2461331    4.2461331    4.2461331    9428.0165    34332.537   -26913.375    20864.887   -2901.9633    -5101.895    25960.567    76.556278 
   26400    616.28011   -118.95039   0.55762319   -118.39277   -6332.5779    4.2565439    4.2565439    4.2565439   -6332.5779     11077.31   -25496.987   -4578.0571   -4116.6052    380.22143    12797.852    77.120771 
   26500    996.52423   -119.29051   0.90167607   -118.38883    581.27572    4.2469463    4.2469463    4.2469463    581.27572    4704.2906    4970.4976    -7930.961    1460.9627    12173.382   -11074.275    76.600274 
   26600     968.3548   -119.26382   0.87618777   -118.38764   -1841.7718    4.2473553    4.2473553    4.2473553   -1841.7718    9860.1977   -10138.259   -5247.2539    3111.3828    4424.1666    9294.5631    76.622403 
   26700    815.64757   -119.12847   0.73801506   -118.39045   -1423.1687    4.2487429    4.2487429    4.2487429   -1423.1687    17367.839   -22053.974    416.62916    -371.0248   -8011.8468    24484.697    76.697528 
   26800    869.21626   -119.17983   0.78648514   -118.39335    2537.1758    4.2467391    4.2467391    4.2467391    2537.1758    7634.1318    7986.9381   -8009.5423   -7634.4644     286.7592    4445.8561    76.589061 
   26900    860.58367   -119.17204   0.77867419   -118.39336    -8029.156    4.2523549    4.2523549    4.2523549    -8029.156   -3810.3666    12339.178   -32616.279   -8540.2072     18576.46   -1316.9873      76.8933 
   27000     650.2254   -118.97809    0.5883376   -118.38975    146.53328    4.2509402    4.2509402    4.2509402    146.53328    34649.096   -17365.936    -16843.56   -1965.0992    9931.5981    17712.886    76.816586 
   27100    849.18535   -119.15374   0.76836075   -118.38538   -3565.0736    4.2541578    4.2541578    4.2541578   -3565.0736    31907.786   -32745.552   -9857.4541    6008.7639   -6910.8858    10937.988    76.991144 
   27200    896.34571   -119.19558   0.81103244   -118.38455   -3381.6657    4.2528804    4.2528804    4.2528804   -3381.6657    1547.9993    13085.298   -24778.294     3455.516     13810.47   -4853.3736    76.921811 
   27300    533.45265   -118.87326   0.48267917   -118.39058    17242.396     4.244128     4.244128     4.244128    17242.396     25878.29    42684.852   -16835.955   -113.19767    19443.889    9602.8422    76.447878 
   27400    524.98488   -118.86839   0.47501735   -118.39337    456.88765    4.2550066    4.2550066    4.2550066    456.88765    27691.049   -5175.8185   -21144.567    5582.2144   -5680.6479    22079.121     77.03724 
   27500    1013.8197   -119.30165   0.91732534   -118.38432   -4781.7171    4.2526179    4.2526179    4.2526179   -4781.7171    15227.352   -10479.321   -19093.182    4376.2476   -4659.0276    384.03358    76.907568 
   27600    998.72273   -119.28725   0.90366531   -118.38359    -1498.781    4.2514124    4.2514124    4.2514124    -1498.781    7185.3384    1642.1152   -13323.797   -4438.1339     17031.47   -10648.406    76.842187 
   27700    620.31802   -118.94706   0.56127678   -118.38578    -8004.204    4.2598514    4.2598514    4.2598514    -8004.204    4010.4447   -320.33479   -27702.722   -10259.769    10685.567    19485.062    77.300686 
   27800    916.46732   -119.20863   0.82923889   -118.37939     2099.704    4.2494073    4.2494073    4.2494073     2099.704    10999.518    4450.7893    -9151.195    4523.9496   -9132.4833    15001.043    76.733514 
   27900    1067.2623   -119.34436   0.96568135   -118.37868   -12817.009     4.249796     4.249796     4.249796   -12817.009   -8585.6799   -25401.694   -4463.6547    6401.2258   -4769.8924   -8630.1097    76.754569 
   28000    712.69838   -119.03321   0.64486447   -118.38835    -7069.384    4.2478388    4.2478388    4.2478388    -7069.384      1350.06   -14948.449    -7609.763   -2943.7087    12884.837   -3192.4957    76.648574 
   28100    764.18319    -119.0846   0.69144901   -118.39315   -869.50242    4.2493314    4.2493314    4.2493314   -869.50242     8287.602   -13778.267    2882.1576   -1001.9979    14394.925    10925.431    76.729399 
   28200     916.1927   -119.21657   0.82899041   -118.38758   -4912.2038    4.2560302    4.2560302    4.2560302   -4912.2038    10105.391   -32830.545    7988.5432    10906.638    1755.8684    4625.3575     77.09285 
   28300    717.85305   -119.03701   0.64952853   -118.38748    13235.809    4.2484771    4.2484771    4.2484771    13235.809    19624.223   -13157.901    33241.104    13742.065    4373.9086   -8808.6351    76.683132 
   28400    692.75776   -119.01565   0.62682178   -118.38883   -4324.0842    4.2540932    4.2540932    4.2540932   -4324.0842    15832.817    -14458.25    -14346.82   -4799.2213    13335.651    2650.7324    76.987638 
   28500    911.88526    -119.2095   0.82509295   -118.38441   -8503.8863    4.2510175    4.2510175    4.2510175   -8503.8863    6987.1919   -14842.141    -17656.71   -2833.1722    4614.1986    17477.565    76.820773 
   28600    777.17444   -119.08873   0.70320376   -118.38553    4203.7232    4.2460315    4.2460315    4.2460315    4203.7232    -16183.86    8158.8417    20636.188    24868.183    -3591.252    4213.2715    76.550783 
   28700    766.79036   -119.08417   0.69380803   -118.39036   -864.13478    4.2506207    4.2506207    4.2506207   -864.13478   -19625.084    6940.0878    10092.592    16669.325   -4030.8157   -8153.5054    76.799262 
   28800    967.08514   -119.26423   0.87503896   -118.38919    7795.7394    4.2450391    4.2450391    4.2450391    7795.7394   -3717.6312    19666.443    7438.4062   -16188.348    5945.3854    -9211.072    76.497122 
   28900    629.96354   -118.96746   0.57000425   -118.39745    3362.7384    4.2503319    4.2503319    4.2503319    3362.7384   -3654.5596    6974.3589    6768.4158    7301.4853    4145.2797    1770.0527    76.783611 
   29000    468.57749   -118.82281   0.42397876   -118.39883   -7729.9515    4.2545441    4.2545441    4.2545441   -7729.9515   -3357.2322   -26384.346    6551.7241    39008.044   -886.68598    10857.354     77.01212 
   29100     1043.769   -119.33507   0.94442409   -118.39065   -2781.8799    4.2454707    4.2454707    4.2454707   -2781.8799    3060.2096   -5892.0152   -5513.8341    9158.3503   -679.98742    5272.1338    76.520454 
   29200    1309.3562   -119.57431     1.184733   -118.38957   -13440.451    4.2510749    4.2510749    4.2510749   -13440.451   -5856.4355   -15750.283   -18714.635   -16754.571   -4102.4421    1756.7916    76.823888 
   29300    637.36124   -118.97544   0.57669784   -118.39874    7333.9877    4.2464259    4.2464259    4.2464259    7333.9877    18697.067   -27856.149    31161.046    18405.407    1498.2924   -996.59067    76.572115 
   29400     306.0911    -118.6796   0.27695766   -118.40265    6047.4003    4.2471119    4.2471119    4.2471119    6047.4003    15255.114   -24970.597    27857.684    29461.146    1034.5078    5984.8685    76.609232 
   29500    795.07454   -119.11799   0.71940015   -118.39858   -2559.2917    4.2468447    4.2468447    4.2468447   -2559.2917    11546.462   -21790.679    2566.3419   -4234.7005    2315.2894    9533.8202    76.594772 
   29600    1057.8177   -119.35388   0.95713567   -118.39674    8258.2846    4.2422416    4.2422416    4.2422416    8258.2846    12055.879   -443.05631    13162.031    127.34168   -431.21656    419.22261    76.345981 
   29700     789.8654   -119.11484   0.71468681   -118.40015   -4467.9471    4.2531434    4.2531434    4.2531434   -4467.9471   -16130.201     -23613.9     26340.26    26910.863   -3280.1864   -4510.5086    76.936084 
   29800    741.23076    -119.0647   0.67068117   -118.39402   -348.16265    4.2468244    4.2468244    4.2468244   -348.16265   -124.36588   -35892.761    34972.639    8559.3171    5450.3374    4217.5223    76.593678 
   29900    784.72115   -119.10359   0.71003219   -118.39356   -944.89377    4.2490102    4.2490102    4.2490102   -944.89377    11418.126   -24757.907      10505.1   -13517.259    682.10313    12111.204    76.712004 
   30000     890.0534   -119.19371   0.80533902   -118.38837   -15782.413    4.2586843    4.2586843    4.2586843   -15782.413   -3098.1679   -28114.836   -16134.236    8886.9147   -2197.5057    1613.7992    77.237166 
   30100    1023.6953   -119.30836   0.92626106    -118.3821     1545.839    4.2451664    4.2451664    4.2451664     1545.839    12993.012   -18775.559    10420.064    18922.509   -1895.5339   -5161.6574    76.504004 
   30200    631.66779   -118.96091   0.57154629   -118.38936   -6024.7393    4.2458876    4.2458876    4.2458876   -6024.7393    4641.5024   -21471.248   -1244.4724    -10027.01    5105.6925    2590.9621    76.542999 
   30300    423.21501   -118.78296   0.38293383   -118.40003    4877.5503    4.2438901    4.2438901    4.2438901    4877.5503    24808.536   -15708.394    5532.5085   -18556.152    14330.035    5091.4971    76.435018 
   30400    974.11546    -119.2835   0.88140014    -118.4021     3562.026    4.2486033    4.2486033    4.2486033     3562.026    31979.538   -24820.156     3526.696    3133.6663    3804.4672   -3801.0639    76.689964 
   30500    1291.0782   -119.56272    1.1681947   -118.39453   -5251.0968    4.2458806    4.2458806    4.2458806   -5251.0968    10952.941    -16751.07   -9955.1612    4704.2162   -3047.0805   -5111.2092    76.542619 
   30600    747.01522   -119.07879   0.67591507   -118.40288     7059.228    4.2377845    4.2377845    4.2377845     7059.228     22924.36   -3838.0876    2091.4115   -12395.076    8200.8626    5218.4956    76.105596 
   30700    493.21761   -118.85452   0.44627366   -118.40825   -14349.581    4.2528102    4.2528102    4.2528102   -14349.581   -1742.7622   -22032.673   -19273.308   -19459.699    9949.4782    7900.4901    76.918003 
   30800    799.23381   -119.12544   0.72316355   -118.40228   -52.169261    4.2426884    4.2426884    4.2426884   -52.169261    19371.421   -13894.543   -5633.3854    2789.5699    1277.2887    2150.8477    76.370109 
   30900     830.5664    -119.1519   0.75151393   -118.40039    345.72195    4.2416831    4.2416831    4.2416831    345.72195    12344.825   -23046.874    11739.215    31137.444   -3012.3003   -3547.2377    76.315836 
   31000    905.51205   -119.21809   0.81932633   -118.39877    1975.2042    4.2440892    4.2440892    4.2440892    1975.2042    8358.6508   -10090.195    7657.1565    12843.903    3343.7648    4860.0864    76.445779 
   31100    1034.7003   -119.33486    0.9362186   -118.39865   -2128.4037    4.2490002    4.2490002    4.2490002   -2128.4037    11551.419    1.5935811   -17938.224   -14712.268    7296.9257    11901.638     76.71146 
   31200    693.89563    -119.0267   0.62785135   -118.39885   -10536.269    4.2500065    4.2500065    4.2500065   -10536.269   -6366.8299   -12591.614   -12650.363    16808.999    1974.9424    677.86889     76.76598 
   31300    549.78155   -118.89376    0.4974539    -118.3963    5114.7302    4.2425619    4.2425619    4.2425619    5114.7302    13301.272    -14331.67    16374.589    37411.277   -5132.3197   -5172.7362    76.363276 
   31400    934.64638   -119.23948   0.84568768   -118.39379   -16915.442    4.2569221    4.2569221    4.2569221   -16915.442    1748.4426   -38445.616   -14049.152    4314.5978   -2514.5375    6103.2316    77.141329 
   31500    1157.8864   -119.43876    1.0476799   -118.39108    5405.7034    4.2408428    4.2408428    4.2408428    5405.7034    19771.886     -7994.49     4439.714   -9504.5904    1845.9224    11283.143    76.270485 
   31600    700.53562   -119.03152   0.63385935   -118.39766    10958.309    4.2410251    4.2410251    4.2410251    10958.309    2487.6471   -4067.3744    34454.656    31039.624    -291.6528    80.065143    76.280324 
   31700    622.84109   -118.95527    0.5635597   -118.39171   -19747.467    4.2638206    4.2638206    4.2638206   -19747.467   -21374.056   -42927.645    5059.3012    26554.127    5063.9896   -2394.3615    77.516966 
   31800    1006.6859   -119.28954    0.9108706   -118.37867   -2107.7584    4.2501768    4.2501768    4.2501768   -2107.7584    21569.351    -17336.43   -10556.196   -17974.147    4915.9033    8499.9235    76.775204 
   31900    910.50247   -119.20395   0.82384177    -118.3801   -1256.3864    4.2489318    4.2489318    4.2489318   -1256.3864    2329.7769   -11167.185    5068.2487    1748.7925    469.79176    8517.3745    76.707757 
   32000    632.38167   -118.95553   0.57219222   -118.38334    6175.7762    4.2510618    4.2510618    4.2510618    6175.7762    6725.2709   -20415.772    32217.829    34824.437   -4776.1555   -2381.1469    76.823174 
   32100    676.43058   -118.99702    0.6120486   -118.38497     8223.497    4.2521151    4.2521151    4.2521151     8223.497    13312.767   -26976.971    38334.694   -1065.4438   -5591.7333    -7322.162    76.880293 
   32200    759.55928   -119.07265    0.6872652   -118.38539     2966.337    4.2507735    4.2507735    4.2507735     2966.337    7531.8351   -21615.831    22983.007   -32938.526    -2561.305    4018.5062    76.807545 
   32300    841.41586    -119.1457   0.76133075   -118.38437      2882.42    4.2496618    4.2496618    4.2496618      2882.42    12976.389   -2852.5616   -1476.5678    12539.593    1734.8516    9315.2564    76.747302 
   32400    913.04287   -119.20415   0.82614038   -118.37801   -24238.801    4.2658212    4.2658212    4.2658212   -24238.801   -22696.339   -33148.803   -16871.261      25334.4    7614.7071    329.80718    77.626132 
   32500      742.092   -119.04578   0.67146044   -118.37432   -3722.8069      4.25331      4.25331      4.25331   -3722.8069    -9660.586   -29353.346    27845.512   -29920.979    3106.1464   -5099.8687    76.945124 
   32600    730.21093   -119.03769    0.6607102   -118.37698     9185.286    4.2445719    4.2445719    4.2445719     9185.286    7874.2027   -16845.047    36526.702   -27363.038   -2672.1819    2317.7073    76.471865 
   32700    1083.3136   -119.36034    0.9802049   -118.38014   -4663.4202    4.2488748    4.2488748    4.2488748   -4663.4202   -969.44593   -20341.984    7321.1697    19411.667   -2547.5454     6061.251    76.704668 
   32800    780.30587    -119.0957   0.70603715   -118.38966    1865.4013    4.2445292    4.2445292    4.2445292    1865.4013    16255.489   -27415.386      16756.1   -5525.7958   -3197.2567    692.50468    76.469556 
   32900    539.61659   -118.88717   0.48825643   -118.39891   -11708.681    4.2512596    4.2512596    4.2512596   -11708.681   -6801.6965   -39399.184    11074.837   -46241.054   -2403.7264   -130.58383    76.833902 
   33000    1026.9533   -119.32308   0.92920889   -118.39387   -4345.7352    4.2478598    4.2478598    4.2478598   -4345.7352    10053.414   -21066.059   -2024.5605   -12603.938   -2200.1836    1385.2035    76.649713 
   33100    1217.7897   -119.49262    1.1018817   -118.39074   -1267.8895    4.2462179    4.2462179    4.2462179   -1267.8895    10143.591   -13540.135   -407.12435    11963.574   -1070.9586    3394.1693    76.560866 
   33200    550.34855   -118.89732   0.49796693   -118.39936    6831.7726    4.2451318    4.2451318    4.2451318    6831.7726    10941.839   -21205.089    30758.568   -33225.881    2408.0253    1365.1938    76.502134 
   33300    575.91677   -118.91913   0.52110159   -118.39803      1830.73    4.2504805    4.2504805    4.2504805      1830.73    30090.825   -38391.306    13792.672   -29828.731    3437.8627   -2367.0959    76.791663 
   33400    1129.2234   -119.40611     1.021745   -118.38436   -21977.187    4.2578464    4.2578464    4.2578464   -21977.187   -3518.5295   -37944.859   -24468.172    20769.412    3456.2603    1304.1776    77.191587 
   33500    902.70904    -119.1997   0.81679011   -118.38291    2196.9942    4.2435479    4.2435479    4.2435479    2196.9942   -14509.196     6189.154    14911.024    2548.1938    1447.1402    1162.1137    76.416532 
   33600    710.47677    -119.0311   0.64285432   -118.38824    2797.8815    4.2466886    4.2466886    4.2466886    2797.8815   -14318.506    -11100.04     33812.19   -31098.727    2150.4733    3970.6431     76.58633 
   33700    845.52707   -119.15024   0.76505066   -118.38519   -9354.8893     4.255778     4.255778     4.255778   -9354.8893    744.08883   -42787.533    13978.776    2769.6442   -455.33836    1459.3462    77.079145 
   33800    781.23987   -119.09237   0.70688225   -118.38549   -1644.7272     4.250458     4.250458     4.250458   -1644.7272    2304.2765   -7833.2945    594.83643    33038.596    -6016.025   -4877.3459    76.790444 
   33900    790.87045   -119.10086   0.71559621   -118.38526   -917.83673    4.2466038    4.2466038    4.2466038   -917.83673   -3461.3181    11244.821   -10537.013   -6307.4872   -3935.9542   -2141.5219    76.581742 
   34000    939.64804   -119.23634   0.85021329   -118.38613    5048.6373    4.2469934    4.2469934    4.2469934    5048.6373    12972.418    931.67809    1241.8156   -25454.769   -2765.0394    4440.1397    76.602819 
   34100     697.2421   -119.02092    0.6308793   -118.39005   -5165.7135    4.2546449    4.2546449    4.2546449   -5165.7135    944.62871   -30256.676    13814.907    18586.545    475.06452    8929.5348    77.017594 
   34200    610.31444   -118.94454   0.55222533   -118.39231    490.02769    4.2449373    4.2449373    4.2449373    490.02769    1954.1924   -8219.4396    7735.3303    30892.234    1693.9854   -1403.5492    76.491615 
   34300    957.60003   -119.25601   0.86645663   -118.38955   -2765.8362    4.2433492    4.2433492    4.2433492   -2765.8362      8085.81    6124.9842   -22508.303    -9000.718   -4812.0512   -7883.1785    76.405801 
   34400    830.73868   -119.14318   0.75166982   -118.39151   -10058.544    4.2523708    4.2523708    4.2523708   -10058.544    10842.609   -11403.533   -29614.708   -4483.8105   -5193.6639    2164.5073    76.894165 
   34500    473.56837    -118.8244   0.42849462   -118.39591    6384.1656    4.2458251    4.2458251    4.2458251    6384.1656    37349.691   -20745.842    2548.6479    35072.097   -1326.3029    10025.057    76.539621 
   34600    758.36499   -119.08141   0.68618458   -118.39522    4722.4419    4.2432745    4.2432745    4.2432745    4722.4419    27772.118   -16798.817     3194.024     21137.77   -4261.2602    2026.5981    76.401761 
   34700    1111.6121   -119.39718    1.0058099   -118.39137   -4573.6191    4.2469175    4.2469175    4.2469175   -4573.6191    7439.3472   -1788.3281   -19371.876   -14038.253   -10734.389   -7038.9506    76.598713 
   34800     698.0607   -119.02985   0.63161999   -118.39823   -5038.9995    4.2493659    4.2493659    4.2493659   -5038.9995    2625.9369    580.05936   -18322.995    6916.1047   -9827.6542    1298.1612    76.731268 
   34900    328.11362   -118.70113    0.2968841   -118.40425    4660.2195    4.2421441    4.2421441    4.2421441    4660.2195    9049.2277   -1825.8994    6757.3301    36930.799    3164.0154    11713.136    76.340721 
   35000    808.71772   -119.13299   0.73174479   -118.40125    5987.6069    4.2429516    4.2429516    4.2429516    5987.6069    17623.266   -7009.2688     7348.824    10760.983    9196.1937    6043.5578    76.384323 
   35100    1161.1646   -119.44187    1.0506461   -118.39122   -4574.6942    4.2568936    4.2568936    4.2568936   -4574.6942    13237.669   -14015.311   -12946.441    -16306.34   -8928.7139   -1256.1923    77.139776 
   35200    641.06574   -118.97202   0.58004976   -118.39197    9815.2406    4.2500333    4.2500333    4.2500333    9815.2406    27093.104   -2417.8315    4770.4496    17531.981   -16553.697   -2244.7895    76.767427 
   35300    400.04298   -118.75401   0.36196729   -118.39205    3944.0214    4.2475806    4.2475806    4.2475806    3944.0214    15997.651   -10758.762    6593.1755    31358.136    1621.0684    2947.9353    76.634599 
   35400    1031.8521   -119.31807   0.93364143   -118.38443   -14934.612    4.2522315    4.2522315    4.2522315   -14934.612   -16945.228    -15385.73   -12472.878   -7813.4877    11455.385    5663.9941    76.886607 
   35500    1055.1427   -119.33767   0.95471532   -118.38296   -10998.035    4.2520156    4.2520156    4.2520156   -10998.035   -37902.632    1994.5545    2913.9728   -8387.7203    3003.5845    507.84355    76.874897 
   35600    482.77358   -118.82669   0.43682368   -118.38986    4602.3115    4.2495355    4.2495355    4.2495355    4602.3115   -25683.833    7036.2318    32454.536    30319.153   -8800.2903    5283.0855    76.740459 
   35700    635.96261   -118.96657   0.57543233   -118.39114     7801.604    4.2483325    4.2483325    4.2483325     7801.604   -8244.1983    9009.7088    22639.302    18937.837   -2516.8762    6661.0246    76.675304 
   35800    1187.7298   -119.45921    1.0746829   -118.38453   -7895.9366     4.251113     4.251113     4.251113   -7895.9366   -28522.021    7509.9983    -2675.787   -10165.647    5888.2573    1375.4326    76.825949 
   35900    839.25956   -119.14981   0.75937968   -118.39043   -2379.3646    4.2453714    4.2453714    4.2453714   -2379.3646   -27153.953    14570.885    5444.9739    14035.808   -928.82903   -197.30552    76.515087 
   36000    542.61058   -118.88772   0.49096546   -118.39675   -1656.6741    4.2451106    4.2451106    4.2451106   -1656.6741   -27107.656    17047.328    5090.3052     29748.02   -8895.9691    1581.8022    76.500984 
   36100    807.19683   -119.12557   0.73036865   -118.39521   -4635.6587    4.2486241    4.2486241    4.2486241   -4635.6587   -21533.991    12911.576   -5284.5606   -3903.4841   -3549.8082     3987.069    76.691094 
   36200    854.22217   -119.16908   0.77291817   -118.39617    1441.6446    4.2434316    4.2434316    4.2434316    1441.6446   -3985.4398    7166.7481    1143.6254   -20169.771    3177.5171   -64.712002    76.410248 
   36300    850.55089    -119.1676   0.76959632     -118.398    1316.1493    4.2420247    4.2420247    4.2420247    1316.1493   -8855.3343     16255.53    -3451.748    5147.5799   -6329.2901   -8183.3926    76.334273 
   36400    1039.8508    -119.3366   0.94087884   -118.39572   -4225.4726    4.2466467    4.2466467    4.2466467   -4225.4726   -17626.958    18895.839   -13945.299     15586.92    -11407.02   -637.49208    76.584064 
   36500    891.10781   -119.20413   0.80629308   -118.39784   -3449.3702    4.2454866    4.2454866    4.2454866   -3449.3702   -4842.8836    5016.7277   -10521.955   -9830.6051    2309.5913    10229.265    76.521316 
   36600    547.10256   -118.89712    0.4950299   -118.40209   -2436.4631    4.2440809    4.2440809    4.2440809   -2436.4631    6852.7884   -3576.6027   -10585.575   -21017.908    3070.5315   -783.10537    76.445332 
   36700    626.10486   -118.96946   0.56651284   -118.40295    1434.9308    4.2441804    4.2441804    4.2441804    1434.9308    13305.573     20612.89   -29613.671   -1953.9424   -9275.8242   -11469.674    76.450707 
   36800    1062.7691   -119.35699   0.96161583   -118.39537   -6569.9522    4.2497339    4.2497339    4.2497339   -6569.9522    1771.0913    3308.7001   -24789.648    7434.3663   -10787.102   -6136.5521    76.751207 
   36900    948.58105   -119.25198   0.85829607   -118.39369    736.56383    4.2480408    4.2480408    4.2480408    736.56383   -3360.7129   -4605.2292    10175.634   -3782.7407    5711.5851    6239.4298    76.659512 
   37000    589.36424   -118.93003   0.53326915   -118.39676     2070.235    4.2453583    4.2453583    4.2453583     2070.235    3099.2643   -1032.4423    4143.8828   -13159.136    12630.655   -5810.9945     76.51438 
   37100    780.59331   -119.09983   0.70629723   -118.39353   -3111.1777    4.2511082    4.2511082    4.2511082   -3111.1777    3361.5295    4887.0124   -17582.075   -4700.6412   -3138.6678   -19886.824    76.825691 
   37200    1019.2174   -119.30673   0.92220932   -118.38452   -12311.843      4.25768      4.25768      4.25768   -12311.843   -12711.423    734.70696   -24958.814    16277.236   -3075.5355   -1668.6898     77.18254 
   37300    690.40711   -119.01147   0.62469486   -118.38678    8307.5794    4.2453189    4.2453189    4.2453189    8307.5794    7038.6581    8265.5784    9618.5018    5282.6597    8539.8829    11936.671    76.512245 
   37400    598.25789   -118.93077   0.54131632   -118.38945    4954.1699    4.2487571    4.2487571    4.2487571    4954.1699    5570.0497     3818.098    5474.3619   -12972.384    10862.956   -3750.0108    76.698297 
   37500    1010.2848   -119.29872   0.91412696   -118.38459   -7581.6589    4.2539895    4.2539895    4.2539895   -7581.6589   -2117.7416    -14645.39   -5981.8448    330.80507   -827.06904   -12087.725    76.982011 
   37600    977.26306   -119.27174   0.88424816   -118.38749    4496.1404    4.2437476    4.2437476    4.2437476    4496.1404    13624.549   -18021.835    17885.707     14584.11   -8255.8339   -1205.0277    76.427319 
   37700    485.88622   -118.83777   0.43964007   -118.39813    5357.4466    4.2452099    4.2452099    4.2452099    5357.4466    3893.8243   -10259.892    22438.408   -1407.0604    8921.8235    6959.3737    76.506353 
   37800    549.61217   -118.89696   0.49730064   -118.39966    340.93854    4.2471111    4.2471111    4.2471111    340.93854    7542.5481    5175.7616   -11695.494   -17843.382    14353.185    3814.6311    76.609187 
   37900    1042.5697    -119.3381   0.94333898   -118.39476   -6275.1283     4.247221     4.247221     4.247221   -6275.1283    9821.2199     -3713.42   -24933.185   -637.54948   -9400.5074   -652.98963    76.615136 
   38000     1119.461    -119.4059    1.0129118   -118.39298   -7845.4059    4.2463482    4.2463482    4.2463482   -7845.4059    749.12901   -17948.119   -6337.2278    14279.839   -15710.341   -1481.3198    76.567914 
   38100    797.72443   -119.11823   0.72179783   -118.39643   -3594.8033     4.245709     4.245709     4.245709   -3594.8033    4597.9495   -18141.386    2759.0261   -7822.9513     11578.78    3099.7601     76.53334 
   38200      485.149   -118.83651   0.43897301   -118.39754   -5246.2934    4.2512184    4.2512184    4.2512184   -5246.2934    2240.9183   -11840.255   -6139.5437   -17948.202    11156.845    3989.7967    76.831666 
   38300    683.66046   -119.01415   0.61859036   -118.39556    1618.0726    4.2458878    4.2458878    4.2458878    1618.0726    18011.518    2667.7442   -15825.045    1823.6103   -25130.397    299.92978    76.543013 
   38400    992.72855   -119.29031   0.89824165   -118.39207    2239.0624    4.2460728    4.2460728    4.2460728    2239.0624    2313.1614   -6890.4269    11294.453    3011.9541   -26851.301   -4352.2246    76.553014 
   38500    854.19929    -119.1639   0.77289747     -118.391    3864.9748    4.2502531    4.2502531    4.2502531    3864.9748   -12901.632   -11961.096    36457.652   -10740.463    8810.8723    7151.1435     76.77934 
   38600    488.64234   -118.83645   0.44213386   -118.39432    8796.9444    4.2508577    4.2508577    4.2508577    8796.9444    6356.9896    3604.2382    16429.605   -8023.6953    9470.0963    12952.267     76.81211 
   38700    800.66463   -119.11373   0.72445818   -118.38927    1048.5126    4.2520057    4.2520057    4.2520057    1048.5126    10644.039   -3833.5219   -3664.9796    2087.1628   -17184.343    -2226.172    76.874358 
   38800    1170.2845   -119.43789     1.058898   -118.37899   -13024.324    4.2555827    4.2555827    4.2555827   -13024.324   -20762.395   -16648.706   -1661.8722   -2418.1799   -11749.024   -6825.9274    77.068537 
   38900    706.72242   -119.01953    0.6394573   -118.38007   -6000.6768    4.2551959    4.2551959    4.2551959   -6000.6768    -21596.61    13217.931   -9623.3517   -17547.787    17781.687    6873.3283     77.04752 
   39000    516.78451   -118.84898   0.46759749   -118.38138    12048.555    4.2515989    4.2515989    4.2515989    12048.555   -1286.6967    48343.524   -10911.163   -4433.0788     5504.686    9154.8414    76.852299 
   39100    1006.7562   -119.28691   0.91093417   -118.37598   -4682.6538    4.2580223    4.2580223    4.2580223   -4682.6538    -3508.878    14376.676    -24915.76    9827.8746   -23262.411    1379.5415    77.201157 
   39200    939.67891   -119.22646   0.85024122   -118.37622    1989.1708    4.2493986    4.2493986    4.2493986    1989.1708    9644.0831    3737.2992   -7413.8698   -4523.6004   -135.99081    1372.9739    76.733044 
   39300    517.38232   -118.85281    0.4681384   -118.38467   -1214.3715    4.2480944    4.2480944    4.2480944   -1214.3715     6763.902   -2272.9876    -8134.029   -13417.478    20932.711    8127.6071    76.662409 
   39400    728.42459   -119.04852   0.65909388   -118.38942   -7524.2415    4.2495437    4.2495437    4.2495437   -7524.2415    5191.0417    -4538.029   -23225.737   -8432.8199   -498.32967    442.64071    76.740901 
   39500     1221.073   -119.49326    1.1048525   -118.38841   -187.40791    4.2408235    4.2408235    4.2408235   -187.40791    7803.9596   -2667.6533     -5698.53    5769.8165    -16767.05   -8064.6864    76.269445 
   39600    824.76139   -119.14564   0.74626144   -118.39938   -2167.3105    4.2440291    4.2440291    4.2440291   -2167.3105   -13650.361   -12386.587    19535.017    5733.4894   -2994.7388    5673.8697    76.442533 
   39700    421.68898   -118.78587   0.38155305   -118.40432    -1276.327    4.2483427    4.2483427    4.2483427    -1276.327   -12724.735    2916.9319    5978.8218   -9656.8726    19165.175    10337.704    76.675855 
   39800    766.06184   -119.09253   0.69314885   -118.39938     2215.749    4.2472723    4.2472723    4.2472723     2215.749   -851.64339    15461.261   -7962.3706   -6652.8609    15012.193    1177.6862    76.617914 
   39900    1110.7148   -119.39564     1.004998   -118.39064    2431.6603    4.2492586    4.2492586    4.2492586    2431.6603   -10598.053    16738.706    1154.3277    11165.905   -7549.1057   -3741.8249    76.725456 
   40000    613.61891   -118.94885   0.55521528   -118.39363    9078.0999    4.2514018    4.2514018    4.2514018    9078.0999   -17690.616    43043.412     1881.504    12961.092   -554.44236    3306.0822     76.84161 
   40100    367.23897   -118.72709   0.33228554   -118.39481    6585.8974     4.251149     4.251149     4.251149    6585.8974   -26797.092    44023.001    2531.7829    -6679.945    15544.464     13042.27    76.827904 
   40200    954.34623   -119.24801   0.86351253    -118.3845    3145.8641     4.247334     4.247334     4.247334    3145.8641   -19994.432    20802.009    8630.0158    -8621.627   -2098.0407    1815.0171    76.621249 
   40300    963.30471   -119.25454   0.87161835   -118.38292   -5843.0092    4.2523635    4.2523635    4.2523635   -5843.0092    3392.5105   -7056.3192   -13865.219    2861.0306   -11839.168   -10198.124    76.893766 
   40400    668.77423   -118.99226   0.60512098   -118.38714   -2791.3353    4.2502806    4.2502806    4.2502806   -2791.3353   -2464.8367   -10943.736    5034.5666     2534.917    14927.701    392.41386     76.78083 
   40500    832.96134   -119.13937   0.75368092   -118.38569   -5596.1762    4.2468307    4.2468307    4.2468307   -5596.1762   -29638.381   -6671.0634    19520.916   -4343.1701    12970.861     3210.055    76.594016 
   40600     869.5333   -119.17555   0.78677201   -118.38877   -8618.6576    4.2498731    4.2498731    4.2498731   -8618.6576   -20838.368    495.05802   -5512.6631   -6010.8825   -27877.586     2835.635    76.758747 
   40700    849.23239   -119.16069   0.76840331   -118.39229    2975.6914    4.2452154    4.2452154    4.2452154    2975.6914     134.9226     8898.862   -106.71043    262.78242   -20798.242   -3448.9367     76.50665 
   40800    994.25858   -119.29122   0.89962605   -118.39159   -4408.3567    4.2468622    4.2468622    4.2468622   -4408.3567   -17652.439    4802.3133   -374.94434    3609.1221    17296.583   -5516.3521    76.595721 
   40900    591.16696   -118.93287   0.53490029   -118.39797    4984.2934    4.2450947    4.2450947    4.2450947    4984.2934   -33244.064    33966.673    14230.271    3420.1122   -11315.412    2186.2394    76.500126 
   41000    392.19462   -118.75833   0.35486594   -118.40347    3304.7417    4.2491678    4.2491678    4.2491678    3304.7417   -46034.827     36111.34    19837.712   -4619.6228   -39641.828    1154.5387    76.720539 
   41100    1004.6065   -119.30573   0.90898912   -118.39674   -8944.9006    4.2490592    4.2490592    4.2490592   -8944.9006   -37658.942    4006.6621    6817.5786   -4626.1324    754.76039    943.01489    76.714655 
   41200    1075.8518   -119.36242   0.97345336   -118.38897   -5194.7716    4.2437753    4.2437753    4.2437753   -5194.7716   -28019.828    4173.7472    8261.7659    988.42899    3693.2591    -419.2918    76.428817 
   41300    774.69845    -119.0952   0.70096344   -118.39423   -6826.2491     4.247547     4.247547     4.247547   -6826.2491    -30018.95    14942.243   -5402.0404    4621.4658   -36587.016    -97.40887    76.632779 
   41400    882.90957   -119.19339   0.79887513   -118.39451   -4098.1494     4.243885     4.243885     4.243885   -4098.1494   -26441.732    16831.879   -2684.5955   -4178.9131   -12823.816    34.047859    76.434745 
   41500    780.52232   -119.10334     0.706233   -118.39711   -1651.6699    4.2435785    4.2435785    4.2435785   -1651.6699   -33374.946    16186.094    12233.842   -2630.9294    23343.449    1757.4328    76.418184 
   41600    613.60909   -118.95288    0.5552064   -118.39767   -2876.7798    4.2502369    4.2502369    4.2502369   -2876.7798   -36244.205    20480.646    7133.2192    3740.4092   -2890.7897   -649.78662    76.778464 
   41700    841.82339   -119.15203    0.7616995   -118.39033    1006.8984    4.2516992    4.2516992    4.2516992    1006.8984   -26622.684    32413.785   -2770.4055    5277.4131   -18404.941   -7264.3978    76.857739 
   41800    866.08053   -119.17124   0.78364787   -118.38759    5362.5969    4.2509517    4.2509517    4.2509517    5362.5969   -25051.785    46256.929    -5117.353   -6264.5754    18804.263    30.995904    76.817205 
   41900    695.11066   -119.01711   0.62895073   -118.38816    7005.8401    4.2468354    4.2468354    4.2468354    7005.8401   -18671.317    38714.271    974.56577   -3733.6138    23163.542    1751.8387    76.594273 
   42000    751.66072   -119.06732   0.68011841    -118.3872    809.85509    4.2466583    4.2466583    4.2466583    809.85509   -30188.441    14690.023    17927.984    11536.594   -10900.215    2148.9214    76.584689 
   42100    769.56453   -119.08776   0.69631816   -118.39145   -4487.8726    4.2453604    4.2453604    4.2453604   -4487.8726   -39187.071    13208.852    12514.601    10272.343    4161.4893    1493.3789     76.51449 
   42200    708.20219   -119.03969   0.64079623   -118.39889    7753.5209    4.2417622    4.2417622    4.2417622    7753.5209   -11722.491    35409.283   -426.22902   -2916.3449    32562.025    1670.9283    76.320104 
   42300    969.65348    -119.2745   0.87736285   -118.39713   -6492.8728    4.2501838    4.2501838    4.2501838   -6492.8728   -24680.757    6399.0994   -1196.9606    552.54496    4336.2319    1760.6382    76.775585 
   42400    1029.4282   -119.32093   0.93144824   -118.38948   -12844.644      4.25169      4.25169      4.25169   -12844.644   -30367.399    -9787.603    1621.0698    13320.041   -9479.8004   -2799.1757    76.857239 
   42500     589.6269    -118.9279   0.53350681   -118.39439     3715.231    4.2454282    4.2454282    4.2454282     3715.231   -18763.452    21027.942    8881.2029    8669.6467    31475.066    141.55115    76.518156 
   42600    727.46381   -119.05232   0.65822454   -118.39409   -3215.2605    4.2531884    4.2531884    4.2531884   -3215.2605   -34472.339    20322.542    4504.0164   -5151.1886    19914.969    609.64066    76.938527 
   42700    1002.4858   -119.29283   0.90707024   -118.38576   -1407.5003    4.2511274    4.2511274    4.2511274   -1407.5003   -19257.314    17984.875   -2950.0613   -6239.2956   -20207.883   -627.86054    76.826731 
   42800    756.88684   -119.07118   0.68484712   -118.38633    10075.623    4.2443379    4.2443379    4.2443379    10075.623    -1600.811    31849.985    -22.30586    7672.9183    2194.9283   -7261.3856     76.45922 
   42900    789.80584   -119.10453   0.71463292   -118.38989   -4356.3622    4.2523812    4.2523812    4.2523812   -4356.3622   -28368.813     17433.14   -2133.4138    4968.7566    30690.397   -1013.8896    76.894731 
   43000    795.21512   -119.10931   0.71952736   -118.38978   -3671.4713    4.2492439    4.2492439    4.2492439   -3671.4713   -15505.245    949.69303    3541.1382    -6547.666    91.709893    1130.8663    76.724663 
   43100    567.22307   -118.90665   0.51323536   -118.39342    1087.5038    4.2452726    4.2452726    4.2452726    1087.5038    1805.4616   -2445.7677    3902.8176     -9045.71    -30228.87   -4436.4369    76.509743 
   43200    830.98915   -119.14618   0.75189645   -118.39429   -7379.1965    4.2476679    4.2476679    4.2476679   -7379.1965   -9196.4828   -16043.397    3102.2908   -3.2041676   -8505.2465   -180.38016    76.639325 
   43300    1295.6691   -119.56424    1.1723486   -118.39189    1357.7724    4.2419417    4.2419417    4.2419417    1357.7724     -10224.5    1108.1246    13189.693    1933.9565    14694.589    4032.2106    76.329792 
   43400    876.33981   -119.19624   0.79293068   -118.40331   -3137.1834     4.246561     4.246561     4.246561   -3137.1834   -17644.407    3556.2821    4676.5749   -5046.3102   -9973.1389   -3403.6369    76.579425 
   43500     302.9719   -118.68116   0.27413534   -118.40703   -882.61853    4.2445971    4.2445971    4.2445971   -882.61853   -4129.9025   -4517.8697    5999.9166   -4759.7889    -31180.93   -10969.181    76.473229 
   43600    656.46619   -118.99685    0.5939844   -118.40287    1986.0257    4.2415937    4.2415937    4.2415937    1986.0257    1693.1524    -8849.882    13114.807    579.57067   -6319.6112   -2699.9815    76.311008 
   43700    1083.4911   -119.37518   0.98036555   -118.39482   -11221.593    4.2533073    4.2533073    4.2533073   -11221.593   -21126.443   -16300.182    3761.8454    3864.1711    16944.563    7671.5855     76.94498 
   43800    758.47676   -119.08031   0.68628571   -118.39403    5351.2073    4.2472552    4.2472552    4.2472552    5351.2073   -10782.018    10344.645    16490.995   -6199.3762   -4888.0288   -2200.4087    76.616985 
   43900     630.3329   -118.96251   0.57033846   -118.39217    6975.9416      4.24451      4.24451      4.24451    6975.9416   -8467.4336    8694.4453    20700.813   -6910.3618   -19654.667   -17223.392    76.468521 
   44000    893.00221   -119.19584   0.80800717   -118.38783   -8040.1551    4.2517476    4.2517476    4.2517476   -8040.1551   -16135.034    -12609.16    4623.7286    4132.6312    3553.6081   -12003.601    76.860363 
   44100    964.72061   -119.26137   0.87289948   -118.38847   -7558.2899    4.2477825    4.2477825    4.2477825   -7558.2899   -12268.692   -347.69459   -10058.483   -4172.1371    18553.489    13073.135    76.645528 
   44200    742.79305   -119.06443   0.67209476   -118.39234    3499.4506    4.2425369    4.2425369    4.2425369    3499.4506    4254.7724    17091.233   -10847.654   -12766.396    2630.7277    11862.316    76.361925 
   44300    630.39021   -118.96523   0.57039031   -118.39484     -1747.28    4.2492232    4.2492232    4.2492232     -1747.28    2916.3056    6184.2135   -14342.359   -3475.3186   -8741.9781   -19283.109    76.723542 
   44400    839.39082   -119.15194   0.75949845   -118.39244   -1791.7913    4.2484537    4.2484537    4.2484537   -1791.7913    -6864.685    7725.7081   -6236.3969     2212.782    1815.6745   -23201.335    76.681868 
   44500    1129.9064   -119.41232    1.0223631   -118.38996   -3986.4824     4.245468     4.245468     4.245468   -3986.4824   -13109.386    15371.636   -14221.697   -1217.4596    13637.798    4096.6395     76.52031 
   44600     782.1175   -119.10358   0.70767635   -118.39591   -2074.8967    4.2455548    4.2455548    4.2455548   -2074.8967    8221.6895      11297.2   -25743.579    -10313.38    5204.9847    2169.5639    76.525004 
   44700    294.45619   -118.66743   0.26643015     -118.401    4676.9935    4.2470432    4.2470432    4.2470432    4676.9935    35017.821    7125.8718   -28112.712   -6408.8865   -7909.3258   -21301.583    76.605513 
   44800    749.72455   -119.07496   0.67836653   -118.39659   -944.64329    4.2504872    4.2504872    4.2504872   -944.64329    24418.514     7397.346    -34649.79     8905.588   -3370.0152   -8182.4577    76.792027 
   44900    1317.8789    -119.5802    1.1924446   -118.38776    1516.4514    4.2443227    4.2443227    4.2443227    1516.4514     4150.246    20513.828    -20114.72    3349.6942    3136.5405    12013.569    76.458395 
   45000     832.0776   -119.14846    0.7528813   -118.39557    1534.8753    4.2480603    4.2480603    4.2480603    1534.8753    2839.0827    16726.743     -14961.2   -9312.4177   -2579.5627   -12655.003    76.660563 
   45100     342.0421   -118.70721   0.30948688   -118.39773   -2447.9389    4.2500932    4.2500932    4.2500932   -2447.9389    7824.8793    19929.744    -35098.44   -10519.771   -6028.7722   -23972.311    76.770677 
   45200    673.71445   -119.00448   0.60959099   -118.39489    9960.1061    4.2388638    4.2388638    4.2388638    9960.1061    29958.788    26282.997   -26361.466    2021.7122    3100.6094    11308.634    76.163762 
   45300    1104.0324    -119.3933   0.99895175   -118.39435    -3140.954    4.2462362    4.2462362    4.2462362    -3140.954    7124.2347   -3263.7483   -13283.349    5537.5037    5635.6176    25679.947    76.561853 
   45400    900.01387    -119.2105   0.81435146   -118.39615   -4244.6509    4.2479741    4.2479741    4.2479741   -4244.6509    -1995.826   -7743.2186   -2994.9082   -4478.3711   -4623.7882   -10982.523    76.655901 
   45500     583.4612   -118.92713   0.52792795    -118.3992   -179.61051    4.2426938    4.2426938    4.2426938   -179.61051     16510.74   -2440.9978   -14608.574   -5233.0873   -6739.8649   -26728.554    76.370399 
   45600    694.05169     -119.028   0.62799256   -118.40001   -4403.6205    4.2440993    4.2440993    4.2440993   -4403.6205    20926.718    2914.0167   -37051.596    2720.5142    23.782237    3361.1865    76.446326 
   45700    1011.2772     -119.313   0.91502484   -118.39798    -3155.573    4.2443639    4.2443639    4.2443639    -3155.573    5039.7155      8058.26   -22564.695    8422.5771    6468.6103    22502.226    76.460624 
   45800    795.88333   -119.11933   0.72013196    -118.3992   -49.251179    4.2469842    4.2469842    4.2469842   -49.251179   -3982.8724   -8278.2427    12113.361    4878.1293    4090.9914   -4849.5774    76.602324 
   45900    610.95243     -118.951    0.5528026   -118.39819    1430.7536    4.2490649    4.2490649    4.2490649    1430.7536   -1233.7449   -3334.7992     8860.805   -5579.3257   -3144.0767   -33658.984    76.714963 
   46000    848.37552   -119.15942     0.767628    -118.3918   -3424.5195    4.2519823    4.2519823    4.2519823   -3424.5195   -3737.2487    1095.1103     -7631.42   -1178.6915    142.01309   -14403.643    76.873093 
   46100    1106.5538   -119.38665    1.0012332   -118.38541   -11105.733    4.2532544    4.2532544    4.2532544   -11105.733   -16089.657   -11144.804   -6082.7379    5485.9472    7145.7585    17082.921    76.942108 
   46200    694.43865   -119.01827   0.62834268   -118.38993    280.79624    4.2442763    4.2442763    4.2442763    280.79624    6423.5413   -16141.581    10560.428    687.28139    528.97913   -2232.4236    76.455891 
   46300    405.50198   -118.76461   0.36690671    -118.3977    1388.9498    4.2456476    4.2456476    4.2456476    1388.9498    18377.402   -25060.813    10850.261    -590.6737   -934.66061   -35928.035    76.530023 
   46400    948.88024   -119.25326   0.85856678   -118.39469   -7142.0285    4.2508521    4.2508521    4.2508521   -7142.0285   -3031.8162   -6786.3356   -11607.934   -670.18578   -992.44128   -17815.937    76.811808 
   46500    1288.0477   -119.55585    1.1654526   -118.39039    4798.5659    4.2433934    4.2433934    4.2433934    4798.5659   -5315.3318    18648.062    1062.9671    2575.8957    1965.4485    11088.441    76.408184 
   46600    631.90326   -118.97433   0.57175935   -118.40257     236.6817    4.2490925    4.2490925    4.2490925     236.6817    7819.4857   -12113.998    5004.5577    4457.2753    591.71362   -20676.082    76.716462 
   46700    278.31503   -118.65653   0.25182528    -118.4047    1662.3369    4.2481484    4.2481484    4.2481484    1662.3369    22570.587    -26477.83    8894.2537   -2996.7025   -5738.0649   -38008.675    76.665336 
   46800    887.14235   -119.20124   0.80270504   -118.39854    1361.8244    4.2429642    4.2429642    4.2429642    1361.8244    12077.124   -9580.2329    1588.5821   -5684.9931   -1241.1437    4348.0933    76.385001 
   46900    1219.2773   -119.49388    1.1032277   -118.39066   -10741.947    4.2522937    4.2522937    4.2522937   -10741.947   -7692.0943   -302.87096   -24230.877   -3848.0177    4202.9654    11377.703    76.889981 
   47000     849.0491   -119.16098   0.76823747   -118.39275   -3415.4278    4.2516387    4.2516387    4.2516387   -3415.4278    17211.309    -16074.53   -11383.063    1495.3413   -1456.2481   -29454.916    76.854454 
   47100    593.63416   -118.92867   0.53713266   -118.39154   -2570.9088    4.2485083    4.2485083    4.2485083   -2570.9088    22689.956   -31382.324    979.64126    1693.1805   -6892.4989   -25575.977    76.684822 
   47200    797.97685   -119.11081   0.72202622   -118.38878   -4890.6745    4.2462383    4.2462383    4.2462383   -4890.6745    1323.7625   -8684.7243   -7311.0616   -4016.7194   -1130.9116    17461.047    76.561969 
   47300    899.70037   -119.20491    0.8140678   -118.39084   -2185.6203      4.24337      4.24337      4.24337   -2185.6203    8667.1487     6403.636   -21627.646   -1867.6913    2485.6819    7244.5375    76.406921 
   47400    773.82958   -119.09566   0.70017727   -118.39548   -1160.5943    4.2474221    4.2474221    4.2474221   -1160.5943    17420.875    2115.5351   -23018.193    616.67884   -1229.0462   -32278.263     76.62602 
   47500    843.56913   -119.15747   0.76327907    -118.3942     3188.237     4.247296     4.247296     4.247296     3188.237    10269.357    5455.0462   -6159.6922   -5548.4522   -3113.8874   -17194.052    76.619193 
   47600    856.39043   -119.16937   0.77488006   -118.39449    2575.3383    4.2460962    4.2460962    4.2460962    2575.3383    13071.604    921.85527   -6267.4447   -7292.5013    211.62652    14605.124    76.554279 
   47700    630.46565    -118.9695   0.57045857   -118.39904    1321.5769    4.2448009    4.2448009    4.2448009    1321.5769    22837.661    3897.2461   -22770.176   -612.88448    5402.3422   -1800.8948    76.484246 
   47800    623.40926    -118.9652    0.5640738   -118.40112    2898.1047    4.2408055    4.2408055    4.2408055    2898.1047    25800.898    7721.6417   -24828.225    2489.0084    2089.6157   -24314.918    76.268473 
   47900     859.3757   -119.17666    0.7775812   -118.39908    474.93532     4.245643     4.245643     4.245643    474.93532    13954.059    13940.305   -26469.558   -2489.7728   -5645.9767   -9671.7864    76.529771 
   48000     852.2304   -119.16738   0.77111598   -118.39626   -1720.1214    4.2518914    4.2518914    4.2518914   -1720.1214    1692.4325    13275.243   -20128.039   -4204.5744   -3322.9677    8447.9698    76.868158 
   48100    700.60352   -119.02809   0.63392079   -118.39417    1506.9079     4.247885     4.247885     4.247885    1506.9079    21436.901   -225.57358   -16690.603    2718.2149     990.3526   -13166.902    76.651074 
   48200    746.53964    -119.0682   0.67548476   -118.39272    3745.7438    4.2440635    4.2440635    4.2440635    3745.7438    32413.924    1206.5511   -22383.243    3574.9697   -3799.5561   -23469.679     76.44439 
   48300    1037.4966   -119.32876   0.93874869   -118.39001   -3772.8884    4.2447794    4.2447794    4.2447794   -3772.8884    9574.7275   -1378.7561   -19514.637    -1293.831   -7710.2841    935.88897    76.483082 
   48400    822.51837   -119.14033    0.7442319   -118.39609   -323.69563    4.2448258    4.2448258    4.2448258   -323.69563    9103.6156   -9328.1766   -746.52594   -5445.9685   -5577.6528    6718.7869    76.485587 
   48500    453.11831   -118.81241   0.40999097   -118.40242    485.11867    4.2463656    4.2463656    4.2463656    485.11867    27381.376   -29078.091    3152.0711    231.44011   -806.81523   -22686.493    76.568854 
   48600    817.72304   -119.13848   0.73989299   -118.39858   -7464.3032    4.2513807    4.2513807    4.2513807   -7464.3032    21289.484   -30661.597   -13020.797     2724.679   -912.65228    -24590.49    76.840465 
   48700    1261.2591   -119.52937    1.1412137   -118.38816   -7298.5352    4.2490781    4.2490781    4.2490781   -7298.5352    7608.8003    -9705.345   -19799.061   -3536.5781   -4127.6483    6944.4965     76.71568 
   48800    809.67113   -119.12676   0.73260745   -118.39415   -446.20976     4.245498     4.245498     4.245498   -446.20976    18286.568    -5821.987    -13803.21   -6861.3695   -1153.8868   -1721.3259    76.521932 
   48900    407.95251   -118.76763     0.369124    -118.3985   -2263.7788    4.2517603    4.2517603    4.2517603   -2263.7788    20431.347   -17489.057   -9733.6256    828.17694    3510.9636   -30023.868     76.86105 
   49000    867.06129   -119.17564   0.78453528   -118.39111   -1083.1795    4.2507165    4.2507165    4.2507165   -1083.1795    3795.7399   -4727.6856   -2317.5927    4272.2094     1132.472   -8258.7106    76.804456 
   49100    1034.3556   -119.32048   0.93590665   -118.38457   -879.61496    4.2505047    4.2505047    4.2505047   -879.61496   -6279.8688   -1305.6315    4946.6555   -2202.7809   -383.34374    22256.903    76.792979 
   49200    554.99858   -118.89153   0.50217438   -118.38935    5832.4116    4.2555961    4.2555961    4.2555961    5832.4116     4582.399   -16819.895    29734.731    1321.1942    -3419.098     2497.399    77.069264 
   49300      671.391   -118.99384   0.60748868   -118.38635    5501.0222    4.2499315    4.2499315    4.2499315    5501.0222    3275.5959   -27241.249    40468.719    5949.7676   -301.54598   -19814.824    76.761915 
   49400    891.42451   -119.19056   0.80657963   -118.38398     355.7139    4.2447518    4.2447518    4.2447518     355.7139    6617.9755   -22771.237    17220.403   -33.192957    4921.1882    8085.2824    76.481592 
   49500    780.74604   -119.09547   0.70643543   -118.38904   -2135.8089    4.2451983    4.2451983    4.2451983   -2135.8089    18163.221   -8272.7859   -16297.862   -4900.4337    1127.1195    28541.212    76.505728 
   49600     856.0594   -119.16758   0.77458054     -118.393   -5147.7762    4.2471015    4.2471015    4.2471015   -5147.7762    5331.0204   -8709.9347   -12064.414    2594.8532   -6869.0248   -284.43783    76.608671 
   49700    857.89769   -119.17055   0.77624386    -118.3943   -4337.3081    4.2470317    4.2470317    4.2470317   -4337.3081    4021.4721   -13735.411   -3297.9855    5455.7487   -2970.6812   -15615.127    76.604895 
   49800    620.85628    -118.9586   0.56176381   -118.39684   -595.49111     4.246977     4.246977     4.246977   -595.49111    17641.336    70.425563   -19498.235   -985.35909    14830.168    15874.387    76.601935 
   49900    773.48303   -119.09657    0.6998637   -118.39671   -3130.5443    4.2474415    4.2474415    4.2474415   -3130.5443    10240.826    2060.4172   -21692.876   -79.269421    13503.958    26719.117    76.627071 
   50000    1202.7565   -119.47989    1.0882793   -118.39161   -2590.1355    4.2435194    4.2435194    4.2435194   -2590.1355    4403.3976   -4265.0113   -7908.7928    1388.4892   -8390.3863   -4299.2508    76.414994 
   50100    959.45369   -119.26623   0.86813386    -118.3981   -4448.9608    4.2429838    4.2429838    4.2429838   -4448.9608    7473.2774   -14497.195   -6322.9644    1817.5541   -2889.7884   -9677.8685    76.386062 
   50200    399.17133    -118.7687   0.36117861   -118.40752   -465.60796    4.2444556    4.2444556    4.2444556   -465.60796    18933.829   -8843.5478   -11487.105    2373.8559    17621.834    18756.257    76.465579 
   50300    588.78628   -118.93848    0.5327462   -118.40573   -3768.4674    4.2476549    4.2476549    4.2476549   -3768.4674    10945.957   -7563.5702   -14687.789   -6290.4876    12732.983    20195.118     76.63862 
   50400    1194.6783   -119.47458      1.08097   -118.39361   -8630.7163    4.2489015    4.2489015    4.2489015   -8630.7163   -10621.265   -23968.676     8697.792   -3572.3273   -6026.4811   -6540.4613    76.706116 
   50500    964.86553   -119.26704   0.87303061   -118.39401   -899.53514    4.2489424    4.2489424    4.2489424   -899.53514   -473.69074   -22812.202    20587.287    4322.0798    919.59717      1551.21    76.708333 
   50600    348.94558   -118.71572    0.3157333   -118.39999    8608.1655    4.2497367    4.2497367    4.2497367    8608.1655    23530.175    -8540.107    10834.428   -2425.2225    17590.522    31800.415    76.751357 
   50700    687.33966   -119.01451   0.62191937   -118.39259   -198.42798    4.2522009    4.2522009    4.2522009   -198.42798     1115.875   -17731.071    16019.912    2387.7946    8562.8515    13222.196    76.884949 
   50800    1182.8276   -119.44811    1.0702472   -118.37787   -8736.2492    4.2534162    4.2534162    4.2534162   -8736.2492    -19669.93   -9272.1581     2733.341    5231.8802   -6530.5575   -14825.167    76.950891 
   50900     758.4067    -119.0735   0.68622232   -118.38728    -155.2258    4.2500126    4.2500126    4.2500126    -155.2258    11731.379     13083.63   -25280.687   -5640.9217     3650.177    11682.847    76.766308 
   51000    420.75649   -118.77384   0.38070932   -118.39313    8995.9192    4.2478593    4.2478593    4.2478593    8995.9192    26222.058    20716.142   -19950.442   -5026.3164    10606.127    29974.801    76.649682 
   51100    799.71729   -119.11283   0.72360101   -118.38923    1506.3293    4.2481508    4.2481508    4.2481508    1506.3293   -1064.0106    20259.948   -14676.949     7566.054    1017.9073   -747.65128    76.665464 
   51200    1045.8846    -119.3333   0.94633838   -118.38696   -1835.7379    4.2457575    4.2457575    4.2457575   -1835.7379   -12787.077    9690.4553   -2410.5918    8950.9114   -5198.3286   -11721.306    76.535964 
   51300    759.72152    -119.0856   0.68741199   -118.39819    1123.8442    4.2452039    4.2452039    4.2452039    1123.8442    4089.2858    1986.4214   -2704.1745    -10672.84     9257.702     18707.98    76.506029 
   51400    430.19855   -118.79396   0.38925269   -118.40471    622.06014    4.2436282    4.2436282    4.2436282    622.06014    7887.9208    1799.8005   -7821.5408   -7834.4209    16160.609    22731.777    76.420871 
   51500    686.89778   -119.02401   0.62151954   -118.40249    2681.4201    4.2417437    4.2417437    4.2417437    2681.4201    3124.5025     4412.968    506.78978    15349.915    1923.3564   -5136.2032    76.319104 
   51600    1092.4014   -119.38565   0.98842777   -118.39722   -5685.4754    4.2485814    4.2485814    4.2485814   -5685.4754   -13029.881     3101.145   -7127.6907    12102.698   -6990.0896    -6977.547    76.688779 
   51700    798.52304   -119.12222   0.72252043    -118.3997    4961.0872    4.2471082    4.2471082    4.2471082    4961.0872    868.80376    13840.392    174.06553   -10586.706     1220.436     16303.84     76.60903 
   51800    578.58527   -118.92034   0.52351611   -118.39682   -2598.2645    4.2496303    4.2496303    4.2496303   -2598.2645   -5495.7865    4086.8392   -6385.8461   -6898.3379    12292.827    19504.835    76.745595 
   51900    1047.9577   -119.33254   0.94821414   -118.38432   -13966.104    4.2528074    4.2528074    4.2528074   -13966.104   -13068.638   -10691.927   -18137.746     14479.14    1616.1981   -8632.1048    76.917852 
   52000    959.95444    -119.2525   0.86858695   -118.38391    -7394.649    4.2553925    4.2553925    4.2553925    -7394.649    8169.2829   -13692.439   -16660.791    4895.8698   -6986.1007    -2928.073    77.058203 
   52100    407.15365   -118.75614   0.36840118   -118.38774    12436.455    4.2513624    4.2513624    4.2513624    12436.455    32661.958     9254.178   -4606.7712   -17823.614    5693.8845    22805.239    76.839474 
   52200    748.66482    -119.0631   0.67740766   -118.38569    3522.4676     4.253403     4.253403     4.253403    3522.4676   -374.08689    2983.4196    7958.0701   -8226.7162    6594.6826    5679.6155    76.950173 
   52300    1322.7315   -119.57301    1.1968352   -118.37617    -16457.53    4.2525903    4.2525903    4.2525903    -16457.53    -24757.48   -16256.622   -8358.4866    7045.6555   -3556.9936   -8199.0301    76.906075 
   52400    796.34455   -119.10979   0.72054928   -118.38924    3437.9847    4.2435113    4.2435113    4.2435113    3437.9847   -3946.8016    215.44769    14045.308   -5064.2562    3317.4642    14827.024    76.414554 
   52500    353.50033   -118.71928   0.31985453   -118.39943   -8086.9312    4.2518904    4.2518904    4.2518904   -8086.9312   -15329.072   -3344.0124   -5587.7092    -12501.26    3424.3544    17950.187    76.868104 
   52600    775.80672   -119.10047   0.70196623    -118.3985    5037.7632    4.2416362    4.2416362    4.2416362    5037.7632   -14675.515    10373.513    19415.292   -334.66161   -10963.454   -5637.7381    76.313301 
   52700    1092.3004   -119.38284   0.98833635    -118.3945   -4773.9048    4.2443143    4.2443143    4.2443143   -4773.9048   -11232.954   -4240.5447    1151.7845    7631.6156   -9163.6278    -6728.509    76.457944 
   52800    905.29774   -119.21701   0.81913242   -118.39788    -3236.594    4.2461969    4.2461969    4.2461969    -3236.594    3360.5039   -1563.5512   -11506.735   -4719.5657    5160.9698    9955.9332    76.559728 
   52900    774.81407   -119.10208   0.70106806   -118.40101    5561.2974    4.2419238    4.2419238    4.2419238    5561.2974   -18256.622    18871.292    16069.222   -13178.741    2849.0995    12017.353    76.328829 
   53000    598.62186   -118.94463   0.54164564   -118.40299   -3940.8381    4.2470088    4.2470088    4.2470088   -3940.8381   -46574.684    18814.602    15937.568    5028.7006   -9358.2166   -1347.2367    76.603653 
   53100    563.09958    -118.9107   0.50950433   -118.40119     5175.463     4.244545     4.244545     4.244545     5175.463    -16300.15    15900.143    15926.396    18206.642   -10573.853   -10168.706    76.470413 
   53200     1012.205   -119.31228   0.91586437   -118.39641    -575.4703    4.2473633    4.2473633    4.2473633    -575.4703   -7893.7609    2163.3702    4003.9798    4475.3472    259.04044    -7.335952    76.622835 
   53300    1223.2158   -119.50024    1.1067914   -118.39345   -1822.1781    4.2452541    4.2452541    4.2452541   -1822.1781    -23003.14    6569.0076    10967.598   -5573.8556   -1476.8381    10112.306    76.508744 
   53400    630.55423   -118.97224   0.57053872    -118.4017    2748.8704    4.2430691    4.2430691    4.2430691    2748.8704   -33856.445      24002.2    18100.856    8568.2701   -8889.1442    2384.6502    76.390671 
   53500    423.85952   -118.78649     0.383517   -118.40297   -7276.3748    4.2478815    4.2478815    4.2478815   -7276.3748   -34762.808    17995.343   -5061.6598    19116.946   -5944.2917   -5048.7858    76.650888 
   53600    881.02458   -119.19581   0.79716956   -118.39865   -82.108116    4.2423853    4.2423853    4.2423853   -82.108116   -5360.6791     2653.548    2460.8067    1420.7566    2523.6733   -5446.3747    76.353742 
   53700    964.15017   -119.27016   0.87238334   -118.39778   -5126.1681    4.2449647    4.2449647    4.2449647   -5126.1681   -8018.5353   -9104.1742    1744.2053   -14506.489   -2294.7066    1676.0481    76.493096 
   53800    686.76788    -119.0211   0.62140201    -118.3997    1740.5381    4.2443101    4.2443101    4.2443101    1740.5381   -13171.449    9153.3237    9239.7401     -1499.11   -15360.797    9116.8459    76.457717 
   53900    790.43572   -119.11423   0.71520285   -118.39903    1453.7612    4.2435721    4.2435721    4.2435721    1453.7612   -6184.7824    6777.2844    3768.7815    13149.634   -10218.587   -3536.8865    76.417839 
   54000    928.73747   -119.23788   0.84034118   -118.39754   -1538.8413    4.2455154    4.2455154    4.2455154   -1538.8413   -4543.3186    2140.2813   -2213.4866     1731.071    5159.2575   -16136.197    76.522873 
   54100    744.72877   -119.07173   0.67384624   -118.39788   -1863.5243    4.2458225    4.2458225    4.2458225   -1863.5243    -15015.93    1916.6206    7508.7362    -18504.57    910.95371   -7264.0924    76.539479 
   54200    720.25314    -119.0495   0.65170018    -118.3978   -7314.8158    4.2483069    4.2483069    4.2483069   -7314.8158   -12697.792    -4475.993   -4770.6628   -10514.557   -12894.366    8511.9807    76.673919 
   54300    935.25539   -119.24037   0.84623873   -118.39413   -2774.8297    4.2441215    4.2441215    4.2441215   -2774.8297   -2251.0641   -110.11584   -5963.3093    9169.2093   -13636.554    912.55863    76.447526 
   54400    845.49003   -119.16115   0.76501715   -118.39613    1684.5925    4.2437504    4.2437504    4.2437504    1684.5925    10749.247   -17155.497    11460.027   -3188.0495    880.11087   -17192.834    76.427475 
   54500    634.85451   -118.97407    0.5744297   -118.39964   -3362.0665    4.2470508    4.2470508    4.2470508   -3362.0665   -1728.1368   -18076.717    9718.6541   -27527.084    3152.3975   -12285.549    76.605926 
   54600    824.82635    -119.1435   0.74632022   -118.39718    1533.7204    4.2435942    4.2435942    4.2435942    1533.7204    1921.0222    3331.8513    -651.7124   -13664.496   -7630.4004    6058.1246    76.419032 
   54700    1061.4757   -119.35398   0.96044555   -118.39353   -3274.6144    4.2457199    4.2457199    4.2457199   -3274.6144     5125.592   -7518.7644   -7430.6708    12102.355   -7492.9025    3618.4088    76.533933 
   54800    657.92557   -118.99485   0.59530488   -118.39954    1130.1922    4.2469683    4.2469683    4.2469683    1130.1922   -4408.7034   -11879.745    19679.025   -3796.2258    180.62774   -16604.354    76.601461 
   54900    454.88666   -118.81275   0.41159101   -118.40116    1500.8852    4.2477595    4.2477595    4.2477595    1500.8852   -10518.538   -11554.438    26575.631    -25615.57    8362.9559   -16262.878    76.644284 
   55000    918.15197   -119.22289   0.83076319   -118.39213    1617.4537     4.248497     4.248497     4.248497    1617.4537   -7303.3255    5940.0956     6215.591   -8689.0765    3738.7874   -1229.0543    76.684211 
   55100    1042.5481   -119.32985   0.94331939   -118.38653    28.359493    4.2531947    4.2531947    4.2531947    28.359493   -6238.3544    2656.2707    3667.1622    4811.2322    -5873.877   -2877.8491    76.938865 
   55200    638.56626   -118.96692   0.57778817   -118.38914   -1182.2801    4.2530988    4.2530988    4.2530988   -1182.2801   -2060.7681   -15583.969    14097.896   -18305.306     -1377.24   -7634.4458    76.933665 
   55300    694.77831   -119.01477   0.62865002   -118.38612   -6711.8781    4.2515351    4.2515351    4.2515351   -6711.8781   -11011.686   -9626.9775    503.02891   -20100.862    6088.7507   -3600.3371    76.848841 
   55400    1148.2964     -119.417    1.0390028     -118.378   -11987.704    4.2518346    4.2518346    4.2518346   -11987.704   -9514.6065   -9193.6489   -17254.856    6478.3164    3673.9678    6865.5183     76.86508 
   55500    819.80391   -119.12669   0.74177581   -118.38492    6011.8438     4.247776     4.247776     4.247776    6011.8438    19661.962   -7287.8254    5661.3944     -15.3164   -5621.3637   -1113.1445    76.645172 
   55600    479.40171   -118.82534   0.43377274   -118.39157    13368.741    4.2509503    4.2509503    4.2509503    13368.741    22779.081   -5570.0996    22897.241    -22456.76   -4679.0946   -8189.7932    76.817133 
   55700    877.95102   -119.17642   0.79438853   -118.38204   -5529.2093    4.2590066    4.2590066    4.2590066   -5529.2093     1306.163   -5513.7517   -12380.039   -12808.495    2174.1505   -2083.2551    77.254705 
   55800    951.88529   -119.23535   0.86128582   -118.37407   -10757.959    4.2543325    4.2543325    4.2543325   -10757.959   -7040.3237   -1395.5793   -23837.974    11957.281   -404.37735   -2212.2287    77.000631 
   55900    729.00724   -119.03612   0.65962107    -118.3765   -9145.9744     4.253285     4.253285     4.253285   -9145.9744   -1477.5324   -27868.591    1908.2001    9004.5242   -1505.7497    600.01678    76.943771 
   56000    991.31255   -119.27102   0.89696043   -118.37406    -3697.078    4.2538757    4.2538757    4.2538757    -3697.078   -2467.3092   -20351.141    11727.216   -10191.749   -168.40731    1600.1259    76.975834 
   56100    860.08387   -119.15532   0.77822196    -118.3771    3474.1073    4.2511555    4.2511555    4.2511555    3474.1073    989.81827    10759.474     -1326.97   -2710.1056    577.48058    -1475.825    76.828256 
   56200      345.315   -118.70098   0.31244827   -118.38853    8178.6392    4.2483472    4.2483472    4.2483472    8178.6392    15258.474    5956.2389    3321.2046    10685.747   -6560.5631   -5648.3216    76.676097 
   56300    744.02467   -119.06265   0.67320915   -118.38944   -400.55808    4.2522678    4.2522678    4.2522678   -400.55808    23108.384   -22699.742   -1610.3165    1735.1803   -10385.646   -1676.2049    76.888576 
   56400    1211.2805   -119.47503     1.095992   -118.37904   -9380.9576    4.2556834    4.2556834    4.2556834   -9380.9576    21250.055   -27304.662   -22088.266   -3644.8067    3688.0464    4536.1612    77.074007 
   56500    570.62551   -118.90387   0.51631395   -118.38755    2458.3475    4.2490629    4.2490629    4.2490629    2458.3475    26892.258    420.85104   -19938.067     8612.523     14496.47    1597.1796    76.714859 
   56600    349.38096   -118.70926   0.31612724   -118.39313    8170.5419    4.2447992    4.2447992    4.2447992    8170.5419    22744.879    17383.394   -15616.647    12678.204   -6349.1384   -2781.6074    76.484154 
   56700     1054.851   -119.34077   0.95445135   -118.38632   -2298.0187    4.2469188    4.2469188    4.2469188   -2298.0187    9771.0749   -6540.4439   -10124.687   -1125.2794   -12722.588    3001.8326    76.598781 
   56800    1004.4831   -119.29457   0.90887746   -118.38569   -6067.7007    4.2507747    4.2507747    4.2507747   -6067.7007    5319.9263   -15448.965   -8074.0637   -9535.7978    10453.002    -5.677774    76.807614 
   56900    532.81246   -118.87536   0.48209991   -118.39326    1097.9967     4.247804     4.247804     4.247804    1097.9967    12212.184    15825.367   -24743.561    1863.2579    10620.526    -8446.516     76.64669 
   57000    749.88819    -119.0709   0.67851459   -118.39239   -725.38736    4.2468337    4.2468337    4.2468337   -725.38736    12824.177     11531.55   -26531.889    9770.8986   -12307.749   -1190.5284    76.594179 
   57100    1115.4756   -119.39773    1.0093058   -118.38843   -4674.8868    4.2465513    4.2465513    4.2465513   -4674.8868   -4106.7621   -11374.869    1456.9708   -9917.6499   -13110.962    4343.2611    76.578901 
   57200     741.7209   -119.06603   0.67112466   -118.39491    6256.8574    4.2427267    4.2427267    4.2427267    6256.8574    5402.9374    5119.7665    8247.8685    -22053.53    4737.7591   -2020.7349    76.372179 
   57300    624.36936   -118.96383   0.56494252   -118.39888   -4587.5249    4.2496543    4.2496543    4.2496543   -4587.5249    6839.3891    1574.4375   -22176.401    -1426.021    12325.319   -6354.7429    76.746892 
   57400    1126.4675   -119.40936    1.0192515   -118.39011   -7922.3818    4.2478731    4.2478731    4.2478731   -7922.3818    1770.2681   -5787.0895   -19750.324    9873.1646    6844.0562    1639.4211     76.65043 
   57500    1055.2349   -119.34523    0.9547987   -118.39043    -8370.363     4.247924     4.247924     4.247924    -8370.363   -11493.596   -15030.773      1413.28   -13496.602   -6311.7128    4462.9983    76.653187 
   57600     586.1104   -118.92609   0.53032501   -118.39576   -255.51892    4.2457861    4.2457861    4.2457861   -255.51892   -5220.1982   -12677.613    17131.254   -24961.425   -3304.9532   -1990.2848    76.537512 
   57700    741.65213   -119.06523   0.67106243   -118.39417   -1891.9875    4.2459248    4.2459248    4.2459248   -1891.9875   -2746.5951   -2332.6668   -596.70066   -1814.2697    12510.171   -4100.7923     76.54501 
   57800     1039.158   -119.33032   0.94025197   -118.39007   -11161.162    4.2525119    4.2525119    4.2525119   -11161.162   -7348.3966   -4488.3626   -21646.727    6732.2141    16354.315    4323.3857     76.90182 
   57900    771.55871   -119.09114   0.69812254   -118.39301    6453.5846    4.2483517    4.2483517    4.2483517    6453.5846    10908.075   -6171.5264    14624.205   -21198.279     455.2052    4445.0341    76.676341 
   58000    581.82392   -118.91864   0.52644651    -118.3922    4775.1704     4.250407     4.250407     4.250407    4775.1704    20785.402   -14166.021    7706.1302   -28002.127   -1874.9073   -970.68627     76.78768 
   58100    828.62433   -119.13457   0.74975671   -118.38481   -23.969072    4.2499913    4.2499913    4.2499913   -23.969072    27230.312    1939.3743   -29241.594    1005.8581    15442.955   -1040.8817    76.765155 
   58200    860.90097   -119.16518   0.77896129   -118.38622     1452.293    4.2470909    4.2470909    4.2470909     1452.293    9228.1531    6904.8687   -11776.143    1047.4725    13413.371    1966.3672    76.608094 
   58300     757.8153   -119.07566   0.68568721   -118.38998   -5004.7346     4.252008     4.252008     4.252008   -5004.7346   -16426.781   -11696.398    13108.976   -17114.015   -5175.3744    365.08783    76.874487 
   58400    878.24241   -119.17778   0.79465219   -118.38313   -9172.8666    4.2545739    4.2545739    4.2545739   -9172.8666    -23469.81    5484.8815   -9533.6714    -7473.825   -684.86101   -4091.0617     77.01374 
   58500    841.32685   -119.14074   0.76125021   -118.37949   -3583.9659    4.2496072    4.2496072    4.2496072   -3583.9659   -13536.529    23943.752    -21159.12    6850.4917    20569.422      1308.56    76.744343 
   58600    794.73009   -119.10367   0.71908849   -118.38458    3803.5369    4.2470376    4.2470376    4.2470376    3803.5369   -10643.428    9729.1391      12324.9   -4492.2721    9993.8365    12533.284    76.605213 
   58700    885.65187   -119.18926   0.80135642    -118.3879    3033.4644    4.2483113    4.2483113    4.2483113    3033.4644   -13171.772   -908.77795    23180.943   -13340.665   -8920.7885    5775.0702    76.674156 
   58800    694.42509   -119.01661   0.62833041   -118.38828    -3913.091    4.2496696    4.2496696    4.2496696    -3913.091   -20748.943    17416.462   -8406.7916   -1425.4938    15328.648   -2683.5481    76.747721 
   58900    775.75569   -119.08905   0.70192005   -118.38713   -5843.4067    4.2496833    4.2496833    4.2496833   -5843.4067   -20179.017    19436.827    -16788.03    5030.8537     23781.61     2192.536    76.748467 
   59000    1054.3227   -119.33813   0.95397338   -118.38416   -7800.4988    4.2500282    4.2500282    4.2500282   -7800.4988   -13640.469   -10151.428    390.40092   -2183.4213   -6243.5456    1192.6788    76.767154 
   59100     801.4016   -119.11336   0.72512501   -118.38823   -396.14126    4.2497044    4.2497044    4.2497044   -396.14126   -8217.9093   -3720.5119    10749.997   -9138.4951   -2611.3569   -2640.2774    76.749609 
   59200    665.23648   -118.98992   0.60191995     -118.388   -1599.2936    4.2486243    4.2486243    4.2486243   -1599.2936   -2699.1446    13978.726   -16077.462   -2340.1781    27173.545     -4381.96    76.691103 
   59300    992.87986   -119.28344   0.89837856   -118.38506    522.02199    4.2447193    4.2447193    4.2447193    522.02199   -5358.6702     6694.715    230.02119    1552.7588    19108.141    2966.8564    76.479831 
   59400    713.41445   -119.04184   0.64551239   -118.39632    3368.5857    4.2473874    4.2473874    4.2473874    3368.5857   -22910.791   -2514.1751    35530.724   -9808.5447   -8969.6672    3266.1693    76.624139 
   59500    456.92923   -118.81351   0.41343917   -118.40007   -13.986709    4.2511514    4.2511514    4.2511514   -13.986709   -18348.519   -258.71561    18565.274   -8084.9814   -10530.507    498.02464    76.828032 
   59600    1002.7433   -119.29609   0.90730325   -118.38879   -1666.9028    4.2499935    4.2499935    4.2499935   -1666.9028   -8937.9703     7900.681   -3963.4191    6173.7842   -2973.1728    4872.5107    76.765272 
   59700    1073.1803   -119.35719    0.9710361   -118.38615   -1922.9429      4.24958      4.24958      4.24958   -1922.9429   -14092.024    6936.0361    1387.1592    135.12034   -1626.1273    5145.1366    76.742869 
   59800    464.44851   -118.81539   0.42024278   -118.39514    6013.4498    4.2492022    4.2492022    4.2492022    6013.4498   -9893.6109     3778.468    24155.492   -12484.409   -9750.3049    331.61035    76.722401 
   59900     668.1402   -118.99815    0.6045473   -118.39361    -3213.113    4.2515535    4.2515535    4.2515535    -3213.113   -8207.3662    1221.5817   -2653.5546   -6149.3684   -9798.6126   -7577.3306    76.849833 
   60000    1212.2944   -119.47963    1.0969095   -118.38272   -3755.2227    4.2466071    4.2466071    4.2466071   -3755.2227   -1236.2146    8304.5229   -18333.976    6163.3106    5156.7146   -3570.7328    76.581917 
   60100    841.61091   -119.15386   0.76150724   -118.39235   -2334.6178    4.2476189    4.2476189    4.2476189   -2334.6178   -4036.6904   -4028.0328    1060.8698    2669.9362     9292.468    5761.6584    76.636673 
   60200    539.59245    -118.8831   0.48823459   -118.39487   -5221.2294     4.252972     4.252972     4.252972   -5221.2294   -26855.314   -8719.2618    19910.888   -16738.002   -2829.1059    3092.3537    76.926785 
   60300    915.77558   -119.21489   0.82861299   -118.38628   -187.70029     4.248407     4.248407     4.248407   -187.70029   -21776.296    2716.3093    18496.885   -9835.5241   -7877.0399     -2367.31    76.679335 
   60400    911.80245   -119.20975   0.82501802   -118.38473    3961.1137    4.2477144    4.2477144    4.2477144    3961.1137   -15366.313    8935.4403    18314.214    11973.821    9923.5549    4357.6934    76.641838 
   60500    427.79534   -118.78212   0.38707821   -118.39504    8457.0863    4.2514228    4.2514228    4.2514228    8457.0863   -25303.143    5048.3903    45626.012     310.6251    8648.3853    10446.985    76.842746 
   60600    653.81064   -118.98579   0.59158161   -118.39421    5111.4634    4.2509875    4.2509875    4.2509875    5111.4634   -16171.042   -10749.401    42254.833   -12439.131   -6233.1014    8097.4359    76.819149 
   60700    1098.7116   -119.37573   0.99413737   -118.38159     -4729.67    4.2495138    4.2495138    4.2495138     -4729.67    -1736.182   -6885.2893   -5567.5388    1713.3028    -3413.861     -1826.95    76.739282 
   60800    710.02079   -119.02854   0.64244173    -118.3861    -5668.252    4.2506798    4.2506798    4.2506798    -5668.252   -16861.845    19160.216   -19303.126     3256.597    15162.008   -1516.3242    76.802468 
   60900    705.09136   -119.02768   0.63798148    -118.3897   -7548.1744     4.252216     4.252216     4.252216   -7548.1744   -24172.791    630.92251    897.34569   -9842.4485    14571.857    1452.7245    76.885768 
   61000    1186.1013   -119.45645    1.0732094   -118.38324   -11630.692    4.2511832    4.2511832    4.2511832   -11630.692   -10350.102   -16646.788   -7895.1868   -6331.8531   -2897.4173    2150.6247    76.829757 
   61100    897.17641    -119.1965   0.81178407   -118.38472   -4474.7454    4.2498594    4.2498594    4.2498594   -4474.7454    388.75735    4611.3583   -18424.352    5960.2599   -3661.7678    518.66752    76.758006 
   61200    487.94277   -118.83321   0.44150088   -118.39171     3099.299    4.2512459    4.2512459    4.2512459     3099.299    4355.3284    3729.6035    1212.9652    2547.6652    12420.635   -1436.0189    76.833156 
   61300    925.73432   -119.22481   0.83762387   -118.38719     2768.419    4.2494258    4.2494258    4.2494258     2768.419   -4718.8995   -14234.579    27258.735   -6744.1545    15398.777   -3718.4718    76.734516 
   61400    938.53687   -119.23355   0.84920788   -118.38434     4461.749    4.2471554    4.2471554    4.2471554     4461.749    2697.0039   -9847.7234    20535.967      383.746   -15972.443   -3240.0423    76.611584 
   61500    368.91265    -118.7263   0.33379992    -118.3925    7745.0792    4.2500102    4.2500102    4.2500102    7745.0792    1758.3212    4647.6589    16829.257    10021.902    -27143.28   -1157.7126    76.766177 
   61600    740.87815   -119.06243   0.67036212   -118.39206    3895.7212    4.2530447    4.2530447    4.2530447    3895.7212   -11713.613   -3492.8697    26893.646   -360.94698    2950.1707   -4256.6687    76.930729 
   61700    1236.2946   -119.50103    1.1186253    -118.3824   -9988.6738    4.2538054    4.2538054    4.2538054   -9988.6738   -22271.096   -24642.891    16947.966   -4250.7085     9638.355    54.777957    76.972014 
   61800    545.64903   -118.88206   0.49371471   -118.38835   -4199.7882    4.2489995    4.2489995    4.2489995   -4199.7882    -16960.44    2584.1295    1776.9457    7045.7868    -23810.05    6304.6342    76.711422 
   61900    444.50014   -118.79651   0.40219307   -118.39431    2928.3481    4.2427923    4.2427923    4.2427923    2928.3481   -14414.804    33115.706    -9915.858     5606.433   -26287.203    1093.7551     76.37572 
   62000    1256.4925   -119.52901    1.1369008   -118.39211   -8289.5648    4.2479283    4.2479283    4.2479283   -8289.5648   -18808.161   -1873.4277   -4187.1061   -1650.8301    7136.0647   -3050.0673     76.65342 
   62100    1150.4079   -119.43249    1.0409132   -118.39157   -8670.5007    4.2510914    4.2510914    4.2510914   -8670.5007   -7462.4171   -6888.1791   -11660.906   -3182.0831    1914.6791   -3233.9023    76.824782 
   62200    474.55836   -118.82648   0.42939038   -118.39709    83.119679    4.2467085    4.2467085    4.2467085    83.119679   -5897.2574    30791.663   -24645.047    2802.6352   -27979.376    1065.0821    76.587404 
   62300    712.72823    -119.0398   0.64489148   -118.39491    -5089.056    4.2464182    4.2464182    4.2464182    -5089.056   -19154.598    11255.249   -7367.8193    10802.503   -19222.568    1478.2767    76.571698 
   62400    1092.4266   -119.37711   0.98845057   -118.38866   -4330.0562    4.2486669    4.2486669    4.2486669   -4330.0562   -5852.1713    -18596.27    11458.273    1898.5275    8691.0678   -10052.006    76.693411 
   62500    659.86211   -118.98983   0.59705711   -118.39277    224.52872    4.2513147    4.2513147    4.2513147    224.52872    8396.4919   -9596.9977     1874.092   -3108.6871   -1705.2533   -10576.851    76.836888 
   62600    481.25845     -118.829   0.43545276   -118.39355    8652.1372    4.2484165    4.2484165    4.2484165    8652.1372    6548.9446    5708.4536    13699.013    5347.9784   -20405.339    2714.9464    76.679853 
   62700    977.11992    -119.2736   0.88411863   -118.38949    4961.7791    4.2473145    4.2473145    4.2473145    4961.7791   -6169.8178   -7180.8855     28236.04    2433.6045   -11285.379    4839.3983    76.620194 
   62800    1039.1525   -119.32648   0.94024703   -118.38624   -7191.0033    4.2493186    4.2493186    4.2493186   -7191.0033    2424.6455     -29361.9    5364.2441   -4825.9587    15158.117   -5775.7033    76.728706 
   62900    523.74761   -118.86649   0.47389785   -118.39259   -3003.5058    4.2478022    4.2478022    4.2478022   -3003.5058     31007.03   -14913.434   -25104.114    911.60589    12887.724   -3941.4261    76.646592 
   63000    802.36555   -119.11733   0.72599721   -118.39133   -10816.045    4.2505059    4.2505059    4.2505059   -10816.045    3779.2704   -4702.1727   -31525.233     6278.139   -3636.1047   -308.19902    76.793042 
   63100    1277.4744   -119.54168    1.1558857    -118.3858   -7172.8527    4.2443566    4.2443566    4.2443566   -7172.8527    7299.1543   -19691.062     -9126.65    1858.0414   -2026.4031   -726.83393    76.460227 
   63200    765.53697   -119.08659   0.69267394   -118.39392   -4787.9098    4.2448367    4.2448367    4.2448367   -4787.9098    16515.102   -38092.088    7213.2562   -8155.8073    6949.4715   -4472.9315    76.486176 
   63300    489.36132   -118.83978   0.44278441   -118.39699   -4807.3814    4.2501631    4.2501631    4.2501631   -4807.3814     9621.974   -23542.761   -501.35739   -3724.9835    8615.5362   -957.47729    76.774462 
   63400    966.48963   -119.26466   0.87450012   -118.39016    3594.5402    4.2476212    4.2476212    4.2476212    3594.5402    21618.136   -2411.5134   -8423.0018    1953.3518    181.59455    31.689198    76.636798 
   63500    1010.8117    -119.3026   0.91460366     -118.388    2664.1327    4.2507769    4.2507769    4.2507769    2664.1327    23278.551   -25972.538    10686.385   -8899.7423   -7012.7905   -6374.5926     76.80773 
   63600    582.29368   -118.91817   0.52687156    -118.3913    2383.7598    4.2488096    4.2488096    4.2488096    2383.7598    35166.475   -45689.356     17674.16   -14198.697   -1558.1203   -5893.9264    76.701136 
   63700     580.6115   -118.91733   0.52534948   -118.39198    4105.8227    4.2410591    4.2410591    4.2410591    4105.8227    39150.309   -12048.454   -14784.387   -1467.2668    1251.0815    1493.0637    76.282158 
   63800    789.20501   -119.10913   0.71408928   -118.39504    319.84291    4.2435065    4.2435065    4.2435065    319.84291    14420.732    6718.4276   -20179.631    11315.109   -1787.9957    5142.3018    76.414296 
   63900    803.22731   -119.12442   0.72677695   -118.39764   -3032.1966    4.2476394    4.2476394    4.2476394   -3032.1966    14893.568    -22846.51   -1143.6476    9400.1995   -3195.1591   -5748.4341    76.637782 
   64000    823.54438   -119.13963   0.74516027   -118.39447   -4617.6402    4.2481755    4.2481755    4.2481755   -4617.6402    37612.368   -41489.551    -9975.738   -2188.7075    613.59129   -11979.934    76.666804 
   64100    911.47326   -119.21485   0.82472016   -118.39013   -7015.8188    4.2486673    4.2486673    4.2486673   -7015.8188    17818.848   -16024.586   -22841.717   -2495.7853   -441.36492   -28.634968    76.693433 
   64200     795.5105   -119.11182   0.71979462   -118.39202   -591.45663    4.2463807    4.2463807    4.2463807   -591.45663    7026.0608    8867.3165   -17667.747    8616.2413   -5577.0239    5308.9707    76.569672 
   64300    664.27315   -118.99563    0.6010483   -118.39458   -1345.7134    4.2468024    4.2468024    4.2468024   -1345.7134    14833.866   -13194.145   -5676.8611      6287.11    1111.8517   -11465.978    76.592485 
   64400    812.59645    -119.1281   0.73525435   -118.39285     1328.425    4.2446294    4.2446294    4.2446294     1328.425    16885.581   -22765.079    9864.7728   -7272.7569    3402.9222   -12412.691    76.474974 
   64500    961.77946    -119.2635   0.87023827   -118.39326    371.54278    4.2459009    4.2459009    4.2459009    371.54278    1269.0678    10608.339   -10762.778   -9367.6031   -2524.5676       1833.9    76.543719 
   64600    907.94397   -119.21596   0.82152678   -118.39443   -5350.9435    4.2491063    4.2491063    4.2491063   -5350.9435   -7262.3382    16852.163   -25642.655    6173.3539    -1917.548    178.78702    76.717206 
   64700    750.85553   -119.07304   0.67938986   -118.39365    943.39424    4.2458863    4.2458863    4.2458863    943.39424    17355.398   -13735.787   -789.42843    12700.414     2025.863    -16269.89    76.542927 
   64800    782.41368   -119.10067   0.70794434   -118.39273   -2651.4588    4.2478925    4.2478925    4.2478925   -2651.4588    17114.353   -19788.586   -5280.1434   -7966.9723    490.96691   -12893.309    76.651483 
   64900    998.41194   -119.29419    0.9033841   -118.39081   -3904.3538    4.2467954    4.2467954    4.2467954   -3904.3538    3737.3932   -1388.7101   -14061.744   -18135.142    252.45587    6876.1326    76.592109 
   65000    830.03713   -119.14406   0.75103504   -118.39302    7708.0999    4.2442005    4.2442005    4.2442005    7708.0999    23147.957    8900.2671   -8923.9241    542.94396    533.19522   -4205.2097    76.451794 
   65100    560.45111   -118.90317   0.50710794   -118.39606   -643.26593    4.2502195    4.2502195    4.2502195   -643.26593    30627.551   -4754.0875   -27803.261    1207.0099   -675.98991   -23423.611    76.777522 
   65200    718.93718   -119.04368   0.65050947   -118.39317    3671.9078    4.2465382    4.2465382    4.2465382    3671.9078    29727.042     3073.756   -21785.075   -15795.844    2246.3983   -2427.4075    76.578192 
   65300    935.21858   -119.23637   0.84620542   -118.39016   -1383.5945    4.2477338    4.2477338    4.2477338   -1383.5945    9860.8064   -8357.3144   -5654.2755   -12652.211    3362.8095    16281.818    76.642893 
   65400    773.65456   -119.08998    0.7000189   -118.38996   -10846.349    4.2521045    4.2521045    4.2521045   -10846.349    7667.5793    -27062.43   -13144.196    995.17806    541.06793   -5731.2858    76.879716 
   65500     786.8935   -119.10164   0.71199777   -118.38964     2264.711    4.2453984    4.2453984    4.2453984     2264.711    15172.308   -4910.7001   -3467.4754    4055.3525    4723.6609   -21196.891    76.516546 
   65600    841.07495   -119.15013   0.76102229   -118.38911   -8826.2647     4.250992     4.250992     4.250992   -8826.2647   -17621.629   -10929.274    2072.1088   -8085.7919     3937.402    1235.9092    76.819392 
   65700    646.02708   -118.97481   0.58453888   -118.39027    2776.0323    4.2468628    4.2468628    4.2468628    2776.0323   -10808.851    5561.0257    13575.922   -8986.3291    -1060.768    17499.113    76.595754 
   65800    632.50568   -118.96557   0.57230443   -118.39326    7498.6279    4.2475771    4.2475771    4.2475771    7498.6279    2828.3063    7662.0771      12005.5    2161.3886   -3619.3302    2032.3774    76.634409 
   65900    1007.1271   -119.30241   0.91126973   -118.39114    1191.2531     4.247797     4.247797     4.247797    1191.2531   -5752.1612    12130.831   -2804.9107    548.23909    807.14698   -15820.118    76.646312 
   66000    894.14658    -119.1991   0.80904261   -118.39006    6037.8327    4.2430537    4.2430537    4.2430537    6037.8327    -15569.43    24811.005    8871.9231   -12456.403    4296.6753   -324.87334    76.389837 
   66100    540.40031   -118.88569   0.48896556   -118.39672   -13843.669    4.2528563    4.2528563    4.2528563   -13843.669   -23896.899    -21527.45    3893.3413   -9264.2253   -168.75121    23957.646    76.920505 
   66200    844.01165   -119.15635   0.76367948   -118.39267    -3318.111     4.244867     4.244867     4.244867    -3318.111    5519.9823   -19899.134    4424.8187    6177.0033   -1678.3933     23522.64    76.487817 
   66300    1141.6738   -119.42225    1.0330105   -118.38924   -5454.5164    4.2467165    4.2467165    4.2467165   -5454.5164    2329.7041   -11016.729   -7676.5242   -3779.9321   -170.14873   -3742.6259    76.587835 
   66400    848.43954   -119.16004   0.76768592   -118.39235   -5199.5933    4.2479909    4.2479909    4.2479909   -5199.5933   -10773.624   -4175.6777   -649.47816   -19370.865   -320.22044   -1127.1225    76.656809 
   66500    523.26136     -118.872   0.47345788   -118.39855    7288.6938    4.2428618    4.2428618    4.2428618    7288.6938     8512.378    8848.4638    4505.2396   -10457.881   -2443.3744    27845.727    76.379471 
   66600    832.49406   -119.14884   0.75325812   -118.39558   -11545.633    4.2535337    4.2535337    4.2535337   -11545.633   -4301.9068   -24267.149   -6067.8419    3255.6574   -3263.2376    22796.223    76.957269 
   66700    1114.4921   -119.39246    1.0084159   -118.38405   -2231.6302    4.2497837    4.2497837    4.2497837   -2231.6302   -13198.035   -8098.7968    14601.942   -3073.8578    3204.7175   -10031.143    76.753902 
   66800     591.5499   -118.92564   0.53524678   -118.39039   -1054.6377    4.2541139    4.2541139    4.2541139   -1054.6377    3096.1511     -15489.1    9229.0356   -12711.377    11468.776    4429.2806    76.988761 
   66900    483.67815   -118.82684   0.43764216    -118.3892    1654.2431    4.2509259    4.2509259    4.2509259    1654.2431    23102.075   -18721.347    582.00154   -648.01109    6897.0574    29479.059     76.81581 
   67000    1050.9623   -119.33164   0.95093274   -118.38071   -551.16328    4.2486407    4.2486407    4.2486407   -551.16328   -2021.4565    6867.5784   -6499.6118    8677.6251   -3904.0347    5957.7614     76.69199 
   67100    896.99025   -119.18963   0.81161563   -118.37802   -13524.705    4.2592653    4.2592653    4.2592653   -13524.705   -29258.859    11266.513   -22581.768   -8411.0836   -3196.1459    -7942.086    77.268784 
   67200    445.58911   -118.78772   0.40317839   -118.38454    22272.962    4.2481383    4.2481383    4.2481383    22272.962    9140.3371    44221.395    13457.154   -18462.371    3488.8322    20776.719    76.664786 
   67300    749.15039   -119.06066   0.67784702   -118.38282   -3694.4741     4.255306     4.255306     4.255306   -3694.4741   -4037.6765   -4735.9616   -2309.7843    918.91336    1076.7576    20954.972    77.053503 
   67400    1015.9905   -119.29592   0.91928957   -118.37663   -5796.7554    4.2464506    4.2464506    4.2464506   -5796.7554   -11921.679   -5828.6226    360.03518      7232.67   -1075.0689   -11213.347    76.573454 
   67500    662.22072   -118.98719   0.59919122   -118.38799   -2623.8896    4.2479826    4.2479826    4.2479826   -2623.8896   -1738.6272   -11521.641    5388.5999   -7461.0443    4356.6365   -2999.7309    76.656358 
   67600    582.25468   -118.92248   0.52683627   -118.39565   -3991.5248    4.2512343    4.2512343    4.2512343   -3991.5248    7032.5748   -22641.374    3634.2245   -7469.1096    4389.5375    23178.485    76.832529 
   67700    982.45618   -119.28139     0.888947   -118.39244    9549.3793    4.2410863    4.2410863    4.2410863    9549.3793    10894.877    1372.8671    16380.394    2377.1153    633.69141    12054.632    76.283624 
   67800    1145.0967   -119.42645    1.0361076   -118.39034   -11543.254    4.2486778    4.2486778    4.2486778   -11543.254   -13239.406   -24701.595    3311.2392    1068.3215   -1708.5587   -12410.406    76.694002 
   67900    780.01935   -119.10808    0.7057779    -118.4023    874.10435    4.2431325    4.2431325    4.2431325    874.10435    5189.3381   -20466.802    17899.777    -7195.543    2000.4953   -1499.4516    76.394094 
   68000     535.5997   -118.89011   0.48462187   -118.40549    4214.6119    4.2443454    4.2443454    4.2443454    4214.6119    15060.183   -16349.968    13933.621   -10029.218    7218.2529    15752.051    76.459623 
   68100    700.41024   -119.03341    0.6337459   -118.39966   -6400.0761    4.2497107    4.2497107    4.2497107   -6400.0761   -8978.6561   -17583.454    7361.8818    173.98251   -4630.6932    3451.4998    76.749952 
   68200    991.28401   -119.28881   0.89693461   -118.39187    3599.4819    4.2437922    4.2437922    4.2437922    3599.4819   -16606.189    13190.161    14214.474    5397.1842   -13131.384   -7418.1612    76.429732 
   68300    916.24032   -119.22594   0.82903349    -118.3969    1904.8636    4.2481055    4.2481055    4.2481055    1904.8636   -2735.6773    3993.6206    4456.6476   -6913.0529   -604.71569    13718.716    76.663012 
   68400    606.06323   -118.94513   0.54837875   -118.39675    3902.4129    4.2478758    4.2478758    4.2478758    3902.4129    13313.225   -25092.729    23486.742   -13914.746    3891.2226    20646.292    76.650576 
   68500    641.83973   -118.97517   0.58075008   -118.39442   -1956.1639    4.2479917    4.2479917    4.2479917   -1956.1639   -5521.7646   -11187.866    10841.139   -4799.7794   -11594.686   -1602.2587    76.656852 
   68600    1125.9951   -119.40761     1.018824   -118.38878   -14474.273    4.2493555    4.2493555    4.2493555   -14474.273   -23703.883   -6552.8283   -13166.108    8091.4172   -15797.265    -7040.326    76.730709 
   68700    1019.4608   -119.31303   0.92242959    -118.3906   -6663.1806    4.2513832    4.2513832    4.2513832   -6663.1806   -4533.8889   -9254.6997   -6200.9532   -3954.2666    208.52782    11102.455    76.840599 
   68800    489.44931   -118.83245   0.44286402   -118.38958   -10288.495    4.2562842    4.2562842    4.2562842   -10288.495    5044.1668   -28830.805   -7078.8476   -20330.913   -363.80647    13654.568    77.106653 
   68900    674.58761   -118.99504   0.61038105   -118.38466    3673.1413    4.2462032    4.2462032    4.2462032    3673.1413    4691.7039     7077.214   -749.49383    -6661.554   -16760.528   -2231.6606    76.560068 
   69000     1068.695   -119.35055   0.96697766   -118.38357   -5173.7399    4.2505955    4.2505955    4.2505955   -5173.7399   -19073.537    13283.231   -9730.9138    10689.369   -9790.4841   -2530.2632    76.797896 
   69100    933.64727   -119.23279   0.84478367   -118.38801   -1046.2399    4.2456221    4.2456221    4.2456221   -1046.2399   -12397.355    2216.5817     7042.053   -409.29693    7007.4944    10596.936    76.528643 
   69200    528.97822   -118.87299   0.47863061   -118.39436    9740.1742    4.2404592    4.2404592    4.2404592    9740.1742   -397.24101    2365.2098    27252.554   -18307.396   -6669.2476    7471.4272     76.24979 
   69300    591.19948   -118.93458   0.53492972   -118.39965   -2904.7709    4.2493283    4.2493283    4.2493283   -2904.7709   -8320.3689   -4894.3422    4500.3983   -7217.0887   -24678.193   -4515.7419    76.729234 
   69400    1094.5668    -119.3861   0.99038705   -118.39571    1511.4467    4.2448621    4.2448621    4.2448621    1511.4467   -5195.3716    4795.1287    4934.5831    8444.6625   -10762.993   -7966.9864    76.487554 
   69500    1159.9563   -119.44181    1.0495529   -118.39226   -5568.2555    4.2464257    4.2464257    4.2464257   -5568.2555   -10769.816   -6959.7608    1024.8108   -184.67622    8468.2593     1509.642    76.572103 
   69600    530.55122   -118.87944   0.48005389   -118.39938   -4197.3223    4.2489409    4.2489409    4.2489409   -4197.3223   -7991.0783   -13146.954    8546.0656    -13101.51   -8971.3392    8535.0615    76.708248 
   69700    406.25781   -118.76969   0.36759061    -118.4021    10236.365    4.2431489    4.2431489    4.2431489    10236.365   -13148.712    16479.173    27378.635   -12329.362   -24341.077    794.72791    76.394978 
   69800    955.20282   -119.26327   0.86428758   -118.39898    1720.5477    4.2450469    4.2450469    4.2450469    1720.5477   -26643.325    23332.902    8472.0664    407.46874   -2267.2727   -5519.3899    76.497544 
   69900     1020.715   -119.31705   0.92356439   -118.39349   -33.020535    4.2461458    4.2461458    4.2461458   -33.020535   -4901.1888   -2782.8755    7585.0027    2363.7918    12388.293   -4012.7194    76.556964 
   70000    615.68514   -118.95639   0.55708485   -118.39931   -4180.0531    4.2464872    4.2464872    4.2464872   -4180.0531   -10410.918   -17429.807    15300.565   -7963.8231   -13960.758    4852.0831    76.575432 
   70100    628.96173   -118.97128   0.56909779   -118.40218     -359.228    4.2417983    4.2417983    4.2417983     -359.228   -19070.141    7246.3664     10746.09   -11224.388   -27359.765    7126.9328    76.322054 
   70200    964.02026   -119.27169   0.87226579   -118.39943   -1824.1628    4.2445345    4.2445345    4.2445345   -1824.1628   -5946.3009   -1462.1041    1935.9167   -2457.4678   -2048.9446   -9285.2349    76.469846 
   70300     1042.654   -119.33608   0.94341522   -118.39266   -16053.473    4.2515758    4.2515758    4.2515758   -16053.473   -3674.2526   -33727.886    -10758.28    4732.3689    9728.6263   -17220.464    76.851046 
   70400    663.70885   -118.99786   0.60053772   -118.39732    3959.5168    4.2425456    4.2425456    4.2425456    3959.5168    6522.0092    5851.8861   -495.34479   -5745.1243   -15676.348   -5391.5437    76.362396 
   70500    557.65715   -118.90605   0.50457991   -118.40147    4164.1564    4.2471241    4.2471241    4.2471241    4164.1564   -10886.515    24325.048    -946.0638   -15602.171   -23582.593    1607.6852    76.609891 
   70600    892.53621   -119.20126   0.80758552   -118.39368   -3615.6071    4.2516674    4.2516674    4.2516674   -3615.6071   -12171.233    5948.9668   -4624.5547   -7247.6116    4783.9542    -1168.588    76.856012 
   70700    1052.9308   -119.33972   0.95271387     -118.387   -909.72224    4.2451483    4.2451483    4.2451483   -909.72224    -2414.417   -1730.1847     1415.435    4975.9122    8300.3157    170.55362    76.503022 
   70800    687.34381   -119.01714   0.62192312   -118.39521   -4883.8136    4.2480133    4.2480133    4.2480133   -4883.8136   -18547.358   -4624.1809    8520.0983    -7035.155   -23215.631    2531.0845    76.658019 
   70900    597.37265   -118.93544   0.54051533   -118.39492    251.73915    4.2503296    4.2503296    4.2503296    251.73915   -4035.2249   -12055.757    16846.199   -16652.248   -20720.182     1564.656    76.783488 
   71000    972.30165   -119.26532   0.87975897   -118.38556   -1213.9062    4.2529225    4.2529225    4.2529225   -1213.9062    56.189036   -19979.647     16281.74   -4766.4167    5288.0327   -1776.9697    76.924098 
   71100    839.60728   -119.14524   0.75969431   -118.38555    8937.7673    4.2489506    4.2489506    4.2489506    8937.7673   -105.84055    4294.4787    22624.664    1742.2436    -6688.333    -5587.693    76.708776 
   71200    544.67603   -118.88234   0.49283432    -118.3895    1880.6489    4.2510459    4.2510459    4.2510459    1880.6489   -15360.633    12802.216    8200.3636   -8908.5651   -23253.594   -1361.0129    76.822313 
   71300    909.72891   -119.20566   0.82314184   -118.38252   -19888.599    4.2585467    4.2585467    4.2585467   -19888.599   -32552.813   -11846.965    -15266.02   -4933.0724    481.24909    939.80871    77.229684 
   71400     1061.828   -119.33364   0.96076429   -118.37287   -8482.7605    4.2554213    4.2554213    4.2554213   -8482.7605    -3697.118   -3026.1741   -18724.989    2052.4535    9119.2695   -4686.4251    77.059767 
   71500    537.58144   -118.86824   0.48641498   -118.38183    16383.062    4.2543118    4.2543118    4.2543118    16383.062    4031.6576    45064.061    53.465853   -8445.6204   -20595.971   -4347.5994    76.999509 
   71600    675.09897   -118.98937   0.61084373   -118.37853    6031.9855    4.2590456    4.2590456    4.2590456    6031.9855   -3478.0827     34917.61   -13343.571   -15681.017   -15598.303    2586.8288    77.256829 
   71700    1148.7902   -119.40594    1.0394495   -118.36649   -14158.625    4.2556441    4.2556441    4.2556441   -14158.625   -9490.2768    -5375.774   -27609.824    2409.1516    10812.064    991.22192    77.071872 
   71800    702.46351   -119.00763   0.63560375   -118.37203    -14775.96    4.2550209    4.2550209    4.2550209    -14775.96   -14493.554   -9904.9741   -19929.352    7051.1559   -14828.656   -11345.284    77.038018 
   71900    540.00655   -118.86781   0.48860927    -118.3792    3409.1335    4.2514208    4.2514208    4.2514208    3409.1335   -8963.9155    8957.6112    10233.705   -3036.9847   -26841.606   -4924.1631    76.842641 
   72000    1021.6205   -119.30357   0.92438368   -118.37919    7244.1197    4.2498801    4.2498801    4.2498801    7244.1197    8949.3605    6831.3425    5951.6561   -6733.7696    4951.5918    1751.4234     76.75913 
   72100     922.8726   -119.21527   0.83503452   -118.38023   -2819.8711    4.2510776    4.2510776    4.2510776   -2819.8711    11498.516    2208.5578   -22166.687   -1498.2144    4550.9889    -5154.656    76.824031 
   72200    451.15525   -118.79667   0.40821475   -118.38846   -1976.0042    4.2479336    4.2479336    4.2479336   -1976.0042    3236.5623    7581.4491   -16746.024     2196.171   -27561.698   -12124.146    76.653705 
   72300    771.14034   -119.08949   0.69774399   -118.39174   -5859.9147    4.2480806    4.2480806    4.2480806   -5859.9147   -12351.953   -5795.1096    567.31864    371.23731   -18284.278    -5756.064    76.661662 
   72400    1284.5995   -119.54942    1.1623326   -118.38709   -5071.0415    4.2470649    4.2470649    4.2470649   -5071.0415    4464.8118   -16200.267   -3477.6694   -3944.0883    11141.153    6586.2816    76.606687 
   72500    883.37736   -119.19233    0.7992984   -118.39303   -745.20776    4.2457206    4.2457206    4.2457206   -745.20776    15605.439    3645.3182   -21486.381    1743.1993   -7359.7669    3697.7221    76.533971 
   72600     408.0746   -118.77035   0.36923447   -118.40111     2751.821    4.2429796    4.2429796    4.2429796     2751.821    10411.871    21409.847   -23566.255    1650.8043   -31780.203   -8142.4976    76.385837 
   72700    623.75231   -118.96649    0.5643842   -118.40211    1019.9171    4.2450383    4.2450383    4.2450383    1019.9171    8244.4644   -4175.2286   -1009.4845   -10103.999   -11829.703    -9673.194    76.497077 
   72800    936.58697    -119.2459   0.84744358   -118.39845   -7654.8019     4.247627     4.247627     4.247627   -7654.8019    2907.4188   -25401.327   -470.49774   -17350.771    11853.873    117.89756    76.637112 
   72900    919.58068   -119.22745   0.83205592   -118.39539     -227.105    4.2420427    4.2420427    4.2420427     -227.105    6487.6588   -2558.9061   -4610.0676   -1764.1959   -1609.4611    8041.0903    76.335244 
   73000    851.68239   -119.16659   0.77062013   -118.39597     -5672.14    4.2467812    4.2467812    4.2467812     -5672.14   -1309.4145   -3624.2511   -12082.754    8155.5641    -17966.93    2391.5933     76.59134 
   73100     792.3872   -119.11216   0.71696859   -118.39519    -4335.722    4.2475896    4.2475896    4.2475896    -4335.722    2212.3067   -10976.973   -4242.4995    -13972.55   -2895.1605   -7369.5188    76.635087 
   73200    710.20366   -119.03896    0.6426072   -118.39636   -432.10283     4.245648     4.245648     4.245648   -432.10283    5429.0722   -9292.0899    2566.7092   -18758.458    14108.783    -4542.349    76.530044 
   73300    738.48964   -119.06203   0.66820095   -118.39383   -1609.2665    4.2468065    4.2468065    4.2468065   -1609.2665   -3052.6383   -1722.7008   -52.460522     8864.681    6114.6568    765.98523    76.592709 
   73400    821.28919   -119.13447   0.74311972   -118.39135    5717.9067    4.2475337    4.2475337    4.2475337    5717.9067   -15593.803    6872.1533     25875.37    7025.8401   -6557.3382   -1309.8547     76.63206 
   73500    776.46919   -119.09351   0.70256564   -118.39095   -2621.4909    4.2535036    4.2535036    4.2535036   -2621.4909   -23288.941   -17114.409    32538.878   -25253.074   -3978.9436   -2590.7116    76.955631 
   73600    778.23066   -119.09307   0.70415945   -118.38891    7213.7371     4.244975     4.244975     4.244975    7213.7371    11454.954   -16002.496    26188.753   -13749.208    7720.4681    962.85696    76.493656 
   73700    983.75918   -119.27572   0.89012598   -118.38559   -8732.0207    4.2497951    4.2497951    4.2497951   -8732.0207   -15021.017   -6025.8788   -5149.1666    21012.936    9587.7027    4816.4785    76.754523 
   73800    759.47326   -119.07471   0.68718737   -118.38752   -9027.1324    4.2515162    4.2515162    4.2515162   -9027.1324    -35682.23    4595.4812    4005.3512   -4781.7807   -1239.3563    5418.3464    76.847814 
   73900    522.99402   -118.86407   0.47321598   -118.39086    11115.528    4.2441611    4.2441611    4.2441611    11115.528    -8139.149    18497.382    22988.351   -37258.101    -7022.195   -785.44115    76.449665 
   74000    927.30452    -119.2273   0.83904462   -118.38825   -2208.5427     4.252974     4.252974     4.252974   -2208.5427   -12936.195    20110.449   -13799.882   -7656.2353    3515.3187   -3600.7498    76.926891 
   74100     1165.874   -119.43824    1.0549073   -118.38334   -4654.8854    4.2492558    4.2492558    4.2492558   -4654.8854   -19433.789    21999.703    -16530.57    13977.384     7878.616    1938.6897    76.725304 
   74200    506.21402   -118.85288   0.45803309   -118.39485    5115.9622    4.2406216    4.2406216    4.2406216    5115.9622   -25485.404    16232.428    24600.864    -28883.84   -2895.1403    2075.0282    76.258555 
   74300    368.18782   -118.73518   0.33314408   -118.40204    488.50734    4.2445799    4.2445799    4.2445799    488.50734   -20576.305    11433.896    10607.932   -36976.534   -5204.3842     1373.405    76.472298 
   74400    979.29413    -119.2831   0.88608591   -118.39701    760.46253     4.246692     4.246692     4.246692    760.46253    4265.1961    20891.921    -22875.73    9482.7522    3101.5155    2819.5868    76.586512 
   74500    1026.5301   -119.32108   0.92882605   -118.39225   -5349.4806    4.2509281    4.2509281    4.2509281   -5349.4806   -14033.278    13714.386    -15729.55    5898.8069    4356.5882    3275.6214    76.815926 
   74600    582.12838   -118.92152   0.52672199    -118.3948    5976.1012    4.2419014    4.2419014    4.2419014    5976.1012   -23581.177    21961.524    19547.957   -36980.869    -4107.312   -10.962783    76.327618 
   74700    637.60953   -118.97322    0.5769225    -118.3963    7381.8955    4.2400328    4.2400328    4.2400328    7381.8955   -16700.175    31072.332    7773.5292   -20470.561   -2292.1327    -1815.626    76.226794 
   74800    836.95311    -119.1536   0.75729276   -118.39631   -5279.6554    4.2491741    4.2491741    4.2491741   -5279.6554   -14615.253    16444.694   -17668.407    24170.387    4467.2929    2470.3351     76.72088 
   74900    699.87798   -119.02975    0.6332643   -118.39648    5749.7133    4.2445882    4.2445882    4.2445882    5749.7133    614.17205    23112.138   -6477.1705    10332.893    1763.3466    8526.4711    76.472746 
   75000    786.49828   -119.10582   0.71164017   -118.39418   -263.34004    4.2460874    4.2460874    4.2460874   -263.34004   -13132.053    21906.813   -9564.7798   -26659.363   -3217.8351    7715.6051    76.553808 
   75100    908.11395   -119.21467   0.82168058   -118.39299   -4587.5486    4.2451648    4.2451648    4.2451648   -4587.5486   -25756.603    18875.975   -6882.0177   -3352.6029     622.4444    2265.0242    76.503917 
   75200    601.92282   -118.94343   0.54463242   -118.39879    3087.8363    4.2419474    4.2419474    4.2419474    3087.8363   -12970.197    17172.447     5061.259     32957.05    5173.9393    3476.4279    76.330101 
   75300    601.15377   -118.94325   0.54393656   -118.39931   -4919.5701    4.2470215    4.2470215    4.2470215   -4919.5701   -13907.528    15197.609   -16048.791    8349.9532   -2425.1822    8065.8726    76.604339 
   75400    920.05892   -119.22579   0.83248864    -118.3933    -472.8702    4.2442682    4.2442682    4.2442682    -472.8702   -5129.2819    33557.468   -29846.797    -16247.21   -7146.1719    2424.4784    76.455453 
   75500    850.33582   -119.16727   0.76940172   -118.39787    792.41089    4.2434216    4.2434216    4.2434216    792.41089   -6476.8349    17065.058   -8210.9905    17682.198    734.34119   -3093.7677     76.40971 
   75600    651.58708    -118.9897   0.58956968   -118.40013    2009.8512    4.2435688    4.2435688    4.2435688    2009.8512   -18339.056    12224.269    12144.341    33309.903    2405.4051   -526.85923    76.417663 
   75700    788.10997   -119.10945   0.71309847   -118.39635   -5103.4652    4.2457101    4.2457101    4.2457101   -5103.4652   -21659.118    18887.364   -12538.641   -2185.1893    -2275.882     2477.243    76.533402 
   75800    902.31304   -119.21207    0.8164318   -118.39564   -3697.7654    4.2449467    4.2449467    4.2449467   -3697.7654    13896.786    6858.3099   -31848.393    -12124.71   -4863.8307   -257.72536    76.492127 
   75900    712.23531   -119.04404   0.64444548   -118.39959    3329.7355    4.2417214    4.2417214    4.2417214    3329.7355    13746.548     5988.974   -9746.3156    19366.647   -2027.5332   -1227.0589      76.3179 
   76000    587.00101   -118.93219   0.53113085   -118.40106   -4117.9902    4.2451864    4.2451864    4.2451864   -4117.9902   -30577.152    17873.464    349.71702    24676.525    8675.4844    616.84923    76.505083 
   76100    892.14421   -119.20188   0.80723083   -118.39465   -3669.5166    4.2448528    4.2448528    4.2448528   -3669.5166   -22023.518    23672.259    -12657.29   -3860.8543    6842.6455    771.34169    76.487051 
   76200     1003.561   -119.30339   0.90804307   -118.39535   -545.55753    4.2453379    4.2453379    4.2453379   -545.55753    7844.5186    14063.973   -23545.164   -8663.9987   -5484.1924   -1485.1629    76.513277 
   76300    614.88186   -118.95532   0.55635803   -118.39897    921.62821    4.2464641    4.2464641    4.2464641    921.62821    13055.527    5739.3099   -16029.952    19297.378   -1302.5604   -826.98176     76.57418 
   76400    509.39199   -118.85814   0.46090858   -118.39724    2590.7413    4.2458176    4.2458176    4.2458176    2590.7413   -8045.3911     27985.22   -12167.605    18363.168    10022.407    1660.7026    76.539217 
   76500    927.85363   -119.23048   0.83954146   -118.39094   -1097.4681    4.2476046    4.2476046    4.2476046   -1097.4681   -14679.451    27905.677   -16518.631   -10110.299     3932.816    3569.0664    76.635899 
   76600    1069.9564   -119.35771   0.96811901    -118.3896    4030.0341    4.2452215    4.2452215    4.2452215    4030.0341    16326.035   -3016.0522   -1219.8808   -7746.9992   -2959.5724   -1628.8969    76.506982 
   76700    618.70435   -118.95524    0.5598167   -118.39543    2568.9133    4.2471373    4.2471373    4.2471373    2568.9133    10118.454    -3347.753    936.03839    12259.607    7834.9416   -2439.1281    76.610607 
   76800    454.50041   -118.80884   0.41124152    -118.3976   -3948.8359    4.2485438    4.2485438    4.2485438   -3948.8359   -11481.516    21706.928    -22071.92    11027.278     14860.62   -318.37048    76.686747 
   76900    1038.8648   -119.33209   0.93998671   -118.39211   -6695.6626    4.2457157    4.2457157    4.2457157   -6695.6626    4631.0783    4304.8922   -29022.958   -2297.9109   -699.40923   -49.322905    76.533705 
   77000    1192.1561   -119.46717    1.0786879   -118.38848   -10143.473    4.2493014    4.2493014    4.2493014   -10143.473    3094.7534   -27655.697   -5869.4763    2247.5581   -7576.5085   -3649.3502    76.727775 
   77100    549.12565   -118.89148   0.49686043   -118.39462     1998.479    4.2519791    4.2519791    4.2519791     1998.479    -13232.17   -5134.7647    24362.372    14219.121     14013.53   -3708.5535    76.872915 
   77200    448.30363   -118.79867   0.40563455   -118.39303    12495.721    4.2500589    4.2500589    4.2500589    12495.721   -5081.9101    21194.619    21374.454    4489.2553    17458.048    4562.5892    76.768816 
   77300    961.25913   -119.25577   0.86976746     -118.386    7955.8305     4.249402     4.249402     4.249402    7955.8305     5026.776    11320.258    7520.4576   -2435.8545   -7731.8917    8542.6633    76.733226 
   77400    973.75991   -119.26157   0.88107843   -118.38049    -11731.21    4.2554743    4.2554743    4.2554743    -11731.21   -13851.414   -18239.857    -3102.358    10417.826    -6207.612    788.92918    77.062645 
   77500    638.91952   -118.96301   0.57810781    -118.3849   -6948.0577    4.2501247    4.2501247    4.2501247   -6948.0577   -12474.916    -323.2802   -8045.9773    7738.9513    19313.287    -6005.359    76.772383 
   77600    837.05058   -119.14291   0.75738095   -118.38553   -1130.5366    4.2463828    4.2463828    4.2463828   -1130.5366   -8514.4284    25665.927   -20543.108   -1145.7166    14540.184   -1137.5088    76.569786 
   77700    1069.0352   -119.35215   0.96728554   -118.38486   -3653.1795    4.2490653    4.2490653    4.2490653   -3653.1795   -8065.1966   -4505.5337    1611.1919   -201.37024   -7635.6819    6374.9635    76.714988 
   77800    684.63261   -119.00943   0.61946998   -118.38996    929.20992    4.2473613    4.2473613    4.2473613    929.20992   -18712.013     -976.651    22476.294    3045.5454    1716.3293    7750.0418    76.622729 
   77900    447.07761   -118.80171   0.40452522   -118.39719    5165.4459    4.2450768    4.2450768    4.2450768    5165.4459   -33258.497    37209.495     11545.34    5193.7217    24397.497    370.95077    76.499157 
   78000    878.41102   -119.19001   0.79480475    -118.3952   -1277.5813    4.2468466    4.2468466    4.2468466   -1277.5813   -17206.917    27120.584   -13746.412    2612.9324    11087.666    2323.9612    76.594877 
   78100    1083.3152   -119.36892   0.98020633   -118.38871   -5458.7408    4.2506574    4.2506574    4.2506574   -5458.7408    11441.904   -5342.4936   -22475.633    2986.2544    -9725.789    11824.088    76.801256 
   78200    625.76717   -118.95842   0.56620728   -118.39221   -1905.4769    4.2491049    4.2491049    4.2491049   -1905.4769    6037.5268     2499.974   -14253.931    7593.9929    9162.8491    3972.9573    76.717131 
   78300    559.59009   -118.89927   0.50632887   -118.39294    2807.6211    4.2436101    4.2436101    4.2436101    2807.6211   -12998.174    26669.622    -5248.584     5150.647    27866.449   -6138.4785    76.419891 
   78400    992.85335    -119.2897   0.89835457   -118.39134   -6974.0861    4.2481824    4.2481824    4.2481824   -6974.0861   -18624.436    6193.1839   -8491.0064   -1620.6843     7904.617    2144.0096    76.667174 
   78500     1148.828   -119.42813    1.0394837   -118.38864   -9981.1417    4.2474528    4.2474528    4.2474528   -9981.1417    4911.5495   -17111.697   -17743.278   -3034.8364   -12151.027    11142.719    76.627682 
   78600    621.23078   -118.95835   0.56210266   -118.39625    -2558.872    4.2435853    4.2435853    4.2435853    -2558.872    349.87846    17974.882   -26001.377    6321.7298    7801.1621    4574.1196    76.418555 
   78700    392.20704   -118.75588   0.35487717     -118.401   -832.07659    4.2469567    4.2469567    4.2469567   -832.07659   -13105.678    31006.701   -20397.253    8134.3811    25355.279   -5142.9315    76.600834 
   78800    1075.4377   -119.36945    0.9730786   -118.39637    764.08982    4.2455504    4.2455504    4.2455504    764.08982    8247.0196    6722.1348   -12676.885   -4286.9738    4036.5118   -1295.0294    76.524763 
   78900    1384.2844   -119.64599    1.2525296   -118.39346   -2737.3725    4.2424229    4.2424229    4.2424229   -2737.3725    6876.3013    1554.5084   -16642.927   -998.07624   -7839.3719    5352.1632     76.35577 
   79000    563.09928   -118.91611   0.50950407    -118.4066    5367.6443    4.2391616    4.2391616    4.2391616    5367.6443    4607.1352    27541.549   -16045.751    5336.7031    14470.083    3888.3564    76.179815 
   79100    250.07811   -118.63768   0.22627593   -118.41141   -611.84634     4.244908     4.244908     4.244908   -611.84634    1521.8166    27213.217   -30570.573    9367.5787    19409.728   -7713.1624    76.490033 
   79200     970.4945   -119.28266   0.87812382   -118.40454   -6419.7783    4.2466869    4.2466869    4.2466869   -6419.7783    13833.474    37.860012   -33130.669    5713.3189   -4810.9781   -7795.2378    76.586234 
   79300    1163.9697   -119.45051    1.0531842   -118.39733   -1708.3074    4.2418624    4.2418624    4.2418624   -1708.3074    11530.729    1041.2969   -17696.949   -5971.3885   -4919.6245    7198.2534    76.325512 
   79400    559.75625   -118.90714   0.50647922   -118.40066     2395.662    4.2434967    4.2434967    4.2434967     2395.662   -4557.5502    25187.586    -13443.05    4807.3311     21541.62    2817.5845    76.413766 
   79500    584.08534   -118.92952   0.52849269   -118.40103    2080.6648    4.2500188    4.2500188    4.2500188    2080.6648    6596.0072    17783.346   -18137.358    14733.313    16371.378   -6153.8539    76.766642 
   79600    1123.6249   -119.40912    1.0166794   -118.39245   -2565.8301     4.247837     4.247837     4.247837   -2565.8301    16684.582    -2471.215   -21910.857    2241.1543   -8454.6612    1534.6997    76.648479 
   79700    963.83513    -119.2587   0.87209828    -118.3866   -2301.7686    4.2457877    4.2457877    4.2457877   -2301.7686    3118.8268     1132.261   -11156.394   -6091.0726   -1105.3876    13226.438    76.537598 
   79800    388.85994   -118.74345   0.35184865    -118.3916   -6071.0134    4.2551451    4.2551451    4.2551451   -6071.0134   -29328.909    16153.925   -5038.0563    2456.0439    17895.602    5174.8533    77.044761 
   79900    747.41917   -119.06257   0.67628057   -118.38629    3073.8312    4.2507709    4.2507709    4.2507709    3073.8312   -22595.018    12336.103    19480.409     17357.09    6531.9257    -11161.09    76.807404 
   80000    1207.4906   -119.47322    1.0925629   -118.38066    8293.6984      4.24578      4.24578      4.24578    8293.6984   -1222.5523   -2523.2401    28626.888    2531.2773   -9952.5661   -850.07586     76.53718 
   80100    610.43335   -118.93891   0.55233292   -118.38658   -5032.1868    4.2528069    4.2528069    4.2528069   -5032.1868   -20207.372      3188.49    1922.3218   -6067.1869    11996.297         7816    76.917826 
   80200     298.7451   -118.66361   0.27031084    -118.3933    4472.5642    4.2463693    4.2463693    4.2463693    4472.5642   -12568.563    15126.508    10859.748    12036.426    22006.617     4066.095    76.569052 
   80300    1045.2227   -119.33714   0.94573945    -118.3914   -2929.5166     4.245782     4.245782     4.245782   -2929.5166   -4660.8529   -14073.358    9945.6611    15630.071   -4320.9143    478.96043     76.53729 
   80400    1259.9783   -119.52898    1.1400548   -118.38892   -4770.4656    4.2461053    4.2461053    4.2461053   -4770.4656    8297.8191   -10271.456    -12337.76   -4702.2931   -11683.656   -318.22648    76.554772 
   80500    555.14772   -118.89837   0.50230933   -118.39606    434.54606    4.2461338    4.2461338    4.2461338    434.54606   -134.10112    18238.638   -16800.899   -6574.6256    13941.368    6315.0806    76.556318 
   80600    454.85959   -118.81137   0.41156652    -118.3998    4354.6458    4.2461812    4.2461812    4.2461812    4354.6458   -351.98294    11338.667    2077.2531    16161.074     23490.12    6895.4993    76.558879 
   80700    1067.0492   -119.36009   0.96548853    -118.3946    2644.2489     4.246101     4.246101     4.246101    2644.2489    12489.726   -7311.8746    2754.8957     19475.07    1580.8735   -87.593041    76.554544 
   80800    968.60466   -119.26845   0.87641386   -118.39203   -6976.7784    4.2483341    4.2483341    4.2483341   -6976.7784    2688.7487    -1993.042   -21626.042   -4443.9529   -8828.7908   -4746.6072    76.675391 
   80900    426.50136   -118.78218   0.38590739   -118.39627   -478.06096    4.2435614    4.2435614    4.2435614   -478.06096   -3166.7148     25113.03   -23380.498    -12268.83    12695.916    1580.4343    76.417261 
   81000    708.33195   -119.04061   0.64091363   -118.39969   -63.445975    4.2457568    4.2457568    4.2457568   -63.445975     5054.378    15799.306   -21044.022    7410.7383    18418.993    9156.0736    76.535926 
   81100    1197.6131   -119.47774    1.0836255   -118.39411    -6323.471    4.2473519    4.2473519    4.2473519    -6323.471    12158.361   -14442.341   -16686.432    9649.7042   -3935.9119    8693.5705    76.622222 
   81200    849.44469   -119.16224   0.76859541   -118.39364     4296.266    4.2412488    4.2412488    4.2412488     4296.266    13526.846    12049.682    -12687.73   -8702.3572   -2705.8478   -771.51196    76.292393 
   81300    385.81282    -118.7507   0.34909155   -118.40161   -5549.0363    4.2477078    4.2477078    4.2477078   -5549.0363   -11427.305    28904.368   -34124.172   -18425.961     20136.81   -2739.7091    76.641483 
   81400    750.41862   -119.08054   0.67899453   -118.40154    3028.0622     4.243179     4.243179     4.243179    3028.0622    15520.891    24628.246   -31064.951   -6388.8012    12017.818    5116.0637    76.396606 
   81500    1150.5663   -119.43591    1.0410566   -118.39486    121.12823    4.2433568    4.2433568    4.2433568    121.12823    24421.426    371.04467   -24429.086    5441.3343   -9195.7139     4568.068    76.406209 
   81600    774.05474   -119.09501   0.70038099   -118.39463   -3914.7317    4.2467527    4.2467527    4.2467527   -3914.7317    9531.7403    3812.7427   -25088.678   -8502.9943    6255.6207   -3538.1482    76.589799 
   81700    537.54597   -118.88596   0.48638289   -118.39957    2610.3862     4.244682     4.244682     4.244682    2610.3862     11614.38    19133.944   -22917.165   -14602.993    19682.563   -3170.2074    76.477814 
   81800    936.13831   -119.24434   0.84703762    -118.3973   -9616.5791    4.2471291    4.2471291    4.2471291   -9616.5791   -4052.2921    5770.4533   -30567.898   -3952.0745    752.06964    6528.6602    76.610163 
   81900    1098.6021   -119.38576    0.9940383   -118.39172   -2826.5437    4.2412418    4.2412418    4.2412418   -2826.5437     3448.289    10723.738   -22651.658    6245.0301   -11347.396    2752.1308    76.292018 
   82000    655.64134   -118.99237   0.59323806   -118.39913   -7474.1844    4.2440635    4.2440635    4.2440635   -7474.1844    -18630.64    8687.0863       -12479    769.42307    3948.3758   -7018.5734     76.44439 
   82100    485.83919   -118.84633   0.43959751   -118.40673     3750.456    4.2427848    4.2427848    4.2427848     3750.456   -11077.931    24672.702    -2343.403   -14997.582    15648.517   -3763.9948    76.375312 
   82200    895.25408   -119.21585   0.81004471   -118.40581    2971.1956    4.2450847    4.2450847    4.2450847    2971.1956    -3886.277     27560.03   -14760.166   -12975.611     4450.798    2805.2822    76.499587 
   82300    1153.5196   -119.43861    1.0437288   -118.39488   -4301.9253     4.244991     4.244991     4.244991   -4301.9253   -15967.452      20786.4   -17724.723    3345.2223   -5016.8835     3292.311    76.494522 
   82400    802.90651   -119.12726   0.72648668   -118.40077    3570.8664    4.2410896    4.2410896    4.2410896    3570.8664   -16583.819    28557.224   -1260.8066    4740.6536    3472.6401   -4248.5647    76.283805 
   82500    573.03816   -118.92567   0.51849697   -118.40717   -4476.5523     4.246456     4.246456     4.246456   -4476.5523   -22927.758    15456.768   -5958.6667   -9110.4601    13420.288   -6851.2405    76.573743 
   82600    663.20659   -119.00421   0.60008326   -118.40413    4867.9359    4.2392393    4.2392393    4.2392393    4867.9359   -8195.9457    26056.678   -3256.9249   -9350.4225    5121.4632    6225.7483    76.184002 
   82700    721.22819   -119.05251   0.65258242   -118.39993   -178.14324    4.2442029    4.2442029    4.2442029   -178.14324   -2539.0219     18336.91   -16332.318    5978.4906   -5297.3386    19871.783    76.451922 
   82800    893.32614   -119.20567   0.80830026   -118.39737   -3279.5121     4.246667     4.246667     4.246667   -3279.5121   -6645.7105    20966.609   -24159.435    3049.8323    1912.8615    7016.8792    76.585157 
   82900    920.87362   -119.23238    0.8332258   -118.39915    7923.2467    4.2410949    4.2410949    4.2410949    7923.2467   -2569.5421    31751.694    -5412.412   -10666.448    9537.4503   -8150.7441    76.284089 
   83000    664.05974    -118.9989   0.60085521   -118.39804   -4707.5225     4.247855     4.247855     4.247855   -4707.5225   -15594.747    11183.201   -9711.0215   -14068.296    2851.4925     4175.063    76.649453 
   83100     797.8356   -119.11475   0.72189842   -118.39285   -2666.6427    4.2460489    4.2460489    4.2460489   -2666.6427   -2268.6277    12258.661   -17989.962    1321.0363   -6611.5155    10066.109    76.551724 
   83200    949.64647   -119.25355   0.85926008   -118.39429   -2420.7671    4.2485415    4.2485415    4.2485415   -2420.7671    107.82706    1920.2536   -9290.3821    6506.2251    1300.4191   -4963.2842     76.68662 
   83300    560.91825   -118.90506   0.50753062   -118.39753    5017.1708    4.2482645    4.2482645    4.2482645    5017.1708    5008.2561   -26.031318    10069.287   -11873.034    17948.664   -5141.1694     76.67162 
   83400    601.58074   -118.93858    0.5443229   -118.39426    2270.6024     4.247569     4.247569     4.247569    2270.6024   -1117.4217    2517.1525    5412.0762   -13513.815    8660.7149    4843.5056     76.63397 
   83500    1200.1327   -119.47166    1.0859053   -118.38575   -7653.2546     4.250112     4.250112     4.250112   -7653.2546    1956.9655   -10351.134   -14565.595    5423.1006   -7005.6878     4240.543    76.771694 
   83600    974.42399   -119.27457    0.8816793   -118.39289   -3943.8347      4.24706      4.24706      4.24706   -3943.8347     7424.389    4306.1705   -23562.064   -2735.6707    2921.2906   -1979.6873    76.606423 
   83700    373.64797    -118.7372   0.33808453   -118.39911    1052.3322    4.2459347    4.2459347    4.2459347    1052.3322   -247.28901    23857.894   -20453.609   -17766.774    14194.318   -6078.7853     76.54555 
   83800    697.68325   -119.02493   0.63127846   -118.39365   -3297.9738    4.2474638    4.2474638    4.2474638   -3297.9738   -5294.1517    -3782.018   -817.75173   -6850.7229     4015.629   -4377.2109    76.628276 
   83900    1155.2353   -119.43499    1.0452812    -118.3897    2696.3679    4.2477617    4.2477617    4.2477617    2696.3679   -3824.5877    -13926.91    25840.601    13308.708   -6606.9244   -989.36459    76.644402 
   84000    858.72315   -119.17062   0.77699075   -118.39363    5038.0052    4.2493101    4.2493101    4.2493101    5038.0052   -5989.7528    3911.0122    17192.756   -467.25841    4050.6957     3376.309    76.728247 
   84100    454.63827   -118.80433   0.41136626   -118.39297    2566.2925    4.2490474    4.2490474    4.2490474    2566.2925    2370.1613    12884.948   -7556.2317   -19433.728    12417.538    1068.7405    76.714018 
   84200    724.05583   -119.04268   0.65514093   -118.38754    -6101.941    4.2510141    4.2510141    4.2510141    -6101.941   -6983.1468   -3352.7989   -7969.8772    2853.7743   -417.10569   -7736.4434    76.820588 
   84300    1101.7335   -119.38192    0.9968716   -118.38505   -5746.1363    4.2490863    4.2490863    4.2490863   -5746.1363   -9845.5636    -7219.275   -173.57033    21926.615   -6197.2799   -4473.2459    76.716122 
   84400    936.73161   -119.23374   0.84757445   -118.38616   -4791.4191    4.2492349    4.2492349    4.2492349   -4791.4191   -10671.673    -1607.923    -2094.661    -5851.954    7868.7877    3969.2993    76.724175 
   84500    632.49407   -118.96002   0.57229393   -118.38773   -439.18953    4.2477778    4.2477778    4.2477778   -439.18953   -8370.8785    2949.7594    4103.5505   -14879.984    10723.542   -25.006035    76.645273 
   84600    701.10146   -119.02455   0.63437134   -118.39018    503.00614    4.2478031    4.2478031    4.2478031    503.00614   -10402.257   -14500.066    26411.341    16752.734    743.93803   -12688.784    76.646643 
   84700    872.87725   -119.18227   0.78979768   -118.39248    1486.0061    4.2465474    4.2465474    4.2465474    1486.0061   -1544.3488   -23843.049    29845.416    17142.999   -8063.8806   -2845.2378     76.57869 
   84800    735.11232   -119.05716   0.66514508   -118.39201    4875.4891    4.2425165    4.2425165    4.2425165    4875.4891    2712.9376   -3169.7715    15083.301   -10728.255   -1309.4082    15398.997    76.360828 
   84900    622.08806     -118.958   0.56287835   -118.39512    498.82456    4.2468076    4.2468076    4.2468076    498.82456   -8335.2099   -4399.7654    14231.449   -4456.9441    10609.726    5773.0655    76.592767 
   85000    824.53368   -119.14199    0.7460554   -118.39593    3230.2482    4.2473904    4.2473904    4.2473904    3230.2482   -12554.302   -18749.319    40994.365    18196.518    7087.2849    -10769.65    76.624306 
   85100    964.49364   -119.26546   0.87269411   -118.39276    2050.7873    4.2460603    4.2460603    4.2460603    2050.7873   -6640.9448   -18531.627    31324.933    5055.4021   -4199.4918    5364.1569    76.552342 
   85200    687.12546    -119.0119   0.62172556   -118.39017   -7573.6441    4.2491042    4.2491042    4.2491042   -7573.6441    3330.5559   -18817.744   -7233.7445   -11531.414    1127.7644    24651.388    76.717095 
   85300    639.95484    -118.9721   0.57904459   -118.39306   -189.04109    4.2439577    4.2439577    4.2439577   -189.04109   -2387.6087   -12113.251    13933.736    9872.9053    10869.178    6831.6612    76.438671 
   85400    1013.1149   -119.30977   0.91668767   -118.39308   -5965.0422    4.2462205    4.2462205    4.2462205   -5965.0422   -18641.354    -11536.08    12282.307    19481.864    7893.0319   -10350.858    76.561004 
   85500    1004.3027   -119.29807   0.90871416   -118.38935   -12181.115    4.2491701    4.2491701    4.2491701   -12181.115   -5430.6251   -10789.823   -20322.897   -4164.6187    130.19381    8860.2875    76.720665 
   85600     689.1974   -119.01497   0.62360029   -118.39137   -2900.6206    4.2448805    4.2448805    4.2448805   -2900.6206    7477.1779   -3400.8794    -12778.16   -8119.7086    439.02127    23218.113    76.488548 
   85700    706.93234   -119.03287   0.63964724   -118.39322    -3747.162    4.2494329    4.2494329    4.2494329    -3747.162   -16688.619   -6596.3619    12043.495    12623.044    5685.3981     7049.599    76.734901 
   85800    949.34466   -119.24958     0.858987    -118.3906    2542.0764    4.2480833    4.2480833    4.2480833    2542.0764    -14982.21     3803.085    18805.355     14521.18    7009.4676   -4449.1285     76.66181 
   85900    800.74879   -119.11337   0.72453433   -118.38884    2499.7221    4.2461422    4.2461422    4.2461422    2499.7221    2101.6861    10211.921   -4814.4405   -5243.4008    -1881.972    11405.425    76.556769 
   86000    616.15262   -118.94984   0.55750784   -118.39233    -189.4796    4.2473564    4.2473564    4.2473564    -189.4796    5801.1355    1380.5077    -7750.082   -12119.392   -2590.1548    18305.627    76.622465 
   86100    896.59185   -119.20203   0.81125515   -118.39078   -926.61453    4.2458798    4.2458798    4.2458798   -926.61453   -1029.7805   -3820.9789    2070.9158    4243.0802    3429.0278   -1321.7231    76.542575 
   86200    1129.4065    -119.4116    1.0219107   -118.38969   -5043.7066    4.2454159    4.2454159    4.2454159   -5043.7066   -2919.5113    1489.8185   -13701.427    7610.6382    9304.2297   -8346.2156    76.517494 
   86300    750.91585   -119.07281   0.67944444   -118.39337   -1550.7382    4.2462188    4.2462188    4.2462188   -1550.7382    13247.854    8097.9361   -25998.004   -7204.2241    2547.8938    10227.397    76.560911 
   86400    494.41793   -118.84421   0.44735973   -118.39685   -2054.3923    4.2475326    4.2475326    4.2475326   -2054.3923     888.0933    7191.0543   -14242.324   -11502.947   -4939.9586    16231.448    76.632001 
   86500     883.1083   -119.19231   0.79905495   -118.39326   -5413.8836    4.2471123    4.2471123    4.2471123   -5413.8836   -19862.332    10459.821   -6839.1395   -6429.6089    8559.8448   -2894.0001    76.609255 
   86600    1252.7951   -119.52347    1.1335553   -118.38992   -1234.8015    4.2428142    4.2428142    4.2428142   -1234.8015    748.03197    7856.0782   -12308.515   -333.78973    10236.296   -1244.7801    76.376901 
   86700    706.27129   -119.03664   0.63904911   -118.39759   -510.38416     4.244008     4.244008     4.244008   -510.38416    15056.765    10115.688   -26703.605    70.335767   -5298.6869    17263.441     76.44139 
   86800    325.47125   -118.69756   0.29449323   -118.40307    211.47089    4.2466236    4.2466236    4.2466236    211.47089    7438.4946    13880.673   -20684.755   -8968.1873    -6772.241    12438.291    76.582811 
   86900     950.8147   -119.25664   0.86031712   -118.39632    880.99734    4.2462676    4.2462676    4.2462676    880.99734    1174.3456    10910.955   -9442.3082   -8886.9055    321.50264   -5964.5761    76.563552 
   87000    1224.2597   -119.49723    1.1077359   -118.38949   -3101.1116    4.2488968    4.2488968    4.2488968   -3101.1116     27.02298    6732.6808   -16063.039    5585.8468    4412.1445   -3965.2838    76.705863 
   87100     460.3202   -118.81181   0.41650739    -118.3953   -1536.6547    4.2482755    4.2482755    4.2482755   -1536.6547    2256.2785    11557.964   -18424.206    5728.3671    622.98986    14284.461    76.672217 
   87200    399.22199   -118.75871   0.36122445   -118.39749    4148.1729    4.2460973    4.2460973    4.2460973    4148.1729    10171.587    14891.148   -12618.217   -5869.4929   -7335.7767    10363.627    76.554342 
   87300    1225.6255   -119.49817    1.1089717    -118.3892    -6213.736    4.2493093    4.2493093    4.2493093    -6213.736   -4555.2613    7205.6646   -21291.611   -8092.0178   -4465.2798   -6335.6204    76.728201 
   87400    1044.8784   -119.33323   0.94542794   -118.38781   -1583.1624     4.246876     4.246876     4.246876   -1583.1624    5507.8183     4275.868   -14533.174    3321.4918    2315.0783    -12.55554    76.596468 
   87500    322.18499    -118.6869   0.29151975   -118.39538   -533.12515    4.2483834    4.2483834    4.2483834   -533.12515    12296.809    -1844.537   -12051.648    6985.5727   -3386.0497     13812.39     76.67806 
   87600    681.12001   -119.00909    0.6162917    -118.3928    1920.5166    4.2473122    4.2473122    4.2473122    1920.5166    17132.665    2042.9246    -13414.04   -5958.3129   -5765.6722    8000.5096    76.620071 
   87700    1187.6211   -119.46328    1.0745846   -118.38869    3504.0186    4.2444694    4.2444694    4.2444694    3504.0186    21651.196    749.17125   -11888.312   -5767.2645    7759.4003   -3455.3601    76.466324 
   87800    649.01503   -118.98094   0.58724244   -118.39369   -684.76006    4.2469918    4.2469918    4.2469918   -684.76006    14425.099   -6734.4123   -9744.9668    8712.8635    15096.099    3228.8709    76.602736 
   87900    329.39624   -118.69639   0.29804464   -118.39835   -2247.8508    4.2458188    4.2458188    4.2458188   -2247.8508    8526.8966   -10281.584   -4988.8655    9465.0779    1435.7157     14177.63    76.539282 
   88000    996.75015   -119.29781   0.90188048   -118.39593   -2260.4133    4.2429587    4.2429587    4.2429587   -2260.4133    13068.385   -16561.921    -3287.704   -3419.4995   -8362.4307    7145.6013    76.384707 
   88100    1318.0172   -119.58511    1.1925696   -118.39254   -5417.0939    4.2468332    4.2468332    4.2468332   -5417.0939    8080.1143   -10742.268   -13589.128   -5595.5361    846.17725   -5435.8616    76.594155 
   88200     590.8237   -118.93333    0.5345897   -118.39874    1411.9731    4.2467381    4.2467381    4.2467381    1411.9731     658.0572    3323.6628    254.19913    10118.727    7925.8008    3451.9859    76.589008 
   88300    304.51205   -118.67631    0.2755289   -118.40079    5759.7914    4.2463275    4.2463275    4.2463275    5759.7914    11366.682   -9108.9212    15021.614    5222.9053    4331.1392    19111.003    76.566795 
   88400     951.2885   -119.25516   0.86074583   -118.39441   -2235.8762     4.247262     4.247262     4.247262   -2235.8762    7729.6412   -16200.854    1763.5847   -10717.239   -4325.6826    7853.6617    76.617356 
   88500    1106.1778   -119.39157    1.0008929   -118.39068    -2583.502    4.2445339    4.2445339    4.2445339    -2583.502    3993.4184    2636.8263   -14380.751   -8597.4125   -11953.162   -8889.5152     76.46981 
   88600     711.6966   -119.03664   0.64395804   -118.39268   -1388.8817    4.2443482    4.2443482    4.2443482   -1388.8817    7094.8484     4790.033   -16051.527    1456.4149    2253.7986    -1868.198    76.459774 
   88700    754.95442   -119.07748   0.68309862   -118.39438   -3649.8142      4.24382      4.24382      4.24382   -3649.8142    8429.6933   -7025.4526   -12353.683    6114.5729    10686.305     11936.73    76.431234 
   88800    892.77383   -119.20628   0.80780053   -118.39848   -2041.1026    4.2442589    4.2442589    4.2442589   -2041.1026    7656.1128   -5284.5546   -8494.8661   -2268.1667   -14031.088    5296.4971     76.45495 
   88900    766.52532   -119.09222   0.69356822   -118.39865    -51.48777    4.2439788    4.2439788    4.2439788    -51.48777    2489.8497    9491.6016   -12135.915   -6733.8695   -23693.328   -7302.3809    76.439812 
   89000    613.01732   -118.95177   0.55467095    -118.3971    1904.7106    4.2455359    4.2455359    4.2455359    1904.7106    8471.0779    14151.489   -16908.435    1265.5067   -3340.5841    -5326.178    76.523982 
   89100    733.69919   -119.06107   0.66386645    -118.3972    3230.0272    4.2474984    4.2474984    4.2474984    3230.0272    13287.765    2909.5085   -6507.1919    9881.2843    1553.1168    6677.0788     76.63015 
   89200     984.4241   -119.28406   0.89072761   -118.39333   -1608.2663    4.2478998    4.2478998    4.2478998   -1608.2663    6211.8701    635.52881   -11672.198    8084.4558   -11146.869    5381.3516    76.651874 
   89300    1023.5744   -119.31195   0.92615161    -118.3858   -11258.484    4.2525179    4.2525179    4.2525179   -11258.484   -21033.727    7295.6875   -20037.412    -7072.616   -6886.4335   -7050.8234    76.902143 
   89400    592.67515   -118.92378   0.53626493   -118.38751    5235.0195    4.2510815    4.2510815    4.2510815    5235.0195   -4847.1011     15460.22    5091.9398   -419.93161    585.43668    320.42502    76.824245 
   89500    467.67592   -118.81258     0.423163   -118.38942    11439.339    4.2525521    4.2525521    4.2525521    11439.339    3266.8162    6856.9902    24194.211    14331.811   -5836.9105    11538.093    76.904001 
   89600    1036.0563    -119.3218   0.93744548   -118.38435   -2105.2492    4.2513558    4.2513558    4.2513558   -2105.2492   -15482.328    1510.9012    7655.6786    2160.2508   -3088.9185    3505.8083    76.839116 
   89700    1105.8624   -119.37769    1.0006075   -118.37708   -12387.078    4.2489631    4.2489631    4.2489631   -12387.078   -23691.936    9527.8297   -22997.128   -10376.026    5371.6993   -1120.0208     76.70945 
   89800    556.16295   -118.88995   0.50322793   -118.38673   -5461.9911    4.2520381    4.2520381    4.2520381   -5461.9911     6586.166    4298.1286   -27270.268    2608.4784    107.29357    8954.9302    76.876116 
   89900    598.11143     -118.931   0.54118379   -118.38981    11437.358    4.2478172    4.2478172    4.2478172    11437.358    26548.317    8390.7025   -626.94396    10352.343   -7482.2456    3930.2451    76.647406 
   90000    984.55251   -119.27844    0.8908438   -118.38759     5579.935    4.2481951    4.2481951    4.2481951     5579.935    5438.7828    9612.9305    1688.0916   -5947.0168   -3181.5983   -6317.9144    76.667865 
   90100    866.94433   -119.16793   0.78442945    -118.3835   -13097.761    4.2528175    4.2528175    4.2528175   -13097.761   -18490.606    1764.1806   -22566.858   -19007.188    2685.1568    2204.1655    76.918399 
   90200    696.61731   -119.01668   0.63031398   -118.38637   -5948.7579    4.2462929    4.2462929    4.2462929   -5948.7579   -12430.535    15035.249   -20450.988    2265.4235   -2148.1335    8974.1841    76.564924 
   90300    850.51827    -119.1595    0.7695668   -118.38993    48.713239     4.246573     4.246573     4.246573    48.713239    433.44879    4309.1311   -4596.4402    10071.418   -4169.1698   -3240.0567    76.580075 
   90400    795.41257    -119.1112   0.71970601   -118.39149   -975.69206    4.2483059    4.2483059    4.2483059   -975.69206   -17137.797    3834.9101     10375.81   -18211.438   -2356.1687   -6739.3789    76.673865 
   90500    651.53938   -118.98122   0.58952653   -118.39169   -2093.3836    4.2454193    4.2454193    4.2454193   -2093.3836   -29525.204    19934.714    3310.3397   -22593.627    -4785.622    4284.5956    76.517674 
   90600    978.67016   -119.27584   0.88552133   -118.39032   -3812.9592    4.2447209    4.2447209    4.2447209   -3812.9592   -18588.012    19878.081   -12728.947    5811.7585   -8367.9944    5659.1748    76.479919 
   90700    1025.8977   -119.32206   0.92825384   -118.39381   -1644.0089    4.2468394    4.2468394    4.2468394   -1644.0089   -14990.622    10715.852   -657.25654    3310.9769   -1431.7955   -2650.9078     76.59449 
   90800    558.67017   -118.90351   0.50549651   -118.39802   -498.07855    4.2470461    4.2470461    4.2470461   -498.07855    -33538.22    4202.7052     27841.28   -19966.237    5365.5466   -6452.4762    76.605673 
   90900     493.6413   -118.84391   0.44665702   -118.39725    6194.6021     4.240697     4.240697     4.240697    6194.6021   -38455.305    20424.633    36614.479   -9218.2207   -5969.7232   -4401.7445    76.262621 
   91000    953.84897   -119.25843   0.86306259   -118.39537   -3052.0121    4.2453149    4.2453149    4.2453149   -3052.0121   -34773.926    16683.722    8934.1676    10534.326   -15367.127   -1309.7821    76.512032 
   91100    1055.5375    -119.3515   0.95507251   -118.39642   -4107.1566    4.2449178    4.2449178    4.2449178   -4107.1566   -18075.492    9340.3691   -3586.3468   -7582.5937    572.48529   -91.542586    76.490564 
   91200     747.9571   -119.07534    0.6767673   -118.39857    2143.6079    4.2394858    4.2394858    4.2394858    2143.6079   -22825.868    18190.381    11066.311   -18143.424     10412.09    -658.8783    76.197296 
   91300    636.61055    -118.9774    0.5760186   -118.40138   -4652.7907    4.2437963    4.2437963    4.2437963   -4652.7907   -44354.015    12757.193    17638.451    4652.8897   -6409.6088   -2657.8825    76.429955 
   91400    812.25243   -119.13636   0.73494307   -118.40142   -4262.2769    4.2445951    4.2445951    4.2445951   -4262.2769   -26130.741    8201.9515    5141.9588    15600.732   -8960.6283    -2659.573    76.473122 
   91500    979.08056   -119.28384   0.88589266   -118.39794   -2925.4997    4.2451685    4.2451685    4.2451685   -2925.4997   -11633.523    7559.6412   -4702.6169   -990.41617    9282.7039     2121.411    76.504113 
   91600    850.38277   -119.16389    0.7694442   -118.39445   -2261.9437    4.2468142    4.2468142    4.2468142   -2261.9437    -30524.89    5431.4811    18307.578   -5136.1845    8696.7254    3877.3618    76.593123 
   91700    565.29263   -118.90758   0.51148865   -118.39609    5687.1477    4.2479897    4.2479897    4.2479897    5687.1477   -31540.237      7624.11     40977.57    11758.715    -7176.008   -7263.1852    76.656742 
   91800    623.44659   -118.95839   0.56410758   -118.39429   -187.48215     4.250988     4.250988     4.250988   -187.48215   -17406.796    3653.6144    13190.735    10614.662   -2112.3761   -11846.998    76.819174 
   91900    973.98745   -119.27054   0.88128432   -118.38926    2314.5651    4.2433648    4.2433648    4.2433648    2314.5651   -8812.5808    19988.202   -4231.9262   -4168.3335    12941.015    323.36965    76.406639 
   92000    969.38963   -119.26578   0.87712411   -118.38866   -2721.4808    4.2450537    4.2450537    4.2450537   -2721.4808   -24401.317    17881.425   -1644.5512    5888.1563    10869.599    3457.7918    76.497911 
   92100    725.13318   -119.04966   0.65611574   -118.39355   -6183.2172    4.2491844    4.2491844    4.2491844   -6183.2172   -19924.373    2303.9453   -929.22346     22645.37   -3424.6295   -5439.7328    76.721438 
   92200    658.84763   -118.99289   0.59613918   -118.39675     2608.362    4.2418664    4.2418664    4.2418664     2608.362    4357.6368    16985.488   -13518.039    8584.8871   -1929.1747   -4889.5852    76.325727 
   92300    736.53381    -119.0655   0.66643127   -118.39907    1203.1647    4.2425743    4.2425743    4.2425743    1203.1647    1345.3013    21303.196   -19039.003   -8559.0152    10025.174    7506.7712    76.363948 
   92400    899.50938   -119.21013   0.81389499   -118.39623   -4649.1302    4.2466767    4.2466767    4.2466767   -4649.1302    -18890.44    1852.4991    3090.5499   -2182.8939     7524.998    9340.5808    76.585687 
   92500    1009.0028   -119.30831   0.91296695   -118.39534   -3190.6342    4.2432355    4.2432355    4.2432355   -3190.6342   -9161.2416    796.70184   -1207.3629    6148.6002   -6416.6653   -2979.8613    76.399658 
   92600    796.55074   -119.12154   0.72073584    -118.4008   -1878.3465    4.2411616    4.2411616    4.2411616   -1878.3465    3979.6899    15542.308   -25157.037    8020.9771   -7556.4228    -7910.452    76.287687 
   92700    549.30855   -118.90152   0.49702592   -118.40449   -21.796497    4.2419335    4.2419335    4.2419335   -21.796497   -6041.1479    18190.369   -12214.611   -2672.2879    6903.0299    4236.2231    76.329351 
   92800    667.30993   -119.00666   0.60379604   -118.40286   -5725.1163    4.2451477    4.2451477    4.2451477   -5725.1163   -21505.813    6620.6543   -2290.1905    -19402.44     6147.058    8149.8114    76.502989 
   92900    939.94978   -119.25029   0.85048632   -118.39981    462.16817    4.2413693    4.2413693    4.2413693    462.16817   -8459.4634    15323.401    -5477.433   -13109.835   -11119.489   -2950.7598    76.298896 
   93000    1023.1262   -119.32491   0.92574611   -118.39916    4992.6342    4.2401612    4.2401612    4.2401612    4992.6342    3150.5252    21494.269   -9666.8911    6580.9724   -10526.381   -5024.0244     76.23372 
   93100    772.23611   -119.09899   0.69873546   -118.40025   -2959.6978    4.2474167    4.2474167    4.2474167   -2959.6978   -13052.527     9178.446   -5005.0125   -1845.3707    6919.6356     394.7789    76.625728 
   93200    568.58917   -118.91457   0.51447143    -118.4001   -600.71315    4.2456111    4.2456111    4.2456111   -600.71315   -19971.893    9650.0409    8519.7132   -19899.996    6072.6257    2127.7646    76.528046 
   93300     812.7216   -119.13137   0.73536758     -118.396   -4002.7814    4.2442913    4.2442913    4.2442913   -4002.7814   -21543.488    13105.077   -3569.9339   -9186.1094   -12350.689   -2957.2009    76.456698 
   93400    944.21939   -119.24585   0.85434955    -118.3915   -7695.8486    4.2505045    4.2505045    4.2505045   -7695.8486   -23660.457    18989.278   -18416.366    5633.6059    -8811.491   -3157.1617    76.792969 
   93500    692.95899   -119.01595   0.62700386   -118.38895    3014.2326    4.2521529    4.2521529    4.2521529    3014.2326   -16090.776     12398.02    12735.454   -9393.5746    15030.304    7361.1984    76.882345 
   93600    828.94561   -119.13265    0.7500474    -118.3826   -3595.2542     4.252005     4.252005     4.252005   -3595.2542   -19491.796   -8745.1227    17451.156   -11616.585    7237.0974    7606.2856    76.874323 
   93700    976.99671   -119.26208   0.88400715   -118.37807   -7139.4017    4.2489003    4.2489003    4.2489003   -7139.4017   -27602.248    668.26271      5515.78    6714.0835   -10637.455     -3512.77    76.706052 
   93800    595.71196   -118.92514    0.5390127   -118.38612   -517.62577    4.2495785    4.2495785    4.2495785   -517.62577   -33931.109    20054.667    12323.564    5987.1022    8450.7478   -4738.3693    76.742788 
   93900    588.17917    -118.9236   0.53219687    -118.3914    4774.4575     4.246961     4.246961     4.246961    4774.4575   -21387.578    16280.151      19430.8    -6692.796    18286.454    3061.2732    76.601069 
   94000    999.98368   -119.29275   0.90480624   -118.38794    5437.9086    4.2417926    4.2417926    4.2417926    5437.9086   -167.28646   -2306.6032    18787.616   -4577.8309   -1684.1381    3613.2153    76.321746 
   94100    946.26795   -119.24664   0.85620313   -118.39043   -10748.091    4.2491057    4.2491057    4.2491057   -10748.091   -16184.828   -16552.348     492.9012    6172.4751   -2986.6524    -4663.192    76.717173 
   94200    610.78126   -118.95074   0.55264772   -118.39809   -4336.4992     4.245733     4.245733     4.245733   -4336.4992   -33131.002    1325.5642     18795.94     5081.851    20109.778   -3324.2854    76.534641 
   94300     676.7808   -119.01057   0.61236549    -118.3982    8736.4858    4.2382598    4.2382598    4.2382598    8736.4858   -19468.291    8338.3264    37339.422   -2061.8142    16336.951    5351.9538    76.131209 
   94400    930.04656     -119.235   0.84152567   -118.39347   -5288.6022    4.2480967    4.2480967    4.2480967   -5288.6022   -2175.9962     -23826.8    10136.989   -1336.0251    -4417.912     1089.881    76.662537 
   94500    747.69589   -119.07355   0.67653096   -118.39702    842.62633    4.2460514    4.2460514    4.2460514    842.62633    17846.118   -31558.067    16239.828    3739.0367    5303.8604   -8586.6021    76.551861 
   94600    565.02585   -118.91161   0.51124727   -118.40036    1936.7486    4.2410868    4.2410868    4.2410868    1936.7486   -10236.159   -15281.771    31328.175    2432.2976    22688.916    -4775.904    76.283652 
   94700    819.29088   -119.14046   0.74131161   -118.39915   -3868.4744    4.2426901    4.2426901    4.2426901   -3868.4744     -23546.8   -6529.1614    18470.539   -4059.2982    11004.795    618.00338    76.370202 
   94800    1219.2929   -119.49735    1.1032419   -118.39411   -10792.145    4.2464474    4.2464474    4.2464474   -10792.145      253.788   -19767.392   -12862.832    1539.3468   -9201.9692   -3764.8329    76.573279 
   94900    895.38581   -119.21124    0.8101639   -118.40108   -5103.5823    4.2436977    4.2436977    4.2436977   -5103.5823    11000.725   -27583.546     1272.074    9830.2212    2074.4893    -9242.902    76.424624 
   95000    257.53503   -118.63873   0.23302311   -118.40571    4501.2509    4.2411872    4.2411872    4.2411872    4501.2509    1494.5546   -17558.921    29568.119    1073.3125    23826.038   -3420.9228     76.28907 
   95100    596.32266   -118.94472   0.53956528   -118.40516   -4742.5195    4.2462557    4.2462557    4.2462557   -4742.5195   -1733.9282   -19840.858    7347.2281   -9349.6603    13280.979    6043.4975    76.562909 
   95200    1359.4431   -119.62767    1.2300526   -118.39761    14.020838    4.2408992    4.2408992    4.2408992    14.020838    19902.964   -14136.083   -5724.8183   -382.70121   -10940.305     4621.684    76.273532 
   95300    1071.4582   -119.36953   0.96947786   -118.40005   -2609.1122    4.2411278    4.2411278    4.2411278   -2609.1122   -8888.2159   -11417.664    12478.543    7811.9991   -2071.0918   -4911.6748    76.285865 
   95400    394.54325   -118.76462   0.35699102   -118.40763    130.00065    4.2420079    4.2420079    4.2420079    130.00065   -13500.603   -10986.072    24876.676   -2288.9062    20178.075   -3341.9947    76.333368 
   95500    523.80423   -118.88394   0.47394907   -118.40999    4786.4634    4.2420397    4.2420397    4.2420397    4786.4634    22619.739   -23697.576    15437.227   -8419.1587    13809.501    9733.4251    76.335081 
   95600    1003.3224   -119.31324   0.90782715   -118.40541   -4079.4226    4.2441849    4.2441849    4.2441849   -4079.4226    16163.986   -36495.456    8093.2016   -173.75938    -9619.779    9054.5056    76.450948 
   95700    888.34875   -119.20185   0.80379661   -118.39805    2723.1199     4.240502     4.240502     4.240502    2723.1199   -2170.1729   -11710.681    22050.214    2206.2457   -3840.6031   -3930.9908    76.252104 
   95800    733.67088   -119.06562   0.66384083   -118.40178   -2153.2396    4.2460757    4.2460757    4.2460757   -2153.2396   -18998.056   -2308.4207    14846.758   -5773.8693    21807.971   -2640.3881    76.553175 
   95900     859.4593   -119.17967   0.77765684   -118.40201     1134.213    4.2438237    4.2438237    4.2438237     1134.213    6879.0428   -17308.051    13831.647   -7613.9881    19527.408    7669.5769    76.431434 
   96000    855.83606   -119.17225   0.77437846   -118.39787   -2261.5611    4.2419418    4.2419418    4.2419418   -2261.5611      6716.13   -29859.583     16358.77   -720.22391   -4774.6228    4872.9168    76.329797 
   96100    673.76875   -119.00731   0.60964012   -118.39767   -7961.9172    4.2463034    4.2463034    4.2463034   -7961.9172   -22432.997   -7836.8266    6384.0716    4952.3834     2469.549   -7166.1551    76.565489 
   96200    650.54356   -118.98969   0.58862549   -118.40106    2074.4844     4.243416     4.243416     4.243416    2074.4844   -23733.828    20275.437    9681.8441    -2599.361    25610.336   -5362.7475    76.409405 
   96300    787.44158   -119.11462   0.71249369   -118.40212    1574.1305    4.2439272    4.2439272    4.2439272    1574.1305   -17128.178    6571.3455    15279.224   -14197.409    12916.855    4346.5664    76.437023 
   96400    967.14719   -119.26998    0.8750951   -118.39488   -5483.5928    4.2444632    4.2444632    4.2444632   -5483.5928   -21813.625   -10573.926    15936.772    -9012.135   -9084.5689     2481.569    76.465992 
   96500    967.03447   -119.27057   0.87499311   -118.39558   -3453.5438    4.2438152    4.2438152    4.2438152   -3453.5438   -20547.866     3610.349    6576.8855    4750.1568    10027.654   -2848.0895    76.430973 
   96600    807.81156   -119.13165   0.73092487   -118.40072   -4473.7823    4.2458971    4.2458971    4.2458971   -4473.7823   -18203.358    8072.0672   -3290.0562    1506.8507    22231.474   -5045.1518    76.543515 
   96700    656.49632   -118.99437   0.59401166   -118.40036    3485.9008    4.2408556    4.2408556    4.2408556    3485.9008   -18297.532    13957.797    14797.438   -15299.849   -1023.6607   -1791.0504    76.271181 
   96800    722.80146   -119.05294   0.65400595   -118.39893    -1789.277    4.2447855    4.2447855    4.2447855    -1789.277   -34107.478     16129.28    12610.367   -8269.1638   -12533.878    5312.5484    76.483411 
   96900    856.11479   -119.17157   0.77463066   -118.39694   -1948.1798    4.2466229    4.2466229    4.2466229   -1948.1798   -16596.712    17951.302   -7199.1292     12299.34    5705.9619    2865.0378    76.582775 
   97000    812.84795   -119.13298   0.73548191    -118.3975    6408.8423    4.2429275    4.2429275    4.2429275    6408.8423    7969.3292    17733.462   -6476.2646     2180.609    12632.516   -5748.1954     76.38302 
   97100    776.22658   -119.09788   0.70234612   -118.39553    -3341.521    4.2472442    4.2472442    4.2472442    -3341.521   -15569.066    8301.6817   -2757.1783   -21734.842    -1365.188   -6013.6795    76.616392 
   97200    787.82896   -119.10484    0.7128442   -118.39199   -3139.9089    4.2455846    4.2455846    4.2455846   -3139.9089   -43834.579    27820.876    6593.9769   -3267.7543   -4257.9443    3309.4828    76.526617 
   97300    631.95415   -118.96705    0.5718054   -118.39524    2935.9033    4.2430473    4.2430473    4.2430473    2935.9033   -18040.662    24784.576    2063.7964    26982.241    6092.6409   -885.67571    76.389494 
   97400    689.71515   -119.01956   0.62406876   -118.39549    90.805842    4.2483048    4.2483048    4.2483048    90.805842    6364.4128    11383.205     -17475.2    11612.126    3522.6324   -9350.6161    76.673803 
   97500    938.79635   -119.23789   0.84944267   -118.38845    1928.4724    4.2481641    4.2481641    4.2481641    1928.4724   -13742.235    28652.337   -9124.6855   -8106.3284   -6613.1978    -793.6352    76.666185 
   97600    772.13722   -119.08624   0.69864599    -118.3876    511.21062    4.2479587    4.2479587    4.2479587    511.21062   -41523.345     19177.14    23879.837    12941.135   -592.05369    7542.1367    76.655065 
   97700    632.42024   -118.96273   0.57222712    -118.3905    5667.7313     4.246664     4.246664     4.246664    5667.7313   -17341.083    7967.9011    26376.375    17593.246    11322.629    1487.6061    76.584995 
   97800    850.00453   -119.15536   0.76910196   -118.38626   -6041.9373    4.2528498    4.2528498    4.2528498   -6041.9373   -1398.5016    404.29373   -17131.604   -4913.2499    1187.8592   -5702.1505     76.92015 
   97900    929.09277   -119.22226   0.84066266    -118.3816   -8207.1306    4.2502559    4.2502559    4.2502559   -8207.1306   -7492.2174   -715.06563   -16414.109   -1819.6994   -12671.177   -5360.8997    76.779491 
   98000      781.848   -119.09071    0.7074325   -118.38328   -368.94068    4.2441696    4.2441696    4.2441696   -368.94068   -22446.695    5044.6842    16295.189    19110.016   -241.30711    -329.3373    76.450122 
   98100    733.16953   -119.05246    0.6633872   -118.38907   -2266.5475    4.2467183    4.2467183    4.2467183   -2266.5475    -18468.44    1282.7984    10385.999    13335.293    13286.549    1199.0995    76.587934 
   98200    878.81774   -119.18614   0.79517276   -118.39097   -1115.5211    4.2459121    4.2459121    4.2459121   -1115.5211   -6268.9699    3172.6653   -250.25869   -8224.7573    687.73645   -660.92884    76.544325 
   98300    875.19961   -119.18278     0.791899   -118.39088    227.25668    4.2436958    4.2436958    4.2436958    227.25668   -16109.049     6353.473    10437.347    2668.7456   -12509.224    552.39478    76.424524 
   98400    745.40468   -119.06837   0.67445782   -118.39391   -2100.3933    4.2457366    4.2457366    4.2457366   -2100.3933   -21798.208    949.10504    14547.923    22882.568    903.40152    4065.9006    76.534833 
   98500    744.80815   -119.06805   0.67391806   -118.39414   -4414.9356    4.2487937    4.2487937    4.2487937   -4414.9356   -2249.8733   -3908.1927   -7086.7409    10064.297    17568.201    1994.9242    76.700276 
   98600    846.07726   -119.15705   0.76554849    -118.3915   -2988.4094    4.2469148    4.2469148    4.2469148   -2988.4094    1805.8258    8742.7239   -19513.778   -9552.4615    8387.9092   -3623.4944    76.598565 
   98700    859.67773   -119.16829   0.77785447   -118.39043    3452.1711     4.243219     4.243219     4.243219    3452.1711   -4515.2228    16129.904   -1258.1683   -344.43713   -8693.8713   -2252.7521    76.398767 
   98800    840.55728   -119.15274   0.76055389   -118.39219   -733.36915    4.2462404    4.2462404    4.2462404   -733.36915    -9253.917    4272.6745    2781.1351    9873.8138    1615.7325    1886.9304    76.562081 
   98900    670.32015   -119.00269   0.60651976   -118.39617    3719.9938    4.2444367    4.2444367    4.2444367    3719.9938   -2805.4387     17648.64   -3683.2201    2575.6878    21254.643   -3291.9479    76.464557 
   99000    623.26739   -118.96185   0.56394543   -118.39791    1072.1852    4.2447877    4.2447877    4.2447877    1072.1852    2767.1175    17499.902   -17050.464   -8012.6593    9168.4416   -9181.4109    76.483532 
   99100    878.59726   -119.18953   0.79497326   -118.39455   -3227.1025    4.2458945    4.2458945    4.2458945   -3227.1025   -6764.6462     3278.348   -6195.0092   -6930.1141   -9487.0407   -2435.1258    76.543374 
   99200    961.68736   -119.26151   0.87015494   -118.39136    -4173.954    4.2462861    4.2462861    4.2462861    -4173.954   -13330.776   -3846.1621    4655.0764    498.13307    8115.7159    5453.9183    76.564554 
   99300    762.92295   -119.08355   0.69030871   -118.39324   -6197.2596    4.2483506    4.2483506    4.2483506   -6197.2596   -2318.8839   -268.96368   -16003.931    1026.5562    27158.244   -12.024846     76.67628 
   99400    792.59758    -119.1086   0.71715895   -118.39144   -3014.2903      4.24595      4.24595      4.24595   -3014.2903     4892.141    9353.5375   -23288.549   -3796.6183    6491.8658   -5149.4474    76.546375 
   99500    921.56422   -119.22186   0.83385067     -118.388   -6479.9389    4.2485961    4.2485961    4.2485961   -6479.9389   -8539.8981     9638.168   -20538.087    -9253.087   -9032.9055    2690.7575    76.689579 
   99600    638.36101   -118.96705   0.57760246   -118.38945    2915.4099    4.2495871    4.2495871    4.2495871    2915.4099   -8020.7354    23051.205   -6284.2399   -4037.4792    19067.461    4226.7733    76.743254 
   99700    684.84372   -119.00847   0.61966099   -118.38881    10491.278    4.2474036    4.2474036    4.2474036    10491.278   -4270.4609    29734.712    6009.5826    432.87923    23563.493   -8406.7384    76.625019 
   99800    970.22225   -119.26291   0.87787748   -118.38503    4833.0198    4.2491582    4.2491582    4.2491582    4833.0198   -7442.2741    19559.693    2381.6406   -5066.1516   -6754.0439   -12750.803    76.720019 
   99900     727.1527   -119.04438   0.65794304   -118.38644   -1676.9825    4.2493167    4.2493167    4.2493167   -1676.9825    -10703.88    5094.4465    578.48633    -6669.472    3561.5917    1275.1691    76.728607 
  100000     540.9176   -118.88139   0.48943361   -118.39196   -1837.9081    4.2463706    4.2463706    4.2463706   -1837.9081    1396.5143    814.17423    -7724.413   -3660.9422    30245.617    11915.968    76.569123 
Loop time of 221.761 on 1 procs for 100000 steps with 8 atoms

Pair  time (%) = 70.4476 (31.7673)
Kspce time (%) = 58.875 (26.5489)
Neigh time (%) = 0 (0)
Comm  time (%) = 11.1924 (5.04706)
Outpt time (%) = 0.298089 (0.134419)
Other time (%) = 80.9478 (36.5023)

Nlocal:    8 ave 8 max 8 min
Histogram: 1 0 0 0 0 0 0 0 0 0
Nghost:    2189 ave 2189 max 2189 min
Histogram: 1 0 0 0 0 0 0 0 0 0
Neighs:    2472 ave 2472 max 2472 min
Histogram: 1 0 0 0 0 0 0 0 0 0

Total # of neighbors = 2472
Ave neighs/atom = 309
Neighbor list builds = 0
Dangerous builds = 0
unfix 20
unfix 21
print "seeds:4640459"
seeds:4640459
